
units lj                  # Use reduced LJ style units
atom_style atomic         # Uncharged point particles
atom_modify map hash      # Needed for indexing of clusters etc
                          # Used to be able to find where atoms are in relation to each other.

lattice fcc 1.0 spacing 1 1 1
Lattice spacing in x,y,z = 1.5874011 1.5874011 1.5874011
region box block 0 10 0 10 0 10 units lattice
create_box 2 box
Created orthogonal box = (0.0000000 0.0000000 0.0000000) to (15.874011 15.874011 15.874011)
  3 by 4 by 4 MPI processor grid
create_atoms 1 box
Created 4000 atoms
  using lattice units in orthogonal box = (0.0000000 0.0000000 0.0000000) to (15.874011 15.874011 15.874011)
  create_atoms CPU = 0.003 seconds
set type 1 type/fraction 2 0.2 78393
Setting atom values ...
  836 settings made for type/fraction
mass 1 1.0
mass 2 1.0
pair_style lj/cut  3.5
pair_modify tail  yes
pair_coeff 1  1  1.0  1.0   # Intearaction between 1 and 1 set with epsilon = 1 and sigma = 1
pair_coeff 1  2  1.5  0.8
pair_coeff 2  2  0.5  0.88

write_data data.0
System init for write_data ...
Neighbor list info ...
  update every 1 steps, delay 10 steps, check yes
  max neighbors/atom: 2000, page size: 100000
  master list distance cutoff = 3.8
  ghost atom cutoff = 3.8
  binsize = 1.9, bins = 9 9 9
  1 neighbor lists, perpetual/occasional/extra = 1 0 0
  (1) pair lj/cut, perpetual
      attributes: half, newton on
      pair build: half/bin/atomonly/newton
      stencil: half/bin/3d
      bin: standard
WARNING: Not all mixed pair coeffs generated from mixing. Use write_data with 'pair ij' option to store all pair coeffs. (../write_data.cpp:312)


#############################
#   M E L T   S Y S T E M   #
#############################

velocity all create 2.4 5833274 mom yes dist gaussian # Assign velocities
                                                    # Temperature 2.4, random number seed, zero linear momentum
                                                                                # Gaussian distribution

timestep 0.002   # simulation timestep
thermo 1000       # output thermodynamic data every 1000 steps bf 100

# Define a fix  in this case with index 1 applied to all
# particles in the simulation. This fix is for simulations
# in the anisotropic NPT ensemble. Note that we use the MTK
# correction.
fix 1 all npt temp 2.4 2.4 0.1 iso 5.68 5.68 0.5 mtk yes tchain 5 pchain 5 # Use NPT ensemble
                                                                         # Set temperature and pressure and damping
                                                                         # Numbers of thermostats in chain and in barostat
run 10000          # run for 10000 steps
Per MPI rank memory allocation (min/avg/max) = 3.642 | 3.644 | 3.648 Mbytes
Step Temp E_pair E_mol TotEng Press Volume 
       0          2.4   -7.0365901            0   -3.4374901   -3.6176696         4000 
    1000    2.4195412    -4.853981            0   -1.2255766    5.5858925    4471.9867 
    2000    2.3467783   -4.8180316            0   -1.2987441     5.430294    4507.5277 
    3000    2.4036182   -4.8638513            0   -1.2593254    5.7067355    4450.7412 
    4000    2.3873778   -4.8227102            0   -1.2425388    5.5753214    4483.8737 
    5000    2.3743149   -4.8172636            0   -1.2566816    5.5894004    4494.8174 
    6000    2.4032313   -4.8819532            0   -1.2780074     5.398384    4472.0144 
    7000    2.3926683   -4.9108186            0   -1.3227134    5.3111399    4470.8914 
    8000     2.377848   -4.7963545            0   -1.2304742    5.6669263    4486.2392 
    9000    2.3787562   -4.8373267            0   -1.2700845    5.5287756    4481.5136 
   10000    2.4240121   -4.7998185            0   -1.1647094    5.9604803    4447.5069 
Loop time of 2.29177 on 48 procs for 10000 steps with 4000 atoms

Performance: 754002.793 tau/day, 4363.442 timesteps/s
99.7% CPU use with 48 MPI tasks x no OpenMP threads

MPI task timing breakdown:
Section |  min time  |  avg time  |  max time  |%varavg| %total
---------------------------------------------------------------
Pair    | 0.9933     | 1.0395     | 1.1873     |   3.4 | 45.36
Neigh   | 0.19858    | 0.20651    | 0.23522    |   1.2 |  9.01
Comm    | 0.62683    | 0.79465    | 0.8543     |   4.5 | 34.67
Output  | 0.00024155 | 0.0002466  | 0.0003139  |   0.0 |  0.01
Modify  | 0.2091     | 0.23608    | 0.27346    |   3.7 | 10.30
Other   |            | 0.01474    |            |       |  0.64

Nlocal:        83.3333 ave          93 max          75 min
Histogram: 3 4 7 6 5 8 8 4 0 3
Nghost:        1541.42 ave        1568 max        1511 min
Histogram: 1 2 5 4 9 6 11 5 3 2
Neighs:        8578.94 ave        9851 max        7474 min
Histogram: 3 3 6 6 9 8 7 3 1 2

Total # of neighbors = 411789
Ave neighs/atom = 102.94725
Neighbor list builds = 910
Dangerous builds = 213

# Equilibrate just above the melting temperature to avoid step fn in T

fix 1 all npt temp 1.25 1.25 0.1 iso 5.68 5.68 0.5 mtk yes tchain 5 pchain 5
run 2000
Per MPI rank memory allocation (min/avg/max) = 3.642 | 3.645 | 3.649 Mbytes
Step Temp E_pair E_mol TotEng Press Volume 
   10000    2.4240121   -4.7998185            0   -1.1647094    5.9604803    4447.5069 
   11000    1.2231032   -6.5374331            0   -4.7032369    5.6290911    3652.1654 
   12000    1.2523202   -6.5635495            0   -4.6855388    5.6806086    3641.3976 
Loop time of 0.509605 on 48 procs for 2000 steps with 4000 atoms

Performance: 678171.838 tau/day, 3924.606 timesteps/s
99.7% CPU use with 48 MPI tasks x no OpenMP threads

MPI task timing breakdown:
Section |  min time  |  avg time  |  max time  |%varavg| %total
---------------------------------------------------------------
Pair    | 0.22849    | 0.2486     | 0.27479    |   2.0 | 48.78
Neigh   | 0.032657   | 0.034568   | 0.03691    |   0.6 |  6.78
Comm    | 0.13988    | 0.17235    | 0.19634    |   2.7 | 33.82
Output  | 5.1963e-05 | 5.285e-05  | 6.7185e-05 |   0.0 |  0.01
Modify  | 0.042125   | 0.04929    | 0.055885   |   1.7 |  9.67
Other   |            | 0.00474    |            |       |  0.93

Nlocal:        83.3333 ave          90 max          77 min
Histogram: 3 3 5 10 5 5 8 3 0 6
Nghost:        1748.52 ave        1781 max        1725 min
Histogram: 3 5 9 7 7 2 12 2 0 1
Neighs:        10462.8 ave       11628 max        9428 min
Histogram: 2 3 5 9 10 4 7 4 1 3

Total # of neighbors = 502215
Ave neighs/atom = 125.55375
Neighbor list builds = 141
Dangerous builds = 10

#############################
# L I N E A R  Q U E N C H  #
#############################

# Define solid atoms. This closely follows ten Wolde  Ruiz-Montero and Frenkel  Faraday Discuss  1996  104  93-110
# Compute components of the per-atom q6 vector
compute q6 all orientorder/atom degrees 1 6 components 6 nnn NULL cutoff 1.3 # compute the Q6 parameter.
                                                                             # Use all neighbours within 1.3 unit cell.

# get number of connections
compute coord_number all coord/atom orientorder q6 0.5

# An atom is solid if it has 8 or more connections (of a possible 14)
variable is_solid atom c_coord_number>=8
group solid dynamic all var is_solid    # Must be dynamic to update
dynamic group solid defined

# do clustering
compute cluster solid cluster/atom 1.3 # Create a cluster where all atoms within are solid and max 1.3 units from another member

# define chunks one chunk per cluster
compute clus_chunks solid chunk/atom c_cluster nchunk every compress yes  # Says which atoms are in which chunk

# count the size of each chunk
compute size_chunks solid property/chunk clus_chunks count


# Find the maximum entry in the vector of chunk sizes
variable max_n equal max(c_size_chunks)


# Thermo style which includes this variable
# thermo_style custom step temp pe vol v_max_n

thermo ${N}  # Print the thermo information every 100 steps
thermo 1000  

# Reset the npt fix at a lower temperature (below freezing)
fix 1  all npt temp  ${temp} ${temp}  0.1  iso  5.68  5.68  0.5  mtk yes tchain  5  pchain  5
fix 1  all npt temp  0.45 ${temp}  0.1  iso  5.68  5.68  0.5  mtk yes tchain  5  pchain  5
fix 1  all npt temp  0.45 0.45  0.1  iso  5.68  5.68  0.5  mtk yes tchain  5  pchain  5

dump dmp2 all dcd ${N} traj.dcd
dump dmp2 all dcd 1000 traj.dcd


compute msd all msd com yes
variable twopoint equal c_msd[4]/6/(step*dt+1.0e-6)
fix 9 all vector 10 c_msd[4]
variable fit equal slope(f_9)/6/(10*dt)
thermo_style custom step temp pe c_msd[4] v_twopoint v_fit v_max_n

fix 1 all npt temp 1.25 ${temp} 0.1 iso 5.68 5.68 0.5 mtk yes tchain 5 pchain 5
fix 1 all npt temp 1.25 0.45 0.1 iso 5.68 5.68 0.5 mtk yes tchain 5 pchain 5
run 5000000 # 5000000  # Run for this many steps
Neighbor list info ...
  update every 1 steps, delay 10 steps, check yes
  max neighbors/atom: 2000, page size: 100000
  master list distance cutoff = 3.8
  ghost atom cutoff = 3.8
  binsize = 1.9, bins = 9 9 9
  4 neighbor lists, perpetual/occasional/extra = 1 3 0
  (1) pair lj/cut, perpetual
      attributes: half, newton on
      pair build: half/bin/atomonly/newton
      stencil: half/bin/3d
      bin: standard
  (2) compute orientorder/atom, occasional
      attributes: full, newton on
      pair build: full/bin/atomonly
      stencil: full/bin/3d
      bin: standard
  (3) compute coord/atom, occasional
      attributes: full, newton on
      pair build: full/bin/atomonly
      stencil: full/bin/3d
      bin: standard
  (4) compute cluster/atom, occasional
      attributes: full, newton on
      pair build: full/bin/atomonly
      stencil: full/bin/3d
      bin: standard
Per MPI rank memory allocation (min/avg/max) = 9.775 | 9.781 | 9.788 Mbytes
Step Temp PotEng c_msd[4] v_twopoint v_fit v_max_n 
   12000    1.2523202   -6.5635495 1.0121085e-30 7.0285312e-33 8.3333333e+20            1 
   13000     1.251794    -6.569769   0.55584245 0.0035630925   0.04520508            1 
   14000    1.2125059   -6.5418624    1.0777512 0.0064151855  0.045107166            2 
   15000    1.2504441   -6.5554078    1.5536225 0.0086312356  0.042505803            2 
   16000    1.2300745    -6.547545    2.0208128  0.010525066    0.0416575            2 
   17000    1.2579474    -6.611137    2.4918885   0.01221514   0.04100168            3 
   18000    1.2631108   -6.5488497    3.0402464  0.014075215  0.041022319            2 
   19000    1.2268709   -6.5597351    3.5744511  0.015677417  0.041388735            2 
   20000    1.2513285   -6.5540782    4.1635572  0.017348155  0.042139746            4 
   21000    1.2377627   -6.5889898    4.7212097  0.018734959  0.042790582            1 
   22000     1.277054   -6.5681449    5.3211149  0.020155738  0.043490951            2 
   23000    1.2856709   -6.5441138    5.8990805   0.02137348  0.044111164            1 
   24000    1.2637721   -6.5589524    6.4164287  0.022279266   0.04454623            2 
   25000    1.2503305     -6.60503    7.0070641   0.02335688  0.044659269            1 
   26000    1.2439816   -6.5561746    7.5465547  0.024187675  0.044937022            2 
   27000    1.2487931   -6.5723584    8.0501958  0.024846283  0.045022908            1 
   28000    1.2158318   -6.5844828    8.7220614  0.025958516  0.045208593            5 
   29000    1.2606171   -6.5730632    9.3036995  0.026734768  0.045475079            2 
   30000    1.2739778   -6.5739783    9.8208034  0.027280009  0.045655962            1 
   31000    1.2782239   -6.5491544    10.343462  0.027805006  0.045724789            3 
   32000    1.2075395   -6.5910441    10.839966  0.028229077  0.045751221            1 
   33000    1.2266247   -6.5647118    11.308601  0.028557072   0.04571524            2 
   34000    1.2518555    -6.558102    11.790669  0.028898698  0.045611869            1 
   35000    1.2687813   -6.5431477    12.225269  0.029107784  0.045437742            2 
   36000    1.2762034   -6.5858021    12.846049  0.029736224  0.045298293            3 
   37000    1.2514585   -6.5649388    13.348749  0.030064749  0.045222589            2 
   38000    1.2639974   -6.5896862    13.917651  0.030521163  0.045147114            2 
   39000    1.2729201    -6.558277    14.498519   0.03097974  0.045109553            2 
   40000    1.2772934   -6.5227245    15.028601  0.031309584  0.045056677            2 
   41000    1.2731112   -6.5700649    15.474685  0.031452611  0.044950546            3 
   42000     1.231459   -6.5575718    15.849522  0.031447463  0.044855082            1 
   43000    1.2393832   -6.6033393    16.574906   0.03212191  0.044782894            1 
   44000      1.25514   -6.5678676    17.101628  0.032389447  0.044778924            2 
   45000    1.2693992   -6.5202961    17.560484  0.032519415  0.044756342            2 
   46000      1.25122   -6.5602047    18.051533  0.032702052  0.044691768            1 
   47000    1.2331723   -6.6671684    18.678557  0.033118008  0.044661199            2 
   48000    1.2364313   -6.6133207     18.94764  0.032895208  0.044600116            1 
   49000    1.2350633   -6.5573392    19.403378  0.032998942  0.044486922            2 
   50000    1.2276973   -6.5720396    19.823247  0.033038744  0.044355624            1 
   51000    1.2286506   -6.6092821     20.12391  0.032882206  0.044185283            1 
   52000    1.2443283   -6.5596495     20.72908   0.03321968  0.044010758            1 
   53000    1.2399243   -6.6133604    21.082444  0.033148496  0.043860741            2 
   54000    1.2450372    -6.587828    21.695889  0.033481309  0.043710122            2 
   55000     1.228927   -6.5864947    22.070203  0.033439701  0.043563584            2 
   56000    1.2632477   -6.5865776    22.451615  0.033410142  0.043411636            1 
   57000    1.2283344   -6.5775541    22.945555  0.033546133  0.043273534            1 
   58000    1.2262325   -6.5782174    23.392482  0.033609887  0.043121431            1 
   59000    1.2652298   -6.5722459    23.826877  0.033653781  0.042967404            1 
   60000    1.2593595   -6.6150422    24.338213  0.033803073  0.042827214            1 
   61000    1.2599722   -6.5677559    24.900242  0.034016723  0.042708022            2 
   62000    1.2331401   -6.6160608    25.353239  0.034076933  0.042597422            3 
   63000    1.2570005   -6.6008758    25.888682  0.034244288  0.042498589            6 
   64000    1.2448989   -6.5628151    26.260316   0.03419312  0.042404985            1 
   65000    1.2572905    -6.598232    26.685676  0.034212404  0.042303306            1 
   66000    1.2703666   -6.5822759    27.265799  0.034426513  0.042204988            1 
   67000    1.2427241   -6.5892415    27.764955  0.034533526  0.042112011            2 
   68000    1.2490268   -6.5725179    28.131506  0.034474885  0.042031391            2 
   69000    1.2558671   -6.5756996    28.580961  0.034518069  0.041952279            1 
   70000    1.2048775   -6.5639866    29.430969  0.035036868  0.041892418            1 
   71000    1.2316566    -6.574093      29.8853  0.035076644  0.041859358            2 
   72000    1.2289621   -6.5750611    30.349412  0.035126635  0.041830436            1 
   73000    1.2021579   -6.5669299    30.812454  0.035174034   0.04178912            3 
   74000     1.260866   -6.6076847    31.159501  0.035089528  0.041743835            1 
   75000     1.226238   -6.5914671    31.562832  0.035069813  0.041697069            2 
   76000    1.2176611   -6.5681189    32.313774   0.03543177  0.041651666            1 
   77000    1.2427928    -6.590101    32.629929  0.035313775  0.041615675            1 
   78000    1.2257293    -6.574913    33.182282  0.035451156  0.041583706            2 
   79000    1.2097667   -6.5769484    33.796796  0.035650628  0.041545754            1 
   80000     1.248415   -6.6019688    34.274719  0.035702832  0.041525085            2 
   81000    1.2137571   -6.5867572    34.729748  0.035730193  0.041508953            2 
   82000    1.2238199   -6.5834788    35.327391   0.03590182  0.041495567            2 
   83000    1.2392497   -6.6125846    35.644538  0.035787688  0.041476334            2 
   84000    1.2696081   -6.6130926    36.109161   0.03582258  0.041445651            3 
   85000    1.1923602   -6.5707293    36.634228  0.035915909  0.041416262            1 
   86000    1.2478161   -6.6040969    36.776669  0.035636307  0.041377097            2 
   87000    1.2234687   -6.5821863    37.412264  0.035835502  0.041337887            2 
   88000    1.2258233   -6.5931942    37.779635  0.035776169  0.041304584            2 
   89000    1.2190788    -6.624659    38.089975   0.03566477  0.041254858            1 
   90000    1.2165805   -6.5506817    38.737213  0.035867789  0.041201616            2 
   91000    1.2424889   -6.5336964     39.28073  0.035971364  0.041155922            1 
   92000    1.2246595   -6.6030424    39.515252    0.0357928  0.041120042            5 
   93000    1.2402196   -6.5968343    40.155433  0.035981571  0.041077758            2 
   94000    1.2760122   -6.5690086    40.573733  0.035969622  0.041044651            3 
   95000    1.2577868   -6.5668371    41.378268  0.036296727  0.041026856            2 
   96000    1.2336486   -6.6073463    42.002148  0.036460198  0.041018962            1 
   97000    1.2371039   -6.5990683    42.616759  0.036612336  0.041018441            2 
   98000    1.2418069   -6.6046511    43.028366  0.036588747  0.041020231            2 
   99000    1.2092683   -6.6082575    43.341169  0.036482466  0.041017841            2 
  100000    1.2402557   -6.5824632    43.940813  0.036617344  0.041005746            1 
  101000    1.2602867   -6.5752967    44.510602  0.036724919  0.041008606            2 
  102000     1.223618   -6.6468168    45.207339  0.036934101  0.041015404            2 
  103000    1.2616766   -6.5969295    45.920714  0.037152681  0.041027174            3 
  104000    1.2013223   -6.5782155    46.375424  0.037159794  0.041046956            4 
  105000    1.2430842   -6.6242483    46.902793  0.037224438  0.041073927            1 
  106000    1.2291665    -6.548391    47.714884  0.037511701  0.041106418            2 
  107000    1.2379078   -6.5813498    48.174063  0.037518741  0.041143271            2 
  108000    1.2140171   -6.5877368    48.778292  0.037637571  0.041174062            1 
  109000    1.2518738    -6.592569    49.376072   0.03774929  0.041208663            2 
  110000    1.2161837   -6.5837283     49.53611  0.037527356  0.041232515            1 
  111000    1.2519325   -6.6126804    50.151215  0.037651062   0.04125427            1 
  112000    1.2449151   -6.5861429    50.912051   0.03788099  0.041284731            2 
  113000    1.2373905   -6.5834417    51.555772  0.038020481  0.041317569            2 
  114000    1.2297443   -6.6123882    51.852398  0.037903799  0.041353688            1 
  115000     1.226124   -6.5551055    52.478388  0.038027817  0.041387238            1 
  116000     1.212075       -6.619    52.922961  0.038019369  0.041417972            2 
  117000    1.2267052   -6.5681109    53.436961  0.038060514  0.041448257            1 
  118000    1.2325033   -6.5694045    53.807544  0.037999678  0.041477978            5 
  119000    1.2402785   -6.6179144    54.279999  0.038011203  0.041497366            1 
  120000     1.260598   -6.5933797    54.633192  0.037939716  0.041512367            1 
  121000    1.2092685    -6.587599    54.939994  0.037837461  0.041517946            3 
  122000    1.2239571   -6.5681501    55.718589  0.038059145  0.041522794            2 
  123000    1.2356074   -6.6123949    55.795818  0.037802045  0.041529938            2 
  124000     1.248675   -6.5878501    56.983899  0.038295631  0.041547829            3 
  125000    1.2154444   -6.5898433     57.54428  0.038362853   0.04157211            2 
  126000    1.2403316    -6.577747    58.243793  0.038521027  0.041596043            3 
  127000    1.2240271   -6.6008023      58.2292  0.038208136  0.041617805            2 
  128000    1.2218467   -6.5626539    58.962578  0.038387095  0.041634667            1 
  129000    1.2196352   -6.6493807    59.059337  0.038152026  0.041647073            1 
  130000    1.2356094    -6.586717    59.856221  0.038369373  0.041658601            2 
  131000     1.223036    -6.623394    60.212251  0.038302959  0.041669305            2 
  132000    1.2239975   -6.5886158    60.841219  0.038409861  0.041685516            2 
  133000    1.2538875   -6.6268887    61.394269  0.038467587  0.041696549            2 
  134000    1.2245402   -6.6105038    61.666086  0.038349556  0.041704284            1 
  135000    1.2338067   -6.5846007    62.577254  0.038627934  0.041713938            1 
  136000    1.2415195   -6.6369752    62.913966  0.038550224  0.041728742            3 
  137000    1.2064092   -6.6138988    63.285501   0.03849483   0.04173653            1 
  138000    1.2399832    -6.557474    63.692729  0.038461793  0.041740931            1 
  139000     1.218406   -6.5880757    64.481756  0.038658127  0.041751151            3 
  140000    1.2133275   -6.6275688    64.631563  0.038471168  0.041763164            2 
  141000    1.2284249   -6.5812047    65.469439  0.038693522      0.04177            2 
  142000    1.2422855   -6.5991485    66.007977  0.038737076  0.041778369            2 
  143000    1.2363404   -6.5860307     66.28207  0.038625915  0.041785208            2 
  144000    1.2452381   -6.6115756    66.710045   0.03860535  0.041792621            1 
  145000    1.2380018    -6.606487    67.304684  0.038680853  0.041802694            3 
  146000    1.2440135   -6.6067379    67.839611  0.038721239  0.041805749            2 
  147000    1.2339595    -6.619946    68.135224   0.03862541  0.041807669            3 
  148000    1.1979415   -6.5509232    68.703843  0.038684596  0.041807579            3 
  149000    1.2228051   -6.6281018    68.648123  0.038393805  0.041804694            2 
  150000    1.2231222    -6.590899    69.436335  0.038575742  0.041796783            1 
  151000    1.2171946   -6.6479608      69.7677  0.038503146  0.041787562            3 
  152000    1.2156534   -6.5784238    70.323035  0.038554295  0.041785085            2 
  153000    1.2397393   -6.5906132    70.834265  0.038580754  0.041775449            1 
  154000    1.2325692   -6.6258747     71.07291  0.038459367  0.041765867            4 
  155000    1.2050294   -6.5788084    72.008997  0.038714514  0.041758123            2 
  156000    1.2381158    -6.567859     72.62849   0.03879727   0.04175464            1 
  157000     1.219841   -6.6271869    72.817958  0.038650721  0.041748575            1 
  158000    1.2316143   -6.6307058    73.211994  0.038613921  0.041741395            2 
  159000    1.2397317   -6.6200358    73.680111   0.03861641  0.041728793            2 
  160000    1.2212272   -6.5997644    74.324431  0.038710641  0.041717919            1 
  161000    1.2246304   -6.6148131    74.307946   0.03846167  0.041705714            2 
  162000    1.2082247   -6.6114948    75.018783  0.038589909  0.041692405            1 
  163000    1.2293971   -6.6251562    75.329177  0.038511849  0.041676326            2 
  164000    1.1927555   -6.6000953    76.113496  0.038675557  0.041661223            1 
  165000    1.2294076   -6.6187837    76.347686  0.038559438  0.041649014            3 
  166000    1.2047203   -6.6043297    77.150591  0.038730216  0.041637784            2 
  167000    1.1876083   -6.6497389    77.526701  0.038685978  0.041626272            2 
  168000    1.1990058   -6.5587908    78.097535  0.038738857  0.041616186            2 
  169000    1.2027949   -6.6021474    78.049532  0.038485962  0.041602762            3 
  170000    1.2336468   -6.5764337    78.601367  0.038530082  0.041587823            2 
  171000    1.2248859    -6.629069    78.949264    0.0384743  0.041574368            2 
  172000    1.2382326   -6.5980014    79.672202  0.038600873  0.041558352            1 
  173000    1.2427609   -6.6479608    79.667842  0.038375646  0.041541737            2 
  174000    1.2126193   -6.6212921    80.523847  0.038565061  0.041525314            4 
  175000    1.2381963   -6.6206376    80.779022  0.038466201  0.041509496            4 
  176000    1.2408339   -6.6126536    81.366387  0.038525751  0.041491811            3 
  177000    1.2255554   -6.6230679    81.596877  0.038416609  0.041470826            1 
  178000    1.2225691   -6.5846096     82.07675  0.038425445  0.041452527            2 
  179000    1.2311954   -6.6371898    82.659324  0.038481994  0.041436265            2 
  180000    1.2136117   -6.6440227     83.08198   0.03846388  0.041419865            2 
  181000    1.2372253   -6.6387393      83.9098  0.038632504  0.041403839            2 
  182000    1.2486603   -6.6246681    84.417323   0.03865262   0.04139074            3 
  183000     1.232584   -6.6068493    85.035833  0.038723057  0.041380734            3 
  184000    1.2002324   -6.5566351    85.483812  0.038715494  0.041373072            2 
  185000    1.2251276   -6.5865413     86.02029  0.038747878  0.041365977            3 
  186000    1.2386903   -6.6227464    86.883575  0.038926333  0.041359734            3 
  187000    1.2207692   -6.6056975    87.262344  0.038886963  0.041353994            2 
  188000    1.2421337   -6.6516979    87.689763  0.038869576  0.041349626            6 
  189000    1.2450059   -6.6516594     88.43295  0.038991601  0.041348187            4 
  190000    1.1996223   -6.6275979     88.97021  0.039022022  0.041347558            1 
  191000    1.2362518   -6.5979729    89.277816  0.038951927  0.041346421            1 
  192000    1.2291124   -6.6214955    90.014093  0.039068617  0.041345009            3 
  193000    1.2146204   -6.6501562    90.226288   0.03895781  0.041345949            1 
  194000    1.2288001   -6.6368399    90.358569  0.038813818  0.041343743            3 
  195000    1.2229861   -6.6164218    91.158434  0.038956596  0.041341812            2 
  196000    1.2267795   -6.6117447    91.873592  0.039061901  0.041338181            3 
  197000    1.2148017   -6.6197072    91.986288  0.038911289  0.041335235            3 
  198000    1.2204883   -6.6182649    92.654536  0.038996017  0.041331898            2 
  199000    1.1948883   -6.6101611    92.917297  0.038910091  0.041326656            1 
  200000     1.229403    -6.663328    93.657265   0.03902386  0.041321275            2 
  201000    1.2387882   -6.5712426    94.267709  0.039082798  0.041316163            1 
  202000    1.2537899    -6.657441    94.223621  0.038871131  0.041308322            1 
  203000    1.2301394    -6.618382     94.88066  0.038949368  0.041299157            4 
  204000     1.204012   -6.6618209    94.838598  0.038741257  0.041287467            1 
  205000    1.2181598   -6.5823369    95.334594    0.0387539  0.041275461            1 
  206000    1.2180158   -6.6273183    95.949693  0.038814601  0.041264723            1 
  207000    1.2327378   -6.6276816     96.36109  0.038792709  0.041253516            2 
  208000    1.2113618     -6.66267    96.451863  0.038642573  0.041242629            2 
  209000    1.2152471   -6.6130662     97.44957   0.03885549   0.04123111            2 
  210000    1.2249391   -6.6265161     97.90869  0.038852655  0.041221874            1 
  211000     1.243025   -6.5866475    98.902719  0.039061105   0.04121369            3 
  212000    1.2002988   -6.6679615    98.773332  0.038825995  0.041205003            3 
  213000    1.2265006    -6.605268    99.704743  0.039008115  0.041195886            3 
  214000    1.1947387   -6.6064972     99.97384  0.038930623   0.04118725            2 
  215000    1.2072606   -6.6360064    100.51888  0.038960808  0.041178879            3 
  216000    1.2140608   -6.6225992    100.77676  0.038879921  0.041168044            2 
  217000    1.1993169    -6.651651    101.32639  0.038911823  0.041154388            2 
  218000    1.2018293   -6.6005377    101.55049  0.038818996  0.041144126            2 
  219000    1.2241811   -6.6509151    102.44493  0.038982088  0.041135309            4 
  220000     1.222353   -6.6121589    102.81691  0.038945798  0.041126813            1 
  221000    1.2008547   -6.6576137    103.13102  0.038888015  0.041118588            2 
  222000    1.1870853   -6.6564588    103.22628  0.038748605  0.041107367            2 
  223000    1.2260206   -6.6047917    103.96786  0.038851965  0.041096508            1 
  224000    1.2157336   -6.6061146    104.42763  0.038849565  0.041085958            1 
  225000    1.2352728   -6.6708431    105.10589  0.038928108   0.04107565            3 
  226000    1.2541436   -6.6624321    105.19531  0.038788832  0.041065411            3 
  227000     1.202038   -6.6254611    105.95507  0.038896869  0.041055881            1 
  228000     1.208788    -6.687223      106.042  0.038758041  0.041043559            2 
  229000    1.2287231   -6.6259141    106.86062  0.038886689  0.041033442            4 
  230000    1.2160519   -6.6413868    107.78026   0.03905082  0.041026692            4 
  231000    1.2191581   -6.6379555    108.21051  0.039036982  0.041021749            2 
  232000    1.2121286   -6.6320046    108.90259  0.039117308  0.041016494            4 
  233000     1.248601   -6.6626923    108.78118     0.038906  0.041012224            1 
  234000    1.2220821   -6.6306278    109.30091  0.038924827  0.041005032            3 
  235000     1.236786   -6.6564119    109.87946  0.038964348  0.040998294            2 
  236000    1.1974032   -6.6122533    110.43328  0.038994801  0.040990855            1 
  237000    1.2053572   -6.6239079    110.90677  0.038996756  0.040983042            3 
  238000    1.2173056   -6.6097322    111.71838   0.03911708  0.040977569            2 
  239000    1.2192162   -6.6484583    112.03673  0.039064412  0.040972583            3 
  240000    1.2172352   -6.6270879    112.33357  0.039004712  0.040967401            3 
  241000      1.20493   -6.6791478    112.93374  0.039050393  0.040961899            2 
  242000    1.2186043   -6.6783654    113.19751  0.038979857  0.040957251            2 
  243000    1.1907267   -6.6421358    114.42137  0.039239153  0.040952294            2 
  244000    1.2089753    -6.620796    114.68186  0.039167301  0.040945745            1 
  245000    1.1923369   -6.6224698    114.49476  0.038943797  0.040939143            2 
  246000    1.2004715   -6.6436858    114.95589  0.038941698  0.040932582            2 
  247000     1.219834   -6.6270915    116.04736  0.039152281  0.040927887            3 
  248000    1.2114832   -6.6197185    116.42274  0.039120545  0.040921712            3 
  249000    1.2069319   -6.6367356    116.60243  0.039023571  0.040915908            2 
  250000    1.2136116   -6.6555037    116.78681  0.038928938  0.040906795            1 
  251000    1.2150443    -6.648989    117.04903  0.038860898  0.040897713            1 
  252000    1.2118654   -6.6272037    117.70659  0.038924137  0.040887459            3 
  253000    1.1979389   -6.6199041      118.153  0.038917326  0.040876643            3 
  254000    1.2491144   -6.6665769    118.62798  0.038919942  0.040865352            2 
  255000    1.2136465   -6.6211967    119.08927  0.038918063  0.040854174            2 
  256000    1.2017872   -6.6221822    119.41686  0.038872675  0.040842241            1 
  257000    1.1952176   -6.6333581    120.10936  0.038945965  0.040830793            2 
  258000    1.2161185   -6.6675228    120.21965  0.038830637  0.040819597            2 
  259000    1.2030969   -6.6182347    120.68803  0.038831414  0.040808159            3 
  260000    1.2175775   -6.6175913    120.78626  0.038713545  0.040796441            2 
  261000    1.1983803   -6.6720383    121.25968  0.038716373  0.040783451            1 
  262000    1.2086199   -6.6279276      122.062  0.038823792  0.040771524            1 
  263000    1.2000327   -6.6405098    122.32256  0.038758733  0.040758818            2 
  264000    1.1993258   -6.6493148    122.66303  0.038719389  0.040745449            1 
  265000    1.2252257   -6.6329655    123.28759  0.038769681  0.040732352            2 
  266000    1.1963688   -6.6671296    123.55383  0.038707341  0.040719402            2 
  267000     1.217156   -6.6883336    123.99757  0.038700865  0.040705906            2 
  268000    1.2102413   -6.6215764    124.66504  0.038764004  0.040691876            2 
  269000    1.2101533   -6.6428007    124.85175  0.038677742  0.040678893            1 
  270000    1.1844772   -6.6355408    125.42152  0.038710345  0.040664738            1 
  271000     1.191953   -6.6529653    125.67954  0.038646845  0.040650675            3 
  272000    1.2134564   -6.6593566    125.59965  0.038480284  0.040635066            4 
  273000    1.2086249   -6.6344507    126.73243  0.038685114  0.040619878            1 
  274000    1.2280274   -6.6418917    126.78298  0.038559301  0.040603112            1 
  275000    1.2094515   -6.6365524    127.21297  0.038549384   0.04058756            3 
  276000    1.2106112   -6.6287316    128.44433  0.038781501  0.040572745            2 
  277000    1.2387362   -6.6720333    128.34573  0.038611831  0.040559024            1 
  278000    1.1732372   -6.6434332    128.58113  0.038543503  0.040543286            2 
  279000    1.2178373     -6.65333    129.51504  0.038684301  0.040528594            2 
  280000    1.1949203    -6.656045     129.7395  0.038612945  0.040514389            1 
  281000    1.2213757   -6.6755037    129.95647   0.03853988  0.040498841            1 
  282000    1.2140338   -6.6641611    129.99179  0.038413649  0.040482413            1 
  283000    1.1837756   -6.6124359    131.08374  0.038599451   0.04046663            3 
  284000    1.2168046   -6.6758234    130.93276  0.038419237  0.040450842            1 
  285000    1.2141422   -6.6951002    131.47279  0.038442337  0.040434076            2 
  286000    1.2247384   -6.6542041    132.01131  0.038464834  0.040418781            6 
  287000     1.188666    -6.661005    132.74162  0.038542864  0.040402919            2 
  288000    1.2252065   -6.6304412    132.41552  0.038314677  0.040385849            1 
  289000    1.2199926   -6.6544396     132.8977  0.038321136  0.040367317            3 
  290000    1.2332818   -6.6351879    133.28716  0.038300908  0.040348867            1 
  291000    1.2466908    -6.639103    133.52789  0.038238227  0.040329002            2 
  292000    1.2308379   -6.6631554    134.22626  0.038306581    0.0403092            1 
  293000    1.2123202   -6.6292327    134.44447  0.038237903  0.040290113            2 
  294000    1.1901389   -6.6575568    134.72617  0.038187691    0.0402691            1 
  295000    1.1998033   -6.7015949    134.98878  0.038132424  0.040247732            3 
  296000    1.1929673   -6.6743703     135.1773  0.038056673  0.040227211            1 
  297000    1.1985354   -6.6334685    136.12442  0.038194281  0.040206663            3 
  298000     1.199775   -6.6377897    136.60169  0.038199579  0.040188821            2 
  299000    1.1841969    -6.654328    137.16535  0.038228916  0.040171347            3 
  300000    1.2058437   -6.6039824    138.09022  0.038358394   0.04015541            1 
  301000    1.1848228   -6.6908695    138.20329  0.038262262  0.040139581            3 
  302000    1.2233744    -6.650975    138.88775  0.038324434   0.04012329            2 
  303000    1.2243917   -6.6579516    139.20085  0.038284061  0.040107497            3 
  304000    1.1938394   -6.6463322     139.8754  0.038343039  0.040090709            2 
  305000    1.1984257     -6.68049    139.75315  0.038183921  0.040074841            3 
  306000     1.213164   -6.6300249     140.8733  0.038364189  0.040059731            2 
  307000    1.2013571   -6.6403147     140.9749  0.038266804  0.040044538            3 
  308000    1.2101727   -6.6335756    141.30008  0.038230541  0.040028718            2 
  309000    1.1902837   -6.6373942    141.79813  0.038241136  0.040012145            2 
  310000    1.1882141   -6.6617951    141.96681  0.038163121  0.039997155            2 
  311000    1.1892295   -6.6443742    142.28546  0.038125793  0.039979851            2 
  312000    1.2394395   -6.6427996    142.71188   0.03811749  0.039962334            2 
  313000    1.2020987   -6.6985856    142.56601  0.037956872  0.039944093            2 
  314000    1.2085824   -6.6470775     143.7663  0.038154539   0.03992668            2 
  315000    1.2207018   -6.6438012    144.42272  0.038207069   0.03990935            3 
  316000    1.2141063   -6.6240629    144.35851  0.038069226  0.039891882            1 
  317000    1.1890267   -6.6768466    144.89319  0.038089691  0.039874085            2 
  318000    1.2132088   -6.6880348    144.24966  0.037801272  0.039855507            3 
  319000      1.19123   -6.6201737    145.69061  0.038059198  0.039836601            2 
  320000    1.2041105   -6.6578551    145.90016  0.037994833  0.039818178            1 
  321000      1.24234    -6.667707    146.37709  0.038000283  0.039800457            3 
  322000    1.1920527   -6.6369804    147.38862  0.038144054   0.03978369            2 
  323000    1.1997222   -6.6321372    148.52735  0.038319751  0.039768336            2 
  324000     1.211138   -6.6503069    148.18183  0.038112609  0.039752789            2 
  325000    1.1905902   -6.6412783    149.00932  0.038207518  0.039738131            4 
  326000    1.2013096   -6.6394325    149.89592  0.038316952  0.039724246            2 
  327000     1.217374    -6.650341    149.45252   0.03808678  0.039710674            2 
  328000    1.2155069   -6.6414452    149.98497  0.038105937  0.039696017            1 
  329000    1.1864689   -6.6548491    150.32138  0.038075324   0.03968042            4 
  330000    1.2116337   -6.6826021    150.85155  0.038093825   0.03966491            2 
  331000    1.2027767   -6.6831833    151.88251  0.038238295  0.039649949            2 
  332000     1.216497   -6.6689482    151.54454  0.038038287  0.039635461            3 
  333000    1.2053275   -6.6394423    152.50359  0.038164062  0.039620909            2 
  334000    1.2009945   -6.6738078    152.41195  0.038026932    0.0396066            1 
  335000    1.1892357   -6.6572682    152.92832   0.03804187  0.039590876            2 
  336000    1.1844738   -6.6787596    152.70722  0.037873816  0.039574161            1 
  337000    1.1723585   -6.6996271    152.60936  0.037737231  0.039556757            3 
  338000    1.1737719   -6.6550618    153.34916  0.037807979  0.039539067            5 
  339000    1.1896128   -6.6166429    154.50129  0.037979667  0.039522716            2 
  340000     1.161378    -6.681634    154.38934  0.037840524  0.039505776            2 
  341000    1.1643092   -6.6424861    154.79742  0.037829281  0.039488506            2 
  342000    1.2015693    -6.670055    155.60143   0.03791458  0.039471232            1 
  343000     1.179967   -6.6575384     155.7027  0.037828644  0.039454243            6 
  344000     1.205441   -6.6833913    155.87315  0.037759969  0.039435167            2 
  345000     1.179092    -6.657435    155.96049  0.037671617  0.039417971            1 
  346000    1.2049686   -6.7008217    156.38509  0.037665003  0.039399998            3 
  347000    1.2064645   -6.7053932    156.85979  0.037670457  0.039381975            2 
  348000    1.1961097   -6.6840503    158.30558  0.037908425   0.03936551            1 
  349000    1.1937895   -6.7013662    157.76574  0.037670903  0.039349259            5 
  350000     1.213799   -6.6712739    158.59808  0.037761447  0.039331818            3 
  351000    1.1868997   -6.6456049    159.65981  0.037905937  0.039315594            2 
  352000    1.2282142   -6.5935804    159.84284  0.037841582  0.039300766            2 
  353000    1.2061323    -6.661134    160.07966  0.037790288  0.039286205            2 
  354000    1.2045169   -6.6702426    161.08161  0.037919399  0.039272669            1 
  355000    1.1658123   -6.6727637    161.09373   0.03781543  0.039259095            2 
  356000    1.2024717    -6.695624    161.48159  0.037799998  0.039245312            2 
  357000    1.1719369   -6.6996395    161.70566  0.037746418  0.039231047            1 
  358000    1.2061391   -6.6650823    162.69854    0.0378721  0.039217071            3 
  359000    1.1501034   -6.7060154    162.99016    0.0378343  0.039203386            2 
  360000    1.2125718   -6.6532389     163.9488  0.037951111  0.039189438            3 
  361000    1.2190407   -6.6881078    163.53386  0.037750199  0.039176387            4 
  362000    1.2201466   -6.7021677    164.41608  0.037849005  0.039163866            3 
  363000    1.1885741   -6.6509834    164.89371  0.037854387  0.039150744            2 
  364000    1.2197661   -6.6685808    165.23053  0.037827501  0.039137005            2 
  365000    1.1905827   -6.6635907    165.29564   0.03773873  0.039122781            1 
  366000    1.2177468   -6.6459292    166.16426  0.037833392  0.039109128            2 
  367000    1.2045182   -6.7075167    166.24987  0.037749743  0.039095682            2 
  368000    1.2400055   -6.7112868    167.15858   0.03785294  0.039083149            1 
  369000    1.2123045   -6.7099906     167.3205  0.037786925  0.039072065            4 
  370000     1.210281   -6.6782025    168.40524  0.037929109  0.039061749            2 
  371000    1.2177504   -6.6887181    168.49726  0.037847542  0.039051374            2 
  372000    1.2055931   -6.6747342    169.01036  0.037860745  0.039040735            1 
  373000    1.1965673   -6.6955338    169.69697   0.03791264  0.039029841            3 
  374000    1.1964061   -6.6474005    169.50803  0.037769169  0.039017659            5 
  375000    1.1903452   -6.6454847    169.95595  0.037767988  0.039005838            2 
  376000    1.1762074   -6.6469395    169.82027  0.037637471  0.038992452            2 
  377000     1.196894   -6.7082118    170.27493  0.037638136  0.038978685            2 
  378000    1.2169764   -6.6220448    171.11581  0.037723944  0.038965565            1 
  379000    1.1962138   -6.7055515    171.08692  0.037618056   0.03895206            1 
  380000    1.2140416   -6.6737978    172.29484  0.037783957   0.03894002            3 
  381000    1.1792371   -6.6819703    172.58212  0.037747619    0.0389285            2 
  382000    1.1898465   -6.6917408    172.86691  0.037710932  0.038917658            1 
  383000    1.1911318   -6.6720281     173.7198  0.037798042  0.038906304            4 
  384000    1.2077374   -6.7108308    174.35809  0.037838128  0.038896188            2 
  385000    1.1867516   -6.6829344    174.82944  0.037841871  0.038886042            1 
  386000     1.186873   -6.6150494    176.20642  0.038041109  0.038876682            2 
  387000    1.1963645   -6.6759093    175.74153  0.037842707  0.038866876            2 
  388000    1.1633955   -6.7179061    175.75414  0.037747883  0.038856929            3 
  389000    1.2016186   -6.6760654    176.89243  0.037894694  0.038846915            2 
  390000     1.189124   -6.6973181    177.35395  0.037896144  0.038837683            3 
  391000    1.2074549   -6.7457388    177.23115   0.03777305  0.038829038            1 
  392000    1.2061147   -6.6742559     178.3485  0.037914223  0.038819839            2 
  393000    1.2032305   -6.6963064    178.30066  0.037807603  0.038811257            2 
  394000    1.1831637   -6.6694176    179.88602  0.038046958  0.038803708            2 
  395000    1.1897056   -6.7020226    179.89424  0.037952371   0.03879635            3 
  396000    1.2077193   -6.7202995     179.8015  0.037837015  0.038788346            3 
  397000    1.1832959    -6.674116    181.19762  0.038034764  0.038781443            2 
  398000     1.180994   -6.7074133    181.30105  0.037960856  0.038774416            2 
  399000    1.1685346   -6.6676551    181.56032  0.037919866  0.038766953            1 
  400000    1.1787992   -6.6669308    181.98773  0.037914111  0.038759887            1 
  401000    1.2035442    -6.678835    182.66045  0.037959362  0.038752623            1 
  402000    1.1980336   -6.7006926    182.36117  0.037802895  0.038745364            3 
  403000    1.1699297   -6.7089001    183.46878  0.037938127  0.038738002            2 
  404000    1.1783857   -6.6493417    183.48632  0.037847838  0.038730676            1 
  405000    1.1926004   -6.6954582    184.23237  0.037907896  0.038723135            1 
  406000    1.1912804   -6.6982052    184.50141  0.037869747  0.038715165            2 
  407000    1.1935208   -6.6540794    185.22372  0.037924595  0.038708847            1 
  408000    1.1687353   -6.7038182    186.10652  0.038011953  0.038703633            2 
  409000    1.1723643   -6.7028557    186.33079  0.037964708  0.038698326            2 
  410000     1.180938    -6.707812    186.68195  0.037943485  0.038692468            2 
  411000    1.1802539   -6.6926125    187.10133  0.037936198  0.038685649            2 
  412000    1.2010489   -6.6600721    187.30686  0.037885692  0.038679089            2 
  413000    1.1718651   -6.7017951     187.6454  0.037862267  0.038672708            5 
  414000    1.1970478   -6.6914958    188.73862  0.037990866  0.038666037            3 
  415000    1.1647423   -6.6692805    188.91199  0.037934134  0.038659474            3 
  416000    1.1881574   -6.6823922    189.83471  0.038027786    0.0386537            3 
  417000    1.1642591   -6.7090684    189.24066  0.037817878  0.038647469            2 
  418000    1.2128295   -6.6686932        190.7   0.03801834  0.038641261            3 
  419000    1.1840367   -6.6416344    190.77672  0.037942863  0.038634866            2 
  420000    1.1640939    -6.701998    190.76689  0.037850574  0.038628814            3 
  421000    1.1838867   -6.7138639    191.20467  0.037847322   0.03862243            3 
  422000    1.1793715   -6.7434354    190.91506  0.037700446  0.038616017            2 
  423000    1.1709349   -6.6785061    192.09433  0.037843642   0.03860941            2 
  424000    1.1776538   -6.7088954    192.40887  0.037816209  0.038602693            1 
  425000    1.1844304   -6.7137091    192.90672  0.037824848  0.038596468            2 
  426000    1.1892049   -6.7213859    193.86675  0.037923856  0.038590006            3 
  427000    1.1945505   -6.6915171    193.65431  0.037793582  0.038583844            2 
  428000    1.1768417   -6.6948393    194.45606  0.037861383  0.038578018            2 
  429000    1.1604433   -6.6611964     195.3691  0.037950485  0.038572454            3 
  430000    1.1963487   -6.6897641    195.71123  0.037928532  0.038566822            2 
  431000    1.1668731   -6.6977392    195.79351  0.037856441  0.038560815            1 
  432000    1.1739533   -6.7198769    195.79124  0.037768372  0.038554785            2 
  433000    1.2012623   -6.6952527    196.72797  0.037861426  0.038549437            2 
  434000     1.151616     -6.71707    196.99781     0.037826  0.038544078            5 
  435000    1.1694362   -6.7013655    197.76472  0.037885963  0.038538338            3 
  436000    1.1891575   -6.7058273    197.47198  0.037743116  0.038533161            4 
  437000     1.171971   -6.7056348    198.80858  0.037911629  0.038527694            2 
  438000    1.1924749   -6.7018313    198.65374  0.037795612  0.038522072            3 
  439000    1.1687352   -6.7172267    198.63406  0.037705782   0.03851639            1 
  440000    1.1684868   -6.7231065    199.66236   0.03781484   0.03851012            2 
  441000    1.2045614   -6.6846588    200.39682   0.03786788  0.038505617            3 
  442000    1.1797518   -6.6972974     201.1169  0.037917967  0.038501542            2 
  443000     1.201015   -6.7331173    201.17258  0.037842848  0.038496964            1 
  444000    1.1709701   -6.7252185     201.8183   0.03787881  0.038493383            2 
  445000    1.1815495   -6.6759407    202.88808  0.037994022  0.038490217            1 
  446000    1.1708191   -6.6862749    203.25792  0.037977937  0.038487156            5 
  447000    1.1863403   -6.7009396     203.9793   0.03802746  0.038484837            4 
  448000    1.1956552   -6.6720753     204.4153   0.03802368  0.038481269            4 
  449000    1.2179529   -6.6682838    204.21356  0.037901552  0.038477717            2 
  450000    1.1730909    -6.690644    205.13162  0.037987336  0.038474981            1 
  451000    1.1822231   -6.7135041    205.22073  0.037919573  0.038471732            2 
  452000    1.1720142   -6.7151877    205.71109  0.037926086   0.03846766            1 
  453000    1.1885817   -6.7006047     206.4704  0.037982045  0.038463022            4 
  454000    1.1742788   -6.6920565    206.46596  0.037897569  0.038458836            1 
  455000    1.1908431   -6.7249518    206.71146  0.037859241  0.038453783            4 
  456000    1.1775622   -6.7007682    207.36974  0.037896517  0.038449411            2 
  457000    1.1715147   -6.7351867    207.64313  0.037863445  0.038444648            1 
  458000    1.1471421   -6.6669677    208.83184   0.03799706  0.038440162            1 
  459000    1.2035735   -6.6894256    208.37107  0.037830622  0.038435503            2 
  460000    1.2082431   -6.6705814    208.87801  0.037840218  0.038430571            1 
  461000    1.1599139   -6.7307408    208.37399  0.037667026  0.038424919            2 
  462000    1.1946677   -6.7088817     209.1514  0.037725721  0.038418992            2 
  463000    1.1743141   -6.6622401    210.05565  0.037806992  0.038413193            6 
  464000    1.1746612   -6.6712783    209.92418    0.0377019  0.038407512            2 
  465000    1.1655159   -6.6857352    211.16342  0.037842906  0.038401342            1 
  466000    1.1801263   -6.7117325    211.25086  0.037777336  0.038395796            1 
  467000    1.1899685   -6.6990341    211.47042  0.037735621  0.038390034            1 
  468000    1.1644978   -6.6731124    212.34052  0.037809922  0.038384365            1 
  469000    1.1570937   -6.6717087    212.73182   0.03779883  0.038378181            2 
  470000    1.1746058   -6.6945686    212.64317   0.03770269   0.03837234            3 
  471000    1.1998215    -6.710281     212.8226  0.037654388  0.038366668            2 
  472000    1.1625654   -6.6936987    214.43483  0.037859257  0.038360824            2 
  473000    1.1762346   -6.6916244    214.51402  0.037793167  0.038355117            3 
  474000    1.1708176   -6.7066012    214.18418  0.037655447  0.038349277            2 
  475000    1.1846764    -6.730113    214.64486  0.037656992  0.038342833            3 
  476000    1.1929005   -6.6868854    214.20263  0.037500461  0.038335946            1 
  477000    1.1685147   -6.6405509    216.01664  0.037738755  0.038329459            1 
  478000    1.1560204    -6.671272    215.78618  0.037619627  0.038323149            2 
  479000    1.1843088   -6.7599336    215.84656  0.037551594  0.038317243            2 
  480000    1.1987163   -6.7216078    217.29475  0.037724783  0.038311058            2 
  481000    1.1800351   -6.7272611    217.22667  0.037634559  0.038304936            3 
  482000    1.1736436   -6.6885502    217.23656  0.037558188  0.038298274            2 
  483000    1.1624144   -6.6714728    217.98967  0.037610364   0.03829166            2 
  484000    1.1464128   -6.7217065    217.71017  0.037484534  0.038285507            4 
  485000     1.162805   -6.7358355    218.86943  0.037606431  0.038278864            2 
  486000    1.1637291   -6.7424174    218.89884  0.037534095  0.038272277            2 
  487000     1.143071   -6.7101394    219.65528  0.037586461  0.038265654            1 
  488000    1.1837142   -6.7336418    219.75131  0.037525838  0.038259039            2 
  489000    1.1824013   -6.7423946    220.11977   0.03751189  0.038252249            3 
  490000     1.180219    -6.744551    220.59937  0.037516899    0.0382451            1 
  491000    1.1663442   -6.6941584    221.39288  0.037575167  0.038238345            1 
  492000    1.1878316   -6.7138893    221.86854   0.03757936  0.038232788            1 
  493000    1.2070711    -6.701312    221.39481  0.037423059  0.038226234            1 
  494000    1.1689942    -6.709223    222.12982  0.037471293  0.038220126            4 
  495000    1.1758846   -6.7259999     222.5805  0.037471465  0.038213948            1 
  496000    1.1459817   -6.7578349    223.35128  0.037525416  0.038207066            1 
  497000    1.1736288   -6.6811236    224.24267  0.037599374  0.038200304            3 
  498000    1.1387444   -6.7169318    224.87725  0.037630062  0.038194034            2 
  499000    1.1663938   -6.7217033    225.26521  0.037619441  0.038187833            2 
  500000     1.165621   -6.7253735    225.17227  0.037528711  0.038181869            2 
  501000    1.1819915    -6.729666    225.16778  0.037453058  0.038175554            1 
  502000    1.2042403   -6.7217633     226.2907  0.037564857  0.038169079            1 
  503000    1.1517487   -6.6894477    226.96392  0.037601709  0.038162898            2 
  504000      1.16017   -6.7172844    226.70754  0.037484712  0.038156498            2 
  505000    1.1654184   -6.7063941    226.93416  0.037447881  0.038149991            2 
  506000    1.1986149   -6.7305322    227.90415  0.037533622   0.03814288            2 
  507000    1.1927922   -6.7051841    228.11303  0.037493923   0.03813614            1 
  508000    1.1594202   -6.7215282    229.01262  0.037567687  0.038128597            1 
  509000     1.169664   -6.7188378    228.28177  0.037374226  0.038122008            2 
  510000    1.1818679   -6.7310311    228.77735   0.03738192  0.038114594            2 
  511000     1.162465   -6.7029881    229.60474  0.037443696   0.03810778            1 
  512000    1.1834585   -6.7301703    230.11912  0.037454284  0.038101449            2 
  513000    1.1607595   -6.7264619    230.78399  0.037489277  0.038095035            2 
  514000    1.1386516   -6.7195157    230.86456  0.037429403  0.038088716            3 
  515000    1.1533958   -6.7114703    231.16319  0.037405046  0.038081547            1 
  516000    1.1561453   -6.6904043    232.38425  0.037529755  0.038074127            2 
  517000    1.1532931   -6.6757784    231.72792  0.037351373  0.038067493            2 
  518000     1.164031   -6.7188346    233.00883  0.037485333  0.038060548            1 
  519000    1.1791277   -6.6927301    232.86423   0.03738989  0.038053807            2 
  520000    1.1885746   -6.6915457    233.85138  0.037476182  0.038046534            1 
  521000     1.156654   -6.7327865    233.62373  0.037367839  0.038039504            2 
  522000    1.1638103   -6.6982299    233.63451  0.037297974  0.038032013            1 
  523000    1.1505665   -6.7160931    234.31019   0.03733432  0.038024624            2 
  524000    1.1847295   -6.7429782    235.11769  0.037391489   0.03801718            1 
  525000    1.1563831   -6.7376613    234.54507  0.037229376  0.038009806            1 
  526000    1.1530325   -6.7436873    235.65137  0.037333868  0.038002335            2 
  527000    1.1592232   -6.7051926    235.86741  0.037297186   0.03799436            3 
  528000    1.1719711   -6.7114759    235.38538   0.03715047  0.037985639            1 
  529000    1.2055356   -6.6934976    236.23622  0.037214275   0.03797679            1 
  530000    1.1827236   -6.7041608    237.04699   0.03727154  0.037968111            1 
  531000    1.1444309   -6.7396753    237.43151  0.037261693  0.037959855            4 
  532000    1.1604817   -6.7028377    237.21509  0.037157751  0.037950753            2 
  533000    1.1617784   -6.7304594    237.50812  0.037133852  0.037942032            2 
  534000    1.1871685   -6.7269216    237.99813  0.037140782  0.037933158            3 
  535000    1.1622319   -6.7255616    238.54178   0.03715604  0.037924447            1 
  536000    1.1710068    -6.730582    238.89037  0.037140915  0.037916086            1 
  537000    1.1787277   -6.7167307     239.2244  0.037123588  0.037907289            1 
  538000    1.1681571    -6.734221    239.53173  0.037102188  0.037898348            2 
  539000    1.1567834   -6.7244599     239.2039  0.036982669  0.037889236            1 
  540000    1.1592341   -6.6812167    241.33898   0.03724367   0.03787998            2 
  541000    1.1723689   -6.7337055    240.19548  0.036998688   0.03787132            8 
  542000    1.1508181   -6.7571203    241.60117  0.037146552  0.037862412            2 
  543000    1.1588218   -6.7418845    240.84511   0.03696211  0.037852352            2 
  544000    1.2020934   -6.6978856      240.961  0.036911918  0.037843137            4 
  545000      1.17017   -6.7193796    241.68512  0.036954911  0.037832821            2 
  546000    1.1780269   -6.7584443    241.23918  0.036819167  0.037821912            2 
  547000    1.1576439   -6.7431218    241.68881  0.036820355  0.037810971            1 
  548000    1.1402875   -6.7386553    241.65443  0.036747937  0.037800126            3 
  549000    1.1687852   -6.6998346    243.21465  0.036917827  0.037788781            2 
  550000    1.1510143   -6.7718356    242.75058   0.03678039  0.037777598            3 
  551000    1.1793955   -6.7099403    243.08637  0.036764423  0.037766465            6 
  552000     1.168376   -6.7642627    244.04025  0.036841825  0.037755564            2 
  553000    1.1405842   -6.7408807    244.27252  0.036810205  0.037744944            1 
  554000    1.1625828   -6.7656567    243.56549  0.036637408  0.037734229            2 
  555000    1.1761459    -6.749282    244.60922   0.03672811  0.037722727            1 
  556000    1.1583785   -6.7522251     245.6805  0.036822617  0.037711613            1 
  557000    1.1935038   -6.7519034    245.60077  0.036744579  0.037700289            2 
  558000     1.170451   -6.7210492    246.01133  0.036740043  0.037689211            1 
  559000    1.1701716   -6.7244601    246.73094  0.036781596  0.037678388            2 
  560000     1.165508   -6.7587811    246.75179  0.036719017  0.037667227            2 
  561000      1.12801    -6.704925    247.77626  0.036805743  0.037656429            1 
  562000    1.1605569   -6.7760238     247.0766  0.036636507  0.037645376            2 
  563000    1.1659393   -6.7917637    247.89812  0.036693032  0.037634283            3 
  564000    1.1672441   -6.7653572    248.71666  0.036748915  0.037623261            2 
  565000    1.1370343   -6.6915173    248.56312  0.036661226  0.037611885            1 
  566000    1.1656101   -6.7831859    249.09347  0.036674539  0.037600563            3 
  567000    1.1687519   -6.6878987    250.43327   0.03680677  0.037590293            2 
  568000    1.1530419    -6.744957    250.03149  0.036683023  0.037580061            1 
  569000    1.1548297   -6.7317033     250.7902  0.036729671  0.037569638            4 
  570000    1.1537232   -6.7407988    250.94799  0.036688303  0.037558886            3 
  571000    1.1520662   -6.7288217    250.60634  0.036574188  0.037547395            3 
  572000    1.1397219   -6.7294815    251.21655  0.036599147  0.037536222            1 
  573000    1.1611567    -6.754558    251.25115  0.036540307  0.037525165            2 
  574000     1.158437   -6.7207522    252.12983  0.036604214  0.037514123            3 
  575000    1.1743067   -6.7549088     251.8005  0.036492826   0.03750247            2 
  576000    1.1574221    -6.733326    252.36739  0.036511486  0.037490656            3 
  577000    1.1803993   -6.7367818    252.72699  0.036500143  0.037478693            1 
  578000    1.1610049   -6.7377878    253.23808   0.03651068  0.037466819            1 
  579000    1.1514714   -6.7092958    253.92603  0.036546637  0.037454872            3 
  580000    1.1369503   -6.7692016    253.36844  0.036403512  0.037443342            1 
  581000    1.1560314   -6.7439398    254.44234  0.036494886  0.037431587            2 
  582000    1.1573446   -6.7699006    254.05034  0.036376052  0.037420228            1 
  583000    1.1499534   -6.7425916    254.88292  0.036432664  0.037408432            1 
  584000    1.1835356   -6.7436921     254.8966  0.036372232  0.037396573            1 
  585000    1.1831911   -6.7600575    255.77981  0.036435871  0.037385002            2 
  586000     1.185792     -6.70749    256.24925  0.036440451  0.037373405            3 
  587000    1.1828662   -6.7744453    256.74369  0.036448564  0.037362009            2 
  588000    1.1638237   -6.7237833    256.77048  0.036390374  0.037350477            4 
  589000    1.1350573   -6.7316492    258.35519  0.036552801  0.037339705            1 
  590000        1.182   -6.7269938    258.06258  0.036449517   0.03732907            4 
  591000    1.1533845   -6.7540067    258.70533  0.036478472  0.037317896            3 
  592000    1.1676093   -6.7343081    258.51332  0.036389825  0.037306983            2 
  593000    1.1443675   -6.7278171    259.38723   0.03645127  0.037295984            3 
  594000    1.1596329   -6.7364971    259.18089  0.036360956  0.037284891            3 
  595000    1.1229344   -6.7954628    259.85255  0.036393915  0.037273471            1 
  596000    1.1660422   -6.7389255    259.42425  0.036272966  0.037261808            1 
  597000    1.1511596   -6.7286193     259.8535  0.036272124  0.037250705            2 
  598000    1.1501339     -6.73471    260.82092  0.036346282  0.037239702            2 
  599000    1.1652338   -6.7348278    261.59688  0.036393555   0.03722828            2 
  600000    1.1453752   -6.7385116     261.2923  0.036290597  0.037217054            4 
  601000    1.1666583   -6.7688599    261.58987  0.036271474  0.037205756            3 
  602000    1.1593144   -6.7432335    262.58228  0.036348599  0.037194368            2 
  603000    1.1714674   -6.7058839    262.88879  0.036330679  0.037183457            1 
  604000    1.1836114   -6.7411933    263.30963  0.036328591  0.037172453            3 
  605000    1.1638928   -6.7622036     264.2257  0.036394724  0.037162076            1 
  606000    1.1679813   -6.7433155    264.31102    0.0363464  0.037151973            2 
  607000    1.1573077   -6.7760062    264.08916  0.036256063  0.037141359            2 
  608000     1.136717   -6.7290199     265.0553  0.036328851    0.0371309            3 
  609000    1.1398073   -6.7218507    266.04415  0.036404509    0.0371208            3 
  610000    1.1565945   -6.7474249    264.90324  0.036188968  0.037110608            2 
  611000    1.1383113   -6.7446693    266.49089  0.036346275  0.037099843            2 
  612000    1.1603935   -6.7718632    266.79456  0.036328235  0.037089172            4 
  613000    1.1774184   -6.7402371    267.17427  0.036320591  0.037078655            3 
  614000    1.1538906   -6.7393806    267.42312  0.036295211  0.037068411            5 
  615000    1.1515452   -6.7777094    268.29152  0.036353865  0.037057572            2 
  616000    1.1334398   -6.7497161    268.47327  0.036319436  0.037046866            2 
  617000    1.1358898   -6.7159955     269.8159  0.036441909  0.037036625            3 
  618000    1.1669478   -6.7577681    269.55799  0.036348164  0.037026589            1 
  619000    1.1349688   -6.7459064    269.72314  0.036311677  0.037016465            1 
  620000     1.158961   -6.7222694    270.16621  0.036312663  0.037006523            2 
  621000    1.1479165   -6.7684272    270.71101  0.036327296   0.03699677            2 
  622000    1.1347406   -6.7573043    271.00687   0.03630853  0.036987294            3 
  623000    1.1725245   -6.7189258    271.74913  0.036349536  0.036978621            3 
  624000    1.1441336   -6.7667243    272.75791  0.036426003  0.036969966            4 
  625000    1.1396361   -6.7612081    273.30321  0.036440428  0.036961009            1 
  626000    1.1735817    -6.772956    272.90656  0.036329415  0.036951589            1 
  627000     1.151454   -6.7480617    273.22323  0.036313561  0.036942421            1 
  628000    1.1298026   -6.8017857    273.23435  0.036257212  0.036933489            1 
  629000    1.1475553   -6.7634767    275.17107  0.036456156  0.036924623            3 
  630000     1.170949    -6.770127    274.16186  0.036264796  0.036915933            3 
  631000     1.189966   -6.7479297     275.2003  0.036344466  0.036907165            1 
  632000    1.1400245   -6.7323971    276.11041  0.036406963  0.036898667            2 
  633000    1.1522971   -6.7777771    274.82467  0.036180183  0.036890362            1 
  634000    1.1280855   -6.7664034     276.1477  0.036297016  0.036881991            2 
  635000    1.1478311   -6.7235113    277.46851   0.03641319   0.03687366            2 
  636000    1.1637419   -6.7490674    277.94544  0.036418428  0.036866019            2 
  637000    1.1152397   -6.7423409    278.62774  0.036450516  0.036858449            5 
  638000    1.1576457   -6.7233241    279.51388  0.036509128  0.036850787            2 
  639000    1.1745605   -6.7315897    279.83197  0.036493475  0.036843704            1 
  640000    1.1558903   -6.7583612    279.73167  0.036423394  0.036836801            2 
  641000    1.1610202   -6.7276945    279.79794  0.036375187    0.0368294            2 
  642000    1.1308758    -6.741364    280.04805  0.036350993  0.036822382            5 
  643000     1.149838   -6.7274608    280.51883  0.036355473  0.036814648            2 
  644000    1.1552566   -6.7883751    280.79797  0.036335141  0.036806781            3 
  645000     1.157844   -6.7735789    281.45997  0.036364337  0.036798701            1 
  646000    1.1435909   -6.7953182    281.78441  0.036349898  0.036791114            3 
  647000    1.1689925   -6.7773884    281.99056  0.036320268  0.036783458            4 
  648000    1.1442327   -6.7675204    281.89914  0.036252461  0.036775402            2 
  649000     1.157016   -6.8093481     282.7812  0.036309862  0.036767645            1 
  650000    1.1633627   -6.7574144    282.71737  0.036245817  0.036759983            2 
  651000    1.1233318   -6.7551635     284.4385  0.036410458  0.036752855            2 
  652000    1.1672711   -6.7499387    284.77559  0.036397699  0.036745503            2 
  653000     1.130689   -6.7348591    285.10789  0.036384366  0.036738229            2 
  654000    1.1444626   -6.7347425    285.69116  0.036403053  0.036730777            3 
  655000    1.1725534   -6.7607463    286.09312  0.036398616  0.036723877            1 
  656000    1.1499496   -6.7318363    286.35708  0.036376662  0.036717258            1 
  657000    1.1510309   -6.7559898    286.29826  0.036313832  0.036709944            2 
  658000     1.120534   -6.7443538    286.63763  0.036301625   0.03670272            1 
  659000    1.1339423   -6.7634485    287.47065  0.036351878  0.036696126            3 
  660000    1.1412143   -6.7382068    288.53001  0.036430557   0.03668969            3 
  661000     1.136462    -6.748571    288.63379  0.036388526  0.036684012            1 
  662000    1.1265583   -6.7369585    289.49511  0.036441982  0.036677839            1 
  663000    1.1433372   -6.7269646    289.56623  0.036395956  0.036671448            3 
  664000     1.139674   -6.7940358    290.02229   0.03639838  0.036665287            1 
  665000    1.1393801   -6.7735161    290.18746  0.036364343  0.036659273            1 
  666000    1.1665615   -6.7526636     291.2606  0.036444019  0.036653231            3 
  667000    1.1466364   -6.7749797    291.03599  0.036361318  0.036647321            2 
  668000    1.1487462   -6.7516841    291.47799  0.036362025  0.036641419            1 
  669000     1.162224   -6.7808039    291.79958   0.03634773  0.036635199            5 
  670000     1.161177   -6.7647248    292.92561  0.036433533  0.036629335            2 
  671000    1.1692792   -6.7726891      292.717  0.036353328  0.036623568            2 
  672000    1.1649704   -6.7578285    292.34893  0.036253588  0.036617438            3 
  673000    1.1386767    -6.763684    293.21924  0.036307484   0.03661083            2 
  674000    1.1191185   -6.7962567    293.97183  0.036346666  0.036603976            2 
  675000    1.1421563   -6.7626022    294.49624  0.036357561  0.036598033            2 
  676000    1.1378711   -6.7593033    294.06933  0.036251151  0.036592148            1 
  677000    1.1585147   -6.7427694    295.36041  0.036356526  0.036586054            4 
  678000    1.1388096   -6.7660291    295.30195  0.036295717  0.036580648            2 
  679000    1.1317502   -6.7873366    295.61092  0.036280182  0.036574864            2 
  680000    1.1458832   -6.7813521    296.55804  0.036342897   0.03656903            2 
  681000    1.1682099   -6.7808289    296.82091  0.036321697  0.036563004            2 
  682000    1.1812083   -6.7677998    297.46638  0.036347309  0.036557227            1 
  683000    1.1144102   -6.7588112    297.47525  0.036295174  0.036551399            2 
  684000    1.1517083   -6.7477587    297.74987  0.036275569  0.036545639            5 
  685000    1.1260935    -6.755817    298.26705  0.036285529   0.03653958            2 
  686000    1.1398088   -6.7937444    297.22198  0.036105682  0.036533192            2 
  687000    1.1723551    -6.785553    298.21169  0.036173179  0.036526403            3 
  688000    1.1414233   -6.7869301    299.02099  0.036218627  0.036519922            2 
  689000     1.131509   -6.7730769    300.06239  0.036292016  0.036513589            2 
  690000     1.111585   -6.7932236    298.95777   0.03610601   0.03650683            2 
  691000    1.1348364   -6.7559452    299.28103  0.036092744  0.036500125            1 
  692000    1.1433898   -6.7754048    301.04492     0.036253  0.036493589            4 
  693000    1.1367599    -6.767832    300.07518  0.036084077  0.036487354            4 
  694000    1.1263153    -6.757582    301.24262  0.036172264  0.036480668            3 
  695000    1.1385715   -6.7706353    301.00906  0.036092214  0.036474363            3 
  696000    1.1354196   -6.7855559     301.4904  0.036097989   0.03646818            2 
  697000     1.195102   -6.7889815     302.4539  0.036161394  0.036461857            2 
  698000    1.1450746   -6.7779933    303.48201  0.036232332  0.036455633            1 
  699000    1.1645724   -6.7705593    302.54425  0.036068699  0.036448819            1 
  700000    1.1416023   -6.7834785    302.70008  0.036035724   0.03644193            2 
  701000     1.130223     -6.78215     303.1435   0.03603703  0.036434696            2 
  702000    1.0947069   -6.7888856    302.89308  0.035955968  0.036427051            4 
  703000    1.1334786   -6.7840928    302.38604  0.035844718  0.036419533            2 
  704000     1.123936   -6.7918069    304.71803  0.036069843  0.036412233            2 
  705000    1.1736201   -6.7612607    304.69224  0.036015632  0.036405294            2 
  706000    1.1064882   -6.7562412    305.05077  0.036006937  0.036398772            2 
  707000     1.144147   -6.7534757    305.81133  0.036045654  0.036391708            5 
  708000    1.1345905   -6.7808096    306.32026  0.036054645  0.036384671            2 
  709000    1.1381514   -6.7722092    306.14458  0.035983143  0.036377624            2 
  710000    1.1301273   -6.7948932    307.56005  0.036098598  0.036370747            4 
  711000    1.1347634   -6.7995108    306.64881  0.035941023  0.036364059            2 
  712000    1.1377789   -6.7319299    307.85396  0.036031597  0.036357417            2 
  713000    1.1486187   -6.8224693    307.64502  0.035956641  0.036350672            3 
  714000    1.1115208   -6.7879812    308.44042  0.035999115  0.036343825            4 
  715000    1.1267884   -6.7763878    308.30625   0.03593313  0.036337256            1 
  716000      1.13587   -6.7631365    310.32051  0.036117378  0.036330222            6 
  717000    1.1562477   -6.7834723    309.99517  0.036029192   0.03632344            1 
  718000    1.1460572   -6.7558857    309.87533  0.035965104  0.036316568            1 
  719000    1.1259015    -6.765815    310.88961  0.036032639  0.036309564            2 
  720000    1.1316781   -6.7714331     311.5908   0.03606375  0.036303094            2 
  721000    1.1391414   -6.7682701    311.43185  0.035995359  0.036296481            4 
  722000    1.1387981   -6.7941839    311.91922  0.036001756  0.036290326            2 
  723000    1.1335778   -6.7889421    312.88081  0.036062795  0.036284119            2 
  724000    1.1291546   -6.7899401    313.60926   0.03609683  0.036277803            3 
  725000       1.1266   -6.8146322    312.86035  0.035960959  0.036271659            3 
  726000    1.1303234   -6.7912148    313.94892  0.036036377  0.036265038            3 
  727000    1.1340183   -6.7991496    313.52172  0.035937841  0.036258679            1 
  728000    1.1282313   -6.7752146    314.77246  0.036031646  0.036252264            1 
  729000    1.1380397   -6.7725954    314.77563  0.035982582  0.036246219            1 
  730000    1.1360311   -6.7365673    316.31273  0.036108759   0.03624068            4 
  731000    1.1350245   -6.7965768    315.15236  0.035927082  0.036234759            1 
  732000    1.1556602   -6.7776107    315.70194  0.035940567  0.036228614            1 
  733000    1.1449581   -6.7828716    316.97079  0.036035787  0.036222757            1 
  734000    1.1438292   -6.8167317    316.23865  0.035903571  0.036216418            2 
  735000    1.1528935   -6.7953522    316.88869  0.035928422  0.036209603            1 
  736000    1.1346256   -6.7820586    316.24073  0.035806241  0.036203025            3 
  737000     1.168032   -6.7760749    318.32388  0.035993202  0.036196243            1 
  738000     1.141156   -6.8406376    316.54247  0.035743278  0.036189759            3 
  739000    1.1516457   -6.7687017    318.39911  0.035904275  0.036183148            2 
  740000    1.1483362   -6.8083258    318.14749   0.03582742  0.036176513            2 
  741000    1.1236831    -6.785068    319.00828  0.035875875  0.036169746            3 
  742000    1.1299512   -6.7754146    320.64242  0.036011054  0.036163153            2 
  743000    1.1369567   -6.7956177    319.84488  0.035873136  0.036156736            2 
  744000    1.1079469   -6.8197614     319.2389  0.035757046  0.036149949            4 
  745000    1.1402983   -6.7548858    320.38407  0.035837145  0.036143235            3 
  746000    1.1235204   -6.8128313    320.14046  0.035761892  0.036136231            1 
  747000    1.1235453   -6.7809726    320.73751  0.035780623  0.036128998            4 
  748000    1.1535643   -6.8370616    320.35501  0.035690175  0.036121557            4 
  749000    1.1327389   -6.7494854    323.17027  0.035955749  0.036114556            2 
  750000     1.147698    -6.851094    321.45681  0.035717423  0.036107214            2 
  751000    1.1230661   -6.8169541    322.44533  0.035779553  0.036100437            4 
  752000    1.1501466    -6.757811    323.98653  0.035902763  0.036093926            2 
  753000    1.1223365    -6.778091    324.41196  0.035902165  0.036087869            1 
  754000    1.1361941   -6.7960926    324.45143  0.035858911  0.036081653            3 
  755000    1.1467744   -6.7883893    324.05876  0.035768075  0.036075155            2 
  756000    1.1398095   -6.8126241    324.54698  0.035774579  0.036068717            2 
  757000    1.1190981   -6.7907486    325.65145  0.035848904  0.036062467            3 
  758000    1.1411795   -6.8059758     325.3386  0.035767216  0.036056016            2 
  759000    1.1494375   -6.8171365     324.7751  0.035658223  0.036049446            2 
  760000    1.1310523   -6.7942702    326.16574  0.035763787  0.036042847            1 
  761000    1.1254748    -6.824427    325.56613  0.035651132   0.03603634            1 
  762000    1.1258807   -6.7991332    325.66533  0.035615193   0.03602928            3 
  763000    1.1091891   -6.8422194    325.69629  0.035571897  0.036022208            3 
  764000    1.1407427   -6.7233877    327.78753  0.035753439  0.036015067            1 
  765000    1.1098558   -6.8106219     326.8041  0.035599575   0.03600822            3 
  766000    1.1319266   -6.8338368    327.13813  0.035589439  0.036000769            2 
  767000      1.10212   -6.8280858    326.83197  0.035509775  0.035993322            2 
  768000    1.1399456   -6.7880688    327.57156  0.035543789  0.035985887            1 
  769000    1.1381827   -6.8204258    328.16095  0.035561437  0.035978436            1 
  770000    1.1385097    -6.778307    328.62983  0.035565999  0.035970551            1 
  771000    1.1402206   -6.8017769     328.6618  0.035523325  0.035962783            1 
  772000    1.1154019   -6.7790911    329.08514  0.035523008  0.035954828            2 
  773000    1.1474492   -6.8343715    327.97547  0.035357424  0.035946687            2 
  774000    1.1403474   -6.8034764    329.57552  0.035484013  0.035938448            2 
  775000     1.116311   -6.7912822    330.42303  0.035529358  0.035930282            3 
  776000    1.1354178   -6.7709382     330.1907  0.035458624  0.035921809            2 
  777000    1.1364922   -6.8236355    330.15497  0.035409156  0.035913036            4 
  778000    1.0923774   -6.7782543    331.34903  0.035491542  0.035904508            3 
  779000    1.0988093   -6.8118774    330.25782  0.035329249  0.035895683            4 
  780000    1.1199244    -6.834155      330.058  0.035262607  0.035886675            2 
  781000     1.129817    -6.775496    331.01554  0.035319627  0.035877546            4 
  782000    1.1115447   -6.8519393    330.87591  0.035259581  0.035867936            2 
  783000    1.1447678   -6.8259521    330.29233   0.03515244  0.035858736            5 
  784000    1.1318427   -6.7868166    332.03969  0.035293335   0.03584967            3 
  785000    1.1219615   -6.7924773    332.78998  0.035328024  0.035841004            2 
  786000    1.1213519   -6.8213963    332.14992  0.035215216  0.035832061            3 
  787000     1.118843   -6.7927455    333.94104  0.035360127  0.035823352            2 
  788000    1.1196124   -6.8291957    331.63054  0.035070911   0.03581429            1 
  789000    1.1146448   -6.7692794    334.33655  0.035312267  0.035805074            1 
  790000    1.1219459   -6.7868746     333.5059  0.035179947  0.035796231            1 
  791000    1.1140025   -6.7985666    335.07637  0.035300924  0.035787409            2 
  792000    1.1115136   -6.8314475    333.70746  0.035112316  0.035778274            2 
  793000    1.1066706    -6.812212    334.63138   0.03516513  0.035769107            3 
  794000     1.127045   -6.7790038    334.93433  0.035152638  0.035759982            3 
  795000    1.1319458   -6.8076618    335.48599  0.035166246  0.035750984            1 
  796000    1.1280271   -6.8336446    335.53902  0.035127619   0.03574167            3 
  797000    1.1108102   -6.7926759    335.70863  0.035101279  0.035732446            3 
  798000    1.1386269   -6.7636017    337.68482  0.035263661  0.035723377            1 
  799000    1.1214382   -6.7943661    336.35353  0.035080677  0.035714395            1 
  800000    1.1485077    -6.820623    336.17443   0.03501817  0.035705062            1 
  801000    1.1086139   -6.8364873    336.91975  0.035051992  0.035695657            2 
  802000    1.1494615   -6.7923453    339.06724  0.035231425  0.035686618            8 
  803000    1.1158092   -6.7726509    338.65502  0.035144772  0.035677395            2 
  804000    1.1279304   -6.8010237    337.60554  0.034992282   0.03566812            4 
  805000    1.1105612   -6.8129748    339.59051  0.035154297  0.035658597            1 
  806000    1.0969257   -6.8205052    338.16632  0.034963433  0.035649077            2 
  807000     1.137743   -6.8272984    337.62161  0.034863859   0.03563908            3 
  808000    1.1285183   -6.7996107    339.48746  0.035013145  0.035629363            2 
  809000    1.1244238   -6.8202237    339.69359  0.034991099  0.035619799            3 
  810000    1.1212355   -6.8201911    341.07921  0.035090453  0.035610474            1 
  811000    1.1475029   -6.7840322    341.63707  0.035104508  0.035601661            4 
  812000    1.1273886   -6.7928863    341.64519  0.035062109  0.035592825            3 
  813000    1.1188382   -6.8005584    342.79041  0.035136369  0.035584083            2 
  814000    1.0911136   -6.8326734    341.49355  0.034960437  0.035575161            3 
  815000    1.1378964   -6.8104163    343.80896   0.03515429  0.035566531            2 
  816000    1.1243502   -6.8177749    343.62097  0.035092011  0.035558407            2 
  817000     1.125697   -6.8480339    342.58282  0.034943168  0.035549623            2 
  818000    1.1181953   -6.7957019    344.35144  0.035080627  0.035540965            1 
  819000    1.1241135   -6.8314272    343.75949  0.034977563   0.03553255            2 
  820000    1.1140265    -6.806962    345.05863  0.035066934  0.035523917            4 
  821000    1.1209738   -6.8091196    346.41511  0.035161907  0.035515675            2 
  822000    1.1472613   -6.7904135    345.32568  0.035008686  0.035507594            2 
  823000    1.1326161   -6.8607257    344.95116  0.034928226  0.035499413            2 
  824000    1.1153756   -6.8138354     346.6511  0.035057757  0.035491129            3 
  825000    1.1184253   -6.8518661    346.32606   0.03498243  0.035482829            1 
  826000    1.1079696   -6.7729822    347.25223  0.035033518  0.035474633            2 
  827000    1.1128908   -6.8278664    347.06234  0.034972021  0.035466678            3 
  828000    1.1100246   -6.7992646    348.89678   0.03511441  0.035458782            2 
  829000    1.1176712   -6.8386605     347.8219  0.034964003  0.035451054            3 
  830000    1.1341945   -6.7926939    349.57864  0.035098257  0.035443167            3 
  831000    1.1224994   -6.8179243    349.74251  0.035072454  0.035435244            2 
  832000    1.1278552      -6.7906    350.17344  0.035073462   0.03542695            1 
  833000     1.100698   -6.8294878    349.47642  0.034961626  0.035418857            4 
  834000    1.1193532   -6.8193532    350.40361  0.035012351  0.035410766            2 
  835000    1.1171309   -6.8436316    350.24429   0.03495452  0.035402645            2 
  836000    1.1407219   -6.7962081    351.93745  0.035081485  0.035394852            3 
  837000     1.131899   -6.8282454    351.56434  0.035002424  0.035387355            4 
  838000     1.116292   -6.8079173     352.1357  0.035017473  0.035379367            3 
  839000    1.0990349   -6.8427007    351.32855  0.034895565  0.035371325            2 
  840000    1.1279506   -6.8220985    353.28746   0.03504836  0.035363275            2 
  841000     1.123321   -6.8073752    352.66941  0.034945443  0.035355307            1 
  842000    1.0843755   -6.8516962     352.1277  0.034850326  0.035347111            4 
  843000    1.1147275   -6.8599913    352.37336   0.03483327   0.03533869            1 
  844000    1.0922233   -6.8324366    353.45643  0.034898936  0.035329872            3 
  845000    1.1287005   -6.8387084    352.33038  0.034746586  0.035321267            1 
  846000    1.1176637   -6.8042981    354.35394  0.034904841  0.035312411            3 
  847000    1.1096511   -6.8284615    355.81235  0.035007119  0.035304301            2 
  848000    1.1104562   -6.8338502    354.69724  0.034856254  0.035295686            2 
  849000    1.1239625   -6.7692182    355.22504  0.034867004  0.035287327            3 
  850000    1.1245812   -6.8266685    355.05832  0.034809639  0.035279184            3 
  851000     1.139605   -6.8466359    355.27727  0.034790176  0.035270597            2 
  852000    1.1248562   -6.8308942     355.6195  0.034782815  0.035261743            3 
  853000    1.1339913   -6.8206796    357.00784  0.034877671  0.035253415            1 
  854000    1.1392639   -6.8287366    358.08492  0.034941932  0.035245175            2 
  855000     1.109163   -6.8124258    356.97433  0.034792819  0.035237257            2 
  856000     1.112694   -6.8090423      358.132  0.034864875  0.035229439            3 
  857000    1.1084729   -6.8479434    359.49308  0.034956542  0.035222017            1 
  858000    1.0888944   -6.8553194    359.68845  0.034934775  0.035214689            1 
  859000    1.1305584   -6.8240796    360.60384  0.034982911  0.035207535            2 
  860000    1.1180061   -6.8215509    360.41444   0.03492388  0.035200296            4 
  861000    1.1246444   -6.8288022    360.54182  0.034895646  0.035192722            2 
  862000    1.1293867   -6.7787117    361.08485  0.034907661  0.035185297            2 
  863000    1.1058085   -6.8021043    361.97982  0.034953633  0.035178289            1 
  864000    1.1283046   -6.8366508    361.52628  0.034869433  0.035170965            3 
  865000    1.1095631   -6.8615551    362.58278  0.034930904  0.035163749            2 
  866000    1.1276272     -6.84221    362.14875  0.034848802  0.035156561            3 
  867000    1.1414001   -6.8277054    363.30686  0.034919921  0.035149421            1 
  868000    1.1273137   -6.8586694    362.57402  0.034809334  0.035142294            2 
  869000    1.1146707   -6.8662795    362.84178  0.034794954  0.035135019            2 
  870000    1.0956332   -6.8377231    363.40713  0.034809112  0.035127941            2 
  871000    1.1146015   -6.8588311    363.87787  0.034814186  0.035120789            1 
  872000    1.0858859   -6.8043472    365.07608  0.034888769  0.035113222            1 
  873000    1.1157304   -6.8153385    364.57916   0.03480137  0.035105895            3 
  874000    1.1308712   -6.8620725    364.03189  0.034709372  0.035098394            2 
  875000    1.1175967   -6.8081973    365.84345  0.034842233   0.03509098            1 
  876000    1.1324417   -6.8114793    366.90878  0.034903804  0.035084024            1 
  877000    1.1253906   -6.8430807    365.85363  0.034763742  0.035076845            2 
  878000     1.090185   -6.8506498    366.29563    0.0347661  0.035069697            5 
  879000    1.1172414   -6.7867128    368.95205  0.034978389  0.035062832            3 
  880000    1.1028694   -6.8272071    367.32491  0.034784556  0.035055886            5 
  881000     1.104438   -6.8091699    368.24152  0.034831774  0.035048825            2 
  882000     1.101845   -6.8533978    368.60179  0.034826321  0.035041667            1 
  883000    1.1326153   -6.8493239    369.02256  0.034826591  0.035034377            2 
  884000    1.1069789   -6.8479721    367.91352  0.034682647  0.035027259            2 
  885000    1.1098395   -6.7830899    369.43306   0.03478654  0.035020138            1 
  886000    1.0973263   -6.8367625    370.16718  0.034816326  0.035012972            3 
  887000    1.1341569   -6.8335866    369.81865   0.03474433  0.035006243            2 
  888000    1.1356033   -6.8246313    370.43052  0.034762624  0.034999777            2 
  889000    1.1322098   -6.7951793    372.59275  0.034926205  0.034993327            2 
  890000     1.082536   -6.7954138    373.10027  0.034934482  0.034987379            3 
  891000    1.1034372   -6.8170934    372.95365  0.034881561   0.03498099            3 
  892000    1.1251296   -6.8396003    373.25569  0.034870673  0.034974826            3 
  893000    1.1292753   -6.8376846    373.72902  0.034875795   0.03496885            3 
  894000    1.1064138    -6.827169    373.38741  0.034804942  0.034962537            3 
  895000    1.0844646   -6.8624148    372.84632  0.034715673  0.034956117            1 
  896000    1.1125666   -6.8182687    374.16933  0.034799975  0.034949528            2 
  897000    1.1208311   -6.8031376    374.65233  0.034806051  0.034943018            2 
  898000    1.1013116   -6.8671504    374.29337   0.03473398  0.034936757            4 
  899000    1.1120496   -6.7846983    376.30666  0.034881967  0.034930518            3 
  900000    1.1023412   -6.8386406    375.35915  0.034755477   0.03492422            1 
  901000    1.1071914    -6.830322    376.09601  0.034785054  0.034917683            2 
  902000    1.1285239   -6.8542392    377.04213    0.0348339  0.034911403            3 
  903000    1.1234583    -6.848255    376.86797  0.034779252   0.03490532            3 
  904000     1.093963   -6.8313456    378.47738  0.034889139   0.03489942            2 
  905000    1.1193974   -6.8342802    379.12271   0.03491001  0.034893815            2 
  906000     1.101848   -6.8566988    378.27724  0.034793712   0.03488795            2 
  907000    1.1234426   -6.8397734    379.46257  0.034864256   0.03488187            2 
  908000    1.1030276   -6.8650845    378.64653  0.034750967  0.034875617            3 
  909000    1.1008629   -6.7895368    379.97501  0.034834526  0.034869438            4 
  910000    1.1143824   -6.8184975    379.88543  0.034788043  0.034863495            2 
  911000    1.1040057   -6.8527947    378.94536  0.034663864  0.034857194            3 
  912000     1.113366   -6.8568237    379.66761   0.03469185  0.034850776            2 
  913000     1.076536    -6.864877    378.96337  0.034589574  0.034844099            5 
  914000    1.1145477   -6.8759429    380.56846  0.034698073  0.034837738            1 
  915000    1.0786263   -6.8667506    379.82003  0.034591988  0.034831502            3 
  916000    1.0951147   -6.8842507    380.68798  0.034633186  0.034825004            3 
  917000    1.0921583    -6.829799    381.37034  0.034657429  0.034818426            4 
  918000    1.1078662   -6.8844885     379.2929  0.034431092  0.034811512            5 
  919000    1.1029551   -6.8517656    381.81274   0.03462212  0.034804615            3 
  920000      1.10462   -6.8669605    381.03341  0.034513896  0.034797444            3 
  921000    1.0906576   -6.8799715    381.31622   0.03450201  0.034790366            2 
  922000    1.1125158   -6.8250372    383.11527  0.034627194  0.034783077            1 
  923000    1.1145022    -6.826173    382.31891  0.034517778  0.034775638            1 
  924000    1.1069616   -6.8157212    383.33156   0.03457175  0.034768355            2 
  925000    1.0957972   -6.8688337    382.42542   0.03445274  0.034761182            2 
  926000    1.1053476   -6.8380958    382.38084  0.034411523  0.034753933            2 
  927000    1.0997795    -6.879225    384.14085  0.034532619  0.034746287            2 
  928000    1.1084644   -6.8493768    382.70781  0.034366722  0.034738558            2 
  929000    1.0998513   -6.8558741    383.46262  0.034397436  0.034731203            1 
  930000    1.0969864   -6.8207554    385.76295  0.034566572  0.034724054            2 
  931000    1.0869977   -6.8165038     385.6953  0.034523389  0.034716654            4 
  932000    1.1073426   -6.8706432     385.5869  0.034476654  0.034709415            3 
  933000    1.1200697   -6.8748574    385.64973  0.034445313  0.034702251            5 
  934000    1.0901609   -6.8342489    386.13543  0.034451769  0.034695067            2 
  935000    1.1122601   -6.8883143    385.73129  0.034378903  0.034688056            2 
  936000    1.1056358   -6.8573634    387.72471   0.03451965  0.034681155            1 
  937000     1.119808   -6.8719628    386.95433  0.034414294  0.034673952            2 
  938000    1.0860674   -6.8658706    387.58753   0.03443386  0.034666965            3 
  939000    1.1219758   -6.8641964    386.70925  0.034319245   0.03465956            2 
  940000    1.1048204   -6.8508419    390.15478   0.03458819  0.034652758            2 
  941000    1.0883349   -6.8474118    388.16151  0.034374912  0.034645837            2 
  942000    1.1103894   -6.8184175     389.8004  0.034483404   0.03463917            1 
  943000    1.0971173   -6.8433319    389.16484  0.034390671  0.034632361            4 
  944000    1.1035786   -6.8891748    390.15234  0.034441414  0.034625461            2 
  945000    1.0979765   -6.8332168    390.45471  0.034431632    0.0346187            1 
  946000    1.0714562     -6.84807    391.24338  0.034464709  0.034612004            1 
  947000    1.1321863   -6.8901921    390.06275  0.034324423  0.034605171            4 
  948000     1.092413   -6.8660454    392.21449  0.034477364  0.034598517            2 
  949000    1.0771441   -6.8885141    391.31511  0.034362058  0.034591651            2 
  950000    1.1113935   -6.8555215    392.14837   0.03439898  0.034585253            2 
  951000    1.0762452   -6.8545722    393.42058  0.034474288  0.034578722            2 
  952000    1.0861458   -6.8912932    393.24842  0.034423006  0.034572019            3 
  953000    1.1007953   -6.8538849     393.4286  0.034402641  0.034565165            4 
  954000    1.1237321   -6.8459743    393.28452  0.034353994  0.034558618            2 
  955000    1.1014712   -6.8448838    395.28566   0.03449264  0.034551894            2 
  956000    1.1070594     -6.90077    394.11194  0.034354249  0.034545427            1 
  957000    1.1226884   -6.8719628    393.85018  0.034295557  0.034538724            8 
  958000    1.0799881     -6.86898    394.56559   0.03432199  0.034531944            3 
  959000    1.0850099   -6.8682466    395.79055  0.034392645  0.034525005            2 
  960000    1.1017459   -6.8520641    396.40753  0.034410376   0.03451838            7 
  961000     1.091085   -6.9119151      394.524  0.034211238   0.03451159            4 
  962000    1.1020322   -6.8486401    395.64531  0.034272809  0.034504705            1 
  963000    1.0826784   -6.8435215    397.32923  0.034382938   0.03449801            2 
  964000    1.1032476   -6.8650222    396.96067  0.034315411  0.034491245            4 
  965000    1.0856647   -6.8210065     398.3588  0.034400587  0.034484656            1 
  966000    1.1038815    -6.848846     398.0437  0.034337794  0.034478031            1 
  967000    1.1049545   -6.8332352    398.51537  0.034342931  0.034471184            2 
  968000    1.0978295   -6.8693166    397.06291  0.034182413  0.034464082            2 
  969000    1.1053006   -6.8697696    398.29976  0.034253505  0.034456897            2 
  970000    1.0690741    -6.893132    399.20533  0.034295991  0.034449823            3 
  971000    1.1037754   -6.8901117    397.81631  0.034141461  0.034442818            4 
  972000    1.0957835   -6.8868385    399.22196  0.034226848  0.034435654            3 
  973000    1.1068411   -6.8396145    400.19931  0.034275378  0.034428674            2 
  974000    1.1017269   -6.8617839    399.47993  0.034178639  0.034421645            3 
  975000    1.1028133   -6.8742514    400.64554  0.034243208  0.034414482            2 
  976000    1.0910262   -6.8915927    400.48189   0.03419415   0.03440762            2 
  977000    1.0950262   -6.8837227    400.33191  0.034146359  0.034400401            1 
  978000    1.0960942   -6.8292175    400.63995  0.034137691  0.034393165            2 
  979000    1.0993611   -6.8772024    400.52062  0.034092664  0.034385951            2 
  980000    1.0841504   -6.8609367    401.15512   0.03411183  0.034378532            3 
  981000    1.0870645   -6.9072401     400.0986  0.033987308  0.034370875            2 
  982000    1.0558137    -6.832825    400.73739  0.034006906  0.034363071            2 
  983000    1.0851514   -6.8878339    402.77435  0.034144994  0.034355433            3 
  984000    1.0788582   -6.8271278    402.76531  0.034109528  0.034347887            1 
  985000    1.0996673   -6.8616936      402.317  0.034036972  0.034340199            3 
  986000    1.0984166   -6.8865451    402.37436  0.034007299   0.03433286            2 
  987000    1.0763518   -6.8666458     401.3453  0.033885959  0.034325067            5 
  988000    1.0976176   -6.8555362    403.66673  0.034047463  0.034317156            4 
  989000    1.0795826    -6.911447     403.2901  0.033981302  0.034309162            2 
  990000    1.0870778    -6.912684    402.37968  0.033870343  0.034300859            2 
  991000    1.1081809    -6.925857    403.03266  0.033891075  0.034292686            3 
  992000    1.0766747   -6.8710122    403.83932  0.033924674  0.034284552            2 
  993000    1.0993205   -6.8954906    403.75378  0.033883332  0.034276743            1 
  994000    1.0890129   -6.8674227    405.32144   0.03398067  0.034268824            1 
  995000    1.0916624   -6.8684453    405.62651   0.03397207  0.034260966            2 
  996000     1.091263   -6.8761144     405.5456  0.033931191  0.034253083            2 
  997000     1.076812   -6.8630065    405.25352  0.033872745  0.034244882            2 
  998000    1.0912269   -6.8856578    405.95029  0.033896985  0.034236926            3 
  999000    1.1283223   -6.8257184    405.51641  0.033826861  0.034228802            2 
 1000000    1.0750043   -6.8286479    406.66766  0.033888971  0.034220587            3 
 1001000    1.0977405   -6.8698071    405.59687  0.033765973  0.034212049            3 
 1002000    1.0864899   -6.8303125    406.47248  0.033805096  0.034203747            5 
 1003000    1.0917824    -6.860068    406.25117  0.033753005  0.034195481            2 
 1004000    1.0853856   -6.8333604     407.2499  0.033802282  0.034187363            1 
 1005000     1.115948   -6.8488275     407.7968  0.033813997  0.034179396            8 
 1006000    1.1151468   -6.8909326    406.31934  0.033657997  0.034171125            1 
 1007000    1.0967402   -6.8849582    407.68902   0.03373792  0.034162664            4 
 1008000    1.0959296   -6.9074215    407.08879  0.033654827  0.034154307            2 
 1009000    1.1022691   -6.8907635    408.62191  0.033748093  0.034145849            2 
 1010000    1.0690193   -6.8573843    407.96737  0.033660674   0.03413747            2 
 1011000    1.0993891   -6.8502424    411.04519  0.033881074  0.034129135            2 
 1012000    1.0705118   -6.8864695    408.44933  0.033633838  0.034120909            6 
 1013000    1.0900145   -6.8315498    410.82429   0.03379601   0.03411286            2 
 1014000    1.0632071   -6.9055113    410.55137   0.03374025   0.03410477            2 
 1015000    1.0981665   -6.9092597    410.40584   0.03369506  0.034096658            2 
 1016000    1.0877469   -6.8558331    412.29806  0.033817098  0.034088558            3 
 1017000    1.0752345   -6.8573909    411.30231  0.033702254  0.034080298            1 
 1018000    1.0994206   -6.9029721    411.51935  0.033686914  0.034072033            3 
 1019000    1.0711158   -6.8844353    410.69752  0.033586647  0.034063762            1 
 1020000    1.0840347   -6.8771887    411.82694  0.033645992  0.034055223            3 
 1021000    1.0927831   -6.8421583    410.57847  0.033511138  0.034046668            1 
 1022000    1.1058486   -6.8938234    411.87721  0.033584247  0.034038505            1 
 1023000    1.1009815   -6.9090126    411.89649  0.033552989   0.03402999            5 
 1024000    1.0714237   -6.8818621    412.33892  0.033556227  0.034021422            5 
 1025000    1.0829043   -6.9052091    412.57263  0.033542491  0.034012778            5 
 1026000     1.100357   -6.8732331    414.54047  0.033669629  0.034004785            2 
 1027000    1.0811071   -6.8890295    414.76345  0.033654938  0.033996614            1 
 1028000    1.0735955   -6.8852402    413.77846  0.033542352   0.03398836            1 
 1029000    1.0791639   -6.8896169    413.52855  0.033489517  0.033979863            5 
 1030000    1.1074524   -6.8642317    414.51008  0.033536415  0.033971492            4 
 1031000    1.0959174   -6.8802781    413.82016  0.033448121    0.0339631            1 
 1032000     1.092963   -6.8739766    414.52403  0.033472547  0.033954419            2 
 1033000    1.1062507   -6.8996636      414.931  0.033472975  0.033945731            2 
 1034000    1.0871147   -6.9137465    414.66397  0.033419082  0.033937016            9 
 1035000    1.0902146   -6.8757575    415.13842  0.033424994  0.033928306            5 
 1036000    1.0981742   -6.9039731    415.90481  0.033454377  0.033919516            1 
 1037000    1.0803592   -6.8878586    417.00879  0.033510832  0.033910626            3 
 1038000    1.0782155   -6.9385871    416.43402  0.033432404  0.033901649            4 
 1039000    1.0744572     -6.87722    416.87942   0.03343595  0.033892563            6 
 1040000    1.0939295   -6.8749881    416.63077  0.033383876  0.033883662            1 
 1041000    1.0783456    -6.903518    416.41348  0.033334413  0.033874628            3 
 1042000    1.0796599   -6.8795258     417.8933  0.033420769  0.033865674            3 
 1043000    1.0786319   -6.8938968     417.9116  0.033390189   0.03385645            3 
 1044000      1.06087   -6.8694994    418.45648  0.033401699  0.033847442            3 
 1045000    1.0800088   -6.9019694    417.05082  0.033257641  0.033838339            3 
 1046000    1.0889239   -6.8751515    417.94068   0.03329674    0.0338294            3 
 1047000    1.0805989   -6.8934579    419.12905  0.033359523  0.033820523            1 
 1048000    1.0828722   -6.8506225    419.70378  0.033373392  0.033811851            2 
 1049000    1.0742568   -6.9046824    418.72988   0.03326421  0.033802915            2 
 1050000     1.090695   -6.8505355    419.86047   0.03332226  0.033793999            3 
 1051000    1.0704695   -6.8872144    420.48692  0.033340225  0.033784951            2 
 1052000    1.0817269   -6.9029655    419.54993   0.03323431  0.033775983            2 
 1053000    1.0747494    -6.862468     420.8481  0.033305484  0.033766821            1 
 1054000    1.1206333   -6.8899751     419.5549  0.033171639  0.033757715            2 
 1055000    1.0826988   -6.9021052     420.1842  0.033189905  0.033748582            2 
 1056000    1.0854908   -6.9101378     420.3367  0.033170509  0.033739267            1 
 1057000    1.0918984   -6.8816784    420.61049  0.033160713  0.033730418            3 
 1058000    1.0729216    -6.904569    421.96175  0.033235803  0.033721251            3 
 1059000    1.0796257   -6.8609941    422.77101    0.0332681  0.033712184            3 
 1060000    1.0888003   -6.8817464    422.50702  0.033215961   0.03370323            4 
 1061000     1.093372   -6.8941241      423.892  0.033293434  0.033694438            2 
 1062000    1.1132663   -6.9491755    422.18067  0.033127799  0.033685743            4 
 1063000    1.0963653   -6.8969121    424.37116  0.033268357  0.033676876            2 
 1064000    1.0867437   -6.9283913    423.16619  0.033142715  0.033668033            3 
 1065000    1.0809676    -6.877797    424.67544   0.03322969  0.033659226            3 
 1066000    1.0666072   -6.8720718    424.78148  0.033206808  0.033650613            2 
 1067000    1.0896084   -6.8406976    425.66911   0.03324501  0.033642015            2 
 1068000    1.0837687   -6.8783498    426.65606  0.033290891  0.033633482            4 
 1069000    1.0840298   -6.9006102    426.36749  0.033237254  0.033624966            1 
 1070000    1.0739429   -6.8817877    426.97448  0.033253464  0.033616361            4 
 1071000    1.1073101   -6.8820282    425.87235   0.03313666  0.033607911            2 
 1072000    1.0826163   -6.8958242    426.03161  0.033118129   0.03359909            3 
 1073000    1.0607452   -6.9097768    426.31252   0.03310908   0.03359021            3 
 1074000    1.0990203   -6.9082164    427.59434  0.033177711  0.033581579            1 
 1075000    1.0745863   -6.8759921     428.0176  0.033179659  0.033572954            2 
 1076000    1.0733561   -6.9111019    428.43073  0.033180818   0.03356451            3 
 1077000    1.0925289    -6.874041    428.41323  0.033148656  0.033556034            1 
 1078000    1.0494869   -6.9241312     427.2855  0.033030728  0.033547575            2 
 1079000    1.0553044   -6.8844553    429.45922  0.033167996  0.033538993            2 
 1080000    1.0669731   -6.9436743    428.40538  0.033055971  0.033530506            3 
 1081000    1.0912778   -6.9018485    429.33486  0.033097045  0.033522032            6 
 1082000    1.0657931   -6.8968223     428.7934  0.033024754  0.033513716            2 
 1083000    1.0582142   -6.9132004    429.40295  0.033041163  0.033505364            2 
 1084000      1.06928   -6.9533217    428.82582  0.032966315  0.033496931            2 
 1085000    1.0896838   -6.9086003    430.52191  0.033066199  0.033488231            1 
 1086000    1.0526772    -6.897923     430.8656  0.033062124  0.033479641            2 
 1087000    1.0651448   -6.9062314    430.41043  0.032996813  0.033471054            2 
 1088000    1.0769297   -6.8607176    430.89198  0.033003368  0.033462399            3 
 1089000    1.0615564   -6.8766513    432.66946   0.03310908  0.033453878            5 
 1090000    1.0930773   -6.9308617    431.59495  0.032996556  0.033445233            2 
 1091000    1.0783588   -6.8967455    432.59022  0.033042333  0.033436478            4 
 1092000    1.0862309   -6.9385349    432.79569  0.033027754  0.033427943            3 
 1093000    1.0959045   -6.9077605    432.76921  0.032995518  0.033419453            3 
 1094000    1.0810352   -6.9189443    433.37714  0.033011665  0.033411135            2 
 1095000    1.0863818   -6.8942912    434.22274  0.033045871  0.033402822            2 
 1096000    1.0733534   -6.8986797     434.2772   0.03301986  0.033394349            3 
 1097000     1.091249    -6.887793    434.70701   0.03302241  0.033385882            2 
 1098000    1.0795274   -6.8987347    436.39743  0.033120631  0.033377339            1 
 1099000    1.0996557    -6.908506    434.41296  0.032940018  0.033368656            3 
 1100000    1.0651816   -6.8903565    434.40836  0.032909724  0.033360111            6 
 1101000    1.0804984    -6.886187    435.90712  0.032993273  0.033351458            2 
 1102000    1.0778571   -6.9109244    435.45163  0.032928889  0.033342901            2 
 1103000    1.0919752    -6.911028    435.30592  0.032888027  0.033334181            2 
 1104000    1.0870249   -6.9328831    436.62525  0.032957824  0.033325484            1 
 1105000    1.0862401   -6.8837429    437.01296  0.032957237  0.033317058            1 
 1106000    1.0562418   -6.8868439    438.25774  0.033021228  0.033308927            2 
 1107000    1.0429265   -6.9393114    437.12995    0.0329065  0.033300553            3 
 1108000     1.057505   -6.9141358    438.00456  0.032942581   0.03329217            2 
 1109000     1.090394    -6.941333    436.84553  0.032825784  0.033283786            2 
 1110000    1.0624695   -6.9484799    438.78043  0.032941474  0.033275585            2 
 1111000    1.0674776   -6.9108154    439.31351  0.032951808   0.03326762            2 
 1112000    1.0654835   -6.8601951    440.01411  0.032974679  0.033259453            4 
 1113000    1.0720745   -6.9199201    439.32372   0.03289336  0.033251387            3 
 1114000    1.0671028   -6.8998608    439.54604  0.032880464  0.033243246            3 
 1115000     1.072437    -6.888145    441.25736  0.032978876  0.033235148            4 
 1116000    1.0717863   -6.9213484    440.97743  0.032928422  0.033227149            3 
 1117000    1.0888219   -6.9438659    439.47392  0.032786774  0.033219216            2 
 1118000    1.0790654   -6.9374652    441.20693  0.032886622  0.033211106            3 
 1119000    1.0702333   -6.8990021    441.65927   0.03289092  0.033203114            2 
 1120000    1.0620963   -6.8924762    442.20292  0.032902003  0.033195302            9 
 1121000     1.094946   -6.9146011    443.20075   0.03294683  0.033187466            3 
 1122000    1.0641609   -6.9436177     443.1013  0.032910078  0.033179642            2 
 1123000    1.0665038   -6.9613067    442.37288   0.03282672  0.033171749            2 
 1124000    1.0518455   -6.8828416    444.42466  0.032949634  0.033163845            4 
 1125000    1.0460346   -6.9098534    443.09031  0.032821504  0.033155999            4 
 1126000    1.0575834   -6.9066124     445.5601   0.03297514  0.033148112            2 
 1127000    1.0587359   -6.9394722    443.98976  0.032829767  0.033140015            2 
 1128000    1.0656889   -6.8975276    444.22722  0.032818205  0.033131813            2 
 1129000    1.0711606    -6.902328    443.81706  0.032758862  0.033123548            1 
 1130000    1.0904508   -6.9057891    444.06494  0.032748152  0.033115328            2 
 1131000    1.0707707   -6.9290457    443.03491  0.032643303  0.033107067            2 
 1132000    1.0864168   -6.9386465    444.59433  0.032729265    0.0330986            2 
 1133000    1.0645702    -6.954034    445.67663  0.032779981  0.033090302            3 
 1134000    1.0643616   -6.9136831    445.06847  0.032706384   0.03308204            1 
 1135000    1.0832655   -6.9075415    445.97684  0.032744262  0.033073871            2 
 1136000    1.0516996   -6.9077705    445.79481  0.032702084  0.033065585            1 
 1137000    1.0822282   -6.9283352    446.54919  0.032728612   0.03305734            3 
 1138000    1.0538329   -6.8863478    446.55463  0.032700251  0.033049153            3 
 1139000    1.0758668   -6.9384291    447.12906  0.032713569  0.033040861            5 
 1140000    1.0657161   -6.9382749    447.01956  0.032676868  0.033032617            4 
 1141000    1.0721605   -6.9025934    447.83608  0.032707864  0.033024173            6 
 1142000    1.0495338   -6.9094653    447.05995  0.032622589  0.033015812            2 
 1143000    1.0691564   -6.9111386     447.7003  0.032640734  0.033007068            4 
 1144000      1.06166   -6.8809946    448.76406   0.03268969  0.032998834            2 
 1145000    1.0704207   -6.9376643    448.64865   0.03265274  0.032990691            5 
 1146000    1.0310336   -6.9454403    449.85371  0.032711875  0.032982448            3 
 1147000     1.051992    -6.923349    449.51281  0.032658588  0.032974317            2 
 1148000    1.0831592   -6.9404048    449.09066  0.032599497  0.032966189            3 
 1149000    1.0767766   -6.9179459    449.57625  0.032606343  0.032958044            3 
 1150000     1.063083   -6.9263768     449.4406  0.032568159  0.032949864            5 
 1151000    1.0723818    -6.928049    450.51115  0.032617372  0.032941653            2 
 1152000    1.0677301   -6.9409508     450.8937  0.032616732  0.032933585            2 
 1153000    1.0479688   -6.9249777    451.36481  0.032622493  0.032925479            3 
 1154000    1.0614992   -6.9372699    452.94742  0.032708508  0.032917487            1 
 1155000    1.0709024   -6.9024816    451.52008  0.032577206   0.03290929            3 
 1156000    1.0965796   -6.9563283    451.81289  0.032570133  0.032900987            3 
 1157000    1.0941434   -6.9233646    451.22492  0.032499634  0.032892792            2 
 1158000    1.0646481   -6.9357955    451.92744  0.032522124   0.03288459            2 
 1159000    1.0512086   -6.9075395    452.35801  0.032525022  0.032876181            3 
 1160000    1.0596538   -6.8978926    452.45489  0.032503943  0.032867664            2 
 1161000    1.0732853   -6.9355867    452.46287   0.03247652  0.032859181            5 
 1162000    1.0717894   -6.8747097    454.05403  0.032562681  0.032850575            1 
 1163000    1.0760348   -6.9317928      454.007  0.032531313  0.032841994            2 
 1164000     1.070646   -6.9291168    452.86008  0.032421255  0.032833489            2 
 1165000    1.0607144   -6.9024492    454.18642  0.032488299  0.032824825            3 
 1166000    1.0641584   -6.9032595    453.60104  0.032418599  0.032816244            1 
 1167000    1.0670048   -6.8940908    454.85076   0.03248006    0.0328079            2 
 1168000    1.0525881   -6.9448004    454.19918  0.032405764  0.032799388            2 
 1169000    1.0354714    -6.910438    455.72456   0.03248678  0.032790885            4 
 1170000     1.065606   -6.9186596    455.05724  0.032411485  0.032782518            3 
 1171000    1.0490589    -6.940486    454.28399  0.032328778  0.032773925            2 
 1172000    1.0615999    -6.960774    455.94103  0.032419015  0.032765264            2 
 1173000    1.0557761   -6.9360725    455.63844   0.03236988  0.032756571            1 
 1174000    1.0680963   -6.9322751    456.65747  0.032414641  0.032748035            3 
 1175000    1.0603063   -6.9004228    458.91159  0.032546921  0.032739574            1 
 1176000    1.0398538   -6.9209911    456.99641  0.032383533  0.032731157            2 
 1177000    1.0617283   -6.9429092    457.25776  0.032374523  0.032722442            2 
 1178000    1.0611898   -6.9068124    458.29869  0.032420677   0.03271377            2 
 1179000    1.0635458   -6.9372884    457.04856  0.032304817  0.032705168            2 
 1180000    1.0437688   -6.9271119     457.7035  0.032323694  0.032696302            6 
 1181000     1.055666   -6.9694834    456.54063   0.03221427  0.032687356            2 
 1182000    1.0643117   -6.8892418    457.09059  0.032225789  0.032678435            2 
 1183000     1.061142   -6.9628582    457.09468  0.032198836  0.032669451            2 
 1184000    1.0524791   -6.9512889     456.4856  0.032128772  0.032660392            3 
 1185000     1.082455   -6.9427166    457.48052  0.032171626  0.032651444            3 
 1186000    1.0631634   -6.9363533    458.79339  0.032236747  0.032642379            2 
 1187000    1.0699243   -6.9192426    458.42557  0.032183766  0.032633512            3 
 1188000    1.0626579   -6.9133733    459.40759  0.032225561  0.032624613            2 
 1189000    1.0445565   -6.9374929    458.74619  0.032152102  0.032615723            5 
 1190000    1.0936272    -6.926479    459.76604  0.032196501   0.03260677            1 
 1191000    1.0374602   -6.9216628    459.67548  0.032163132  0.032597898            3 
 1192000    1.0661607   -6.9182679    460.61698   0.03220197  0.032588954            1 
 1193000    1.0449585   -6.9536555    460.10309  0.032139081  0.032580132            2 
 1194000    1.0673977   -6.9290551    461.19362  0.032188276   0.03257133            4 
 1195000    1.0812871   -6.9371619    460.79915  0.032133832  0.032562675            3 
 1196000    1.0566163   -6.9052572    461.73185  0.032171952  0.032554037            2 
 1197000    1.0769167   -6.9318928    461.23494   0.03211048  0.032545274            2 
 1198000    1.0539116   -6.9054083    462.56009  0.032175855  0.032536684            3 
 1199000    1.0746486   -6.9605679    462.01203  0.032110928  0.032527974            2 
 1200000    1.0432583   -6.9608763    461.30243  0.032034891  0.032519107            3 
 1201000    1.0585203   -6.9299453    463.21212  0.032140724  0.032510333            2 
 1202000    1.0593821   -6.9735426     462.4668  0.032062313   0.03250162            4 
 1203000    1.0754476   -6.9250713    463.60515  0.032114516  0.032492785            1 
 1204000     1.055613   -6.9139675    462.82137  0.032033594  0.032483902            1 
 1205000    1.0670887   -6.9671498     462.3409  0.031973783  0.032475003            5 
 1206000    1.0941767   -6.9249375    464.26975  0.032080552  0.032466155            1 
 1207000    1.0724851   -6.9300609    463.72157  0.032016126   0.03245718            1 
 1208000    1.0682606   -6.9586386     463.2831  0.031959375  0.032448153            2 
 1209000    1.0441384   -6.9763693    462.57233  0.031883949  0.032439069            7 
 1210000    1.0678085   -6.9364735    463.17536   0.03189913  0.032429899            4 
 1211000    1.0627296   -6.9771274    463.67744  0.031907338  0.032420722            1 
 1212000    1.0736868   -6.9399611    466.02754  0.032042598  0.032411929            3 
 1213000     1.039988   -6.9779159    463.74988  0.031859706  0.032403077            4 
 1214000     1.061071   -6.9444898     466.9947  0.032056198  0.032394251            2 
 1215000    1.0649941   -6.9516193    465.84822  0.031951181  0.032385358            3 
 1216000    1.0509993   -6.9298451    465.59207  0.031907351  0.032376485            1 
 1217000    1.0586155   -6.9630236    466.00041  0.031909094  0.032367729            6 
 1218000     1.065064   -6.9387828    466.47313  0.031915239  0.032358617            1 
 1219000    1.0779825   -6.9651834    466.59972  0.031897711  0.032349747            2 
 1220000    1.0608028   -6.9697603    467.43722  0.031928772  0.032340874            3 
 1221000    1.0629757   -6.9474706    468.90428  0.032002749  0.032332205            5 
 1222000    1.0574144   -6.9849307     466.9881  0.031845888  0.032323528            2 
 1223000    1.0546402   -6.9439526    469.49577  0.031990718  0.032314941            3 
 1224000    1.0704424    -6.958603    467.30621   0.03181551  0.032306136            2 
 1225000    1.0376011   -6.9400322    469.43497  0.031934351  0.032297391            2 
 1226000     1.026336   -6.9476291    469.90353  0.031940153  0.032288888            4 
 1227000    1.0397772   -6.9403138    470.39463  0.031947476  0.032280514            1 
 1228000    1.0713934    -6.921719    471.71146  0.032010821   0.03227203            2 
 1229000    1.0414734   -6.9568202    471.58736   0.03197636  0.032263715            1 
 1230000    1.0574109   -6.9402324    473.12175  0.032054319  0.032255405            1 
 1231000    1.0376218   -6.9534845    472.03811  0.031954922  0.032246902            3 
 1232000    1.0718642   -6.9507487    472.42396  0.031955084  0.032238711            1 
 1233000    1.0788395   -6.9397967    473.38628  0.031994207  0.032230546            3 
 1234000    1.0630593    -6.967952    472.97016  0.031940178  0.032222394            2 
 1235000    1.0629952   -6.9662468    472.85526  0.031906563  0.032214179            1 
 1236000    1.0537057   -6.9775614    473.34365  0.031913676  0.032206014            2 
 1237000    1.0652091   -6.9586129    472.92576  0.031859725  0.032197766            3 
 1238000    1.0485612   -6.9229621    473.99871  0.031906214  0.032189535            2 
 1239000    1.0246659   -6.9615454     473.3766   0.03183862  0.032181228            3 
 1240000    1.0828661   -6.9128395    474.61127  0.031895919  0.032172837            1 
 1241000    1.0425751   -6.9181763    476.43451  0.031992648  0.032164639            5 
 1242000    1.0325254   -6.9515459      476.741  0.031987453  0.032156388            3 
 1243000    1.0752024   -6.9763001    474.38785  0.031803959  0.032148039            2 
 1244000    1.0393789   -6.9666835    476.38882  0.031912434  0.032139825            4 
 1245000    1.0662817   -6.9649873    475.83331  0.031849619  0.032131433            3 
 1246000    1.0593889   -6.9495685    476.00859  0.031835781  0.032123117            2 
 1247000    1.0521518   -6.9224771    479.33516  0.032032556  0.032115069            2 
 1248000    1.0734784    -6.932805     477.1337  0.031859889  0.032107032            3 
 1249000    1.0711355   -6.9706872    476.94432  0.031821745  0.032098929            2 
 1250000    1.0503364   -6.9570561    477.40376  0.031826917  0.032090896            3 
 1251000     1.053223   -6.9589021    478.16734  0.031852341  0.032082754            4 
 1252000    1.0466451   -6.9121681    477.94604   0.03181217   0.03207457            1 
 1253000    1.0443603   -6.9382967    478.18056  0.031802378  0.032066348            2 
 1254000    1.0296135   -6.9165966    478.69209  0.031811011  0.032058086            2 
 1255000    1.0400713   -6.9280394     479.2455   0.03182241  0.032049847            4 
 1256000    1.0307085   -6.9563387    477.99513  0.031714114  0.032041597            2 
 1257000    1.0444913   -6.9542533    478.48372  0.031721275   0.03203331            3 
 1258000    1.0199006   -6.9480297    478.58731  0.031702922  0.032025176            2 
 1259000    1.0435525   -6.9554164    477.81954  0.031626922  0.032016834            4 
 1260000    1.0494277   -6.9197681     479.5508  0.031716322  0.032008557            3 
 1261000    1.0600829   -6.9606289    479.38905  0.031680482    0.0320004            1 
 1262000    1.0796188   -6.9592549    480.44827  0.031725322  0.031992344            1 
 1263000    1.0487258   -6.9553097    481.82596  0.031791103  0.031984274            2 
 1264000    1.0324598   -6.9489663    481.86879  0.031768776   0.03197613            2 
 1265000     1.053427   -6.9922166    480.89614  0.031679587  0.031967688            2 
 1266000    1.0677459   -6.9591911     481.1613  0.031672018  0.031959419            2 
 1267000    1.0626096   -6.9276236    482.35674  0.031725647  0.031951362            2 
 1268000    1.0528131   -6.9395849    480.07829  0.031550887  0.031943277            2 
 1269000    1.0638157   -6.9703082    481.11934  0.031594388  0.031934918            3 
 1270000    1.0533865    -6.953555    482.79749  0.031679625   0.03192685            1 
 1271000    1.0416885   -6.9629458    483.12143   0.03167594  0.031918747            3 
 1272000    1.0767954   -6.9698384    484.99413  0.031773724  0.031910568            1 
 1273000    1.0425193   -6.9441015    483.82514   0.03167224  0.031902409            2 
 1274000    1.0657608   -6.9586383     483.3817  0.031618374  0.031894375            4 
 1275000    1.0495129   -6.9747416    483.83798  0.031623397  0.031886175            5 
 1276000    1.0725386   -6.9688166    484.18847  0.031621504  0.031877942            2 
 1277000    1.0409302    -6.968232    482.53189  0.031488638  0.031869606            1 
 1278000     1.071275   -6.9710966    484.80547   0.03161225  0.031861339            1 
 1279000     1.038101   -6.9796842    484.48692  0.031566779  0.031853031            2 
 1280000    1.0713469    -6.981378    484.85015  0.031565765  0.031844889            3 
 1281000    1.0469766   -6.9462524    485.67386  0.031594709  0.031836876            4 
 1282000    1.0468771   -6.9834854    485.77668  0.031576747  0.031828634            4 
 1283000    1.0299711   -6.9431623    487.37384  0.031655874  0.031820251            2 
 1284000    1.0473559   -6.9789432     485.7378  0.031525039  0.031812031            2 
 1285000    1.0332715   -6.9759325    486.09675  0.031523784  0.031803813            2 
 1286000    1.0276347   -6.9732524    487.74397  0.031606011  0.031795445            4 
 1287000    1.0355956   -6.9794198    485.50095  0.031436218  0.031787408            3 
 1288000     1.042369   -7.0013632    487.09164  0.031514728   0.03177915            3 
 1289000    1.0491239   -6.9854826    488.00675  0.031549441  0.031770958            3 
 1290000    1.0477889   -6.9322001    489.79524  0.031640519  0.031762918            2 
 1291000    1.0518533   -6.9177348    489.18099  0.031576361   0.03175503            2 
 1292000    1.0211615   -6.9794236    488.82648  0.031529056  0.031746943            3 
 1293000    1.0543961   -6.9438565    488.49693  0.031483432   0.03173885            2 
 1294000    1.0412642    -6.981224    489.20272  0.031504555  0.031730633            1 
 1295000    1.0325159   -6.9708857    489.40337  0.031493138  0.031722344            1 
 1296000    1.0802184    -6.964126    490.00099  0.031507265  0.031714139            2 
 1297000    1.0204923   -6.9571107    488.71322  0.031400233  0.031705792            2 
 1298000    1.0447713   -6.9355991    490.71665  0.031504665  0.031697427            1 
 1299000    1.0751048   -6.9736633    489.27367  0.031387841  0.031689027            2 
 1300000    1.0453782   -6.9421567    490.27959  0.031428179   0.03168071            4 
 1301000    1.0273798   -6.9824707     489.0346  0.031324276  0.031672297            2 
 1302000    1.0587827   -6.9297893    490.48636  0.031393136  0.031663932            8 
 1303000    1.0321533   -6.9775406    490.66475  0.031380452  0.031655317            2 
 1304000    1.0726376   -6.9680787    489.81514  0.031302092  0.031646734            4 
 1305000    1.0356803   -7.0017129    489.81731  0.031278245  0.031638149            3 
 1306000    1.0449231   -6.9975216    488.73418  0.031185183  0.031629521            3 
 1307000    1.0468064   -6.9757991    490.15499  0.031251912  0.031620908            2 
 1308000    1.0344453   -6.9533584    491.19881  0.031294521  0.031612337            2 
 1309000    1.0634178   -6.9829761    491.21725  0.031271788  0.031603928            1 
 1310000    1.0275829   -6.9523811    491.04932  0.031237234  0.031595389            3 
 1311000    1.0479075     -6.95664    491.95166  0.031270764  0.031586851            3 
 1312000    1.0278826   -6.9871577     492.0151  0.031250959  0.031578303            1 
 1313000    1.0410213   -6.9724278    493.59267  0.031327283  0.031569891            3 
 1314000    1.0401135   -6.9948674    492.26889  0.031219488  0.031561544            3 
 1315000    1.0585374   -6.9666847    495.27266    0.0313861  0.031553253            2 
 1316000    1.0558415   -6.9599956    494.14029  0.031290545   0.03154479            4 
 1317000    1.0511211   -6.9971632    494.56832   0.03129387   0.03153653            6 
 1318000    1.0300835   -6.9914739    493.09889  0.031177219  0.031528248            5 
 1319000    1.0446337   -6.9411658    495.42518  0.031300555   0.03152006            3 
 1320000    1.0187047   -6.9716101    495.26127  0.031266494  0.031511855            3 
 1321000    1.0574377   -6.9914914    495.45975  0.031255347  0.031503648            4 
 1322000    1.0535357   -6.9839572    494.57467  0.031175912  0.031495333            4 
 1323000    1.0472797   -6.9721813    497.12703  0.031313116  0.031487002            4 
 1324000    1.0397586   -6.9412391    495.83714  0.031208279  0.031478702            2 
 1325000    1.0484506   -6.9385526    497.19524  0.031270141  0.031470557            1 
 1326000    1.0445416   -7.0116573    495.86806  0.031163151  0.031462325            3 
 1327000     1.040417   -6.9876878    496.03594   0.03115021   0.03145391            3 
 1328000     1.043044   -6.9703413    496.04971  0.031127618  0.031445523            2 
 1329000    1.0353166   -6.9899133    495.89991  0.031094803  0.031436977            2 
 1330000    1.0430788   -7.0112126    497.84328  0.031193188  0.031428507            2 
 1331000    1.0556591   -7.0251854    496.08917  0.031059928  0.031420215            3 
 1332000    1.0454134   -7.0168697    497.29193  0.031111858  0.031411876            3 
 1333000    1.0310637   -6.9869009    497.57762  0.031106378  0.031403547            5 
 1334000    1.0295035   -6.9706686     499.8093   0.03122247  0.031395462            2 
 1335000    1.0487152   -7.0006055    498.93487  0.031144499  0.031387215            2 
 1336000    1.0373745   -6.9947906     498.0368   0.03106517  0.031378886            5 
 1337000    1.0476054   -6.9461322    499.48975  0.031132495  0.031370646            3 
 1338000    1.0453942   -6.9852048    498.45179  0.031044581  0.031362318            2 
 1339000     1.045935   -6.9583236    500.40241  0.031142794  0.031353962            6 
 1340000     1.042301   -6.9747092    500.02711  0.031096213  0.031345625            3 
 1341000    1.0282693   -6.9596204    498.47282  0.030976437  0.031337178            5 
 1342000    1.0465965   -7.0163877    498.74999  0.030970566  0.031328839            4 
 1343000     1.040472   -7.0037769    498.44031   0.03092829  0.031320391            3 
 1344000    1.0186517    -6.963377    501.21146  0.031077099  0.031312231            2 
 1345000    1.0530001   -7.0017585    499.49545  0.030947674  0.031303847            2 
 1346000    1.0361987   -6.9934814    501.66657  0.031059099  0.031295456            3 
 1347000    1.0280917   -6.9746194    500.51811   0.03096499  0.031287064            2 
 1348000    1.0512528   -7.0062527    499.03855  0.030850553   0.03127861            2 
 1349000    1.0597135   -6.9833326    502.51386  0.031042369  0.031270059            1 
 1350000    1.0140156    -6.965415    501.55246  0.030960028  0.031261782            5 
 1351000    1.0266153   -6.9861246    503.42554  0.031052649   0.03125355            3 
 1352000    1.0582333   -6.9899757    503.87031  0.031057095  0.031245307            4 
 1353000    1.0396544   -6.9917886    501.89431  0.030912436  0.031236914            2 
 1354000    1.0360176   -6.9837436    502.57852  0.030931716  0.031228573            3 
 1355000    1.0709748    -6.997178    502.97415   0.03093322  0.031220151            1 
 1356000    1.0293381   -6.9652108    503.82168  0.030962493  0.031211792            4 
 1357000    1.0471371   -6.9852351    503.09136  0.030894827  0.031203548            5 
 1358000    1.0138847   -6.9696301    504.12479  0.030935493  0.031195215            3 
 1359000     1.014186   -7.0062157    503.93792  0.030901271  0.031186886            4 
 1360000    1.0513794   -6.9392129    504.58152  0.030917985  0.031178363            7 
 1361000    1.0332658   -6.9907221    503.90257  0.030853696  0.031170052            3 
 1362000    1.0317253   -7.0137443    503.69192  0.030818154  0.031161716            2 
 1363000    1.0096211   -6.9887383    504.78079  0.030862117  0.031153446            3 
 1364000    1.0060747   -7.0044302    505.40529  0.030877645  0.031145182            3 
 1365000    1.0302934   -7.0147597    505.33108  0.030850493  0.031136594            3 
 1366000    1.0422943   -6.9889549    505.54289   0.03084083  0.031128223            2 
 1367000    1.0260129   -7.0016905    506.71951  0.030889997  0.031119812            4 
 1368000    1.0345252   -7.0331239    506.97634  0.030883062  0.031111362            2 
 1369000    1.0349252   -6.9893903    506.01692  0.030802101   0.03110295            4 
 1370000    1.0294089   -6.9646182    505.65657  0.030757699  0.031094461            2 
 1371000    1.0042112   -6.9994733    506.90806  0.030811333  0.031086015            1 
 1372000    1.0257474   -6.9991821    506.13581  0.030741971  0.031077457            2 
 1373000     1.041982   -6.9474542    508.16543  0.030842767  0.031069035            3 
 1374000    1.0380515   -7.0194485    506.68819  0.030730725  0.031060437            3 
 1375000    1.0345519   -6.9865838    507.34039  0.030747903  0.031051744            2 
 1376000    1.0310125   -6.9737535    506.95685  0.030702329  0.031043281            1 
 1377000    1.0313531    -7.018692    508.11545  0.030750148  0.031034767            2 
 1378000    1.0269941   -7.0309093    507.00636  0.030660762  0.031026232            4 
 1379000    1.0269163   -6.9762532    508.08665   0.03070381  0.031017574            3 
 1380000     1.029336   -6.9914546    508.77931  0.030723388   0.03100888            3 
 1381000    1.0369838   -6.9737068    509.50359  0.030744846   0.03100025            1 
 1382000    1.0636826   -6.9934402    508.11245  0.030638715  0.030991673            3 
 1383000    1.0277829    -7.002458    508.86129  0.030661683   0.03098319            3 
 1384000    1.0312262   -7.0453139    509.03475  0.030649973  0.030974584            2 
 1385000    1.0233835   -6.9956931    509.28909  0.030643146  0.030966006            3 
 1386000    1.0358236   -6.9766462     510.3322  0.030683754  0.030957494            3 
 1387000    1.0193241   -7.0013455    509.62578  0.030619189  0.030948838            1 
 1388000    1.0073114   -6.9984565    509.46035  0.030587197  0.030940214            2 
 1389000    1.0318264   -7.0160129    511.39769  0.030681407  0.030931761            2 
 1390000    1.0410945   -7.0065016    509.17227  0.030525916  0.030923222            1 
 1391000    1.0449244   -6.9884264     511.2252  0.030626959  0.030914676            3 
 1392000    1.0147642   -6.9845239    512.66955  0.030691424  0.030906291            2 
 1393000     1.046336   -7.0075482    510.86381  0.030561367  0.030897932            4 
 1394000     1.021584   -6.9983854    511.74769  0.030592282  0.030889574            4 
 1395000    1.0266975   -6.9859767    513.72567  0.030688511  0.030881294            4 
 1396000    1.0333337   -6.9868957    513.09874  0.030629103  0.030872949            2 
 1397000    1.0327815   -6.9663757    513.71362  0.030643857  0.030864731            2 
 1398000    1.0412015    -6.969282    514.33576  0.030659022  0.030856491            2 
 1399000    1.0328744     -6.99027    514.42073  0.030642169  0.030848287            2 
 1400000    1.0241012   -7.0071523     514.8088  0.030643381  0.030840058            6 
 1401000     1.032358    -6.954339    513.54878  0.030546561  0.030831642            3 
 1402000    1.0204377   -7.0278281    513.15349  0.030501277  0.030823212            3 
 1403000     1.026297   -7.0277161    513.34834  0.030491111  0.030814689            3 
 1404000    1.0219835   -7.0368706    512.44694  0.030415891  0.030806116            2 
 1405000    1.0408043   -7.0387318    513.23156   0.03044078  0.030797509            2 
 1406000    1.0390775   -7.0441917    514.59865  0.030500157  0.030788867            1 
 1407000     1.018008    -7.017465    514.40558  0.030467044  0.030780414            2 
 1408000    1.0165271   -7.0209238    515.70863  0.030522528  0.030771918            4 
 1409000    1.0153717   -6.9922325     514.3249  0.030419026  0.030763518            2 
 1410000    1.0319908   -6.9984873    516.16727   0.03050634  0.030755167            3 
 1411000    1.0213343   -7.0578728    515.12882  0.030423389  0.030746553            3 
 1412000    1.0374615   -7.0077305     517.0082   0.03051276  0.030737984            3 
 1413000    1.0188483   -7.0394341    515.18946  0.030383903  0.030729439            2 
 1414000     1.014728   -7.0335369    516.59514  0.030445258  0.030721088            3 
 1415000    1.0375374   -6.9947236    518.20942  0.030518811  0.030712686            2 
 1416000    1.0339869   -6.9613623    517.37231  0.030447994  0.030704483            2 
 1417000    1.0232927   -6.9847397     518.5955  0.030498442  0.030696146            2 
 1418000    1.0180675   -6.9940829    519.04004  0.030503058  0.030687877            3 
 1419000    1.0208541   -6.9985822    518.77595  0.030466053   0.03067968            2 
 1420000    1.0301042   -7.0003746    518.72909  0.030441848  0.030671397            3 
 1421000    1.0363541   -7.0185513    519.78289  0.030482224  0.030663101            1 
 1422000    1.0163816   -7.0059279    520.25127  0.030488237  0.030654917            2 
 1423000    1.0181782   -7.0337278    519.76115  0.030438109  0.030646687            3 
 1424000    1.0243313   -7.0222025    519.95861   0.03042829  0.030638502            2 
 1425000    1.0152711    -7.002543    521.74886  0.030511629  0.030630162            2 
 1426000    1.0633109    -7.037167    520.02357  0.030389409   0.03062185            3 
 1427000    1.0173626    -7.002678     519.6591  0.030346829  0.030613599            1 
 1428000    1.0325032   -7.0320366    521.13976  0.030411984  0.030605265            2 
 1429000    1.0344164   -6.9801346    520.68323  0.030364079  0.030597103            2 
 1430000     1.005003   -7.0119696    521.93691  0.030415904  0.030588948            2 
 1431000    1.0030827   -6.9939675    519.69036  0.030263823  0.030580619            3 
 1432000   0.99651916   -7.0074363    521.47813  0.030346725  0.030572229            1 
 1433000    1.0171797   -7.0516812    520.09498  0.030245114  0.030563713            2 
 1434000     1.023665   -7.0294206    520.45973  0.030245219  0.030555141            1 
 1435000    1.0055487   -7.0375511    522.18728  0.030324464    0.0305468            2 
 1436000    1.0171031   -7.0441906    521.15969  0.030243715  0.030538472            2 
 1437000    1.0245572   -7.0097008     523.5341  0.030360363  0.030530104            2 
 1438000    1.0102051   -7.0126479    522.43874  0.030275773  0.030521927            2 
 1439000    1.0007013   -7.0219988    523.60458  0.030322248  0.030513764            3 
 1440000    1.0312949   -7.0247202    523.38455  0.030288458  0.030505716            2 
 1441000    1.0224661    -7.015205    523.21613  0.030257699  0.030497582            2 
 1442000   0.99869447   -7.0386584     523.0473  0.030226959  0.030489345            3 
 1443000   0.97946528   -7.0092016    524.63333  0.030297605  0.030481286            3 
 1444000    1.0414746   -6.9720162    525.65787   0.03033575  0.030473269            3 
 1445000    1.0222292   -7.0368097    525.37633   0.03029852  0.030465226            2 
 1446000    1.0114384   -6.9724255    524.73449  0.030240577  0.030457134            3 
 1447000    1.0045815   -7.0211341    524.26038  0.030192374  0.030449074            3 
 1448000    1.0075623   -7.0205602    526.51217  0.030301115  0.030440947            4 
 1449000    1.0140183    -7.014727    527.15662  0.030317266  0.030432859            1 
 1450000    1.0066886   -7.0287552    526.88051  0.030280489  0.030424832            3 
 1451000    1.0345372   -6.9937007    526.67489  0.030247811  0.030416675            4 
 1452000     1.037219   -7.0453844    526.70833  0.030228899  0.030408596            1 
 1453000    1.0158757   -7.0447357    526.16604  0.030176993  0.030400522            3 
 1454000    1.0432596   -7.0397697    526.80816   0.03019304  0.030392353            2 
 1455000    1.0215699   -7.0375532    527.28701  0.030199714  0.030384192            3 
 1456000    1.0198111   -7.0549646    526.41108  0.030128839  0.030375997            4 
 1457000    1.0100121   -7.0004826    526.89098  0.030135609  0.030367954            6 
 1458000    1.0394635   -7.0418734    527.28152  0.030137261   0.03035977            3 
 1459000    1.0056458   -6.9718188    527.03369   0.03010245  0.030351677            1 
 1460000    1.0336632   -7.0213463    528.32058  0.030155284  0.030343556            3 
 1461000    1.0131347   -7.0095984    530.20314  0.030242023  0.030335607            4 
 1462000    1.0138565   -7.0130906    530.07632  0.030214109  0.030327784            1 
 1463000    1.0223787   -7.0035609    529.69275  0.030171608  0.030319839            2 
 1464000    1.0157092   -7.0739041    529.60135  0.030145796  0.030311869            2 
 1465000    1.0276921   -6.9975023    529.95557  0.030145368  0.030303846            6 
 1466000     1.015079   -7.0248402    530.90492   0.03017877  0.030295918            3 
 1467000    1.0154903   -6.9851936    532.50873  0.030249303  0.030288071            2 
 1468000    1.0197005   -7.0270222    532.26313  0.030214755  0.030280382            1 
 1469000    1.0215417   -7.0278131    532.37986  0.030200809  0.030272447            2 
 1470000    1.0172279   -7.0124143     531.6224  0.030137324   0.03026441            2 
 1471000    1.0326812   -7.0200717    531.58307  0.030114609  0.030256432            2 
 1472000    1.0041364   -7.0229128    532.31983   0.03013586   0.03024858            3 
 1473000     1.021603   -7.0606868    530.87244  0.030033517  0.030240598            1 
 1474000    1.0343458   -7.0098717    532.20948  0.030088732  0.030232589            2 
 1475000    1.0259781   -6.9994537    533.83642  0.030160249  0.030224674            3 
 1476000    1.0018889   -7.0351884    533.20545  0.030104192  0.030216764            4 
 1477000    1.0183723   -7.0293589    533.67703  0.030110417  0.030208802            4 
 1478000    1.0157657   -7.0198902    533.21282  0.030063871  0.030200846            1 
 1479000   0.99411893   -7.0088907    534.05269  0.030090866  0.030193035            4 
 1480000    1.0247921   -7.0439892    534.18718  0.030078107  0.030185233            3 
 1481000    1.0167658   -7.0199671     534.4416  0.030072114  0.030177413            3 
 1482000    1.0232599   -7.0458584    534.80704   0.03007237  0.030169605            2 
 1483000    1.0326301    -7.016579    535.67895  0.030101088  0.030161868            2 
 1484000    1.0223526    -7.028038    535.64025   0.03007863  0.030154121            3 
 1485000    1.0274783   -7.0527068    534.83196  0.030013017  0.030146462            3 
 1486000     1.019094   -7.0578428    535.57191  0.030034315  0.030138746            3 
 1487000    1.0236499   -7.0570428    537.41346   0.03011732  0.030130997            3 
 1488000    1.0208121   -7.0302174    537.46095   0.03009974  0.030123411            2 
 1489000    1.0125868   -7.0407111    537.17552   0.03006355  0.030115785            4 
 1490000    1.0106049   -7.0228694    536.70028  0.030016794  0.030108319            1 
 1491000    1.0094871   -7.0266153     539.1213  0.030131975  0.030100808            3 
 1492000    1.0238707   -7.0423061    538.68382  0.030087345  0.030093307            4 
 1493000    1.0164918   -7.0556107    536.94156  0.029969947  0.030085867            3 
 1494000   0.97173823   -7.0420836    539.06958  0.030068584  0.030078393            3 
 1495000     1.035098   -7.0210353    538.53265  0.030018542  0.030070959            4 
 1496000    1.0082641   -7.0715405    539.00534  0.030024807  0.030063534            3 
 1497000   0.99820864   -7.0072964    543.26186  0.030241698  0.030056358            2 
 1498000    1.0046157   -7.0563775    539.81525  0.030029776  0.030049171            2 
 1499000   0.99654268   -7.0447837    541.49631  0.030103197  0.030042062            1 
 1500000    1.0115472      -7.0471    540.65236  0.030036242  0.030034899            3 
 1501000    1.0277148   -7.0142388     542.4819  0.030117805  0.030027835            1 
 1502000     1.021107   -7.0703011    541.32658  0.030033654  0.030020686            4 
 1503000    1.0108505   -7.0335408     541.5962  0.030028621  0.030013495            2 
 1504000   0.99941914   -7.0585997     541.9474  0.030028114  0.030006366            2 
 1505000    1.0202838   -7.0420827    543.75052  0.030108002  0.029999225            2 
 1506000    1.0009009   -7.0339778    543.68876  0.030084593  0.029992147            2 
 1507000    1.0243296   -7.0420669    542.96526  0.030024622  0.029985114            4 
 1508000    1.0079718   -7.0692125    544.26617  0.030076601  0.029978112            3 
 1509000    1.0063944   -7.0566265    543.94159  0.030038745  0.029971139            2 
 1510000   0.99099233   -7.0367191    544.34625  0.030041184  0.029964111            2 
 1511000    1.0156626   -7.0465621    545.16452  0.030066431  0.029957205            2 
 1512000    1.0164194   -7.0344764    544.58733  0.030014734  0.029950151            1 
 1513000   0.99059836   -7.0298647    545.83292  0.030063501  0.029943134            3 
 1514000    1.0095238   -6.9993785    546.31464  0.030070158   0.02993622            1 
 1515000   0.99964109   -7.0302413    545.14175  0.029985795  0.029929456            4 
 1516000   0.99909177    -7.011237    546.55558  0.030043732  0.029922617            2 
 1517000    1.0334047   -7.0351323    547.00134  0.030048415  0.029915826            2 
 1518000   0.99918538   -7.0534751    546.70357  0.030012273  0.029908959            1 
 1519000    1.0046185   -7.0394848    547.58297   0.03004076  0.029902126            2 
 1520000    1.0092884   -7.0318748    548.08689  0.030048623  0.029895218            3 
 1521000    1.0129602   -7.0164104    547.21711  0.029981214   0.02988835            1 
 1522000    1.0079377   -7.0576029    547.63763   0.02998454  0.029881618            1 
 1523000   0.99442741   -7.0403847    548.69676  0.030022803  0.029874866            2 
 1524000    1.0090123   -7.0258685    548.72407  0.030004597  0.029868163            4 
 1525000    1.0178972   -6.9871912     549.8944  0.030048874  0.029861483            3 
 1526000   0.99779305   -7.0410199    547.75093   0.02991213  0.029854754            3 
 1527000    1.0117504   -7.0714719    550.00311   0.03001545  0.029847968            5 
 1528000    1.0145343   -7.0447541    549.49583  0.029968141  0.029841244            4 
 1529000    1.0089634   -7.0644279     550.2507  0.029989683  0.029834427            4 
 1530000    1.0096905   -7.0200637    549.95372  0.029953906  0.029827573            3 
 1531000    1.0316174   -7.0838649    548.61593  0.029861525  0.029820566            3 
 1532000   0.99120675   -7.0528577    549.52168  0.029891301  0.029813527            3 
 1533000      1.00378   -7.0282403    550.44494  0.029921991  0.029806587            2 
 1534000    1.0122273   -7.0332749    550.11022  0.029884302  0.029799687            2 
 1535000   0.99666715   -7.0405752    552.40633  0.029989486  0.029792876            4 
 1536000   0.99232306    -7.046669    551.27483  0.029908574  0.029785951            2 
 1537000    0.9788533   -7.0711589    552.16407  0.029937328  0.029779035            2 
 1538000    1.0058829   -7.0247321    550.34079  0.029819072  0.029772001            9 
 1539000    1.0114871   -7.0349021      551.232  0.029847953   0.02976507            4 
 1540000      1.00748   -7.0866262     550.5169  0.029789876  0.029758108            3 
 1541000     1.005983   -7.0208519    551.66212  0.029832474  0.029751116            2 
 1542000    1.0260711   -7.0565036    552.64727  0.029866368  0.029744164            2 
 1543000    1.0084398   -7.0464352    552.76628  0.029853439  0.029737373            5 
 1544000   0.98642882   -7.0548499    553.25014  0.029860219   0.02973054            3 
 1545000     1.018958   -7.0755766    553.53766    0.0298564  0.029723755            3 
 1546000     0.995608   -7.0430955    553.27159  0.029822746  0.029716839            3 
 1547000    0.9838595   -7.0467651    553.34366  0.029807351  0.029710021            2 
 1548000    1.0326404   -7.0817196    552.80657  0.029759182  0.029703103            2 
 1549000   0.99676784   -7.0634246    553.75656  0.029791078  0.029696175            3 
 1550000   0.98933854   -7.0469403    553.56525  0.029761573  0.029689187            3 
 1551000    1.0090653   -7.0264577     554.2507  0.029779212  0.029682127            7 
 1552000   0.98716421   -7.0578348      554.469  0.029771746  0.029675079            3 
 1553000    1.0058417    -7.081702    554.24661  0.029740642  0.029667935            3 
 1554000    1.0208992   -7.0438125    553.79554  0.029697316  0.029660727            2 
 1555000    1.0143606   -7.0434306    554.34458  0.029707641  0.029653546            3 
 1556000   0.99070865   -7.0006323     553.2083  0.029627694  0.029646369            5 
 1557000    1.0164081   -7.0469867    554.45162   0.02967521  0.029639068            3 
 1558000   0.99169624   -7.0359048    555.12957  0.029692425  0.029631736            4 
 1559000    1.0049643   -7.0810003    553.83572  0.029604219  0.029624538            3 
 1560000     1.012665   -7.0409049    554.88735  0.029641418  0.029617249            7 
 1561000    1.0151136   -7.0416326    555.69004  0.029665281  0.029610102            4 
 1562000    1.0159165   -7.0634243    554.39444  0.029577168  0.029602697            3 
 1563000   0.98175326    -7.033059    553.72163  0.029522373  0.029595315            1 
 1564000    1.0059569   -7.0127536    555.45391  0.029595796  0.029587928            2 
 1565000   0.99616227   -7.0903988    556.09109  0.029610814  0.029580488            2 
 1566000   0.99303061   -7.0552569    556.74453  0.029626678  0.029573182            2 
 1567000    0.9813096   -7.0525883     554.5153   0.02948922  0.029565849            2 
 1568000    1.0071699   -7.0938141    555.10317  0.029501657  0.029558316            3 
 1569000    1.0088718   -7.0658061    556.08439  0.029534969  0.029550857            1 
 1570000   0.99847218   -7.0749571    555.45121  0.029482548  0.029543357            3 
 1571000    1.0049963   -7.0626637    555.74206   0.02947921   0.02953584            2 
 1572000   0.98192538   -7.0473871    556.20519  0.029485008  0.029528391            2 
 1573000   0.96030912   -7.0443631    555.49265  0.029428515  0.029520905            3 
 1574000    1.0142819   -7.0457394    556.95423    0.0294872  0.029513288            6 
 1575000    1.0109512   -7.0715063    557.32978  0.029488348  0.029505641            2 
 1576000   0.99503131   -7.0740949    555.81029  0.029389292  0.029498098            6 
 1577000   0.99845732   -7.0659452    556.27599  0.029395264  0.029490443            3 
 1578000   0.97976689   -7.0531612    558.73992  0.029506755  0.029482883            3 
 1579000   0.99759317   -7.0457782    556.88583  0.029390217  0.029475373            2 
 1580000    1.0127032   -7.0648881    558.54098  0.029458913   0.02946791            1 
 1581000   0.98585166   -7.0849445    558.76412  0.029452041  0.029460494            5 
 1582000    1.0126798   -7.0567715    558.51462  0.029420281  0.029453011            2 
 1583000    1.0088789   -7.0773537    557.59479  0.029353274  0.029445475            3 
 1584000   0.99036911   -7.0690649    559.00833  0.029409108  0.029437807            3 
 1585000   0.97861109   -7.0920479    559.52551  0.029417745   0.02943023            2 
 1586000   0.99865279   -7.0777618    558.55367  0.029348133  0.029422656            2 
 1587000   0.99852808   -7.0772906    558.27206  0.029314853  0.029415101            2 
 1588000     1.015857   -7.0683419    558.84871  0.029326654  0.029407567            2 
 1589000    1.0095397   -7.1010349    558.59157  0.029294712  0.029399998            3 
 1590000    1.0087626   -7.0649777    558.92123  0.029293565  0.029392479            3 
 1591000     1.003572   -7.0750821    559.12699  0.029285931  0.029384966            4 
 1592000    1.0245548   -7.0450778     559.5047  0.029287306  0.029377302            6 
 1593000   0.96435554   -7.0565762    561.02799  0.029348608  0.029369756            3 
 1594000   0.99879688   -7.1064619    560.51987  0.029303632  0.029362236            5 
 1595000    1.0129486    -7.084424    560.02858  0.029259592  0.029354746            2 
 1596000   0.98198532   -7.0439405    561.66638  0.029326774  0.029347423            2 
 1597000   0.98390951   -7.0652586    563.90396   0.02942517  0.029340133            3 
 1598000    1.0009623   -7.0549184    561.99107  0.029307002  0.029332859            4 
 1599000   0.99609054   -7.0636783    563.69691  0.029377575  0.029325603            4 
 1600000   0.99438249   -7.0827274    562.56059  0.029300031  0.029318353            8 
 1601000    1.0080209   -7.0752247    565.11095  0.029414478  0.029311046            5 
 1602000   0.99659802   -7.0762974    563.10423  0.029291731  0.029303877            3 
 1603000   0.99011875   -7.0765373    564.13162  0.029326867  0.029296666            1 
 1604000   0.99163509   -7.0605761    565.14834  0.029361406  0.029289512            3 
 1605000   0.99054959   -7.0554651    564.87736  0.029329042  0.029282325            7 
 1606000   0.97375066   -7.0419996    564.91096  0.029312524  0.029275192            4 
 1607000   0.98694837   -7.0408602    566.24854  0.029363645  0.029268042            2 
 1608000    0.9946565   -7.0977085    565.23753   0.02929299    0.0292609            1 
 1609000   0.97004004   -7.0672726    566.72537  0.029351842  0.029253818            3 
 1610000    1.0128305   -7.1006397    565.47639  0.029268964  0.029246706            2 
 1611000   0.99264449   -7.1048119    565.96197  0.029275914  0.029239545            2 
 1612000   0.98234593   -7.0435855     567.3723  0.029330661  0.029232453            3 
 1613000    1.0118481   -7.0481916    567.33858  0.029310735  0.029225536            1 
 1614000    1.0022405   -7.1200694    566.42931  0.029245627  0.029218469            1 
 1615000   0.99370554     -7.08141    567.62223  0.029289073  0.029211234            3 
 1616000   0.99332898    -7.058588    568.68642  0.029325826  0.029204039            2 
 1617000   0.97009313   -7.0474877    567.22556  0.029232404  0.029196921            2 
 1618000   0.97707148   -7.0640271    566.93448  0.029199345  0.029189827            2 
 1619000    1.0017289   -7.0651228    567.96747   0.02923448  0.029182608            1 
 1620000   0.98800509   -7.0932208    568.00074  0.029218145   0.02917532            2 
 1621000   0.97417777   -7.0852539    569.25652  0.029264678  0.029168161            2 
 1622000   0.98972579   -7.0977841    567.88422  0.029176131  0.029160981            2 
 1623000   0.99242849   -7.0872188    567.41574  0.029134101  0.029153811            3 
 1624000   0.98788732   -7.0656862    568.71799  0.029182984  0.029146496            2 
 1625000   0.98898672   -7.0622529    568.98164  0.029178546  0.029139308            2 
 1626000   0.97768142   -7.0848117    569.31545  0.029177709  0.029132106            2 
 1627000    1.0041882   -7.0651661    567.88243  0.029086377  0.029124865            4 
 1628000    0.9813442   -7.0887735    569.99775  0.029176789   0.02911777            3 
 1629000    1.0077729   -7.0640831    569.81893   0.02914973  0.029110659            4 
 1630000    1.0059702   -7.0803341     570.2154  0.029152116  0.029103449            2 
 1631000   0.97924041   -7.0787575    568.75766  0.029059762  0.029096266            6 
 1632000    1.0063207   -7.0773159    570.19963  0.029115586  0.029089045            4 
 1633000   0.98848229   -7.0930295    572.06583   0.02919299  0.029081935            4 
 1634000   0.98127477   -7.0695202    570.67692   0.02910429  0.029074743            2 
 1635000   0.99483433   -7.0794715    571.57456  0.029132241  0.029067467            4 
 1636000    1.0070056   -7.0945333    573.27042  0.029200816  0.029060361            3 
 1637000   0.99890275   -7.0475136    573.43872  0.029191546   0.02905337            3 
 1638000   0.99130174   -7.0889618     571.8706  0.029093946  0.029046175            4 
 1639000   0.97127803   -7.0933204    571.06893  0.029035435  0.029039019            4 
 1640000   0.98705319   -7.0826826    573.13422  0.029122674  0.029031813            3 
 1641000   0.99953045   -7.1042021    572.11445  0.029053141  0.029024718            2 
 1642000   0.98490276   -7.0738406    573.29451  0.029095337   0.02901747            2 
 1643000   0.99951142   -7.0668873    574.01868  0.029114358  0.029010277            1 
 1644000    1.0097328   -7.0784234    572.26608   0.02900781  0.029003063            3 
 1645000     1.004386   -7.0898075    571.90529  0.028971899  0.028995872            5 
 1646000   0.99153581   -7.0745479    574.57471  0.029089445  0.028988635            4 
 1647000   0.98565216   -7.0764652    572.20451  0.028951857  0.028981295            4 
 1648000     1.001436    -7.061567    574.28212  0.029039347   0.02897392            3 
 1649000   0.97150814   -7.1023189    573.75887  0.028995294  0.028966619            3 
 1650000   0.97202744   -7.0961081    574.14205  0.028997073   0.02895932            2 
 1651000    1.0033618   -7.0820088    574.41915  0.028993496  0.028952041            4 
 1652000    0.9897165   -7.1110663    574.19347  0.028964562  0.028944711            2 
 1653000   0.99704947   -7.0900712    575.90238  0.029033191  0.028937407            3 
 1654000    1.0087403   -7.0809905    574.47093  0.028943517  0.028930139            4 
 1655000   0.99628717   -7.0830985    574.84396  0.028944812  0.028922835            5 
 1656000   0.96689302    -7.099069    576.06982  0.028989021  0.028915598            2 
 1657000   0.97232056   -7.1008571    575.29254  0.028932435  0.028908185            3 
 1658000    1.0022435   -7.1087376    574.36668   0.02886845  0.028900774            3 
 1659000    1.0023729   -7.0766225    574.71597  0.028868594  0.028893413            5 
 1660000   0.98423757    -7.123066    574.01828  0.028816179  0.028886024            3 
 1661000   0.96772397   -7.0905996    576.91153  0.028943986  0.028878574            3 
 1662000   0.97360018   -7.0780402    576.61806  0.028911856  0.028871286            3 
 1663000   0.96834489   -7.0922968     576.7524  0.028901203  0.028863947            3 
 1664000   0.98196257   -7.1059283    576.92576  0.028892516  0.028856636            3 
 1665000   0.98453972   -7.0945634    577.01264  0.028879511  0.028849331            4 
 1666000   0.96992459   -7.1236285    577.11526   0.02886731  0.028842086            6 
 1667000   0.98202705   -7.0993948    577.27364   0.02885791  0.028834667            3 
 1668000   0.97250163   -7.0549852    577.06725  0.028830298  0.028827258            2 
 1669000   0.98344699   -7.1044792    575.59433  0.028739481   0.02881989            3 
 1670000   0.98925341    -7.094011    577.12721  0.028798763  0.028812468            1 
 1671000   0.98893573   -7.0610177    579.26606  0.028888194  0.028805141            2 
 1672000   0.99599186   -7.0739531    577.13552  0.028764729  0.028797785            2 
 1673000    1.0001371   -7.0951952    577.60437  0.028770889  0.028790455            3 
 1674000   0.98684868   -7.0960262    577.77299  0.028762096  0.028782963            4 
 1675000   0.97987177   -7.1110033    577.43119   0.02872792  0.028775534            3 
 1676000   0.98507812   -7.0759102     578.6944  0.028773588  0.028768175            3 
 1677000   0.97403362   -7.1388701    577.06869  0.028675646  0.028760853            3 
 1678000    1.0046665   -7.1377182    577.59056  0.028684473  0.028753402            3 
 1679000   0.97711387   -7.1129844    579.98348  0.028786156  0.028746001            3 
 1680000   0.97844371   -7.0803134    579.67281  0.028753612  0.028738543            4 
 1681000    1.0062778   -7.0928043    579.37054  0.028721522  0.028731136            3 
 1682000   0.98432571     -7.08777    579.47247  0.028709496  0.028723679           10 
 1683000   0.98250547   -7.0795564    579.90499  0.028713854  0.028716222            5 
 1684000   0.98807584   -7.0921068    579.34491  0.028669087  0.028708726            2 
 1685000   0.96964616   -7.1322581    580.03891  0.028686395  0.028701271            4 
 1686000   0.98894189   -7.1074631    579.59533  0.028647456  0.028693749            5 
 1687000   0.96971599   -7.1116343    580.34522  0.028667518  0.028686305            6 
 1688000   0.96993934   -7.1167083    580.00813  0.028633893  0.028678838            4 
 1689000   0.99934657   -7.1013455    579.79084  0.028606218  0.028671356            2 
 1690000   0.96552058    -7.055037    583.38511  0.028766524  0.028663842            5 
 1691000   0.98113857   -7.1042603     579.9449  0.028579977  0.028656369            5 
 1692000   0.97650954   -7.1111703    579.55323  0.028543796  0.028648805            4 
 1693000   0.97030291   -7.1062167    581.26842  0.028611361  0.028641226            2 
 1694000   0.97345865   -7.1033545    579.76205  0.028520368  0.028633719            5 
 1695000   0.97782648   -7.0894774    581.41113  0.028584618  0.028626282            1 
 1696000   0.98474533     -7.11423     579.8358   0.02849036  0.028618678            6 
 1697000   0.98627612   -7.0804369    580.55357  0.028508818  0.028611114            1 
 1698000   0.99449768   -7.1156861     581.2552  0.028526462  0.028603524            3 
 1699000   0.97742643   -7.0702687    583.38345   0.02861406  0.028595941            6 
 1700000   0.97848005   -7.1110876    582.76994  0.028567154  0.028588492            2 
 1701000   0.99534458   -7.1415181    581.95535  0.028510452  0.028580963            5 
 1702000   0.96158513   -7.1215002    582.84271  0.028537148  0.028573368            3 
 1703000   0.98248926    -7.121709    582.84278  0.028520394  0.028565889            3 
 1704000   0.98482894   -7.0904045    582.69192  0.028496279  0.028558404            2 
 1705000   0.96548653   -7.1192452    583.46411  0.028517308    0.0285509            1 
 1706000   0.97157523   -7.1201004    584.05383  0.028529398  0.028543362            3 
 1707000   0.99226844   -7.1182281    583.11803     0.028467   0.02853582            3 
 1708000   0.94783049   -7.0935616    585.84286  0.028583278  0.028528247            3 
 1709000   0.97513786    -7.096154    584.85266  0.028518269  0.028520732            3 
 1710000   0.96610472   -7.1001839    584.30489  0.028474897   0.02851327            2 
 1711000   0.97564665    -7.103999    584.82602  0.028483636   0.02850569            4 
 1712000   0.98391466   -7.1156911     583.5047  0.028402682  0.028498009            3 
 1713000   0.98573249   -7.1063369    583.96882   0.02840868  0.028490285            6 
 1714000     1.006064   -7.1075799    584.20806  0.028403737   0.02848262            5 
 1715000   0.97133411   -7.1107315    582.83817  0.028320611  0.028474926            4 
 1716000   0.97718857   -7.0980973    582.39849  0.028282755  0.028467144            2 
 1717000   0.97903114   -7.0993637    583.60603   0.02832489  0.028459394            4 
 1718000   0.97986097   -7.0690241      586.659   0.02845649  0.028451757            3 
 1719000   0.95317351   -7.1167338    586.57115  0.028435677  0.028444158            3 
 1720000   0.97469421   -7.0871436    586.66709  0.028423793  0.028436573            3 
 1721000    1.0019717   -7.0913205     586.5288  0.028400581  0.028428929            2 
 1722000   0.98376834   -7.1050031    585.52146   0.02833534  0.028421336            3 
 1723000   0.98226142   -7.1248427      585.649  0.028325063  0.028413792            3 
 1724000   0.95762757   -7.1212427    585.75799  0.028313901  0.028406143            4 
 1725000   0.99513143   -7.0996126    586.61815  0.028339041  0.028398549            4 
 1726000   0.96056411   -7.0558109    586.46785  0.028315365   0.02839101           10 
 1727000   0.98320023   -7.1206707     586.3084  0.028291276  0.028383413            2 
 1728000   0.97929011   -7.0929149    586.74763  0.028296086  0.028375745            2 
 1729000   0.97326061    -7.114808    588.02054  0.028341071  0.028367972            7 
 1730000   0.96783466   -7.1310244    585.39735  0.028198331  0.028360183            3 
 1731000   0.97763709   -7.0924374    585.55202  0.028189487  0.028352313            2 
 1732000   0.97395354   -7.1220346    585.51281  0.028171324  0.028344367            2 
 1733000   0.97447992   -7.1444489     586.2896  0.028192421  0.028336506            2 
 1734000    0.9729368   -7.1226347    586.42778  0.028182804  0.028328706            2 
 1735000   0.96794095   -7.1173572    586.35543  0.028163085  0.028320845            2 
 1736000   0.97102536     -7.08506    586.42588  0.028150244   0.02831301            5 
 1737000   0.97086294   -7.1561095    586.46718  0.028136019  0.028305125            3 
 1738000   0.96899723   -7.0925221    587.22827  0.028156323  0.028297309            1 
 1739000   0.97222982   -7.1306942     587.4053  0.028148615   0.02828951            2 
 1740000   0.96210012   -7.0870725    587.61532  0.028142496  0.028281814            3 
 1741000   0.98948303   -7.0959556    588.10005  0.028149533  0.028274023            2 
 1742000   0.98338992   -7.1406833    587.54737  0.028106935  0.028266197            2 
 1743000   0.99663745   -7.1541139    589.49208  0.028183787  0.028258423            3 
 1744000   0.96924574   -7.1423678     588.3216  0.028111697  0.028250591            2 
 1745000   0.97016541   -7.1325408    589.25991  0.028140397  0.028242859            3 
 1746000   0.98479641   -7.0786692    590.45177  0.028181165  0.028235078            4 
 1747000   0.96472692   -7.1547217    589.27652  0.028108973  0.028227228            3 
 1748000   0.96817195   -7.1338516    589.19001  0.028088768  0.028219428            4 
 1749000   0.98796885   -7.1167385    589.66331  0.028095259  0.028211584            5 
 1750000   0.97527661   -7.1078335    590.96607  0.028141241  0.028203818            1 
 1751000   0.96581329   -7.1216164    590.23597  0.028090423  0.028196091            3 
 1752000   0.98153908   -7.1310937    590.58273  0.028090883  0.028188358            1 
 1753000   0.97454723   -7.1222216    591.49082  0.028118027   0.02818059            3 
 1754000   0.96886728   -7.1264888    589.38949  0.028002161  0.028172755            3 
 1755000   0.95194468   -7.1352522    589.39731  0.027986577  0.028164842            5 
 1756000   0.97924277   -7.1519658    590.23461  0.028010375  0.028156936            5 
 1757000   0.95016905   -7.1390227    589.56655  0.027962747  0.028149043            2 
 1758000   0.95942054   -7.1303272    591.13652  0.028021261  0.028141181            3 
 1759000   0.95205417   -7.1292935     590.3048  0.027965927  0.028133318            6 
 1760000   0.96816772   -7.1394734    589.77102  0.027924764  0.028125475            1 
 1761000   0.98155937   -7.1399178    589.43086   0.02789281  0.028117604            4 
 1762000   0.96430383   -7.1611054    592.44649  0.028019603  0.028109743            4 
 1763000   0.95179421   -7.1554835    592.16562  0.027990434  0.028101872            2 
 1764000   0.97016958   -7.1500234    592.02921  0.027968122  0.028094097            3 
 1765000   0.94362342   -7.1274982    593.14049  0.028004744  0.028086323            3 
 1766000   0.94751268    -7.121395    592.32828   0.02795056  0.028078536            4 
 1767000    0.9815056   -7.1218869    594.25756  0.028025729  0.028070794            2 
 1768000   0.97446479   -7.1034472    592.96545  0.027948975   0.02806303            4 
 1769000   0.96113737   -7.1453921    593.77508  0.027971315  0.028055245            4 
 1770000   0.94252261   -7.1250521    592.95075  0.027916702  0.028047426            2 
 1771000    0.9652186   -7.1173089    593.98811  0.027949751  0.028039735            4 
 1772000   0.98590418   -7.1379613    593.34044   0.02790352  0.028032056            2 
 1773000   0.98058799   -7.1194287    595.85155  0.028005807  0.028024337            3 
 1774000   0.96940786   -7.1022749    595.63776  0.027979978  0.028016773            4 
 1775000   0.95010786   -7.1274904    595.65182  0.027964874  0.028009134            4 
 1776000   0.97682933   -7.1344399    594.43059  0.027891826  0.028001466            6 
 1777000   0.97907766   -7.1314154    597.48011  0.028019138  0.027993938            3 
 1778000    0.9647679   -7.1366505    595.03213  0.027888645  0.027986328            4 
 1779000   0.97529572   -7.0788628    597.17074  0.027973147  0.027978672            2 
 1780000   0.95141931   -7.1382638    596.91154  0.027945297  0.027971062            2 
 1781000   0.98054039   -7.1266124     597.4131  0.027953074  0.027963519            2 
 1782000   0.97581899   -7.1383449     596.4136  0.027890647  0.027955814            5 
 1783000   0.97537736   -7.1173891    596.25786  0.027867726  0.027948187            2 
 1784000   0.96071102   -7.1342809    598.29922   0.02794746  0.027940708            2 
 1785000   0.98939136   -7.1233865    598.71629  0.027951274   0.02793319            5 
 1786000   0.95494387   -7.1291152    596.08612  0.027812902  0.027925655            3 
 1787000   0.97258391   -7.1443557    599.44136  0.027953804  0.027918175            7 
 1788000   0.97614502   -7.1417288    596.90336  0.027819881  0.027910647            2 
 1789000   0.95991208   -7.1398239    598.92985  0.027898726  0.027903148            2 
 1790000   0.97009836   -7.1627429    598.49483  0.027862888  0.027895675            3 
 1791000   0.97698827   -7.1201139    598.81871    0.0278624  0.027888195            2 
 1792000   0.97336437   -7.1588017    599.26101   0.02786742  0.027880745            3 
 1793000   0.96783998   -7.1186819    599.21766  0.027849863  0.027873233            3 
 1794000    0.9639892   -7.1513599    599.32754  0.027839443  0.027865707            2 
 1795000     0.979499   -7.1423431    600.71851   0.02788851  0.027858253            3 
 1796000   0.96781306   -7.1111254    602.48442  0.027954919  0.027850805            4 
 1797000   0.96386342   -7.1242041    601.31459  0.027885114  0.027843426            5 
 1798000   0.97558339   -7.1032676    599.91236  0.027804615  0.027836021            3 
 1799000   0.96783571   -7.1774331    599.20782  0.027756523  0.027828545            3 
 1800000   0.93918932   -7.1263692    600.04878  0.027780036  0.027820968            4 
 1801000   0.97319939   -7.1369909    601.76532  0.027844037  0.027813541            4 
 1802000   0.95045397   -7.1526185    600.28034  0.027759912  0.027806168            2 
 1803000    0.9583168   -7.1573682    601.29998  0.027791643  0.027798701            3 
 1804000    0.9663075   -7.1508447    602.15899  0.027815918  0.027791241            3 
 1805000   0.95885722   -7.1601193    601.90787  0.027788913   0.02778377            2 
 1806000   0.95924351   -7.1476821    602.22332  0.027788083  0.027776294            7 
 1807000   0.96087524   -7.1033275    603.01723  0.027809317  0.027768875            9 
 1808000   0.95950597   -7.1453692     603.1055  0.027798004  0.027761504            2 
 1809000   0.97157817   -7.1259866    602.55029  0.027757061  0.027754188            3 
 1810000   0.97111079    -7.135557     601.4245  0.027689894  0.027746723            2 
 1811000   0.96081112   -7.1309025    602.23963  0.027712113  0.027739209            2 
 1812000   0.95670506    -7.133931    601.78045  0.027675702  0.027731705            4 
 1813000   0.94095779   -7.1401364    601.89846   0.02766586  0.027724093            2 
 1814000   0.98949232   -7.1685275    602.20535  0.027664707  0.027716487            2 
 1815000   0.95858204   -7.1554703    601.77424  0.027629671  0.027708889            4 
 1816000   0.95520658    -7.177454     602.8334   0.02766306  0.027701314            5 
 1817000   0.93824051   -7.1361064    601.98489   0.02760892  0.027693628            3 
 1818000   0.94504966    -7.113179    603.64205  0.027669694  0.027686022            2 
 1819000   0.97227112   -7.1381539    603.49704   0.02764784  0.027678545            4 
 1820000   0.94555421   -7.1499959    604.11964  0.027661156  0.027670943            4 
 1821000   0.96703288   -7.1510829    603.80514  0.027631573  0.027663401            3 
 1822000   0.95934416   -7.1268698    603.11366  0.027584782  0.027655922            4 
 1823000   0.97105609   -7.1663421    603.69566  0.027596254  0.027648454            2 
 1824000   0.94855712   -7.1769461    603.91005   0.02759092  0.027640958            2 
 1825000   0.94709439   -7.1520898    606.07557  0.027674684   0.02763347            3 
 1826000   0.96831121    -7.126243    608.07537  0.027750793  0.027626065            2 
 1827000   0.94319092   -7.1582486    605.12032  0.027600817  0.027618675            3 
 1828000    0.9523419   -7.1295403     606.2591  0.027637632  0.027611288            2 
 1829000   0.95283895    -7.146639     605.3606  0.027581584  0.027603875            5 
 1830000   0.97673581   -7.1578095    605.91796  0.027591892  0.027596438            5 
 1831000   0.96319997   -7.1973898    604.29487  0.027502952   0.02758902            3 
 1832000   0.95366826   -7.1435893    606.30942  0.027579577  0.027581493            3 
 1833000   0.96218715    -7.145764    605.62185  0.027533272  0.027574103            2 
 1834000   0.93246767   -7.1786642    605.98605  0.027534808  0.027566639            3 
 1835000   0.94742294   -7.1532866    606.42728   0.02753984  0.027559286            3 
 1836000   0.95115064   -7.1769384    608.24419  0.027607307  0.027551914            6 
 1837000   0.95731221   -7.1688835    606.28324  0.027503322  0.027544516            2 
 1838000    0.9469744   -7.1898811    606.09935  0.027480021  0.027537077            4 
 1839000   0.95846864   -7.1737836    609.39811   0.02761456  0.027529711            4 
 1840000   0.95088141   -7.1608923    608.64198  0.027565307  0.027522384            4 
 1841000   0.95262218   -7.1591932    609.23794   0.02757731  0.027515074            3 
 1842000    0.9351135    -7.142247    609.77328  0.027586558  0.027507871            2 
 1843000   0.96119582   -7.1974456    609.12868  0.027542444  0.027500626            4 
 1844000   0.94315112   -7.1610006    609.68835  0.027552799  0.027493309            2 
 1845000   0.96305649   -7.1901918    609.46982  0.027527996  0.027486047            2 
 1846000   0.96851404   -7.1942543    608.85127   0.02748516  0.027478786            3 
 1847000   0.92093411   -7.1600206    609.89332  0.027517295  0.027471459            2 
 1848000   0.94289516   -7.1610899    608.76797  0.027451658  0.027464185            3 
 1849000   0.95338042   -7.1522041    610.53298  0.027516359  0.027456989            4 
 1850000   0.98561462   -7.2106407    611.10551  0.027527275  0.027449801            5 
 1851000    0.9584757   -7.1387843    611.32725  0.027522387  0.027442541            5 
 1852000   0.97400393   -7.1476162    611.45031  0.027513063  0.027435369            3 
 1853000   0.94076881   -7.1604288    611.81448  0.027514593  0.027428273            3 
 1854000   0.95912857   -7.1483071     611.4726  0.027484385  0.027421217            3 
 1855000   0.96828785   -7.1864994    612.32826  0.027508008  0.027414068            4 
 1856000   0.94661917   -7.1499125    613.04382  0.027525315  0.027406871            2 
 1857000   0.93361227   -7.1778735    611.91832  0.027459986  0.027399693            4 
 1858000   0.97334742    -7.165672    612.01092   0.02744936  0.027392516            3 
 1859000   0.95911261   -7.1545156    613.13832  0.027485132  0.027385436            2 
 1860000   0.96802514   -7.1556917    613.45422  0.027484508  0.027378343            2 
 1861000   0.96317486   -7.1633989    611.71752  0.027391972  0.027371153            3 
 1862000   0.94125568   -7.1928631    612.24434  0.027400839  0.027363976            3 
 1863000   0.94627263   -7.1705721    613.28181  0.027432538  0.027356767            3 
 1864000   0.96187056   -7.1544084    613.61478  0.027432707  0.027349673            5 
 1865000   0.95132516   -7.1549898    611.73678  0.027334083  0.027342545            2 
 1866000   0.92608831   -7.1663269    613.91435  0.027416682  0.027335316            2 
 1867000    0.9302648   -7.1223309    615.64065  0.027479051  0.027328082            4 
 1868000   0.96906182   -7.1608715    613.27661  0.027358878  0.027320862            1 
 1869000   0.95113327   -7.1354248    615.81632  0.027457478  0.027313683            3 
 1870000   0.95528364   -7.1498591    615.21364  0.027415937  0.027306552            2 
 1871000   0.96147272   -7.1739588    614.21835  0.027356955  0.027299369            2 
 1872000   0.96489616   -7.1214348    615.54402  0.027401354  0.027292084            1 
 1873000   0.94652346    -7.130815    615.15329   0.02736934  0.027284887            6 
 1874000   0.94885152   -7.1967407    612.45281   0.02723465  0.027277659            3 
 1875000   0.93778697   -7.1736411    613.87672   0.02728341  0.027270447            4 
 1876000   0.93956705   -7.1598907    615.95358  0.027361122  0.027263271            3 
 1877000   0.95912236   -7.1665772    614.82543  0.027296459  0.027256073            2 
 1878000   0.96051095   -7.1440182    616.83975  0.027371306  0.027248898            2 
 1879000   0.94284548   -7.2025544    613.96633  0.027229303  0.027241712            3 
 1880000   0.96847156   -7.1951831    616.24087  0.027315641  0.027234583            2 
 1881000   0.93157085   -7.1577342    617.42692  0.027353665  0.027227532            4 
 1882000   0.95129423   -7.1626394    616.17793  0.027283826  0.027220427            2 
 1883000   0.94718851   -7.1589978    615.86535  0.027255503  0.027213314            2 
 1884000   0.96343562   -7.1971389    617.74235   0.02732406  0.027206194            2 
 1885000   0.96416161   -7.1787895    616.08282  0.027236199  0.027199018            2 
 1886000   0.98281995   -7.1661043    617.72342  0.027294248  0.027191844            2 
 1887000   0.95424215   -7.1756693    617.08637   0.02725165  0.027184665            4 
 1888000   0.94750925   -7.1828807    616.46598  0.027209833  0.027177397            2 
 1889000   0.95628151   -7.2036158    617.26147  0.027230522  0.027170192            1 
 1890000   0.96202645   -7.1851307    618.19704  0.027257365  0.027162952            3 
 1891000   0.94937182   -7.1461412     618.6895  0.027264653  0.027155773            3 
 1892000   0.94655067   -7.1481823    616.45585  0.027151861  0.027148638            2 
 1893000   0.95933534   -7.1546041    618.05775  0.027208036  0.027141545            2 
 1894000   0.95192568   -7.1603714    618.28149  0.027203515  0.027134375            2 
 1895000    0.9653707   -7.1217241    619.64848  0.027249273  0.027127224            3 
 1896000   0.94924791   -7.1714012    620.44486  0.027269904  0.027120087            3 
 1897000   0.95378852   -7.1594892    620.73742  0.027268381  0.027113084            4 
 1898000   0.95063511   -7.1596629    620.54508  0.027245569  0.027106098            3 
 1899000   0.93983906   -7.1684001    621.12108  0.027256498  0.027099223            4 
 1900000   0.92053729   -7.1831096    622.27228  0.027292644  0.027092271            4 
 1901000   0.96993407   -7.1604123    620.20998  0.027187883  0.027085336            3 
 1902000   0.94321439   -7.1609388    621.65509  0.027236904  0.027078427            5 
 1903000   0.95006705   -7.1877903     621.6096  0.027220599   0.02707151            3 
 1904000    0.9422723    -7.187646    622.75926   0.02725662  0.027064529            2 
 1905000   0.93524336   -7.1735367    621.86872  0.027203356  0.027057618            3 
 1906000   0.96263656   -7.2106081    621.88375  0.027189741  0.027050759            3 
 1907000   0.93260119   -7.1944013    621.69684  0.027167315   0.02704374            2 
 1908000   0.94538609   -7.1918694    622.84081   0.02720304  0.027036813            5 
 1909000   0.94336084   -7.1863047    621.93869   0.02714941  0.027029798            2 
 1910000   0.93601972   -7.1636711    621.63412  0.027121908   0.02702277            4 
 1911000   0.92852132   -7.1701608    624.19459   0.02721937  0.027015706            4 
 1912000   0.93720988   -7.1685403    623.78671  0.027187357  0.027008719            3 
 1913000   0.94092778   -7.1763401    623.77062  0.027172444  0.027001769            3 
 1914000   0.96855525   -7.1703481    624.58078   0.02719352  0.026994823            4 
 1915000   0.94131595   -7.1546679    624.93359  0.027194673  0.026987872            3 
 1916000   0.94030819   -7.1857175    621.97001  0.027051584  0.026980828            2 
 1917000   0.96087667   -7.1683259     623.4297  0.027100926  0.026973855            2 
 1918000   0.95183801     -7.22351    622.25118  0.027035592  0.026966803            2 
 1919000   0.93792011   -7.1715715    624.17108  0.027104876  0.026959682            2 
 1920000   0.93923091   -7.1877699    624.34501  0.027098308  0.026952619            4 
 1921000    0.9527693   -7.1587194    625.58452  0.027137971  0.026945669            2 
 1922000     0.963744   -7.1387183    623.79731  0.027046363  0.026938682            2 
 1923000    0.9361662   -7.1822256    623.25593  0.027008837  0.026931727            2 
 1924000   0.93918418   -7.2002667    624.47612  0.027047649  0.026924802            4 
 1925000   0.95000078   -7.1982956     625.1786  0.027064009   0.02691786            2 
 1926000   0.96190581   -7.1758221    625.38375  0.027058833  0.026910917            4 
 1927000   0.91658537   -7.1707425    626.86602  0.027108892  0.026903946            2 
 1928000   0.93702366   -7.1439338    627.31751  0.027114346  0.026897075            4 
 1929000      0.94198   -7.1566842    625.32134  0.027014055  0.026890263            3 
 1930000   0.94903277   -7.1704333    626.39015  0.027046207  0.026883457            6 
 1931000   0.93257005   -7.1940975    627.16432   0.02706561  0.026876572            3 
 1932000   0.91686288   -7.1877134    626.48956  0.027022496   0.02686961            6 
 1933000   0.94021505    -7.194779    625.94976  0.026985246  0.026862635            3 
 1934000   0.95041797   -7.1971701    626.10249  0.026977873  0.026855645            2 
 1935000   0.93319421   -7.1752398    626.93749  0.026999892  0.026848674            4 
 1936000   0.93213139   -7.1600332    628.83904  0.027067796  0.026841819            2 
 1937000   0.94124993   -7.1977175    627.18601  0.026982706  0.026834861            2 
 1938000   0.93815584   -7.1979722    627.57132  0.026985351    0.0268279            2 
 1939000   0.94626003   -7.1911128    626.91182   0.02694309  0.026820811            4 
 1940000   0.96089566   -7.1851597    627.59074  0.026958365  0.026813759            2 
 1941000   0.95254364    -7.196946    627.75866  0.026951685  0.026806715            3 
 1942000   0.93307359   -7.1923745    627.78786   0.02693906  0.026799649            3 
 1943000   0.94839398   -7.1871164    628.31546  0.026947824  0.026792623            2 
 1944000   0.94162852   -7.1889396    628.16758  0.026927623  0.026785522            2 
 1945000   0.93866177   -7.1854361    627.34075  0.026878353  0.026778449            3 
 1946000   0.94599083   -7.2033187     628.2638  0.026904068  0.026771384            2 
 1947000   0.93757417   -7.2183735    625.94185  0.026790868  0.026764325            5 
 1948000   0.93606492   -7.2181045    627.71052  0.026852777  0.026757257            4 
 1949000   0.92587025   -7.1958645    629.10209  0.026898499  0.026750147            2 
 1950000   0.94442889   -7.1789164    628.90334  0.026876211  0.026743042            2 
 1951000   0.94146639   -7.1869753    629.10976  0.026871252  0.026735923            1 
 1952000   0.94913163   -7.1694323    628.25023  0.026820792    0.0267288            6 
 1953000   0.94913807   -7.2023165    627.67339  0.026782445  0.026721676            3 
 1954000   0.94691987   -7.1634961    628.70326   0.02681266  0.026714612            3 
 1955000   0.94452354   -7.1980453    629.17227  0.026818937  0.026707597            5 
 1956000   0.94944855    -7.199393    631.21355  0.026892193  0.026700556            2 
 1957000   0.93330561   -7.2131158     628.4453  0.026760573  0.026693501            2 
 1958000    0.9482469   -7.1862457    629.50388  0.026791959  0.026686443            7 
 1959000   0.95238496   -7.1746995    630.89375  0.026837406  0.026679402            4 
 1960000   0.94390742   -7.1869088    629.39548  0.026760012  0.026672308            3 
 1961000   0.94869566   -7.1531288    631.61664  0.026840755  0.026665364            4 
 1962000   0.93656234   -7.1676878    631.49733  0.026822007  0.026658458            2 
 1963000    0.9274588   -7.2152601    630.20471  0.026753469  0.026651468            3 
 1964000   0.95129712      -7.1659    632.10656  0.026820543    0.0266445            2 
 1965000   0.94633079   -7.2071449    632.30775  0.026815426  0.026637543            2 
 1966000   0.95954997   -7.1976602       631.57  0.026770515   0.02663059            2 
 1967000   0.93311318   -7.1503583    632.77415   0.02680792  0.026623668            2 
 1968000   0.93611931   -7.1658944    632.04472  0.026763411  0.026616805            3 
 1969000   0.94019646   -7.1791123    632.95238  0.026788233  0.026609897            4 
 1970000    0.9363602   -7.2194213    634.09827  0.026823108  0.026603035            4 
 1971000   0.93339455   -7.1705037    633.27636  0.026774749  0.026596124            6 
 1972000   0.91960386   -7.1995576    632.27327  0.026718782  0.026589208            5 
 1973000   0.92383863   -7.2234997    632.73417  0.026724707  0.026582231            1 
 1974000   0.93774142    -7.217356    633.57402  0.026746624  0.026575329            2 
 1975000   0.93430886   -7.1834133    634.25335  0.026761745  0.026568445            8 
 1976000   0.94020555    -7.162485    634.43536  0.026755877  0.026561643            3 
 1977000   0.94363755   -7.2168667    634.84145  0.026759461  0.026554881            2 
 1978000   0.91580661   -7.2119755    635.57418  0.026776803  0.026548105            4 
 1979000   0.93297644   -7.1693245    635.91256   0.02677752  0.026541237            5 
 1980000   0.92709633   -7.1959332     635.5092   0.02674702  0.026534396            3 
 1981000   0.93876756   -7.1477568    634.31539  0.026683299  0.026527608            4 
 1982000   0.91874671   -7.1953964    634.38809  0.026672893  0.026520802            5 
 1983000   0.93371157   -7.2379232     633.9773  0.026642179  0.026513932            4 
 1984000   0.92642302   -7.1949915    634.52716  0.026651847  0.026507028            2 
 1985000   0.92277314   -7.2124078    634.42638  0.026634189  0.026500049            7 
 1986000   0.93953921   -7.2291336    634.75398  0.026634524  0.026493102            3 
 1987000   0.93264542   -7.2431226    635.14074   0.02663734  0.026486159            3 
 1988000   0.93338811   -7.1897388     635.8728  0.026654628  0.026479247            4 
 1989000   0.93349179     -7.22172    635.01566  0.026605315  0.026472355            4 
 1990000   0.93523048    -7.207655    634.57108  0.026573328  0.026465434            4 
 1991000   0.92391683   -7.1787509    636.75846  0.026651534  0.026458509            3 
 1992000   0.94909828   -7.1633567    637.05119  0.026650401  0.026451626            2 
 1993000   0.94783195   -7.1735175    636.17411  0.026600356  0.026444781            3 
 1994000   0.93443805   -7.2036848    636.89427  0.026617113  0.026437886            3 
 1995000   0.92996208   -7.2337381    635.51818   0.02654629  0.026430959            4 
 1996000   0.94838115   -7.2067512    635.59307  0.026536117  0.026424064            2 
 1997000   0.94530463   -7.2245852    637.44314  0.026600031  0.026417142            2 
 1998000   0.92162367   -7.2262551    636.51836  0.026548147  0.026410282            5 
 1999000   0.96075986    -7.174583    636.10227   0.02651752  0.026403413            1 
 2000000   0.94618741    -7.255826    636.54383   0.02652266  0.026396499            4 
 2001000   0.93476136    -7.219029    634.94701  0.026442904   0.02638957            2 
 2002000   0.95084385   -7.2168535    636.50996  0.026494754  0.026382674            4 
 2003000   0.95184885   -7.2124616    637.17605  0.026509238  0.026375744            2 
 2004000   0.92775024   -7.1906073    639.39656  0.026588347  0.026368948            4 
 2005000   0.95882854   -7.1954513    638.89866  0.026554391  0.026362077            1 
 2006000   0.94015945   -7.2328222    638.58596  0.026528164  0.026355264            3 
 2007000   0.92500977   -7.2009772    639.08473  0.026535655  0.026348506            2 
 2008000   0.92043892   -7.2187886    638.60502  0.026502532  0.026341689            3 
 2009000   0.93779074   -7.2475215    637.67718  0.026450854  0.026334844            2 
 2010000   0.92177549   -7.2104871     639.0835  0.026495999  0.026327994            2 
 2011000   0.92113767   -7.1891991    639.82526  0.026513561  0.026321246            6 
 2012000   0.91404337   -7.2400113    638.52011  0.026446327   0.02631449            2 
 2013000   0.91951056   -7.2248337    638.88802  0.026448419  0.026307666            2 
 2014000   0.92356769   -7.2115837    640.14588  0.026487334  0.026300855            3 
 2015000     0.936888   -7.2283359    639.37728  0.026442402  0.026294064            5 
 2016000   0.90865828   -7.2103553    639.88918  0.026450446  0.026287211            4 
 2017000   0.94272299   -7.2112185    641.02808  0.026484386  0.026280408            2 
 2018000   0.93864418   -7.1957622    640.05649   0.02643114   0.02627363            7 
 2019000   0.91976422   -7.1908992    639.78185  0.026406713  0.026266868            2 
 2020000   0.93114283   -7.2091546    640.70989  0.026431926  0.026260072            3 
 2021000   0.95534585   -7.1935275     640.4985  0.026410131  0.026253242            3 
 2022000   0.92893441   -7.2210833    643.34009  0.026514181  0.026246449            3 
 2023000   0.92709399   -7.2287018    640.57537  0.026387188  0.026239629            2 
 2024000   0.90916597   -7.2369399    641.18697  0.026399332  0.026232749            4 
 2025000    0.9281859   -7.2147139    642.35261  0.026434264  0.026225893            3 
 2026000   0.91612774   -7.1966638    643.94261  0.026486616  0.026219138            2 
 2027000   0.91915143   -7.2568947     642.1241  0.026398787  0.026212339            4 
 2028000   0.93127315   -7.2278296    642.28648  0.026392442   0.02620555            2 
 2029000   0.91931736   -7.2353603    642.16447  0.026374424  0.026198753            2 
 2030000   0.92698532   -7.2469707    641.19427  0.026321604  0.026191884            2 
 2031000   0.92063785   -7.2073539    644.82501  0.026457616  0.026185068            4 
 2032000   0.93562018   -7.2454449    641.49385  0.026307983  0.026178316            9 
 2033000   0.91160711   -7.2390403    644.90298  0.026434784  0.026171566            5 
 2034000   0.93121189   -7.2421847     643.0756  0.026346919  0.026164783            2 
 2035000   0.90451552    -7.232494    642.97904  0.026330018   0.02615803            2 
 2036000   0.92450016   -7.2281914    645.78633  0.026431988  0.026151343            4 
 2037000   0.95292691   -7.2284477    645.46289   0.02640578  0.026144662            5 
 2038000   0.91961186   -7.2117012    644.78022  0.026364909  0.026138013            3 
 2039000   0.90046264   -7.2359428    644.47145   0.02633936  0.026131306            2 
 2040000   0.94408151   -7.2202687    644.12027  0.026312103  0.026124553            4 
 2041000   0.90271222   -7.2314669    645.50515  0.026355755  0.026117819            2 
 2042000   0.92753443   -7.2536729    644.22269  0.026290511  0.026111088            2 
 2043000   0.93473433   -7.2158069    645.08314   0.02631274  0.026104357            2 
 2044000   0.92798761   -7.2220812    647.11803  0.026382829  0.026097616            2 
 2045000   0.90656586   -7.1904791    646.72053   0.02635373  0.026090926            2 
 2046000   0.92131545   -7.2177897    645.97029  0.026310292  0.026084246            3 
 2047000   0.92191258   -7.2346081    647.00923  0.026339734   0.02607757            3 
 2048000   0.93928879   -7.2236266    646.27516  0.026297004  0.026070871            7 
 2049000   0.90863663   -7.2173368    645.77574  0.026263858  0.026064166            6 
 2050000   0.94953225   -7.2211004    646.46516  0.026279072  0.026057451            1 
 2051000   0.92358623   -7.2497482    646.47241  0.026266553  0.026050722            8 
 2052000   0.93664016   -7.2114443    645.98407  0.026233921  0.026043958            6 
 2053000   0.92233047   -7.2588552    645.77749  0.026212757   0.02603722            4 
 2054000   0.90785317   -7.2084451    648.55525  0.026312693  0.026030442            1 
 2055000   0.92438154   -7.2353429    647.39304  0.026252759  0.026023735            3 
 2056000   0.92504651   -7.2233727    647.43075  0.026241519  0.026017026            2 
 2057000   0.92340844   -7.2241617     646.3882  0.026186526  0.026010416            4 
 2058000   0.91306099   -7.2293829    648.58743  0.026262854  0.026003741            3 
 2059000   0.92899767   -7.2373384    647.53111  0.026207346  0.025997066            2 
 2060000   0.90331204   -7.1407832    650.45428  0.026312875  0.025990384            2 
 2061000   0.90159213   -7.2185301    647.28207  0.026171845  0.025983715            5 
 2062000   0.91305529   -7.2071934    648.21468  0.026196843  0.025976988            2 
 2063000   0.93403861   -7.2430848    649.20923  0.026224318  0.025970259            3 
 2064000   0.94077631   -7.2249574    647.59443  0.026146416  0.025963561            2 
 2065000   0.94305942   -7.2223737    648.60001  0.026174334  0.025956767            3 
 2066000   0.89738358   -7.2179659    649.10547  0.026182053  0.025950028            3 
 2067000   0.92095649   -7.2474671     646.8992  0.026080439  0.025943247            3 
 2068000   0.91115681   -7.2338481    648.91362  0.026149001  0.025936479            2 
 2069000   0.90370625   -7.2503642    649.03683  0.026141326  0.025929614            8 
 2070000   0.91822819   -7.2238625    648.20626   0.02609526  0.025922734            2 
 2071000   0.93766252   -7.1809369    647.21124  0.026042622  0.025915953            4 
 2072000   0.91646625    -7.269334    648.17327  0.026068745  0.025909118            4 
 2073000   0.91898993   -7.1971877    648.80661  0.026081629  0.025902221            5 
 2074000    0.9222989   -7.2513257    648.93937  0.026074388  0.025895395            4 
 2075000   0.92077612   -7.2120829    650.08377  0.026107782  0.025888578            1 
 2076000   0.90526047   -7.2531259    648.10869  0.026015924  0.025881775            2 
 2077000   0.94800661   -7.2459084    648.19334  0.026006794  0.025874935            4 
 2078000   0.91076373   -7.2430504     650.1925  0.026074451    0.0258682            3 
 2079000   0.89864126   -7.2191952    650.40343  0.026070363  0.025861442            3 
 2080000   0.91301945   -7.2322594    648.91822  0.025998326  0.025854695            4 
 2081000   0.91512105   -7.2452048    649.79463  0.026020929  0.025847871            2 
 2082000   0.91636581   -7.2291543    650.35822  0.026030989  0.025841027            3 
 2083000   0.91151828   -7.2580712    649.33896  0.025977715   0.02583417            5 
 2084000   0.92226765   -7.2440799    648.00471  0.025911896  0.025827343            4 
 2085000   0.94064512   -7.2564187    650.19148   0.02598687  0.025820502            3 
 2086000   0.91380258   -7.2297951    649.33559   0.02594022  0.025813593            3 
 2087000   0.91584326   -7.2541592    650.96949  0.025993032  0.025806624            4 
 2088000   0.91877578   -7.2772166    648.64734  0.025887905  0.025799697            4 
 2089000   0.92411118   -7.2326973    649.58821  0.025913045  0.025792722            1 
 2090000   0.89832305   -7.2066827    650.99858  0.025956881  0.025785723            2 
 2091000   0.93019964   -7.2063199    648.33449  0.025838295   0.02577878            3 
 2092000   0.93369007   -7.2427671    650.05015  0.025894286  0.025771814            4 
 2093000   0.91388283   -7.2619698    649.78053  0.025871179  0.025764739            3 
 2094000   0.91056202   -7.2745811    649.99424  0.025867329  0.025757719            2 
 2095000   0.90498453   -7.2457465    649.25835   0.02582571  0.025750751            2 
 2096000   0.92946802    -7.202953    652.13736  0.025927853  0.025743812            3 
 2097000    0.9077019   -7.2584112    649.61307  0.025815175  0.025736846            2 
 2098000   0.92380329   -7.2310331    651.57396  0.025880758  0.025729798            4 
 2099000   0.93089689   -7.2539359    649.27886  0.025777309  0.025722805            2 
 2100000   0.91757565   -7.1991864    651.73365  0.025862446   0.02571587            3 
 2101000   0.92000926    -7.221949    651.69726  0.025848694  0.025708956            3 
 2102000   0.91664293   -7.2304165    652.19545  0.025856147  0.025701949            6 
 2103000    0.9008848   -7.2387641    652.16965   0.02584283  0.025694956            2 
 2104000   0.90607694   -7.2047615    653.85107  0.025897143  0.025687988            4 
 2105000   0.90916856   -7.2521238    651.48007  0.025790976  0.025681023            5 
 2106000   0.90800577   -7.2152842    653.08339  0.025842173  0.025674015            5 
 2107000   0.92211876   -7.2776012    650.31578  0.025720447  0.025667052            3 
 2108000   0.92521576   -7.2661684    652.21256  0.025783229  0.025660045            3 
 2109000   0.91606403   -7.2241107    651.02339  0.025724016  0.025653004            3 
 2110000   0.91212577   -7.2551183     650.6943  0.025698827  0.025645939            1 
 2111000   0.91232807    -7.232952    653.12086  0.025782443  0.025638899            4 
 2112000   0.91559552   -7.2674906    652.13802  0.025731456  0.025631841            2 
 2113000   0.93813989   -7.2363352    653.38163  0.025768324  0.025624852            2 
 2114000   0.91410495   -7.2566492    653.39778  0.025756772  0.025617832            4 
 2115000   0.90522224   -7.2274801    654.09801  0.025772183   0.02561077            3 
 2116000   0.92477608   -7.2081281    653.48151  0.025735724  0.025603853            3 
 2117000   0.91886772   -7.2633225    653.76509   0.02573473  0.025596858            1 
 2118000   0.91406768   -7.2466676    655.07775  0.025774227  0.025589923            2 
 2119000   0.89136297   -7.2977609     654.0524   0.02572174  0.025583046            5 
 2120000   0.91596142    -7.268018    654.34705  0.025721189   0.02557614            6 
 2121000   0.89863627    -7.243146    656.59849   0.02579752  0.025569326            3 
 2122000   0.91023375   -7.2358199    655.34205  0.025736022  0.025562513            7 
 2123000   0.90342634   -7.2725895    654.71903  0.025699444    0.0255556            4 
 2124000   0.91893166    -7.246364    656.40655  0.025753553   0.02554872            4 
 2125000    0.9037829   -7.2727895    656.16262  0.025731868  0.025541871            4 
 2126000   0.92078839    -7.249874    655.20145  0.025682089  0.025535036            2 
 2127000   0.91040041   -7.2348511    656.78452  0.025732037  0.025528272            3 
 2128000   0.91941502   -7.2705943    657.12427   0.02573325  0.025521461            4 
 2129000   0.90042309   -7.2196221    656.94188  0.025714024  0.025514705            2 
 2130000   0.91909306   -7.2697299    656.03458  0.025666454  0.025507981            4 
 2131000   0.91998189   -7.2593508    656.15187  0.025658997  0.025501237            2 
 2132000   0.89545981   -7.2429036    655.85401  0.025635319  0.025494464            3 
 2133000   0.90779628   -7.2726903    656.38414  0.025644012  0.025487697            4 
 2134000   0.90770652   -7.2488271    656.64621   0.02564223    0.0254809            4 
 2135000   0.90694349    -7.234523    657.70427  0.025671517  0.025474182            5 
 2136000   0.91604938   -7.2630212    658.05982   0.02567337  0.025467565            2 
 2137000   0.91239207   -7.2559105    657.81078  0.025651645  0.025460846            2 
 2138000   0.92718638   -7.2806428    658.51952  0.025667272  0.025454135            3 
 2139000   0.91607728   -7.2712811     658.7152  0.025662896  0.025447447            3 
 2140000   0.90727453   -7.2452248     660.1901  0.025708337  0.025440814            2 
 2141000   0.90508392   -7.2390715    658.26869  0.025621543  0.025434129            2 
 2142000   0.92118593    -7.269556    658.51284   0.02561908  0.025427431            3 
 2143000   0.89586241   -7.2738277     658.9675  0.025624806  0.025420755            6 
 2144000   0.92571721   -7.2289992    661.85816  0.025725208  0.025414094            1 
 2145000   0.91841645   -7.2664367    657.67681  0.025550769  0.025407396            2 
 2146000    0.9127735   -7.2594737    660.31235  0.025641207  0.025400596            3 
 2147000   0.92715162   -7.2635377    659.15243  0.025584243   0.02539385            4 
 2148000   0.92268932   -7.2209256    660.73806  0.025633848  0.025387184            2 
 2149000   0.91470471   -7.2956063    658.32652  0.025528406  0.025380385            2 
 2150000   0.89897049   -7.2727302    657.68553  0.025491687  0.025373587            4 
 2151000   0.90033286   -7.2627899    659.06246  0.025533181  0.025366858            4 
 2152000    0.9235023   -7.2611878    659.82853  0.025550981   0.02536011            1 
 2153000    0.9168222   -7.2455422    660.90952  0.025580954  0.025353382            2 
 2154000   0.89000827   -7.2504581    660.30199  0.025545574  0.025346633            4 
 2155000   0.91118004    -7.249145    661.85633  0.025593826  0.025339919            3 
 2156000   0.89254642   -7.2876725    661.16375  0.025555185  0.025333208            3 
 2157000   0.90794091   -7.2765198    662.69547  0.025602514  0.025326467            5 
 2158000   0.89721865    -7.281432    660.41417  0.025502555  0.025319845            2 
 2159000   0.89339575   -7.2666246    661.72664  0.025541402  0.025313154            5 
 2160000   0.91248917    -7.243742    660.82155  0.025494658  0.025306437            4 
 2161000   0.89938808   -7.2638913    659.30744  0.025424473  0.025299687           10 
 2162000     0.904723   -7.2612288    662.64911  0.025541517   0.02529297            3 
 2163000   0.90050045   -7.2792718    661.47239  0.025484373  0.025286212            3 
 2164000   0.91676511     -7.26735    663.02408   0.02553235  0.025279476            3 
 2165000   0.90613809   -7.2574529    661.67567  0.025468656  0.025272761            2 
 2166000   0.89009445   -7.2533803    662.21314  0.025477575  0.025266092            8 
 2167000   0.91601993    -7.291812    663.78564   0.02552629    0.0252594            4 
 2168000    0.9162846   -7.2387052    663.72846  0.025512318  0.025252721            3 
 2169000   0.89233208   -7.2412725    663.36466  0.025486578  0.025246018            3 
 2170000   0.90437118   -7.2273108    663.50565  0.025480248  0.025239313            6 
 2171000   0.89490598   -7.2780349    662.56229    0.0254323  0.025232562            3 
 2172000   0.89104466   -7.2798071    662.91214  0.025434014  0.025225805            3 
 2173000   0.91239538   -7.2655362    661.90303  0.025383611  0.025218994            3 
 2174000   0.90658871   -7.2892878     660.6708  0.025324701   0.02521218            2 
 2175000   0.90478033    -7.270587    661.92762  0.025361212  0.025205339            3 
 2176000   0.89580442   -7.2782125    663.02129   0.02539144  0.025198525            1 
 2177000   0.90758223    -7.224491    663.11823  0.025383488  0.025191766            3 
 2178000   0.90716851   -7.2694448    662.59809  0.025351932  0.025185033            3 
 2179000   0.91826125   -7.2924236    664.05159  0.025395885  0.025178289            1 
 2180000   0.88099836   -7.2767576    662.72542  0.025333541  0.025171475            3 
 2181000   0.90581893   -7.2670232    663.59689  0.025355223  0.025164622            3 
 2182000   0.90820141   -7.2677408    663.93479  0.025356507  0.025157799            2 
 2183000   0.89481359   -7.2760612    664.20733  0.025355296  0.025150998            4 
 2184000   0.92249659   -7.2666332    664.31616  0.025347839  0.025144253            3 
 2185000   0.90904554    -7.249974    665.72674  0.025390036  0.025137591            4 
 2186000   0.91388098   -7.2905284    663.30837  0.025286229  0.025130921            4 
 2187000   0.92207789   -7.2588773    664.36066  0.025314764  0.025124187            5 
 2188000   0.90126557   -7.2672807    665.78618  0.025357487   0.02511743            2 
 2189000   0.90727806   -7.2849466    664.99802  0.025315898  0.025110694           18 
 2190000   0.87718724   -7.2883375    665.38192  0.025318947  0.025103983            3 
 2191000   0.89774466    -7.257544    665.68675  0.025318985  0.025097254            2 
 2192000   0.88792376   -7.2794454    664.53082  0.025263489  0.025090529            2 
 2193000   0.89864203   -7.2800091    668.21397  0.025391928  0.025083815            3 
 2194000   0.90902388    -7.271626    666.19979  0.025303851  0.025077083           12 
 2195000   0.88389031    -7.289188     665.1826  0.025253705  0.025070337            3 
 2196000    0.8920484   -7.2701555    665.71454  0.025262392  0.025063608            4 
 2197000   0.89014215     -7.28903    665.03279  0.025225034  0.025056885            3 
 2198000   0.89632031    -7.269615    666.87003  0.025283213  0.025050162            4 
 2199000    0.9026164   -7.2665289    666.38708  0.025253414  0.025043493            4 
 2200000   0.88696099   -7.2823101    666.85546  0.025259676  0.025036822            3 
 2201000   0.87951329   -7.2851536    669.21474  0.025337526  0.025030222            2 
 2202000    0.9201609   -7.2560746    668.40926  0.025295537  0.025023628            2 
 2203000   0.88129048   -7.2637566    667.74171  0.025258803  0.025017017            3 
 2204000   0.89505979   -7.2935064    667.32162  0.025231459  0.025010396            3 
 2205000   0.91417731   -7.2885921    669.17984  0.025290243  0.025003811            2 
 2206000    0.8743649   -7.2590005    670.29985  0.025321089  0.024997225            3 
 2207000     0.898013   -7.2698901    670.06294   0.02530067  0.024990658            2 
 2208000   0.87090531     -7.29004    669.50783   0.02526826  0.024984124            6 
 2209000   0.89883204   -7.2782804    668.52048  0.025219574  0.024977583            4 
 2210000   0.91528337   -7.2739415    668.99779  0.025226161  0.024971035            4 
 2211000   0.90294203   -7.2482216    669.68376  0.025240606  0.024964538           13 
 2212000   0.87545462   -7.2873126    670.57112  0.025262625  0.024958006            3 
 2213000   0.90330628   -7.2575318    671.11697  0.025271764  0.024951502            2 
 2214000   0.91748146   -7.2954735    669.48819  0.025199044  0.024944973            3 
 2215000   0.91358395   -7.3044902    668.96319  0.025167915   0.02493844            5 
 2216000   0.88623379   -7.2858057    670.61758  0.025218772  0.024931911            3 
 2217000   0.88203647    -7.290576      670.326  0.025196437  0.024925321            4 
 2218000   0.87809855   -7.2811941    671.01203  0.025210852  0.024918685            7 
 2219000   0.92817754   -7.3173542    669.80808  0.025154277  0.024912091            2 
 2220000   0.88126937   -7.2882882    669.96568  0.025148862  0.024905515            4 
 2221000    0.9064862    -7.260807    671.10772  0.025180389  0.024898993            4 
 2222000   0.87626893   -7.2793196    672.48237  0.025220611  0.024892487            3 
 2223000   0.91382099   -7.2664123    672.42984  0.025207296  0.024885994            3 
 2224000   0.90836136   -7.2794923    670.40298  0.025120016  0.024879502            2 
 2225000   0.91845882   -7.2945355    670.84171  0.025125158  0.024872959            5 
 2226000   0.90274837   -7.2858164    670.31546   0.02509417  0.024866425           11 
 2227000   0.89915289   -7.3278745    671.17513   0.02511507    0.0248599            5 
 2228000    0.9086007   -7.3097058    670.76047  0.025088288  0.024853386            6 
 2229000   0.87703335   -7.2690939    672.76289  0.025151895  0.024846836            3 
 2230000   0.89349208   -7.2773444    673.69972  0.025175625   0.02484032            2 
 2231000    0.8777791   -7.3047518    671.65701   0.02508804  0.024833802            4 
 2232000   0.90583823   -7.3053712     672.3698  0.025103413   0.02482725            3 
 2233000   0.88934474    -7.281301    674.04427   0.02515466  0.024820759            6 
 2234000   0.89184999   -7.2501296    673.15539  0.025110243  0.024814242            3 
 2235000   0.90565105   -7.2956091    672.82416  0.025086658  0.024807747            4 
 2236000   0.88577148   -7.2807886    673.40769  0.025097186   0.02480119            3 
 2237000   0.91293292   -7.2975383    672.01452  0.025034068  0.024794633            2 
 2238000    0.8962355   -7.2842318    673.06459  0.025061982  0.024788122            5 
 2239000   0.90302998    -7.276718    672.47152  0.025028715  0.024781559            2 
 2240000   0.87839812   -7.2738658       673.51  0.025056176  0.024774966            3 
 2241000   0.87635074   -7.3181675    672.74981  0.025016726  0.024768323            3 
 2242000   0.88954228   -7.3012855    673.77226  0.025043572  0.024761756            5 
 2243000    0.8935664   -7.2836481    671.24447  0.024938493  0.024755173            2 
 2244000   0.90171645   -7.3000267    671.96354  0.024954083  0.024748598            2 
 2245000   0.89634631   -7.2906359    672.62413  0.024967488  0.024741996            3 
 2246000   0.90987984   -7.2575226    674.27355   0.02501757  0.024735438            2 
 2247000   0.89218136   -7.2835461    673.42913   0.02497512  0.024728903            4 
 2248000   0.88166343   -7.2978682    674.57203  0.025006377   0.02472235            4 
 2249000   0.88363696   -7.3203336    673.71713  0.024963581  0.024715733            4 
 2250000   0.89262745   -7.3070919     673.8217  0.024956359   0.02470918            5 
 2251000   0.88703376   -7.3085231    675.41347  0.025004201  0.024702657            2 
 2252000   0.90248688   -7.3204521    673.84766  0.024935156  0.024696153            5 
 2253000     0.888947   -7.3244518    675.55746   0.02498733  0.024689656            3 
 2254000   0.90183382   -7.2815006    675.96776  0.024991414   0.02468318            5 
 2255000   0.89208234   -7.2985737    675.87108  0.024976758   0.02467672            3 
 2256000   0.89174445   -7.2707779    675.73401  0.024960624  0.024670163            3 
 2257000   0.89782831   -7.2873016    677.29396  0.025007162  0.024663623            2 
 2258000   0.89540142   -7.2820885     676.0514  0.024950229  0.024657157            3 
 2259000   0.88341572   -7.3169882    674.75299  0.024891286  0.024650642            4 
 2260000   0.89411684   -7.2908214    676.60732  0.024948648   0.02464407            4 
 2261000   0.91181358   -7.3227498    677.17883  0.024958677  0.024637547            7 
 2262000   0.87652124   -7.2778014    675.89169  0.024900225  0.024631015            1 
 2263000   0.88613545   -7.2859016    676.28993  0.024903886  0.024624499            3 
 2264000   0.89044339   -7.3065542    677.04862  0.024920812  0.024617976            2 
 2265000   0.89294698   -7.2767591    674.40711  0.024812624  0.024611418            1 
 2266000    0.8911943   -7.3227125    674.74354  0.024814046  0.024604792            3 
 2267000   0.87868183   -7.3221841    675.84448   0.02484357  0.024598243            5 
 2268000   0.86296344   -7.3019567    677.95695  0.024910235  0.024591658            2 
 2269000   0.88495322   -7.3023205    677.09435  0.024867576  0.024585045            4 
 2270000    0.8779464   -7.2829462    676.50159   0.02483486   0.02457851            2 
 2271000   0.89673806   -7.2695765    677.82288  0.024872409  0.024572001            3 
 2272000   0.86485716   -7.2602591    677.21765  0.024839262  0.024565463            3 
 2273000   0.89538531   -7.3141424    678.01318    0.0248575  0.024558964            4 
 2274000   0.88538935   -7.2848658     675.9268  0.024770111  0.024552436            1 
 2275000   0.88575056   -7.2946465    677.22667  0.024806838  0.024545925            3 
 2276000   0.88850437    -7.314591    678.17503  0.024830662   0.02453939            5 
 2277000   0.90257613   -7.2766118    678.93177  0.024847452  0.024532845            4 
 2278000   0.88840643   -7.3334289    677.39876  0.024780464  0.024526292            5 
 2279000   0.91110177   -7.3201505    677.46651  0.024772068  0.024519737            3 
 2280000   0.86763662   -7.3305158    676.63657  0.024730869  0.024513178            3 
 2281000   0.89836213    -7.323457    679.40358  0.024821116  0.024506624            2 
 2282000   0.88820486    -7.309048    677.90936  0.024755673  0.024500138            6 
 2283000   0.88576443    -7.320439    676.74483  0.024702323  0.024493667            4 
 2284000   0.88254352   -7.3097805    679.18399  0.024780502  0.024487179            3 
 2285000   0.88741502   -7.2951623     679.6135  0.024785321  0.024480764            2 
 2286000   0.89743894   -7.2860615    680.82727  0.024818725  0.024474389            2 
 2287000   0.90231386   -7.2965408     680.9947  0.024813974  0.024467997            2 
 2288000   0.88162287   -7.2774523    679.59963  0.024752317  0.024461638            4 
 2289000   0.88265332   -7.3196165    679.45006  0.024736059  0.024455286            4 
 2290000   0.87852192   -7.2832197    681.80595  0.024810988  0.024448948            2 
 2291000    0.8805889   -7.2569195     682.7819  0.024835658  0.024442673            3 
 2292000   0.87255466   -7.3050604    681.26948  0.024769833  0.024436387            2 
 2293000   0.86976341   -7.2991588    681.59339  0.024770802  0.024430046            1 
 2294000   0.86427563   -7.3190006    682.28337  0.024785069  0.024423718            3 
 2295000   0.87904096   -7.3160471    681.54685  0.024747525  0.024417417            4 
 2296000   0.87380215   -7.3186998    682.20236  0.024760539  0.024411052            3 
 2297000   0.88415819   -7.2936108    682.95281  0.024776985  0.024404726            2 
 2298000   0.88931217   -7.3514652    682.90278  0.024764388  0.024398407            6 
 2299000   0.88451987   -7.3189455    682.98182  0.024756482  0.024392109            3 
 2300000   0.88512365   -7.3422551    683.27864  0.024756472  0.024385893            2 
 2301000   0.88132974   -7.3004734    685.69767  0.024833321  0.024379683            3 
 2302000   0.89044339   -7.3432321      683.412  0.024739791  0.024373404            4 
 2303000   0.86467216   -7.2900732    682.66216  0.024701916  0.024367068            2 
 2304000   0.88271296   -7.2655359     683.2875  0.024713813  0.024360807            4 
 2305000   0.87620662    -7.297255    683.61784  0.024715034  0.024354509            2 
 2306000    0.8861977   -7.3043138    686.07134   0.02479298  0.024348291            2 
 2307000   0.88781791   -7.3212422    684.15111   0.02471287  0.024341977            3 
 2308000   0.88104089   -7.3095393    683.72137  0.024686647  0.024335638            2 
 2309000   0.89334152   -7.3339058    681.93317  0.024611418  0.024329277            3 
 2310000    0.8803258   -7.3199785    681.93565  0.024600853  0.024322914            5 
 2311000   0.86044037   -7.3072088    681.63222  0.024579267  0.024316546            3 
 2312000   0.87733151    -7.292136    681.76063  0.024573264  0.024310148            3 
 2313000   0.86397387   -7.3208714    683.03396  0.024608516  0.024303751            2 
 2314000    0.8994606   -7.3374919     682.9479  0.024594782   0.02429733            4 
 2315000   0.86218093   -7.3110369    682.23626  0.024558541  0.024290812            3 
 2316000   0.87348162    -7.327985    683.41923  0.024590502  0.024284336            3 
 2317000   0.89251309   -7.3457348    683.32473   0.02457649  0.024277914            5 
 2318000   0.86950177   -7.2961855     682.1458  0.024523505   0.02427147            3 
 2319000   0.89205831   -7.3094664    684.20494  0.024586925  0.024265072            2 
 2320000   0.88415117   -7.3377792    682.62767  0.024519672  0.024258661            2 
 2321000   0.88880635   -7.3346544    683.41502  0.024537377  0.024252184            3 
 2322000   0.90233717   -7.3317761    683.72908  0.024538081   0.02424571            4 
 2323000   0.86850297   -7.3385269    685.47166  0.024590029  0.024239266            3 
 2324000   0.88268207   -7.3444029     683.4517  0.024507017  0.024232803            3 
 2325000   0.88278962   -7.3267448    684.65991  0.024539782   0.02422631            3 
 2326000    0.8792477   -7.3233579     686.3501  0.024589786  0.024219866            5 
 2327000   0.87007079   -7.3071793    684.57988  0.024515825  0.024213489            6 
 2328000   0.88087455   -7.3513172    686.07913  0.024558961  0.024207065            3 
 2329000   0.87927265   -7.2977992    685.54367  0.024529257  0.024200643            1 
 2330000   0.87526378   -7.3228354    684.50572  0.024481606  0.024194282            4 
 2331000    0.8803077   -7.3303398    684.94117  0.024486671   0.02418792            4 
 2332000    0.8784697   -7.3325382    688.19374  0.024592401   0.02418162            1 
 2333000    0.8926104    -7.305077    686.45008  0.024519577  0.024175323            3 
 2334000   0.88353931   -7.3489991    685.66352  0.024480988  0.024169026            3 
 2335000   0.88365901   -7.3543402    687.25197  0.024527194  0.024162691            4 
 2336000   0.88844821   -7.3186032    687.84326  0.024537787  0.024156414            5 
 2337000   0.89672926    -7.311951    687.00199   0.02449729  0.024150139            2 
 2338000   0.87257859   -7.3401029    688.13045  0.024527033  0.024143876            2 
 2339000   0.86115765   -7.3488924    687.58217  0.024497013  0.024137555            4 
 2340000   0.87549669   -7.3002549    687.12876  0.024470397  0.024131266            3 
 2341000   0.88063557   -7.3133081    688.09192   0.02449423  0.024125008            3 
 2342000   0.87508363   -7.3271348     687.8811   0.02447627  0.024118676            2 
 2343000   0.87204347   -7.3424994    686.54873  0.024418435  0.024112317            5 
 2344000   0.86286307   -7.3042504    689.33179  0.024506961  0.024105999            2 
 2345000   0.87044733   -7.3174597    689.38053  0.024498242   0.02409971            3 
 2346000   0.86996654   -7.3396638    686.15543  0.024373239  0.024093418            4 
 2347000    0.8629024   -7.2879309    688.83462  0.024457982  0.024087109            5 
 2348000   0.88363539   -7.3333557     687.9791  0.024417202  0.024080786            3 
 2349000   0.87299022    -7.343897    686.07278  0.024339179  0.024074441            4 
 2350000   0.87422844   -7.3667848     687.8177  0.024390698  0.024068061            3 
 2351000   0.88809053   -7.3351789     687.4972  0.024368964    0.0240617            1 
 2352000   0.87697423    -7.342327    689.79302  0.024439945  0.024055402            4 
 2353000   0.88151169   -7.3415983    687.80673  0.024359213  0.024049113            1 
 2354000   0.88417639   -7.3276717    688.53165  0.024374527  0.024042734            8 
 2355000   0.87389955   -7.3380581    688.79841  0.024373617  0.024036412            3 
 2356000   0.87447893   -7.3431676    689.00492  0.024370576  0.024030096            5 
 2357000   0.87246431   -7.3262281    690.40507   0.02440974  0.024023792            4 
 2358000   0.87858041   -7.3449829    687.98057  0.024313704  0.024017475            8 
 2359000    0.8760582   -7.3263251    688.63285   0.02432644  0.024011109            7 
 2360000   0.89648434   -7.3500302    688.12631  0.024298245  0.024004767            3 
 2361000   0.87496546   -7.3403506    689.49176  0.024336149  0.023998374            6 
 2362000   0.87264179   -7.3275346    688.82159  0.024302201  0.023992008            5 
 2363000   0.86265775   -7.3455638    689.21881  0.024305925  0.023985622            3 
 2364000   0.86020273    -7.328575    688.31077  0.024263634  0.023979266            3 
 2365000    0.8680474   -7.2960973    690.37588  0.024326141  0.023972908            3 
 2366000   0.87404571   -7.3275495    690.06053  0.024304752  0.023966569            7 
 2367000   0.88430106   -7.3492407    688.49465  0.024239355  0.023960254            2 
 2368000   0.87480692   -7.3127546    691.81605  0.024346004  0.023953918            4 
 2369000   0.87355928   -7.3166162    691.83501  0.024336394  0.023947664            2 
 2370000   0.87023551   -7.3183338    692.24747  0.024340628   0.02394134            2 
 2371000   0.86538718   -7.3068467    690.96876   0.02428542  0.023935007            5 
 2372000   0.87994712   -7.3187549    688.50468  0.024188613  0.023928693            4 
 2373000   0.86730174   -7.3389484    691.12209  0.024270336  0.023922381            6 
 2374000   0.87104236   -7.3172828    690.45854   0.02423682  0.023916055            3 
 2375000    0.8623219   -7.3222724    691.13008  0.024250178   0.02390969            2 
 2376000   0.84651415   -7.3512549    691.77514  0.024262596  0.023903282            7 
 2377000   0.87865471   -7.3279211    692.13397  0.024264969  0.023896847            4 
 2378000   0.89250694   -7.3518397    689.21401  0.024152439  0.023890388            3 
 2379000   0.86244086   -7.3524151    689.52978  0.024153348  0.023883989            5 
 2380000   0.87331945   -7.3503954    690.73204  0.024185295  0.023877588            5 
 2381000   0.86902025   -7.3348627    691.23142  0.024192616  0.023871212            8 
 2382000   0.87354407   -7.3651455    689.64826  0.024127073  0.023864765            3 
 2383000   0.86092523    -7.335998    692.03537  0.024200426  0.023858335            8 
 2384000    0.8711124   -7.3238645     691.5298  0.024172602  0.023851937            2 
 2385000   0.87755201   -7.3505411    693.54906  0.024233021  0.023845507            2 
 2386000   0.86469617   -7.3435253    691.75065  0.024160053  0.023839122            4 
 2387000   0.86188541   -7.3468014    690.68168  0.024112613  0.023832733            3 
 2388000   0.84935982   -7.3155084    693.42341  0.024198193   0.02382636            2 
 2389000    0.8489336   -7.3390141    693.54835  0.024192422  0.023820004            4 
 2390000   0.88272953    -7.379258    692.43539  0.024143493  0.023813629            3 
 2391000   0.86152771   -7.3132233    693.03656  0.024154348  0.023807282            5 
 2392000   0.85775772   -7.3783072     691.3391  0.024085114  0.023800911            3 
 2393000   0.88614325    -7.327626    694.40026   0.02418165  0.023794587            4 
 2394000   0.86235484   -7.3703597    692.89897   0.02411929  0.023788259            2 
 2395000   0.87646186   -7.3318305    694.60884  0.024168714  0.023781967            3 
 2396000   0.87344352   -7.3639603    693.11467  0.024106659  0.023775698            3 
 2397000   0.87046992   -7.3211117    694.79368  0.024154974  0.023769403            4 
 2398000   0.88182962   -7.3311979    692.86555  0.024077896  0.023763116            2 
 2399000   0.86886403   -7.3493628     694.9177  0.024139145  0.023756848            6 
 2400000   0.87372886   -7.3663428    695.06898   0.02413434  0.023750517            5 
 2401000   0.86444737   -7.3449242     696.4855  0.024173452  0.023744248            7 
 2402000   0.85586176   -7.3444305    693.30101  0.024052908  0.023737986            3 
 2403000   0.86200219    -7.366006    692.73585  0.024023299  0.023731665            4 
 2404000   0.87105907   -7.3359651    696.71272  0.024151162  0.023725385            3 
 2405000   0.89861262   -7.3714469    693.99107  0.024046815  0.023719123            4 
 2406000   0.85669594   -7.3427597    694.22662  0.024044979  0.023712822            3 
 2407000     0.861124     -7.30925    695.16861  0.024067602  0.023706609            2 
 2408000   0.87597772   -7.3474987    695.79441  0.024079264  0.023700357            7 
 2409000   0.87391233   -7.3506773    695.93809  0.024074239  0.023694036            3 
 2410000    0.8528272   -7.3621397    693.46367  0.023978688  0.023687766            2 
 2411000   0.83449345   -7.3378496    694.39062  0.024000782  0.023681478            7 
 2412000   0.86751806   -7.3371398    695.24099  0.024020211  0.023675238            4 
 2413000   0.84958745   -7.3479056    696.24343  0.024044876  0.023668944            2 
 2414000    0.8615084   -7.3794251    694.86008  0.023987161  0.023662687            5 
 2415000   0.85997414   -7.3360073    695.17879  0.023988226  0.023656428            4 
 2416000   0.87218223    -7.372926    696.26733  0.024015843  0.023650165            5 
 2417000   0.85725292   -7.3535843    697.40015  0.024044964  0.023643916            2 
 2418000   0.86508274   -7.3663289    696.33606  0.023998348  0.023637684            5 
 2419000    0.8607095   -7.3290322    698.51565  0.024063513  0.023631485            2 
 2420000   0.84908873   -7.3435201    699.20992  0.024077477   0.02362529            8 
 2421000   0.86871255   -7.3443954    697.26039  0.024000427  0.023619013            2 
 2422000   0.88206587   -7.3620731    695.42454  0.023927351  0.023612777            2 
 2423000   0.85795628    -7.360691     697.2193  0.023979203  0.023606512            4 
 2424000   0.85267717   -7.3861516    695.63304  0.023914777  0.023600231            2 
 2425000   0.86272792   -7.3502838    698.01492  0.023986767  0.023593985            4 
 2426000   0.85413945   -7.3485836      696.378  0.023920651  0.023587714            5 
 2427000   0.87518473   -7.3820943    697.62025  0.023953449  0.023581438            4 
 2428000   0.84838586   -7.3543237    697.92118  0.023953912   0.02357518            2 
 2429000    0.8658824    -7.384927    695.75802  0.023869837  0.023568915            4 
 2430000   0.84473449   -7.3917656    696.57351   0.02388798  0.023562633            3 
 2431000   0.88106619   -7.3525294    698.44282  0.023942233  0.023556331            4 
 2432000    0.8643211   -7.3694894    696.81491  0.023876607  0.023549982            6 
 2433000   0.86641037   -7.3502803    696.88214  0.023869097  0.023543666            3 
 2434000   0.86975908   -7.3768154    698.21839  0.023905039  0.023537385            8 
 2435000   0.87454758   -7.3753771    696.02499  0.023820157  0.023531084            3 
 2436000   0.86774647   -7.3551972    698.12523  0.023882226   0.02352483            5 
 2437000    0.8455424   -7.3563115     697.5632  0.023853207  0.023518581            4 
 2438000   0.85733793   -7.3321223    698.15904   0.02386379  0.023512317            5 
 2439000   0.87602175   -7.3537605    698.31607  0.023859371  0.023506076            3 
 2440000   0.86507564   -7.3691024      697.167  0.023810348  0.023499805            5 
 2441000   0.87477153    -7.341784    700.74707  0.023922814  0.023493614            6 
 2442000    0.8647761   -7.3886463    698.12142  0.023823417  0.023487357            4 
 2443000   0.85197653   -7.3493236    698.91154  0.023840617  0.023481067            5 
 2444000    0.8704023   -7.3465168    699.82276  0.023861932  0.023474779            3 
 2445000   0.88103537   -7.3802626    699.51408  0.023841652  0.023468504            2 
 2446000   0.86838107   -7.3498069    698.38968  0.023793598  0.023462205            3 
 2447000   0.86298761   -7.3707216    699.31778  0.023815481  0.023455925            3 
 2448000   0.84699704    -7.365684    699.65458  0.023817217  0.023449647            7 
 2449000   0.86435378   -7.3429337    699.70042  0.023809052  0.023443372            3 
 2450000   0.85765082   -7.3578064    700.60434  0.023830079  0.023437119            1 
 2451000   0.84791542   -7.3519323    700.29412   0.02380981  0.023430843            2 
 2452000   0.86306561   -7.3289854    700.32749  0.023801233  0.023424615            5 
 2453000   0.84722725   -7.3393614    698.68774  0.023735825  0.023418377            4 
 2454000   0.85545751   -7.3465402    698.71348  0.023727027  0.023412123            5 
 2455000   0.86357799   -7.3304235    701.01846  0.023795603  0.023405884            2 
 2456000     0.856336   -7.3605486    699.50751  0.023734647  0.023399606            2 
 2457000   0.86093929   -7.3541864    699.33442  0.023719116  0.023393329            3 
 2458000   0.85789874   -7.3653918    699.44304  0.023713149  0.023387064            7 
 2459000   0.85606495   -7.3715064    700.31916  0.023733197  0.023380781            4 
 2460000   0.85126393   -7.3608613    701.19263  0.023753138  0.023374523            3 
 2461000    0.8511224   -7.3685867    701.55069   0.02375561  0.023368243            5 
 2462000   0.85532734   -7.3684348    699.38181   0.02367255  0.023361973            2 
 2463000   0.88618417    -7.385026    697.72797  0.023606982  0.023355644            4 
 2464000   0.86420744   -7.3731296    700.14748   0.02367923  0.023349325            3 
 2465000   0.84566515    -7.372224    699.25328  0.023639394  0.023342991            2 
 2466000   0.86575726   -7.3630045    701.17991  0.023694914  0.023336697            3 
 2467000   0.84990469    -7.380614    699.95131  0.023643809  0.023330408            2 
 2468000   0.86374409   -7.3906375    700.34055  0.023647371  0.023324113           10 
 2469000   0.87439816   -7.3987481     701.2178  0.023667402  0.023317823            3 
 2470000   0.85711173   -7.3515682    701.71998  0.023674763  0.023311534            6 
 2471000   0.87770177   -7.3953236    700.18478  0.023613408  0.023305257            3 
 2472000   0.84891805   -7.3649665    702.09482  0.023668245  0.023298931            2 
 2473000   0.85401429   -7.3647544    701.70269  0.023645461  0.023292652            1 
 2474000   0.85921512   -7.4029031    700.05166   0.02358029  0.023286335            3 
 2475000   0.85541502   -7.4084978    700.37446  0.023581632  0.023279987            6 
 2476000   0.86691948    -7.358979    702.35949  0.023638917  0.023273678            2 
 2477000   0.85749813   -7.3858365    702.01343  0.023617731  0.023267372            4 
 2478000    0.8339732   -7.3873774    701.86412  0.023603179  0.023261064            2 
 2479000   0.85516393    -7.398386    702.66206  0.023620481  0.023254766            3 
 2480000    0.8745198   -7.3815557    701.40389  0.023568679  0.023248472            4 
 2481000   0.85197331   -7.3682401    702.30051  0.023589296  0.023242241            3 
 2482000   0.86641076   -7.3818848    702.53826  0.023587774   0.02323597            4 
 2483000   0.84572033   -7.3952024    699.27387  0.023468716  0.023229626            3 
 2484000     0.854904   -7.3542903    701.85958  0.023546014  0.023223278            3 
 2485000   0.85361181   -7.3975752    702.59885  0.023561329  0.023216963            2 
 2486000    0.8481881   -7.3637476    701.40425  0.023511808  0.023210635            3 
 2487000   0.85039097   -7.3889319    701.71492  0.023512764  0.023204287            3 
 2488000   0.85541464   -7.3679736    702.19479  0.023519386  0.023198001            6 
 2489000   0.86385154    -7.346852    703.32328  0.023547719  0.023191757            5 
 2490000   0.85002822   -7.3670132    702.48836   0.02351032  0.023185501            6 
 2491000   0.83973647   -7.3640907     702.8268  0.023512204  0.023179245            4 
 2492000   0.83857371   -7.3575562    703.94393  0.023540126  0.023172962            8 
 2493000   0.85521959   -7.3527984    704.84177  0.023560696  0.023166738            3 
 2494000    0.8433811   -7.3741966    703.59888  0.023509719  0.023160483            7 
 2495000   0.87404853   -7.4044548    702.80044  0.023473629  0.023154173            4 
 2496000   0.85154776   -7.3714047    705.49524  0.023554195  0.023147876            7 
 2497000   0.85742771   -7.3871272     701.6938  0.023417895  0.023141588            5 
 2498000   0.85482653    -7.396208    703.10111  0.023455468  0.023135299            3 
 2499000   0.83562026   -7.3963744      703.949  0.023474356  0.023129018            2 
 2500000   0.84456753   -7.3909299    705.10619   0.02350354  0.023122783            8 
 2501000   0.85914945   -7.3744618    704.87013  0.023486277  0.023116571            2 
 2502000   0.84487204   -7.3736721    705.01605  0.023481749  0.023110345            3 
 2503000   0.83890054   -7.4097476    705.11764   0.02347575  0.023104111            6 
 2504000    0.8514257   -7.3692281    705.23482  0.023470275  0.023097913            2 
 2505000   0.85922116   -7.3930544     706.2265  0.023493896  0.023091689            6 
 2506000   0.85628486   -7.3740748    704.70468  0.023433915  0.023085427            2 
 2507000   0.86864025   -7.3867276    704.96623  0.023433261  0.023079219            2 
 2508000   0.85531897   -7.3829345    704.60195  0.023411814  0.023073003            1 
 2509000   0.83248216   -7.4153865    706.19002  0.023455228  0.023066784            4 
 2510000   0.85581957   -7.3896881    707.49315  0.023489148  0.023060617            2 
 2511000   0.83959922   -7.3715218    706.83352  0.023457902  0.023054435            6 
 2512000    0.8524262   -7.3593793    705.99601   0.02342078  0.023048258            2 
 2513000   0.84299554   -7.4053649    705.59261  0.023398084  0.023042062            2 
 2514000   0.85723597   -7.3627065    707.53055  0.023453015  0.023035919            2 
 2515000   0.85925709   -7.4068583    707.60991  0.023446319  0.023029792            5 
 2516000   0.85450849   -7.3656346    708.44068  0.023464516   0.02302367            4 
 2517000   0.84900236   -7.4098867    708.99249  0.023473463  0.023017548           12 
 2518000   0.83220878   -7.3862314    708.28444  0.023440708  0.023011353            2 
 2519000   0.84108409   -7.3845252    707.48678  0.023405015  0.023005167            3 
 2520000   0.84232763   -7.4147846    707.30395  0.023389681  0.022999017            5 
 2521000   0.84819603   -7.4320128    707.30939  0.023380583  0.022992864            3 
 2522000   0.84890638   -7.3829306    707.22358  0.023368477  0.022986707            2 
 2523000   0.84496961   -7.3815433    706.72108  0.023342617  0.022980517            3 
 2524000   0.85271318   -7.3865944    707.41192  0.023356178  0.022974382            3 
 2525000   0.84542315   -7.3839124    706.80555  0.023326916  0.022968251            3 
 2526000   0.84817235   -7.3901508    708.25439  0.023365479  0.022962152            4 
 2527000   0.85369078    -7.400684     708.6029  0.023367725  0.022956034            4 
 2528000   0.84896449   -7.3913279     710.4954  0.023420866  0.022949915            5 
 2529000   0.83477038   -7.4067329    708.47296  0.023344964  0.022943851            2 
 2530000   0.86727745   -7.3901846    710.98831  0.023418587  0.022937807            3 
 2531000   0.85366115   -7.3548516    709.46107   0.02335905  0.022931773            3 
 2532000    0.8467282   -7.3880397    709.32204  0.023345249  0.022925728            3 
 2533000   0.84525121   -7.4032245    708.30913  0.023302709  0.022919643            3 
 2534000   0.84699634   -7.4071161    710.24149   0.02335706  0.022913534            6 
 2535000   0.84217124   -7.3792428    708.39775  0.023287237   0.02290744            3 
 2536000   0.86231835   -7.3726241       711.12  0.023367508  0.022901328            2 
 2537000   0.83438553   -7.3423881    710.62356  0.023341991    0.0228953            3 
 2538000   0.85545079   -7.3867413    709.53879  0.023297176  0.022889203            5 
 2539000   0.82984607   -7.3793103    710.93853  0.023333941  0.022883106            5 
 2540000   0.83184843   -7.3692638    709.47483  0.023276733  0.022876996            3 
 2541000   0.84889733   -7.4080326    710.69671  0.023307645   0.02287091            4 
 2542000   0.83820034   -7.4109501    710.44601  0.023290257  0.022864802            2 
 2543000   0.83121892   -7.4065015    710.49198  0.023282605  0.022858674            6 
 2544000   0.84910798   -7.3695276    710.10135  0.023260657   0.02285257            3 
 2545000    0.8391915   -7.4041704    710.88415  0.023277149  0.022846457            4 
 2546000   0.84441557   -7.3966811    711.42083  0.023285573  0.022840368            4 
 2547000   0.84755054   -7.3847898    709.65609  0.023218692   0.02283425            3 
 2548000   0.84820669   -7.3658921    708.38478     0.023168  0.022828084            4 
 2549000   0.84510032   -7.3616994    710.25239  0.023219968  0.022821947            5 
 2550000   0.83588987   -7.3843106    711.29466  0.023244923  0.022815823            2 
 2551000    0.8393829   -7.4026299     709.3495  0.023172269  0.022809668            3 
 2552000   0.84347967   -7.4175329    710.15866  0.023189611  0.022803452            1 
 2553000   0.83374149   -7.4385642    708.63791  0.023130889  0.022797277            3 
 2554000   0.84265806   -7.4080447    711.19762  0.023205352  0.022791124            5 
 2555000   0.83875488   -7.3967344    709.35525  0.023136179  0.022784982            5 
 2556000   0.85426865   -7.3922336    711.08407  0.023183492  0.022778864            2 
 2557000   0.84336225   -7.3947934    711.22921  0.023179156  0.022772721            3 
 2558000    0.8402913   -7.3885818    712.29194  0.023204715  0.022766566            4 
 2559000    0.8351739   -7.4164682    709.10437  0.023091845  0.022760434            3 
 2560000   0.84817165   -7.4306863    710.76265  0.023136805  0.022754299            5 
 2561000   0.84615523   -7.3880173    712.56339  0.023186366  0.022748141            5 
 2562000   0.84169527   -7.4314693    711.93474  0.023156868  0.022742005            6 
 2563000   0.85982344   -7.4109122    711.59756   0.02313687  0.022735832            3 
 2564000   0.83884324   -7.4439331    711.74958  0.023132787   0.02272964            5 
 2565000   0.84559665   -7.3892316    711.44175  0.023113767  0.022723479            3 
 2566000   0.83125605   -7.4415539    709.15824    0.0230306  0.022717285            2 
 2567000   0.83326527   -7.4341068    711.47658  0.023096889  0.022711063            6 
 2568000   0.84173123   -7.4091696    711.33552  0.023083318  0.022704893            4 
 2569000   0.84658533   -7.4336604    710.76988  0.023055984  0.022698733            4 
 2570000   0.84582971   -7.3962894    710.72056  0.023045414  0.022692589            4 
 2571000   0.85445408   -7.3904088    710.92411  0.023043048  0.022686415            5 
 2572000   0.83991003   -7.3722831     713.5535  0.023119281  0.022680265            4 
 2573000   0.83178237   -7.3984296    713.75191  0.023116722  0.022674114            3 
 2574000   0.83616143   -7.4019628    711.96804  0.023049988  0.022667946            4 
 2575000   0.84102833   -7.4339195    711.49158  0.023025617  0.022661784            5 
 2576000    0.8365415   -7.4219363    712.05631  0.023034948  0.022655557            3 
 2577000   0.84350696   -7.4302944     710.4642  0.022974525  0.022649336            4 
 2578000   0.86125417   -7.4203155     711.0165  0.022983466  0.022643077            3 
 2579000    0.8444229   -7.4291467    712.65945  0.023027641  0.022636881            3 
 2580000   0.82717859   -7.3938845    713.75521  0.023054109  0.022630756            4 
 2581000   0.84035042   -7.4146941    713.21123  0.023027613  0.022624619            2 
 2582000   0.82681113   -7.4106836    712.68678  0.023001768  0.022618481           10 
 2583000   0.84066224   -7.4212393    711.17163  0.022943981  0.022612297           10 
 2584000   0.84673914   -7.4180442    712.58275   0.02298061  0.022606109            8 
 2585000   0.82876311   -7.4454215    713.73391   0.02300883  0.022599956            6 
 2586000    0.8215091   -7.4002456    713.80529  0.023002233  0.022593784            4 
 2587000   0.85060903   -7.4156483    713.08122  0.022970017  0.022587598           12 
 2588000   0.84433106    -7.432657    711.97019  0.022925367  0.022581428            4 
 2589000   0.83488205   -7.4322507    713.56623  0.022967884  0.022575254            3 
 2590000   0.83197306   -7.4278865    713.68667  0.022962892  0.022569078            5 
 2591000    0.8253997   -7.4202139    712.65261  0.022920771  0.022562918            2 
 2592000   0.83124468   -7.3853155    714.36665  0.022967035  0.022556802            4 
 2593000   0.82792066   -7.4228272    712.68814  0.022904234  0.022550669            6 
 2594000   0.83501843   -7.4363614    715.18483  0.022975611  0.022544556            3 
 2595000   0.84614708    -7.409057    712.93135  0.022894391  0.022538398            3 
 2596000    0.8462597   -7.4159196    713.24457  0.022895627  0.022532246            7 
 2597000   0.86012176   -7.4087957    713.04512  0.022880411  0.022526071            3 
 2598000   0.85621906   -7.4095272    714.67128  0.022923765   0.02251993            3 
 2599000   0.84540829   -7.4091083    714.96244   0.02292428  0.022513773            2 
 2600000   0.82728682   -7.4192179    715.33135  0.022927287  0.022507586            2 
 2601000   0.83502092   -7.4258241    714.97433  0.022907034  0.022501435            6 
 2602000   0.84490531   -7.4119869    714.76177  0.022891422  0.022495279            2 
 2603000   0.82298134   -7.4160634    714.32257  0.022868567  0.022489096            6 
 2604000   0.82975401   -7.4083534    714.53175   0.02286648  0.022482879            3 
 2605000   0.83305975   -7.4056714    714.18662  0.022846661  0.022476656            3 
 2606000    0.8543515   -7.4220163    715.47455  0.022879079  0.022470431            4 
 2607000   0.84591543   -7.3915688    715.39504  0.022867761  0.022464243            4 
 2608000   0.82035115   -7.4526555    712.91801  0.022779845  0.022458024            8 
 2609000   0.83585511   -7.4446194    713.27599  0.022782547  0.022451797            5 
 2610000   0.84250993   -7.4404376    715.72394  0.022851978  0.022445525            5 
 2611000   0.84019274   -7.3937261    714.04716  0.022789709  0.022439316            3 
 2612000   0.82202174   -7.4405468    714.40101  0.022792273  0.022433091            2 
 2613000   0.82080592   -7.4099212     714.1702  0.022776189   0.02242691            2 
 2614000   0.82979315   -7.4166955    714.56583  0.022780089  0.022420727            5 
 2615000   0.82767715   -7.4182991    713.81109  0.022747326  0.022414546            7 
 2616000    0.8293383   -7.4309293    715.48125  0.022791834  0.022408341            4 
 2617000   0.82969073   -7.4771006    714.15795  0.022740987  0.022402076            5 
 2618000   0.83432494    -7.459085    714.45495  0.022741754  0.022395827            5 
 2619000   0.82227752   -7.4305815    714.98114  0.022749814  0.022389565            3 
 2620000   0.83821509   -7.3947847    715.11198  0.022745292  0.022383361            5 
 2621000   0.84189366   -7.4136402    717.24544  0.022804446  0.022377225            2 
 2622000   0.83870928   -7.4187645    715.50675  0.022740489  0.022371072            4 
 2623000   0.83170947   -7.4220718    717.26748  0.022787758  0.022364941            3 
 2624000    0.8415782   -7.4022938    716.53366  0.022755769  0.022358823            6 
 2625000   0.84427446   -7.4439945    716.33792  0.022740886  0.022352688            2 
 2626000   0.81857334   -7.4327796    714.64985  0.022678657  0.022346559            6 
 2627000   0.82021127   -7.4280768     714.1307  0.022653556  0.022340384            3 
 2628000   0.82378669   -7.4500616     717.5155  0.022752267    0.0223342            3 
 2629000   0.84809499   -7.4219234     714.9322  0.022661728  0.022328006            3 
 2630000   0.81934415   -7.4177401    716.01029  0.022687271  0.022321816            6 
 2631000   0.80483991    -7.440879    715.77292   0.02267113  0.022315608            1 
 2632000   0.83517668   -7.4396777    717.29908  0.022710837  0.022309444            5 
 2633000   0.84505627   -7.4774859    714.58214  0.022616222  0.022303306            3 
 2634000   0.82727214   -7.4269649    716.87477  0.022680169  0.022297126            5 
 2635000    0.8422228   -7.4061969    719.08139  0.022741347  0.022291025            3 
 2636000   0.83539899   -7.4411603       716.98  0.022666287  0.022284899            2 
 2637000   0.83887462   -7.4596229    716.04403  0.022628114  0.022278737            3 
 2638000   0.83974907   -7.4327168    716.62752  0.022637968  0.022272589            3 
 2639000   0.82393074   -7.4479702    716.29084  0.022618758  0.022266484            3 
 2640000   0.81858806   -7.4273159    718.56563  0.022681996  0.022260342            4 
 2641000    0.8341803   -7.4542887    716.75205  0.022616182  0.022254204            2 
 2642000   0.83437634    -7.430725    717.13226  0.022619615  0.022248138            4 
 2643000   0.83964588   -7.4262241     718.5246  0.022654956  0.022242028            3 
 2644000   0.82001851   -7.4515968    717.58471  0.022616765  0.022235881            3 
 2645000   0.81992107   -7.4643263    716.03664   0.02255944  0.022229719            3 
 2646000   0.84620457   -7.4563121    715.68165  0.022539735  0.022223547            2 
 2647000   0.82184772   -7.4385028    717.10484  0.022576024  0.022217313            4 
 2648000   0.81630832   -7.4368173    716.99923  0.022564175  0.022211179            2 
 2649000   0.81776649   -7.4387194    717.10774  0.022559071  0.022205017            3 
 2650000   0.81826241   -7.4527373    717.78235  0.022571772  0.022198879            4 
 2651000   0.82049842   -7.4556438    716.41237  0.022520193  0.022192729            2 
 2652000   0.82640827   -7.4151487    719.55913  0.022610581  0.022186621            5 
 2653000   0.82367086   -7.4574839    716.70999  0.022512564  0.022180498            4 
 2654000   0.83040139   -7.4166416    718.95087  0.022574443  0.022174368            4 
 2655000   0.83090112   -7.4165124    719.32968   0.02257783  0.022168278            7 
 2656000   0.85730813   -7.4698073    719.48482  0.022574197  0.022162183            3 
 2657000   0.82258899   -7.4563351    719.75886  0.022574296  0.022156101            3 
 2658000   0.81163201   -7.4462055      718.938  0.022540068  0.022150009            4 
 2659000   0.82930828   -7.4184497    720.28628  0.022573846  0.022143955            5 
 2660000   0.82753106   -7.4271934    720.48193  0.022571489  0.022137924            5 
 2661000   0.83936597    -7.400289    719.38898  0.022528779  0.022131889            4 
 2662000   0.82013373   -7.4203897    720.21722  0.022546244  0.022125836            4 
 2663000    0.8214254   -7.4171237    722.81813  0.022619168  0.022119805            3 
 2664000   0.81929196    -7.433928    720.57003  0.022540354  0.022113751            5 
 2665000   0.82562048   -7.4345872    721.59483  0.022563941  0.022107744            3 
 2666000   0.81202865    -7.417067    718.82901  0.022469024  0.022101686            2 
 2667000   0.81194236   -7.4154326    720.59437   0.02251576  0.022095648            2 
 2668000   0.83783765   -7.4589003     718.2934  0.022435451  0.022089562            3 
 2669000   0.81884072   -7.4328149    722.41782   0.02255582  0.022083449            2 
 2670000    0.8247104   -7.4810184    720.59224  0.022490394  0.022077334            6 
 2671000   0.81279349    -7.445628    721.41607  0.022507677  0.022071254            2 
 2672000   0.83387844   -7.4096722    720.48922  0.022470347  0.022065217            6 
 2673000   0.82320429   -7.4507589    719.93719  0.022444731  0.022059175            8 
 2674000   0.80763959   -7.4131929    720.65022  0.022458558  0.022053124            4 
 2675000   0.82436549   -7.4299652    721.90852  0.022489362  0.022047085            3 
 2676000    0.8251949   -7.4252389    720.68387  0.022442821   0.02204102            3 
 2677000   0.81519075   -7.4619972    722.15398  0.022480201  0.022034971            4 
 2678000   0.81298785   -7.4424364    722.09915  0.022470101  0.022028908            4 
 2679000   0.83476104   -7.4237626    721.83628  0.022453536  0.022022878            4 
 2680000   0.81594663    -7.457033    720.38145  0.022399921  0.022016854            4 
 2681000   0.83687199   -7.4228278    721.18181  0.022416443  0.022010804            3 
 2682000   0.81260394   -7.4428968    721.92107  0.022431055  0.022004742            9 
 2683000   0.83096154   -7.4515362    723.02217  0.022456894  0.021998721            4 
 2684000   0.81231286    -7.472316     721.9864  0.022416369  0.021992672            2 
 2685000   0.82224676   -7.4320997    724.25482  0.022478424   0.02198664            1 
 2686000   0.81661141   -7.4684931    720.64593  0.022358089  0.021980598            4 
 2687000   0.83523624   -7.4557864    721.00984  0.022361055  0.021974547            2 
 2688000   0.81227637   -7.4745851    721.01393  0.022352862  0.021968459           10 
 2689000   0.83110357   -7.4949171    722.98485  0.022405629  0.021962383            3 
 2690000   0.82879584   -7.4705574     721.4969  0.022351205   0.02195635            3 
 2691000    0.8352738   -7.4260795    722.43381  0.022371913  0.021950337            4 
 2692000   0.82443018   -7.4526491    722.06793  0.022352276  0.021944345            3 
 2693000   0.80680824    -7.451406     722.9551  0.022371429  0.021938319            4 
 2694000   0.81584905   -7.4698443    720.69602  0.022293245  0.021932254            2 
 2695000   0.81530343   -7.4750947    721.84649  0.022320547   0.02192617            6 
 2696000   0.81900654   -7.4637272    721.22928   0.02229319  0.021920081            4 
 2697000   0.82422607   -7.4259348    722.27759  0.022317315  0.021914052            4 
 2698000   0.83784807   -7.4100412    722.13217  0.022304552  0.021908009            3 
 2699000   0.80909476   -7.4157507    724.93045  0.022382687   0.02190202            3 
 2700000   0.83215228    -7.466119    723.01091  0.022315151  0.021896005            3 
 2701000   0.82473807    -7.433675    723.94886  0.022335828  0.021889986            2 
 2702000   0.82568432   -7.4304588    723.23237  0.022305464  0.021883979            5 
 2703000   0.82259916    -7.479682     722.7541  0.022282467  0.021877939            3 
 2704000   0.81782498   -7.4676809    724.04189  0.022313914  0.021871894            2 
 2705000   0.82693343   -7.4468919     723.3936  0.022285693  0.021865853            2 
 2706000   0.83559135   -7.4616001    721.87452  0.022230676  0.021859791            1 
 2707000   0.80647973   -7.4252157    724.36607  0.022299165   0.02185377            5 
 2708000   0.83079471   -7.4735446    723.07808  0.022251295  0.021847727            5 
 2709000   0.82068321   -7.4490146    724.74132  0.022294245  0.021841697            2 
 2710000   0.80330402   -7.4569735    722.96938  0.022231531  0.021835697            3 
 2711000   0.80982968    -7.452931    723.55247  0.022241254  0.021829703            2 
 2712000    0.8188825   -7.4790619    723.02206  0.022216755  0.021823652            3 
 2713000   0.81824327   -7.4571209    724.54152  0.022255238  0.021817623            9 
 2714000   0.80489667   -7.4614047    725.12983  0.022265102  0.021811576            3 
 2715000   0.82412194    -7.467419    723.96915  0.022221275   0.02180552            3 
 2716000   0.80894786   -7.4910891    724.96753  0.022243726  0.021799489            4 
 2717000   0.80949916   -7.4601165     723.6419  0.022194881  0.021793449            5 
 2718000   0.82643569   -7.4582652    723.77158  0.022190691  0.021787412            5 
 2719000   0.80728745   -7.4675229    723.59166  0.022177015  0.021781354            3 
 2720000   0.79975156   -7.4853999    723.50178  0.022166108   0.02177531            2 
 2721000   0.82140869   -7.4461751    724.97581  0.022203106  0.021769277            2 
 2722000   0.80157846    -7.463676    723.75657  0.022157622  0.021763263            3 
 2723000   0.82055586   -7.4347685    725.30382  0.022196836  0.021757241            2 
 2724000   0.82894497   -7.4787633    724.19581  0.022154791  0.021751258            2 
 2725000   0.82310107   -7.4368654    726.90609  0.022229544  0.021745303            4 
 2726000   0.80884651    -7.457492    726.02618  0.022194491  0.021739289            4 
 2727000    0.8378506   -7.4214139    725.89681  0.022182399  0.021733324            3 
 2728000   0.79903884   -7.4541837    724.23049  0.022123365  0.021727325            3 
 2729000   0.81912116   -7.4860387    725.16176  0.022143696  0.021721345            4 
 2730000   0.82760069   -7.4709526    724.56024  0.022117223  0.021715342            3 
 2731000   0.80024865   -7.4510829    726.13962  0.022157318  0.021709364            3 
 2732000   0.81232273     -7.47567    725.55457  0.022131362  0.021703422            3 
 2733000   0.81569125   -7.4477413    728.24405   0.02220527  0.021697482            2 
 2734000   0.80933886   -7.4477233    727.93573  0.022187751  0.021691538            3 
 2735000   0.82635165   -7.4685142     727.1136  0.022154589   0.02168561            5 
 2736000   0.80717184   -7.4622215     727.6384  0.022162476   0.02167969            4 
 2737000   0.80968436   -7.4399611    726.66826  0.022124841   0.02167372            4 
 2738000   0.82627391   -7.4368768     726.8738  0.022123016  0.021667746            6 
 2739000   0.81274251   -7.4679503    728.10936   0.02215253  0.021661769            3 
 2740000   0.80790759   -7.4643879    726.13112   0.02208428  0.021655784            2 
 2741000   0.81224126   -7.4826946    726.41068  0.022084722  0.021649789            3 
 2742000   0.82549092   -7.4828388     727.4104  0.022107051  0.021643784            6 
 2743000   0.81372691   -7.4459924    728.49677  0.022131996  0.021637818            5 
 2744000   0.81263781   -7.4717522    725.84971  0.022043541  0.021631831            4 
 2745000   0.83268055   -7.4844172    727.38298  0.022082058  0.021625843            3 
 2746000   0.80439859   -7.4774461    726.32532  0.022041919  0.021619842            4 
 2747000   0.79706408   -7.4581032    727.86481  0.022080597  0.021613839            2 
 2748000   0.81428359   -7.4634771    726.35942  0.022026911  0.021607845            9 
 2749000   0.79737738   -7.4778666    727.71797  0.022060082  0.021601872            5 
 2750000   0.82014275   -7.4683775    728.15272  0.022065234  0.021595887            4 
 2751000   0.82475998    -7.446768      729.153  0.022087514  0.021589928            3 
 2752000   0.82306151   -7.4779613    728.03454   0.02204562  0.021583966            2 
 2753000   0.81288426   -7.4686461    727.31815  0.022015927  0.021577976            3 
 2754000    0.8161015   -7.4645398    726.80127  0.021992292  0.021571952            4 
 2755000   0.80231149   -7.4901229    726.03558  0.021961149  0.021565925            8 
 2756000   0.80846815   -7.4732082    727.73977   0.02200471  0.021559892            5 
 2757000   0.80782264   -7.4716048    728.29308  0.022013453  0.021553891            5 
 2758000   0.80703211   -7.4672986    727.44528  0.021979855  0.021547949            4 
 2759000   0.79865873   -7.4487579    728.91942  0.022016413   0.02154202            3 
 2760000   0.81591593   -7.4403964     729.8185  0.022035583  0.021536116            5 
 2761000    0.8165403   -7.4915098    728.26601  0.021980744  0.021530167            7 
 2762000   0.81088596   -7.4368199    728.37788  0.021976161  0.021524229            3 
 2763000   0.79816562   -7.5031771    728.04452  0.021958153  0.021518266            8 
 2764000   0.81990712   -7.4805282    728.75333  0.021971579  0.021512278            3 
 2765000   0.79805874   -7.4632509    729.56942  0.021988228  0.021506301            2 
 2766000   0.80603289   -7.4938091    728.04504  0.021934353  0.021500285            3 
 2767000   0.82525976   -7.4608813     730.2537  0.021992944  0.021494291            5 
 2768000   0.81540451   -7.4748879    730.06878  0.021979431  0.021488328            3 
 2769000   0.80368717   -7.4557634    729.07378  0.021941549  0.021482363            3 
 2770000   0.80667509   -7.4740431    730.26873  0.021969577  0.021476406            4 
 2771000   0.80505135   -7.4775156    727.69675    0.0218843  0.021470436            4 
 2772000    0.8256569   -7.4846559    728.34131  0.021895783  0.021464462            4 
 2773000    0.8092037   -7.4603761    728.52384  0.021893372  0.021458475            2 
 2774000   0.80227131   -7.4871223    728.17637  0.021875041  0.021452459            2 
 2775000   0.83323936   -7.4992514    727.97418  0.021861086  0.021446475            2 
 2776000   0.79770801   -7.4694564    730.03707  0.021915138  0.021440515            5 
 2777000    0.7935852   -7.4633029    730.75722  0.021928857  0.021434571            9 
 2778000   0.80085007   -7.4866145    728.79632  0.021862141  0.021428631            4 
 2779000   0.81707577   -7.5091357    728.96457  0.021859319  0.021422676            3 
 2780000    0.7968762   -7.5093137    730.31821  0.021892033  0.021416703            4 
 2781000   0.80780715   -7.4713765    728.29047  0.021823399  0.021410723            2 
 2782000   0.81241642    -7.460965    729.38359  0.021848298  0.021404794            5 
 2783000   0.80015029   -7.4827824    730.15038  0.021863408  0.021398866            9 
 2784000   0.81334093   -7.4794985    731.98793  0.021910558  0.021392941            5 
 2785000   0.81053343   -7.4831051      731.601  0.021891113  0.021386996            3 
 2786000    0.8134092   -7.5087671    729.72343  0.021827095  0.021381073            4 
 2787000   0.80592892   -7.4872635     731.3391  0.021867573  0.021375132            2 
 2788000   0.81012636    -7.507085    728.71214  0.021781209  0.021369187            2 
 2789000   0.79443449   -7.4925991    730.56046  0.021828626  0.021363238            3 
 2790000   0.79734308   -7.4759749    729.35952  0.021784932  0.021357273            8 
 2791000   0.80412978   -7.5152185     731.3465  0.021836453  0.021351297            6 
 2792000   0.79618026   -7.5014819    731.39769   0.02183016  0.021345343            5 
 2793000   0.79258853   -7.4927991    730.13923  0.021784796    0.0213394            5 
 2794000   0.80396082   -7.4831672    730.96057  0.021801496  0.021333489            6 
 2795000   0.81946408   -7.5041941    729.78554  0.021758663  0.021327596            4 
 2796000   0.82020261   -7.4742086    731.57201  0.021804125  0.021321698            5 
 2797000   0.80153657     -7.47728    730.00523  0.021749649  0.021315794            1 
 2798000   0.81947154   -7.5034182    731.15614  0.021776154  0.021309911            6 
 2799000     0.807835   -7.4808509    732.22474  0.021800189  0.021304085            4 
 2800000   0.79723491   -7.5150265     731.0316  0.021756893  0.021298218            2 
 2801000   0.78840105   -7.4780207     733.7289  0.021829373  0.021292367            5 
 2802000   0.80252269   -7.5005335    734.00711  0.021829857  0.021286571            6 
 2803000   0.80131594   -7.4700269    732.48533  0.021776826  0.021280723            3 
 2804000   0.79970862   -7.4903017    733.00792  0.021784591  0.021274858            3 
 2805000   0.82095323   -7.4740487    731.14947  0.021721612   0.02126899            4 
 2806000    0.7942012   -7.5124661    732.20291  0.021745157  0.021263114            2 
 2807000   0.79788189   -7.4681506    733.00601  0.021761252   0.02125723            2 
 2808000   0.79803523   -7.5002619    733.60882  0.021771392  0.021251345            3 
 2809000   0.80109637   -7.4858876    732.87103  0.021741754  0.021245458           10 
 2810000   0.82626591   -7.4901802    732.11111   0.02171148  0.021239553            2 
 2811000   0.81655477   -7.4859744     733.0102   0.02173041  0.021233676            3 
 2812000   0.80374613   -7.5008866    733.72566  0.021743885  0.021227774            3 
 2813000   0.80385763   -7.4600487    732.59563  0.021702679  0.021221928            6 
 2814000   0.81974444   -7.5071206    732.89853  0.021703936  0.021216064            5 
 2815000   0.80520625   -7.4917692    735.04625  0.021759806  0.021210218            5 
 2816000   0.80524704   -7.5027391    733.93377  0.021719158  0.021204356            6 
 2817000   0.79113354   -7.5148386    732.31413  0.021663535  0.021198466            3 
 2818000   0.80692109   -7.5039107    731.41014  0.021629114  0.021192581            4 
 2819000   0.79033221   -7.5257307    733.54994  0.021684697  0.021186713            2 
 2820000   0.80978407   -7.5152657     733.8201  0.021684991  0.021180838            3 
 2821000   0.77064677   -7.5334004    732.33475  0.021633427  0.021174935            3 
 2822000   0.79812538   -7.4996762    732.94902    0.0216439   0.02116905            2 
 2823000   0.80326801    -7.476675     732.3714  0.021619182   0.02116318            3 
 2824000   0.79050611   -7.4984073    734.65779  0.021678995  0.021157353            2 
 2825000   0.80112302   -7.5311219    731.79454  0.021586859  0.021151469            3 
 2826000   0.80212927   -7.5239068    731.42151  0.021568221  0.021145558            7 
 2827000   0.79726125   -7.5152032    733.05686  0.021608798  0.021139671            7 
 2828000   0.80908622   -7.5079065    731.95251  0.021568615  0.021133794            4 
 2829000   0.78371918   -7.5029087    734.32526  0.021630884  0.021127945            4 
 2830000   0.80031062   -7.4756636    733.23302  0.021591078  0.021122128            3 
 2831000    0.7941841   -7.4932557    736.49072  0.021679345    0.0211163            2 
 2832000    0.7987868   -7.5139944    733.80022  0.021592521  0.021110429            3 
 2833000   0.79703888   -7.5081339     735.1451  0.021624459  0.021104534            1 
 2834000   0.80582609   -7.5257814    732.73242  0.021545884  0.021098633            5 
 2835000   0.80051168   -7.4942921     732.4315  0.021529439    0.0210927            1 
 2836000    0.7975607   -7.5111367    732.19571  0.021514919  0.021086821            3 
 2837000   0.79235654   -7.5094973    735.07478  0.021591904  0.021080942            2 
 2838000   0.79460442   -7.5020429    732.27739  0.021502155   0.02107505            4 
 2839000   0.80474239   -7.5329315    733.50576  0.021530637   0.02106913            4 
 2840000   0.80107534   -7.5306335    732.80892  0.021502609   0.02106317            5 
 2841000   0.78406693   -7.4953642    733.29954  0.021509432  0.021057231            3 
 2842000   0.79409379   -7.5095125    733.92137  0.021520097  0.021051307            3 
 2843000   0.81284031   -7.5107299    734.13164   0.02151869  0.021045395            3 
 2844000   0.79452196   -7.5137023    734.31862  0.021516603  0.021039489            3 
 2845000   0.80621362   -7.5134043    733.75374  0.021492494  0.021033593            2 
 2846000   0.78938865   -7.5142782    733.70083  0.021483393  0.021027683            4 
 2847000   0.77057072   -7.5104552    732.05456   0.02142766  0.021021742            4 
 2848000   0.80017498   -7.5024284    733.87295  0.021473342  0.021015812            5 
 2849000   0.82522341   -7.4886278    732.86105  0.021436207  0.021009931            4 
 2850000   0.79562135   -7.5143838    734.69433   0.02148229  0.021004038            5 
 2851000   0.79930796   -7.5107926    733.17561  0.021430364  0.020998122            7 
 2852000   0.78674571   -7.4940039     734.0511  0.021448431  0.020992254            5 
 2853000   0.79463239   -7.5280531    732.61397  0.021398936  0.020986369            5 
 2854000   0.79430868   -7.5136281    734.15554   0.02143645   0.02098042            4 
 2855000   0.78120839   -7.5120453    734.16784  0.021429301  0.020974528            2 
 2856000   0.79354227   -7.5170901    735.47537  0.021459949  0.020968632            6 
 2857000    0.7733244    -7.501924    735.38503  0.021449803  0.020962737           12 
 2858000   0.80054734   -7.5353998    734.48668  0.021416103  0.020956826            3 
 2859000   0.79975295   -7.5048177    735.43261  0.021436184  0.020950877            2 
 2860000    0.7947406   -7.5194054    733.68016  0.021377627  0.020944979            4 
 2861000    0.8097964   -7.5085757    734.69064  0.021399588  0.020939085            3 
 2862000    0.8024977   -7.5547234     735.0033  0.021401214  0.020933169            4 
 2863000   0.79286441   -7.4976862    735.18535  0.021399038  0.020927249            5 
 2864000   0.78380041   -7.5257542     734.5703   0.02137367  0.020921335            5 
 2865000   0.78607535   -7.5069595    735.17792  0.021383884  0.020915437            3 
 2866000   0.77729084   -7.5169007    733.94591    0.0213406  0.020909525            2 
 2867000   0.79697613   -7.4916979    735.14473  0.021368002  0.020903653            3 
 2868000   0.80077872   -7.5116007    734.65129  0.021346214  0.020897802            3 
 2869000   0.79781326   -7.5500678    735.59963  0.021366319  0.020891913            6 
 2870000   0.78176999   -7.4845862    736.98963  0.021399234  0.020886045            3 
 2871000   0.79409428   -7.5273115    735.21015   0.02134013  0.020880186            4 
 2872000   0.78718344   -7.5167683    735.86783  0.021351783  0.020874362            4 
 2873000   0.80538234   -7.5246482    736.26549  0.021355885  0.020868502            3 
 2874000   0.78093534   -7.5194144    736.25155   0.02134805  0.020862652            4 
 2875000   0.79017438   -7.5070952    737.74427  0.021383892  0.020856808            7 
 2876000   0.78410634   -7.5126106    735.40924  0.021308798  0.020850973            6 
 2877000   0.78531019   -7.4867374    736.81397   0.02134208  0.020845136            4 
 2878000   0.78837238   -7.5235819    736.52606  0.021326328  0.020839308            4 
 2879000   0.78089968    -7.532237    736.22905  0.021310323  0.020833464            3 
 2880000   0.80275867   -7.5319376    735.67556  0.021286909   0.02082761            4 
 2881000   0.77814932   -7.5295248     735.7249  0.021280947  0.020821795            4 
 2882000   0.78845318   -7.5114467    736.98944  0.021310127   0.02081596            2 
 2883000   0.79115294   -7.5353999    736.67508  0.021293649  0.020810126            3 
 2884000    0.8263754   -7.5124046    738.25577   0.02133194  0.020804316            3 
 2885000   0.79731658   -7.5160257    738.50661  0.021331791  0.020798508            4 
 2886000   0.78257271   -7.5025605    736.71713  0.021272728  0.020792691            6 
 2887000   0.79254842   -7.4961122    737.58947   0.02129054  0.020786893            2 
 2888000   0.79070282   -7.5187869    736.48286  0.021251237  0.020781106            5 
 2889000   0.78676019   -7.4733445    739.36335  0.021326969  0.020775323            3 
 2890000   0.78011869   -7.5186311    737.70952  0.021271901  0.020769559            2 
 2891000   0.78815672   -7.5121334    738.19145  0.021278434  0.020763781            3 
 2892000   0.81079929   -7.5263413    736.27666  0.021215902  0.020757978            5 
 2893000    0.7873102   -7.5247497    737.89076  0.021255063  0.020752117            7 
 2894000   0.77627616   -7.5213692    736.97277  0.021221284  0.020746307            3 
 2895000   0.78613733   -7.5059137     736.1722   0.02119091  0.020740521            4 
 2896000   0.80483114   -7.5263031    737.74951   0.02122898  0.020734702            4 
 2897000   0.79957072   -7.5211597    739.29436   0.02126609  0.020728926            7 
 2898000   0.79543559   -7.5427865    737.02157  0.021193397  0.020723141           23 
 2899000   0.78436411   -7.5242245      736.665  0.021175837  0.020717339            4 
 2900000   0.77717409    -7.523092    737.45921  0.021191357  0.020711504            5 
 2901000   0.78651183   -7.5237918    738.01774  0.021200096  0.020705716            4 
 2902000   0.79010388   -7.5234709    738.94134  0.021219313   0.02069993            7 
 2903000   0.77959737   -7.5243791    737.56804  0.021172581  0.020694154            2 
 2904000   0.78822231    -7.502105    738.08439  0.021180108  0.020688351            2 
 2905000    0.7880456     -7.52989    738.27287  0.021178224  0.020682547            3 
 2906000   0.78535406   -7.5476791    737.87242  0.021159452  0.020676735            3 
 2907000   0.78365402   -7.5315653    739.91778  0.021210807  0.020670905            3 
 2908000   0.79737262   -7.5341313    736.48417  0.021105117  0.020665051            5 
 2909000   0.79867987   -7.5443971    736.70932  0.021104312  0.020659189            4 
 2910000   0.79555469   -7.5385913    738.11874  0.021137421  0.020653331           10 
 2911000   0.78771608    -7.535684    739.32676  0.021164742  0.020647446            4 
 2912000   0.78253371   -7.5247088    738.81776  0.021142908  0.020641583            4 
 2913000   0.79841041   -7.5063301    738.15789  0.021116772  0.020635731            2 
 2914000    0.8000299   -7.5285053    737.95131  0.021103618  0.020629876            4 
 2915000   0.78565867   -7.5363719     736.7807  0.021062913  0.020624006            3 
 2916000    0.7901444   -7.5464412    737.67723  0.021081311  0.020618137            4 
 2917000   0.79436217   -7.5442898    737.11095  0.021057906  0.020612287            3 
 2918000   0.78943995   -7.5283936    738.46071  0.021089237  0.020606415            4 
 2919000   0.80566934   -7.5314325    736.97113  0.021039486   0.02060056            5 
 2920000   0.79667604   -7.5311938    738.43876  0.021074165   0.02059472            8 
 2921000   0.79396231   -7.5204528    738.93909  0.021081225  0.020588885            3 
 2922000   0.79313162    -7.531516    738.77649  0.021069373  0.020583033            5 
 2923000   0.79775372   -7.5569862    736.74657  0.021004293  0.020577166            4 
 2924000   0.78422251   -7.5408376    738.10192  0.021035737  0.020571261            4 
 2925000   0.77573965   -7.5334995    736.77565  0.020990759  0.020565393            3 
 2926000   0.76767294   -7.5352284    738.47546  0.021031996  0.020559536            2 
 2927000   0.76339665   -7.5514635    737.71273  0.021003096  0.020553674            3 
 2928000   0.79816752   -7.5465746     739.4274  0.021044723   0.02054784            4 
 2929000   0.78077431   -7.5412732    738.34908  0.021006859  0.020542015            2 
 2930000   0.77232127   -7.5484728    739.40794  0.021029805  0.020536184            4 
 2931000   0.80080813   -7.5604514    739.16412  0.021015698  0.020530366           11 
 2932000   0.78332466   -7.5556657    740.20056  0.021037988  0.020524522            4 
 2933000   0.79103357   -7.5439197    739.68048  0.021016038  0.020518692            4 
 2934000   0.77052219   -7.5495814     738.6684  0.020980129  0.020512872            3 
 2935000   0.78360794    -7.543286    740.58857  0.021027501  0.020507088            4 
 2936000   0.77373298   -7.5254092    740.42309  0.021015642  0.020501273            6 
 2937000   0.77961546   -7.5449462    739.48349  0.020981826  0.020495464            4 
 2938000   0.77747336   -7.5377641    739.23855  0.020967737  0.020489686            3 
 2939000   0.77460374   -7.5505958    738.78761  0.020947817  0.020483911            7 
 2940000   0.78452234   -7.5170169    739.08273  0.020949057  0.020478121            5 
 2941000    0.7712579   -7.5338025    741.37032  0.021006753  0.020472372            5 
 2942000   0.76926602   -7.5567638    742.88452  0.021042503    0.0204666            3 
 2943000   0.76226754   -7.5381132    740.62484  0.020971368  0.020460824            4 
 2944000   0.78314217   -7.5399201     740.1128  0.020949751  0.020455031            5 
 2945000   0.78796864   -7.5568192    739.78092  0.020933246   0.02044923            2 
 2946000   0.79074372   -7.5784016    740.87354  0.020957047  0.020443407            3 
 2947000   0.77911459   -7.5742126    739.92501  0.020923114  0.020437578            3 
 2948000   0.78846819   -7.5549852    739.93777  0.020916377  0.020431755            9 
 2949000   0.77182647   -7.5537277    739.25413  0.020889966  0.020425965            4 
 2950000   0.76728522   -7.5267012    741.57472  0.020948438  0.020420185            5 
 2951000    0.7878276   -7.5113837    741.60778  0.020942273  0.020414421            5 
 2952000   0.77864679   -7.5298086    740.19748  0.020895367  0.020408654            5 
 2953000   0.76901079   -7.5406161    741.63227  0.020928781  0.020402879            5 
 2954000   0.76353571     -7.54198    742.02375  0.020932739  0.020397114            6 
 2955000   0.77976263   -7.5507081     742.6873  0.020944368  0.020391382            5 
 2956000   0.77838614   -7.5416997     741.8884  0.020914761  0.020385622            4 
 2957000   0.77145304   -7.5380973     741.6033  0.020899653  0.020379869            5 
 2958000     0.790271   -7.5281811    742.24962  0.020910796  0.020374111            4 
 2959000   0.78470356   -7.5236988    741.20341  0.020874265  0.020368349            4 
 2960000   0.77741736   -7.5364063    741.65879  0.020880034  0.020362564            4 
 2961000   0.78436273   -7.5696602    739.99114  0.020826048  0.020356782           12 
 2962000   0.78111802   -7.5329607    741.75149  0.020868543  0.020350964            4 
 2963000   0.77574389   -7.5787281    742.25668  0.020875708  0.020345169            5 
 2964000   0.77182782   -7.5131253    742.94997  0.020888157   0.02033938            2 
 2965000   0.77634367   -7.5205658    742.53948  0.020869575   0.02033358            5 
 2966000   0.76822704   -7.5352618    740.02207  0.020791809   0.02032779            3 
 2967000   0.78536983   -7.5591431    740.97719  0.020811628  0.020321984            3 
 2968000    0.7796391   -7.5407019     739.3198  0.020758081  0.020316202            8 
 2969000   0.75755163   -7.5413254    739.37212  0.020752557  0.020310386           10 
 2970000   0.77399176   -7.5469736     740.6765  0.020782169  0.020304582            6 
 2971000   0.77138113    -7.583451    741.44567  0.020796748  0.020298805            2 
 2972000   0.77637482   -7.5302673    742.61911  0.020822653  0.020293001            6 
 2973000   0.76387557   -7.5499407    740.70135  0.020761894  0.020287206            3 
 2974000   0.78168646   -7.5703037    741.18761  0.020768539   0.02028142           10 
 2975000    0.7722484   -7.5583452    740.34268   0.02073789  0.020275634            8 
 2976000    0.7715044   -7.5420961    741.71462  0.020769338  0.020269828            4 
 2977000    0.7938403   -7.5538616    740.87527  0.020738866  0.020264009            4 
 2978000   0.77114729    -7.535137    742.20546  0.020769125  0.020258206            7 
 2979000   0.79258918   -7.5458615    741.63958  0.020746324  0.020252389            7 
 2980000   0.76772486   -7.5513292    741.34906  0.020731238  0.020246582            5 
 2981000   0.77667248   -7.5621541    741.46873  0.020727628  0.020240774            3 
 2982000   0.76250894   -7.5200149    741.63163   0.02072523  0.020234976            3 
 2983000   0.76695524   -7.5526708    740.85503  0.020696587  0.020229197            3 
 2984000   0.76727957    -7.545581    742.94355  0.020747977  0.020223421            4 
 2985000   0.78086443   -7.5617288    743.04569  0.020743877  0.020217627            5 
 2986000   0.77835725   -7.5902835     741.2926  0.020688005   0.02021184            3 
 2987000   0.77670816   -7.5368552    742.96171  0.020727645  0.020206038            5 
 2988000    0.7889447   -7.5392501    743.62774  0.020739283  0.020200249            8 
 2989000   0.75684253   -7.5373752    741.05783  0.020660696  0.020194487            8 
 2990000   0.76478603   -7.5696247    741.59358  0.020668717  0.020188704            3 
 2991000   0.78089793   -7.5480781    740.67108  0.020636105  0.020182905            5 
 2992000   0.77429024   -7.5639034    742.10936  0.020669267   0.02017708            7 
 2993000   0.77705055   -7.5596541    742.44346  0.020671663  0.020171278            4 
 2994000   0.77352381   -7.5351431    742.30408  0.020660879  0.020165505            5 
 2995000   0.77925206   -7.5529438    744.08116  0.020703427  0.020159729            2 
 2996000   0.77444749   -7.5490638    742.43115  0.020650622  0.020153986           15 
 2997000   0.78481683    -7.527459    744.79687  0.020709511  0.020148243            7 
 2998000   0.77603483   -7.5792418    741.14417  0.020601072  0.020142446            6 
 2999000   0.78374839   -7.5654365    741.58804  0.020606537  0.020136645            3 
 3000000   0.77193916   -7.5794101    742.80113  0.020633365   0.02013088            5 
 3001000     0.780014    -7.562215    742.93592  0.020630232  0.020125101           10 
 3002000   0.76572079   -7.5308972    744.00291  0.020652979  0.020119327            6 
 3003000   0.76769938   -7.5431041    744.29846  0.020654303  0.020113536            4 
 3004000   0.76845695   -7.5718783    743.17248  0.020616192  0.020107762            3 
 3005000   0.77485189   -7.5590677    741.97115  0.020576016  0.020102001            3 
 3006000   0.76631642   -7.5662057     742.6465  0.020587894  0.020096228            2 
 3007000   0.78845313    -7.564272    743.00903  0.020591094  0.020090436           10 
 3008000   0.76553128   -7.5811349    743.02138   0.02058459  0.020084677            3 
 3009000   0.77993813   -7.5869726    742.57567  0.020565406  0.020078881            3 
 3010000    0.7671052   -7.5800983    743.13309  0.020574006  0.020073091            3 
 3011000   0.77020321   -7.5915959    742.72388  0.020555848  0.020067276            3 
 3012000   0.78019888   -7.5781576    742.70487  0.020548497  0.020061513            2 
 3013000   0.77353468   -7.5595458    744.16564  0.020582079   0.02005575            5 
 3014000   0.78219834   -7.5452746    744.11448  0.020573835  0.020050008            2 
 3015000   0.78090521   -7.5521001    742.41377  0.020520005  0.020044268           12 
 3016000   0.76354113   -7.5660174    743.36336  0.020539439  0.020038539            3 
 3017000    0.7596707   -7.5585823    742.71359  0.020514683  0.020032796            4 
 3018000   0.78037922   -7.5446308    745.52803  0.020585598  0.020027061            4 
 3019000   0.76986202   -7.5584581    744.25318   0.02054359  0.020021336            4 
 3020000   0.76840175   -7.5854306    743.43088  0.020514097  0.020015616            5 
 3021000   0.74384692   -7.5499195    744.64521  0.020540803  0.020009893            6 
 3022000   0.78245012   -7.5486312    744.58601  0.020532374  0.020004171            3 
 3023000   0.77047297   -7.5898566    744.11097  0.020512487  0.019998445            4 
 3024000   0.75348772   -7.5825182    745.57741  0.020546115  0.019992701            5 
 3025000   0.78735021   -7.5644786    744.65243  0.020513841  0.019986978            3 
 3026000   0.76614685   -7.5508562    744.01402   0.02048948  0.019981288            3 
 3027000   0.76115359   -7.5818706    745.64391  0.020527583  0.019975602            5 
 3028000   0.77115774   -7.5925558    745.38511  0.020513681  0.019969927            3 
 3029000   0.78088625   -7.5849368    745.15071   0.02050046  0.019964224            2 
 3030000   0.77518082   -7.5953094    744.89426  0.020486641  0.019958514            3 
 3031000    0.7637447   -7.5797709    744.84501  0.020478528  0.019952807           12 
 3032000   0.76489116   -7.5862376     744.6074  0.020465243  0.019947104            5 
 3033000   0.76801914   -7.5840797     745.6437  0.020486968   0.01994141            3 
 3034000    0.7753604   -7.5693635    743.77837  0.020428982  0.019935705            5 
 3035000   0.76867285   -7.5812824    743.70522  0.020420242  0.019930012            5 
 3036000   0.75873365   -7.5847987    744.35894   0.02043146  0.019924311            3 
 3037000    0.7555558   -7.5713237    745.38306  0.020452834  0.019918594            7 
 3038000   0.76606918   -7.5832441    745.15066  0.020439726  0.019912884            4 
 3039000   0.76262964   -7.5888129    745.58053  0.020444788  0.019907176            4 
 3040000   0.77928166   -7.5998987    744.91178  0.020419731  0.019901439            5 
 3041000   0.76701377    -7.597448    747.20507   0.02047586  0.019895723            5 
 3042000   0.75596876   -7.5727642    746.23383  0.020442522  0.019890013            4 
 3043000    0.7445768    -7.572054    746.79631  0.020451208  0.019884338            7 
 3044000   0.77262011    -7.581887    745.35521  0.020405038  0.019878662            3 
 3045000   0.76409852   -7.5742578    745.08202   0.02039086  0.019872996            6 
 3046000   0.76803352   -7.5706311    745.61057  0.020398626  0.019867317            4 
 3047000   0.76979647   -7.5858586    747.21596  0.020435837  0.019861638            4 
 3048000   0.76301333   -7.6076219    747.56937  0.020438795  0.019855973            3 
 3049000   0.76829924   -7.5540608    746.04026  0.020390299  0.019850306            5 
 3050000   0.76506969   -7.5768373    745.38954  0.020365834  0.019844615            5 
 3051000   0.77264781    -7.569095    744.75168  0.020341737  0.019838901            4 
 3052000   0.75642253   -7.6059323    746.44673  0.020381355  0.019833182            9 
 3053000   0.77770553   -7.6021594    746.59219  0.020378649  0.019827468            3 
 3054000   0.75555515   -7.5699947    745.04347  0.020329717  0.019821782            8 
 3055000   0.78243017   -7.6038558    746.10571  0.020352038  0.019816096            4 
 3056000   0.74880034   -7.5742065     746.0934  0.020345042  0.019810421            3 
 3057000   0.78130751   -7.5731156    746.80446  0.020357771  0.019804761           13 
 3058000   0.74189318   -7.5833456    746.27185  0.020336599  0.019799104            5 
 3059000   0.75356252   -7.5839971     747.9901   0.02037676  0.019793468            5 
 3060000    0.7522607    -7.579525    747.49852  0.020356714   0.01978781            4 
 3061000   0.75688923   -7.5754196    748.01193   0.02036404  0.019782171            6 
 3062000   0.75411384   -7.5913334    747.34484  0.020339235  0.019776528            5 
 3063000   0.75380648   -7.6189847    747.03196  0.020324082  0.019770858            6 
 3064000   0.76746609   -7.5890928    746.07602   0.02029145   0.01976519            3 
 3065000   0.75477102   -7.5657565     747.3549    0.0203196  0.019759564            3 
 3066000   0.76321862   -7.5841466    747.75572  0.020323867  0.019753952            3 
 3067000   0.75415371   -7.6088641    747.41745  0.020308049  0.019748319            6 
 3068000   0.74537759   -7.5580441    747.47562   0.02030301  0.019742676            4 
 3069000   0.75198956   -7.6033122    746.54687  0.020271176  0.019737023            6 
 3070000   0.75257046   -7.5924601    747.73725  0.020296885  0.019731372            2 
 3071000   0.74514678   -7.5929647    746.47184  0.020255938  0.019725703            4 
 3072000   0.76695805   -7.5742939    747.44822  0.020275831  0.019720007            4 
 3073000   0.76762345   -7.6130454    745.95526  0.020228747  0.019714298            5 
 3074000    0.7685341   -7.6101303    746.81726  0.020245534  0.019708606            8 
 3075000   0.77351917   -7.5717577    748.00024  0.020271009  0.019702915            4 
 3076000   0.74597636   -7.5968056    748.10066   0.02026714  0.019697258            5 
 3077000   0.76689047   -7.6138436    746.82683  0.020226054  0.019691593            9 
 3078000   0.75092109     -7.58463    747.99857  0.020251207  0.019685933            6 
 3079000    0.7720447   -7.5829766    747.65018    0.0202352  0.019680284           11 
 3080000   0.76529355   -7.5960014    747.42889  0.020222643  0.019674622            4 
 3081000   0.75785653    -7.580523    746.61808  0.020194149   0.01966893            3 
 3082000   0.76391701   -7.5989339    745.73051  0.020163598  0.019663235            3 
 3083000   0.76186009   -7.5956017    747.80265  0.020213068  0.019657522            3 
 3084000   0.76518153   -7.6106352    745.61947  0.020147521  0.019651834            5 
 3085000   0.77233538    -7.590575    746.19158  0.020156445   0.01964613            7 
 3086000   0.77140175    -7.600346    747.63358  0.020188852  0.019640443            3 
 3087000   0.73781155   -7.6345122     746.3664  0.020148105  0.019634746            6 
 3088000   0.76028139   -7.6116696    747.54363  0.020173349  0.019629026            2 
 3089000   0.74703471   -7.6199103    745.02576  0.020098893  0.019623317            3 
 3090000   0.75029504   -7.6442668    746.03126  0.020119505  0.019617569            5 
 3091000   0.76225436    -7.584718    746.80245  0.020133788   0.01961185            5 
 3092000   0.74824786   -7.6194921    746.49659  0.020119033  0.019606148            4 
 3093000   0.74977633   -7.6031775    748.11886  0.020156236  0.019600434            3 
 3094000   0.75155803   -7.6104569    747.47816  0.020132465  0.019594717            5 
 3095000   0.75617995   -7.5998272    746.11385  0.020089226  0.019589016            5 
 3096000   0.74003117   -7.5973022    747.09639  0.020109184  0.019583309           10 
 3097000   0.75540091   -7.6117028    747.77753  0.020121018  0.019577621            5 
 3098000   0.76396369   -7.5930861    747.56641  0.020108845  0.019571921            3 
 3099000   0.75694353   -7.6084914    747.07584  0.020089164  0.019566235            3 
 3100000   0.75633443   -7.6043331    748.16059  0.020111844  0.019560565            3 
 3101000    0.7462061   -7.6004804    749.20176  0.020133338  0.019554896            5 
 3102000   0.75097066   -7.5893662    749.19761  0.020126736  0.019549265            4 
 3103000   0.74409485   -7.6151808    748.84479  0.020110774   0.01954362            5 
 3104000   0.76733577    -7.591844    748.47353  0.020094328  0.019537968            5 
 3105000   0.76536756    -7.609677    747.10054  0.020051007  0.019532316            5 
 3106000   0.75344937   -7.6168976    747.75218  0.020062035   0.01952668            6 
 3107000   0.74963046   -7.5982508    748.87427  0.020085674  0.019521032            6 
 3108000   0.78053245   -7.6182126    748.65105  0.020073226  0.019515374            8 
 3109000   0.75060658   -7.6339235    748.45732  0.020061577  0.019509728            4 
 3110000   0.74328706   -7.5958826    749.68062  0.020087905  0.019504079            8 
 3111000     0.748324   -7.6104417    748.62176  0.020053085   0.01949842            5 
 3112000   0.75214786   -7.6204912    749.91277  0.020081212  0.019492786            3 
 3113000    0.7549076   -7.6078641    747.84115  0.020019305  0.019487142            6 
 3114000   0.73556486   -7.5980815    748.10477  0.020019931  0.019481498            8 
 3115000   0.73215324   -7.6216579    749.82959  0.020059647  0.019475875            4 
 3116000   0.74918291    -7.599647     748.6407  0.020021414  0.019470232            5 
 3117000   0.75485105   -7.5860114    752.14511  0.020108681  0.019464604            5 
 3118000   0.74370079   -7.5990151    747.24002  0.019971136  0.019459009            7 
 3119000   0.75831444   -7.6127139    749.03499  0.020012691  0.019453402            5 
 3120000   0.78607232   -7.5999548    749.84029  0.020027785  0.019447791            4 
 3121000   0.74070159   -7.6171843    749.31566   0.02000736  0.019442165            3 
 3122000   0.77407704   -7.6197435    750.91245  0.020043574  0.019436544            3 
 3123000   0.75187713   -7.5895861    750.54543  0.020027362  0.019430945            5 
 3124000   0.73875232   -7.6157924    750.66264  0.020024078   0.01942537            2 
 3125000   0.75675657   -7.5912716     751.6134  0.020043024  0.019419773            5 
 3126000   0.74411263   -7.6034399    750.68996  0.020011995  0.019414184            3 
 3127000   0.73843469   -7.5795252    751.32116  0.020022416  0.019408597            4 
 3128000   0.76283874   -7.5862863    748.84485  0.019950044   0.01940303            4 
 3129000   0.74395706   -7.6076079    751.12656  0.020004436  0.019397441            1 
 3130000    0.7583572   -7.6329875    748.48689  0.019927766  0.019391818            3 
 3131000   0.75914406   -7.6221049    749.42386  0.019946339    0.0193862            5 
 3132000   0.74349408   -7.6183702    747.80902  0.019897005  0.019380566            3 
 3133000   0.75442899   -7.6336854    749.02033  0.019922873  0.019374905            5 
 3134000   0.76699578    -7.632139    748.20428  0.019894817  0.019369275            9 
 3135000   0.76236028   -7.6414631    748.88778   0.01990664  0.019363646            3 
 3136000   0.74947003   -7.6609421    749.26956  0.019910437  0.019358012            5 
 3137000   0.72942806   -7.6325783     749.0972  0.019899511  0.019352368            3 
 3138000   0.75661691   -7.6370201    749.19655  0.019895808  0.019346727            4 
 3139000   0.75238171   -7.6171994    750.42275  0.019922023  0.019341115            4 
 3140000    0.7413339   -7.6365334     749.3676  0.019887675  0.019335515            6 
 3141000   0.76038064     -7.61747    749.45077   0.01988355  0.019329902           11 
 3142000   0.76363923     -7.59612    746.92078   0.01981012    0.0193243            5 
 3143000   0.75798188   -7.6046223    750.63945  0.019902414  0.019318708            3 
 3144000   0.76312767   -7.6140884    751.13706  0.019909273  0.019313112            2 
 3145000   0.76951821   -7.6345668    750.65526  0.019890177  0.019307518            7 
 3146000   0.74072518   -7.6341505    750.93673   0.01989131  0.019301933            7 
 3147000   0.75047488   -7.6276819    751.65728  0.019904069  0.019296364            6 
 3148000   0.73746828   -7.6068069    751.47591  0.019892946  0.019290811            4 
 3149000   0.74793417    -7.619355    753.57672  0.019942223  0.019285254            6 
 3150000   0.73608508   -7.6390631    750.88604   0.01986471  0.019279711            9 
 3151000   0.73813682   -7.6452536    751.06576  0.019863159   0.01927414            6 
 3152000   0.74619895   -7.6182324    751.81738  0.019876729  0.019268587            6 
 3153000   0.74124428   -7.6275381    751.10317  0.019851548  0.019263034            5 
 3154000   0.72401751   -7.6032689    751.61869  0.019858875  0.019257498            7 
 3155000   0.73545762   -7.6161955    750.89554   0.01983348  0.019251982            5 
 3156000   0.74784527   -7.6057107    752.17529  0.019860987  0.019246468            4 
 3157000   0.73734799   -7.6200623    750.96146  0.019822655  0.019240952            4 
 3158000   0.75262336   -7.6234189    751.63907  0.019834259  0.019235405            4 
 3159000    0.7480411    -7.617591    753.52473  0.019877723  0.019229889            8 
 3160000   0.74144383   -7.6082535    753.59276  0.019873227  0.019224402            3 
 3161000   0.75262328   -7.5922499     753.0131  0.019851658  0.019218917            5 
 3162000   0.74582235   -7.6156643    753.01382  0.019845399  0.019213416            4 
 3163000   0.74051932   -7.6056308    753.44125  0.019850386  0.019207936            3 
 3164000   0.74284167   -7.5958849    752.90187  0.019829906   0.01920245            3 
 3165000    0.7464576   -7.6192657     752.4076  0.019810627  0.019196955            1 
 3166000   0.76188196   -7.6418622    752.16135  0.019797888  0.019191455            7 
 3167000   0.74726641    -7.641445    752.14677  0.019791253  0.019185952            4 
 3168000    0.7278825   -7.6070512    753.02588   0.01980813  0.019180461            6 
 3169000   0.75431791   -7.6208709    752.08045  0.019777018  0.019174945            2 
 3170000   0.74696379   -7.6212512    753.17309  0.019799503  0.019169439            3 
 3171000   0.74801766   -7.6259752     752.7836  0.019783023  0.019163922            2 
 3172000   0.75186895   -7.6320691    750.74898  0.019723334  0.019158375            8 
 3173000   0.72360607   -7.6316259    751.47559  0.019736201  0.019152836           10 
 3174000   0.74393716   -7.6318139     750.7801  0.019711723  0.019147291            4 
 3175000   0.73922509   -7.6323055    752.62374  0.019753904  0.019141789            3 
 3176000   0.73080476   -7.5995712    754.98645  0.019809678   0.01913629            8 
 3177000    0.7508449   -7.6104325    752.98883  0.019751045  0.019130797            2 
 3178000   0.74091804   -7.6033933    754.28647  0.019778857  0.019125314            2 
 3179000   0.75032131   -7.5814597    755.16093  0.019795558  0.019119848            6 
 3180000    0.7513885   -7.6237006    753.65496  0.019749868  0.019114368            6 
 3181000   0.75486554   -7.6402235    751.35189  0.019683325  0.019108856            4 
 3182000   0.73448403   -7.6253794    753.44026  0.019731832  0.019103357            7 
 3183000   0.72530751    -7.622004    752.06792  0.019689704  0.019097878            2 
 3184000   0.73270853   -7.6334179    752.36558   0.01969131  0.019092383            2 
 3185000   0.72985465   -7.6591496    753.30998  0.019709837  0.019086881            3 
 3186000   0.73790011   -7.6559105    752.70049  0.019687709  0.019081355            7 
 3187000   0.72983299   -7.6544879    752.25559  0.019669898  0.019075824            7 
 3188000   0.74299737   -7.6481922    752.02659  0.019657742  0.019070303            5 
 3189000   0.73521731   -7.6406631    751.85557  0.019647109  0.019064802            5 
 3190000   0.74296087   -7.6122063    752.71092  0.019663295  0.019059311           10 
 3191000    0.7461379   -7.6682544    752.51784   0.01965209  0.019053823           10 
 3192000   0.74464498   -7.6458284    754.96699  0.019709873  0.019048318           11 
 3193000   0.74102126   -7.6430746    754.00706  0.019678648  0.019042815            5 
 3194000   0.73867516   -7.6434646    753.08411  0.019648406  0.019037276            6 
 3195000   0.75924188   -7.6574526    754.51695  0.019679628   0.01903172            7 
 3196000   0.72075463   -7.6314711    753.20104  0.019639159   0.01902618            3 
 3197000   0.74310743   -7.6343817    753.92996  0.019652017  0.019020704            4 
 3198000   0.73684245   -7.6302917     753.7288  0.019640629  0.019015205            3 
 3199000   0.73950722   -7.6449618    753.00771  0.019615706  0.019009717            2 
 3200000   0.75206423   -7.6355381    754.63168  0.019651867  0.019004223            4 
 3201000   0.74785869   -7.6524952    754.22788  0.019635215  0.018998742            2 
 3202000   0.73785812   -7.6671173     753.4307  0.019608336  0.018993236            4 
 3203000   0.72653956   -7.6631424    755.46339  0.019655099  0.018987738            6 
 3204000    0.7173991   -7.6758303    753.03278  0.019585747  0.018982214            7 
 3205000   0.73709591   -7.6531749    754.64613  0.019621584  0.018976687            3 
 3206000   0.73698399   -7.6437207    753.99292  0.019598485  0.018971208            3 
 3207000   0.73047942   -7.6468787    753.60255   0.01958223  0.018965741            4 
 3208000   0.73711344   -7.6329796    753.32249  0.019568851  0.018960266            5 
 3209000   0.75276112   -7.6436937    754.39209  0.019590529  0.018954787            5 
 3210000   0.72992709   -7.6609753    754.42342  0.019585239  0.018949327            5 
 3211000   0.72945414   -7.6272584    754.17001  0.019572563  0.018943841            3 
 3212000    0.7420026   -7.6401066    753.75854  0.019555794   0.01893836            5 
 3213000   0.75466058    -7.620329    753.71166  0.019548492   0.01893287            5 
 3214000   0.74519195   -7.6406879      754.585  0.019565054  0.018927406            6 
 3215000    0.7356689   -7.6301504    754.59115  0.019559128  0.018921932            4 
 3216000     0.730345   -7.6661668    753.82366  0.019533159  0.018916459            5 
 3217000   0.74112655    -7.668602    754.05203  0.019533003  0.018910962            3 
 3218000   0.73162077    -7.640598    754.77978  0.019545778  0.018905482            6 
 3219000   0.75075472   -7.6677041    753.62196  0.019509733  0.018899999            5 
 3220000   0.74204409   -7.6349338    755.40334  0.019549776  0.018894538            3 
 3221000   0.74425491   -7.6334176     754.9696  0.019532485  0.018889064            3 
 3222000   0.74590353   -7.6699068    754.80717  0.019522221  0.018883602            4 
 3223000   0.74111457   -7.6619261    754.16251  0.019499496  0.018878132            3 
 3224000   0.72548232   -7.6619654    754.50328  0.019502256  0.018872644            7 
 3225000   0.74421579   -7.6571332    754.29503  0.019490828   0.01886715           12 
 3226000   0.73103091   -7.6639094    752.47031   0.01943765  0.018861653            3 
 3227000   0.73457094   -7.6450359    754.22087  0.019476833   0.01885618            5 
 3228000   0.73305712   -7.6825471    754.04263  0.019466198   0.01885073            4 
 3229000   0.73277171   -7.6611424    754.94112  0.019483357  0.018845269            6 
 3230000   0.73566647   -7.6538439    755.18713  0.019483672  0.018839809            6 
 3231000   0.74308566   -7.6408131    757.17397  0.019528886  0.018834366            5 
 3232000   0.73459231   -7.6325946      756.223  0.019498324  0.018828938            4 
 3233000   0.73742726   -7.6543761    754.82203  0.019456182  0.018823505            7 
 3234000   0.74725611   -7.6446923    755.20417  0.019460013  0.018818091           11 
 3235000    0.7282405   -7.6749266    755.25102  0.019455204  0.018812664            8 
 3236000   0.73521081   -7.6642365    755.84979  0.019464611  0.018807225            3 
 3237000   0.74076878   -7.6462346    755.31186   0.01944475  0.018801809            3 
 3238000   0.72319843   -7.6471269    756.19273  0.019461415  0.018796399            4 
 3239000   0.72569396   -7.6535165    755.58745  0.019439834  0.018790984            7 
 3240000   0.73743929   -7.6387111    756.93088  0.019468387   0.01878556            7 
 3241000   0.73182203   -7.6532043    755.21136  0.019418167   0.01878015            3 
 3242000    0.7422038   -7.6602144      757.154  0.019462112  0.018774747            4 
 3243000   0.73767597    -7.667364    755.77965  0.019420795  0.018769339            6 
 3244000   0.72077895   -7.6522093    754.29973  0.019376791   0.01876392            5 
 3245000   0.72744989   -7.6690367    756.04053  0.019415525  0.018758488            3 
 3246000   0.72485456   -7.6652268    754.55593   0.01937143  0.018753058            3 
 3247000   0.72506026   -7.6629735    755.30905  0.019384792  0.018747609            4 
 3248000   0.73051297   -7.6573699    754.43893    0.0193565  0.018742154            3 
 3249000   0.73331412   -7.6601033    754.46107   0.01935111  0.018736716            4 
 3250000   0.73520299    -7.619572    754.86283  0.019355457  0.018731297            6 
 3251000   0.72540659   -7.6595237    755.13135  0.019356386  0.018725889            4 
 3252000   0.73577077   -7.6718548     758.1338  0.019427373  0.018720487            1 
 3253000   0.72175516   -7.6303123     756.5806  0.019381612  0.018715067           13 
 3254000   0.71959138   -7.6677197    755.70073  0.019353123  0.018709654            8 
 3255000   0.71354206   -7.6606249    754.85241  0.019325458  0.018704237            6 
 3256000   0.71424739    -7.670358    756.43659  0.019360068    0.0186988            9 
 3257000   0.71394255    -7.663315    755.02549   0.01931802  0.018693372            6 
 3258000   0.73619733   -7.6653416    755.85968  0.019333428  0.018687952            5 
 3259000   0.72070411   -7.6616715    754.39205  0.019289967  0.018682535            4 
 3260000   0.73181668   -7.6620595    754.95371  0.019298408  0.018677134            3 
 3261000   0.71600449   -7.6565007    757.57522  0.019359481  0.018671738            2 
 3262000   0.71825909   -7.6690544    756.55202  0.019327407  0.018666361            4 
 3263000   0.71601989   -7.6489166    754.45938   0.01926804  0.018660956            3 
 3264000   0.72808807   -7.6701405    756.80644   0.01932206  0.018655554            4 
 3265000    0.7318853    -7.651484    757.89637  0.019343961  0.018650152            2 
 3266000   0.72358985   -7.6822279     756.4621  0.019301442   0.01864474            3 
 3267000   0.73076788   -7.6770021      757.308   0.01931711  0.018639339            9 
 3268000   0.74066739   -7.6782876    756.23206  0.019283763  0.018633935            4 
 3269000   0.72421792   -7.6481905    757.80879  0.019318058  0.018628537            3 
 3270000    0.7270646   -7.6928337    756.05374  0.019267425  0.018623147            2 
 3271000   0.72832011   -7.6533345     756.1133  0.019263052  0.018617764            4 
 3272000   0.73293523   -7.6736976    757.27306  0.019286702  0.018612399            2 
 3273000    0.7382874   -7.6801087    757.46553   0.01928571  0.018607003           11 
 3274000   0.72463338   -7.6735066    756.79352  0.019262714  0.018601602            7 
 3275000   0.72814139   -7.6483571    754.36183  0.019194958  0.018596223            5 
 3276000   0.72615585   -7.6497876    756.64091  0.019247072  0.018590851            3 
 3277000   0.73287273   -7.6687143    754.79061  0.019194146  0.018585447            4 
 3278000   0.71505052   -7.6413806    757.14671  0.019248188  0.018580043            6 
 3279000   0.72259129   -7.7056113    755.88965   0.01921037  0.018574637            5 
 3280000   0.72800713   -7.6536228     755.9546  0.019206164  0.018569231            6 
 3281000   0.73034312   -7.6949512    756.14732  0.019205205  0.018563838            3 
 3282000   0.72669197   -7.6567129    756.38789  0.019205461  0.018558451            3 
 3283000   0.71829646   -7.6719695     755.8122  0.019184998  0.018553058            6 
 3284000   0.73071048     -7.65799    756.27808  0.019190978  0.018547669            4 
 3285000   0.71465808   -7.6701913    756.87534  0.019200288  0.018542301           10 
 3286000   0.71070031   -7.6580144     756.4513  0.019183691  0.018536918            7 
 3287000   0.73755346   -7.6907693    757.08813     0.019194  0.018531542            9 
 3288000   0.72929463   -7.7048731    755.97009  0.019159826  0.018526143            9 
 3289000   0.71860505   -7.6796032    756.30148  0.019162397  0.018520725            6 
 3290000   0.72267985   -7.6707001    757.65255  0.019190794  0.018515304            6 
 3291000   0.73249451   -7.6753725    755.88491  0.019140203  0.018509882            7 
 3292000   0.73408398   -7.6731758    756.03966  0.019138306  0.018504485            3 
 3293000   0.72210731   -7.7021615    757.39586  0.019166815  0.018499064            7 
 3294000   0.72779241   -7.7024877    756.64961  0.019142117  0.018493643            4 
 3295000   0.73924687   -7.6723307    755.89126  0.019117129   0.01848824            4 
 3296000    0.7234637   -7.6748821    756.95229  0.019138154  0.018482844            7 
 3297000   0.72702754   -7.6763891    757.33702  0.019142074  0.018477466            3 
 3298000   0.72320216   -7.6822908     756.9291  0.019125963  0.018472092            4 
 3299000   0.72589908   -7.6801442    757.84738  0.019143361  0.018466715            3 
 3300000   0.70921538   -7.6645147    758.17156  0.019145746  0.018461342            6 
 3301000   0.70776377   -7.6637322      757.289  0.019117666  0.018455982            3 
 3302000   0.71802735   -7.6491752    756.18086   0.01908391  0.018450623            5 
 3303000   0.71369073   -7.6768803    756.68077  0.019090745  0.018445251            4 
 3304000   0.73334779   -7.6720276    756.56687  0.019082094  0.018439869            5 
 3305000   0.72225503   -7.6502857    757.62773  0.019103069  0.018434512            2 
 3306000   0.73056615    -7.669007    758.19445  0.019111576  0.018429144            5 
 3307000    0.7288283     -7.68105    756.97412  0.019075046  0.018423785            6 
 3308000   0.74344234   -7.6748877    756.39999  0.019054816  0.018418398           13 
 3309000   0.73742839   -7.6346727    757.17312  0.019068528  0.018413035            6 
 3310000   0.72944753   -7.6734965    757.02226  0.019058969  0.018407673            6 
 3311000   0.72011155   -7.6667053    757.93897  0.019076285  0.018402299            4 
 3312000   0.72137869   -7.6724132    757.90832  0.019069754  0.018396925            7 
 3313000   0.73194551   -7.7028743    755.92695   0.01901416   0.01839155            3 
 3314000    0.7199432   -7.7098889    755.43729   0.01899611  0.018386165            4 
 3315000   0.71855931    -7.658953    757.68203  0.019046808  0.018380791            7 
 3316000   0.72907725   -7.6919023    756.75516  0.019017771  0.018375423            5 
 3317000    0.7301499   -7.6946191    758.72491  0.019061524  0.018370045            7 
 3318000   0.70125302   -7.6900863    758.22282  0.019043169  0.018364651            4 
 3319000   0.72513477   -7.6855855    757.08237  0.019008797  0.018359269            4 
 3320000   0.71283078   -7.6838743    757.77144  0.019020367  0.018353892            6 
 3321000   0.72750494   -7.7167527    757.01021  0.018995539  0.018348502            4 
 3322000   0.73031189   -7.6885534    756.12997   0.01896774  0.018343117            7 
 3323000   0.71265755   -7.7087346    756.37384  0.018968147  0.018337718            2 
 3324000   0.71821229   -7.6643741    757.45595   0.01898957  0.018332317            6 
 3325000   0.72764855   -7.7017645    758.40774  0.019007713   0.01832694            2 
 3326000   0.71559655   -7.6670422    758.33429  0.019000158  0.018321581            7 
 3327000   0.72679814   -7.7074716    756.44147  0.018947036  0.018316199            8 
 3328000   0.71899006   -7.6802757    756.44734   0.01894149  0.018310822            6 
 3329000   0.71902152   -7.6996641    755.72596  0.018917742  0.018305421            5 
 3330000   0.73581331   -7.6813169    756.55049  0.018932695  0.018300023            3 
 3331000   0.71318161   -7.6887666    757.26188  0.018944808  0.018294633            3 
 3332000   0.71917622   -7.6838867    757.07297  0.018934398  0.018289221            4 
 3333000   0.70692707   -7.6581577    758.21739   0.01895733  0.018283819            4 
 3334000   0.71374677   -7.7039645    756.82399  0.018916816  0.018278427            4 
 3335000   0.70819569   -7.6910315    757.21846  0.018921001  0.018273024            8 
 3336000   0.72294728   -7.6723448    757.99999  0.018934852  0.018267661            4 
 3337000    0.7320567   -7.6899937    757.31566  0.018912088  0.018262304            3 
 3338000    0.6961167   -7.6826427    759.61182  0.018963746  0.018256937            2 
 3339000   0.70868655   -7.6830964    757.67492  0.018909726  0.018251578            3 
 3340000   0.70957008   -7.6859481    756.53955  0.018875737    0.0182462            2 
 3341000   0.71552789   -7.6913351    757.16669   0.01888573  0.018240827            4 
 3342000   0.71119962   -7.6997035    757.01475   0.01887629   0.01823547            5 
 3343000   0.72707449   -7.7086998    756.36896  0.018854546  0.018230086            4 
 3344000   0.70188369   -7.6837072    758.70921  0.018907227  0.018224718            5 
 3345000   0.71108619   -7.6669807    757.86257  0.018880483  0.018219343           10 
 3346000   0.72630504   -7.6752943    758.90237  0.018900736   0.01821398            2 
 3347000   0.73816589   -7.7062662    758.88224  0.018894588  0.018208623            6 
 3348000   0.71280614   -7.6666596    758.65632  0.018883322  0.018203264            2 
 3349000   0.72641438   -7.6897837    757.82599  0.018857022  0.018197919            4 
 3350000   0.72544349   -7.6971466    757.66874  0.018847481  0.018192556            7 
 3351000   0.71101696   -7.6817559    757.05576  0.018826613  0.018187198            3 
 3352000    0.7175084   -7.6876235    757.12283  0.018822664   0.01818188            3 
 3353000   0.70605485   -7.6819987    759.73569  0.018881988  0.018176544            2 
 3354000    0.7339335   -7.6710534    758.18997  0.018837954  0.018171226            3 
 3355000    0.7183349   -7.7029459    757.99669  0.018827538  0.018165899            3 
 3356000   0.70908576    -7.714448    758.27448  0.018828826  0.018160562           11 
 3357000   0.71120219   -7.7022987    758.33361  0.018824685  0.018155225           10 
 3358000   0.70396908   -7.7000372    758.17845  0.018815229  0.018149878            5 
 3359000   0.71215257   -7.7163024    758.10506  0.018807806  0.018144541            5 
 3360000   0.70408708   -7.6848028    759.21243  0.018829673  0.018139209            2 
 3361000   0.71933906   -7.6936444    758.06313  0.018795575  0.018133896            3 
 3362000   0.70472031   -7.7197568    758.26782  0.018795058  0.018128584            8 
 3363000   0.70110772   -7.6899521    759.16456   0.01881169  0.018123266            5 
 3364000   0.70169249   -7.6786128    759.33521  0.018810325  0.018117947            7 
 3365000   0.71781516    -7.732959    757.13488  0.018750245  0.018112605            5 
 3366000   0.70103418   -7.7012985    759.27049  0.018797546  0.018107256            6 
 3367000   0.71191053   -7.6950984    760.69522  0.018827226  0.018101916            6 
 3368000   0.72942063   -7.6892285    759.34947  0.018788338   0.01809658            6 
 3369000   0.69557439   -7.7090624    757.66005  0.018740973  0.018091242            4 
 3370000   0.72207095   -7.7208883    756.89209  0.018716422  0.018085891            6 
 3371000   0.70613347   -7.6897266     759.0695  0.018764696  0.018080538            3 
 3372000   0.72120197   -7.7185094    759.88414  0.018779264  0.018075187            5 
 3373000   0.72023716   -7.7242997    758.46212  0.018738564  0.018069857            3 
 3374000    0.7114517   -7.7280086    759.36402  0.018755286  0.018064491            6 
 3375000   0.71312372   -7.7375463    758.05309   0.01871736   0.01805913            5 
 3376000   0.71050458   -7.7380614    757.92927   0.01870876   0.01805377            8 
 3377000   0.71120302   -7.7074699    758.59393  0.018719621  0.018048402            6 
 3378000    0.7215202    -7.719335    759.81316  0.018744157  0.018043055            7 
 3379000   0.71442289   -7.7267343    757.40737  0.018679278  0.018037716            7 
 3380000   0.69925164   -7.7157138    757.99296  0.018688189  0.018032375            6 
 3381000   0.72287396   -7.6894645    759.55745  0.018721223  0.018027046            4 
 3382000   0.69278365   -7.7069323      758.918  0.018699931  0.018021719            4 
 3383000   0.70329768   -7.7270302    758.92779  0.018694645  0.018016367           11 
 3384000   0.69465823   -7.7291342    757.33466  0.018649888  0.018011017            6 
 3385000   0.68414272   -7.7032567    759.93623  0.018708425  0.018005682            2 
 3386000   0.71873355   -7.7306911    760.32653  0.018712506   0.01800035            7 
 3387000   0.71468447   -7.7183003    757.55113  0.018638695  0.017995003            8 
 3388000   0.71407184   -7.7071814     758.0157  0.018644621   0.01798964            2 
 3389000   0.70897525   -7.7114671    758.39292  0.018648395  0.017984293            7 
 3390000   0.70484039   -7.7130809    758.97774   0.01865727  0.017978956            6 
 3391000   0.71020474   -7.7189582    758.53269  0.018640831  0.017973628            8 
 3392000   0.72227419    -7.706717    760.18137  0.018675839  0.017968293            6 
 3393000   0.70473499   -7.7044361    758.62945  0.018632219  0.017962965            3 
 3394000   0.71067328   -7.7358689    758.69546   0.01862835  0.017957647            4 
 3395000   0.70889616   -7.7171839    757.66882  0.018597664  0.017952319            5 
 3396000   0.71342003   -7.7445595    758.42072  0.018610638  0.017946958            4 
 3397000   0.71080742   -7.7055662    759.16181  0.018623339  0.017941613            5 
 3398000   0.71400673   -7.6885337    759.05216   0.01861517  0.017936289            8 
 3399000   0.69975875    -7.702588    759.88902   0.01863021  0.017930991            4 
 3400000   0.70290243   -7.7134365    758.79074  0.018597812  0.017925679            5 
 3401000   0.69432751   -7.7071378    758.47563  0.018584623  0.017920358            2 
 3402000   0.72332266   -7.7160762    757.41026  0.018553063  0.017915047            3 
 3403000   0.72158128   -7.7226202    760.78577  0.018630272  0.017909739            6 
 3404000   0.70916149   -7.7218507    760.75412  0.018624024  0.017904438            3 
 3405000   0.69895489   -7.7308734    759.82153   0.01859573  0.017899134            4 
 3406000   0.71402624    -7.719482    759.24956  0.018576276  0.017893807           10 
 3407000   0.73120566   -7.7231186    758.85792  0.018561245    0.0178885            2 
 3408000    0.6988244   -7.7269303    759.83569  0.018579707  0.017883169            3 
 3409000   0.70793346   -7.7237841    758.83241  0.018549731  0.017877877            7 
 3410000   0.70982817   -7.7118262     758.8544  0.018544829  0.017872571            4 
 3411000   0.71853428    -7.712592    760.11149  0.018570104  0.017867264            4 
 3412000   0.69597615   -7.7169787    760.19883  0.018566794  0.017861966            8 
 3413000    0.7071541   -7.7211257      759.535  0.018545146  0.017856667            2 
 3414000    0.7065382   -7.7336391    758.91632  0.018524612   0.01785138            3 
 3415000   0.71421431   -7.7152035    758.29292  0.018503976  0.017846063            6 
 3416000    0.7185762   -7.7179689    759.42273   0.01852612  0.017840767            4 
 3417000   0.70846361   -7.7158038    759.00352  0.018510475  0.017835469            8 
 3418000   0.70311633   -7.7380995    760.53475  0.018542392  0.017830155            4 
 3419000   0.70947417   -7.7308566    759.09874  0.018501968  0.017824856            5 
 3420000   0.69916244   -7.7494372    758.26194  0.018476168  0.017819535            3 
 3421000   0.70520753   -7.7400905    759.26023  0.018495085  0.017814221           18 
 3422000   0.70528351   -7.7216351    759.85479  0.018504159  0.017808896            8 
 3423000   0.70136228   -7.7138492    759.37118   0.01848698  0.017803575            5 
 3424000   0.71033052   -7.7315866     758.4535  0.018459246  0.017798252            3 
 3425000   0.69292501   -7.7188354    760.28743  0.018498478   0.01779294            3 
 3426000    0.6950429   -7.7422561    757.30793  0.018420605  0.017787605            6 
 3427000   0.70989313   -7.6982622    758.42656  0.018442432  0.017782291            6 
 3428000   0.69053422    -7.712379    757.75617  0.018420755  0.017776968            3 
 3429000   0.69447182   -7.7353922    758.56937  0.018435146   0.01777162            5 
 3430000   0.71311359   -7.7395695    759.53692  0.018453278  0.017766279            2 
 3431000   0.71227047   -7.7099553    758.47916  0.018422208   0.01776096            6 
 3432000   0.70469299   -7.7358071    758.92753  0.018427728  0.017755631            7 
 3433000   0.70295511   -7.7384935    759.58585   0.01843834  0.017750301            6 
 3434000    0.7047814   -7.7238737    758.49329  0.018406457  0.017744976            5 
 3435000   0.69642971   -7.7245205    757.79907  0.018384257  0.017739647            5 
 3436000   0.71946288    -7.721558    760.75422  0.018450578  0.017734348            5 
 3437000   0.68996456   -7.7199729    760.10033  0.018429355  0.017729044            7 
 3438000   0.69763454   -7.7397155    757.59255  0.018363209  0.017723725            6 
 3439000   0.69670284   -7.7175025    758.67561  0.018384114  0.017718418            5 
 3440000   0.69740956   -7.7320814    758.83095  0.018382533  0.017713094           10 
 3441000   0.70755818   -7.7415464     759.1582  0.018385116  0.017707787            6 
 3442000    0.7019352   -7.7533272    758.72115  0.018369193  0.017702479            6 
 3443000   0.69226584   -7.7377151    760.07113  0.018396532  0.017697191            5 
 3444000   0.71033393   -7.7492178    759.28974  0.018372284  0.017691896            6 
 3445000   0.69488507   -7.7517469    759.40892  0.018369834  0.017686591            6 
 3446000   0.69143266   -7.7410809    758.08589  0.018332508  0.017681275            5 
 3447000   0.70171788   -7.7149104     758.8216  0.018344976  0.017675968            5 
 3448000    0.6922469   -7.7128285     760.4975   0.01838016  0.017670664            5 
 3449000   0.68512215   -7.7356589    758.45864  0.018325569  0.017665361           14 
 3450000   0.69515046   -7.7231552    757.68139  0.018301483  0.017660045            7 
 3451000   0.72007832   -7.7427975    760.61282  0.018366967  0.017654759           10 
 3452000   0.69291117    -7.743855    758.86596  0.018319476  0.017649463            6 
 3453000   0.70226892   -7.7376969    758.50901  0.018305556  0.017644156           12 
 3454000   0.69712385   -7.7306409    759.62754  0.018327242  0.017638856           11 
 3455000   0.68693081   -7.7563271    760.08457  0.018332961  0.017633538            4 
 3456000   0.69159199   -7.7564309    760.11925  0.018328493  0.017628239            3 
 3457000   0.69673029   -7.7563865    760.03269  0.018321104  0.017622933            3 
 3458000    0.6925657   -7.7582173    758.03374  0.018267634  0.017617627            8 
 3459000   0.68670961   -7.7508344     757.4638  0.018248622  0.017612306            8 
 3460000   0.69412895   -7.7366354    758.94552  0.018279035  0.017606984            6 
 3461000   0.70549014   -7.7745815    758.29893  0.018258185  0.017601672            6 
 3462000   0.70312286   -7.7653987    758.11134  0.018248395  0.017596355            6 
 3463000   0.69436442   -7.7634918    758.77755  0.018259158  0.017591042            4 
 3464000   0.70845393   -7.7306715    758.80752  0.018254607   0.01758574            4 
 3465000   0.69623999   -7.7406418    758.72379  0.018247325  0.017580457            4 
 3466000   0.68149215   -7.7511333    761.48396  0.018308424  0.017575168            6 
 3467000   0.67678056   -7.7471719    758.59389  0.018233677  0.017569887            3 
 3468000   0.70105203   -7.7480536    758.47982  0.018225678  0.017564581            4 
 3469000   0.70894253   -7.7421507    759.29016   0.01823989  0.017559279            5 
 3470000   0.69026558   -7.7502311    760.28884  0.018258618  0.017553997            6 
 3471000    0.7032654   -7.7279256    759.43095  0.018232761   0.01754871            5 
 3472000   0.68836134   -7.7556293    760.21405  0.018246305  0.017543433            6 
 3473000   0.69493574   -7.7605785    759.03033  0.018212648  0.017538148            3 
 3474000   0.70229646   -7.7337788    759.30709  0.018214045  0.017532865            3 
 3475000   0.68393312   -7.7468018     758.9203  0.018199528  0.017527583            2 
 3476000   0.68702453   -7.7703801    759.01565  0.018196578  0.017522287            3 
 3477000   0.69187087     -7.74324    760.99386  0.018238756  0.017517008            5 
 3478000   0.69791173    -7.720927    760.71871   0.01822692  0.017511736            3 
 3479000    0.6964112   -7.7388305    759.74597   0.01819838  0.017506472            5 
 3480000   0.70266387   -7.7341235    759.14414  0.018178739  0.017501241            2 
 3481000   0.69513916   -7.7097945    760.45655  0.018204935  0.017495996            3 
 3482000   0.70028033   -7.7606772    758.31668  0.018148494  0.017490746            7 
 3483000   0.69847933   -7.7380995    760.10533  0.018186078  0.017485502            9 
 3484000   0.68551745   -7.7359473    760.76302   0.01819659  0.017480253           10 
 3485000   0.69635368   -7.7285015    761.06652  0.018198626  0.017475025            6 
 3486000   0.68376034   -7.7449561    761.38553  0.018201031  0.017469787           10 
 3487000   0.69727503   -7.7227356     759.8089  0.018158133  0.017464546            4 
 3488000   0.69000743   -7.7287804    759.88283  0.018154693  0.017459313            7 
 3489000   0.68285308   -7.7469664    760.23873   0.01815799  0.017454062           14 
 3490000   0.69640818   -7.7655098    761.12525  0.018173955  0.017448815            8 
 3491000   0.67963258   -7.7399113    759.40804  0.018127758  0.017443567            5 
 3492000   0.68358524   -7.7450626     760.7141  0.018153735  0.017438303            6 
 3493000   0.70410859   -7.7558613    759.59938  0.018121943  0.017433018            8 
 3494000   0.70658521   -7.7512939    761.70198  0.018166905  0.017427747            4 
 3495000   0.69076328   -7.7656928    758.80553  0.018092645  0.017422489            4 
 3496000   0.68514917   -7.7266195    760.43193  0.018126238   0.01741722            7 
 3497000   0.68710539   -7.7524483    759.62586  0.018101846  0.017411953            5 
 3498000   0.71058665   -7.7722552    759.27934  0.018088416   0.01740669            3 
 3499000   0.70295548   -7.7556377    758.88374  0.018073824  0.017401429            3 
 3500000   0.68844475   -7.7589838    760.30928  0.018102602  0.017396164            3 
 3501000   0.69030293   -7.7514864    759.28684  0.018073094  0.017390898            4 
 3502000   0.67548163    -7.730429    759.03632  0.018061972   0.01738562            4 
 3503000   0.68715787   -7.7644765    760.17396  0.018083879  0.017380347            4 
 3504000   0.69689687    -7.768374     760.2239  0.018079906  0.017375072            7 
 3505000   0.70476559   -7.7659829    758.53868  0.018034681  0.017369793            5 
 3506000   0.70208691   -7.7520361    759.62794  0.018055427   0.01736451            5 
 3507000   0.69021308   -7.7614661    758.80039  0.018030615  0.017359246            3 
 3508000   0.70609466   -7.7567201    758.58815  0.018020433  0.017353983            3 
 3509000   0.69269998   -7.7642125    759.18542  0.018029482  0.017348715            5 
 3510000   0.69801346   -7.7788227    758.42305  0.018006245  0.017343454            8 
 3511000   0.68633499   -7.7708683    758.31357  0.017998518  0.017338167            6 
 3512000   0.68456638   -7.7622913    759.00896  0.018009894  0.017332891            2 
 3513000   0.69800089   -7.7684955    758.55184  0.017993923   0.01732762            3 
 3514000   0.68544156   -7.7537802    760.39566  0.018032528  0.017322344            4 
 3515000   0.70245888   -7.7537469    758.74929  0.017988366  0.017317093            3 
 3516000   0.69354108   -7.7465588    760.61821  0.018027546  0.017311851            6 
 3517000   0.68191117   -7.7847239    758.36047  0.017968924  0.017306598            2 
 3518000   0.68674498   -7.7687745    757.87552  0.017952329  0.017301354            4 
 3519000   0.68986981     -7.75924    759.96513  0.017996711  0.017296105            2 
 3520000   0.69734744   -7.7434038    760.68818  0.018008716  0.017290872            4 
 3521000   0.69054498   -7.7568433    760.77472   0.01800565  0.017285634            3 
 3522000   0.69071802   -7.7684191    758.55654  0.017948054  0.017280393            5 
 3523000    0.6753134   -7.7699257    758.65853  0.017945372  0.017275134           11 
 3524000   0.68556868    -7.743875    759.74152  0.017965889  0.017269878            5 
 3525000   0.67264818   -7.7715057    759.80629  0.017962324  0.017264626            5 
 3526000   0.69414142   -7.7712211     760.3903  0.017971032  0.017259377           11 
 3527000   0.69190461   -7.7701859    759.15769  0.017936813  0.017254106            9 
 3528000   0.69534733   -7.7911619    759.12653  0.017930993  0.017248848            8 
 3529000   0.68284257   -7.7738421    759.02608   0.01792354  0.017243611           16 
 3530000   0.69871801   -7.7537362    761.09535  0.017967312  0.017238365            4 
 3531000   0.67698887   -7.7595927    761.34188  0.017968042  0.017233116            9 
 3532000   0.69946723   -7.7581837    759.55895  0.017920889  0.017227863            3 
 3533000   0.69210135     -7.75337    761.54673  0.017962702  0.017222618            9 
 3534000   0.67081221   -7.7713633    757.61596   0.01786493  0.017217364            5 
 3535000    0.6700472   -7.7754536    758.08516  0.017870937  0.017212115            3 
 3536000   0.68270679   -7.7643852    759.90518  0.017908776  0.017206867            6 
 3537000   0.69399358   -7.7583777    761.72527  0.017946595  0.017201614            3 
 3538000   0.68470716   -7.7594814    760.41951  0.017910767  0.017196385            4 
 3539000   0.68009643   -7.7509405    760.73471  0.017913128  0.017191135            4 
 3540000   0.68432683   -7.7539853     758.7858  0.017862189  0.017185891            4 
 3541000   0.66902247   -7.7751105    759.55577  0.017875265  0.017180645            3 
 3542000   0.69656438   -7.7493282    759.37947  0.017866071  0.017175392            4 
 3543000   0.68626515   -7.7869091    758.56022  0.017841759  0.017170148            7 
 3544000   0.68970356   -7.7545878    758.96234   0.01784618  0.017164877            3 
 3545000   0.68250462   -7.7908301    757.29025  0.017801839  0.017159614           10 
 3546000   0.70661571   -7.7585559    759.58214   0.01785068  0.017154357            4 
 3547000   0.68001572   -7.7924521    758.07187  0.017810165  0.017149106            8 
 3548000   0.68838196   -7.7969202    758.99757  0.017826888  0.017143842           10 
 3549000   0.68476238   -7.7636671    757.77876  0.017793246  0.017138581           11 
 3550000   0.66792783   -7.7946329    759.13136  0.017819985  0.017133316            3 
 3551000   0.66560094   -7.8094891    757.67775  0.017780854  0.017128054            7 
 3552000   0.69069632   -7.7767967    760.08947  0.017832429  0.017122803            6 
 3553000   0.66570092   -7.7946269    760.31491  0.017832698  0.017117549           10 
 3554000   0.67543911   -7.8041119    759.11861   0.01779963  0.017112298            4 
 3555000    0.6798716   -7.7603931    758.17673  0.017772544   0.01710705            8 
 3556000   0.68186367   -7.7646841    759.90333  0.017808008  0.017101819            4 
 3557000    0.6804287   -7.7747046    759.69247  0.017798062  0.017096587            6 
 3558000   0.68997021   -7.7773755    758.08771  0.017755474   0.01709136            5 
 3559000   0.68385609   -7.7689881    758.29979  0.017755451  0.017086131            6 
 3560000   0.68585795    -7.781329    759.52542  0.017779153  0.017080914            8 
 3561000   0.68189814   -7.7771975    760.00644  0.017785417  0.017075677            5 
 3562000   0.67271687   -7.7790749    759.50774  0.017768757   0.01707045            5 
 3563000   0.67480217   -7.7803892    758.87449  0.017748959  0.017065235            6 
 3564000   0.67930614   -7.7726151    760.35157  0.017778516  0.017060041            6 
 3565000   0.67820227   -7.7690484    761.39786  0.017797986  0.017054836            7 
 3566000   0.67760449   -7.7727458    759.78836  0.017755383  0.017049652            5 
 3567000   0.67807396   -7.7729452    761.43534  0.017788883  0.017044471            3 
 3568000   0.68717162   -7.7799095    760.56234  0.017763508  0.017039273            5 
 3569000   0.68033204    -7.773134    760.09829  0.017747695  0.017034078            7 
 3570000   0.68755972   -7.7856601    759.53073  0.017729476  0.017028893           13 
 3571000   0.68353421   -7.7868363    760.78655  0.017753817  0.017023709            4 
 3572000   0.68469415   -7.7766938    759.44222  0.017717484  0.017018527            6 
 3573000   0.68238796   -7.8047364    759.54249  0.017714864  0.017013328            6 
 3574000   0.68919329   -7.7483338    761.32457  0.017751459  0.017008156            7 
 3575000   0.68426376   -7.7966295    759.92238  0.017713808  0.017002982            3 
 3576000   0.68150998   -7.7687231    760.43822  0.017720876  0.016997809            6 
 3577000   0.69157122   -7.7585286    759.82788  0.017701702  0.016992646            6 
 3578000   0.68462819   -7.7662102    760.95002   0.01772289   0.01698748            7 
 3579000   0.67965204   -7.7931732    760.67989  0.017711649  0.016982319            6 
 3580000   0.67245089    -7.778381    760.79772  0.017709444  0.016977152            4 
 3581000   0.67840386    -7.780107    759.57199  0.017675975  0.016971966            5 
 3582000    0.6709785   -7.7724872    759.82318  0.017676884  0.016966778            3 
 3583000   0.66161972   -7.8008862    759.91992    0.0176742  0.016961581            8 
 3584000   0.69090766   -7.7802568    759.80268  0.017666543  0.016956387            3 
 3585000   0.68255766    -7.803633    759.35401  0.017651186  0.016951182            7 
 3586000   0.67972541   -7.7934526    760.38671  0.017670262  0.016945996            2 
 3587000   0.67942811    -7.768965    760.21006  0.017661232  0.016940836            4 
 3588000   0.67159036   -7.7785159    759.91498  0.017649456  0.016935677            4 
 3589000   0.68776736   -7.8012901     762.6961  0.017709113  0.016930515            5 
 3590000   0.67050091   -7.8309839    759.16959  0.017622321  0.016925349            5 
 3591000   0.68811149   -7.8060566    760.08391  0.017638631  0.016920175            5 
 3592000   0.67896589   -7.7903941    760.31517  0.017639086  0.016915003            6 
 3593000   0.67010692   -7.7711351    763.34146  0.017704366  0.016909838            3 
 3594000    0.6763778   -7.7689873    761.09801  0.017647422   0.01690468            3 
 3595000   0.68350653   -7.7888583     761.5206  0.017652309  0.016899533            5 
 3596000   0.66575634   -7.8137347     760.4762  0.017623197  0.016894379            7 
 3597000   0.67780504   -7.7800911    760.29661  0.017614137   0.01688922            5 
 3598000   0.68371215   -7.8080273     760.3961  0.017611546  0.016884061            7 
 3599000   0.67002022   -7.7929926     760.0686  0.017599069    0.0168789            6 
 3600000   0.68566165   -7.8102125    761.55516  0.017628592  0.016873738            8 
 3601000   0.68722119   -7.7875579    761.04018  0.017611779  0.016868591            8 
 3602000   0.68636852   -7.7983424    760.77551  0.017600766  0.016863441            5 
 3603000   0.68667553   -7.7848062    759.88032  0.017575176  0.016858295            4 
 3604000   0.68381965   -7.7985727    761.88986  0.017616765  0.016853138           10 
 3605000   0.65896154   -7.7753549    761.26286  0.017597385  0.016848001            4 
 3606000   0.66610643   -7.7785832    761.78725  0.017604623  0.016842878            4 
 3607000   0.66367853   -7.7682286    761.08331  0.017583479  0.016837749            6 
 3608000   0.68291221   -7.7862404    760.29584  0.017560418  0.016832615            3 
 3609000    0.6755231    -7.792584     760.6046  0.017562681  0.016827485            6 
 3610000   0.66216738   -7.7828317    759.93671  0.017542399  0.016822359           10 
 3611000   0.67695464   -7.7702933    762.46452  0.017595876  0.016817233            6 
 3612000   0.67559023   -7.7902974    761.02946  0.017557896  0.016812112            4 
 3613000   0.66483584   -7.7948852    760.68469  0.017545085  0.016806988            8 
 3614000   0.65770505   -7.8013064    761.50904  0.017559238  0.016801861            7 
 3615000   0.67405994   -7.8039695    761.07661  0.017544412   0.01679673            4 
 3616000   0.66287158   -7.8004633    759.49027  0.017503002    0.0167916           10 
 3617000   0.67747727   -7.7734349    762.03778  0.017556856  0.016786477            8 
 3618000    0.6696466   -7.8170458    760.25911  0.017511035   0.01678135            3 
 3619000   0.67981878   -7.8016442    759.90173  0.017497967   0.01677622            8 
 3620000    0.6861361   -7.8069578    761.01479  0.017518757  0.016771081            7 
 3621000   0.68080111   -7.7898798    760.78268  0.017508577  0.016765965            7 
 3622000   0.67550124   -7.7765216    761.89368  0.017529304  0.016760861            5 
 3623000   0.69348431   -7.7856038    761.38657  0.017512802  0.016755741            5 
 3624000   0.66490818   -7.7955355    761.75515  0.017516445  0.016750634            6 
 3625000   0.66876808   -7.7761182    762.26462  0.017523324  0.016745542            4 
 3626000   0.66479451   -7.7868323    761.89643   0.01751003  0.016740446            3 
 3627000   0.68168768   -7.7967512    760.56898  0.017474703  0.016735338            2 
 3628000   0.67673054   -7.7656352     762.0207  0.017503232  0.016730233            6 
 3629000   0.65826474   -7.7997732    761.29488  0.017481742  0.016725125            6 
 3630000   0.66910481   -7.8018682    759.96893  0.017446486  0.016720007            7 
 3631000   0.67940807   -7.7884876    759.47241  0.017430286  0.016714872            3 
 3632000   0.65417319    -7.800353    759.92415  0.017435851  0.016709752            5 
 3633000   0.68227114   -7.7999547    760.93378  0.017454211  0.016704618            6 
 3634000   0.66915788   -7.7944633    761.23978  0.017456425  0.016699494            4 
 3635000   0.68334349   -7.7793353    760.45685  0.017433674   0.01669438            5 
 3636000   0.67040239   -7.8114852    759.80243   0.01741388  0.016689268            7 
 3637000   0.68077518   -7.8057833    760.80922  0.017432161  0.016684164            3 
 3638000   0.66504921    -7.780216    759.69748  0.017401903  0.016679046            4 
 3639000   0.67828895   -7.8094598    761.96825  0.017449122  0.016673939            9 
 3640000   0.67000845   -7.8037461    761.82637   0.01744108  0.016668836            8 
 3641000    0.6653358   -7.8044698    761.03558   0.01741819   0.01666373            9 
 3642000   0.67184246   -7.8420938    760.31264  0.017396866  0.016658627            4 
 3643000   0.67178493   -7.8187945    762.26566  0.017436766  0.016653529            7 
 3644000   0.66719928   -7.8179463    760.93072  0.017401453  0.016648439            6 
 3645000   0.67708688   -7.7945627    762.95547  0.017442969  0.016643344            4 
 3646000   0.66290015   -7.8137627    760.02988  0.017371317  0.016638256            5 
 3647000   0.66026964   -7.8235172    760.23219  0.017371177   0.01663316            7 
 3648000   0.66498016   -7.8121849    761.75819  0.017401274  0.016628062            4 
 3649000   0.66760093   -7.8124471    762.20506  0.017406711  0.016622971            7 
 3650000    0.6641273   -7.8021336    759.46384  0.017339357   0.01661788            4 
 3651000   0.67329629   -7.7989152    760.40147  0.017356009   0.01661279            4 
 3652000   0.66734747   -7.8061498    761.29193  0.017371576  0.016607709           15 
 3653000    0.6768064    -7.807348    762.24911  0.017388656  0.016602642            4 
 3654000   0.66444801   -7.8151765    761.91158  0.017376199  0.016597573            4 
 3655000   0.64679404   -7.7844882     762.3632  0.017381742  0.016592514            6 
 3656000   0.66113725   -7.7839834    762.23229  0.017374004  0.016587449            9 
 3657000   0.66993047   -7.8135841    762.59431  0.017377502  0.016582389            4 
 3658000   0.66137423   -7.8010009    761.48485  0.017347477  0.016577315            8 
 3659000   0.66644352   -7.8105374    760.72171  0.017325355  0.016572253            6 
 3660000   0.64586806   -7.8015183    760.29876  0.017310992  0.016567162            4 
 3661000   0.66007987   -7.7884758    761.19161  0.017326587  0.016562088            4 
 3662000   0.66686138   -7.7980621    761.54455  0.017329887  0.016557024            5 
 3663000   0.66211561   -7.7831247    763.46638  0.017368877  0.016551961            3 
 3664000   0.67624591   -7.8269087    761.91951  0.017328955  0.016546916            5 
 3665000   0.66484645   -7.7981658    762.72256  0.017342486  0.016541866            5 
 3666000   0.67213025   -7.8018577    761.73212  0.017315242  0.016536836            2 
 3667000   0.67268376   -7.7951621    762.91053    0.0173373  0.016531813            5 
 3668000   0.65959401    -7.789247    763.07093  0.017336217  0.016526795            3 
 3669000   0.65499173   -7.7835133    762.05686   0.01730846  0.016521777            7 
 3670000   0.67103714   -7.7899147    763.39641   0.01733416  0.016516751            4 
 3671000   0.65820421   -7.8004606    762.78699  0.017315604  0.016511724            3 
 3672000   0.67079494   -7.8014348    761.02178  0.017270828  0.016506705            5 
 3673000   0.65353704   -7.8175439      762.881  0.017308308  0.016501685            6 
 3674000   0.65654063   -7.8070685    761.40396  0.017270095  0.016496639            6 
 3675000   0.67894876   -7.7781045    762.86446  0.017298514  0.016491604            5 
 3676000   0.66635404   -7.8049903    763.87101  0.017316626  0.016486571            2 
 3677000   0.64734137   -7.8010981    760.90114  0.017244609  0.016481537            5 
 3678000   0.67688478   -7.7947804    763.13223  0.017290471  0.016476507            7 
 3679000    0.6691986   -7.8006019    761.60075  0.017251082  0.016471484            5 
 3680000   0.66912162   -7.7896251    762.18475  0.017259618  0.016466465            4 
 3681000   0.66528607   -7.8200004    761.52784  0.017240058  0.016461442            5 
 3682000   0.66350261   -7.8237058    762.85098  0.017265322  0.016456413            5 
 3683000   0.66482401   -7.8177815    762.83815  0.017260344  0.016451379            5 
 3684000   0.66630193   -7.8176633    760.89837   0.01721178  0.016446349            4 
 3685000   0.66844862   -7.8053724    761.91114  0.017230012  0.016441333            4 
 3686000    0.6618337   -7.8248891    761.61717  0.017218692  0.016436324            9 
 3687000   0.67111155   -7.8161947    762.67702  0.017237976  0.016431306            6 
 3688000   0.66706793   -7.8169534    762.02631  0.017218599  0.016426307            9 
 3689000   0.66653477   -7.8396585    762.22994  0.017218531  0.016421296            3 
 3690000   0.65646418   -7.8233284     761.9028  0.017206477   0.01641628            6 
 3691000    0.6526658   -7.8217118    764.21656  0.017254054  0.016411259            4 
 3692000   0.68919451   -7.8259373    761.22749  0.017181913  0.016406232            6 
 3693000   0.66149478   -7.8314092    762.14386  0.017197939  0.016401213            4 
 3694000   0.66213905   -7.7961631    763.06724  0.017214114  0.016396204            9 
 3695000   0.65154193    -7.831531     761.1217  0.017165577  0.016391195            6 
 3696000   0.65518409   -7.8189614    762.01035  0.017180969  0.016386179            4 
 3697000   0.66396993   -7.8306733    763.47605   0.01720936  0.016381164            7 
 3698000    0.6795541   -7.8118818    764.00506  0.017216627  0.016376157            8 
 3699000   0.65371994   -7.8284518    762.82297  0.017185342  0.016371144            8 
 3700000   0.65894363   -7.8442349    762.67155  0.017177287  0.016366124            8 
 3701000    0.6702849   -7.8493068    761.12168  0.017137748  0.016361113           13 
 3702000   0.65192531   -7.8198321    762.06151  0.017154275  0.016356108            3 
 3703000   0.66415966   -7.8161774    763.04512  0.017171778  0.016351109            5 
 3704000    0.6610308   -7.8270494     762.4049  0.017152738  0.016346107           10 
 3705000   0.65740389   -7.8106853    761.96523  0.017138219  0.016341108            7 
 3706000    0.6725856   -7.7964622     764.2661  0.017185332  0.016336132            3 
 3707000   0.65791025   -7.8078343    762.26306  0.017135668  0.016331147            5 
 3708000     0.649541   -7.8272134    763.33421   0.01715512  0.016326153            9 
 3709000   0.64416662   -7.8285133    762.24039  0.017125919  0.016321161            5 
 3710000   0.65042359   -7.8495121    762.74079  0.017132543   0.01631616            3 
 3711000   0.65374083   -7.8397797    760.90351  0.017086668  0.016311136            6 
 3712000    0.6530573   -7.8389346    762.76876  0.017123939  0.016306113            7 
 3713000    0.6703334   -7.8212941     763.1736  0.017128414  0.016301091            8 
 3714000   0.64655844   -7.8290873    760.93649  0.017073606  0.016296082            6 
 3715000   0.65699579   -7.8272931    763.29568  0.017121931  0.016291075            6 
 3716000   0.65625054   -7.8270921    762.61818   0.01710213  0.016286061            8 
 3717000   0.65246198   -7.8241136    762.51861  0.017095297   0.01628105            5 
 3718000   0.64512003     -7.84697    760.88659  0.017054119  0.016276031            3 
 3719000   0.65367221   -7.8396734    761.96055  0.017073599   0.01627101            5 
 3720000   0.65413026    -7.844828    761.12316   0.01705025  0.016265998            3 
 3721000   0.67207937   -7.8405977    759.78884  0.017015785  0.016260988            6 
 3722000   0.64840004   -7.8302648    762.66906    0.0170757  0.016255973            5 
 3723000   0.66593241   -7.8424381    762.38814  0.017064826  0.016250957            4 
 3724000   0.66362113   -7.8398926    762.79377   0.01706932  0.016245947            9 
 3725000   0.64673588   -7.8424368    761.04131  0.017025533  0.016240932            6 
 3726000   0.65700708   -7.8561041    760.14491  0.017000915  0.016235912            8 
 3727000   0.65935669   -7.8363019    760.88624  0.017012929  0.016230898            6 
 3728000   0.65626858   -7.8427842    762.31976   0.01704041  0.016225897            4 
 3729000   0.65325415   -7.8433954    761.98491  0.017028357  0.016220885            4 
 3730000   0.64200364   -7.8396919    762.38766  0.017032789  0.016215879            6 
 3731000   0.65920835   -7.8627364    761.98652  0.017019265   0.01621088            7 
 3732000   0.64688474   -7.8709795    760.56344  0.016982928  0.016205865            6 
 3733000   0.66595369   -7.8336665    760.30555  0.016972621  0.016200849           10 
 3734000   0.64927747   -7.8587644    762.50579   0.01701718   0.01619584            8 
 3735000    0.6636498    -7.834554    761.53071  0.016990868  0.016190831            6 
 3736000   0.65236844   -7.8671194    762.49309  0.017007787  0.016185834            5 
 3737000   0.65289183   -7.8291821    762.75299  0.017009031  0.016180846            7 
 3738000   0.67559692   -7.8591849    760.88805  0.016962905  0.016175855            5 
 3739000   0.65190049   -7.8536229    762.41195  0.016992332  0.016170862            3 
 3740000   0.65000641   -7.8225319    761.33292  0.016963746  0.016165875            6 
 3741000    0.6511366   -7.8372901     762.2996  0.016980745  0.016160897            5 
 3742000   0.64624839   -7.8587667    761.28013  0.016953504  0.016155906            9 
 3743000   0.65249381   -7.8565113     761.6771  0.016957812  0.016150926            5 
 3744000   0.65142476   -7.8441258    763.55974  0.016995187  0.016145942            9 
 3745000   0.64255393   -7.8206766    763.67095  0.016993123  0.016140967            4 
 3746000    0.6609467   -7.8508668    763.38141  0.016982146  0.016136002            2 
 3747000   0.65052971   -7.8410708    762.99593   0.01696904  0.016131027            4 
 3748000   0.65600531   -7.8427655    762.86738  0.016961655   0.01612606            6 
 3749000   0.66470386   -7.8453516     762.4757  0.016948424  0.016121088            7 
 3750000    0.6489475   -7.8417554    762.26987   0.01693933  0.016116102            6 
 3751000   0.65909375   -7.8471888      761.329  0.016913912  0.016111124            7 
 3752000   0.64448775   -7.8340652    760.34437  0.016887535  0.016106148           11 
 3753000   0.64741274   -7.8575988    762.08115  0.016921599  0.016101172            8 
 3754000   0.66566432   -7.8708181    759.75309  0.016865412  0.016096201            5 
 3755000   0.66430547    -7.871208    762.78454  0.016928197  0.016091221            4 
 3756000   0.64931569   -7.8636852    763.96103  0.016949792   0.01608624            3 
 3757000   0.65567346    -7.872535    760.64444  0.016871716   0.01608127            6 
 3758000   0.66020635   -7.8602258    761.25208  0.016880701  0.016076307            6 
 3759000   0.65038797   -7.8626016    762.03964  0.016893669  0.016071341            6 
 3760000   0.65502745   -7.8594401    759.86137  0.016840899  0.016066386            5 
 3761000   0.65030643   -7.8609884    761.67165  0.016876532  0.016061419            2 
 3762000   0.65044572   -7.8667399    761.41042   0.01686626  0.016056464           11 
 3763000   0.66133423   -7.8508289    761.81048  0.016870637  0.016051507            5 
 3764000   0.63928279   -7.8728405    763.10625  0.016894843  0.016046547            8 
 3765000   0.63294789   -7.8634054    762.97014  0.016887343  0.016041578            7 
 3766000   0.64943689   -7.8572713    762.58527  0.016874342  0.016036621            8 
 3767000   0.64242759   -7.8482545    761.17814  0.016838734  0.016031657           18 
 3768000   0.66245585   -7.8579883    761.15864  0.016833834  0.016026694            9 
 3769000   0.65629282   -7.8562595    761.55845  0.016838208   0.01602173            6 
 3770000   0.65187921   -7.8617728     761.9147  0.016841616  0.016016764            9 
 3771000   0.64281037   -7.8924222    760.08786  0.016796779    0.0160118            8 
 3772000   0.64554302   -7.8741771    762.73457  0.016850799  0.016006848            2 
 3773000   0.65169752   -7.8468813    761.45613  0.016818096  0.016001894            5 
 3774000   0.64352822   -7.8464639     761.8041  0.016821324  0.015996949           15 
 3775000   0.64707593   -7.8764459     761.8746  0.016818424  0.015992012            7 
 3776000   0.66864162   -7.8614285    762.90415  0.016836691  0.015987063            6 
 3777000   0.63964776   -7.8757996    761.39468  0.016798929  0.015982118            3 
 3778000   0.63186109   -7.8773548    762.17795   0.01681176  0.015977174            9 
 3779000   0.66091577   -7.8779506    762.47995  0.016813971  0.015972239            7 
 3780000   0.66098119   -7.8473522    762.35765  0.016806826  0.015967303            5 
 3781000   0.64029362   -7.8344199    761.56419  0.016784894  0.015962371            8 
 3782000   0.65132771   -7.8643634    762.13683  0.016793073  0.015957437           11 
 3783000   0.63456416    -7.839739    762.72551  0.016801602  0.015952513           12 
 3784000   0.64547128    -7.853981    761.50179  0.016770212  0.015947595           10 
 3785000   0.66072539   -7.8640951    762.76021  0.016793488  0.015942674           10 
 3786000   0.64368924    -7.848267    762.89795  0.016792084  0.015937761           15 
 3787000   0.64564358   -7.8580207    761.45624  0.016755925  0.015932854            8 
 3788000   0.63386409   -7.8438113    763.06156  0.016786817  0.015927934            7 
 3789000   0.65488867   -7.8429496    762.69999  0.016774435  0.015923028            7 
 3790000   0.64670149   -7.8712687    763.76234  0.016793367   0.01591811            4 
 3791000    0.6462608   -7.8335667    761.66403  0.016742813    0.0159132            8 
 3792000   0.64640731   -7.8470421    762.94533  0.016766555  0.015908303            4 
 3793000   0.65036238   -7.8446648    762.31758  0.016748343  0.015903401            6 
 3794000   0.63836074   -7.8565942    762.64768  0.016751179  0.015898493            6 
 3795000   0.64229994   -7.8960845    760.94748  0.016709431  0.015893567            7 
 3796000   0.64435465   -7.8580144    761.04994  0.016707278  0.015888643            5 
 3797000    0.6406793   -7.8744736    763.70586  0.016761168  0.015883728            8 
 3798000   0.63383053    -7.864368    761.16437  0.016700991  0.015878818            8 
 3799000   0.64043964   -7.8557797    762.78497  0.016732144  0.015873919            3 
 3800000   0.64703215   -7.8692789    761.74654  0.016704968   0.01586901            4 
 3801000    0.6500247   -7.8587502    762.51136  0.016717341  0.015864101            4 
 3802000   0.64098267   -7.8646494    762.01723  0.016702114  0.015859197            9 
 3803000   0.64453505   -7.8836449    761.47573  0.016685856  0.015854297            5 
 3804000    0.6423081   -7.8744309     763.0435  0.016715815  0.015849387            4 
 3805000   0.64531644   -7.8834449    761.11815  0.016669254  0.015844485           14 
 3806000   0.62897075   -7.8724163    762.76482  0.016700929  0.015839589            3 
 3807000   0.65710411   -7.8713385    762.19921  0.016684161  0.015834697            5 
 3808000   0.65333549   -7.8709045    762.10738   0.01667777    0.0158298            3 
 3809000    0.6411079   -7.8810726    762.05248   0.01667219  0.015824897            6 
 3810000   0.64070136   -7.8697623    762.98767  0.016688269  0.015819994            6 
 3811000    0.6320026   -7.8778753    762.72214  0.016678084    0.0158151            7 
 3812000   0.64229407   -7.8765139    763.12473   0.01668251  0.015810207            4 
 3813000   0.64393295   -7.8875763    760.85167  0.016628457  0.015805325            8 
 3814000   0.63816375   -7.8655516    760.98075  0.016626917  0.015800432           10 
 3815000   0.63539674   -7.8644943    761.74403  0.016639232  0.015795539            7 
 3816000   0.65340123   -7.8794496    762.83509  0.016658698  0.015790651            4 
 3817000   0.64507213    -7.888722    761.83901  0.016632587  0.015785767            4 
 3818000   0.64984549   -7.8837484    761.79055  0.016627173  0.015780877           12 
 3819000   0.64243839   -7.8748104    763.41106   0.01665818  0.015775983            3 
 3820000   0.63390064   -7.9050271    760.68751  0.016594405  0.015771084            3 
 3821000   0.65195942   -7.9053195    761.15201  0.016600192  0.015766194            4 
 3822000   0.63644209   -7.8686009     762.0913  0.016616329  0.015761308            6 
 3823000   0.63363421   -7.9138981    763.42862  0.016641133  0.015756417            4 
 3824000   0.62990303   -7.8821159    762.88254  0.016624881  0.015751538            4 
 3825000   0.65458446   -7.8620081    761.68364  0.016594415  0.015746656            3 
 3826000     0.646128   -7.9080399    762.28387  0.016603151  0.015741767            7 
 3827000   0.62829341   -7.8741417    761.83011  0.016588932  0.015736878            5 
 3828000    0.6315229   -7.8973177     762.3506  0.016595929  0.015731982            8 
 3829000   0.63525438   -7.8830848    761.52348  0.016573594  0.015727102            4 
 3830000   0.63942308   -7.8879586    762.80917   0.01659724  0.015722211            4 
 3831000   0.63514287   -7.8968887    762.63063  0.016589025  0.015717334            6 
 3832000   0.63864777   -7.8793619    762.68742   0.01658593  0.015712457            8 
 3833000    0.6452557   -7.8538075    762.92869  0.016586849  0.015707591            4 
 3834000   0.65035976   -7.8868775    762.45144  0.016572149  0.015702725            8 
 3835000   0.63260768   -7.8833609     762.1645  0.016561593  0.015697872            6 
 3836000   0.64315084   -7.8694777    762.07421  0.016555314  0.015693005            5 
 3837000   0.64003387    -7.861322    761.86826  0.016546526  0.015688142            5 
 3838000   0.64031588   -7.8750763    762.29387  0.016551456  0.015683279            5 
 3839000    0.6525916   -7.8737154    763.23604  0.016567597   0.01567842           10 
 3840000   0.64942684   -7.8585755     761.5076  0.016525773  0.015673555            9 
 3841000      0.63515   -7.8405859    763.07261  0.016555424  0.015668713            9 
 3842000   0.64645728   -7.8429623     762.8317   0.01654589  0.015663871            6 
 3843000   0.64130075   -7.8728095    761.64195  0.016515785  0.015659023            9 
 3844000   0.64396372   -7.8738091    762.95593  0.016539974  0.015654164            6 
 3845000   0.64470667   -7.8618928    762.55604  0.016527006  0.015649306            7 
 3846000   0.63753203   -7.8778685    763.47919  0.016542711  0.015644451            6 
 3847000   0.64124782   -7.8654709    761.87795  0.016503725  0.015639598            6 
 3848000   0.62893954   -7.8772875    761.28029  0.016486493  0.015634736            4 
 3849000   0.64509367   -7.8846162    761.41186  0.016485058  0.015629873            4 
 3850000   0.64260805   -7.8888274    762.35914   0.01650128  0.015625007            6 
 3851000     0.650306   -7.8822055    762.44561  0.016498866  0.015620142           12 
 3852000   0.63794389   -7.8924294    761.21281  0.016467913  0.015615265            9 
 3853000   0.63394246   -7.8828288    760.90069  0.016456888  0.015610385            5 
 3854000   0.62736231   -7.8797402    761.36737  0.016462709  0.015605513            5 
 3855000   0.62948872   -7.8901936    761.76782  0.016467095  0.015600647            3 
 3856000   0.63786508   -7.9038246    760.34076  0.016431984  0.015595772            7 
 3857000   0.64324693   -7.8808351    761.98684  0.016463288  0.015590906            7 
 3858000   0.64597355   -7.8923445    760.75108  0.016432329  0.015586048            5 
 3859000   0.63558268   -7.9069026    760.97324  0.016432868  0.015581183            8 
 3860000   0.63807438   -7.9047277    761.60341  0.016442215  0.015576324            5 
 3861000   0.63804582   -7.8820693    762.25755  0.016452075  0.015571472            3 
 3862000   0.62397953   -7.8986669    760.89422  0.016418398  0.015566618            5 
 3863000   0.63850623   -7.8693775    761.08922  0.016418354  0.015561769            6 
 3864000   0.64843884    -7.887285    761.35132  0.016419758  0.015556918            7 
 3865000   0.63566056   -7.8660258    761.14074  0.016410969  0.015552069            4 
 3866000   0.61913375    -7.879806    763.08545  0.016448643  0.015547221            8 
 3867000   0.62495352   -7.8991516    761.52411  0.016410743  0.015542372            3 
 3868000   0.63808635    -7.894203    760.80902  0.016391094  0.015537534            5 
 3869000   0.62615638   -7.9199368    762.53437  0.016424019  0.015532693            6 
 3870000   0.63129242   -7.8848028    761.38485  0.016395023  0.015527856            6 
 3871000   0.63047228   -7.8916437    761.00818  0.016382678  0.015523036            5 
 3872000   0.63615733   -7.8662731    763.06186  0.016422647   0.01551821            5 
 3873000   0.62009345   -7.8780225    761.41826  0.016383042  0.015513389            6 
 3874000   0.62934505   -7.8880822     761.1507  0.016373058  0.015508565            5 
 3875000   0.64743829   -7.8929528    762.10064  0.016389261   0.01550375            5 
 3876000   0.64651367   -7.8805947    761.84675  0.016379574  0.015498934            8 
 3877000   0.62937691   -7.9070352    762.20645  0.016383081  0.015494129            5 
 3878000   0.63546074   -7.8732218    761.95526  0.016373458  0.015489321            7 
 3879000   0.64909196   -7.8857242    761.43607  0.016358083  0.015484503            8 
 3880000    0.6465689    -7.920019    761.25475  0.016349973  0.015479679            4 
 3881000   0.63165224   -7.8760839    761.80102   0.01635749   0.01547486            6 
 3882000   0.63640268   -7.8978974     762.0461  0.016358537   0.01547004            5 
 3883000   0.62852781   -7.8938276    762.38237  0.016361541  0.015465222            4 
 3884000   0.62857427   -7.8794023    762.89122  0.016368246   0.01546041            4 
 3885000   0.62797346   -7.9068419     762.0442  0.016345864  0.015455587            5 
 3886000   0.63479685   -7.9209168    761.82276  0.016336909  0.015450759            4 
 3887000   0.63935761   -7.8974459    761.25379  0.016320508  0.015445933            5 
 3888000   0.62702981   -7.8916815    761.25106  0.016316252  0.015441113            7 
 3889000   0.63405166   -7.8771402    761.08089   0.01630841  0.015436287            8 
 3890000    0.6308731   -7.9078155    761.42476  0.016311584  0.015431463            6 
 3891000   0.64054006   -7.8919423    760.91646  0.016296506  0.015426637            8 
 3892000   0.61753319   -7.8968107    761.60427  0.016307046  0.015421814            6 
 3893000   0.64705382   -7.9100207    761.60048  0.016302776  0.015416994            5 
 3894000    0.6158575   -7.8891833    761.88745  0.016304731  0.015412173            3 
 3895000   0.63022341   -7.9151979    760.13312  0.016263011  0.015407351            5 
 3896000    0.6368169   -7.9089663    760.94287  0.016276157  0.015402537            5 
 3897000   0.62732543   -7.9136122    760.25269  0.016257221  0.015397726            4 
 3898000   0.62612144   -7.9036317    761.38545  0.016277267  0.015392909            6 
 3899000   0.62060517   -7.9135563    761.52557  0.016276087  0.015388096            4 
 3900000   0.63317764   -7.8928209    761.03555  0.016261443  0.015383277            5 
 3901000   0.63068884   -7.9193425    760.23651  0.016240206  0.015378453            3 
 3902000   0.61903528   -7.9075472    762.04466   0.01627466  0.015373643            6 
 3903000   0.63625584   -7.8911717    760.93921  0.016246887   0.01536883            4 
 3904000   0.63006055   -7.8968566    761.40011  0.016252564  0.015364014            9 
 3905000   0.62068577   -7.8840061    762.25461  0.016266637  0.015359222            3 
 3906000   0.62164666   -7.9011817    762.07008  0.016258536   0.01535443            4 
 3907000   0.62531428   -7.9195034    761.47322  0.016241644  0.015349627            6 
 3908000   0.63180285   -7.9101433    762.40809  0.016257423  0.015344828           12 
 3909000   0.63099652   -7.8958777    763.28906  0.016272044  0.015340028            4 
 3910000   0.62915991   -7.9208694     759.8756  0.016195132  0.015335231            3 
 3911000   0.61790641   -7.9096258    761.74864  0.016230901  0.015330431            5 
 3912000   0.63928459   -7.9256937    761.65916  0.016224846  0.015325632            7 
 3913000   0.63445954   -7.9027675     760.9425  0.016205437  0.015320842            4 
 3914000   0.62066499   -7.9039111     760.5884  0.016193757  0.015316053            4 
 3915000   0.62530598   -7.9151495    761.53397  0.016209748   0.01531126            7 
 3916000     0.616413   -7.9163314    761.84505  0.016212229  0.015306485            6 
 3917000   0.62032519    -7.902324    762.73723  0.016227071  0.015301718            4 
 3918000   0.62756123   -7.9031713    761.02181  0.016186443  0.015296939            3 
 3919000   0.62536211   -7.9168744    761.26745  0.016187536  0.015292163            5 
 3920000   0.63875922   -7.9116789    761.15611   0.01618104  0.015287376            4 
 3921000   0.62780442   -7.9170081    761.98967  0.016194629  0.015282592            6 
 3922000   0.61461547   -7.8897446    762.98261  0.016211597  0.015277815            8 
 3923000   0.62264959   -7.9166318    760.18954  0.016148134  0.015273038            9 
 3924000      0.62358   -7.9094524    762.51673  0.016193441   0.01526826           11 
 3925000   0.62840909   -7.9149518    761.44489  0.016166558  0.015263484           11 
 3926000   0.62293543   -7.9149634    760.45035   0.01614133  0.015258705            5 
 3927000   0.63564762   -7.9234983    761.29501  0.016155144  0.015253921           11 
 3928000   0.63395277   -7.9123221    761.41825  0.016153646  0.015249144            5 
 3929000    0.6251548   -7.9214368    760.29395  0.016125688  0.015244366            5 
 3930000   0.62745447   -7.9152442    762.35619  0.016165314  0.015239581            4 
 3931000    0.6360263   -7.9372776    760.43075  0.016120384  0.015234803            8 
 3932000   0.61612067    -7.907895    761.68778  0.016142925   0.01523003            9 
 3933000   0.63041909   -7.9082576    761.30297  0.016130667  0.015225263            5 
 3934000   0.62484964   -7.9267034      761.201  0.016124407  0.015220503            7 
 3935000   0.60658059   -7.9425078    761.13446    0.0161189  0.015215742            8 
 3936000   0.61057822   -7.9279995    760.49752   0.01610132  0.015210976            5 
 3937000     0.616984   -7.9318656    761.79896  0.016124777  0.015206214            6 
 3938000    0.6193334   -7.9110362    761.13739  0.016106682  0.015201448            7 
 3939000   0.62038413   -7.9337402    762.25317  0.016126199  0.015196682            6 
 3940000   0.61240702   -7.9216997    762.07226   0.01611828  0.015191925            8 
 3941000    0.6309491   -7.9052678    762.68051  0.016127051  0.015187171            7 
 3942000   0.61261008    -7.912567    761.61117  0.016100354  0.015182427            4 
 3943000   0.61957911   -7.9050169    762.15313  0.016107725  0.015177682            4 
 3944000    0.6228785   -7.9061379    761.66084   0.01609324  0.015172931            4 
 3945000   0.61893285   -7.9289986    761.40866  0.016083833  0.015168182            5 
 3946000   0.62512441   -7.9219928     762.5331  0.016103504  0.015163434            7 
 3947000   0.62097316   -7.9090021    760.52998  0.016057132  0.015158695            7 
 3948000   0.62012332   -7.9367162    760.95568   0.01606205  0.015153941            4 
 3949000   0.61798143   -7.9083044    762.46582   0.01608985  0.015149193            6 
 3950000   0.61300077   -7.9372994    760.25575  0.016039151  0.015144451            7 
 3951000   0.61843524   -7.9365632    761.30617  0.016057247  0.015139699            8 
 3952000   0.61200161   -7.9323591    760.72803  0.016040992  0.015134948            4 
 3953000   0.63570349   -7.9227783    762.16685  0.016067266  0.015130204            5 
 3954000   0.61560665   -7.9143999    760.68994  0.016032076  0.015125458            5 
 3955000   0.63610667   -7.9308396    759.65461  0.016006207  0.015120724           10 
 3956000   0.61974207   -7.9308444    761.73324  0.016045948  0.015115995            5 
 3957000   0.61906782   -7.9423162    760.77643  0.016021743  0.015111259           10 
 3958000   0.61387769   -7.9171569    761.77074  0.016038629   0.01510653           12 
 3959000   0.61762799   -7.9319398    761.63738  0.016031771  0.015101799            6 
 3960000   0.63128275   -7.9282523    760.45055  0.016002747  0.015097051           11 
 3961000   0.59969117   -7.9488976    760.42404  0.015998149  0.015092313            7 
 3962000   0.61755641   -7.9271178    762.92865  0.016046791  0.015087576            9 
 3963000    0.6222472   -7.9321591    761.65439  0.016015947   0.01508284            6 
 3964000   0.63028404   -7.9309522    762.04637  0.016020147  0.015078101            5 
 3965000   0.61453044   -7.9300925    761.65714  0.016007926  0.015073371            7 
 3966000   0.62597955   -7.9328918    760.77759  0.015985409  0.015068633            5 
 3967000   0.61997814   -7.9485626    760.75715   0.01598095  0.015063898            5 
 3968000   0.61649812   -7.9404059    760.80658  0.015977961  0.015059162            8 
 3969000   0.60976235   -7.9535503     761.0605  0.015979266  0.015054422           16 
 3970000   0.62519298   -7.9244196    760.76709  0.015969082  0.015049682            6 
 3971000   0.61561233   -7.9327654    761.19366  0.015974013  0.015044943            6 
 3972000   0.61087878   -7.9315426     760.9862  0.015965639  0.015040205            8 
 3973000   0.61621324   -7.9243606    761.55638   0.01597358  0.015035479            6 
 3974000   0.61946626   -7.9181612    760.38796  0.015945059  0.015030759            6 
 3975000   0.60516531   -7.9259215    759.66566  0.015925905  0.015026044            9 
 3976000   0.60996661    -7.917071    760.58046  0.015941073  0.015021324            8 
 3977000   0.61143536   -7.9419423    759.86744  0.015922124  0.015016603           14 
 3978000   0.61509325   -7.9568801    760.59139  0.015933287  0.015011876            9 
 3979000   0.62174152   -7.9520256    760.86537  0.015935021  0.015007157            9 
 3980000   0.61832222   -7.9189211    761.81931  0.015950991  0.015002446           18 
 3981000   0.61530701    -7.935748    760.30474   0.01591528  0.014997733           11 
 3982000   0.60724767   -7.9606846    761.64135  0.015939255  0.014993012           12 
 3983000   0.61911729   -7.9401679    761.43432  0.015930922  0.014988306            8 
 3984000   0.62717791    -7.927847    761.00487   0.01591794  0.014983598           11 
 3985000    0.5961152   -7.9273788    761.55539  0.015925458  0.014978892           10 
 3986000   0.60853944    -7.927327    760.98953  0.015909632  0.014974185           12 
 3987000   0.61442988   -7.9233975    761.29893  0.015912109  0.014969475           10 
 3988000   0.62906765   -7.9489055     760.9267  0.015900341  0.014964769           15 
 3989000    0.6047449   -7.9447374    761.27206  0.015903569   0.01496006           13 
 3990000   0.61329057   -7.9206627     761.1306  0.015896629  0.014955353           19 
 3991000    0.6184994   -7.9127916    760.92852  0.015888426  0.014950649            5 
 3992000   0.61335446   -7.9399181    761.69192  0.015900382  0.014945952           17 
 3993000   0.61928899   -7.9509642    762.99525  0.015923601  0.014941259           14 
 3994000   0.62024982   -7.9277949    762.62888   0.01591197  0.014936568           10 
 3995000   0.61570688   -7.9415157    760.33541  0.015860146  0.014931875           20 
 3996000    0.6176815   -7.9158699    761.27107   0.01587569  0.014927178           14 
 3997000   0.61070155   -7.9190618    762.09264  0.015888847  0.014922486           16 
 3998000   0.61838027   -7.9503197    759.59369  0.015832785  0.014917795            7 
 3999000   0.60946359   -7.9284179    761.56286   0.01586986  0.014913101           20 
 4000000    0.6090989   -7.9438606    761.74375  0.015869661  0.014908399           12 
 4001000   0.60312973   -7.9465492      760.365  0.015836978  0.014903702           20 
 4002000   0.60505176   -7.9524648    760.17759  0.015829119  0.014899008           11 
 4003000   0.61846424   -7.9195265    761.06597  0.015843658  0.014894317           16 
 4004000   0.61095473   -7.9485857    760.19804  0.015821637  0.014889624            7 
 4005000   0.62630715   -7.9422347    759.43459  0.015801802  0.014884934            9 
 4006000   0.61431767   -7.9520192    760.49252  0.015819864  0.014880251            7 
 4007000   0.61347734   -7.9436341    760.45246  0.015815083  0.014875562            7 
 4008000   0.62466549   -7.9615438    761.04762  0.015823512  0.014870874           12 
 4009000   0.60844576   -7.9674707    762.30302   0.01584566  0.014866177           14 
 4010000   0.60508067   -7.9581474    759.84534  0.015790635  0.014861492            6 
 4011000   0.61557389   -7.9508855     761.0409  0.015811537  0.014856811           11 
 4012000    0.6127709   -7.9664402     760.1632  0.015789365  0.014852127           10 
 4013000   0.60943257   -7.9486735    762.39152  0.015831704  0.014847449            8 
 4014000   0.60671054   -7.9542016    761.06566  0.015800234  0.014842765            7 
 4015000   0.61722987   -7.9480459    760.38451  0.015782161  0.014838087            5 
 4016000   0.60797316   -7.9332098    761.73103  0.015806172  0.014833413           12 
 4017000   0.60189153   -7.9593334    760.19662  0.015770405  0.014828734            4 
 4018000   0.61331842   -7.9609942      759.978  0.015761946  0.014824059           18 
 4019000   0.60561296    -7.944957    761.14475  0.015782217  0.014819378            9 
 4020000   0.61756213   -7.9682311    760.65305  0.015768098   0.01481469            6 
 4021000   0.61086819   -7.9761542    758.79117   0.01572559  0.014809992            8 
 4022000    0.6023826   -7.9600619    759.53759  0.015737146  0.014805299           14 
 4023000   0.59572937   -7.9490746     759.3034  0.015728383  0.014800611            6 
 4024000   0.61559421   -7.9816164    759.72395  0.015733183  0.014795925            4 
 4025000   0.59666998    -7.944716    759.99563  0.015734899  0.014791235           13 
 4026000   0.59982539   -7.9285065    761.35931  0.015759217  0.014786563           11 
 4027000   0.60940666   -7.9477387    760.82972  0.015744345  0.014781895            8 
 4028000   0.60030076   -7.9324925    760.86463  0.015741158  0.014777227           20 
 4029000   0.60716526   -7.9588305    758.85172  0.015695618  0.014772554           14 
 4030000   0.60456278   -7.9535701    758.76776  0.015689987   0.01476788           12 
 4031000   0.59939629   -7.9554114    759.94271  0.015710384  0.014763211           13 
 4032000   0.60081747   -7.9693888    759.13535  0.015689801   0.01475854            9 
 4033000    0.6172333   -7.9689825    760.66152  0.015717446  0.014753872           11 
 4034000   0.60924533   -7.9418573    758.50204   0.01566894  0.014749213            5 
 4035000   0.59896037   -7.9516868    760.59565  0.015708295  0.014744559           11 
 4036000   0.59873422   -7.9567848    760.76204  0.015707839    0.0147399            9 
 4037000   0.60617134   -7.9670596     760.7426  0.015703546  0.014735246           18 
 4038000   0.61725256   -7.9689202    759.51152  0.015674251  0.014730586           18 
 4039000   0.61456506   -7.9524589    759.27934   0.01566558   0.01472593            9 
 4040000   0.61122515    -7.960626    760.23041   0.01568132  0.014721277           11 
 4041000   0.61415321    -7.960644    760.29257  0.015678722  0.014716612           11 
 4042000   0.60393635   -7.9522838    760.19817  0.015672896  0.014711955            9 
 4043000   0.60348031   -7.9643149    759.09137  0.015646207  0.014707305            5 
 4044000   0.60044765   -7.9485556    760.01314  0.015661332  0.014702654           17 
 4045000   0.60138804   -7.9712842    758.96057  0.015635776  0.014697996            8 
 4046000   0.59617548   -7.9771371    760.91249  0.015672114  0.014693342           13 
 4047000   0.59982547    -7.943113    761.06063  0.015671292  0.014688693           12 
 4048000   0.61497548   -7.9594496    759.32168  0.015631622  0.014684043            6 
 4049000   0.60934951   -7.9686454    759.06884  0.015622558  0.014679396            4 
 4050000   0.60680658   -7.9891047    758.42519  0.015605457  0.014674744           10 
 4051000   0.61297208   -7.9796342    760.88164  0.015652136  0.014670101           12 
 4052000   0.60260408    -7.960045    760.73768  0.015645313  0.014665454            6 
 4053000   0.59349086    -7.977584    759.96358  0.015625536   0.01466081            9 
 4054000   0.60376379   -7.9825666    759.95921  0.015621592   0.01465616           10 
 4055000   0.59811332    -7.983954    760.73026  0.015633585  0.014651519           11 
 4056000   0.60553645   -7.9596596    759.04445  0.015595095  0.014646869            4 
 4057000   0.60266515   -7.9622564    760.21757  0.015615347  0.014642224            8 
 4058000   0.60875496   -7.9898271     759.1686  0.015589958  0.014637579           11 
 4059000   0.59498359   -7.9792496    759.99713  0.015603127  0.014632938            8 
 4060000   0.59907176   -7.9565675    759.42892  0.015587622   0.01462829            8 
 4061000   0.59947769   -7.9694951    759.61282  0.015587557  0.014623653            7 
 4062000   0.60437882   -7.9611284    760.38266  0.015599513  0.014619009           11 
 4063000   0.60496444   -7.9722104    760.25692  0.015593095  0.014614373            9 
 4064000   0.59936767   -7.9704277    759.76396   0.01557915  0.014609737           11 
 4065000   0.60337457   -7.9752291    758.50574  0.015549523  0.014605105            6 
 4066000   0.60177002   -7.9893563    759.70003  0.015570176  0.014600474           10 
 4067000   0.59330081   -7.9890669    759.42515  0.015560715  0.014595846            7 
 4068000   0.57890412   -7.9867926    759.09368    0.0155501  0.014591206            9 
 4069000   0.60784363   -7.9847359    759.25895  0.015549663  0.014586574            7 
 4070000   0.60069316   -7.9917248    759.21851  0.015545015  0.014581947            9 
 4071000   0.58764469   -7.9790005    760.44632  0.015566329  0.014577315           11 
 4072000   0.59734453   -7.9844154    760.60683  0.015565791  0.014572686           12 
 4073000   0.58975494   -7.9987561    759.89064  0.015547317  0.014568055            7 
 4074000   0.58176085   -7.9940104     759.6278  0.015538124  0.014563422            8 
 4075000   0.59103313   -7.9680368    759.58125  0.015533359  0.014558793           11 
 4076000   0.61339796   -8.0044904    758.01982  0.015497625  0.014554169            7 
 4077000   0.58057349    -7.981177    758.16678  0.015496827  0.014549549           11 
 4078000   0.59420677   -7.9766053    759.60123   0.01552234  0.014544937           12 
 4079000   0.60043967   -7.9886204    759.98086   0.01552629  0.014540314            8 
 4080000   0.59811515   -7.9966668    759.38898  0.015510396  0.014535687            5 
 4081000   0.60229467   -7.9945462    759.95582   0.01551817  0.014531068           16 
 4082000   0.59025682   -7.9865841    759.11206  0.015497143   0.01452645           13 
 4083000   0.59141843   -7.9863412     760.3095  0.015517787  0.014521829            9 
 4084000    0.5916144   -7.9805032    758.46486  0.015476348  0.014517216           16 
 4085000    0.6066501   -7.9860778    758.31938  0.015469591  0.014512599           13 
 4086000   0.60545579   -7.9897875    759.41687  0.015488189  0.014507989            7 
 4087000   0.61977746   -7.9734273    759.67832   0.01548973  0.014503375            6 
 4088000   0.59602698   -7.9925104    760.40179  0.015500689   0.01449877           15 
 4089000   0.59862608   -7.9754821    760.31951  0.015495221  0.014494162           19 
 4090000   0.60789113    -7.970114    760.21722  0.015489348  0.014489553           11 
 4091000   0.59526007   -7.9968946    759.05893  0.015461968  0.014484946            9 
 4092000    0.5985537   -7.9875043    759.36778  0.015464479  0.014480342            8 
 4093000   0.59846381   -7.9803858    758.93541  0.015451898   0.01447574           12 
 4094000   0.60322576   -7.9964724      759.925  0.015468266  0.014471138           12 
 4095000   0.58593934   -7.9882315    760.09729  0.015467995  0.014466541           13 
 4096000   0.59931312   -7.9630916    758.77748  0.015437367   0.01446195           15 
 4097000   0.59592119   -7.9756892    758.62871  0.015430573  0.014457361            9 
 4098000    0.5959478   -7.9973274    758.85186  0.015431346  0.014452768           12 
 4099000   0.60093773     -7.97298    759.00797  0.015430755  0.014448175            8 
 4100000   0.59616545   -7.9856548    758.37879  0.015414203  0.014443581           11 
 4101000   0.59637943    -7.984618    758.96947  0.015422447  0.014438982           16 
 4102000   0.59130347   -7.9674906    758.81655  0.015415581  0.014434383            9 
 4103000   0.58977786   -8.0178605    759.34097  0.015422475  0.014429784            8 
 4104000   0.59164416    -8.000247    759.27196  0.015417316  0.014425183           11 
 4105000   0.59577406   -7.9817079    758.46986  0.015397277  0.014420588           12 
 4106000   0.61112153    -7.992266    759.01355  0.015404561  0.014415997            4 
 4107000   0.58234473   -7.9993529    758.72449  0.015394945  0.014411408           10 
 4108000   0.60430367   -8.0082106    759.14427  0.015399713  0.014406819            9 
 4109000   0.58166271   -7.9864327    759.33436  0.015399821  0.014402229            8 
 4110000   0.59006583   -7.9800164    759.03938  0.015390093  0.014397646            9 
 4111000   0.59939055   -8.0014834    760.69594  0.015419929  0.014393063           10 
 4112000   0.58369292   -7.9931089    759.36717   0.01538925  0.014388478           10 
 4113000   0.59714514   -8.0065301    758.68189  0.015371624  0.014383902            7 
 4114000   0.59576437   -7.9582897    758.74461  0.015369158  0.014379326           10 
 4115000   0.59925987   -7.9929811    758.61261   0.01536275  0.014374757            5 
 4116000   0.59419928    -7.992456    758.13431  0.015349334  0.014370192           12 
 4117000   0.57700765    -8.003767    757.67059  0.015336219  0.014365619           10 
 4118000   0.59362389   -8.0026444    759.27494  0.015364962  0.014361052           12 
 4119000   0.59942057   -7.9745781    758.95098  0.015354677   0.01435648           13 
 4120000   0.59331363   -7.9934037    758.27542  0.015337286  0.014351915           13 
 4121000   0.60761184   -7.9782579    758.30884   0.01533424  0.014347347           11 
 4122000   0.60104911   -7.9796344    758.42795  0.015332928  0.014342781           15 
 4123000   0.59471038   -8.0096036    758.77802  0.015336285  0.014338214           12 
 4124000   0.58365008   -7.9668334    758.61254  0.015329222  0.014333651           14 
 4125000   0.59128116   -7.9845641    759.47191  0.015342867  0.014329086           15 
 4126000   0.59627527   -8.0188335     758.2559  0.015314588  0.014324515           15 
 4127000   0.59481647    -7.981432    758.81243  0.015322115  0.014319947           11 
 4128000   0.58019299   -7.9990214    758.87844  0.015319736  0.014315388           10 
 4129000   0.59751365   -7.9811496    759.87564  0.015336152  0.014310833            9 
 4130000   0.60410846   -7.9979352    759.10701  0.015316929  0.014306275           12 
 4131000   0.58765149   -7.9937336     757.5853  0.015282524   0.01430172           13 
 4132000   0.58267046   -8.0223417    759.05217  0.015308409  0.014297167           12 
 4133000   0.57745646   -7.9937797    759.28391  0.015309378   0.01429261            7 
 4134000   0.59708752   -7.9885913    758.87866  0.015297506   0.01428806            7 
 4135000   0.57646205   -7.9869164    759.67165  0.015309787  0.014283511           10 
 4136000   0.58744975   -8.0063251    759.06135  0.015293789  0.014278971            9 
 4137000   0.58683006   -7.9970485    758.01798  0.015269075  0.014274426           11 
 4138000   0.59874082   -7.9980358    758.65575  0.015278229  0.014269873           11 
 4139000   0.59244989   -7.9818178    759.07839  0.015283047   0.01426533           10 
 4140000   0.58436236   -8.0113083    760.18771  0.015301685  0.014260785            7 
 4141000   0.58913341   -8.0057884    758.68302  0.015267709   0.01425625            9 
 4142000   0.58200576   -8.0060798    758.78931  0.015266162  0.014251709            7 
 4143000   0.59515901   -7.9953947    758.30309  0.015252697  0.014247175           16 
 4144000   0.58133794   -8.0077703    760.00184  0.015283177  0.014242642           10 
 4145000   0.58215052   -8.0162993     758.6072  0.015251452  0.014238106            7 
 4146000   0.60109024   -7.9864861    758.63848  0.015248402  0.014233579            9 
 4147000   0.57603018   -8.0169191    759.01235  0.015252238  0.014229049            9 
 4148000   0.59203927   -8.0006532    759.54249  0.015259211  0.014224518           11 
 4149000   0.58610888   -7.9987591    758.02053  0.015224964  0.014219987            6 
 4150000   0.59142021   -7.9992671    759.02166  0.015241399   0.01421546            7 
 4151000   0.59241068   -7.9971028     758.6477   0.01523022  0.014210937            7 
 4152000   0.56826757    -8.013191    758.52639  0.015224117  0.014206409            9 
 4153000   0.60176506    -8.027783    758.55806  0.015221086   0.01420189           11 
 4154000    0.5833029   -7.9871274    758.31382  0.015212523  0.014197369           11 
 4155000   0.58728541   -8.0061146    758.81533   0.01521892  0.014192854            7 
 4156000   0.60104233   -8.0341553    758.73406  0.015213628  0.014188336            9 
 4157000   0.57937836   -8.0082999    759.65143  0.015228358  0.014183822           11 
 4158000   0.59295526   -8.0117074    756.19063  0.015155336  0.014179301            9 
 4159000   0.59253334   -7.9970444    759.04397  0.015208864  0.014174785           11 
 4160000   0.57751821   -8.0037279    758.47014  0.015193713  0.014170271           12 
 4161000    0.5760611    -7.997618    759.61562  0.015213002  0.014165768           13 
 4162000   0.58579952   -8.0016009    759.50096  0.015207051  0.014161267            6 
 4163000   0.58587754   -8.0327069    759.04761  0.015194323  0.014156767           15 
 4164000   0.58128095   -8.0085846     758.5944  0.015181604  0.014152268            8 
 4165000   0.58359237   -8.0053272    757.97313  0.015165529  0.014147768            9 
 4166000   0.59083896    -8.003983    759.32525  0.015188935  0.014143268           13 
 4167000   0.58014632   -7.9914617    757.92679  0.015157323  0.014138768            4 
 4168000   0.58643884   -8.0061641    759.51926  0.015185526  0.014134275           17 
 4169000   0.59164144   -7.9883419    759.67036  0.015184904  0.014129786            6 
 4170000   0.59167717   -8.0164811    759.30795   0.01517402  0.014125296           12 
 4171000   0.57671318   -7.9906624    758.47089  0.015153658  0.014120805            7 
 4172000   0.58860831   -8.0047031    759.94979  0.015179566  0.014116316            6 
 4173000   0.58614534   -8.0243987    760.29812  0.015182884  0.014111831           10 
 4174000   0.58807983   -8.0105463    759.01025  0.015153535  0.014107344            3 
 4175000    0.5689427   -8.0082671    759.78955   0.01516546  0.014102862            7 
 4176000   0.57922002   -8.0208444    759.27392  0.015151539   0.01409838           16 
 4177000   0.57692816   -7.9935653     760.5561  0.015173492  0.014093896           13 
 4178000   0.57649423    -8.018003    758.57036  0.015130253  0.014089419            9 
 4179000   0.58773162   -7.9856746    757.79886  0.015111248  0.014084941           10 
 4180000   0.59188908   -8.0167317    758.08207  0.015113279  0.014080467            7 
 4181000   0.58041155   -8.0097381    759.06243  0.015129204  0.014075993            8 
 4182000   0.59252058   -8.0095388    758.45066  0.015113396  0.014071513           13 
 4183000    0.5945061   -8.0304544    757.91142   0.01509904  0.014067029           10 
 4184000   0.58617296   -8.0119394    758.56065  0.015108362  0.014062552           10 
 4185000   0.57461365   -8.0153799    759.46559  0.015122772  0.014058076            9 
 4186000   0.57664902   -8.0105249     759.4424  0.015118697  0.014053607            8 
 4187000   0.57526335   -8.0042164    758.48321  0.015095996  0.014049129           10 
 4188000    0.5831081   -8.0177894    757.73044  0.015077412  0.014044653            7 
 4189000    0.5783708   -8.0049662    759.19146  0.015102878  0.014040183           11 
 4190000   0.58084324   -8.0072795    759.07326  0.015096923  0.014035711            9 
 4191000   0.57838227   -8.0190723    759.00419  0.015091947  0.014031241            7 
 4192000   0.58598971   -8.0246936    759.82147  0.015104593  0.014026777            6 
 4193000   0.58186742   -8.0149244    757.73732   0.01505957  0.014022312            9 
 4194000   0.58782157   -8.0092612    758.33803  0.015067915   0.01401786            9 
 4195000   0.57768328   -7.9898123    759.06374  0.015078739  0.014013412            9 
 4196000   0.57313558    -8.011188    758.93113  0.015072512  0.014008959            5 
 4197000   0.57982966   -8.0059897    760.58727  0.015101804  0.014004512            7 
 4198000   0.57604623   -7.9985891    758.56923  0.015058147   0.01400007            9 
 4199000   0.56897001   -8.0101942    759.92714   0.01508151  0.013995621            8 
 4200000   0.57541324   -8.0068259    758.62821  0.015052147  0.013991181            8 
 4201000   0.57275231   -8.0017664     758.6433  0.015048863  0.013986737            6 
 4202000   0.57022557   -8.0094295    759.04537  0.015053256  0.013982302           10 
 4203000   0.59440866   -8.0181415     758.6837  0.015042503  0.013977862           12 
 4204000   0.58758099   -7.9974804    758.61627  0.015037589  0.013973423           11 
 4205000   0.57973667   -8.0143762    759.83173    0.0150581  0.013968992            3 
 4206000   0.58434646   -7.9955179    757.96283  0.015017491  0.013964561            9 
 4207000   0.57790452   -7.9963782    759.90448  0.015052383  0.013960131            5 
 4208000    0.5858482   -8.0098267    758.39369  0.015018886  0.013955693            6 
 4209000   0.55569336   -8.0181125     757.8679  0.015004908  0.013951253            6 
 4210000   0.58308068   -8.0064587    760.03924  0.015044324  0.013946816            4 
 4211000   0.58132552   -8.0144721      760.005  0.015040074  0.013942386            6 
 4212000   0.58085578   -8.0226175    758.66282  0.015009948  0.013937958           12 
 4213000   0.57475121   -8.0583885    758.67209  0.015006569  0.013933532            6 
 4214000   0.55251386   -8.0226806    758.76344  0.015004814  0.013929098            6 
 4215000   0.59070524   -8.0305849    760.20471  0.015029749   0.01392467            4 
 4216000   0.58260742   -8.0101907    759.33642  0.015009022  0.013920243            6 
 4217000   0.57976804   -8.0089895    758.37581   0.01498648  0.013915815            7 
 4218000   0.56937006   -8.0406701     758.1468  0.014978402  0.013911387            8 
 4219000   0.57078631    -8.019049    758.21918  0.014976282  0.013906961            6 
 4220000   0.55893734   -8.0153845    758.70658  0.014982357  0.013902537           12 
 4221000   0.58294192   -8.0434024    759.19043   0.01498836  0.013898117            9 
 4222000   0.57276774   -8.0225458    757.53974  0.014952229  0.013893694            6 
 4223000   0.58444168   -8.0451857    757.20598  0.014942102   0.01388927           10 
 4224000    0.5701412   -8.0120843    758.50314  0.014964156  0.013884847           13 
 4225000   0.57146819   -8.0179675    758.86814  0.014967814  0.013880432            6 
 4226000   0.57630236   -8.0487455    758.68099  0.014960581   0.01387601           12 
 4227000   0.57420788   -8.0559371    758.36794   0.01495087  0.013871587            7 
 4228000   0.57073575   -8.0153534    758.29192  0.014945836  0.013867172            8 
 4229000   0.57658279   -8.0375146    757.84395  0.014933474  0.013862763            8 
 4230000   0.56757219   -8.0209104    758.76981  0.014948184  0.013858349            5 
 4231000    0.5835728   -8.0243801    758.61989  0.014941698  0.013853937            4 
 4232000   0.57964277   -8.0289115    758.19474  0.014929796  0.013849531            9 
 4233000   0.57140055   -8.0419807    758.73816  0.014936967   0.01384513           10 
 4234000   0.57271472   -8.0321918    759.96425  0.014957571   0.01384072            9 
 4235000   0.57977842   -8.0404445    757.69688  0.014909423  0.013836315           15 
 4236000   0.58446954   -8.0355068    760.20276  0.014955201  0.013831919            9 
 4237000   0.58399242   -8.0392119    758.07374  0.014909797  0.013827515            8 
 4238000   0.58794023    -8.024255    757.50445  0.014895085  0.013823114           20 
 4239000   0.56230438   -8.0245549     757.6735  0.014894895  0.013818716            8 
 4240000   0.58802171   -8.0180888    757.90575  0.014895946  0.013814318            8 
 4241000   0.56296884   -7.9959204     758.7194  0.014908422  0.013809921            8 
 4242000   0.57327942   -8.0403019    758.77655   0.01490603   0.01380553            8 
 4243000   0.58171216   -8.0078599    759.02234  0.014907344  0.013801141            8 
 4244000     0.579085   -8.0157153    758.88199  0.014901076  0.013796754            4 
 4245000   0.56902971   -8.0371915    758.27517  0.014885653  0.013792364           12 
 4246000   0.56739004   -8.0294813    757.73012   0.01487145  0.013787974           10 
 4247000   0.57975878    -8.045337    758.74112  0.014887786  0.013783587            7 
 4248000   0.56484347    -8.026768    758.06641  0.014871045  0.013779196            8 
 4249000    0.5843531   -8.0563303      756.995  0.014846532   0.01377481            8 
 4250000   0.57349605   -8.0120812    759.77915   0.01489763  0.013770429            7 
 4251000   0.57583527   -8.0284471     758.5357   0.01486975  0.013766051           17 
 4252000   0.57508327   -8.0083257    757.55902  0.014847112  0.013761672            8 
 4253000     0.555711   -8.0373485    757.72063  0.014846787  0.013757289            6 
 4254000   0.57468516   -8.0315344    757.74966  0.014843866  0.013752913           10 
 4255000    0.5711173   -8.0336175    759.31505  0.014871035  0.013748533            6 
 4256000    0.5713365   -8.0537314    756.50703  0.014812559  0.013744155           13 
 4257000   0.56770141   -8.0427254    758.20688  0.014842355   0.01373978            9 
 4258000   0.57341278   -8.0530548    758.01164  0.014835048  0.013735406           11 
 4259000   0.56885808   -8.0316358    758.41844  0.014839525  0.013731028           12 
 4260000   0.57198306   -8.0305839    758.90231  0.014845507   0.01372666            5 
 4261000   0.56113044    -8.051545    758.38715  0.014831948  0.013722294           11 
 4262000   0.56925377   -8.0388518     758.4677  0.014830043  0.013717926            4 
 4263000   0.57210751   -8.0264529    757.50604  0.014807765  0.013713565            7 
 4264000   0.56891653   -8.0347434    757.76257  0.014809306  0.013709199            9 
 4265000   0.56344904   -8.0559924    758.50874  0.014820413  0.013704831            9 
 4266000   0.56867486   -8.0287043    757.75662  0.014802247  0.013700461            8 
 4267000   0.57257538   -8.0414631    758.77113  0.014818591  0.013696102           10 
 4268000    0.5889761   -8.0615131    758.02631  0.014800576  0.013691739            7 
 4269000   0.55704131   -8.0445664     756.8018  0.014773206  0.013687373            9 
 4270000   0.56642816   -8.0304984    757.54328  0.014784217  0.013683005           12 
 4271000   0.58127328   -8.0190972    757.15603    0.0147732  0.013678645            8 
 4272000   0.56227588   -8.0409895     757.5483  0.014777393  0.013674285            6 
 4273000   0.59156707   -8.0441626    756.61797  0.014755792  0.013669927            7 
 4274000   0.56785587   -8.0352577     757.1369  0.014762457  0.013665571           10 
 4275000   0.57120691   -8.0532216    757.91142  0.014774102  0.013661215           13 
 4276000   0.56516377   -8.0269569    758.41936  0.014780546  0.013656852            8 
 4277000   0.56438957   -8.0510347    757.39887  0.014757207  0.013652501            8 
 4278000   0.56855982   -8.0521064    757.86283  0.014762795  0.013648144            8 
 4279000   0.54533063   -8.0469475    758.34503  0.014768735  0.013643788           10 
 4280000   0.56473459   -8.0651689    758.74964  0.014773163  0.013639443           15 
 4281000   0.55574894   -8.0488735    757.90234  0.014753219  0.013635098           10 
 4282000   0.56202713   -8.0491327    757.03131  0.014732822  0.013630745            8 
 4283000   0.55841976   -8.0474788    759.04626  0.014768586  0.013626401           11 
 4284000   0.56678514   -8.0617157    757.36787  0.014732491  0.013622055           11 
 4285000   0.56493235   -8.0220316    758.19424  0.014745123  0.013617714           14 
 4286000   0.56068965   -8.0282553    758.03046  0.014738499  0.013613374           15 
 4287000   0.56939402   -8.0352997     758.2183  0.014738712  0.013609037            9 
 4288000   0.57850739    -8.033431    756.78403  0.014707401  0.013604699           10 
 4289000   0.56278804   -8.0488748    757.78274  0.014723376  0.013600366            9 
 4290000   0.56609834   -8.0422114    757.49499  0.014714355  0.013596033           11 
 4291000   0.57301906   -8.0485074    757.92969  0.014719368  0.013591702            9 
 4292000   0.56803187   -8.0590207    758.61985  0.014729338  0.013587371           14 
 4293000   0.56257602   -8.0509684    757.67966  0.014707657  0.013583037            7 
 4294000   0.55647316   -8.0519209    759.07986  0.014731406  0.013578708            4 
 4295000    0.5606983    -8.051695    758.79993  0.014722544  0.013574383            7 
 4296000   0.56384087   -8.0474885    757.52576  0.014694401  0.013570063            9 
 4297000   0.56011741   -8.0434348    758.54884  0.014710822  0.013565748            7 
 4298000   0.56019271   -8.0262099    758.22281  0.014701078  0.013561429           20 
 4299000   0.56844048   -8.0710167    757.17939  0.014677433  0.013557107           14 
 4300000    0.5694015   -8.0489278    757.92348  0.014688439  0.013552781            6 
 4301000   0.55961431   -8.0330545    757.39459  0.014674777  0.013548472            8 
 4302000   0.56346404   -8.0573124    757.25365  0.014668636  0.013544148            6 
 4303000   0.56414166   -8.0603559    756.12507   0.01464337  0.013539829            9 
 4304000   0.57511708   -8.0375666    757.06538  0.014658174  0.013535507            6 
 4305000   0.57705067   -8.0551058    757.39538  0.014661157  0.013531188            8 
 4306000   0.56827649   -8.0558795    757.40441  0.014657927  0.013526872            8 
 4307000    0.5580542   -8.0637682    757.17645  0.014650113   0.01352255            8 
 4308000   0.57459125   -8.0740726    756.15995  0.014627049  0.013518227           18 
 4309000   0.55364926   -8.0579195    756.49626  0.014630159  0.013513908            7 
 4310000   0.55636142   -8.0510918    756.71972  0.014631085  0.013509595            9 
 4311000     0.570331   -8.0615638    757.01146  0.014633331  0.013505279            7 
 4312000   0.57304324    -8.060748    758.12447  0.014651447  0.013500961            8 
 4313000   0.56426344    -8.053855    757.08188  0.014627906  0.013496648            7 
 4314000   0.56155183   -8.0713794    757.55905  0.014633732  0.013492339           11 
 4315000   0.54880115   -8.0425033    756.78894  0.014615468  0.013488028           13 
 4316000   0.56471334   -8.0693772    757.59844  0.014627712  0.013483717            6 
 4317000   0.56179096   -8.0521984    758.96246  0.014650654  0.013479413            7 
 4318000   0.55582687   -8.0604897    757.68627  0.014622631  0.013475113            3 
 4319000   0.55684129   -8.0291022    758.36796  0.014632399  0.013470812           14 
 4320000   0.56387402   -8.0499077    756.72724  0.014597362  0.013466515            9 
 4321000   0.55259114   -8.0699511    758.00384  0.014618604  0.013462213            7 
 4322000   0.56943341   -8.0612794     758.4311  0.014623459  0.013457915           10 
 4323000   0.55561858   -8.0568478    756.78055   0.01458826   0.01345362           12 
 4324000   0.55805453   -8.0868286    757.41394  0.014597093  0.013449322            6 
 4325000   0.55594003   -8.0578668    757.33119  0.014592123  0.013445028           11 
 4326000   0.57045594   -8.0687247    756.94844  0.014581377  0.013440736           15 
 4327000   0.55888953   -8.0471139    758.20683  0.014602242  0.013436451           17 
 4328000   0.56505079   -8.0569294    756.60535  0.014568033  0.013432163            5 
 4329000   0.56122192   -8.0444033    756.12256  0.014555374  0.013427876           18 
 4330000   0.55669623   -8.0404917    757.49303  0.014578388  0.013423592           12 
 4331000   0.55766521   -8.0559663    757.23438  0.014570045  0.013419315            6 
 4332000   0.56479045   -8.0606621    756.80979  0.014558514  0.013415031            9 
 4333000   0.57541427   -8.0542763     756.4986  0.014549169  0.013410752            7 
 4334000   0.56807783   -8.0693555    758.19408  0.014578413  0.013406469           11 
 4335000   0.55236038   -8.0549111    757.45683  0.014560877  0.013402189            7 
 4336000   0.55942869    -8.066603    756.65405  0.014542091  0.013397909            6 
 4337000   0.55034746   -8.0656733    757.63836   0.01455765  0.013393633            6 
 4338000   0.55889438   -8.0566725    756.02762  0.014523352  0.013389356            7 
 4339000   0.55801377    -8.071541     757.4908  0.014548106  0.013385085            8 
 4340000   0.56004635   -8.0748464    757.03828  0.014536065   0.01338081            8 
 4341000   0.54293906   -8.0606975    756.66504  0.014525552  0.013376539            9 
 4342000    0.5548181   -8.0472143    756.89554   0.01452663  0.013372268            9 
 4343000   0.55652794   -8.0637655    759.03927  0.014564419  0.013368001           13 
 4344000   0.54839982   -8.0596057    757.36712  0.014528989  0.013363731           11 
 4345000   0.54681126   -8.0633327    756.49088  0.014508839  0.013359465           14 
 4346000   0.56234348   -8.0668991     756.2473   0.01450083  0.013355202           13 
 4347000   0.56297251   -8.0732199    757.38385  0.014519282  0.013350935           15 
 4348000   0.53841905   -8.0783343    756.67903  0.014502435  0.013346674           19 
 4349000   0.55086441   -8.0799477    756.86521  0.014502668  0.013342412            8 
 4350000    0.5571295   -8.0517622    757.63517  0.014514084  0.013338145           16 
 4351000   0.55425311   -8.0523649    756.87373  0.014496164  0.013333886           13 
 4352000   0.55715881   -8.0432382    756.89483  0.014493237  0.013329627           12 
 4353000   0.55725443   -8.0679796    758.14156  0.014513775  0.013325373           10 
 4354000   0.56154635   -8.0738986    756.66519  0.014482185  0.013321114           11 
 4355000   0.56034952   -8.0545547    757.40983  0.014493108  0.013316863            6 
 4356000   0.55444554   -8.0631301    757.15148  0.014484839  0.013312612           10 
 4357000   0.55978587   -8.0690245     756.9193  0.014477073  0.013308361            9 
 4358000   0.55253531   -8.0468383    757.31825   0.01448138  0.013304113            8 
 4359000   0.55401017   -8.0698453    757.21428   0.01447607  0.013299866           10 
 4360000   0.55803177   -8.0739003    756.78984  0.014464638  0.013295616            9 
 4361000    0.5614918    -8.092479    756.61424  0.014457965  0.013291374           11 
 4362000   0.56108326   -8.0980145    757.14232  0.014464739  0.013287127           15 
 4363000   0.55687051   -8.0696135    756.28563  0.014445061  0.013282886           12 
 4364000    0.5461405     -8.08094    755.43768  0.014425559  0.013278644            4 
 4365000   0.54565032   -8.0788379    757.48204  0.014461284  0.013274407           11 
 4366000   0.55225064   -8.0651794    756.47571  0.014438764  0.013270174           15 
 4367000   0.56454021   -8.0645134    757.16305  0.014448574  0.013265942           11 
 4368000   0.55029187   -8.0596681    756.12122   0.01442539  0.013261712           10 
 4369000   0.54800975   -8.0796398    757.38952  0.014446279  0.013257476            7 
 4370000   0.55434011   -8.0752207    756.03925  0.014417224   0.01325324            8 
 4371000   0.55155702   -8.0879918    757.85991  0.014448637   0.01324901            8 
 4372000   0.54738408   -8.0594088    757.62374  0.014440831  0.013244783           12 
 4373000   0.54420931   -8.0779153    757.57337  0.014436568  0.013240564            6 
 4374000   0.54507507   -8.0867375    756.33264   0.01440963  0.013236344           11 
 4375000   0.54097497   -8.0745337    757.43025  0.014427243  0.013232123            8 
 4376000   0.55117308   -8.0654235    756.57044  0.014407572    0.0132279           10 
 4377000   0.55478997    -8.079716    756.45014   0.01440199  0.013223682           16 
 4378000   0.54934066    -8.076463    755.30283  0.014376862  0.013219468            8 
 4379000   0.56020108   -8.0700568    758.79605  0.014440056  0.013215256           11 
 4380000   0.54691084    -8.076974    757.62981   0.01441457  0.013211037            7 
 4381000   0.55036614   -8.0715519    756.85493  0.014396541  0.013206823            8 
 4382000   0.53773626   -8.0816895    756.43869  0.014385339   0.01320261           12 
 4383000   0.54437054   -8.0654035    757.18468  0.014396241  0.013198394           11 
 4384000   0.55106545   -8.0764311    757.30624  0.014395268  0.013194185            7 
 4385000   0.55026178     -8.06697    757.64955  0.014398509  0.013189969           11 
 4386000   0.54652675   -8.0806329    756.67001  0.014376615  0.013185754            6 
 4387000   0.55559654   -8.0881933    756.91246  0.014377944  0.013181542           13 
 4388000   0.54149902    -8.102443    755.33599  0.014344728  0.013177334            7 
 4389000   0.55084576   -8.0868962    756.23569  0.014358542  0.013173123            8 
 4390000   0.55018029   -8.0866302    755.93085  0.014349485  0.013168919           16 
 4391000   0.55745857   -8.0617493    755.36165  0.014335414  0.013164712            8 
 4392000   0.56544023   -8.0661432    755.87426  0.014341876  0.013160505           13 
 4393000   0.56377815   -8.0766128     756.1767  0.014344349  0.013156304           15 
 4394000    0.5408715   -8.0848971    756.90127  0.014354826  0.013152102           19 
 4395000   0.54711914   -8.0971222     756.9095  0.014351716  0.013147901           14 
 4396000   0.55496344   -8.0698099     756.5476  0.014341591  0.013143702           13 
 4397000   0.55817667   -8.0892492    756.62581  0.014339811    0.0131395           13 
 4398000   0.55059039    -8.096508    755.42391  0.014313777  0.013135304           11 
 4399000   0.54653466   -8.0620751    756.10372  0.014323402  0.013131109           15 
 4400000   0.54710963   -8.0856971    756.40358  0.014325825  0.013126916           11 
 4401000   0.54313836    -8.095333    756.86111  0.014331234  0.013122723           12 
 4402000    0.5510954   -8.0835829    756.76685  0.014326194  0.013118534            6 
 4403000    0.5329786   -8.1049385    756.88019  0.014325085  0.013114349            4 
 4404000   0.54661242   -8.0909365    757.19458  0.014327781   0.01311016            6 
 4405000   0.54733517   -8.0992971    756.24111  0.014306491  0.013105971            6 
 4406000   0.55039926   -8.0927787    755.98703  0.014298438  0.013101781           10 
 4407000   0.53815491   -8.0920837    756.17375  0.014298725  0.013097601            8 
 4408000   0.53689853    -8.084605    756.72354  0.014305875  0.013093417           12 
 4409000   0.55036203   -8.0891316    756.59061  0.014300117  0.013089246            5 
 4410000   0.54475217   -8.0846358    754.89944  0.014264918  0.013085064           17 
 4411000   0.53915572   -8.0761508    756.41607  0.014290336  0.013080885           12 
 4412000   0.54240043   -8.0972967    756.86399  0.014295557  0.013076701            6 
 4413000   0.54560176   -8.0925588    756.14415  0.014278725  0.013072527           18 
 4414000   0.54073025   -8.0919804    756.42932  0.014280874  0.013068353            7 
 4415000   0.53623411    -8.079685    756.66202  0.014282031  0.013064184            8 
 4416000    0.5421541    -8.091355    756.48544  0.014275465  0.013060012            8 
 4417000   0.53544791   -8.1036394    756.26198  0.014268017  0.013055837           10 
 4418000   0.54023539   -8.1036868    756.16098  0.014262883  0.013051667            5 
 4419000   0.54694273   -8.0952855    757.62566  0.014287276  0.013047497            7 
 4420000    0.5450018    -8.083102    756.60395   0.01426478   0.01304333            6 
 4421000   0.53067694   -8.0862479    756.17761  0.014253518  0.013039165            8 
 4422000   0.54943908   -8.0848523    757.38319  0.014273014  0.013035007            9 
 4423000   0.54855672   -8.1034403    755.99612  0.014243653  0.013030847            8 
 4424000   0.54256107   -8.0938789    756.57962  0.014251424  0.013026687            9 
 4425000   0.53757472   -8.0993978    756.08791  0.014238944  0.013022528           12 
 4426000   0.53504866   -8.0768255    757.01952  0.014253267  0.013018373           16 
 4427000   0.54068941   -8.0919186    756.25819  0.014235716  0.013014208            8 
 4428000   0.54689735     -8.09494    755.54777  0.014219131   0.01301005           10 
 4429000   0.54259849    -8.087092    755.58087  0.014216544   0.01300589           15 
 4430000   0.53797582   -8.0863292    753.80009  0.014179836  0.013001733           11 
 4431000   0.54390734   -8.0848689    755.52918  0.014209155  0.012997575            5 
 4432000   0.55265098   -8.1090365    755.18598  0.014199496  0.012993423            6 
 4433000   0.52980183   -8.0822733    756.03086  0.014212175  0.012989272            6 
 4434000   0.54368454   -8.0920595    756.41704  0.014216228   0.01298512            8 
 4435000   0.52716612   -8.0962087    755.18993  0.014189965  0.012980973            7 
 4436000   0.54379379   -8.0892709    755.57053  0.014193916  0.012976824            6 
 4437000   0.52272931   -8.1100699    756.15201  0.014201638  0.012972678            8 
 4438000   0.53569103    -8.107662    756.49803  0.014204935  0.012968538           18 
 4439000   0.54277174   -8.0909513    756.04144  0.014193164  0.012964396           20 
 4440000   0.55277667   -8.0828241    756.27656   0.01419438  0.012960262            6 
 4441000   0.53798781    -8.096176    755.70959  0.014180545  0.012956126            9 
 4442000   0.53416609   -8.1060257    755.80438  0.014179131  0.012951994            7 
 4443000   0.55012656   -8.0926337     755.7799   0.01417548  0.012947858           15 
 4444000   0.53960686    -8.092205    754.49041   0.01414811  0.012943721            8 
 4445000   0.54079529   -8.0962361    756.02662  0.014173727  0.012939589            9 
 4446000   0.53470753   -8.1126343     754.8016  0.014147578  0.012935455            8 
 4447000     0.540838   -8.0945879    755.56639  0.014158729  0.012931323            6 
 4448000   0.53937602   -8.0955811    755.49479  0.014154204  0.012927197            5 
 4449000   0.53082702   -8.1035757    755.39554  0.014149163  0.012923068            9 
 4450000   0.54829901   -8.0781753    756.29125  0.014162757   0.01291894            7 
 4451000   0.54595768    -8.108662    755.39996  0.014142888  0.012914814           16 
 4452000   0.53568023   -8.0945994    754.96182  0.014131511  0.012910691           20 
 4453000   0.53587157   -8.0820044     756.4423  0.014156043  0.012906563            4 
 4454000   0.54168943   -8.1140323    755.42446  0.014133821  0.012902437            6 
 4455000    0.5417341   -8.1161325    755.44219   0.01413098  0.012898315            6 
 4456000   0.54672871   -8.1031219    755.32035   0.01412553  0.012894193           10 
 4457000   0.53465921    -8.114681    755.80929  0.014131503  0.012890076            5 
 4458000   0.53323906   -8.0997913     756.0144  0.014132167  0.012885954            8 
 4459000   0.54655564   -8.1240877    755.28392  0.014115346   0.01288183           18 
 4460000   0.53264398   -8.1055448    754.52435  0.014097989  0.012877712           12 
 4461000   0.53497049   -8.1102762    755.29346  0.014109196  0.012873593            8 
 4462000   0.52470808   -8.0983748    755.85415  0.014116505  0.012869479            7 
 4463000   0.52820156   -8.1147296    755.34888  0.014103908  0.012865361            5 
 4464000   0.53084275   -8.0970562      756.308  0.014118653  0.012861246            9 
 4465000   0.53862988   -8.0951874    755.05528   0.01409211  0.012857135            5 
 4466000   0.53868767   -8.1025856    755.01991  0.014088295  0.012853029            5 
 4467000   0.53685906   -8.1052148    754.38798  0.014073352  0.012848924            6 
 4468000   0.53394439   -8.1010753    755.10194  0.014083519  0.012844817            9 
 4469000   0.53206394   -8.1042965    754.38117  0.014066927  0.012840711           10 
 4470000   0.54230357   -8.0800134    755.38196  0.014082438  0.012836614            9 
 4471000   0.53400511   -8.0875396    754.44881  0.014061895  0.012832515            7 
 4472000   0.53706199   -8.1057763    754.84022  0.014066045  0.012828417            8 
 4473000   0.52685365   -8.1082067    755.51109  0.014075398  0.012824316            6 
 4474000   0.53640284   -8.1051861    756.74653  0.014095264  0.012820221            5 
 4475000   0.52758308   -8.0953515    755.63132  0.014071347   0.01281613            4 
 4476000   0.55091123   -8.0992757    754.79528  0.014052638  0.012812042           10 
 4477000   0.53873236   -8.0962264    755.15178  0.014056135  0.012807951            9 
 4478000   0.53235579   -8.0828859    755.54821  0.014060373  0.012803863           16 
 4479000   0.53636768   -8.1159083    755.40347  0.014054541  0.012799775            7 
 4480000   0.54288064   -8.0964485    755.29527  0.014049391  0.012795688            6 
 4481000   0.52979046   -8.0980954    755.56573  0.014051286  0.012791601            9 
 4482000   0.53292237   -8.1128259    755.21106  0.014041556  0.012787514            4 
 4483000   0.54083371   -8.1165812    755.44804  0.014042829  0.012783427            7 
 4484000    0.5363297   -8.1070647    754.78354  0.014027348  0.012779343            6 
 4485000   0.52906049   -8.0940594    755.23955  0.014032693   0.01277526           11 
 4486000   0.54031233   -8.1222946    756.75171  0.014057656  0.012771184            5 
 4487000   0.53783154   -8.1081629    754.73341  0.014017038  0.012767106            8 
 4488000   0.54413092   -8.0862584    754.85878  0.014016243  0.012763031            7 
 4489000   0.53263238   -8.1186038    755.25782  0.014020528  0.012758955            6 
 4490000   0.52429064   -8.1174922    755.14746  0.014015358  0.012754877            7 
 4491000   0.54710111   -8.1143839    754.70269  0.014003984  0.012750802            5 
 4492000   0.52648656   -8.1141457    756.25027  0.014029576  0.012746731           11 
 4493000   0.54442263   -8.1135069    755.19943  0.014006963  0.012742657            4 
 4494000   0.53859161   -8.1320147    754.38455  0.013988736  0.012738586            6 
 4495000   0.52343789   -8.0958897    755.33261    0.0140032  0.012734523            5 
 4496000   0.52903336   -8.1141638    753.81201  0.013971901  0.012730454            5 
 4497000   0.54044211     -8.11619    753.89006  0.013970241  0.012726385            9 
 4498000   0.53012702    -8.095054    755.05843  0.013988781  0.012722312            7 
 4499000    0.5429698   -8.0986624    755.36002  0.013991258  0.012718247            9 
 4500000   0.52750941    -8.101121    754.98772  0.013981254  0.012714187            6 
 4501000   0.53563438    -8.111531    755.05304  0.013979357  0.012710129            6 
 4502000   0.52723742   -8.1114371    754.98564  0.013975004  0.012706063           11 
 4503000   0.53180927    -8.106488    754.07373  0.013955025  0.012702003            7 
 4504000   0.52434856   -8.1100595    754.56955    0.0139611  0.012697945            6 
 4505000   0.53394456   -8.1159357    754.43781  0.013955564  0.012693885            4 
 4506000   0.53176144   -8.1216225    752.77661  0.013921745  0.012689827            4 
 4507000   0.51468848   -8.1185649    755.66183  0.013972003  0.012685772            6 
 4508000   0.53293295   -8.1127563    755.15795  0.013959589  0.012681716            6 
 4509000   0.52320226   -8.1058631    754.71408   0.01394829  0.012677665            7 
 4510000   0.52929199    -8.111164     755.6021  0.013961606  0.012673612            6 
 4511000   0.52178569   -8.1100372    755.25027  0.013952011  0.012669562            5 
 4512000   0.52440724   -8.1207075    755.92839  0.013961443  0.012665508            5 
 4513000   0.53576008   -8.1215954    753.91254  0.013921127  0.012661455            9 
 4514000   0.52590161   -8.1083881    754.91665   0.01393658  0.012657407            6 
 4515000   0.52726191   -8.1268626    754.43164  0.013924541  0.012653358            5 
 4516000   0.52032969   -8.1163953    754.76807  0.013927666  0.012649309            5 
 4517000   0.52628962   -8.0989853    754.40531   0.01391789  0.012645261            4 
 4518000   0.53292949   -8.1358122      753.745   0.01390263  0.012641213            5 
 4519000   0.53976542   -8.1364617     754.3071  0.013909919  0.012637169            9 
 4520000   0.53074637   -8.1179689    754.13528  0.013903674  0.012633127            8 
 4521000   0.54072282   -8.1399075    753.90516  0.013896357  0.012629087            5 
 4522000   0.54044996   -8.1088672    754.71243  0.013908161  0.012625049           13 
 4523000   0.53504564   -8.1213686    754.15211  0.013894762   0.01262101            9 
 4524000   0.52343371   -8.1026872    754.65559  0.013900965  0.012616979            8 
 4525000   0.52853221   -8.1179015     753.3709  0.013874234   0.01261294            9 
 4526000    0.5235171   -8.1224998    755.49232  0.013910228  0.012608901            6 
 4527000   0.51749478     -8.11741    754.33362  0.013885826  0.012604866            9 
 4528000   0.52501502   -8.1473298    754.67015  0.013888953  0.012600834            6 
 4529000   0.52778815   -8.1326584    754.24952  0.013878147  0.012596803            4 
 4530000   0.51948726   -8.1504663     754.5475  0.013880565  0.012592771            6 
 4531000   0.52259785   -8.1269409    754.15478  0.013870278   0.01258874            7 
 4532000   0.54173378   -8.1222873    754.02433  0.013864819  0.012584714            6 
 4533000   0.52843094   -8.1455475    754.50221  0.013870546  0.012580691            5 
 4534000   0.53326474   -8.1389311    753.86027  0.013855688  0.012576671            7 
 4535000   0.52528845   -8.1263836    754.51943  0.013864745  0.012572649            7 
 4536000   0.52261574   -8.1285642    754.42071  0.013859875  0.012568631            9 
 4537000   0.53603499   -8.1040467    754.34662  0.013855459  0.012564614            6 
 4538000     0.522713    -8.112505      755.302   0.01386995  0.012560599            8 
 4539000    0.5223198   -8.1314495    755.93569  0.013878528  0.012556584            5 
 4540000     0.522991   -8.1180189    754.61646  0.013851257  0.012552565            5 
 4541000   0.51892465   -8.1413189    754.34023  0.013843137   0.01254855           15 
 4542000   0.53159667   -8.1192992    752.49497  0.013806234  0.012544537            9 
 4543000   0.51907787   -8.1353639    754.10683  0.013832762  0.012540521            3 
 4544000   0.53469761    -8.104952    752.98503  0.013809145  0.012536511            6 
 4545000   0.51367623   -8.1347019    752.84669   0.01380357  0.012532505            5 
 4546000   0.52825357   -8.1318867    754.13114  0.013824079  0.012528502           10 
 4547000   0.52418011   -8.1211445    755.34148   0.01384322  0.012524495            6 
 4548000   0.52529059   -8.1282873    754.01259  0.013815827  0.012520493            4 
 4549000   0.52196121   -8.1156283    752.36392  0.013782588  0.012516489            7 
 4550000    0.5160254   -8.1387979     754.3646  0.013816201  0.012512486            8 
 4551000   0.51676951   -8.1299008    753.63153  0.013799742   0.01250849            5 
 4552000   0.52658067   -8.1162743    754.56677  0.013813832  0.012504492            6 
 4553000   0.52349957     -8.14657    755.23266  0.013822986  0.012500495            7 
 4554000   0.53210863   -8.1400955    753.92219   0.01379597  0.012496497            3 
 4555000   0.52058182   -8.1396388     753.6928  0.013788745  0.012492502           10 
 4556000   0.52102211    -8.118362    753.42614  0.013780841   0.01248851           12 
 4557000   0.51723195   -8.1327465     753.4622  0.013778476  0.012484519            9 
 4558000    0.5253545   -8.1453787    753.87959  0.013783085  0.012480531            9 
 4559000   0.52850683   -8.1193191    754.95137  0.013799652  0.012476544            5 
 4560000   0.52166401   -8.1416065    755.00227  0.013797556  0.012472555            7 
 4561000   0.53210439   -8.1254888    753.78398  0.013772272  0.012468564            6 
 4562000   0.51427776   -8.1354722    753.56315  0.013765219  0.012464579            7 
 4563000   0.52535461   -8.1401955    753.02438  0.013752363  0.012460596            8 
 4564000   0.51641212   -8.1156787    754.28062  0.013772287  0.012456614           11 
 4565000   0.52409972   -8.1285694    754.52907  0.013773806  0.012452631            4 
 4566000   0.52046867   -8.1514893    754.18293  0.013764472  0.012448651            6 
 4567000   0.52940709   -8.1408602    753.61766  0.013751143  0.012444672            9 
 4568000    0.5227027   -8.1320444    753.59914  0.013747795  0.012440688            8 
 4569000   0.51420766   -8.1406698    753.16463  0.013736861  0.012436706            4 
 4570000   0.52732019   -8.1242265    754.05438   0.01375008   0.01243273            8 
 4571000   0.51425487   -8.1137757     753.7656  0.013741807  0.012428754            8 
 4572000   0.51130929   -8.1297597    752.51451  0.013715998  0.012424782            4 
 4573000    0.5225451   -8.1300292    752.54337  0.013713524  0.012420808           10 
 4574000   0.51692058   -8.1447354    752.73513   0.01371402  0.012416839            6 
 4575000    0.5139789   -8.1365764    753.48986   0.01372477  0.012412868            5 
 4576000   0.51357752    -8.142579    753.39338  0.013720013  0.012408896            7 
 4577000   0.52574689   -8.1440301    753.41184  0.013717352  0.012404932            6 
 4578000   0.52466963   -8.1297233    754.25186  0.013729646  0.012400971            9 
 4579000   0.50728477    -8.125098    753.10321  0.013705744  0.012397008            6 
 4580000   0.50995376   -8.1473374    753.66533  0.013712979  0.012393047           15 
 4581000    0.5150792    -8.155188    752.76033  0.013693523  0.012389089            9 
 4582000   0.52378043   -8.1188981    753.76297  0.013708769  0.012385133            5 
 4583000    0.5206226   -8.1223568    752.48855  0.013682605  0.012381179            4 
 4584000   0.51783304   -8.1317737    753.44414  0.013696992  0.012377224            4 
 4585000   0.51131585   -8.1580904    754.90364  0.013720531  0.012373277            8 
 4586000    0.5227385   -8.1378743    753.66518  0.013695035   0.01236933            6 
 4587000   0.51936697   -8.1274859     754.2847  0.013703305  0.012365383            5 
 4588000   0.51729069   -8.1378231    753.93461  0.013693959  0.012361439            5 
 4589000   0.52767491   -8.1464666    752.81902  0.013670717  0.012357494            5 
 4590000   0.51545426    -8.144781    753.08704  0.013672604  0.012353547            6 
 4591000   0.51816824   -8.1368554    752.15934  0.013652787  0.012349605           12 
 4592000   0.50433197   -8.1373565    752.44929  0.013655076  0.012345665            8 
 4593000   0.50606385   -8.1288517    754.32957  0.013686218  0.012341726            5 
 4594000   0.52388695   -8.1371327    754.96028  0.013694679  0.012337789            5 
 4595000   0.50783476   -8.1244365    753.19826  0.013659743  0.012333849            8 
 4596000   0.50644824   -8.1378565    753.50605  0.013662352  0.012329918            9 
 4597000   0.51506716   -8.1368194    753.06979  0.013651472  0.012325982            5 
 4598000   0.51741794   -8.1581833    752.66266  0.013641124  0.012322052            8 
 4599000   0.52287119   -8.1384315    753.01114  0.013644472  0.012318122            6 
 4600000   0.51674788   -8.1542564    753.58589  0.013651918  0.012314195            5 
 4601000   0.51351102    -8.140723    753.94074  0.013655378  0.012310267            5 
 4602000   0.51808206   -8.1449273    754.14159  0.013656048  0.012306343            8 
 4603000   0.50739903   -8.1272709    753.80246  0.013646941  0.012302418            6 
 4604000   0.52189643   -8.1426749      753.097  0.013631208  0.012298494            6 
 4605000   0.50919734   -8.1403917    752.89758   0.01362464  0.012294571            6 
 4606000   0.51025697    -8.144004    753.18381   0.01362686  0.012290653            3 
 4607000   0.53242624   -8.1440333    753.38955  0.013627624  0.012286734            6 
 4608000   0.52798905   -8.1456221    753.22295  0.013621653  0.012282816            7 
 4609000   0.51639936   -8.1522835    753.10198  0.013616511  0.012278901           10 
 4610000   0.50639888   -8.1437679    753.83838  0.013626869  0.012274988            8 
 4611000   0.51739526   -8.1515693    752.34615  0.013596945  0.012271073           10 
 4612000   0.51662372   -8.1544975    753.44613  0.013613872  0.012267157           10 
 4613000   0.51140154    -8.148132    753.81001  0.013617494  0.012263246            9 
 4614000   0.51258487   -8.1315174    753.83979  0.013615081  0.012259336           11 
 4615000   0.50924703   -8.1441327    753.81195  0.013611628  0.012255426            8 
 4616000   0.51976719   -8.1591473    752.68785  0.013588386  0.012251515            7 
 4617000   0.51426171   -8.1492011    753.93085  0.013607878  0.012247609            5 
 4618000   0.50936283   -8.1461485    753.26525   0.01359292  0.012243703            5 
 4619000   0.51037798   -8.1349746    753.04824  0.013586062    0.0122398            9 
 4620000   0.51314589   -8.1482984    753.65551  0.013594075  0.012235897           13 
 4621000   0.51809552   -8.1527364     755.0712  0.013616663  0.012231994           11 
 4622000    0.5184646   -8.1403589    753.44158  0.013584335  0.012228097            6 
 4623000   0.50802866   -8.1387985    752.83791  0.013570515  0.012224202            9 
 4624000   0.50478017   -8.1738678    752.46935  0.013560938  0.012220307           13 
 4625000   0.50890815   -8.1411364    754.68213  0.013597876  0.012216413            9 
 4626000   0.51502209   -8.1577566    753.68976   0.01357706  0.012212517           11 
 4627000    0.5209537   -8.1433069     752.0407  0.013544426  0.012208628            9 
 4628000    0.5165189    -8.133052    753.33609  0.013564824  0.012204738            9 
 4629000   0.50773046   -8.1601832    754.13197  0.013576222  0.012200849            8 
 4630000   0.51993591   -8.1554681    753.10434  0.013554794  0.012196964            9 
 4631000   0.50426061   -8.1524043    754.90007   0.01358418  0.012193078            9 
 4632000   0.51572458   -8.1432288    753.14658  0.013549701  0.012189198            9 
 4633000   0.50897801    -8.132262    752.85975  0.013541617  0.012185321            8 
 4634000      0.51004   -8.1438068    753.83766  0.013556281  0.012181442           10 
 4635000   0.51460496   -8.1454295    752.68667  0.013532662  0.012177563            4 
 4636000   0.51387686   -8.1480135    753.36862  0.013542001  0.012173682            5 
 4637000   0.51613892   -8.1362415    753.85802  0.013547876  0.012169808           10 
 4638000   0.50884768   -8.1459581    753.43121  0.013537286  0.012165938           12 
 4639000    0.5055816   -8.1565678    753.11967  0.013528772  0.012162064            7 
 4640000   0.51032309   -8.1577894    754.78404  0.013555748  0.012158196            8 
 4641000   0.51304983   -8.1565686    752.66251  0.013514733  0.012154327            9 
 4642000   0.50439613   -8.1405154    753.84879  0.013533118  0.012150463           16 
 4643000   0.51001196   -8.1439367    754.09086  0.013534548  0.012146601            6 
 4644000   0.52131165   -8.1475156    753.36427  0.013518595   0.01214274           11 
 4645000   0.51228705   -8.1515468    753.46254  0.013517448   0.01213888           10 
 4646000   0.50894991    -8.141997    752.85863  0.013503706  0.012135023            9 
 4647000   0.50895531   -8.1527408    753.64576  0.013514916  0.012131165           11 
 4648000   0.50429353   -8.1274023    752.99802  0.013500395   0.01212731            9 
 4649000   0.50202977   -8.1433165    752.76383  0.013493293  0.012123454            9 
 4650000   0.51448044   -8.1524263    754.05427  0.013513517  0.012119599           12 
 4651000   0.51187696   -8.1521448    752.26494  0.013478552  0.012115743           11 
 4652000   0.51159115   -8.1497715    753.69747  0.013501316   0.01211189            8 
 4653000   0.50751223   -8.1550131    753.06893  0.013487158   0.01210804            9 
 4654000   0.50906615   -8.1386638    752.49409  0.013473967  0.012104186           11 
 4655000   0.49912356    -8.146291    753.96587   0.01349742  0.012100335           12 
 4656000   0.50899095   -8.1497707    753.06686   0.01347843  0.012096491            8 
 4657000   0.52869379   -8.1450977    753.48978  0.013483104  0.012092652            8 
 4658000   0.49413788   -8.1576355    753.30476  0.013476899  0.012088808            9 
 4659000   0.51220939   -8.1445099    752.15139  0.013453377  0.012084968            8 
 4660000   0.50142323    -8.132616    753.32262  0.013471435  0.012081123            8 
 4661000    0.4937872   -8.1621204    752.78788  0.013458984  0.012077282            8 
 4662000     0.509656   -8.1568773    752.95121  0.013459016   0.01207344            8 
 4663000   0.49282508   -8.1542539    753.00541  0.013457099  0.012069601           11 
 4664000   0.49850602   -8.1576887    753.47941  0.013462682  0.012065762           10 
 4665000   0.50990428   -8.1595586    752.63852  0.013444775  0.012061924            9 
 4666000   0.49394335   -8.1489492    752.19816  0.013434029  0.012058088           10 
 4667000   0.50048907   -8.1578584    752.12239  0.013429798  0.012054253            7 
 4668000   0.51480561   -8.1583715    752.86485  0.013440175  0.012050423            7 
 4669000   0.51317195   -8.1512749    753.71352  0.013452444   0.01204659            6 
 4670000   0.49650412    -8.157771     753.8966   0.01345283  0.012042764           13 
 4671000   0.49804804   -8.1617778    753.55057  0.013443777  0.012038937            9 
 4672000   0.50098799   -8.1632455    753.52176  0.013440385  0.012035112           11 
 4673000    0.5081989   -8.1636126    753.75603  0.013441687  0.012031294            8 
 4674000   0.50732808   -8.1433556    753.41769  0.013432779  0.012027476            7 
 4675000   0.51884262   -8.1560081    752.84602  0.013419715   0.01202366            7 
 4676000   0.50351906   -8.1597844    753.69179  0.013431918  0.012019842            6 
 4677000   0.50831678   -8.1666024    753.02013  0.013417079   0.01201603            8 
 4678000   0.51447094   -8.1555631    753.29516   0.01341911   0.01201222            9 
 4679000   0.50854829   -8.1547945    753.82168  0.013425619  0.012008406           12 
 4680000   0.49520015   -8.1683551    753.93704  0.013424805  0.012004592            9 
 4681000   0.49547383   -8.1562771    753.36787  0.013411804  0.012000781           15 
 4682000   0.50776262   -8.1561996    751.90831  0.013382961   0.01199697            9 
 4683000   0.49703723   -8.1508919    753.61841  0.013410535  0.011993163           16 
 4684000   0.50418879   -8.1449315    754.22882  0.013418531  0.011989359           16 
 4685000   0.51148886   -8.1544465     752.5942  0.013386592  0.011985553            6 
 4686000   0.49352724   -8.1506757    752.48344  0.013381766  0.011981748           10 
 4687000   0.51175793    -8.155897    753.07718  0.013389467  0.011977944            6 
 4688000   0.49883098   -8.1732961    752.77734  0.013381281  0.011974143            8 
 4689000   0.50908843   -8.1543492     752.8713  0.013380097  0.011970341            8 
 4690000   0.50040966   -8.1552224    753.33715  0.013385521  0.011966544           13 
 4691000    0.5013307    -8.142487    751.62173  0.013352194  0.011962748           15 
 4692000   0.51089916   -8.1480839    752.33212  0.013361966  0.011958955            5 
 4693000   0.49575951   -8.1751209    752.71781  0.013365967  0.011955161           10 
 4694000   0.50627935   -8.1576868    753.85079  0.013383234  0.011951367           12 
 4695000   0.49120974   -8.1565537    753.18499  0.013368566  0.011947574            9 
 4696000   0.50408774   -8.1679097    751.66904  0.013338817  0.011943783            6 
 4697000   0.50470996   -8.2041293    752.87941  0.013357452  0.011939991           10 
 4698000   0.50793159   -8.1435781    753.27078  0.013361551  0.011936202            7 
 4699000   0.49736249   -8.1742936    753.30804  0.013359368   0.01193242            9 
 4700000   0.49751013   -8.1546179    753.23013  0.013355144  0.011928637            9 
 4701000    0.4908027   -8.1722404    754.70068  0.013378371  0.011924859           12 
 4702000   0.50050813   -8.1747947    753.83954  0.013360264  0.011921078           11 
 4703000   0.49264634   -8.1672744    754.50702   0.01336925  0.011917299           11 
 4704000   0.50467609    -8.165803    752.09531  0.013323684  0.011913523           10 
 4705000   0.49702346   -8.1566143    753.24464  0.013341209  0.011909747            9 
 4706000   0.49167345   -8.1511607    752.65302  0.013327897  0.011905971           16 
 4707000   0.49489339   -8.1694299    752.32522  0.013319263  0.011902194            9 
 4708000   0.50311519   -8.1626282     752.4603  0.013318824  0.011898418           10 
 4709000   0.50004752   -8.1640393    753.23511  0.013329707  0.011894643            9 
 4710000   0.48953919    -8.176385    754.02185  0.013340797  0.011890873           11 
 4711000    0.4910677   -8.1896415    753.64965  0.013331381  0.011887103            8 
 4712000   0.49975827   -8.1828388    752.86266  0.013314634  0.011883336           13 
 4713000   0.49924253   -8.1737001    753.32173  0.013319926  0.011879572           11 
 4714000   0.49335634   -8.1472305    754.72775  0.013341956  0.011875807            8 
 4715000   0.50033207   -8.1648547    752.64489  0.013302313  0.011872047           11 
 4716000   0.49734261   -8.1574232    752.44886  0.013296029  0.011868285            6 
 4717000    0.4941639   -8.1779793    753.32899  0.013308759  0.011864528           10 
 4718000   0.50629488   -8.1639255     753.4247  0.013307629   0.01186077            8 
 4719000   0.49257957   -8.1589722    753.75282  0.013310603  0.011857013            6 
 4720000   0.49997341   -8.1721937    753.01626  0.013294779   0.01185326            7 
 4721000   0.49825411   -8.1670138    753.45728  0.013299747  0.011849508           12 
 4722000   0.50073636   -8.1758415     751.5138  0.013262632  0.011845754           10 
 4723000   0.50945315   -8.1697113     752.9992  0.013286033  0.011842003           10 
 4724000   0.50400856   -8.1640486    752.88817  0.013281262  0.011838254            7 
 4725000   0.49356571   -8.1726322     752.3721  0.013269349  0.011834505           10 
 4726000   0.49984231   -8.1718168    752.26655   0.01326468  0.011830758            8 
 4727000   0.48910326   -8.1585513    751.93766  0.013256076  0.011827014            6 
 4728000   0.49242754   -8.1802694     752.7639  0.013267835   0.01182327            7 
 4729000   0.50109352    -8.169338    752.85676  0.013266666  0.011819529           13 
 4730000   0.50132643   -8.1726116    751.59707  0.013241668  0.011815785            7 
 4731000   0.48733996   -8.1687842    751.89531  0.013244122  0.011812044           10 
 4732000   0.50298889    -8.164365    752.50713  0.013252098  0.011808306           10 
 4733000   0.49070082   -8.1966457    753.26841  0.013262702  0.011804568            6 
 4734000   0.49285592   -8.1530058     752.5393  0.013247066   0.01180083            6 
 4735000   0.49251136   -8.1522871    753.38878  0.013259218    0.0117971           12 
 4736000   0.49067647   -8.1680485    751.78414  0.013228184   0.01179337            6 
 4737000   0.49369414   -8.1697377     752.7419   0.01324224  0.011789642            9 
 4738000   0.49061917   -8.1624214    753.62274  0.013254938  0.011785911            7 
 4739000   0.49442646    -8.159662    752.26103  0.013228196  0.011782183           11 
 4740000   0.48926848   -8.1665302    752.85007  0.013235761  0.011778457            6 
 4741000   0.49944653   -8.1672467    752.38372  0.013224772  0.011774732           11 
 4742000   0.49781815   -8.1795305    752.04945  0.013216109  0.011771006            9 
 4743000   0.48538512   -8.1713892    753.54689  0.013239632  0.011767285           14 
 4744000   0.50254919   -8.1584413    752.04326  0.013210428  0.011763563            6 
 4745000   0.49186251   -8.1718607    752.84633  0.013221748  0.011759842           11 
 4746000    0.4950687    -8.181544    753.58657   0.01323196  0.011756121            6 
 4747000   0.48967324   -8.1816061    752.87926  0.013216756  0.011752406           11 
 4748000   0.49681718    -8.168141    751.90961  0.013196953  0.011748688            6 
 4749000   0.49486025   -8.1744621      752.433  0.013203359  0.011744973            8 
 4750000   0.48939007   -8.1718794    752.61059  0.013203694   0.01174126            7 
 4751000   0.49453479    -8.179657    752.69533  0.013202402  0.011737547            6 
 4752000   0.50082123   -8.1763506    752.04992  0.013188305  0.011733837            6 
 4753000   0.48073882   -8.2001013    753.20956  0.013205862  0.011730127            6 
 4754000   0.49629514   -8.1978753    753.19147  0.013202767  0.011726418            8 
 4755000   0.49354188   -8.1701086    751.95906  0.013178392  0.011722712           11 
 4756000   0.50457175   -8.1805462    752.33903  0.013182279  0.011719003           11 
 4757000   0.48540253   -8.1659362    753.03111  0.013191632  0.011715297           12 
 4758000   0.49074358   -8.1917472    753.25237  0.013192735  0.011711594            5 
 4759000   0.48114379   -8.1664758    751.85899  0.013165563  0.011707892           13 
 4760000   0.48673202   -8.1937354    751.93292  0.013164092   0.01170419            4 
 4761000   0.47505354   -8.1745748     752.1626  0.013165347  0.011700487            6 
 4762000   0.49512762   -8.1693415    753.20232  0.013180777  0.011696787           10 
 4763000   0.48958105   -8.1689778    752.33537  0.013162841  0.011693089            6 
 4764000   0.48141837   -8.1695648    752.95107  0.013170849  0.011689392           20 
 4765000   0.47636883   -8.1633716    752.21321   0.01315518  0.011685694            7 
 4766000   0.48785031   -8.1756723    751.97473   0.01314825  0.011682001            5 
 4767000   0.48693656   -8.1879061    752.31502  0.013151441  0.011678307            7 
 4768000   0.49782591    -8.184506    753.09379  0.013162294  0.011674615            9 
 4769000   0.48828085   -8.1831692    752.59391  0.013150799  0.011670923            9 
 4770000   0.48212671   -8.1736437    753.09032  0.013156714  0.011667232           11 
 4771000   0.48381602   -8.1745568    753.05879  0.013153406  0.011663542            8 
 4772000   0.48894792   -8.1742363    752.10591  0.013134009  0.011659854            9 
 4773000   0.49991204   -8.1741538    752.22452  0.013133328  0.011656171           10 
 4774000   0.48801265   -8.1731109    751.92782  0.013125398   0.01165249            7 
 4775000   0.48823586   -8.1909273    751.53221  0.013115745  0.011648805            8 
 4776000   0.48480995   -8.1931982    753.13069   0.01314089  0.011645122            6 
 4777000   0.49106979   -8.1814052     752.3855   0.01312514  0.011641443           11 
 4778000   0.48334687   -8.1789502    752.70941  0.013128042  0.011637761            7 
 4779000   0.49423922   -8.1960784    752.50935  0.013121806  0.011634085           10 
 4780000   0.49105233   -8.1956624     753.3025  0.013132889   0.01163041           22 
 4781000     0.486902   -8.1766466    753.07105  0.013126108  0.011626737           18 
 4782000   0.48904906   -8.1764154     751.1759  0.013090337  0.011623065           13 
 4783000   0.48804484   -8.1820603    751.77183  0.013097983  0.011619394           11 
 4784000   0.48504626   -8.1852754    752.69226  0.013111278  0.011615722           11 
 4785000   0.49289945   -8.1764205    751.68211  0.013090946  0.011612053           13 
 4786000   0.48741216   -8.1628343    752.62072  0.013104554  0.011608389           11 
 4787000   0.48545849   -8.1757598    752.34376  0.013096995  0.011604721           22 
 4788000   0.48566294    -8.188107    751.74331  0.013083809  0.011601055            8 
 4789000   0.49081136   -8.1879316    751.75101  0.013081211  0.011597388           12 
 4790000   0.49802732   -8.1846201    752.16156  0.013085622  0.011593726            9 
 4791000   0.48047075   -8.1958818    751.61937   0.01307346  0.011590067           14 
 4792000   0.48377884   -8.1798407    752.34258  0.013083309  0.011586408            9 
 4793000   0.48450853   -8.1867425    751.32681  0.013062918  0.011582749           10 
 4794000   0.49155068   -8.1950984    752.59528  0.013082243  0.011579088            7 
 4795000   0.48859905    -8.180362    751.09223  0.013053393  0.011575431           14 
 4796000    0.4905305   -8.1812557    752.14725  0.013069003  0.011571779           17 
 4797000   0.47646758   -8.1825331    752.11913   0.01306579  0.011568125           12 
 4798000   0.48887703   -8.1908123    752.13954  0.013063421  0.011564474           11 
 4799000   0.48936281   -8.1771787    751.22816  0.013044873  0.011560825           12 
 4800000    0.4834004   -8.1879093     751.6499  0.013049477  0.011557181            8 
 4801000   0.48526226   -8.1944166     751.5474   0.01304498  0.011553533           12 
 4802000   0.48625363   -8.1935492    751.42414  0.013040125  0.011549891           12 
 4803000   0.48186769   -8.1911056    752.65061  0.013058689  0.011546248           11 
 4804000    0.4760446   -8.2001965    752.36394  0.013050998  0.011542609            9 
 4805000   0.47699251   -8.1970031    750.91758  0.013023198  0.011538964           12 
 4806000   0.47714727   -8.1957251    751.74395  0.013034817  0.011535325           19 
 4807000   0.48423154   -8.1922047    751.45984   0.01302718  0.011531686           13 
 4808000   0.48411928   -8.1951211     751.1005  0.013018242  0.011528047           12 
 4809000   0.48752894   -8.1879454    752.85368  0.013045915  0.011524412           11 
 4810000   0.48371947   -8.1928895    750.54249  0.013003162  0.011520777            7 
 4811000   0.48002044   -8.1917908    752.10083  0.013027452  0.011517143           13 
 4812000   0.49301406   -8.1959594    751.03373  0.013006264  0.011513512           22 
 4813000     0.478169   -8.2005896    752.14068  0.013022728   0.01150988            9 
 4814000   0.47519907   -8.2086409    752.26067    0.0130221  0.011506251           12 
 4815000   0.47873669   -8.1901914    752.48286  0.013023241   0.01150262            9 
 4816000   0.47869821   -8.2051348    751.63726  0.013005905  0.011498993            6 
 4817000   0.48680277   -8.1851317    751.75642  0.013005266  0.011495368           15 
 4818000   0.47251401   -8.1962747    751.70575  0.013001691  0.011491748           12 
 4819000   0.46907959   -8.1977585    752.70031  0.013016191  0.011488124           15 
 4820000   0.47556269   -8.2023078    751.86414  0.012999034  0.011484501            9 
 4821000   0.48215023   -8.1779373    752.54117  0.013008041  0.011480883           11 
 4822000   0.47975732   -8.1853974    752.37112  0.013002404  0.011477264            8 
 4823000   0.48834723   -8.1797146    752.08115  0.012994698   0.01147365           10 
 4824000   0.47641412   -8.1978052    752.38427  0.012997241  0.011470034           10 
 4825000   0.47495022   -8.2026889    752.23682     0.012992   0.01146642            9 
 4826000    0.4787933    -8.187552    751.29326  0.012973015  0.011462809            9 
 4827000   0.48085132   -8.2020102    751.49398  0.012973793  0.011459195           15 
 4828000   0.47630231   -8.1895558    752.07977  0.012981217  0.011455585           15 
 4829000   0.48851321   -8.1874019    751.68657  0.012971743  0.011451977           13 
 4830000   0.49525655   -8.1801402    752.84755  0.012989088  0.011448372           12 
 4831000    0.4768882   -8.2172836    752.24256  0.012975964  0.011444765            9 
 4832000   0.48098758    -8.178329    751.88568  0.012967123   0.01144116           11 
 4833000   0.48322427   -8.1911968    752.53777  0.012975684  0.011437559           10 
 4834000   0.47686517    -8.205135    749.91124  0.012927721  0.011433954           19 
 4835000   0.48263276    -8.199262    752.08648  0.012962538  0.011430351           11 
 4836000   0.47907098   -8.2100448    750.30393  0.012929141  0.011426748           15 
 4837000   0.47999163   -8.2000169    751.58221  0.012948491  0.011423145           11 
 4838000   0.48094953   -8.2007954    751.27027  0.012940441  0.011419548           17 
 4839000   0.49106889    -8.193711    752.46455  0.012958334  0.011415949           12 
 4840000   0.48227313   -8.2037194    751.18909  0.012933696  0.011412352           14 
 4841000   0.47571725   -8.2079385    751.10217  0.012929528  0.011408759           16 
 4842000   0.49384104   -8.2000848    752.13848  0.012944694  0.011405168           12 
 4843000   0.48175821     -8.21055    753.14761  0.012959385  0.011401578            7 
 4844000   0.46954615   -8.2097946    751.29874  0.012924903  0.011397987           10 
 4845000   0.47681954   -8.2109263    751.88873  0.012932383  0.011394399            8 
 4846000    0.4660175   -8.1962893    752.70475  0.012943747  0.011390814           12 
 4847000   0.47677746   -8.2053152    752.45006  0.012936697  0.011387228           16 
 4848000   0.47598055    -8.203419    752.30042  0.012931457  0.011383645           11 
 4849000   0.47612984   -8.2077201    752.93292   0.01293966  0.011380063            8 
 4850000   0.47065811   -8.2157156    752.29107  0.012925963   0.01137648            9 
 4851000   0.48193546   -8.1845067    751.57014  0.012910914    0.0113729           22 
 4852000   0.47188225   -8.2054215    752.23367  0.012919649  0.011369323           12 
 4853000   0.47042839   -8.1912947    752.72497  0.012925424  0.011365745           11 
 4854000   0.48799129    -8.207591    751.84492  0.012907652   0.01136217           12 
 4855000   0.46972309   -8.1983404    751.08754  0.012891993  0.011358593           10 
 4856000   0.47053352   -8.1896438    750.80993  0.012884575  0.011355022            9 
 4857000   0.48386149   -8.1941043    751.22801  0.012889095   0.01135145            9 
 4858000   0.47078642   -8.1901729    750.85582  0.012880057  0.011347882           10 
 4859000   0.47664986   -8.1880481    750.55427  0.012872235  0.011344311           11 
 4860000   0.47393659   -8.2182721    751.32022   0.01288272  0.011340744           10 
 4861000   0.47430667   -8.2010046    750.66016  0.012868754  0.011337176            9 
 4862000   0.47440186    -8.214525    751.89047  0.012887194  0.011333609            7 
 4863000    0.4812492   -8.2036385    750.74222  0.012864868  0.011330041           15 
 4864000   0.46091928   -8.2148527    750.43497  0.012856959  0.011326476           14 
 4865000   0.47199558   -8.1990189    752.26233  0.012885617   0.01132291            6 
 4866000   0.46924673   -8.1994434    751.39646   0.01286814  0.011319351           15 
 4867000   0.47045835   -8.2080841    751.69298  0.012870574  0.011315794           16 
 4868000   0.47571299   -8.2192539    751.10742  0.012857906  0.011312231           17 
 4869000   0.47413938   -8.2080836    751.59432  0.012863598  0.011308672           13 
 4870000   0.47373618   -8.2012765    750.69425  0.012845555  0.011305115           13 
 4871000   0.47930682   -8.1959821    750.74602  0.012843804  0.011301557            8 
 4872000   0.46517507   -8.2119553    751.35644  0.012851608  0.011298003           10 
 4873000   0.47131776   -8.2037104    750.61708  0.012836327  0.011294451            9 
 4874000   0.47010682   -8.2297046     751.1027  0.012841997    0.0112909           19 
 4875000   0.46741439   -8.2178119    750.74631   0.01283327  0.011287345            7 
 4876000   0.47328393   -8.2165689     751.1613  0.012837731  0.011283793            7 
 4877000    0.4825786   -8.2116453    751.12509   0.01283448  0.011280247           14 
 4878000   0.47460149   -8.2127826    752.66611  0.012858175    0.0112767            9 
 4879000   0.47996944   -8.2086406    751.04647  0.012827876  0.011273155           15 
 4880000    0.4765296   -8.2037729    750.43378  0.012814784  0.011269614            8 
 4881000   0.46563128   -8.2044044    751.13319    0.0128241  0.011266071           14 
 4882000   0.46325023   -8.2051977    751.16916  0.012822087  0.011262532           10 
 4883000   0.47096254   -8.2165809    751.17516  0.012819564   0.01125899            7 
 4884000   0.47193897   -8.2083897     750.3478  0.012802822  0.011255451            9 
 4885000   0.47559548    -8.224009    751.22792  0.012815215  0.011251914           10 
 4886000   0.46790695   -8.2121581    751.27008  0.012813311  0.011248379           11 
 4887000    0.4706735   -8.2182269    750.42199  0.012796228  0.011244846            7 
 4888000   0.47199846   -8.2159577    750.45997  0.012794258  0.011241314            8 
 4889000   0.47766203   -8.2081282    751.08548  0.012802302  0.011237783            9 
 4890000   0.47117677   -8.2100949    751.96677  0.012814703  0.011234255           19 
 4891000    0.4683324   -8.2098574    750.35353  0.012784596  0.011230726            9 
 4892000   0.46331825   -8.2209148    750.53097  0.012785006    0.0112272           11 
 4893000   0.46470341   -8.2224548    751.46768  0.012798346  0.011223676           14 
 4894000   0.47296012   -8.2195813    751.63989  0.012798663   0.01122015           15 
 4895000   0.46034851   -8.2029129    751.23709  0.012789191  0.011216626           15 
 4896000   0.46993032   -8.2095897    751.86979  0.012797348  0.011213104           11 
 4897000   0.45757943   -8.2239047    751.97056   0.01279645  0.011209584           18 
 4898000   0.46104674   -8.2139066    750.37395  0.012766673  0.011206064           20 
 4899000   0.48186964    -8.229892    751.36413   0.01278091  0.011202547           11 
 4900000   0.47577622   -8.2183862     751.8417  0.012786423   0.01119903            8 
 4901000   0.47034876   -8.2113424    750.61723  0.012762994  0.011195516            9 
 4902000    0.4810241   -8.2312138    751.56545  0.012776511  0.011192003           13 
 4903000   0.46739509   -8.2054407      750.081  0.012748674  0.011188492           17 
 4904000   0.47057854    -8.230534    751.06139  0.012762734  0.011184982           10 
 4905000   0.47696507   -8.2342997    751.72553  0.012771416  0.011181471           20 
 4906000     0.454433   -8.2177537    750.74923  0.012752229  0.011177964           12 
 4907000   0.46796411   -8.2131303     750.1114  0.012738798  0.011174456           13 
 4908000   0.45825679   -8.2148324    749.91762  0.012732913  0.011170948            9 
 4909000   0.46563148   -8.2216258    751.74472  0.012761335  0.011167441           11 
 4910000    0.4630112   -8.2161803    751.30169  0.012751217  0.011163936           10 
 4911000   0.46943955   -8.2227236    751.45404  0.012751205  0.011160434           12 
 4912000   0.46748234    -8.200975    750.93991  0.012739887  0.011156934           10 
 4913000   0.46066081    -8.213572    749.63647  0.012715185  0.011153432           12 
 4914000   0.46666473   -8.2272436    751.51055  0.012744379  0.011149932           17 
 4915000   0.46828813    -8.219118    750.98283  0.012732839  0.011146435            9 
 4916000   0.45728492   -8.2084562    750.74869   0.01272628  0.011142938           11 
 4917000   0.46594519   -8.2229875    751.42938  0.012735228  0.011139445           11 
 4918000   0.46809426   -8.2238615     750.8645  0.012723067  0.011135951           12 
 4919000   0.46773151   -8.2233113    750.43311  0.012713172  0.011132458           12 
 4920000   0.46481255   -8.2273188    751.30215  0.012725307  0.011128965           11 
 4921000   0.46377434    -8.214819    750.67046  0.012712024  0.011125475           13 
 4922000   0.45999607   -8.2264712    751.66272  0.012726241  0.011121987           14 
 4923000   0.46618504   -8.2181365    749.85583   0.01269307  0.011118497            9 
 4924000   0.46399926   -8.2054613    750.53573  0.012701999   0.01111501           11 
 4925000   0.46720102   -8.2077262    750.69862  0.012702176  0.011111523           16 
 4926000   0.46057938   -8.2136864    750.45519   0.01269548  0.011108039           16 
 4927000   0.47048917   -8.2305013    750.56487  0.012694758  0.011104557           16 
 4928000   0.47188146   -8.2300385    751.41265  0.012706518  0.011101076           13 
 4929000   0.46393127   -8.2242138    750.39655  0.012686761  0.011097595            9 
 4930000   0.45368654   -8.2277542     750.0468  0.012678276  0.011094117            9 
 4931000   0.45746313   -8.2182596    750.49263  0.012683239  0.011090639           12 
 4932000   0.46573425     -8.23623    750.77185  0.012685385  0.011087166           22 
 4933000   0.46506295   -8.2093161    749.79938  0.012666386  0.011083691            9 
 4934000   0.46844607   -8.2140148    750.50251  0.012675694  0.011080219           12 
 4935000    0.4417684   -8.2379523    750.58452  0.012674511  0.011076749            9 
 4936000   0.44778127   -8.2151598    749.40711  0.012652065  0.011073278           11 
 4937000   0.44997436   -8.2188868    749.22455  0.012646421  0.011069808           16 
 4938000   0.45615001   -8.2283918    750.77214  0.012669977  0.011066341           16 
 4939000   0.46007502   -8.2357399     751.4953  0.012679613  0.011062875           13 
 4940000   0.45878769    -8.221309    749.35289  0.012640906   0.01105941            9 
 4941000   0.46440668    -8.230441    752.10663  0.012684791  0.011055945           12 
 4942000   0.46920395   -8.2235848    751.46465  0.012671399  0.011052483           11 
 4943000   0.46197296   -8.2193038    750.71544  0.012656205  0.011049023           12 
 4944000   0.45985539   -8.2338519    750.53234  0.012650559  0.011045563           10 
 4945000   0.46107047   -8.2278271     751.2347  0.012659837  0.011042104           21 
 4946000   0.45429371   -8.2308379    750.71901  0.012648588  0.011038648           17 
 4947000   0.45625192   -8.2263118    751.48658  0.012658961   0.01103519           16 
 4948000   0.45842351   -8.2503659    750.32172  0.012636785  0.011031735           14 
 4949000   0.45454467   -8.2300162      750.822  0.012642655  0.011028281           11 
 4950000   0.45662745   -8.2291235    749.61169  0.012619725  0.011024831            7 
 4951000   0.46861623   -8.2277356    750.37487  0.012630022   0.01102138           11 
 4952000   0.45920901   -8.2354313    749.77519   0.01261738  0.011017928           21 
 4953000   0.46207588   -8.2396987    750.68656  0.012630166   0.01101448           18 
 4954000   0.46918619   -8.2152242    750.95813  0.012632185  0.011011031           12 
 4955000   0.45393948   -8.2265162    750.80173  0.012627005  0.011007584           10 
 4956000   0.44945057   -8.2193447    750.87655  0.012625715   0.01100414           12 
 4957000   0.44658569    -8.232847    749.84416  0.012605813  0.011000694            6 
 4958000    0.4643625   -8.2241249    749.89781  0.012604172   0.01099725            7 
 4959000   0.45345297   -8.2203202    750.75361  0.012616011  0.010993806           14 
 4960000   0.44964431   -8.2211867    750.07855  0.012602126  0.010990365            8 
 4961000   0.45574295   -8.2226176     750.0933  0.012599834  0.010986926           17 
 4962000    0.4605155   -8.2219649    750.49193  0.012603989  0.010983484           13 
 4963000   0.45400917   -8.2312225    749.57939  0.012586127  0.010980047           10 
 4964000   0.46052659   -8.2340366    750.81149  0.012604276  0.010976614           10 
 4965000   0.45438303   -8.2335474    750.27196  0.012592681  0.010973177            7 
 4966000   0.45854776   -8.2456109    750.60146  0.012595675  0.010969746            9 
 4967000   0.45166186   -8.2288869    750.33475  0.012588664  0.010966316            6 
 4968000   0.45741022   -8.2322012    750.09038  0.012582031  0.010962888           16 
 4969000   0.45919641   -8.2308463    750.05153  0.012578848  0.010959459            9 
 4970000    0.4552512   -8.2285929    750.94502  0.012591298  0.010956034           15 
 4971000   0.46247812    -8.220256    749.36928   0.01256235  0.010952608            8 
 4972000   0.46144839   -8.2195057    751.04274  0.012587871  0.010949183            9 
 4973000   0.45027893   -8.2416784    750.11586  0.012569808  0.010945757           11 
 4974000   0.45315922   -8.2457853    750.52151  0.012574077  0.010942335            7 
 4975000   0.44718501   -8.2198272    750.67565  0.012574131  0.010938914            6 
 4976000   0.46238417    -8.244998    750.09353  0.012561856  0.010935493            6 
 4977000   0.45445997   -8.2287136    749.53331  0.012549952  0.010932073            8 
 4978000   0.47114139   -8.2310137    749.85923  0.012552887  0.010928656            7 
 4979000   0.44875793   -8.2348385    749.76641  0.012548812  0.010925241           11 
 4980000   0.45745186   -8.2312375      749.969  0.012549682  0.010921828           12 
 4981000   0.46048486   -8.2349737    750.95229  0.012563613  0.010918417           10 
 4982000   0.45133409   -8.2402088    750.77389  0.012558107  0.010915005           17 
 4983000   0.44573337   -8.2189893    749.66425   0.01253703  0.010911592           15 
 4984000   0.44291301    -8.228354    750.17547  0.012543062  0.010908183           15 
 4985000   0.46136416    -8.232938    750.46871  0.012545448  0.010904777           12 
 4986000   0.46033373   -8.2300593    750.16951  0.012537931  0.010901369           17 
 4987000   0.44671687    -8.234233    750.44197   0.01253997  0.010897964           10 
 4988000   0.45971393   -8.2602777    750.38785  0.012536552  0.010894559            5 
 4989000   0.46114283   -8.2273891    749.73776   0.01252318  0.010891155            8 
 4990000   0.45364862   -8.2233529    749.55671  0.012517647  0.010887753           12 
 4991000   0.45338707   -8.2572504    750.35169  0.012528413   0.01088435           11 
 4992000   0.45347045   -8.2309389    750.52666  0.012528824   0.01088095            6 
 4993000   0.44137007   -8.2491113    750.28257  0.012522241  0.010877551           10 
 4994000   0.45477876   -8.2454863    750.99287  0.012531586  0.010874153            7 
 4995000   0.45198061   -8.2336136    750.55053  0.012521697  0.010870754           14 
 4996000   0.45180996   -8.2420013    749.41576  0.012500263   0.01086736           12 
 4997000    0.4462319   -8.2404099     750.3834  0.012513898  0.010863967           28 
 4998000   0.44817273   -8.2315701    750.18642   0.01250811  0.010860573            9 
 4999000    0.4502802   -8.2347502    749.98364  0.012502228  0.010857183           11 
 5000000   0.46811978   -8.2343446    749.16054  0.012486009  0.010853794           16 
 5001000   0.44291181   -8.2510751    749.87157   0.01249536  0.010850407           17 
 5002000   0.45333154   -8.2570587    749.40828  0.012485144  0.010847021            8 
 5003000   0.46103919   -8.2428518    750.67677  0.012503777  0.010843636           14 
 5004000   0.44851008   -8.2556883    749.68285  0.012484726  0.010840251           13 
 5005000    0.4525392   -8.2408163    750.07222  0.012488715  0.010836868            8 
 5006000   0.45155369   -8.2506355    749.89715  0.012483306  0.010833487           11 
 5007000   0.45300006   -8.2501077    750.49943  0.012490837  0.010830106           12 
 5008000   0.44851206   -8.2568312    750.67893  0.012491329  0.010826727           12 
 5009000    0.4426621   -8.2308677    750.36263  0.012483573   0.01082335           14 
 5010000   0.44469203    -8.234762     749.7206  0.012470402  0.010819972           14 
 5011000   0.45097506   -8.2392008    749.94187  0.012471594  0.010816597           16 
 5012000   0.45897528   -8.2507976    749.53675  0.012462369  0.010813226           17 
Loop time of 11412.9 on 48 procs for 5000000 steps with 4000 atoms

Performance: 75704.129 tau/day, 438.103 timesteps/s
99.4% CPU use with 48 MPI tasks x no OpenMP threads

MPI task timing breakdown:
Section |  min time  |  avg time  |  max time  |%varavg| %total
---------------------------------------------------------------
Pair    | 738.22     | 779.07     | 823.92     |  92.9 |  6.83
Neigh   | 74.261     | 76.527     | 78.552     |  13.6 |  0.67
Comm    | 690.27     | 736.09     | 782.75     | 100.4 |  6.45
Output  | 18.666     | 18.67      | 18.772     |   0.3 |  0.16
Modify  | 9675.8     | 9696.9     | 9714.2     |   9.0 | 84.96
Other   |            | 105.6      |            |       |  0.93

Nlocal:        83.3333 ave          93 max          76 min
Histogram: 2 5 6 5 14 6 4 4 1 1
Nghost:        1937.92 ave        1956 max        1912 min
Histogram: 3 0 2 5 3 12 6 8 4 5
Neighs:        12246.7 ave       13974 max       10153 min
Histogram: 2 0 1 7 13 9 5 5 4 2
FullNghs:      24492.8 ave       27577 max       21888 min
Histogram: 2 1 8 8 10 8 6 3 1 1

Total # of neighbors = 1175654
Ave neighs/atom = 293.91350
Neighbor list builds = 268630
Dangerous builds = 0

#clear
#
#next RN
#
#jump SELF
Total wall time: 3:10:16
