
units lj                  # Use reduced LJ style units
atom_style atomic         # Uncharged point particles
atom_modify map hash      # Needed for indexing of clusters etc
                          # Used to be able to find where atoms are in relation to each other.

lattice fcc 1.0 spacing 1 1 1
Lattice spacing in x,y,z = 1.5874011 1.5874011 1.5874011
region box block 0 10 0 10 0 10 units lattice
create_box 2 box
Created orthogonal box = (0.0000000 0.0000000 0.0000000) to (15.874011 15.874011 15.874011)
  3 by 4 by 4 MPI processor grid
create_atoms 1 box
Created 4000 atoms
  using lattice units in orthogonal box = (0.0000000 0.0000000 0.0000000) to (15.874011 15.874011 15.874011)
  create_atoms CPU = 0.002 seconds
set type 1 type/fraction 2 0.42 78393
Setting atom values ...
  1685 settings made for type/fraction
mass 1 1.0
mass 2 1.0
pair_style lj/cut  3.5
pair_modify tail  yes
pair_coeff 1  1  1.0  1.0   # Intearaction between 1 and 1 set with epsilon = 1 and sigma = 1
pair_coeff 1  2  1.5  0.8
pair_coeff 2  2  0.5  0.88

write_data data.0
System init for write_data ...
Neighbor list info ...
  update every 1 steps, delay 10 steps, check yes
  max neighbors/atom: 2000, page size: 100000
  master list distance cutoff = 3.8
  ghost atom cutoff = 3.8
  binsize = 1.9, bins = 9 9 9
  1 neighbor lists, perpetual/occasional/extra = 1 0 0
  (1) pair lj/cut, perpetual
      attributes: half, newton on
      pair build: half/bin/atomonly/newton
      stencil: half/bin/3d
      bin: standard
WARNING: Not all mixed pair coeffs generated from mixing. Use write_data with 'pair ij' option to store all pair coeffs. (../write_data.cpp:312)


#############################
#   M E L T   S Y S T E M   #
#############################

velocity all create 2.4 1741580 mom yes dist gaussian # Assign velocities
                                                    # Temperature 2.4, random number seed, zero linear momentum
                                                                                # Gaussian distribution

timestep 0.002   # simulation timestep
thermo 1000       # output thermodynamic data every 1000 steps bf 100

# Define a fix  in this case with index 1 applied to all
# particles in the simulation. This fix is for simulations
# in the anisotropic NPT ensemble. Note that we use the MTK
# correction.
fix 1 all npt temp 2.4 2.4 0.1 iso 5.68 5.68 0.5 mtk yes tchain 5 pchain 5 # Use NPT ensemble
                                                                         # Set temperature and pressure and damping
                                                                         # Numbers of thermostats in chain and in barostat
run 10000          # run for 10000 steps
Per MPI rank memory allocation (min/avg/max) = 3.642 | 3.644 | 3.648 Mbytes
Step Temp E_pair E_mol TotEng Press Volume 
       0          2.4   -5.7538232            0   -2.1547232    -4.186528         4000 
    1000    2.3578944   -4.9402074            0     -1.40425    5.4641755    3898.7928 
    2000    2.4497432   -5.0492275            0   -1.3755314    5.5447963    3843.5324 
    3000    2.3886651   -4.9912178            0   -1.4091158    5.5649249    3863.7443 
    4000    2.3289059   -5.0167547            0   -1.5242692    5.7608495    3836.3639 
    5000    2.4181109   -4.9853492            0   -1.3590896     5.615832    3865.6724 
    6000    2.3896895   -5.0460171            0   -1.4623789    5.7850021    3827.4108 
    7000    2.3899895   -5.0330748            0   -1.4489868    5.8508465    3829.9102 
    8000    2.4298518   -5.0544495            0    -1.410583    5.6263219     3842.294 
    9000    2.4368568   -5.0279256            0   -1.3735542    5.8056514    3830.4003 
   10000    2.3708485   -5.0166861            0   -1.4613024    5.5906916    3857.9525 
Loop time of 2.54471 on 48 procs for 10000 steps with 4000 atoms

Performance: 679054.580 tau/day, 3929.714 timesteps/s
99.6% CPU use with 48 MPI tasks x no OpenMP threads

MPI task timing breakdown:
Section |  min time  |  avg time  |  max time  |%varavg| %total
---------------------------------------------------------------
Pair    | 1.1196     | 1.1965     | 1.3196     |   3.2 | 47.02
Neigh   | 0.2105     | 0.21861    | 0.24266    |   1.1 |  8.59
Comm    | 0.71586    | 0.85894    | 0.93198    |   4.9 | 33.75
Output  | 0.00024522 | 0.00025009 | 0.00031537 |   0.0 |  0.01
Modify  | 0.21014    | 0.25525    | 0.30084    |   5.0 | 10.03
Other   |            | 0.01521    |            |       |  0.60

Nlocal:        83.3333 ave          94 max          71 min
Histogram: 1 0 1 8 13 8 10 3 1 3
Nghost:        1684.33 ave        1714 max        1660 min
Histogram: 3 4 8 6 9 6 3 3 4 2
Neighs:        9890.12 ave       11789 max        8132 min
Histogram: 1 0 6 10 11 9 4 4 2 1

Total # of neighbors = 474726
Ave neighs/atom = 118.68150
Neighbor list builds = 909
Dangerous builds = 229

# Equilibrate just above the melting temperature to avoid step fn in T

fix 1 all npt temp 1.25 1.25 0.1 iso 5.68 5.68 0.5 mtk yes tchain 5 pchain 5
run 2000
Per MPI rank memory allocation (min/avg/max) = 3.643 | 3.645 | 3.649 Mbytes
Step Temp E_pair E_mol TotEng Press Volume 
   10000    2.3708485   -5.0166861            0   -1.4613024    5.5906916    3857.9525 
   11000    1.2383886   -7.0343571            0   -5.1772387    5.8217487    3039.7818 
   12000    1.2408562   -7.0740316            0   -5.2132127    6.0580777    3023.8548 
Loop time of 0.619034 on 48 procs for 2000 steps with 4000 atoms

Performance: 558288.977 tau/day, 3230.839 timesteps/s
99.6% CPU use with 48 MPI tasks x no OpenMP threads

MPI task timing breakdown:
Section |  min time  |  avg time  |  max time  |%varavg| %total
---------------------------------------------------------------
Pair    | 0.2679     | 0.29837    | 0.32902    |   2.5 | 48.20
Neigh   | 0.039135   | 0.04183    | 0.044939   |   0.7 |  6.76
Comm    | 0.19606    | 0.22952    | 0.26365    |   3.1 | 37.08
Output  | 7.0423e-05 | 7.1725e-05 | 8.7609e-05 |   0.0 |  0.01
Modify  | 0.040853   | 0.044419   | 0.047477   |   0.8 |  7.18
Other   |            | 0.004829   |            |       |  0.78

Nlocal:        83.3333 ave          94 max          75 min
Histogram: 1 2 5 10 14 8 6 1 0 1
Nghost:        1978.62 ave        2002 max        1959 min
Histogram: 3 3 10 8 3 5 10 2 1 3
Neighs:        12646.7 ave       14319 max       11390 min
Histogram: 4 4 6 6 11 9 2 3 1 2

Total # of neighbors = 607041
Ave neighs/atom = 151.76025
Neighbor list builds = 143
Dangerous builds = 13

#############################
# L I N E A R  Q U E N C H  #
#############################

# Define solid atoms. This closely follows ten Wolde  Ruiz-Montero and Frenkel  Faraday Discuss  1996  104  93-110
# Compute components of the per-atom q6 vector
compute q6 all orientorder/atom degrees 1 6 components 6 nnn NULL cutoff 1.3 # compute the Q6 parameter.
                                                                             # Use all neighbours within 1.3 unit cell.

# get number of connections
compute coord_number all coord/atom orientorder q6 0.5

# An atom is solid if it has 8 or more connections (of a possible 14)
variable is_solid atom c_coord_number>=8
group solid dynamic all var is_solid    # Must be dynamic to update
dynamic group solid defined

# do clustering
compute cluster solid cluster/atom 1.3 # Create a cluster where all atoms within are solid and max 1.3 units from another member

# define chunks one chunk per cluster
compute clus_chunks solid chunk/atom c_cluster nchunk every compress yes  # Says which atoms are in which chunk

# count the size of each chunk
compute size_chunks solid property/chunk clus_chunks count


# Find the maximum entry in the vector of chunk sizes
variable max_n equal max(c_size_chunks)


# Thermo style which includes this variable
# thermo_style custom step temp pe vol v_max_n

thermo ${N}  # Print the thermo information every 100 steps
thermo 1000  

# Reset the npt fix at a lower temperature (below freezing)
fix 1  all npt temp  ${temp} ${temp}  0.1  iso  5.68  5.68  0.5  mtk yes tchain  5  pchain  5
fix 1  all npt temp  0.45 ${temp}  0.1  iso  5.68  5.68  0.5  mtk yes tchain  5  pchain  5
fix 1  all npt temp  0.45 0.45  0.1  iso  5.68  5.68  0.5  mtk yes tchain  5  pchain  5

dump dmp2 all dcd ${N} traj.dcd
dump dmp2 all dcd 1000 traj.dcd


compute msd all msd com yes
variable twopoint equal c_msd[4]/6/(step*dt+1.0e-6)
fix 9 all vector 10 c_msd[4]
variable fit equal slope(f_9)/6/(10*dt)
thermo_style custom step temp pe c_msd[4] v_twopoint v_fit v_max_n

fix 1 all npt temp 1.25 ${temp} 0.1 iso 5.68 5.68 0.5 mtk yes tchain 5 pchain 5
fix 1 all npt temp 1.25 0.45 0.1 iso 5.68 5.68 0.5 mtk yes tchain 5 pchain 5
run 5000000 # 5000000  # Run for this many steps
Neighbor list info ...
  update every 1 steps, delay 10 steps, check yes
  max neighbors/atom: 2000, page size: 100000
  master list distance cutoff = 3.8
  ghost atom cutoff = 3.8
  binsize = 1.9, bins = 8 8 8
  4 neighbor lists, perpetual/occasional/extra = 1 3 0
  (1) pair lj/cut, perpetual
      attributes: half, newton on
      pair build: half/bin/atomonly/newton
      stencil: half/bin/3d
      bin: standard
  (2) compute orientorder/atom, occasional
      attributes: full, newton on
      pair build: full/bin/atomonly
      stencil: full/bin/3d
      bin: standard
  (3) compute coord/atom, occasional
      attributes: full, newton on
      pair build: full/bin/atomonly
      stencil: full/bin/3d
      bin: standard
  (4) compute cluster/atom, occasional
      attributes: full, newton on
      pair build: full/bin/atomonly
      stencil: full/bin/3d
      bin: standard
Per MPI rank memory allocation (min/avg/max) = 9.826 | 9.835 | 9.841 Mbytes
Step Temp PotEng c_msd[4] v_twopoint v_fit v_max_n 
   12000    1.2408562   -7.0740316 4.2056147e-30 2.9205656e-32 8.3333333e+20            2 
   13000    1.2452903   -7.1413287   0.45265344 0.0029016245  0.036076438            2 
   14000     1.255089   -7.1635449   0.91361022 0.0054381559  0.037590868            1 
   15000    1.2377837   -7.1595086    1.3402906 0.0074460585  0.037229779            3 
   16000    1.2771692   -7.0981021    1.7360985 0.0090421794  0.036141901            2 
   17000    1.2388198    -7.104263    2.1744832  0.010659231   0.03570128            2 
   18000    1.2372083   -7.1523029    2.5766458  0.011928916  0.035453005            1 
   19000    1.2484529   -7.1591065    2.9878046  0.013104406  0.035285295            5 
   20000    1.2351656   -7.1728804    3.4354046  0.014314185  0.035155207            1 
   21000    1.2605058   -7.1749763     3.850552  0.015279968  0.035393124            2 
   22000    1.2499467   -7.1563628    4.2744384  0.016191054  0.035460731            1 
   23000    1.2395852   -7.1458142    4.6946193   0.01700949  0.035405296            1 
   24000    1.2748619   -7.1387806    5.0745566  0.017619988  0.035292553            2 
   25000    1.2374323   -7.1090943    5.4938681  0.018312893  0.035111607            2 
   26000    1.2535391   -7.1118644    5.9350565  0.019022617  0.034995608            2 
   27000    1.2506652   -7.1081906    6.4238672   0.01982675   0.03508567            1 
   28000    1.2559685   -7.1679079    6.7867144  0.020198554  0.035126281            1 
   29000    1.2104518   -7.1496033    7.2104282  0.020719621   0.03510019            1 
   30000    1.2644561   -7.1130792    7.6684506  0.021301251  0.035098383            1 
   31000    1.2780055   -7.1348879     8.048409  0.021635508  0.035105909            1 
   32000    1.2453288   -7.1626942    8.5297856  0.022212983  0.035126431            1 
   33000    1.2635646   -7.1260742    8.9900461  0.022702136  0.035163626            2 
   34000    1.2344246   -7.1610602     9.333592  0.022876451  0.035226041            1 
   35000    1.2301311   -7.1449459    9.7348575  0.023178232  0.035235419            2 
   36000     1.257811   -7.1226191    10.151345  0.023498484  0.035182914            1 
   37000    1.2502562   -7.1582649    10.603525  0.023881813  0.035181281            2 
   38000    1.2429469    -7.154936    10.998726  0.024120012  0.035168764            1 
   39000    1.2794053   -7.1255588    11.456776   0.02448029  0.035137377            1 
   40000    1.2570657   -7.1024803    11.854036  0.024695908  0.035124486            2 
   41000    1.2314146   -7.1360152    12.261341  0.024921425  0.035121276            4 
   42000    1.2825469   -7.1236098    12.677496  0.025153762  0.035105933            1 
   43000    1.2509706   -7.1435968    12.969492  0.025134673  0.035060671            1 
   44000    1.2496874   -7.0850674     13.46505  0.025501988  0.035016246            1 
   45000    1.2361852   -7.1433949    13.872889  0.025690535  0.034987531            1 
   46000      1.25626   -7.1453859    14.291397  0.025890212  0.034972453            1 
   47000    1.2475373   -7.1271282    14.681088  0.026030297  0.034954683            2 
   48000    1.2541596   -7.1017684    15.205534  0.026398496  0.034933718            1 
   49000    1.2255116   -7.1472856    15.597435   0.02652625  0.034945075            2 
   50000     1.246603   -7.1064214    16.085713  0.026809522  0.034956482            2 
   51000    1.2393705    -7.137511    16.308299  0.026647547  0.034943484            3 
   52000    1.2290281   -7.1458823    16.765869   0.02686838  0.034903162            1 
   53000    1.2112556   -7.1147069    17.180223   0.02701293   0.03486496            2 
   54000    1.2478815   -7.1417383    17.525659  0.027045769  0.034820549       -1e+20 
   55000    1.2618897   -7.1957049    17.776295   0.02693378  0.034763716            2 
   56000    1.2255729    -7.112862     18.35837  0.027319003  0.034732965            1 
   57000    1.2460083   -7.1574925    18.776171  0.027450542  0.034711861            1 
   58000    1.2441259   -7.1353427    19.085471  0.027421654  0.034686618            3 
   59000    1.2412568   -7.0842572    19.500853  0.027543578  0.034661968            2 
   60000    1.2394809   -7.1155182    19.931479   0.02768261  0.034621455            1 
   61000    1.2233516   -7.1386475    20.179776  0.027567999  0.034574056            1 
   62000    1.2358181   -7.1619102    20.564024  0.027639818  0.034515662            2 
   63000    1.2675622   -7.1640238    21.039783  0.027830401  0.034455167            2 
   64000    1.2169844   -7.1246965    21.665128  0.028209802  0.034436428            1 
   65000     1.244048   -7.1666113    21.870895  0.028039608  0.034416189            2 
   66000    1.2423609   -7.1352704    22.479932  0.028383752  0.034396808            1 
   67000    1.2474134   -7.1450615    22.981559  0.028584028  0.034400453            2 
   68000     1.268112   -7.1193582    23.391005  0.028665448  0.034416074            1 
   69000    1.1945595    -7.120315    23.765514  0.028702311  0.034420275            5 
   70000    1.2596586   -7.1159166    24.167602  0.028770955  0.034418554            2 
   71000    1.2407518   -7.1503724    24.352362  0.028582585  0.034417576            1 
   72000    1.2562911   -7.1623872    24.838438  0.028748192  0.034409806            1 
   73000     1.233467   -7.1635653    25.376111  0.028968163  0.034409872            2 
   74000    1.2387485   -7.1631505    25.814872  0.029070802   0.03441672            2 
   75000    1.2178822   -7.1779873    26.100034  0.029000038  0.034409455            1 
   76000    1.2451576   -7.1237353    26.622691  0.029191547  0.034404982            1 
   77000    1.2426701   -7.1664641    26.958495  0.029175861  0.034407031            2 
   78000    1.2322262   -7.1074964    27.635075  0.029524652  0.034415492            1 
   79000    1.2166956   -7.1586622     27.92434  0.029456055  0.034425689            2 
   80000     1.234795   -7.1187513    28.395823  0.029578982  0.034436146            2 
   81000    1.2571272   -7.1558108    28.685458  0.029511787  0.034442149            2 
   82000     1.236796   -7.1579875     29.15181  0.029625823  0.034450184            1 
   83000    1.2369553   -7.0788051    29.578997  0.029697788  0.034449162            1 
   84000    1.2425646   -7.1537052    29.831175  0.029594419  0.034439455            1 
   85000    1.2439296   -7.1212364    30.259199  0.029665881  0.034428468            2 
   86000    1.2434801   -7.1810174    30.307492  0.029367724  0.034406691            1 
   87000    1.2319355   -7.1279198    30.771477  0.029474594   0.03437107            2 
   88000     1.235227   -7.1443832    31.259891  0.029602169  0.034343386            2 
   89000    1.2365423   -7.1104027    31.546475  0.029537898  0.034320115            2 
   90000    1.2511828   -7.1269587    31.843241  0.029484483  0.034282387            2 
   91000    1.2444239   -7.1415128    32.245339  0.029528698  0.034240558            3 
   92000    1.2454763   -7.1551539    32.515391  0.029452346  0.034196849            2 
   93000    1.2079529   -7.1847365    32.753453  0.029348972  0.034152961            1 
   94000    1.2543227   -7.1695506    33.256392  0.029482617  0.034108043            1 
   95000    1.2577481   -7.1588416    33.839614  0.029683872  0.034070154            1 
   96000    1.2352444   -7.1602083    34.160673  0.029653362  0.034039645            1 
   97000    1.2128879   -7.1679807    34.629336  0.029750289  0.034008018            1 
   98000    1.2418512   -7.1745397    34.954098  0.029722872  0.033982788            1 
   99000    1.2282873   -7.1527228    35.438029   0.02982999  0.033958174            2 
  100000    1.2579085   -7.1380629    35.994735  0.029995612  0.033939717            1 
  101000    1.2321683   -7.1545291    36.399689  0.030032747  0.033928064            1 
  102000    1.2696276   -7.1643338    36.638745  0.029933615  0.033914502            3 
  103000    1.2813553   -7.1628864    37.129663   0.03004018  0.033896587            2 
  104000    1.2263645   -7.1724337    37.332341  0.029913735   0.03387515            2 
  105000    1.2196495   -7.1715314      37.8364  0.030028889  0.033854979            1 
  106000    1.2396996   -7.1593133    37.987878  0.029864684  0.033830168            2 
  107000    1.2343955   -7.1740103    38.502913  0.029986692  0.033806978            2 
  108000    1.2489731      -7.1666    38.965181  0.030065726   0.03378335            2 
  109000    1.2313128   -7.1714319    39.549661  0.030236744   0.03376778            1 
  110000    1.2255576   -7.1124002    39.970632  0.030280782  0.033760647            1 
  111000    1.2435728   -7.1432927    40.469073  0.030382187  0.033758138            2 
  112000    1.2151124   -7.1552135    40.907259  0.030436948  0.033759455            4 
  113000     1.250165   -7.1622194    41.414099  0.030541371  0.033761023            1 
  114000    1.2283232   -7.1584452    41.678519  0.030466753  0.033758358            2 
  115000    1.2035676   -7.0965959    42.167913  0.030556459  0.033754094            1 
  116000    1.2201253   -7.1809516    42.357236  0.030429049  0.033746244            1 
  117000    1.2393871   -7.1915045    42.890353  0.030548684  0.033745344            1 
  118000    1.2288329   -7.1631369    43.300588  0.030579511  0.033741739            1 
  119000    1.2103207   -7.1917684     43.31585  0.030333228  0.033728818            2 
  120000    1.2500342   -7.1532863    43.717255  0.030359205  0.033710272            1 
  121000    1.2253017   -7.1490716    44.212679  0.030449504  0.033696673            1 
  122000    1.2074582   -7.1702598    44.426272  0.030345814  0.033680822            1 
  123000    1.2379503   -7.1673339    44.743372  0.030313937  0.033662082            1 
  124000    1.2383332   -7.1796206    45.274562  0.030426453  0.033642982            1 
  125000     1.225265   -7.1621079    45.520237  0.030346825  0.033627326            2 
  126000    1.2309013   -7.1830401    46.089867  0.030482716  0.033612717            2 
  127000    1.2492497   -7.1692885    46.258578  0.030353398  0.033596177            1 
  128000     1.202301   -7.1455354    46.591769  0.030333183  0.033574073            2 
  129000    1.2547345   -7.1620489    46.962516  0.030337542  0.033551106            2 
  130000    1.2465629   -7.1523648    47.419513  0.030397124  0.033528405            1 
  131000      1.21832   -7.2027715    47.706422  0.030347597  0.033506742            2 
  132000    1.2192278    -7.160243     48.23801  0.030453289  0.033485804            2 
  133000    1.2176029   -7.1751125    48.682283  0.030502684   0.03346721            2 
  134000    1.2175179    -7.162266     49.04033  0.030497717  0.033445478            1 
  135000    1.2227213   -7.1392888    49.515782  0.030565297  0.033424295            2 
  136000    1.2607335   -7.2085888    49.643142  0.030418592  0.033404434            1 
  137000    1.2327877     -7.17522    50.081252  0.030463048  0.033385214            3 
  138000    1.2440179   -7.1755043     50.41589  0.030444378  0.033364999            2 
  139000    1.2368299   -7.1808128    50.743974  0.030422047  0.033348435            2 
  140000    1.2120875   -7.1865341    51.235569  0.030497363  0.033332124            3 
  141000    1.2224839   -7.1533763    51.316581  0.030328949  0.033309774            2 
  142000    1.2583156   -7.1855308    51.790126  0.030393266  0.033285773            2 
  143000     1.231024   -7.1893689    52.100428  0.030361555  0.033259146            1 
  144000    1.2480005   -7.1393325    52.555811  0.030414242  0.033235899            1 
  145000    1.2209545   -7.1313839    52.726164  0.030302393  0.033213072            2 
  146000    1.2294859   -7.1865739    53.164809  0.030345211  0.033187795            1 
  147000    1.2365907    -7.188152    53.689135  0.030436017  0.033165571            1 
  148000    1.2229261    -7.192343    54.296301  0.030572241  0.033149769            2 
  149000     1.231789   -7.2443754    54.358674  0.030401943  0.033134904            2 
  150000    1.2133583   -7.1554554    54.826011  0.030458895  0.033117076            1 
  151000    1.2428628    -7.207859    55.363715  0.030553927  0.033102746            1 
  152000     1.234473   -7.1966794    55.730916   0.03055423  0.033091523            2 
  153000    1.2340685   -7.2180705    56.104007  0.030557738  0.033078572            1 
  154000    1.2173105   -7.1770394    56.469305  0.030556983   0.03306068            2 
  155000    1.1996793   -7.1687638     56.84251  0.030560489     0.033044            1 
  156000    1.2514725   -7.2005081    57.295283  0.030606455  0.033031647            1 
  157000    1.2369658   -7.1403197     57.80979  0.030684602   0.03301937            2 
  158000    1.2504895   -7.1818988    58.228063  0.030711004  0.033007414            2 
  159000     1.249341   -7.1422074    58.565611  0.030694765  0.032999094            1 
  160000    1.2249908   -7.1639451    59.063676  0.030762331   0.03298962            2 
  161000    1.1967963   -7.1899539    59.536486  0.030815986  0.032984763            1 
  162000    1.2299615   -7.1351174     60.08802  0.030909475  0.032980337            2 
  163000    1.2174814   -7.1391922    60.503761  0.030932393  0.032976673            2 
  164000    1.2044991   -7.1957194    60.556099  0.030770376   0.03297145            1 
  165000    1.2326115    -7.161554    61.176132  0.030897036  0.032966118            2 
  166000    1.2210899   -7.1521928    61.633106  0.030940314  0.032960012            1 
  167000    1.2272673   -7.1649828    61.619945  0.030748476  0.032950192            6 
  168000    1.2184463   -7.1533391    62.293898  0.030899751  0.032942147            1 
  169000     1.211763   -7.2012422    62.402376  0.030770402   0.03293646            2 
  170000    1.2423666    -7.095408    63.137563  0.030949786  0.032927449            1 
  171000    1.2277641   -7.1858356    63.015592  0.030709352  0.032917487            4 
  172000    1.2363216   -7.1956251    63.343673  0.030689764  0.032901291            2 
  173000    1.2254394   -7.2010195      63.6555  0.030662572  0.032885525            1 
  174000    1.2156401    -7.130541    64.100261  0.030699359  0.032871633            1 
  175000    1.2258984   -7.1876703    64.224169  0.030582938  0.032858341            1 
  176000    1.2357303   -7.1958192    64.877471    0.0307185  0.032846559            2 
  177000    1.2390526   -7.1592421    65.273891  0.030731587  0.032833141            2 
  178000    1.2395178   -7.1853288    65.646621  0.030733437   0.03281979            2 
  179000    1.2036865   -7.1554433    66.034757  0.030742438  0.032806516            4 
  180000    1.2370634   -7.2129894    66.029011  0.030568987  0.032790404            3 
  181000    1.2234833    -7.164203    66.457478  0.030597366  0.032777137            1 
  182000    1.2251842   -7.1850753    67.046478  0.030698937  0.032763188            1 
  183000    1.2208707   -7.2257146    67.281712  0.030638302  0.032751464            1 
  184000    1.2404256     -7.16511    68.162748   0.03087081  0.032739914            1 
  185000    1.1939167   -7.2240383     68.15453  0.030700239   0.03273023            2 
  186000    1.2503533   -7.1872228    68.693602  0.030776704  0.032719165            4 
  187000    1.2162861   -7.1615012    69.490923  0.030967434  0.032712576            1 
  188000    1.2125389   -7.1475863     69.63716  0.030867535  0.032704045            2 
  189000    1.2451962   -7.1712606    69.763719  0.030760017  0.032692665            1 
  190000    1.2242305   -7.1998954     70.10009  0.030745653  0.032679982            2 
  191000    1.2217209   -7.2115456     70.32411  0.030682421  0.032668085            3 
  192000    1.2302276   -7.2123507    70.361416  0.030538809  0.032654909            1 
  193000    1.2151464   -7.2259454    70.681322  0.030518706  0.032639463            1 
  194000    1.2033803   -7.1657877     71.21957  0.030592599  0.032622629            1 
  195000    1.1904997   -7.2373492    71.516582  0.030562642  0.032606694            1 
  196000    1.2270414   -7.1945451    71.999268  0.030611934  0.032590276            2 
  197000    1.2473804   -7.1957318    72.156401  0.030523012  0.032573672            1 
  198000    1.2027108   -7.2549462    72.428706  0.030483462  0.032559257            2 
  199000    1.1933205   -7.2133219    73.156764  0.030635161  0.032543466            2 
  200000    1.2076008   -7.2005604    73.596316  0.030665132  0.032529672            6 
  201000    1.2080197   -7.1985803    74.150551  0.030742351  0.032518752            1 
  202000    1.2416039   -7.2078319    74.582636  0.030768414  0.032507796            2 
  203000    1.1969515   -7.2155009    75.054151  0.030810407  0.032498287            1 
  204000     1.229417   -7.1585161     75.48221  0.030834236  0.032490868            2 
  205000    1.2416337   -7.2194974    75.583233  0.030724892  0.032484012            4 
  206000    1.2374832   -7.1889062    76.448413  0.030925733  0.032476166            2 
  207000    1.2401661   -7.1839158    76.731039  0.030890112  0.032470396            1 
  208000    1.1913756   -7.1560044    77.318317   0.03097689  0.032463666            2 
  209000    1.1946965   -7.2105235    77.402316  0.030862168  0.032457056            2 
  210000    1.2092889    -7.213058    77.829579  0.030884753  0.032451753            3 
  211000    1.2363885     -7.19505    77.963327  0.030791203   0.03244618            1 
  212000    1.2052718   -7.1880944    78.587205  0.030891197  0.032441826            2 
  213000    1.2085668   -7.1937846    78.777488  0.030820614  0.032437517            3 
  214000    1.2192986   -7.1902309    79.253879  0.030862102  0.032433732            1 
  215000    1.2171465    -7.224429    79.776529  0.030921135  0.032428763            1 
  216000    1.2325757   -7.2346349    80.191285  0.030937996  0.032424743            1 
  217000    1.2193384   -7.1979544    80.972987  0.031095617  0.032422309            3 
  218000    1.2129472   -7.1938076    81.315522  0.031083915  0.032420855            1 
  219000     1.226739   -7.1879155    81.246408   0.03091568  0.032417264            2 
  220000      1.21823   -7.1924448    81.737659  0.030961234  0.032412803            1 
  221000    1.2428063   -7.2227435    81.991811  0.030916973  0.032408238            2 
  222000    1.1988394   -7.2262199    82.778833  0.031073136  0.032404744            2 
  223000    1.2218676   -7.2321703    82.887776  0.030974505  0.032401879            1 
  224000    1.2059664   -7.1876449     83.59182  0.031098147  0.032399778            3 
  225000    1.1991338    -7.194509    84.074276   0.03113862  0.032398462            2 
  226000    1.2123547    -7.173628     84.31674  0.031090243  0.032398396            3 
  227000    1.2180009   -7.2358451    84.470227  0.031009628  0.032397089            1 
  228000    1.2371762   -7.2037943    84.725384   0.03096688  0.032395892            1 
  229000    1.2141715   -7.2182792    85.646422   0.03116682  0.032393052            2 
  230000    1.1840001   -7.2259686    85.470142  0.030967443  0.032392234            1 
  231000    1.2149333   -7.1979983    86.010282   0.03102824  0.032390602            2 
  232000    1.2049122   -7.2087588    86.399984  0.031034477   0.03238687            1 
  233000    1.2287049   -7.2315605    86.403174  0.030902423  0.032382586            2 
  234000    1.2101433   -7.1772044     87.10219  0.031019298  0.032377358            2 
  235000    1.2325398   -7.2495536    87.026451  0.030860444  0.032371502            1 
  236000    1.2235957   -7.1956072    87.246216   0.03080728  0.032362685            1 
  237000    1.2048427   -7.2234105    87.578627  0.030794173  0.032353441            4 
  238000     1.196109   -7.2043001    88.378767  0.030944946  0.032345844            1 
  239000    1.2160761   -7.2336522    88.365072  0.030810695  0.032338409            2 
  240000    1.1687718   -7.1908283    89.371931   0.03103192  0.032331885            1 
  241000    1.1958023   -7.2412317    89.370799  0.030902766  0.032327372            1 
  242000    1.1953646   -7.1872405    90.054421  0.031010475  0.032321398            1 
  243000    1.2333436   -7.2056866     90.23213  0.030943803  0.032314884            3 
  244000    1.2023307   -7.1915078    90.591303  0.030939653  0.032308236            2 
  245000    1.2052946   -7.2124646    90.685319  0.030845346  0.032302057            1 
  246000    1.2165584   -7.2497645    91.493745  0.030993816  0.032296312            1 
  247000     1.199992   -7.2811143    91.392897  0.030834311  0.032289419            2 
  248000     1.220405   -7.2433036    91.858389  0.030866394  0.032281793            3 
  249000    1.1884064   -7.2024622    92.574457  0.030982081   0.03227388            2 
  250000    1.1990351   -7.1916756    92.490236  0.030830079  0.032266092            2 
  251000    1.2300357   -7.2255967    93.092639  0.030907251  0.032257419            2 
  252000     1.219344   -7.2151449    93.289644   0.03084975  0.032248608            1 
  253000    1.2037087    -7.216737    93.438007  0.030776682  0.032239957            1 
  254000    1.2183448   -7.1596761    94.382063  0.030965244  0.032232001            2 
  255000    1.2142086   -7.1991423    94.245121  0.030799059   0.03222463            1 
  256000    1.2263263   -7.1964735     94.77196  0.030850247  0.032217554            2 
  257000    1.2242769   -7.1991634    95.123359   0.03084415   0.03221128            1 
  258000    1.1927482   -7.2174951    95.599895  0.030878519  0.032204966            1 
  259000    1.2077747   -7.1586601    96.154647  0.030937788  0.032198455            1 
  260000    1.2251819   -7.2244506    96.733358  0.031004281  0.032193772            2 
  261000    1.2148007    -7.185602    96.946699  0.030953607   0.03218781            1 
  262000    1.2191687   -7.1862231    97.070863  0.030874956  0.032182276            1 
  263000    1.1997239   -7.1887549    97.867063  0.031009843     0.032175            1 
  264000    1.2125724   -7.2238433     97.89236  0.030900366  0.032168508            2 
  265000     1.193657   -7.2175845    98.258308  0.030898839  0.032160634            2 
  266000    1.1894469   -7.2141604    98.625902  0.030897839  0.032154297            2 
  267000    1.2072541   -7.2369981    99.122139  0.030936997  0.032148307            1 
  268000    1.2114896   -7.2217853    99.244956   0.03085975  0.032141178            1 
  269000    1.2188603   -7.1906767    99.807561  0.030919319   0.03213462            5 
  270000    1.2300148   -7.1934833    100.10628  0.030896999  0.032128079            1 
  271000    1.2043338   -7.2124777    100.85137  0.031012107  0.032121856            3 
  272000    1.2070339   -7.1677842    101.19806  0.031004309  0.032117175       -1e+20 
  273000    1.1901467   -7.2344597    101.66288  0.031032624  0.032113961            1 
  274000    1.2018895   -7.2768937    101.87366  0.030983474  0.032112024            3 
  275000    1.2098758   -7.2834068    101.78877  0.030845081  0.032108287            2 
  276000     1.198898   -7.2709856    102.41515  0.030922447  0.032103573            2 
  277000    1.1890828   -7.2068869    103.15787  0.031034258  0.032099757            2 
  278000    1.2051974   -7.2421921    103.27068   0.03095644  0.032097385            1 
  279000    1.2380917   -7.2266061    104.37565  0.031175523  0.032096691            1 
  280000    1.2149533    -7.249038    104.14358  0.030995113   0.03209564            5 
  281000    1.2283383   -7.2432922    104.81933   0.03108521  0.032093331            2 
  282000    1.2131294   -7.1983592    105.05207  0.031043755  0.032090641            2 
  283000     1.209879   -7.2390759    105.28662  0.031003127  0.032087534            3 
  284000    1.2132996   -7.2140172    105.79277  0.031042479  0.032084554            1 
  285000     1.212735   -7.2322941    106.10325  0.031024343  0.032082033            2 
  286000    1.2053652   -7.1729688    106.74902  0.031104026  0.032078894            1 
  287000    1.2207839   -7.2427308    107.08849   0.03109422  0.032076168            1 
  288000    1.1940722   -7.2291492    107.51297  0.031109077  0.032073963            1 
  289000    1.2033764    -7.186654    107.94349  0.031125574    0.0320723            1 
  290000    1.2060766   -7.2125862     108.0957  0.031061982  0.032070739            1 
  291000    1.1821729    -7.282873     108.2178  0.030990207  0.032067886            2 
  292000    1.2354375   -7.1999203     109.1582  0.031152455  0.032067124            1 
  293000     1.237553   -7.2204295    110.12497  0.031321095  0.032067278            1 
  294000    1.2164283   -7.2473529    109.70509  0.031095547  0.032067532            2 
  295000    1.2021675   -7.2174914    110.34101  0.031169776  0.032065983            3 
  296000    1.2227833   -7.2010528    110.27341  0.031045443  0.032064676            2 
  297000     1.213516   -7.2759995     110.8093  0.031091274  0.032062322            1 
  298000    1.2082375   -7.2083171    110.94292  0.031024307  0.032060544            4 
  299000    1.2175494   -7.1994436    111.98863  0.031211992  0.032058054            3 
  300000    1.2128183   -7.1972575     111.8297  0.031063805  0.032055001            1 
  301000    1.1983672   -7.2467744    112.10869  0.031037842  0.032050835            1 
  302000    1.2140655   -7.2362891    112.01996  0.030910584  0.032045451            2 
  303000    1.1811583   -7.2247434    112.46822  0.030931854  0.032038839            1 
  304000    1.2198712    -7.262229     112.4622  0.030828454  0.032032399            2 
  305000     1.204277   -7.2337301    112.56187   0.03075461  0.032025298            1 
  306000    1.2105348   -7.2646439    113.42715  0.030889747  0.032018797            3 
  307000    1.2194088   -7.1968847    114.02015  0.030950094   0.03201276            1 
  308000    1.1995904   -7.2349492    113.93398  0.030826292  0.032006691            1 
  309000    1.2046919   -7.2082304    114.25304  0.030812578  0.031999871            1 
  310000    1.2116456   -7.2196657    114.97022  0.030905973  0.031993138            1 
  311000    1.2163104   -7.2364423    114.99787  0.030814007  0.031986819            1 
  312000    1.1923708   -7.2119645    115.77243  0.030922125  0.031979399            2 
  313000    1.1892031   -7.1891396    115.84463  0.030842554  0.031972491            2 
  314000    1.1986463   -7.2542867    115.98335  0.030781143  0.031964406            1 
  315000    1.1836984   -7.2228117    116.70895  0.030875383  0.031956528            2 
  316000    1.1957265   -7.1939573    116.96856  0.030846139  0.031949585            1 
  317000    1.1943786   -7.2078987    117.21982  0.030814884  0.031941902            2 
  318000    1.2086995   -7.2205027    117.96436  0.030913093  0.031935142            2 
  319000    1.2058122   -7.2459033    118.03743  0.030835273  0.031929758            2 
  320000    1.1985722   -7.2442755    118.53163  0.030867611  0.031923103            2 
  321000    1.2026277   -7.2306037    119.01395  0.030896664  0.031917611            3 
  322000    1.1957551   -7.2140494    119.33404   0.03088355  0.031911357            1 
  323000    1.1960398   -7.2302703    119.90695  0.030935747  0.031905116            1 
  324000    1.2067269   -7.2359448    120.41458  0.030970827  0.031899859            3 
  325000    1.2179024   -7.2049403    120.93373  0.031008648  0.031894136            2 
  326000    1.1895883   -7.2475334    120.55639  0.030817074  0.031887838            1 
  327000    1.1866189   -7.2272498    120.98876  0.030833018  0.031880483            1 
  328000    1.2004351   -7.2564004    121.01856  0.030746586  0.031872761            3 
  329000    1.2002168   -7.2255313    121.17092  0.030691722  0.031864934            2 
  330000    1.2455223   -7.2305367    121.84231   0.03076826  0.031856046            2 
  331000    1.1845453   -7.2225871    121.82296  0.030670433  0.031848224            1 
  332000    1.2037746   -7.2379991    122.61121  0.030775905  0.031838717            2 
  333000    1.2017819   -7.2390235    122.22194   0.03058607  0.031828519            1 
  334000    1.1987599   -7.2601503    122.28286  0.030509695  0.031817749            3 
  335000    1.2023557   -7.3053079    122.89945  0.030572002  0.031806169            1 
  336000    1.1901453   -7.2201085    123.35074  0.030592941  0.031795878            1 
  337000    1.2130073   -7.2460695    124.16918  0.030704546  0.031786039            2 
  338000    1.1736013   -7.2229949    124.86542   0.03078536   0.03177642            3 
  339000    1.1983623   -7.2271689    125.06678  0.030744046  0.031767944            4 
  340000    1.1969834   -7.2710648    124.80069  0.030588403  0.031759772            1 
  341000    1.2030458   -7.2517139    125.10658  0.030573457  0.031751312            2 
  342000    1.2142014   -7.2572675    125.30795  0.030533126  0.031741724            2 
  343000    1.1974047   -7.2787937    126.27842  0.030679889  0.031732775            2 
  344000    1.2175665   -7.2545427    125.66876  0.030443014  0.031723416            5 
  345000    1.1893944   -7.2465674    126.01529  0.030438475  0.031713204            2 
  346000    1.1835568   -7.2631867    126.85019  0.030551587  0.031703873            2 
  347000    1.1791441   -7.2483863    127.48175  0.030615213  0.031694063            1 
  348000    1.2109419   -7.2546426    127.92844  0.030634206  0.031684884            2 
  349000    1.2262965    -7.260888    128.27537  0.030629267  0.031676915            2 
  350000    1.1786433    -7.234444    128.59897  0.030618802  0.031669142            2 
  351000     1.191954   -7.1978866    129.46405  0.030736954  0.031662003            3 
  352000     1.206361    -7.222925    129.54652  0.030669156  0.031654378            1 
  353000    1.1904879   -7.2398527    129.94019   0.03067521  0.031646895            1 
  354000    1.2066732   -7.2292632    130.56411   0.03073543  0.031640336            2 
  355000    1.1926481   -7.2793692    130.68045  0.030676163  0.031633137            1 
  356000    1.1785927   -7.2130426    131.32671  0.030741271  0.031625604            1 
  357000    1.2088989   -7.2313759    131.35084  0.030660794  0.031619605       -1e+20 
  358000    1.1540431   -7.3195176    131.58164  0.030628874  0.031613386            2 
  359000    1.2126465   -7.2589144    131.77871    0.0305893  0.031606267            4 
  360000    1.1978486   -7.2821549    132.62765  0.030700846  0.031600456            2 
  361000    1.1787274   -7.2581417    133.10968  0.030727072  0.031595313            1 
  362000    1.1896931   -7.2974895    133.55063    0.0307437  0.031589905            1 
  363000    1.2164415    -7.300851    133.62615  0.030676343  0.031584261            3 
  364000    1.2348104   -7.2540518    133.93116  0.030661896  0.031578462            2 
  365000    1.1953435   -7.2617419    134.63318   0.03073817  0.031572392            1 
  366000    1.1795814   -7.2610319    135.21408  0.030786449  0.031566946            2 
  367000    1.2163529   -7.2584027    135.14611  0.030687128  0.031561677            1 
  368000    1.2043379   -7.2954718    134.99708  0.030569992  0.031555966            2 
  369000    1.1907693   -7.2512437    135.63382  0.030630945  0.031549741            1 
  370000    1.1799303   -7.2473944    136.65479  0.030778105  0.031543602            2 
  371000    1.2068934   -7.2575914    136.80805  0.030729571  0.031537919            1 
  372000    1.1755561   -7.2239492    136.88265  0.030663676  0.031531408            1 
  373000    1.1642343   -7.2482659    137.32518  0.030680334   0.03152499            1 
  374000    1.1816894   -7.2855385    136.99994  0.030525834  0.031518613            2 
  375000     1.167712   -7.2702631    137.73737  0.030608304  0.031511835            1 
  376000     1.191464   -7.2461351     138.0185  0.030589206  0.031505302            2 
  377000    1.1696664   -7.2700472     139.0911  0.030745159  0.031499169            1 
  378000    1.1897544   -7.2771595    139.08975  0.030663525  0.031493651            3 
  379000    1.1952936   -7.3065743    138.93378  0.030548325  0.031486842            3 
  380000    1.1914201   -7.3101022    139.65355  0.030625779  0.031480142            2 
  381000      1.18051   -7.2887577    139.42033  0.030494385  0.031473721            1 
  382000    1.1962631    -7.229058    140.27583  0.030601185  0.031467001            1 
  383000    1.1706733   -7.2776703    140.20885  0.030506712  0.031460673            2 
  384000    1.1979293    -7.310914    140.43023  0.030475311   0.03145424            1 
  385000    1.1973514   -7.2471614    141.52025  0.030632088   0.03144763            2 
  386000    1.2158532   -7.2176747    142.37924  0.030738179  0.031441439            1 
  387000    1.1901634    -7.263624    142.24467  0.030629774  0.031434664            1 
  388000    1.1813758   -7.2497356     142.2307  0.030547831  0.031428076            2 
  389000    1.1672212   -7.2274088    142.78168  0.030587335  0.031421353            2 
  390000    1.1816912   -7.2725821    142.94577  0.030543968  0.031414387            1 
  391000    1.1964549   -7.2711138    143.17589  0.030514897  0.031407004            1 
  392000    1.1943999   -7.3246747     143.3236  0.030468453  0.031399947            2 
  393000    1.1920898    -7.259681    143.88361  0.030509672  0.031393886            2 
  394000    1.1751756   -7.2299876    144.41107  0.030543796  0.031386994            1 
  395000     1.190457   -7.3009789    144.22458  0.030427127   0.03138015            2 
  396000    1.2184272   -7.3257536    144.87687  0.030487556   0.03137281            2 
  397000    1.1691222   -7.2758036    145.43145  0.030527172  0.031365099            1 
  398000    1.1800724   -7.2851732    146.00786  0.030571159  0.031359339            1 
  399000    1.2052317   -7.2197191    146.32737  0.030561273   0.03135434            2 
  400000    1.1768737   -7.2783137    146.85693  0.030595193  0.031348499            1 
  401000    1.1758471   -7.3375652    146.90325  0.030528522  0.031342171            2 
  402000    1.1844926   -7.3297883    147.43083  0.030561947  0.031335754            1 
  403000    1.1818414   -7.2734317    147.47569  0.030495386  0.031329922            1 
  404000    1.1876364   -7.2603711     148.1465  0.030558272  0.031323223            1 
  405000    1.1607154   -7.2767004    148.20435  0.030494723  0.031316437            1 
  406000    1.2017884   -7.2937823    148.42743    0.0304654  0.031309842            1 
  407000    1.1701669   -7.2687842    148.76896  0.030460476  0.031302318            1 
  408000    1.1841935   -7.3059086    148.53128  0.030337271   0.03129411            3 
  409000    1.1782849   -7.2511661    149.77006  0.030515496  0.031286868            2 
  410000    1.1682049   -7.2695017    149.31155  0.030347875  0.031279605            3 
  411000    1.1683998   -7.2789255    149.77636   0.03036828  0.031272025            4 
  412000    1.1701483   -7.2957173    150.54077  0.030449185  0.031264979            2 
  413000    1.1851543   -7.2935007    150.94982  0.030457994  0.031258582            1 
  414000    1.2148293   -7.2964563    151.45159  0.030485424  0.031252068            3 
  415000    1.1835185   -7.3603423     150.9437   0.03030998  0.031245866            2 
  416000    1.1791278   -7.2770231    152.46864  0.030542596  0.031238771            3 
  417000    1.1906749   -7.2947879    151.79497  0.030334726  0.031232105            3 
  418000    1.1646971   -7.2778068    152.51279  0.030405262  0.031224931            1 
  419000    1.1919124   -7.2727564     152.7345  0.030376789  0.031218362            1 
  420000    1.2153234   -7.2643432    152.96917  0.030351026  0.031210691            2 
  421000    1.1888538   -7.2379784    153.57204  0.030398266   0.03120297            2 
  422000    1.1848485   -7.3350493    152.75886  0.030165652  0.031194326            2 
  423000    1.1919596   -7.3103103    153.13179  0.030167807  0.031184578            1 
  424000    1.1985651   -7.2775657    153.69835  0.030208009   0.03117377            1 
  425000    1.1972495   -7.3251049    153.37082   0.03007271  0.031162914            2 
  426000    1.1744722   -7.2711905    154.47824  0.030218748  0.031152249            1 
  427000    1.1674038   -7.2706622     154.3095  0.030115047  0.031142227            2 
  428000    1.1983895   -7.3031185    154.62592  0.030106293  0.031131303            1 
  429000     1.163573   -7.2561822    155.31421  0.030169816  0.031120684            2 
  430000    1.1737349   -7.2850231    154.93541  0.030026242  0.031110438            2 
  431000    1.1906434   -7.2902299     155.3029   0.03002763  0.031100277            1 
  432000    1.1777706   -7.2753604    156.26274  0.030143276   0.03109035            1 
  433000    1.1886133    -7.305202    156.58899  0.030136449  0.031080706            2 
  434000    1.2039006   -7.2573642    157.00904  0.030147666  0.031071215            2 
  435000    1.1739837   -7.2696604    157.34924  0.030143533  0.031061609            2 
  436000    1.1469394   -7.2620898    157.65238  0.030132336  0.031052395            2 
  437000    1.1650971    -7.285085    157.94377  0.030118949  0.031043722            2 
  438000     1.198826   -7.2847166     158.1461   0.03008868  0.031034425            2 
  439000     1.184165   -7.2722779    158.23794  0.030037573  0.031025291            1 
  440000    1.1670058   -7.2749976    158.81642  0.030078868  0.031015314            1 
  441000    1.1782688   -7.3193659    158.79241  0.030006124  0.031005716            1 
  442000    1.1394756   -7.2748973    159.37137  0.030047393  0.030995848            2 
  443000    1.1924747   -7.2446834    160.04098  0.030105527  0.030986713            5 
  444000    1.1811218   -7.2843356     160.4999  0.030123855  0.030977956            1 
  445000    1.1767085   -7.2668953    160.37876  0.030033476  0.030968712            1 
  446000    1.1804157   -7.2665745    160.52034  0.029992589  0.030959104            1 
  447000    1.1931548   -7.2793726     160.9033  0.029996886  0.030949632            1 
  448000    1.1655747   -7.3372226    160.19212  0.029797642  0.030938468            3 
  449000    1.1704038   -7.3146146     160.9374  0.029869598  0.030927312            1 
  450000    1.1778407    -7.327973    161.55743  0.029918042  0.030916411            1 
  451000    1.1850218   -7.3593104    161.92807   0.02992019  0.030906719            1 
  452000    1.1994822   -7.2647115    162.82735  0.030019791  0.030897704            1 
  453000    1.1632889   -7.2930583    163.29633  0.030039796  0.030888587            3 
  454000    1.1688371   -7.2955225    163.84435  0.030074219   0.03088058            1 
  455000     1.173569   -7.3206943    163.64344  0.029971326    0.0308722            1 
  456000     1.191159   -7.3333288    164.32074  0.030029375  0.030864383            2 
  457000      1.16431   -7.2191075    165.78306  0.030230316  0.030856673            2 
  458000    1.1572185   -7.2832168    164.71449  0.029969886  0.030848911       -1e+20 
  459000    1.1883878   -7.3243761    165.91864   0.03012321  0.030840924            2 
  460000    1.1891425   -7.3158355    165.65168  0.030009363  0.030832555            2 
  461000    1.1898904   -7.2760181    166.95899  0.030180584  0.030825398            2 
  462000    1.1767979   -7.2909604    166.87771  0.030100597  0.030818312            3 
  463000    1.1519312   -7.2829877    167.16553  0.030087389   0.03081167            1 
  464000    1.1673865   -7.2742928    167.38997  0.030062854   0.03080407            2 
  465000    1.1901216   -7.2874353     168.2107  0.030145286  0.030796459            2 
  466000     1.186182   -7.3395278    167.68036  0.029985758  0.030789252            1 
  467000    1.1645109   -7.2871727    168.50893  0.030069401  0.030781483            1 
  468000    1.2389287   -7.2816714    168.84514  0.030065018   0.03077439            1 
  469000    1.1842292   -7.3194318    168.98071  0.030025001  0.030766912            2 
  470000    1.1794697   -7.2879043    168.80073  0.029929208   0.03075834            1 
  471000    1.1930447   -7.2973087    169.06259  0.029911994  0.030749382            3 
  472000    1.1728633   -7.2822531    169.80391  0.029979505   0.03074073            2 
  473000    1.1809078   -7.2948166    169.93747  0.029939652  0.030732229            1 
  474000    1.1672194   -7.2920598     170.5651  0.029986832  0.030723728            2 
  475000    1.1926061   -7.3152414    170.11335  0.029844447  0.030714884            1 
  476000    1.1792121   -7.2757711    171.18183  0.029968808  0.030706278            1 
  477000    1.1769638   -7.2645897    171.75032  0.030005298  0.030697646            1 
  478000    1.1524515   -7.3124104    171.67247  0.029928952  0.030689126            3 
  479000    1.1547518   -7.3013665    171.29666  0.029801089  0.030680754            3 
  480000    1.1625165   -7.2728296    172.45071  0.029939359  0.030673211            4 
  481000    1.1527439   -7.3101619    173.59082   0.03007464  0.030665858            3 
  482000    1.1798977   -7.2529939    174.46893  0.030164062  0.030659446            1 
  483000    1.1816243   -7.2795193    173.65764  0.029961636  0.030653524            1 
  484000    1.1762345   -7.3417882    174.12251  0.029979771  0.030647046            3 
  485000    1.1650003    -7.318932    174.35388  0.029957712  0.030640962            2 
  486000      1.17417   -7.3039147    174.86517   0.02998374   0.03063495            1 
  487000    1.1588906   -7.3126337    175.50983  0.030032484  0.030629068            3 
  488000     1.197445   -7.2252331    176.45008  0.030131503  0.030624011            2 
  489000    1.1486689   -7.2954961    176.29233  0.030043001  0.030618431            1 
  490000    1.1979192   -7.3229453    176.54177  0.030024111  0.030612143            1 
  491000    1.1715494   -7.3103983    176.80804  0.030008154  0.030605289            2 
  492000    1.1709187   -7.3245763    176.38482  0.029875477  0.030597849            2 
  493000    1.1806357   -7.3189625    177.26809   0.02996418  0.030591071            2 
  494000    1.1697243   -7.3010508    177.15438  0.029884342  0.030583989            4 
  495000    1.1764737   -7.3181883    177.68088  0.029912606  0.030576605            1 
  496000      1.17249   -7.2850588    178.39749  0.029972696  0.030570571            3 
  497000    1.1735507   -7.2909382    178.77171  0.029975136  0.030564499            2 
  498000    1.1539775   -7.3088218    178.78744  0.029917577  0.030558281            2 
  499000    1.1893245   -7.3278804    179.28318  0.029940411  0.030551872            1 
  500000    1.1396813   -7.2907907    179.14481  0.029857468  0.030545073            1 
  501000    1.1511725    -7.291716    179.88221  0.029920527  0.030538409            2 
  502000    1.1615143    -7.343161    180.40663  0.029947979  0.030531765            1 
  503000    1.1829566   -7.3236341    180.24964  0.029862432  0.030524867            2 
  504000    1.1701515    -7.286864    181.20683  0.029961447  0.030518607            1 
  505000    1.1729181   -7.2598622    181.05986  0.029877865  0.030511816            4 
  506000    1.1649283    -7.298385    181.50004  0.029891311  0.030504744            2 
  507000    1.1472041   -7.3418923    181.44551  0.029823391  0.030497621            3 
  508000    1.1404505   -7.3283907    182.05645  0.029864903  0.030490131            3 
  509000    1.1702377   -7.3155639    181.93101  0.029785693  0.030483403            1 
  510000      1.18055    -7.370649     182.1203  0.029758219  0.030476871            2 
  511000    1.1570889   -7.3085156    183.27757  0.029888711  0.030470012            3 
  512000    1.1913905    -7.270214    184.29167  0.029995388  0.030463303            2 
  513000    1.1683054   -7.2787297    184.40762  0.029955753  0.030456989            2 
  514000    1.1427863   -7.3078466    183.87487    0.0298111  0.030450412            1 
  515000    1.1496517    -7.295565    184.44671  0.029845746  0.030443544            1 
  516000    1.1700654   -7.2635663    184.38356  0.029777707  0.030436649            2 
  517000    1.1616682   -7.2799039    184.59046  0.029753459  0.030429385            3 
  518000    1.1796541   -7.2945095    185.41873  0.029829268  0.030421653            1 
  519000    1.1586431   -7.3338383    185.03782  0.029710632  0.030414185            1 
  520000    1.1850812   -7.3371403    185.68219  0.029756762   0.03040634            2 
  521000    1.1765703   -7.3030961    185.65837  0.029695836  0.030398663            5 
  522000    1.1727536   -7.3245826    185.79614  0.029660941   0.03039081            1 
  523000    1.1966227   -7.2979612    186.74166  0.029754885  0.030382816            1 
  524000    1.1905533   -7.3456349    186.81204  0.029709294  0.030374649            2 
  525000    1.1763469   -7.3164987    186.76023  0.029644481  0.030366732            1 
  526000    1.1793452    -7.342106    186.93928   0.02961649  0.030358496            2 
  527000    1.1815085   -7.2961315    187.34067  0.029623762  0.030350514            3 
  528000    1.1919178   -7.3370232    187.46399  0.029587119  0.030342503            2 
  529000    1.1472043    -7.304482    188.06578  0.029625989  0.030334105            2 
  530000    1.1488352   -7.3060754    189.05274  0.029725274  0.030325528            1 
  531000     1.177163   -7.2945528    188.92238  0.029648835  0.030317619            1 
  532000    1.1734241   -7.3010685    188.86623  0.029584309   0.03030986            3 
  533000    1.1634887   -7.3036959    188.68696  0.029500775  0.030300735            1 
  534000    1.1948869   -7.2662696    189.77685  0.029615614  0.030291799            2 
  535000    1.1603528   -7.3592853    189.19242  0.029469224  0.030282927           10 
  536000     1.165765   -7.3190472    189.82409  0.029512451  0.030273823            2 
  537000     1.151084   -7.3385474    190.83133  0.029613801  0.030265297            1 
  538000    1.1729635    -7.300691    191.58482  0.029675468  0.030256906            3 
  539000    1.1759601   -7.2962807    191.23853  0.029566873  0.030248517            1 
  540000    1.1491696   -7.3126414    191.53924  0.029558525   0.03024046            1 
  541000    1.1582333   -7.3333746    192.01778  0.029577599  0.030232508            1 
  542000    1.1536901   -7.3381107    192.49785   0.02959684  0.030225009            1 
  543000    1.1401263   -7.3345982    192.37417  0.029523353  0.030216935            1 
  544000    1.1839209   -7.3145231    192.85701  0.029543047  0.030209165            2 
  545000    1.1794455   -7.2784084    194.12336  0.029682471  0.030201716            1 
  546000    1.1523044   -7.3655528    193.92071  0.029597177  0.030194526            2 
  547000    1.1726468    -7.356359    193.85998  0.029533818  0.030187085            1 
  548000    1.1649362   -7.3030656    195.12455  0.029672225   0.03017999            2 
  549000    1.1675965    -7.340497    194.59014  0.029537059  0.030172783            1 
  550000    1.1642604   -7.3388097    194.85022  0.029522761  0.030165512            1 
  551000    1.1411412   -7.3511312     195.2613  0.029531353  0.030157973            1 
  552000    1.1643658   -7.3218832    195.60143  0.029529201  0.030150145            2 
  553000    1.1489425   -7.3437791    195.89244  0.029519656  0.030142663            2 
  554000    1.1551302   -7.2924851    196.66745   0.02958295  0.030135933            1 
  555000    1.1363085   -7.3384023    196.84502  0.029556309  0.030129016            1 
  556000    1.1432129   -7.3101699    196.62415  0.029470046  0.030121481            2 
  557000    1.1520158   -7.2906746    197.12451  0.029491998  0.030114113            1 
  558000    1.1678906   -7.3491907    197.25237   0.02945824  0.030106414            3 
  559000    1.1867367   -7.2837532    198.09394  0.029530999  0.030098894            3 
  560000    1.1884732   -7.3299217     197.9999   0.02946427  0.030091519            1 
  561000    1.1446469   -7.3636226    198.46299   0.02948054  0.030083957            2 
  562000    1.1623159   -7.3359832    199.18238  0.029534754  0.030076437            4 
  563000    1.1200637   -7.3502252    199.00372  0.029455849  0.030069151            1 
  564000    1.1862341   -7.3537111    199.84986  0.029528643  0.030061949            1 
  565000    1.1398564   -7.3722469    200.42109  0.029560633  0.030054833            3 
  566000    1.1592899    -7.321809    201.02024   0.02959662  0.030048396            2 
  567000    1.1414083   -7.3359841    201.67035  0.029639969  0.030042512            2 
  568000     1.153556   -7.3689418    202.00406  0.029636746  0.030036558            2 
  569000    1.1659427   -7.3301559    201.55744  0.029519251  0.030031029            3 
  570000    1.1623826   -7.3678435    202.11243    0.0295486  0.030024907            1 
  571000    1.1549271   -7.3379533     202.8897  0.029610288  0.030018854            2 
  572000    1.1732101   -7.2980676    202.45973  0.029495882  0.030012005            3 
  573000    1.1793437   -7.3586049    202.60924  0.029466149  0.030005781            3 
  574000    1.1595504   -7.3694324    203.81457  0.029589804  0.029999326            2 
  575000    1.1401057   -7.3715327    203.20595  0.029450138   0.02999277            1 
  576000    1.1623264   -7.3344323    204.07186  0.029524285  0.029986505            3 
  577000    1.1512531   -7.3067345    204.30903  0.029507371  0.029980556            3 
  578000    1.1801403    -7.352679    204.64193  0.029504315  0.029975271            5 
  579000    1.1515308   -7.3523699    205.30003  0.029548075  0.029969248            1 
  580000    1.1424168   -7.3356884     206.5788  0.029680862  0.029963186            1 
  581000    1.1627987   -7.3572126    205.27505  0.029442779  0.029956902            3 
  582000    1.1426458   -7.3073203    205.96808  0.029491421  0.029950471            1 
  583000    1.1740467   -7.2973134    206.15294  0.029467258  0.029944151            2 
  584000    1.1621079   -7.3695252    205.61916  0.029340634  0.029937593            1 
  585000    1.1506343   -7.3586086    206.40825  0.029402884  0.029930806            3 
  586000    1.1707158   -7.3328847    207.13725  0.029456378   0.02992425            2 
  587000    1.1718789   -7.3255951    207.34214  0.029435284   0.02991776            1 
  588000    1.1705053   -7.3163326    207.82301  0.029453374   0.02991152            2 
  589000    1.1743036   -7.3569136     208.0051  0.029429132  0.029905244            2 
  590000    1.1743721   -7.3405935    208.53678  0.029454348  0.029899223            1 
  591000    1.1747128   -7.3500416    209.30957  0.029513476  0.029893456            2 
  592000     1.168075   -7.3795053    208.35841  0.029329731  0.029887156            1 
  593000    1.1320023   -7.2856306    210.46611  0.029576463  0.029881322            1 
  594000    1.1405472   -7.3418112    210.36488  0.029512468   0.02987584            2 
  595000    1.1390749   -7.3742244    210.05766   0.02941984  0.029869768            2 
  596000    1.1746303   -7.3450155    210.60019  0.029446336  0.029863507            4 
  597000    1.1834719   -7.3556446    210.24639  0.029347625  0.029857422            5 
  598000    1.1283144   -7.3820512    210.74002  0.029367339  0.029851241            3 
  599000    1.1603431   -7.3875748    211.48588  0.029422076  0.029845019            4 
  600000    1.1764725   -7.3219304    212.29709  0.029485706  0.029838865            2 
  601000    1.1638124   -7.3760884     211.8845  0.029379437  0.029833027            3 
  602000     1.175221   -7.3138113    212.15612  0.029368234   0.02982719            2 
  603000    1.1585213   -7.3904634    212.34905  0.029346193  0.029820879            3 
  604000    1.1302021   -7.3201708    213.02968  0.029391512  0.029814835            1 
  605000    1.1665049   -7.3500796    213.33622  0.029385154  0.029808685            3 
  606000    1.1251129     -7.34183    214.15421  0.029449149  0.029802982            2 
  607000    1.1427485   -7.3553598    214.32697  0.029424351  0.029797107            2 
  608000    1.1277246   -7.3430017    214.09138  0.029343665  0.029791521            2 
  609000    1.1675985    -7.359026    214.95715  0.029413951  0.029785632            3 
  610000    1.1630224   -7.3252487    215.55171  0.029446955  0.029780099            1 
  611000    1.1678854   -7.3491244    215.37265  0.029374339  0.029774764            2 
  612000    1.1655206   -7.3441123     215.8343  0.029389202  0.029769125            1 
  613000    1.1495991   -7.3659716    216.34049  0.029410072   0.02976369            3 
  614000    1.1373037   -7.3246584    216.70134  0.029411149  0.029758217            3 
  615000    1.1426045   -7.3422213    217.94447   0.02953177  0.029753178            2 
  616000    1.1482181   -7.3342973    217.30709  0.029397605  0.029747911            1 
  617000    1.1525442   -7.3354474    217.73388  0.029407601    0.0297423            2 
  618000    1.1508152   -7.3973061    217.34832  0.029308026  0.029736873            1 
  619000    1.1387222   -7.3556013    217.68605  0.029306145  0.029731266            3 
  620000    1.1652444   -7.3430124    217.79158  0.029273062  0.029725243            2 
  621000    1.1382264   -7.3521554    218.27166  0.029290346  0.029718741            1 
  622000    1.1587334   -7.3688896    218.31895  0.029249592  0.029712469            3 
  623000    1.1533218   -7.3374143    219.30512  0.029334553   0.02970669            2 
  624000    1.1754353   -7.3711947    219.12605  0.029263629  0.029700574            2 
  625000    1.1548423    -7.320273    220.45726  0.029394301  0.029694536            1 
  626000    1.1631763   -7.3362944    220.41576  0.029341822  0.029689067            3 
  627000    1.1543802   -7.3191736    220.41499  0.029294921  0.029683424           11 
  628000    1.1383403   -7.3543399    220.48342  0.029257354  0.029677567            1 
  629000     1.164506   -7.3602059    221.17473  0.029302428  0.029671651            2 
  630000    1.1537885   -7.3756355    221.17377   0.02925579  0.029665737            2 
  631000    1.1366288   -7.3773157    221.00121  0.029186636  0.029659783            2 
  632000    1.1640279   -7.3784219    221.65036   0.02922605  0.029653521            2 
  633000    1.1531322   -7.3564971    221.19146  0.029119465  0.029646623            1 
  634000    1.1439169    -7.377666    222.76477  0.029280332  0.029640096            2 
  635000    1.1406204     -7.34953    222.44359  0.029192072  0.029633811            1 
  636000    1.1499249   -7.3342409    222.56486  0.029162063  0.029627187            2 
  637000    1.1479431    -7.370686    222.51269  0.029109457  0.029620403            2 
  638000    1.1229719   -7.3383819    222.92038  0.029117083  0.029613258            1 
  639000    1.1331217   -7.3972588    222.22176  0.028980407  0.029605976            1 
  640000    1.1687388   -7.3583945    223.78897  0.029139189  0.029598098            1 
  641000    1.1465366    -7.351312    224.00068  0.029121253  0.029590926            2 
  642000    1.1385092   -7.3620526    223.94411  0.029068551  0.029583638            2 
  643000    1.1486048   -7.3366199    224.54191  0.029100818  0.029576243            1 
  644000    1.1489673   -7.4214665    224.55552  0.029057392  0.029569248            2 
  645000    1.1797345   -7.3568867    224.89165  0.029055769  0.029562268            2 
  646000    1.1413643    -7.361296    225.15754  0.029045091  0.029555272            2 
  647000    1.1398979   -7.3445371    225.23366  0.029010003  0.029547812            1 
  648000    1.1707595   -7.3730252    225.14254  0.028953516  0.029540349            4 
  649000    1.1436531   -7.3713567    225.76497  0.028988825  0.029532387            2 
  650000    1.1453416   -7.3571532    225.70443  0.028936465  0.029524321            1 
  651000    1.1354829   -7.3250715    226.43509  0.028985546   0.02951648            4 
  652000    1.1611689   -7.3560976    225.79008   0.02885865  0.029508087            1 
  653000    1.1654127   -7.3603687    226.45278  0.028899027  0.029499848            1 
  654000     1.139893   -7.3961043    226.40421   0.02884865  0.029491794            1 
  655000     1.153895   -7.3476482    227.55198  0.028950633  0.029483484            4 
  656000    1.1527402   -7.3815225     227.2432  0.028867277  0.029475441            2 
  657000    1.1361292   -7.3821241    227.32946   0.02883428  0.029466938            2 
  658000    1.1750965   -7.3418792    228.36315  0.028921372  0.029459084            2 
  659000    1.1441565   -7.3714365    227.92958  0.028822658  0.029451209            2 
  660000    1.1485209   -7.3744446    228.85272  0.028895545  0.029443487            1 
  661000    1.1272186   -7.4062812    228.88023  0.028855298  0.029435808            3 
  662000    1.1479468   -7.3283871    230.42298  0.029005914  0.029428058            1 
  663000    1.1553755    -7.377934    229.48139  0.028843815  0.029421123            2 
  664000    1.1415958   -7.3246765    231.22477  0.029019173  0.029413919            1 
  665000    1.1547187   -7.3467206    230.94063  0.028939928  0.029406713            3 
  666000    1.1380701    -7.349246    231.22601  0.028932183   0.02939978            1 
  667000    1.1297041   -7.3280276    232.13199  0.029001997  0.029392745            2 
  668000    1.1395375   -7.3766489    231.92961  0.028933334  0.029385987            3 
  669000    1.1380703   -7.4024239    232.32102  0.028938841  0.029379282            1 
  670000    1.1332139   -7.3785728      232.903  0.028968034  0.029372889            1 
  671000    1.1787583   -7.3544484    233.28219  0.028971956  0.029366294            2 
  672000    1.1310216   -7.3421822    233.69943  0.028980584  0.029359515            1 
  673000    1.1537735   -7.4305767    232.55644  0.028795993   0.02935278            2 
  674000    1.1665634   -7.3707872    233.59135  0.028881225  0.029345862            4 
  675000    1.1584149   -7.3576036    233.90115  0.028876685  0.029339351            2 
  676000    1.1300541   -7.3376217    235.01744  0.028971578  0.029332936            2 
  677000    1.1280017   -7.3492587     235.3277  0.028966974  0.029326531            1 
  678000    1.1130534   -7.3491754    235.31307  0.028922452  0.029319393            1 
  679000    1.1329399   -7.4151476    234.88388  0.028827182  0.029312269            1 
  680000    1.1342497   -7.3588994    234.95375  0.028793352  0.029305176            2 
  681000    1.1437903   -7.3734733    235.18733  0.028779654  0.029298028            1 
  682000    1.1439021    -7.388012     235.8876   0.02882302  0.029290881            2 
  683000    1.1292909   -7.3610335    236.35423  0.028837754  0.029283636            2 
  684000    1.1323551   -7.3749768    236.60966  0.028826712  0.029276346            1 
  685000    1.1475697   -7.4185593    235.87827  0.028695653  0.029269075            1 
  686000    1.1348947   -7.4124039    236.04815  0.028674459  0.029261624            2 
  687000      1.13348   -7.4277849    236.38004   0.02867298  0.029254047            2 
  688000     1.142631   -7.3575613    237.59715  0.028778724  0.029246638            1 
  689000     1.159789   -7.4210579    236.80014  0.028640559  0.029239415            1 
  690000     1.150768   -7.4109727    237.72782  0.028711089  0.029231969            3 
  691000    1.1121655   -7.3399987    239.32877  0.028862611  0.029224523            1 
  692000    1.1328344   -7.3415038    239.42213  0.028832145  0.029217322            3 
  693000    1.1347608   -7.3912012    239.04898  0.028745669  0.029210219            1 
  694000    1.1309909   -7.4631053    238.59775  0.028650066  0.029202782            2 
  695000    1.1274356   -7.3902996     239.4918  0.028716043  0.029195252            2 
  696000    1.1383287   -7.3992554    239.78273  0.028709618  0.029187602            2 
  697000    1.1541546   -7.3916631    240.08321  0.028704354  0.029180375            2 
  698000    1.1529509   -7.4017301    240.13122  0.028668961  0.029172942            3 
  699000    1.1630381   -7.3948083    240.79716  0.028707339  0.029165804            2 
  700000    1.1450648    -7.385794    241.35926  0.028733245  0.029158665            1 
  701000    1.1409273   -7.3653509    241.77393  0.028741551   0.02915178            2 
  702000    1.1228403   -7.3709399    242.20259  0.028751495  0.029144757            2 
  703000    1.1607847   -7.3735281    242.35558  0.028728731  0.029137743            2 
  704000     1.129906   -7.3694385    242.46355  0.028700704  0.029130509            1 
  705000    1.1443353   -7.4188076     242.3492  0.028646477  0.029123174            2 
  706000    1.1356639   -7.3470365    243.49238  0.028740837  0.029115658            1 
  707000    1.1585956   -7.4066055    242.26362  0.028555353  0.029107949            1 
  708000    1.1298392   -7.3857904    242.99907  0.028601586  0.029100091            4 
  709000    1.1456021   -7.4064401    242.92689  0.028552761  0.029092249            1 
  710000    1.1568188   -7.3783692    243.26437  0.028552156  0.029084364            2 
  711000    1.1268752   -7.3864347    243.17067  0.028501017  0.029076534            1 
  712000    1.1474201   -7.3669758     244.2557  0.028587979  0.029068731            1 
  713000    1.1232098   -7.4024545    244.90784  0.028624105  0.029060875            2 
  714000    1.1762818   -7.4024875    244.33238  0.028516851  0.029053143            3 
  715000    1.1501322   -7.3971546    245.58705    0.0286232  0.029045284            2 
  716000    1.1204719   -7.3675557    245.19192  0.028537234  0.029037264            2 
  717000    1.1402843   -7.4287794    244.79707  0.028451542  0.029029107            2 
  718000    1.1497602   -7.3770018    245.30181  0.028470498  0.029021315            3 
  719000    1.1108893   -7.3486422    245.91085  0.028501489  0.029013972            2 
  720000    1.1534149   -7.3950977    246.64276  0.028546616  0.029006459            2 
  721000    1.1489391   -7.4203735    246.41773  0.028481013  0.028998438            1 
  722000    1.1376983   -7.4226227    246.29792  0.028427738  0.028990703            1 
  723000     1.114037   -7.3546141    246.80893  0.028447318  0.028982863            1 
  724000    1.1311765   -7.3885619    247.48731  0.028486109  0.028974764            7 
  725000    1.1500104   -7.3955888    246.86829  0.028375666  0.028966523            1 
  726000    1.1350571   -7.3837331    247.94028  0.028459628  0.028958184            1 
  727000    1.1042617   -7.3992764    248.49839  0.028484456  0.028949761       -1e+20 
  728000    1.1475047   -7.4384121    246.52264  0.028219167  0.028941531            3 
  729000    1.1389247   -7.4133029    248.15318  0.028366847  0.028932984            2 
  730000    1.1456856    -7.417178    247.83045  0.028291147  0.028924225            1 
  731000    1.1364078   -7.3840121    248.46256  0.028324505  0.028915566            2 
  732000    1.1485298   -7.3755855    249.00391  0.028347439  0.028907079            1 
  733000    1.1467711   -7.4247345    248.78464  0.028283839  0.028898051            1 
  734000    1.1568033   -7.3836826    249.11472  0.028282779  0.028889112            1 
  735000    1.1116823   -7.3746828    250.09933  0.028355933  0.028880422            4 
  736000    1.1104744   -7.4271815    249.98053  0.028303955  0.028871997            1 
  737000     1.142488   -7.4310882    250.29561  0.028301177  0.028863199            2 
  738000    1.1456085   -7.4040163    249.75246  0.028201497  0.028854581            3 
  739000    1.1235211   -7.3448927    252.05489  0.028422969   0.02884609            1 
  740000    1.1183001   -7.4195522    250.97535   0.02826299  0.028837663           17 
  741000    1.1072432   -7.4444529    250.96107  0.028223242  0.028829092            2 
  742000    1.1439794   -7.3760145    250.86965  0.028174938  0.028820417            4 
  743000    1.1365556   -7.4455541     250.9656   0.02814778  0.028811572            2 
  744000    1.1074545   -7.3996177    251.89432   0.02821397  0.028802682            1 
  745000    1.1141574   -7.3861009    251.83408   0.02816936  0.028793542            5 
  746000    1.1346327    -7.379149    252.54171  0.028210647  0.028784351            2 
  747000    1.1562771   -7.4315509    251.97309  0.028109448  0.028775183            1 
  748000    1.1390952   -7.3568122    253.28267  0.028217766  0.028766573            1 
  749000    1.1255209   -7.3852761    252.58406  0.028102365  0.028757799            4 
  750000    1.1205227   -7.4004845    253.18473  0.028131636   0.02874906            1 
  751000    1.1255741   -7.4078478    253.22801   0.02809898   0.02874036            1 
  752000    1.1272239    -7.403045     252.9966  0.028035971   0.02873155            2 
  753000    1.1456523     -7.35931    254.98689  0.028219001   0.02872288            1 
  754000    1.1374596   -7.3791542       255.11  0.028195181  0.028714482            2 
  755000     1.135703    -7.359176    255.09348  0.028156013  0.028705914            1 
  756000     1.143875   -7.3758244    254.54797  0.028058639  0.028697111            2 
  757000    1.1458205   -7.4061721     255.1725  0.028090324   0.02868826            2 
  758000    1.1334191   -7.3885489    255.63307    0.0281039  0.028679174            3 
  759000    1.1508167   -7.4134783    255.09466  0.028007758  0.028670007            1 
  760000    1.1283345   -7.4342158    255.06184  0.027967308  0.028660517            1 
  761000    1.1152956   -7.3578912    256.57534  0.028096292  0.028651188            2 
  762000    1.0988812   -7.4037579    256.28238  0.028027381  0.028642019            2 
  763000    1.1238509   -7.3983643    256.16441  0.027977765  0.028632555            3 
  764000    1.1184874   -7.3875673    256.29796  0.027955712  0.028623294            1 
  765000    1.1074813   -7.4275157    255.14338  0.027793396  0.028613746            1 
  766000    1.1036971   -7.4075636    257.10097   0.02797008  0.028604076            2 
  767000    1.1296575   -7.4187242    256.89115  0.027910815  0.028594707            2 
  768000    1.1365035   -7.4029391    257.35833  0.027925166  0.028585393            3 
  769000    1.1340169   -7.4533272    256.67584  0.027814894  0.028575701            2 
  770000    1.1262465   -7.3675768    258.85985  0.028015135  0.028566332            1 
  771000     1.140078   -7.4262004    258.29108  0.027917324  0.028556913            5 
  772000    1.1173637   -7.4134253     258.7538   0.02793111  0.028547827            1 
  773000    1.1059917   -7.4201816    258.91501  0.027912355  0.028538407            3 
  774000    1.1223534   -7.4171916    259.59881  0.027949915  0.028528887            3 
  775000    1.1451614   -7.3986328    258.96656  0.027845867  0.028519405            2 
  776000    1.1434465   -7.4058044    259.50496  0.027867801  0.028510088            2 
  777000    1.1186742   -7.3928705    260.58496  0.027947765  0.028500906            4 
  778000    1.1101087   -7.3976773    260.30639  0.027882004  0.028491768            2 
  779000    1.1104967   -7.4094053    261.02242  0.027922809  0.028482729            2 
  780000    1.1039192   -7.4269313    260.32632  0.027812641  0.028474047            1 
  781000     1.095388   -7.3827243    262.41209  0.027999582  0.028465394            1 
  782000    1.1182818   -7.4113636    261.88054  0.027907134  0.028456884            2 
  783000    1.1228024   -7.4222891    262.27535  0.027913512  0.028448219            1 
  784000     1.137589   -7.4316403    262.19164  0.027869009  0.028439929            1 
  785000    1.1183703   -7.4405685    263.19218  0.027939722  0.028431648            2 
  786000    1.1210262   -7.4282744    262.37636   0.02781768  0.028423291            4 
  787000    1.1242011   -7.4491831    262.79363  0.027826517   0.02841453            2 
  788000    1.1231509   -7.4003407    263.89315  0.027907482  0.028406214            3 
  789000    1.1454064   -7.3733717    264.30285  0.027915383  0.028397508            2 
  790000    1.1097576   -7.4330376    263.41373  0.027786258  0.028388878            2 
  791000    1.0915925   -7.4391803    263.80916  0.027792789  0.028379977            8 
  792000    1.1341356   -7.3959929    265.06544  0.027889882  0.028371041            1 
  793000     1.131121   -7.4328351    265.21531  0.027870461  0.028362037            2 
  794000    1.1174565   -7.4068487    265.15569  0.027829102  0.028353161            2 
  795000    1.1248819   -7.4469782    264.76885  0.027753548  0.028344416            1 
  796000    1.1303706   -7.4651282    264.92678  0.027735215  0.028335529            2 
  797000    1.1033618   -7.4065512    265.63071  0.027774018  0.028326813            1 
  798000    1.1415239   -7.4574003    265.48348  0.027723839  0.028318278            1 
  799000    1.1183416    -7.393867    266.24955   0.02776904  0.028309648            3 
  800000    1.1300168   -7.3904421    267.09082   0.02782196   0.02830122            1 
  801000    1.1425899   -7.4483379     265.8945  0.027662765   0.02829241            1 
  802000    1.1135653   -7.3866869    267.46161  0.027791107  0.028283617            1 
  803000    1.1443991   -7.3938733    267.11736  0.027720772  0.028274636            2 
  804000    1.1154415   -7.4287959    266.58692  0.027631314   0.02826546            6 
  805000    1.1214425   -7.4398267    265.68911  0.027504049  0.028256143            6 
  806000    1.0873585     -7.43037    267.26675  0.027633038  0.028246766            2 
  807000    1.1231688   -7.4601088    266.70442  0.027540729  0.028237583            3 
  808000    1.1281831   -7.4150544    267.94685  0.027634782  0.028228212            2 
  809000    1.1262094    -7.468593    268.25027  0.027631878  0.028219163            1 
  810000    1.1405567   -7.4218466    269.01179   0.02767611  0.028209908            1 
  811000     1.136959     -7.42414    268.69647  0.027609584  0.028200889            1 
  812000    1.1186855   -7.4460975    269.50738  0.027658804  0.028191701            2 
  813000     1.091075   -7.4640046    269.03981  0.027576856  0.028182471            1 
  814000    1.1211003    -7.438118    269.20418  0.027559805  0.028173333            2 
  815000    1.1201989    -7.410093    270.52143  0.027660677  0.028164484            3 
  816000    1.1124043   -7.4356844     270.8536  0.027660702  0.028155488            2 
  817000    1.1200625   -7.4308886     270.4448  0.027585149   0.02814635            2 
  818000    1.1265656   -7.4272178     270.9626  0.027604177  0.028137113            2 
  819000    1.1201981   -7.4656701    270.37546   0.02751073   0.02812797            2 
  820000    1.1296187   -7.4240124     271.2082  0.027561809  0.028118802            2 
  821000    1.1121548    -7.413314    271.62526   0.02757057  0.028110144            2 
  822000    1.1096947   -7.4358838    271.53389  0.027527766  0.028100889            2 
  823000    1.1298884   -7.4353969    271.64644  0.027505714  0.028091596            3 
  824000    1.1177441   -7.4155317    272.84247  0.027593292  0.028082502            2 
  825000    1.1175855   -7.4311631    273.15423  0.027591337  0.028073801            2 
  826000     1.121921   -7.4058135    272.87318  0.027529578  0.028064942            1 
  827000    1.1063774   -7.4385175    273.28392  0.027537678  0.028055831            1 
  828000     1.125298   -7.4266537    273.42099  0.027518216  0.028046881            3 
  829000    1.1431138   -7.4415345    274.16462  0.027559773  0.028037894            3 
  830000    1.0988221   -7.4151625    274.99176  0.027609615  0.028029144            3 
  831000    1.1163372   -7.4356088    274.38589  0.027515632  0.028020603            1 
  832000    1.0894151   -7.5037915      274.564    0.0275004  0.028011891            1 
  833000    1.1226577   -7.4618632    275.38559  0.027549579  0.028003464            3 
  834000    1.1179185   -7.4227477    275.06391  0.027484404  0.027994943            4 
  835000    1.1230678   -7.4325037    274.94102  0.027439223  0.027986642            3 
  836000    1.1251964   -7.4432852    276.28645  0.027540515  0.027978109            1 
  837000     1.135501   -7.4574707    275.73868  0.027453075  0.027969767            1 
  838000    1.1181108   -7.4559653     276.6405  0.027509994  0.027961612            2 
  839000    1.1414897   -7.4398113    276.79405  0.027492456  0.027953487            1 
  840000    1.1339152   -7.4286067    277.60844   0.02754052  0.027945505            1 
  841000    1.1275526    -7.472668    277.01292  0.027448764  0.027937455            2 
  842000    1.1246045   -7.4480016    278.09076  0.027522839  0.027929267            1 
  843000    1.1311463   -7.4390185      278.772  0.027557533  0.027921433            2 
  844000    1.1130604   -7.4423297    278.50227  0.027498249  0.027913762            3 
  845000    1.1238554   -7.4308592    278.88531  0.027503482  0.027905628            4 
  846000    1.1262447   -7.4475351     278.3096  0.027414264  0.027897401            2 
  847000    1.1419813   -7.5046866    278.13763  0.027364977  0.027889035            1 
  848000     1.130632   -7.3973435    279.50129  0.027466715  0.027880749            1 
  849000    1.1159782   -7.4803662    278.66728  0.027352501  0.027872219            1 
  850000    1.1117784   -7.4369263    279.01584  0.027354494  0.027863408            2 
  851000    1.1072117   -7.4180577    280.29901  0.027448003  0.027854694            1 
  852000      1.14217   -7.4557993    279.73888  0.027361001   0.02784602            1 
  853000    1.1168635   -7.4188174    279.98184  0.027352661  0.027837233            1 
  854000    1.1317484   -7.4519901    280.16062  0.027338078  0.027828305            1 
  855000    1.1073131   -7.4374978    280.06489  0.027296773  0.027819595            1 
  856000    1.1149744   -7.4545261    279.81594  0.027240648  0.027810713            2 
  857000    1.1105118   -7.4430472    280.84541  0.027308966  0.027801911            2 
  858000    1.1352562   -7.4273695     280.4825   0.02724189  0.027792974            2 
  859000    1.0855074   -7.4724714    280.22014  0.027184724  0.027783992            4 
  860000     1.108873   -7.4344691    281.31839  0.027259534  0.027774995            2 
  861000    1.1218228   -7.4325481    280.84717  0.027182266  0.027766142            2 
  862000    1.0833168   -7.4229529    282.25766   0.02728709  0.027757227            2 
  863000    1.1284032   -7.4101486    282.02404  0.027232913  0.027748239            2 
  864000    1.1181515   -7.4167504    282.68377  0.027265024  0.027739367            3 
  865000     1.100958   -7.4607048    282.60878  0.027226279  0.027730529            1 
  866000    1.0903453   -7.4280356    284.32015  0.027359521  0.027721712            1 
  867000    1.1058187   -7.4717003    283.30859  0.027230737   0.02771301            2 
  868000    1.1246172   -7.4895576    283.03602  0.027173197    0.0277042            5 
  869000    1.1333853    -7.456706    283.44189  0.027180849  0.027695174            1 
  870000    1.0968496   -7.4346097    284.98519  0.027297432  0.027686564            1 
  871000    1.1265764   -7.4569651    283.98599  0.027170493  0.027677832            4 
  872000    1.1086826   -7.4820316    284.17678  0.027157567  0.027669058            1 
  873000    1.0984636   -7.4890383    284.31887  0.027140021  0.027660014            5 
  874000    1.0905557   -7.4889974    283.65041  0.027045234  0.027651032            2 
  875000    1.0929108   -7.4589179    285.19942  0.027161849  0.027642381            1 
  876000    1.1358845   -7.4738057    284.78093  0.027091032   0.02763374            2 
  877000    1.1256646   -7.4585872    285.66341  0.027143996  0.027624906            2 
  878000    1.1115024   -7.4404677    286.23086  0.027166938  0.027616313            6 
  879000    1.0773314   -7.4334854    286.67452  0.027178093  0.027607701            3 
  880000    1.1446053   -7.4336832    286.72267  0.027151768  0.027599192            2 
  881000    1.1124788   -7.4342892    287.48959  0.027193491  0.027590859            1 
  882000      1.08047   -7.4079558    287.70229  0.027182756  0.027582404            3 
  883000    1.1094035   -7.4637544    287.97834  0.027178024  0.027574049            4 
  884000    1.1068173   -7.4672659     287.7507  0.027125821  0.027565555            1 
  885000    1.1068822   -7.4723019    287.67652  0.027088184  0.027557053            1 
  886000    1.1251115   -7.4127179    288.29219  0.027115518  0.027548574            2 
  887000    1.1068245   -7.4652105     287.7447  0.027033512  0.027540023            1 
  888000    1.1213084    -7.469915    288.29724  0.027054921  0.027531053            2 
  889000    1.1346392   -7.4434093    289.22497  0.027111452  0.027522148            2 
  890000    1.1216043   -7.4275152    288.42471  0.027006059  0.027513394            2 
  891000    1.1168831   -7.4410221    290.38089  0.027158707  0.027504808            2 
  892000    1.0722994    -7.456161    288.79735  0.026980321  0.027496247            1 
  893000     1.119922   -7.4608045    289.89177  0.027052237  0.027487734            1 
  894000     1.112927   -7.4731507    290.09625  0.027041038  0.027479304            2 
  895000    1.1161419   -7.4679566    290.95749  0.027091014   0.02747099            1 
  896000    1.1244371   -7.4593001    291.20413  0.027083718   0.02746221            2 
  897000    1.1035804   -7.4848146    290.21549  0.026961677  0.027453581            2 
  898000     1.119386    -7.469511    289.96022  0.026907964  0.027444827            2 
  899000    1.0911346    -7.494642    291.06156  0.026980122  0.027436163            2 
  900000    1.0924014   -7.4441948    291.57418  0.026997609  0.027427546            2 
  901000    1.0953535   -7.4314492    292.58672  0.027061295  0.027419157            2 
  902000    1.0975742   -7.4736891    292.37983   0.02701218  0.027410516            1 
  903000    1.1212758   -7.4841809    292.01662  0.026948746  0.027402231            1 
  904000     1.114483   -7.4825576    291.68366  0.026888243  0.027393653            1 
  905000    1.1303394   -7.4217644    292.29684  0.026914995  0.027385273            1 
  906000    1.1067594   -7.4392894    292.59484  0.026912697  0.027376812            2 
  907000     1.096307   -7.4525827    293.31004  0.026948735   0.02736817            1 
  908000    1.1026953   -7.4620243    292.83795   0.02687573  0.027359592            2 
  909000    1.1158745   -7.4209223    293.87784  0.026941496  0.027350917            2 
  910000    1.1186614   -7.4776108    293.67148  0.026892992  0.027342147            1 
  911000    1.1100258   -7.4736265    294.03268  0.026896513  0.027333357            3 
  912000    1.1128778   -7.4450459    294.16765  0.026879354  0.027324832            1 
  913000    1.0706185    -7.474665    294.56478  0.026886161  0.027316284            1 
  914000     1.113883   -7.4363205    295.30425  0.026924166  0.027307858            3 
  915000    1.0954482   -7.4970136    294.13281  0.026788052  0.027299151            2 
  916000    1.1091416   -7.5350015    294.24021  0.026768578  0.027290446            8 
  917000    1.0869983   -7.4400508    296.58569  0.026952535  0.027281902            2 
  918000    1.1007985   -7.4673319    296.22266   0.02689022  0.027273595            2 
  919000    1.1013184   -7.4415979    296.33549   0.02687119  0.027265156            2 
  920000    1.1074698   -7.4560493    296.52951  0.026859557  0.027256795            1 
  921000    1.0876972   -7.4675634    296.41514  0.026820045  0.027248397            2 
  922000    1.1044356   -7.4580436    297.41561  0.026881382  0.027240427            1 
  923000    1.1055863   -7.4570764    296.89592  0.026805338  0.027232252            2 
  924000    1.0862405   -7.4940349    298.05385  0.026880758    0.0272239            1 
  925000     1.116514   -7.4872418    298.97084   0.02693431   0.02721561            2 
  926000    1.1127244    -7.519692    296.87287  0.026716421   0.02720707            1 
  927000    1.0965341   -7.4901767    297.37418  0.026732666   0.02719843            2 
  928000    1.0927517   -7.4872764    298.62207  0.026815918  0.027190067            1 
  929000    1.0947317   -7.4960409     298.4425  0.026770946  0.027181824            2 
  930000    1.1228774   -7.4703211    299.52352  0.026839025  0.027173598            5 
  931000    1.1211824   -7.4540034    299.92481  0.026846116  0.027165358            2 
  932000    1.1099948   -7.4735272    299.41445  0.026771678  0.027157295            2 
  933000    1.1099666   -7.4818098    300.66217  0.026854427  0.027148967            2 
  934000    1.0849625   -7.4849687    300.37005  0.026799612  0.027140905            2 
  935000    1.1130774   -7.4844103    300.60601   0.02679198  0.027132833            2 
  936000    1.1166542   -7.4997483    299.97998  0.026707619  0.027124535       -1e+20 
  937000    1.0825096   -7.4468705    301.82448  0.026843159  0.027116229            1 
  938000    1.0933936   -7.4226885    301.80788  0.026813067  0.027108103            2 
  939000    1.1219808   -7.4967155    300.11287  0.026634085  0.027099734            1 
  940000    1.0991812   -7.5195348     300.4154  0.026632571  0.027091203            3 
  941000    1.1035249   -7.5091611    301.20503  0.026674197  0.027082796            2 
  942000    1.1335127   -7.4884454    301.48052  0.026670251  0.027074448            2 
  943000    1.1264148    -7.480836    301.61113  0.026653511  0.027066293            2 
  944000    1.0885789   -7.4945452    302.68925  0.026720449  0.027058263            2 
  945000    1.1166182    -7.508623    301.91651  0.026624031  0.027050308            1 
  946000    1.0890488   -7.4895564    303.36903   0.02672384  0.027042378            2 
  947000    1.0923134   -7.4816268    303.79998  0.026733543  0.027034071            1 
  948000    1.1171829   -7.4657177    303.60444  0.026688154  0.027025877            1 
  949000    1.0966736   -7.4943387     303.2199  0.026626264  0.027017693            1 
  950000    1.1118093    -7.470263    303.63009  0.026634218  0.027009444            1 
  951000    1.1325115   -7.4508685    304.45729  0.026678697   0.02700139            1 
  952000    1.1071712   -7.5337702    303.35756  0.026554408  0.026993112            2 
  953000    1.1092925   -7.4790462     304.9242  0.026663536   0.02698495            2 
  954000    1.1365182   -7.4823673    304.82418   0.02662685  0.026976851            2 
  955000    1.0984043   -7.4629683     304.7362  0.026591291  0.026968838            2 
  956000    1.0974465   -7.4386262    306.28756  0.026698707   0.02696093            2 
  957000    1.1057978   -7.4894809    305.41055   0.02659444   0.02695287            3 
  958000     1.088613   -7.4560782    306.35127   0.02664851  0.026944942            1 
  959000    1.1214714   -7.4777411    306.18828  0.026606559  0.026936914            2 
  960000     1.087167   -7.4472677    307.18043  0.026664968  0.026928873            2 
  961000    1.1101874   -7.5225204    305.87292   0.02652384  0.026920864            2 
  962000    1.0737652    -7.494001    306.13286  0.026518785  0.026912576            2 
  963000    1.0899157   -7.4585137    307.31086  0.026593187  0.026904478            2 
  964000    1.1230057   -7.4851278    307.36325  0.026570129  0.026896417            5 
  965000    1.1063055   -7.4663623    307.83366  0.026583217  0.026888398            3 
  966000    1.0943608   -7.4588494    308.18865  0.026586323  0.026880281            2 
  967000    1.1204001   -7.4854845    307.77442  0.026523132  0.026872346            4 
  968000    1.1019574   -7.4796001    308.50717  0.026558813  0.026864327            2 
  969000     1.072791   -7.4780628    309.14662  0.026586397  0.026856391            1 
  970000     1.093951   -7.4560975    309.52624  0.026591601  0.026848493            2 
  971000    1.1013724   -7.5266928    308.46835  0.026473425  0.026840595            3 
  972000    1.1096056   -7.4558302    309.85512  0.026565083  0.026832854            1 
  973000    1.1023665   -7.4631761    310.25739  0.026572233  0.026825108            1 
  974000    1.0833535   -7.4991629    310.33582  0.026551662  0.026817592            1 
  975000    1.0970961   -7.4711279    310.07153  0.026501841  0.026810112            2 
  976000    1.0926797   -7.5026091    309.82483  0.026453622  0.026802656            1 
  977000    1.0994278   -7.4709654    310.56531  0.026489706  0.026794854            2 
  978000    1.0891818   -7.4853421     311.5112  0.026543217  0.026787256            2 
  979000    1.0896758   -7.5312048    311.10613  0.026481625  0.026779554            2 
  980000    1.0838089    -7.505744    311.34104  0.026474579  0.026771738            2 
  981000    1.0828991    -7.526553    310.83289  0.026404425  0.026763924            3 
  982000    1.1045475   -7.5182375    311.61121  0.026443585  0.026756106            2 
  983000    1.0820672   -7.5366404    311.81126  0.026433644  0.026748406            4 
  984000    1.0909658   -7.5027633    312.14765  0.026435269  0.026740675            3 
  985000     1.080292   -7.5131409     312.5069  0.026438824  0.026732908            3 
  986000    1.0936959   -7.5416135    311.88082  0.026359095  0.026725004            2 
  987000    1.1089863   -7.5338319    312.85434  0.026414585  0.026717201            1 
  988000    1.1131546   -7.5490757    313.11648  0.026409959  0.026709409            1 
  989000    1.0742452     -7.48436    314.30014  0.026482991    0.0267017            2 
  990000     1.101261   -7.4670888    314.57163  0.026479093  0.026694249            3 
  991000    1.0946774    -7.480999    313.99395  0.026403796  0.026686832            3 
  992000    1.0926087   -7.4439315    315.42388  0.026497301  0.026679447            2 
  993000    1.0943657   -7.5274046    314.66055  0.026406559  0.026672068            2 
  994000    1.1173422   -7.4573429    315.58526  0.026457517  0.026664454            4 
  995000    1.0949433   -7.5030184    315.94401  0.026460973  0.026657019            1 
  996000    1.0948484   -7.4828806    316.04218  0.026442619  0.026649506            2 
  997000    1.0991821   -7.4985417    315.95457  0.026408774  0.026641939            1 
  998000    1.0774906   -7.4844018      316.425  0.026421593  0.026634535            1 
  999000    1.0834376   -7.5564647    316.56485  0.026406811   0.02662726            1 
 1000000    1.0935319   -7.5122066    316.64174  0.026386812  0.026619978            1 
 1001000    1.0736917   -7.5223665    317.80772  0.026457519  0.026612803            7 
 1002000    1.0996573    -7.464543    318.56691  0.026494254  0.026605727            1 
 1003000    1.0913573   -7.4941723    317.47778  0.026377349  0.026598605            1 
 1004000    1.1013835    -7.501778    318.51244  0.026436955  0.026591483            2 
 1005000    1.0816492   -7.5156835     319.1846  0.026466385  0.026584481            2 
 1006000    1.1053137   -7.5266115    318.72919  0.026402352  0.026577569            1 
 1007000    1.0805103   -7.4768281    319.23665  0.026418127  0.026570564            3 
 1008000    1.0979943   -7.5347743    319.41994  0.026407071  0.026563463            3 
 1009000     1.111282   -7.5576505    319.15086  0.026358677  0.026556214            2 
 1010000    1.0825942   -7.4992364    319.51643  0.026362742  0.026549012            3 
 1011000      1.08832   -7.5145345    319.80747  0.026360656  0.026541992            4 
 1012000    1.0930022   -7.4799829    321.51991  0.026475618   0.02653485            3 
 1013000    1.0789695   -7.4941032    320.57736  0.026371944  0.026527671            3 
 1014000    1.0956457    -7.504763    320.16295  0.026311879  0.026520653            4 
 1015000    1.1032435   -7.5064991    320.35835  0.026301999  0.026513552            1 
 1016000    1.0979794   -7.4857143    321.25452  0.026349616  0.026506593            3 
 1017000      1.08847   -7.5049711     321.6278  0.026354294  0.026499452            1 
 1018000    1.0635388   -7.5332322     321.5243  0.026319932  0.026492185            2 
 1019000    1.0810915   -7.5197933    321.33885  0.026278938  0.026484953            1 
 1020000    1.0975584   -7.5295465    321.66482  0.026279806  0.026477765            1 
 1021000    1.0797134   -7.5273499    321.50266  0.026240831   0.02647037            2 
 1022000    1.0878258   -7.5311818    321.41022  0.026207617  0.026463056            1 
 1023000    1.0581532   -7.5370892    322.72416  0.026289032  0.026455699            2 
 1024000    1.0798643   -7.4833007    323.24596  0.026305824  0.026448606            1 
 1025000    1.0516461   -7.4928205    323.55103  0.026304962  0.026441468            1 
 1026000    1.0971852   -7.5211214    324.23408  0.026334802  0.026434488            1 
 1027000    1.0928101   -7.5142211    323.21353  0.026226349  0.026427458            1 
 1028000    1.1123466   -7.5018114    323.59118  0.026231451  0.026420342            6 
 1029000    1.0682634   -7.5035395    323.94833  0.026234882   0.02641319            2 
 1030000    1.1029592   -7.4696707    324.14165  0.026225053   0.02640604            1 
 1031000    1.0808196   -7.5079325    324.44922  0.026224476  0.026398732            2 
 1032000    1.0861967   -7.5203938     324.2027  0.026179158  0.026391172            2 
 1033000    1.0992992   -7.5245045    323.86759  0.026126782  0.026383657            3 
 1034000    1.0933319   -7.5101243    324.86882  0.026182207  0.026376264            3 
 1035000    1.1027599   -7.5464179    325.05532  0.026171926  0.026369085            2 
 1036000    1.0941267   -7.5459996    324.91897  0.026135696  0.026361879            1 
 1037000     1.101628   -7.4736807     326.4077  0.026230127  0.026354763            3 
 1038000     1.083645   -7.5155018    326.49409  0.026211793  0.026347857            3 
 1039000    1.0831431   -7.5115492    326.89708  0.026218887  0.026340845            2 
 1040000     1.092697   -7.5259631    326.15821  0.026134472  0.026333935            2 
 1041000    1.0983537   -7.4996359    327.14873  0.026188659  0.026326998            3 
 1042000    1.1107459   -7.5254088    327.33958  0.026178789   0.02631991            1 
 1043000    1.1159367   -7.5417678    327.13966  0.026137717  0.026312875            2 
 1044000    1.0665652   -7.5284981    328.52826   0.02622352  0.026305773            4 
 1045000    1.0809422   -7.5795561    327.01714  0.026077922  0.026298602            1 
 1046000    1.0755599     -7.54089    327.84466  0.026118918  0.026291333            3 
 1047000    1.0930922    -7.529009    328.28708  0.026129185  0.026284143            2 
 1048000    1.0666307   -7.5233587    327.82322  0.026067368  0.026276857            1 
 1049000    1.0910825   -7.5188946     327.8159  0.026041936   0.02626945            2 
 1050000    1.0991916   -7.4994569    328.83848  0.026098292  0.026262256            3 
 1051000     1.076585   -7.5263111     328.7851  0.026069228  0.026254944            2 
 1052000    1.1008205   -7.5327721    328.96877  0.026058996  0.026247448            1 
 1053000    1.0919519   -7.5406415    328.44723  0.025992974  0.026239853            2 
 1054000    1.0787016   -7.5781252    328.22485  0.025950731  0.026232108            1 
 1055000    1.0678609   -7.5551468     328.4644  0.025945056  0.026224349            2 
 1056000    1.0832697   -7.5166648     329.1298  0.025972996  0.026216808            3 
 1057000    1.0664853   -7.5282343    329.69778  0.025993203  0.026209344            1 
 1058000     1.075147   -7.5067551    330.74769   0.02605133  0.026201694            2 
 1059000    1.0913859   -7.4898981    330.81718  0.026032199  0.026194251            2 
 1060000    1.0944152   -7.5244976     331.0185  0.026023467  0.026186935            1 
 1061000    1.0907825   -7.5316312    330.64514  0.025969615  0.026179748            1 
 1062000    1.0818597   -7.5226233    331.73275  0.026030504  0.026172593            5 
 1063000    1.0629499   -7.5062541    332.03604  0.026029793  0.026165539            1 
 1064000    1.0716808   -7.5461808    331.87213  0.025992492   0.02615847            2 
 1065000     1.083504   -7.5172556    333.32984  0.026082147  0.026151331            4 
 1066000    1.1030868    -7.540443    332.39907  0.025984918  0.026144301            2 
 1067000    1.0723241   -7.5457163    332.48998  0.025967665  0.026137156            2 
 1068000    1.0991403   -7.5020419    333.36184   0.02601138  0.026129986            2 
 1069000    1.0660159   -7.5357946    334.84088  0.026102345  0.026123084            2 
 1070000    1.0913595   -7.5387061    333.87178  0.026002475  0.026115934            5 
 1071000     1.080681   -7.5539137    333.80617  0.025973091  0.026108978            1 
 1072000     1.066913   -7.5436963    334.36689  0.025992451  0.026101985            2 
 1073000    1.0558455   -7.5483503    333.61994  0.025910216  0.026095148            1 
 1074000     1.075207   -7.5116742    334.59272  0.025961571  0.026088275            1 
 1075000    1.0844071    -7.510582    334.93463  0.025963925  0.026081592            1 
 1076000    1.0726868   -7.5038484     336.5253  0.026062988  0.026074808            2 
 1077000    1.0731998   -7.5193705    336.58361    0.0260433  0.026068057            3 
 1078000    1.0751975   -7.4999622    336.27766   0.02599549  0.026061505            2 
 1079000    1.0657535    -7.478915    337.25672  0.026047012  0.026054719            1 
 1080000    1.1092542   -7.5130688    336.49633  0.025964223  0.026047844            1 
 1081000    1.0697627   -7.5112196    337.09612  0.025986441  0.026041076            1 
 1082000    1.0653168   -7.5531606    335.88747  0.025869337  0.026034166            1 
 1083000    1.0553299   -7.5124344    336.05848  0.025858609  0.026027221            5 
 1084000    1.0556287   -7.5317915    337.40215   0.02593805  0.026020402            3 
 1085000    1.0780004   -7.5393657    336.55654  0.025849196  0.026013604            5 
 1086000    1.0859124   -7.5612961    337.25877   0.02587928  0.026006458            3 
 1087000     1.076672   -7.5292655    338.46783  0.025948163  0.025999471            1 
 1088000    1.0652439   -7.5475606     336.6586  0.025785739  0.025992487            1 
 1089000    1.0690547   -7.5510699    338.08712  0.025871374  0.025985242            1 
 1090000    1.0781114    -7.553984    337.85235   0.02582969  0.025978024            5 
 1091000    1.0864309   -7.5758084    337.30639  0.025764314  0.025970815            5 
 1092000    1.0967515   -7.6042901    337.10567  0.025725402  0.025963625            2 
 1093000    1.0668315   -7.5841486    338.14172  0.025780857  0.025956543            1 
 1094000    1.0804356   -7.5446098    338.03243  0.025748966  0.025949537            1 
 1095000    1.0943962   -7.5101734    339.01849  0.025800494  0.025942613            2 
 1096000      1.03192   -7.5598859    338.58173  0.025743745  0.025935697            2 
 1097000    1.0960547   -7.5432097    339.34416  0.025778195  0.025928436            1 
 1098000    1.0786418   -7.5843203    339.13944   0.02573918  0.025921224            3 
 1099000    1.0672993   -7.5694159    338.77123   0.02568784  0.025913945            3 
 1100000    1.0882817   -7.5279545    340.56678  0.025800514  0.025907061            3 
 1101000    1.0793688   -7.5560724    339.46437   0.02569364  0.025900062            2 
 1102000    1.0706692   -7.5576045    340.95672  0.025783176   0.02589302            4 
 1103000    1.0733545   -7.5931379    339.80059  0.025672453  0.025885965            2 
 1104000     1.083892   -7.5441257    340.14114  0.025674905  0.025878825            2 
 1105000    1.0837732    -7.538661    341.55858  0.025758565  0.025871781            3 
 1106000    1.0732557   -7.5617542    341.33603  0.025718507  0.025864918            2 
 1107000     1.073023   -7.5917678     341.8484  0.025733845  0.025857827            4 
 1108000    1.0903853   -7.5337594    342.07319  0.025727526  0.025850799            3 
 1109000     1.060709   -7.5570057     343.6598   0.02582355  0.025843879            1 
 1110000    1.0742252   -7.5046138    343.77332  0.025808808  0.025837131            1 
 1111000    1.0709591   -7.5542905    342.52611  0.025692027  0.025830306            1 
 1112000    1.0604618   -7.5367651    342.80638  0.025689927  0.025823278            3 
 1113000    1.0859021   -7.5522307    343.44083  0.025714348  0.025816236            3 
 1114000    1.0456573   -7.5533837    343.12641  0.025667745  0.025809367            4 
 1115000    1.0699332   -7.5624956    344.67593  0.025760533  0.025802506            1 
 1116000    1.0628136   -7.5478303     343.9844  0.025685812  0.025795646            4 
 1117000    1.0645178   -7.5644142    344.70618  0.025716665  0.025788853            1 
 1118000    1.0890876   -7.5613766    345.30909  0.025738602  0.025781946            2 
 1119000    1.0865957   -7.5085356    344.83585  0.025680358  0.025775171            1 
 1120000    1.0652399   -7.5265635    345.45319  0.025703362  0.025768518            1 
 1121000    1.0608708   -7.5867015    345.30004  0.025669048    0.0257617            2 
 1122000     1.054481   -7.5486194    346.20547  0.025713418  0.025754838            1 
 1123000    1.0758283    -7.536887    346.93015  0.025744297  0.025748229            2 
 1124000    1.0541528   -7.5357062    345.45914  0.025612332  0.025741431            2 
 1125000    1.0775883   -7.5985033    345.15126   0.02556676  0.025734477            1 
 1126000    1.0739337   -7.5508012    345.90079  0.025599525  0.025727552            3 
 1127000    1.0680604   -7.5928107    346.24044  0.025601926  0.025720709            2 
 1128000    1.0184759   -7.5685206    346.65013  0.025609495  0.025713726            2 
 1129000    1.0342484   -7.5770368    346.46441  0.025573104  0.025706756            2 
 1130000    1.0689738   -7.6080276    346.94268  0.025585743  0.025699759            4 
 1131000    1.0522947   -7.5580208    347.71649  0.025620136  0.025692917            3 
 1132000     1.063926   -7.5439933    348.49189  0.025654586  0.025686327            1 
 1133000     1.071983   -7.5633145    348.24294  0.025613632  0.025679512            2 
 1134000    1.0821553   -7.5450123    348.72343  0.025626354  0.025673004            1 
 1135000    1.0935564   -7.5552506    349.13416  0.025633933  0.025666501            2 
 1136000    1.0813094   -7.5507276    349.80974  0.025660925  0.025660142            1 
 1137000    1.0698084   -7.5699157    348.98322  0.025577779   0.02565364            2 
 1138000     1.072213   -7.6281259    348.47263  0.025517914  0.025647027            3 
 1139000    1.0641476   -7.5821259    348.99519  0.025533743  0.025640418            1 
 1140000     1.071891   -7.5403345    350.94974  0.025654221  0.025634069            4 
 1141000    1.0695603   -7.5563372    351.41686  0.025665853  0.025627453            3 
 1142000    1.0582598   -7.5575544    351.17049  0.025625401  0.025621024            1 
 1143000    1.0816657   -7.5671781    350.97913   0.02558903  0.025614729            2 
 1144000    1.0849754   -7.5279771    352.82872  0.025701392  0.025608418            2 
 1145000    1.0550497   -7.5786718    351.11326  0.025554095  0.025601985            4 
 1146000    1.0476131   -7.5893022    350.87218  0.025514265  0.025595438            2 
 1147000    1.0539863   -7.5386649    352.92973  0.025641509  0.025589072            1 
 1148000     1.046903   -7.5686658    352.98687  0.025623321  0.025582847            3 
 1149000    1.0580034   -7.5756221    352.88375  0.025593541  0.025576566            2 
 1150000    1.0691886   -7.5480606    353.61076  0.025623968  0.025570467            3 
 1151000    1.0774721   -7.5639479     353.6833  0.025606958  0.025564311            3 
 1152000    1.0653847   -7.5381881    354.24981   0.02562571  0.025558227            1 
 1153000    1.0607676   -7.5457896    353.90303  0.025578421  0.025552074            6 
 1154000    1.0588457   -7.5526934    354.37383  0.025590253  0.025545968            2 
 1155000    1.0881533   -7.5634499    354.26488  0.025560237  0.025539741            1 
 1156000    1.0538039   -7.5803262    354.72599  0.025571366  0.025533507            1 
 1157000    1.0579889   -7.5508268    354.73503  0.025549915   0.02552716            4 
 1158000    1.0702264   -7.5406464    355.62417  0.025591837  0.025520846            5 
 1159000    1.0696119   -7.5053521    355.88575  0.025588564  0.025514559            2 
 1160000    1.0804892   -7.6081518    354.64632  0.025477465  0.025508255            2 
 1161000    1.0754829   -7.5423047    355.98792  0.025551818  0.025501991            1 
 1162000    1.0510926   -7.5609549    356.64066  0.025576639  0.025495818            1 
 1163000    1.0527344   -7.5812789    355.10302   0.02544447  0.025489557            2 
 1164000    1.0480899   -7.5442978    356.16259  0.025498467  0.025483266            2 
 1165000    1.0598618   -7.5034515    358.14084  0.025618086  0.025477142            1 
 1166000    1.0453157   -7.5673661    356.64615   0.02548929  0.025471045            2 
 1167000    1.0401833   -7.5128128    357.79717  0.025549641  0.025464957            3 
 1168000    1.0637209   -7.5863876    357.66932  0.025518644  0.025458995            1 
 1169000    1.0648968   -7.5634716    357.58058  0.025490489  0.025452996            1 
 1170000    1.0773003    -7.564135    357.86586  0.025489022   0.02544703            1 
 1171000    1.0789045   -7.5560985    358.62281  0.025521122  0.025441133            1 
 1172000    1.0636684   -7.6013289    358.64612  0.025501004  0.025435134            1 
 1173000    1.0584418   -7.6080017    357.84712  0.025422501  0.025429056            2 
 1174000    1.0593309   -7.5953677    360.19849  0.025567752  0.025422987            3 
 1175000    1.0835696   -7.5959519    359.57085  0.025501479  0.025417051            5 
 1176000    1.0675683   -7.6409141    359.06674  0.025444071  0.025411078            2 
 1177000    1.0688087    -7.589474    360.03901  0.025491292  0.025405113            2 
 1178000    1.0633716   -7.6173265    358.32977  0.025348739  0.025398942            3 
 1179000    1.0590594   -7.5485462    360.90106  0.025508981  0.025392867            1 
 1180000    1.0355408   -7.5683602     360.3763  0.025450304  0.025386679            2 
 1181000    1.0739637     -7.55139    359.43928  0.025362637  0.025380628            5 
 1182000    1.0508963   -7.5953095     360.5393  0.025418733  0.025374643            1 
 1183000    1.0682408    -7.588859    360.45787   0.02539151  0.025368501            1 
 1184000    1.0285062   -7.5742902    360.80833  0.025394731  0.025362262            3 
 1185000    1.0470365   -7.5883034    360.93698  0.025382348  0.025356142            2 
 1186000    1.0437837   -7.5626647    362.17238   0.02544775  0.025350112            4 
 1187000     1.063015   -7.5506559    362.96953  0.025482276  0.025344136            2 
 1188000    1.0977114   -7.6187465     360.6793  0.025300175  0.025337938            2 
 1189000    1.0598995   -7.5991473    361.54151  0.025339326  0.025331736            2 
 1190000     1.066163   -7.5764086    362.65643  0.025396109  0.025325467            3 
 1191000    1.0548779   -7.5474846    362.03344  0.025331195  0.025319201            2 
 1192000    1.0678523    -7.564587    362.61174  0.025350374  0.025313021            1 
 1193000    1.0631766   -7.5502822    362.25453  0.025304172  0.025306849            2 
 1194000    1.0784077   -7.5979171    362.78117  0.025319736  0.025300658            2 
 1195000     1.063299   -7.5710134    363.25652  0.025331696  0.025294386            1 
 1196000    1.0681842   -7.5644232    363.63928  0.025337185  0.025288195            2 
 1197000    1.0370226    -7.585807    363.61282  0.025314176  0.025282055            3 
 1198000    1.0562003   -7.6191948    363.23895  0.025267039  0.025275903            2 
 1199000    1.0333349   -7.6152695    363.12614  0.025238125  0.025269673            3 
 1200000    1.0360543   -7.5768825    364.38575  0.025304566  0.025263428            1 
 1201000    1.0670871   -7.5567206    365.68356  0.025373547  0.025257329            1 
 1202000    1.0724715    -7.581214    364.78701  0.025290281  0.025251263            2 
 1203000    1.0498682   -7.5800606    365.81362  0.025340373  0.025245249            2 
 1204000    1.0559164   -7.5235388    365.69191  0.025310902  0.025239122            2 
 1205000    1.0593213   -7.5924647    365.75298  0.025294121   0.02523315            2 
 1206000    1.0801858   -7.5620155    365.60649  0.025263024  0.025227123            4 
 1207000    1.0624594   -7.6152157    366.04359  0.025272272  0.025221072            3 
 1208000     1.057963   -7.6048126    366.42354  0.025277562  0.025214991            3 
 1209000    1.0631876   -7.5620429    366.91871  0.025290785  0.025208904            2 
 1210000    1.0871513   -7.6361008    365.37672  0.025163686  0.025202799            2 
 1211000    1.0724605   -7.5585904     367.6106  0.025296628  0.025196742            3 
 1212000    1.0710304   -7.5787703    367.42915   0.02526328  0.025190731            1 
 1213000    1.0591541   -7.6020671    367.35548  0.025237392  0.025184649            2 
 1214000    1.0686017   -7.5599389    367.50115  0.025226603  0.025178733            1 
 1215000    1.0587923   -7.5480124    368.87663  0.025300181   0.02517285            1 
 1216000    1.0567737   -7.6211077     368.0119  0.025220114  0.025166896            2 
 1217000    1.0638441   -7.5989938    368.88196  0.025258967  0.025160792            1 
 1218000    1.0414325   -7.5581369      369.799  0.025300972  0.025154975            1 
 1219000    1.0483718   -7.5616642    369.62524  0.025268337  0.025149173            1 
 1220000    1.0435294    -7.576548    369.20129  0.025218668  0.025143397            1 
 1221000    1.0420853   -7.6025592    369.46111  0.025215746   0.02513746            1 
 1222000    1.0621909   -7.6121345     369.4971  0.025197566  0.025131543            1 
 1223000    1.0766909   -7.5733097     370.6149  0.025253127   0.02512569            2 
 1224000    1.0535597   -7.5404312    371.30017  0.025279151  0.025119941            1 
 1225000    1.0329999   -7.6374898    369.88076  0.025161956   0.02511408            3 
 1226000    1.0182699   -7.5669324     371.5007  0.025251543   0.02510832            2 
 1227000    1.0580762   -7.5691654    371.59055  0.025237066  0.025102664            3 
 1228000    1.0544384   -7.6226983    371.11418  0.025184187  0.025097016            2 
 1229000    1.0679733   -7.5815719     371.9203  0.025218355  0.025091299            2 
 1230000    1.0506915   -7.5883544    372.87449    0.0252625  0.025085645            2 
 1231000    1.0555961   -7.5832983    372.45172  0.025213358  0.025080114            1 
 1232000    1.0359934   -7.5876425    372.34123  0.025185419  0.025074477            1 
 1233000    1.0467421   -7.5961569    372.53029   0.02517777  0.025069019            4 
 1234000    1.0189975   -7.5864852    374.55494  0.025294094  0.025063483            5 
 1235000    1.0686457   -7.5828959    374.47822  0.025268436  0.025057857            2 
 1236000    1.0687001   -7.6092898    374.10802  0.025223032  0.025052435            3 
 1237000    1.0404989   -7.6298074     372.9484  0.025124522  0.025046942            2 
 1238000    1.0828883   -7.6134053     374.1167  0.025182869  0.025041234            1 
 1239000    1.0767268   -7.5882854    374.20703  0.025168619  0.025035628            2 
 1240000    1.0393789   -7.6041333     373.8511  0.025124402  0.025029901            2 
 1241000     1.039609    -7.587372    375.92525  0.025243436  0.025024358            3 
 1242000    1.0468977   -7.6027712    375.36083  0.025185241  0.025018932            1 
 1243000    1.0414785   -7.5795178    375.64482  0.025184019  0.025013285            2 
 1244000     1.071499   -7.6137123    374.96166   0.02511801  0.025007693            3 
 1245000    1.0429719   -7.5739225    375.57533  0.025138911  0.025001924            6 
 1246000    1.0344244   -7.5800699    376.23781  0.025163043  0.024996202            2 
 1247000    1.0676997   -7.6485609    375.24809  0.025076724  0.024990375            1 
 1248000    1.0597103   -7.5760437    375.77333  0.025091702  0.024984738            2 
 1249000    1.0674445   -7.6164279    375.35426  0.025043652  0.024979087            1 
 1250000    1.0840716   -7.6322581    375.55379   0.02503692  0.024973278            1 
 1251000    1.0579249   -7.6222376    375.79681  0.025033094  0.024967357            1 
 1252000    1.0175415   -7.5940587    378.07117  0.025164481  0.024961632            3 
 1253000    1.0603693    -7.638369    377.56348  0.025110633  0.024956051            2 
 1254000    1.0670167   -7.5939964    377.65875   0.02509694  0.024950276            1 
 1255000    1.0396105   -7.5932863    377.47186  0.025064532   0.02494467            1 
 1256000    1.0363042   -7.6021457     377.6611  0.025057132  0.024938957            2 
 1257000    1.0447105   -7.5587432    377.42222  0.025021362  0.024933229            2 
 1258000    1.0481341   -7.5721725    378.60388  0.025079749  0.024927496            3 
 1259000    1.0412416   -7.5806016    379.07968  0.025091321  0.024921866            1 
 1260000    1.0472776   -7.5987843    378.20811  0.025013764  0.024916135            1 
 1261000     1.055689   -7.5955989    378.07862   0.02498537  0.024910281            2 
 1262000    1.0672081    -7.592307    378.93958  0.025022423  0.024904576            2 
 1263000    1.0542518   -7.6072826    380.39983  0.025098959  0.024898941            1 
 1264000    1.0330681   -7.6686332    378.33173  0.024942757  0.024893093            3 
 1265000    1.0230195   -7.6032433     379.2272  0.024982029  0.024887173            2 
 1266000    1.0334155   -7.5802028    380.48527  0.025045108  0.024881304            2 
 1267000    1.0347027   -7.6091062    379.97161  0.024991555  0.024875578            2 
 1268000    1.0215763   -7.5849503    379.64522  0.024950396  0.024869771            1 
 1269000    1.0450462   -7.6121095    380.24843  0.024970346   0.02486396            2 
 1270000    1.0599785   -7.6217626    380.23284  0.024949661  0.024858079            4 
 1271000    1.0484568   -7.6593217     380.2362  0.024930252  0.024852171            4 
 1272000    1.0423536   -7.6309747     381.0947  0.024966896  0.024846289            3 
 1273000    1.0178977   -7.5873172    380.70678  0.024921889  0.024840283            1 
 1274000     1.047635   -7.6368956    379.70721  0.024836945  0.024834404            2 
 1275000     1.042373   -7.5879715    380.60767  0.024876318  0.024828651            2 
 1276000    1.0531551   -7.6291561     381.1139  0.024889884    0.0248228            6 
 1277000    1.0289088   -7.6356735    381.77271  0.024913385  0.024816859            5 
 1278000    1.0692587    -7.603814    382.06446  0.024912915  0.024811014            1 
 1279000    1.0396572    -7.598676    383.13643  0.024963281   0.02480533            4 
 1280000    1.0482137   -7.6551603    381.23738  0.024820142   0.02479944            1 
 1281000    1.0392188   -7.6258042    383.64666  0.024957498  0.024793539            3 
 1282000    1.0305481   -7.6550192    382.10932  0.024838099  0.024787926            1 
 1283000    1.0694862   -7.6061216    383.42499  0.024904195  0.024782135            2 
 1284000    1.0367444   -7.6164277    383.55866  0.024893475  0.024776354            4 
 1285000    1.0275734   -7.6124558    384.34326  0.024924984  0.024770769            2 
 1286000    1.0379926   -7.6114883    384.72504  0.024930342  0.024765178            2 
 1287000    1.0741612   -7.6178071      384.332  0.024885522  0.024759739            2 
 1288000    1.0393097   -7.5974079    385.00962  0.024910043  0.024754383            1 
 1289000    1.0356066   -7.6228609    384.37143  0.024849459  0.024748823            3 
 1290000    1.0332353   -7.6780271    384.38884  0.024831321  0.024743155            2 
 1291000    1.0243247   -7.6329111    384.84386  0.024841457  0.024737466            3 
 1292000    1.0214229   -7.6151285    384.86505  0.024823597  0.024731739            1 
 1293000    1.0473986   -7.6221363    385.05781  0.024816822  0.024725843            2 
 1294000    1.0199841   -7.6367333    385.31493  0.024814202  0.024720013            2 
 1295000    1.0497509   -7.6053841    386.85785  0.024894327  0.024714173            3 
 1296000    1.0679451   -7.6309469    386.04159  0.024822633  0.024708489            2 
 1297000    1.0724995    -7.625614    386.22567  0.024815322  0.024702914            5 
 1298000    1.0462721   -7.6263095     387.3545  0.024868676  0.024697437            2 
 1299000    1.0486382   -7.6156568    388.19338  0.024903347  0.024691875            1 
 1300000     1.030267   -7.6336134    387.50488  0.024840056  0.024686412            2 
 1301000    1.0385242   -7.6445768    387.99129  0.024852119  0.024680861            2 
 1302000    1.0528252   -7.6128952    389.42124  0.024924555  0.024675392            2 
 1303000    1.0816434   -7.5938549    389.55053  0.024913695  0.024670203            1 
 1304000    1.0474316    -7.577858    391.88099  0.025043519  0.024665089            2 
 1305000    1.0439341   -7.6077587    391.29276  0.024986766  0.024660084            1 
 1306000    1.0444426   -7.6172828    390.29839  0.024904185  0.024655008            1 
 1307000     1.033409   -7.6201276      391.325  0.024950587  0.024650049            3 
 1308000    1.0257112    -7.618989    391.06459   0.02491492  0.024645217            3 
 1309000    1.0457702   -7.6246249    390.54064  0.024862531  0.024640314            3 
 1310000     1.049633   -7.6681721    391.24366  0.024888274   0.02463522            3 
 1311000    1.0586238   -7.6188086    391.89027  0.024910391  0.024630097            1 
 1312000    1.0312433   -7.6158519    390.09284  0.024777238  0.024624992            1 
 1313000    1.0657566   -7.6167787    392.02397  0.024880932  0.024619837            1 
 1314000    1.0437972   -7.6334309    392.20905  0.024873735  0.024614726            1 
 1315000    1.0438067   -7.6489904    391.63089  0.024818181  0.024609566            1 
 1316000    1.0311259   -7.5905672    393.72505  0.024931931  0.024604404            2 
 1317000    1.0454508   -7.6602086    392.59027  0.024841197  0.024599318            4 
 1318000    1.0391694   -7.6616032    391.27089  0.024738928  0.024594054            4 
 1319000    1.0525514    -7.649697    392.43903  0.024793975  0.024588847            1 
 1320000    1.0473668   -7.6433845    393.53262  0.024844231  0.024583672            1 
 1321000     1.039611   -7.6512682    393.59527  0.024829376  0.024578499            1 
 1322000    1.0551737   -7.6233818    393.67057  0.024815341   0.02457341            3 
 1323000     1.020869   -7.5962433    394.73519  0.024863643  0.024568367            2 
 1324000    1.0363523   -7.6253961    394.05572  0.024802097  0.024563448            4 
 1325000    1.0265918   -7.6026833    396.00065  0.024905701  0.024558603            2 
 1326000    1.0513172   -7.6480956    394.30956  0.024780641  0.024553696            2 
 1327000    1.0317008   -7.5827174    395.82048   0.02485685  0.024548588            2 
 1328000    1.0265619   -7.6412005    395.06584  0.024790778  0.024543361            1 
 1329000    1.0601176   -7.6276224    395.02253  0.024769409  0.024538289            1 
 1330000    1.0349272   -7.6798056    394.69781  0.024730439   0.02453307            1 
 1331000     1.042974   -7.6089721    395.16605  0.024741175  0.024527923            7 
 1332000    1.0439422   -7.6415311    395.39535  0.024736947  0.024522842            2 
 1333000    1.0396395   -7.6632053    395.43752  0.024721025  0.024517682            3 
 1334000    1.0251895   -7.6503993    396.11016  0.024744512  0.024512497            2 
 1335000    1.0424704   -7.6510028    396.18887  0.024730891  0.024507444            2 
 1336000    1.0308521    -7.637933    395.90727  0.024694815   0.02450239            2 
 1337000    1.0372493   -7.6474237    397.28318  0.024762103  0.024497463            5 
 1338000    1.0122215   -7.6794916    395.55043  0.024635677  0.024492364            1 
 1339000    1.0335558    -7.656978    397.84755  0.024760241  0.024487222            2 
 1340000    1.0394673   -7.6042012    398.00126  0.024751322  0.024482204            3 
 1341000    1.0421795   -7.5963329    398.46995  0.024761991  0.024477242            1 
 1342000    1.0310361   -7.6197176    399.56641  0.024811625  0.024472491            3 
 1343000    1.0384117   -7.6404665    400.07021  0.024824411   0.02446768            3 
 1344000    1.0354023   -7.6455403    398.23132  0.024691922  0.024462811            2 
 1345000    1.0400851    -7.665414    397.76461  0.024644647  0.024457792            1 
 1346000    1.0266844   -7.6587715    398.07411  0.024645499  0.024452626            1 
 1347000     1.011441   -7.6481196     398.5432  0.024656224  0.024447524            2 
 1348000    1.0343208   -7.6683281    399.43538  0.024693087  0.024442446            1 
 1349000    1.0420708   -7.6393844    399.87732  0.024702083  0.024437461            3 
 1350000    1.0234579   -7.6494658    400.01406  0.024692226  0.024432513            2 
 1351000    1.0261501   -7.6539223    400.17871  0.024684105  0.024427516            2 
 1352000    1.0441412    -7.682701    399.90137  0.024648753  0.024422522            3 
 1353000    1.0261739   -7.6802434    400.45484  0.024664624  0.024417518            2 
 1354000    1.0413364   -7.6708877      401.392  0.024704086  0.024412576            3 
 1355000    1.0248086    -7.606324    402.22742  0.024737234  0.024407678            2 
 1356000    1.0311448    -7.646989    402.51996  0.024736969  0.024402802            3 
 1357000    1.0548344   -7.6063485    402.54952  0.024720555  0.024398013            3 
 1358000    1.0233139    -7.617186     403.3376  0.024750712  0.024393197            1 
 1359000    1.0660385   -7.6251655    402.83816  0.024701874  0.024388491            2 
 1360000    1.0419656   -7.6478169    401.99409  0.024631991  0.024383789            2 
 1361000    1.0282155   -7.6954762    402.45165  0.024641908  0.024378893            6 
 1362000     1.035309   -7.7115046    401.69921  0.024577779  0.024373822            2 
 1363000    1.0316701   -7.6269333    403.09742  0.024645232  0.024368714            3 
 1364000     1.068852   -7.6560058    402.80185  0.024609106  0.024363695            2 
 1365000    1.0273875   -7.6955648    402.88126  0.024595925  0.024358637            6 
 1366000    1.0331473   -7.6254812    405.04182  0.024709725  0.024353554            3 
 1367000    1.0000667   -7.6316871    403.67903  0.024608573  0.024348517            1 
 1368000    1.0236526   -7.6664646    404.25639  0.024625755   0.02434346            2 
 1369000    1.0514122   -7.6526158    403.21033  0.024544091  0.024338419            1 
 1370000    1.0754474   -7.6687932    404.30414  0.024592709  0.024333495            1 
 1371000    1.0349507   -7.6413748     404.3794  0.024579346   0.02432866            3 
 1372000    1.0389658   -7.6305566    404.88367   0.02459206  0.024323819            1 
 1373000    1.0312012   -7.6716248    404.96148  0.024578871  0.024318957            3 
 1374000    1.0425095   -7.6496615     406.0035  0.024624181  0.024313967            6 
 1375000    1.0350895   -7.6067126    406.49863  0.024636281  0.024309032            2 
 1376000    1.0768431   -7.6695618    405.61274  0.024564725  0.024304112            2 
 1377000    1.0366065   -7.6308702    406.17125  0.024580686  0.024299137            2 
 1378000    1.0328322   -7.6210062    405.78449  0.024539459  0.024294124            2 
 1379000    1.0502386    -7.686471    406.39185  0.024558367  0.024289009            2 
 1380000    1.0176223    -7.646132    406.59411  0.024552785  0.024283858            1 
 1381000    1.0327931   -7.6809792    407.04104  0.024561974  0.024278926            3 
 1382000    1.0436047   -7.6686949    406.22991  0.024495291  0.024273892            1 
 1383000    1.0392213   -7.6704075    405.94783  0.024460583  0.024268698            2 
 1384000    1.0306497   -7.6962869     405.0284  0.024387548  0.024263501            2 
 1385000    1.0285092   -7.6816895    406.41539  0.024453393  0.024258303            2 
 1386000    1.0294697   -7.6851967    406.66345  0.024450664   0.02425299            5 
 1387000    1.0178938   -7.6223903    406.82493  0.024442738  0.024247708            2 
 1388000    1.0171911   -7.6192735    407.84581   0.02448642  0.024242424            3 
 1389000    1.0396962   -7.6761755      406.866  0.024410007  0.024237202            2 
 1390000    1.0514281   -7.6685092    407.26407  0.024416311  0.024231899            5 
 1391000    1.0310905   -7.6954719    407.24301  0.024397496  0.024226596            2 
 1392000    1.0237806   -7.6890552    407.13568  0.024373544  0.024221144            2 
 1393000    1.0351938   -7.6688581    408.35393  0.024428926  0.024215924            1 
 1394000    1.0580157   -7.6030421     409.2413  0.024464449  0.024210627            1 
 1395000    1.0231098   -7.6110267    410.37788  0.024514807  0.024205477            2 
 1396000    1.0259595   -7.6722477    408.47329  0.024383553  0.024200308            2 
 1397000    1.0244184   -7.6585042    409.66578  0.024437234  0.024195203            2 
 1398000    1.0281811   -7.7011518    408.32367  0.024339752  0.024189971            1 
 1399000    1.0184735   -7.6591239      410.553  0.024455147  0.024184679            1 
 1400000    1.0166446   -7.6543026    410.03043  0.024406573  0.024179347            3 
 1401000    1.0433292   -7.6638562    409.25719  0.024343159  0.024173976            4 
 1402000    1.0335118   -7.6741355    409.77755  0.024356725  0.024168679            2 
 1403000    1.0247617   -7.6541898    410.50221  0.024382408  0.024163396            2 
 1404000    1.0205199   -7.6950543    408.98668  0.024275088  0.024158053            2 
 1405000     1.029728   -7.6448415    409.63606  0.024296326  0.024152633            7 
 1406000    1.0196895   -7.6596558     410.1481  0.024309394  0.024147274            2 
 1407000    1.0162804   -7.6830054     411.3708  0.024364534  0.024141966            2 
 1408000    1.0312719   -7.6747981      410.445  0.024292436  0.024136574            2 
 1409000    1.0211844    -7.722778    410.31478  0.024267493  0.024131196            2 
 1410000    1.0173922   -7.6421384    411.84589  0.024340774  0.024125938            3 
 1411000    1.0164223   -7.6655516    412.41762  0.024357289  0.024120811            2 
 1412000     1.029585   -7.6389397    412.95316  0.024371646  0.024115737            2 
 1413000    1.0434149   -7.6659136    413.77415  0.024402816  0.024110584            2 
 1414000    1.0206483   -7.6615272    412.71427  0.024323095  0.024105444            3 
 1415000     1.050236    -7.714332    413.24116  0.024336935  0.024100352            1 
 1416000    1.0274557   -7.6896479    413.78139  0.024351541  0.024095244            3 
 1417000    1.0409577   -7.6879288    414.15706  0.024356449  0.024090125            2 
 1418000    1.0381845   -7.6732542    413.49767  0.024300521  0.024085067            1 
 1419000    1.0471093    -7.672623    414.88519  0.024364881  0.024080022            2 
 1420000    1.0077666   -7.6692559    414.73303  0.024338793  0.024074913            6 
 1421000    1.0267752   -7.6817968      414.954  0.024334624  0.024069867            1 
 1422000    1.0124528   -7.6616624     414.0524  0.024264674  0.024064842            1 
 1423000    1.0258458    -7.711455    414.21389  0.024257079  0.024059722            4 
 1424000    1.0248797   -7.6802042    415.20723  0.024298176  0.024054619            2 
 1425000    1.0235401   -7.6626565    416.39076  0.024350337  0.024049648            2 
 1426000    1.0185174   -7.6949024    415.80453  0.024299003  0.024044723            2 
 1427000    1.0282234   -7.6738552     415.2777  0.024251209  0.024039495            2 
 1428000    1.0151265   -7.6809046    414.83934  0.024208645  0.024034367            1 
 1429000    1.0147734   -7.7073019    415.27204  0.024216937  0.024029191            4 
 1430000    1.0295724   -7.6883394    416.68863  0.024282554  0.024023898            2 
 1431000    1.0270048   -7.6685365    416.24508  0.024239756  0.024018664            2 
 1432000    1.0388933   -7.6953388    416.26109   0.02422376  0.024013344            4 
 1433000    1.0400193    -7.698257    415.96378  0.024189566  0.024007953            2 
 1434000    1.0259116   -7.6591574    417.88703  0.024284462  0.024002859            2 
 1435000    1.0206499   -7.6902862    415.92785  0.024153766  0.023997712            2 
 1436000    1.0180483   -7.6672812    417.18878   0.02421012   0.02399243            1 
 1437000    1.0112462    -7.660215     417.9082  0.024234992  0.023987288            3 
 1438000    1.0373962   -7.7129158    415.67826  0.024088912  0.023982079            4 
 1439000    1.0109906   -7.6450994    418.40449  0.024230049  0.023976826            3 
 1440000    1.0053254    -7.665904    417.71683  0.024173427  0.023971593            3 
 1441000    1.0504451   -7.6935462    416.68169   0.02409679  0.023966179            2 
 1442000    1.0143305   -7.7110791     416.6509    0.0240783  0.023960736            1 
 1443000   0.99817799   -7.6813537    417.76444   0.02412592   0.02395524            2 
 1444000    1.0403501   -7.6511298    418.78271  0.024167977  0.023949959            2 
 1445000    1.0071091   -7.6575887    417.54904  0.024080106  0.023944651            2 
 1446000    1.0111814    -7.713557    417.52375  0.024061996  0.023939218            1 
 1447000    1.0191345   -7.6536327    418.11566  0.024079455  0.023933914            4 
 1448000     1.017525     -7.67059    419.44251  0.024139187  0.023928669            3 
 1449000    1.0384949   -7.6946106    419.27644  0.024112977  0.023923299            2 
 1450000    1.0057264   -7.6844115    419.27317  0.024096159  0.023917978            4 
 1451000    1.0280844   -7.6746633    419.23699  0.024077475  0.023912613            2 
 1452000    1.0273117   -7.7096784    419.97176  0.024103062  0.023907318            1 
 1453000    1.0268796   -7.7257347    418.67074  0.024011857  0.023901861            1 
 1454000    1.0294067    -7.727558    418.44934  0.023982654  0.023896308            2 
 1455000    1.0152365   -7.6820148    419.79667  0.024043337  0.023890758            2 
 1456000    1.0291502   -7.7170901    419.08262  0.023985956  0.023885202            3 
 1457000    1.0108691   -7.7132128    419.91021  0.024016827  0.023879809            8 
 1458000    1.0078553   -7.7058118    420.96354  0.024060559  0.023874525            3 
 1459000    1.0367492   -7.6580281     421.3223  0.024064559  0.023869212            4 
 1460000    1.0383817   -7.6673816    420.90883  0.024024476  0.023863838            1 
 1461000    1.0200834   -7.6559808    421.55927  0.024045133   0.02385854            3 
 1462000    1.0093753    -7.734008    420.92311  0.023992425  0.023853193            2 
 1463000    1.0092848   -7.6706435    421.33523  0.023999501  0.023847802            2 
 1464000    1.0232299   -7.7036869    422.00442  0.024021199  0.023842451            4 
 1465000    1.0281766   -7.6887868    420.75254  0.023933592  0.023837015            3 
 1466000     1.027055   -7.6847007    421.79751  0.023976666  0.023831617            2 
 1467000     1.035448   -7.6821074    421.54935  0.023946225  0.023826202            5 
 1468000     1.026988   -7.7325609    421.80532  0.023944444  0.023820793            1 
 1469000   0.99827317   -7.6749503    422.65421    0.0239763  0.023815363            2 
 1470000    1.0128093    -7.696951    422.97447  0.023978144  0.023810092            3 
 1471000    1.0463242   -7.6709381    425.50449  0.024105172  0.023804902            1 
 1472000    1.0374767   -7.6833994    423.61381   0.02398176  0.023799704            2 
 1473000   0.98399555   -7.6665447    423.53432  0.023960982  0.023794415            1 
 1474000    1.0257452    -7.683335    424.82666   0.02401779  0.023789178            2 
 1475000    1.0141898   -7.6793179    425.29821  0.024028147  0.023783994            3 
 1476000   0.99148856   -7.6969356    425.61145  0.024029553  0.023778826            2 
 1477000    1.0164566   -7.6778092     424.3577  0.023942547  0.023773671            5 
 1478000    1.0032294   -7.7093544     425.3205  0.023980633  0.023768449            2 
 1479000    1.0396101   -7.6737741    425.09064  0.023951467  0.023763317            4 
 1480000    1.0068942   -7.7124615    424.60171  0.023907754  0.023758151            2 
 1481000    1.0156265   -7.6924146    426.09632   0.02397571  0.023752878            3 
 1482000   0.99737152    -7.687539    424.32054   0.02385968  0.023747593            1 
 1483000    1.0072572   -7.7173663     425.1272  0.023888919   0.02374223            1 
 1484000    1.0068574   -7.7308494    425.23443  0.023878842   0.02373676            3 
 1485000    1.0055144   -7.7399949    425.08813  0.023854553   0.02373123            3 
 1486000   0.99582916    -7.719425     425.3866  0.023855238  0.023725705            4 
 1487000    1.0311874   -7.6572783    426.45393   0.02389901  0.023720296            5 
 1488000   0.99699025   -7.6601016    426.07195  0.023861556  0.023714945            3 
 1489000     1.021468   -7.6840326    426.82027  0.023887411  0.023709631            4 
 1490000    1.0124228   -7.6929008    426.65431  0.023862098  0.023704256            2 
 1491000    1.0117242   -7.7357487    426.68172  0.023847626  0.023698713            4 
 1492000    1.0132275   -7.7106882    427.11555  0.023855873  0.023693164            4 
 1493000    1.0155465   -7.6925842    427.25216  0.023847519  0.023687671            2 
 1494000    1.0121911   -7.6953162    427.22268  0.023829913  0.023682241            3 
 1495000   0.99867565   -7.7130966    426.11531  0.023752247  0.023676728            3 
 1496000    1.0160695   -7.7148332    427.41517  0.023808777  0.023671149            4 
 1497000   0.99918219    -7.721052    426.58759  0.023746804  0.023665514            1 
 1498000    1.0042852   -7.7025016    427.79102  0.023797898  0.023659907            1 
 1499000     1.034512    -7.691192    429.00052  0.023849262  0.023654325            4 
 1500000    1.0208575   -7.7272501    427.25145  0.023736191  0.023648664            1 
 1501000   0.99152271    -7.698219    428.38384  0.023783247  0.023643075            5 
 1502000    1.0193198   -7.7233674    428.31245  0.023763452  0.023637475            1 
 1503000    1.0135783   -7.7229609    427.84833  0.023721908  0.023631795            2 
 1504000    1.0012674   -7.6825496    429.17237  0.023779498  0.023626336            3 
 1505000    1.0009959   -7.6751202     429.2736  0.023769302   0.02362088            3 
 1506000    1.0007235   -7.6798673    429.31725  0.023755935  0.023615439            3 
 1507000    1.0048857    -7.727222    428.76249  0.023709494  0.023609929            3 
 1508000    1.0252308    -7.698897    430.29405  0.023778407  0.023604513            1 
 1509000    1.0143219    -7.690396    428.72035  0.023675743  0.023599005            2 
 1510000    1.0391879   -7.6869651    430.00164  0.023730775  0.023593481            1 
 1511000    1.0131022   -7.7634132     428.7035  0.023643476  0.023587877            6 
 1512000    1.0011802   -7.7267947    429.90288  0.023693942  0.023582173            2 
 1513000   0.99269645    -7.709085    430.28915  0.023699557  0.023576548            1 
 1514000    1.0051487   -7.7403536    430.43214  0.023691773  0.023571038            1 
 1515000    1.0125085   -7.6930594    430.38575  0.023673584  0.023565465            1 
 1516000    1.0093159   -7.7158092    431.51532  0.023720059  0.023559964            1 
 1517000   0.99654404   -7.7172683    430.80204  0.023665241  0.023554413            1 
 1518000    1.0170997   -7.6827963    431.18476  0.023670661  0.023548827            3 
 1519000   0.99329277   -7.6361776    433.24249  0.023767966  0.023543274            5 
 1520000    1.0022107   -7.7279195    431.20879  0.023640833  0.023537806            2 
 1521000    1.0412812   -7.6949917    433.12235  0.023730131   0.02353219            3 
 1522000    1.0145312   -7.7513683    431.29528  0.023614503  0.023526698            2 
 1523000    1.0156966   -7.7391231    432.03777  0.023639624  0.023521142            3 
 1524000    1.0116075   -7.6985182    433.35359  0.023696063  0.023515704            1 
 1525000   0.99864764   -7.7276472    432.84541  0.023652755  0.023510246            1 
 1526000   0.99311141   -7.7282849     433.6984  0.023683836  0.023504831            8 
 1527000    1.0071986   -7.7141394    433.05004  0.023632942  0.023499344            1 
 1528000    1.0308383   -7.7361787    431.83479  0.023551199   0.02349379            1 
 1529000    1.0163451   -7.7239038    433.42671  0.023622559  0.023488205            2 
 1530000   0.99897534    -7.709573    433.90954  0.023633417  0.023482742            2 
 1531000   0.99570369   -7.7391758    433.76336  0.023610024  0.023477175            7 
 1532000   0.99130023   -7.7132461    432.53519  0.023527806  0.023471515            2 
 1533000    1.0193222   -7.7172183     433.6343  0.023572206  0.023465925            5 
 1534000    1.0053306   -7.7118578     434.0046  0.023576956  0.023460234            1 
 1535000   0.99872707   -7.7208637    433.15125  0.023515269   0.02345469            3 
 1536000    1.0048108   -7.7356212    433.99513  0.023545743  0.023449014            3 
 1537000     1.001231   -7.7160459    434.06706  0.023534324   0.02344334            2 
 1538000   0.99184465   -7.6826637    434.97241  0.023568076  0.023437613            1 
 1539000    1.0043728   -7.7027751    435.50318  0.023581502  0.023432013            3 
 1540000   0.99321647   -7.6952638    435.04233  0.023541251  0.023426412            3 
 1541000    1.0019834   -7.7037977    434.95497  0.023521251  0.023420736            4 
 1542000    1.0040157   -7.7260222    434.12146  0.023460952  0.023415128            4 
 1543000   0.99702264   -7.7346635    434.72439   0.02347831  0.023409404            1 
 1544000    1.0026001   -7.7470249    434.35994  0.023443434  0.023403586            2 
 1545000    1.0061363   -7.7145544    434.84598  0.023454476  0.023397705            1 
 1546000   0.99013377   -7.7134415     435.3612  0.023467076  0.023391954            2 
 1547000   0.99285173    -7.711378    434.16332   0.02338738  0.023386154            3 
 1548000    1.0065331   -7.7582424    435.63916   0.02345172  0.023380221            1 
 1549000    1.0113108   -7.7409048    434.89845  0.023396732    0.0233743            3 
 1550000    1.0045841   -7.7199618    436.08734  0.023445556  0.023368539            4 
 1551000   0.99397031   -7.7762491    434.27105  0.023332852   0.02336273            1 
 1552000   0.99883722   -7.7414697    437.03914  0.023466449  0.023356924            1 
 1553000    1.0037803   -7.6851769    436.83732  0.023440509  0.023351146            5 
 1554000    1.0032656   -7.7174376    436.49861  0.023407261  0.023345445            4 
 1555000    1.0096268   -7.6619395    438.18096  0.023482367  0.023339778            3 
 1556000    1.0108703   -7.7185709    436.04592  0.023352931  0.023333988            3 
 1557000    1.0009547   -7.7474456    435.66348  0.023317463  0.023328008            2 
 1558000   0.99537108   -7.7090314    436.17402  0.023329804   0.02332213            1 
 1559000    1.0019395     -7.76558    435.01264   0.02325276  0.023316146            3 
 1560000    1.0354573   -7.7096674    436.74806  0.023330559  0.023310163            1 
 1561000   0.98913104   -7.7105908    436.73121  0.023314713  0.023304242            2 
 1562000    1.0052269   -7.7584162    436.51734  0.023288377  0.023298294            8 
 1563000   0.99234388   -7.6963769    435.75824  0.023233005  0.023292329            1 
 1564000   0.98995896     -7.71212    437.66109  0.023319538  0.023286404            2 
 1565000    1.0099807   -7.6702864    438.77089  0.023363732  0.023280527            2 
 1566000   0.98890772   -7.7311489    437.59209  0.023286084    0.0232746            1 
 1567000    1.0265974   -7.7301215    437.68868   0.02327636  0.023268584            2 
 1568000    0.9942581   -7.7238652    438.06818  0.023281685   0.02326261            2 
 1569000   0.99687771   -7.7253912    438.84794  0.023308261  0.023256644            2 
 1570000   0.96908981   -7.7356238    438.00219  0.023248524  0.023250687            1 
 1571000    1.0117722    -7.745903    439.35277  0.023305366  0.023244726            1 
 1572000   0.99789483    -7.787949    438.66482  0.023254072  0.023238779            2 
 1573000     1.010433   -7.7362264     439.5685  0.023287164  0.023232868            1 
 1574000   0.97737155   -7.7353563    439.57659  0.023272797  0.023227033            2 
 1575000    1.0160277   -7.6724376    440.59902  0.023312117  0.023221303            3 
 1576000   0.99177434   -7.7119455    440.49584   0.02329187  0.023215596            4 
 1577000   0.98218088   -7.7416974    440.08827  0.023255563  0.023209832            1 
 1578000    1.0088698   -7.7214692    440.14588  0.023243868  0.023204044            2 
 1579000    1.0000608   -7.7325982    442.06183  0.023330263  0.023198325            1 
 1580000    1.0162817   -7.7119564    441.81491  0.023302474  0.023192512            3 
 1581000   0.98572321   -7.7489398    441.06486  0.023248201  0.023186755            1 
 1582000    1.0024915   -7.7650989    440.90433  0.023225049  0.023180892            1 
 1583000   0.99618515   -7.7515394    440.90392  0.023210356  0.023175105            3 
 1584000   0.98737559   -7.7677903    440.74309  0.023187241  0.023169337            2 
 1585000    1.0205836   -7.7318673    442.68604  0.023274765  0.023163587            2 
 1586000   0.99844709   -7.7917248    441.98184  0.023223089  0.023157813            2 
 1587000    1.0104024    -7.773957    441.19643  0.023167214  0.023152036            2 
 1588000    1.0071114   -7.7734281    442.19955  0.023205266  0.023146249            5 
 1589000    1.0023328   -7.7436328    442.70757  0.023217305  0.023140561            2 
 1590000    1.0228792    -7.708137    442.31188  0.023181964  0.023134952            3 
 1591000    1.0024341   -7.7669659    443.01447  0.023204194  0.023129257            2 
 1592000    1.0257665   -7.7480215    443.22128  0.023200444  0.023123421            5 
 1593000    1.0030303   -7.7252715    443.02644  0.023175687   0.02311767            2 
 1594000   0.99875716   -7.7110523    445.27095  0.023278489  0.023111953            1 
 1595000   0.99291096   -7.7616845    442.51803  0.023120064  0.023106233            2 
 1596000   0.99688835   -7.7452187    444.06298  0.023186246  0.023100462            2 
 1597000   0.99354539   -7.7682513    442.78297  0.023104935  0.023094679            1 
 1598000   0.99467635   -7.7543434    443.82918  0.023145034  0.023088862            4 
 1599000   0.97949006   -7.7813106    443.13176  0.023094213  0.023082937            3 
 1600000    1.0008506   -7.7684002    443.70179  0.023109468  0.023077061            1 
 1601000   0.98527231   -7.7644954    443.07546  0.023062433  0.023071143            1 
 1602000   0.99789641   -7.7455963    443.72057  0.023081594   0.02306519            3 
 1603000   0.98525978   -7.7464827    443.79693  0.023071165  0.023059246            2 
 1604000   0.98929349   -7.7296315    444.98613  0.023118565  0.023053347            1 
 1605000    1.0090615   -7.7492347    445.52242  0.023132005  0.023047509            2 
 1606000    1.0071646   -7.7390324    446.12384  0.023148809  0.023041692            2 
 1607000   0.98645937     -7.74873    444.68369  0.023059723  0.023035949            2 
 1608000   0.97567418   -7.7434884    446.65092  0.023147332   0.02303024            1 
 1609000   0.98101597    -7.771036    445.47482  0.023072033  0.023024563            2 
 1610000    1.0029792   -7.7628671    445.87468    0.0230784  0.023018866            1 
 1611000   0.99555358   -7.7531364    446.56436   0.02309975  0.023013051            1 
 1612000   0.98810263   -7.7649113    446.93863  0.023104768  0.023007288            2 
 1613000    1.0025514   -7.7697491    447.08026  0.023097761  0.023001569            2 
 1614000   0.98699027   -7.7420243    447.36356  0.023098077  0.022995845            4 
 1615000    1.0213658   -7.7540813    447.73994  0.023103196  0.022990203            3 
 1616000     1.026895   -7.7758571    446.43493  0.023021603  0.022984554            3 
 1617000   0.99605996   -7.7329661    447.71249  0.023073206  0.022978872            1 
 1618000   0.96610086   -7.7788811     448.0533  0.023076499  0.022973303            2 
 1619000   0.99752273   -7.7495253    448.07674  0.023063452  0.022967676            2 
 1620000   0.98374923   -7.7788346    448.08723  0.023049754  0.022962193            3 
 1621000   0.99588416   -7.7763766    447.32908   0.02299656  0.022956596            2 
 1622000   0.96141203   -7.7447851    449.76392  0.023107476  0.022951056            2 
 1623000    0.9824698   -7.7833128    448.15701  0.023010732  0.022945498            2 
 1624000   0.99071049   -7.7209131    449.49441  0.023065189  0.022940026            1 
 1625000    1.0053174   -7.7601515    449.68549  0.023060794  0.022934457            2 
 1626000   0.99964449   -7.7522128    449.95182  0.023060261  0.022928908            3 
 1627000   0.97954412   -7.7438005    450.25248  0.023061487  0.022923377            2 
 1628000    1.0040508   -7.7762292    449.08831  0.022987731  0.022917722            3 
 1629000   0.97529263   -7.7834343     450.1175  0.023026269  0.022912006            3 
 1630000    1.0018916   -7.7933744    449.46531  0.022978799  0.022906409            1 
 1631000    0.9747463   -7.7904835    449.50578  0.022966778  0.022900738            2 
 1632000   0.98828022   -7.7443804    450.83994   0.02302083  0.022895123            2 
 1633000   0.99607187   -7.7407887    451.23718  0.023027004  0.022889566            1 
 1634000   0.98432816   -7.8136114    448.64508  0.022880716  0.022884018            1 
 1635000   0.99467097   -7.7835308    451.39483  0.023006872  0.022878481            4 
 1636000   0.98595388    -7.792672    450.89127  0.022967159  0.022872918            4 
 1637000      1.02042   -7.7880823    451.06776  0.022962114  0.022867331            4 
 1638000    1.0004279   -7.7768237    452.95356  0.023044035  0.022861803            2 
 1639000   0.98590736   -7.7953502    452.08018  0.022985569    0.0228563            1 
 1640000   0.98915993   -7.7603196    452.95065  0.023015785  0.022850844            2 
 1641000   0.98724664   -7.7657618    452.50212  0.022978982  0.022845434            2 
 1642000   0.99505883   -7.7628411    453.23434  0.023002149  0.022840014            2 
 1643000    0.9941233    -7.761486    453.80595  0.023017141  0.022834683            1 
 1644000    1.0012914   -7.7851103    453.54078  0.022989699  0.022829351            3 
 1645000     1.000036   -7.7508113     455.4006  0.023069939  0.022823958            2 
 1646000   0.97165651   -7.7589032    455.20153  0.023045845  0.022818624            3 
 1647000   0.98471085   -7.7339695    453.77809  0.022959831  0.022813255            2 
 1648000     1.002309   -7.7123571    455.56838  0.023036427  0.022807906            1 
 1649000   0.98475666   -7.7252175    454.87019  0.022987174  0.022802616            2 
 1650000   0.98913615   -7.7503471    454.08608  0.022933641  0.022797197            3 
 1651000   0.97951765   -7.7564974     454.6742  0.022949435  0.022791687            3 
 1652000   0.99390858   -7.7471629    454.74888   0.02293931  0.022786256            2 
 1653000   0.97647727   -7.7553895    455.83645   0.02298026   0.02278082            3 
 1654000   0.99609881   -7.7351185    456.33078  0.022991273  0.022775477            2 
 1655000   0.96792066   -7.7709159    454.61995  0.022891236  0.022770063            1 
 1656000   0.98956686    -7.777079    455.61524  0.022927498  0.022764599            3 
 1657000    1.0133077   -7.7649152     455.4206  0.022903873   0.02275908            4 
 1658000   0.97244039   -7.7236857    455.99224   0.02291879  0.022753683            3 
 1659000   0.99424141   -7.7743295     455.9317  0.022901934  0.022748247            5 
 1660000   0.98938168   -7.7657992    456.66502  0.022924951   0.02274275            4 
 1661000   0.97826114   -7.7514768    456.01669  0.022878622  0.022737287            1 
 1662000   0.97838413   -7.7443422    456.84028  0.022906151  0.022731898            1 
 1663000   0.99684338   -7.7855551     456.6429  0.022882486   0.02272648            2 
 1664000   0.97744519   -7.7967156    456.77111  0.022875156   0.02272108            1 
 1665000   0.98372867   -7.7760903    455.18818  0.022782191  0.022715504            2 
 1666000   0.99348514   -7.7704706    455.70011  0.022794123  0.022709947            3 
 1667000   0.96518599   -7.7774951    455.50717  0.022770804  0.022704448            1 
 1668000   0.99647976   -7.7797289    455.79312  0.022771439  0.022698873            4 
 1669000   0.99006477   -7.8013852    455.78063  0.022757171  0.022693261            3 
 1670000   0.99916749   -7.7464953    456.74621  0.022791727  0.022687695            2 
 1671000   0.98176537   -7.6999773    457.75762  0.022828527  0.022682253            6 
 1672000    1.0038353   -7.7880348    456.69189  0.022761757  0.022676809            1 
 1673000   0.96716519   -7.7815627    457.52923   0.02278986  0.022671244            1 
 1674000    1.0026187    -7.788205    456.04077  0.022702149  0.022665589            8 
 1675000   0.98903736   -7.8163369    456.62248  0.022717537  0.022659927            3 
 1676000   0.99447565   -7.8224169    456.53888  0.022699825  0.022654262            1 
 1677000   0.97919531   -7.7719848    457.66117  0.022742058  0.022648633            3 
 1678000   0.97823596   -7.7844563    457.70881  0.022730871  0.022642916            2 
 1679000    1.0032471   -7.7457959    457.71477  0.022717628  0.022637246            1 
 1680000    0.9870915   -7.8108063    456.96258  0.022666794   0.02263149            3 
 1681000   0.99373267   -7.8017755    457.67401  0.022688579  0.022625795            1 
 1682000    0.9805046   -7.7881688    457.78006  0.022680344  0.022620156            3 
 1683000    0.9729331   -7.7630085    458.87745  0.022721205  0.022614523            3 
 1684000   0.95886407    -7.787972    458.57698  0.022692843  0.022608805            1 
 1685000    1.0070644   -7.7899235    458.77486  0.022689162  0.022603093            3 
 1686000   0.96005149   -7.7781218    458.72299  0.022673141  0.022597403            2 
 1687000   0.97920271   -7.7807976    458.26712  0.022637182  0.022591723            2 
 1688000    0.9764886   -7.8131996    458.91518  0.022655765  0.022586007            4 
 1689000     0.973025   -7.8080544    458.24619  0.022609344  0.022580215            7 
 1690000   0.98438579   -7.7507101    460.56892  0.022710499  0.022574536            2 
 1691000   0.97976737   -7.7775755    459.63762  0.022651174  0.022568884            2 
 1692000   0.97052681   -7.7658079    460.22446  0.022666689  0.022563216            3 
 1693000   0.97900052   -7.7557389    460.75972  0.022679648  0.022557639            1 
 1694000   0.98665527   -7.7690036    461.22934  0.022689362  0.022552136            1 
 1695000   0.98925834   -7.7768916    458.82391  0.022557714  0.022546575            4 
 1696000   0.94215327   -7.7834744    461.05867  0.022654219   0.02254092            2 
 1697000   0.97876175   -7.8079619    460.73577  0.022625013  0.022535241            2 
 1698000   0.98746295   -7.7916244    461.25105  0.022636977  0.022529599            1 
 1699000   0.98858674    -7.805103    461.83704  0.022652396  0.022524012            2 
 1700000    1.0051565    -7.832399    460.03311  0.022550643  0.022518407            2 
 1701000    0.9927773    -7.796449    461.12276  0.022590768  0.022512793            2 
 1702000   0.98000689   -7.8081463    461.57796  0.022599783  0.022507193            1 
 1703000   0.98073204   -7.7691305    461.72822  0.022593865  0.022501574            2 
 1704000   0.96473918   -7.8188135    461.00829  0.022545397  0.022495933            2 
 1705000    0.9694142   -7.8237331    461.64403  0.022563247  0.022490312            4 
 1706000   0.98021922   -7.8149343    462.39634  0.022586769  0.022484662            2 
 1707000   0.97027531   -7.8135723    461.28481  0.022519274  0.022479052            1 
 1708000   0.95988362   -7.7834286    462.63218  0.022571828  0.022473475            3 
 1709000    1.0012807   -7.7937884    462.42796  0.022548662  0.022467846            3 
 1710000   0.97335054   -7.7812432    462.90127  0.022558541  0.022462264            2 
 1711000   0.99533554   -7.7906666     463.0816   0.02255414  0.022456611            1 
 1712000   0.97804885   -7.7818495    462.52013  0.022513635  0.022450917            2 
 1713000   0.98014542   -7.8033271    462.19723  0.022484784  0.022445177            1 
 1714000   0.98003926   -7.7729342    463.86256  0.022552633  0.022439433            5 
 1715000   0.96279131    -7.795779    462.75274  0.022485556  0.022433735            1 
 1716000   0.97136752   -7.7865802    463.53757  0.022510566   0.02242798            3 
 1717000   0.98137178   -7.7764062    463.47165  0.022494256  0.022422194            2 
 1718000   0.95798936   -7.8086908    462.44861  0.022431539  0.022416485            3 
 1719000   0.98885151   -7.8013147    463.80306   0.02248415  0.022410647            5 
 1720000   0.98285121   -7.7979673    464.61636  0.022510483   0.02240481            3 
 1721000   0.95820881   -7.8164736    462.93476  0.022415977  0.022398954            3 
 1722000   0.98400928   -7.8202336     462.2507  0.022369856  0.022393169            2 
 1723000   0.96265439   -7.8053872    462.69554  0.022378388  0.022387354            3 
 1724000   0.96267617   -7.8243102    462.04777  0.022334096  0.022381439            2 
 1725000   0.95892376   -7.8342299      463.531  0.022392802  0.022375441            4 
 1726000   0.96422793   -7.8013137    463.66851  0.022386467   0.02236951            2 
 1727000   0.96726508   -7.7910354    464.76669  0.022426496  0.022363648            3 
 1728000   0.95405806   -7.8248506    464.37678  0.022394713  0.022357811            2 
 1729000   0.94638594   -7.7813846    462.89998  0.022310583  0.022351912            2 
 1730000   0.96467683   -7.8279044    463.83232  0.022342597  0.022346178            4 
 1731000   0.99159143   -7.7677586    465.98045  0.022433105  0.022340394            1 
 1732000   0.97558492   -7.8175602    464.64973  0.022356126  0.022334594            2 
 1733000   0.96004826   -7.8001112    465.15785   0.02236766  0.022328748            1 
 1734000   0.97204465   -7.8380457    466.11999  0.022400999   0.02232294            5 
 1735000   0.96872694   -7.7883632    465.89224  0.022377149  0.022317091            2 
 1736000   0.96505814   -7.8337334     465.1653  0.022329364  0.022311231            2 
 1737000   0.96932124   -7.8516485     464.4674  0.022283026  0.022305389            2 
 1738000   0.96526231   -7.8602591    464.90373  0.022291126  0.022299497            2 
 1739000   0.97533101    -7.894354    463.75941  0.022223472  0.022293515            2 
 1740000   0.98369426   -7.8408865    464.88483  0.022264599  0.022287498            1 
 1741000   0.95254273   -7.8198938    464.96515  0.022255655  0.022281632            1 
 1742000   0.96413221   -7.8104356     466.0644  0.022295465  0.022275725            3 
 1743000   0.96286981   -7.8328674    466.12982  0.022285801  0.022269814            1 
 1744000   0.99025014    -7.785517    467.75782  0.022350813  0.022264002            1 
 1745000   0.97035938   -7.7588919    468.74565  0.022385179  0.022258248            1 
 1746000   0.96334384   -7.8047067     466.9355  0.022285963  0.022252501            5 
 1747000   0.98441356   -7.7930395    469.12471  0.022377634   0.02224681            2 
 1748000   0.98100843   -7.7909974    468.36286  0.022328512  0.022241041            1 
 1749000   0.98321888   -7.8006731    468.45057  0.022319924  0.022235239            1 
 1750000   0.97756431   -7.7779553    468.68789  0.022318471  0.022229432            1 
 1751000   0.97181588   -7.7682236    469.82378  0.022359784   0.02222372            1 
 1752000   0.95795009   -7.7843002    469.33745  0.022323889  0.022218069            1 
 1753000   0.96657008    -7.797583    468.92128  0.022291371  0.022212367            2 
 1754000   0.96603772   -7.8170183    468.08845  0.022239094  0.022206656            1 
 1755000   0.99199967   -7.7877577    469.49306  0.022293118  0.022200863            2 
 1756000   0.96687425   -7.7931549    469.42013  0.022276962  0.022195087            1 
 1757000   0.96538638    -7.787175     470.4812  0.022314608  0.022189333            3 
 1758000   0.98122843   -7.7563477    471.08936  0.022330743  0.022183652            2 
 1759000   0.95082208   -7.8287999    469.49645  0.022242584   0.02217791            2 
 1760000   0.95706118   -7.7852586    469.61211  0.022235422  0.022172124            3 
 1761000   0.97454504   -7.8285302    469.77777  0.022230635  0.022166302            1 
 1762000   0.97078091   -7.7865367    470.39336  0.022247132  0.022160512            1 
 1763000   0.97985229   -7.8135766    469.73143  0.022203225  0.022154725            1 
 1764000   0.96125024   -7.8443583    469.51345   0.02218034  0.022148807            4 
 1765000   0.95741476   -7.8442501    468.92002  0.022139755  0.022142851            4 
 1766000   0.97376556   -7.7767025    471.40251  0.022244361  0.022137003            2 
 1767000   0.98471579   -7.8240643    469.84885  0.022158501  0.022131203            1 
 1768000   0.95595043   -7.8007997    469.96151  0.022151278   0.02212533            1 
 1769000   0.96693113   -7.8427416    469.07437  0.022096965  0.022119362            1 
 1770000   0.95422398   -7.7930201    469.63274  0.022110769  0.022113459            2 
 1771000    1.0017654   -7.8135629    470.62642  0.022145042  0.022107502            3 
 1772000    0.9630772   -7.8224183    469.20294  0.022065601  0.022101625            2 
 1773000   0.95992546   -7.8213204    470.09035  0.022094865    0.0220957            4 
 1774000   0.97555774   -7.8030272    471.21809  0.022135386  0.022089776            6 
 1775000   0.99686981   -7.8638127    470.65357  0.022096412  0.022083839            3 
 1776000   0.95362574   -7.8204854    470.67882  0.022085155  0.022077991            2 
 1777000   0.99595393   -7.8370913    471.25947  0.022099957  0.022072042            8 
 1778000   0.98553473    -7.821878    471.24803  0.022086991  0.022066128            3 
 1779000   0.96286237    -7.775945    473.56933  0.022183311  0.022060307            1 
 1780000    0.9683356   -7.8064163    473.80435  0.022181851  0.022054443            2 
 1781000   0.94648283    -7.803198    471.26182  0.022050431  0.022048629            4 
 1782000   0.97274916   -7.8615748      471.955  0.022070473  0.022042783            5 
 1783000   0.96766324   -7.8566923    472.73976  0.022094773  0.022036947            2 
 1784000   0.97026296   -7.8473502    471.90381  0.022043339  0.022031081            1 
 1785000   0.97055497   -7.8192005    472.52466  0.022059975  0.022025226            2 
 1786000   0.98349827   -7.8754411    472.98126  0.022068928  0.022019427            2 
 1787000   0.95068947   -7.8142227    472.84241  0.022050103  0.022013664            2 
 1788000   0.95250045   -7.8143427    473.43644  0.022065457  0.022007953            1 
 1789000    0.9674929   -7.8131963    474.37422  0.022096806  0.022002184            2 
 1790000   0.98366954    -7.828071    473.01067  0.022020981  0.021996426            2 
 1791000   0.96105483   -7.8292986    474.59242  0.022082283  0.021990712            1 
 1792000   0.97108236   -7.8037199    474.27636  0.022055262  0.021985046            3 
 1793000   0.94480061   -7.8006786      474.633  0.022059537   0.02197937            1 
 1794000   0.97054951   -7.8235512    474.82594  0.022056203  0.021973648            3 
 1795000   0.95051409   -7.8332837    474.26374  0.022017815   0.02196784            1 
 1796000   0.96269692   -7.8062166    475.33766  0.022055385  0.021962039            2 
 1797000   0.96492624   -7.7912715     474.8586  0.022020896  0.021956318            2 
 1798000   0.96638321   -7.8304423    475.00678  0.022015516  0.021950607            2 
 1799000   0.95443199   -7.7941142    476.23115  0.022059994  0.021944916            2 
 1800000   0.97307527   -7.8628522    474.05639  0.021947055   0.02193915            2 
 1801000   0.96268607   -7.8257431    475.61199  0.022006848   0.02193336            2 
 1802000   0.97331435   -7.8360689    475.12825  0.021972265  0.021927643            1 
 1803000   0.97180533   -7.8664057    474.58386  0.021934917  0.021921875            3 
 1804000   0.95448203   -7.8637367    475.24075  0.021953102  0.021916129            2 
 1805000   0.96901027   -7.8653111    475.20549  0.021939312  0.021910276            1 
 1806000   0.94886166   -7.8457929    476.58392  0.021990768  0.021904404            2 
 1807000    0.9561642   -7.8236727    477.68446  0.022029351   0.02189863            1 
 1808000   0.94869085   -7.8242391    476.39365  0.021957672  0.021892783            2 
 1809000   0.95621144   -7.8655291    475.10665  0.021886247  0.021886997            2 
 1810000   0.95295665   -7.8712324    477.52389  0.021985446  0.021881137            1 
 1811000   0.96522682   -7.8739315    476.34302  0.021918969  0.021875296            3 
 1812000   0.98717396   -7.8622558    476.29321  0.021904581  0.021869438            2 
 1813000    0.9632121   -7.8602663    476.43219  0.021898887  0.021863653            4 
 1814000   0.96528951   -7.8594886    477.53868  0.021937646  0.021857883            4 
 1815000    0.9452858   -7.8379993    478.46233  0.021967967  0.021852241            2 
 1816000   0.96465102   -7.8142195    478.87606  0.021974856   0.02184663            4 
 1817000   0.96002676   -7.8591155    478.06021  0.021925345  0.021840976            2 
 1818000   0.95096116    -7.822295    477.56261  0.021890475   0.02183527            3 
 1819000   0.97137517   -7.8840513    478.10648  0.021903357  0.021829541            8 
 1820000   0.95210801   -7.8563866    477.29965  0.021854379   0.02182375            1 
 1821000   0.95723229   -7.8639747    478.47041  0.021895955  0.021818062            1 
 1822000   0.95651563   -7.8470108    479.89378  0.021949038  0.021812387            4 
 1823000   0.97675481   -7.8526152    479.49329  0.021918691  0.021806763            3 
 1824000   0.97379018   -7.8003781    479.77073   0.02191935  0.021801126            2 
 1825000   0.97886047   -7.8473927     480.0616  0.021920621  0.021795415            2 
 1826000   0.97208355   -7.8499417    478.55451  0.021839837  0.021789615            5 
 1827000   0.95436669   -7.8246513     480.2217  0.021903927   0.02178397            5 
 1828000   0.97461501   -7.8076334    479.72088  0.021869114  0.021778395            1 
 1829000   0.97185512   -7.8361334    480.17567  0.021877878  0.021772784            4 
 1830000   0.96290207   -7.8780021    480.17511  0.021865898  0.021767141            2 
 1831000   0.95244953   -7.8167621    481.33557  0.021906771  0.021761442            1 
 1832000   0.96752104   -7.8146875    480.28532   0.02184704  0.021755855            4 
 1833000     0.978708   -7.8480364    480.11799  0.021827514  0.021750213            3 
 1834000   0.94228575   -7.8427745    480.66916  0.021840656  0.021744525            3 
 1835000   0.95180706   -7.8584384    480.25788  0.021810076  0.021738944            1 
 1836000     0.945928   -7.8612908    480.69638    0.0218181  0.021733342            4 
 1837000   0.93320029   -7.8444855    480.21862   0.02178455  0.021727672            4 
 1838000   0.94050439   -7.8442086    480.61025  0.021790454   0.02172201            3 
 1839000   0.95320546   -7.8529759    481.41284  0.021814974  0.021716402            1 
 1840000    0.9586111   -7.8426684    480.99286  0.021784097  0.021710808            2 
 1841000    0.9552486   -7.8430899    482.78944  0.021853587  0.021705219            2 
 1842000   0.95067785   -7.8478801    482.78775  0.021841646  0.021699592            3 
 1843000   0.95665439   -7.8657875    481.45156  0.021769378  0.021693916            3 
 1844000   0.94494545    -7.876958    481.79643  0.021773157  0.021688193            2 
 1845000   0.95365195   -7.8317587     481.9763   0.02176948  0.021682479            1 
 1846000   0.96070346   -7.8733455     481.8047  0.021749941  0.021676787            3 
 1847000   0.96569047    -7.843338    482.59602  0.021773869  0.021671076            2 
 1848000   0.95274731   -7.8701954    481.71893  0.021722535  0.021665409            2 
 1849000   0.95431947   -7.8458298    482.22597  0.021733639   0.02165969            2 
 1850000   0.95508467   -7.8571431    482.10938  0.021716639  0.021654053            2 
 1851000   0.96021127   -7.7843375    484.59632   0.02181687  0.021648429            1 
 1852000   0.96484683   -7.8468203    484.97284  0.021822032  0.021642844            2 
 1853000   0.97062322   -7.8374298    482.76722  0.021711064  0.021637179            2 
 1854000   0.95070093   -7.8628977     483.3329   0.02172478   0.02163145            2 
 1855000   0.92566392   -7.8517401    483.40831  0.021716456  0.021625718            3 
 1856000   0.95324382   -7.8771184     481.9583  0.021639651  0.021620024            2 
 1857000   0.96268369   -7.8859788    482.84681   0.02166787  0.021614302            2 
 1858000   0.92957679   -7.8944137    483.33444  0.021678078  0.021608569            3 
 1859000    0.9570897   -7.8473281    484.70581  0.021727892   0.02160283            2 
 1860000   0.93268208   -7.8642618    483.68234  0.021670356  0.021597068            1 
 1861000   0.97701795   -7.8682333    483.20451  0.021637315  0.021591326            5 
 1862000   0.96615598   -7.8635778    483.22335  0.021626537   0.02158554            4 
 1863000   0.94883535   -7.8472955    484.15883  0.021656774  0.021579804            2 
 1864000   0.96646439   -7.8601079      484.677  0.021668321  0.021574026            2 
 1865000   0.95270176    -7.874878    483.59105  0.021608179  0.021568265            2 
 1866000   0.94110284   -7.8284119    485.84298  0.021697168  0.021562531            3 
 1867000   0.94607868   -7.8096658    486.18531  0.021700826  0.021556913            2 
 1868000   0.94537332    -7.847881    485.16654  0.021643761  0.021551208            3 
 1869000   0.95045395   -7.8759065    485.08054  0.021628346   0.02154549            1 
 1870000   0.95645191   -7.8694871    484.84499  0.021606283  0.021539747            3 
 1871000   0.93860316   -7.8766167     484.0178  0.021557893  0.021533851            2 
 1872000   0.95648552   -7.8919625    482.23647  0.021467079  0.021527913            7 
 1873000   0.95696655   -7.8797801    483.67095  0.021519441  0.021522033            4 
 1874000   0.94844655   -7.8757091    484.18372  0.021530759  0.021516151            1 
 1875000   0.94419498     -7.86542    485.12042  0.021560908  0.021510293            3 
 1876000    0.9410071   -7.8563078    485.16466   0.02155138  0.021504382            2 
 1877000   0.94768786   -7.8844005     485.9878  0.021576443  0.021498515            5 
 1878000   0.94638244   -7.8644913    485.36666  0.021537392  0.021492619            4 
 1879000     0.947994   -7.8750131    484.99181  0.021509305  0.021486735            3 
 1880000   0.96991817    -7.898009     485.4836  0.021519663  0.021480902            3 
 1881000   0.92799828   -7.8894884    484.56659  0.021467596  0.021474968            2 
 1882000   0.93886066   -7.8559796    485.22106  0.021485169  0.021469062            1 
 1883000   0.96050878   -7.8484092    487.20556  0.021561584  0.021463171            1 
 1884000   0.92862539   -7.8556946    486.61236  0.021523901  0.021457305            1 
 1885000   0.92604994   -7.8420201    485.79904  0.021476527  0.021451375            3 
 1886000   0.97039417   -7.8743116    485.90547  0.021469842  0.021445481            2 
 1887000   0.96696782   -7.8845477     483.8722  0.021368672  0.021439595            4 
 1888000   0.94202517   -7.8313309    487.19446  0.021503993  0.021433662            2 
 1889000   0.95573892   -7.8704268    487.00605  0.021484297  0.021427743            2 
 1890000   0.94167674   -7.8654166    486.32426  0.021442869   0.02142179            3 
 1891000   0.94703494   -7.8638318    486.52674  0.021440452   0.02141586            1 
 1892000   0.93429715   -7.8574515    486.10546  0.021410565  0.021409924            1 
 1893000   0.94511317   -7.8518265    486.53656  0.021418232  0.021404066            2 
 1894000   0.95790778   -7.8796595    485.55935  0.021363928  0.021398138            2 
 1895000   0.95294301   -7.9038235    485.47323  0.021348867  0.021392188            4 
 1896000   0.95001974   -7.8872803    486.82367  0.021396962  0.021386274            5 
 1897000   0.96091586   -7.8600456     486.5779  0.021374886  0.021380352            2 
 1898000   0.92675723   -7.8844741    486.72433  0.021370053  0.021374458            2 
 1899000   0.93105574   -7.8694879    487.26845  0.021382677  0.021368597            2 
 1900000   0.95532156   -7.8561285     487.2762  0.021371763  0.021362734            2 
 1901000   0.93673176   -7.8401351    487.55875  0.021372907  0.021356896            2 
 1902000   0.96092808    -7.898063    487.37541  0.021353637  0.021350956            3 
 1903000   0.93916517   -7.8856244    486.70515  0.021313065  0.021345038            3 
 1904000   0.92350671   -7.8735747    487.03595   0.02131635  0.021339058            2 
 1905000    0.9535149   -7.9326293    486.73024  0.021291786  0.021333047            2 
 1906000   0.93950455   -7.8899049    488.03052  0.021337466  0.021327035            2 
 1907000   0.94152701   -7.9106485    487.76989  0.021314888  0.021321005            4 
 1908000    0.9480283   -7.8928959    488.48057  0.021334756  0.021314953            2 
 1909000   0.94449371   -7.9406705    487.05555  0.021261374  0.021308912            5 
 1910000   0.94837366   -7.9214882    489.04485  0.021337035   0.02130289            2 
 1911000   0.92916686   -7.9094417    488.05443  0.021282681  0.021296843            3 
 1912000   0.95102939    -7.909103    487.83629  0.021262042   0.02129083            2 
 1913000   0.92731306   -7.8896267    489.28521  0.021314045  0.021284829            3 
 1914000   0.98014427   -7.9000378    488.49444   0.02126848  0.021278871            2 
 1915000   0.94672538   -7.9009116    488.45994  0.021255872  0.021272864            3 
 1916000   0.94085542   -7.8852263    489.30058   0.02128134  0.021266924            2 
 1917000   0.94513632     -7.87843     488.8253  0.021249578  0.021261014            3 
 1918000    0.9215337   -7.8449914    490.71037  0.021320402   0.02125505            2 
 1919000    0.9362642   -7.8696765    489.83059  0.021271087  0.021249091            5 
 1920000   0.94411474   -7.8902582    487.97761  0.021179584  0.021243136            4 
 1921000   0.94879049   -7.9282285    488.43878  0.021188564  0.021237115            2 
 1922000   0.95524412   -7.8829019    489.14117  0.021207994  0.021231085            2 
 1923000   0.94853348    -7.870612    490.18101  0.021242027  0.021225095            1 
 1924000    0.9251548   -7.8609579    489.95698  0.021221283  0.021219126            2 
 1925000   0.94329262   -7.8606261     489.6302  0.021196113  0.021213138            2 
 1926000   0.94452693   -7.8341586    491.23895  0.021254714  0.021207258            4 
 1927000   0.93344438   -7.9020028    490.54182  0.021213536  0.021201304            2 
 1928000   0.93147444   -7.8716876    490.91225  0.021218545  0.021195306            5 
 1929000   0.92811136   -7.9014351    492.20333   0.02126332  0.021189339            4 
 1930000   0.93177035    -7.883284    490.65412  0.021185411  0.021183326            3 
 1931000    0.9301383   -7.8883703    489.99133  0.021145837  0.021177335            4 
 1932000    0.9427273   -7.8661994    490.33971  0.021149918  0.021171313            3 
 1933000   0.95315165    -7.923382    490.37107  0.021140329  0.021165309            2 
 1934000   0.94033527   -7.9107467    490.36386  0.021129087  0.021159264            4 
 1935000   0.93046766   -7.8506905    491.97058  0.021187363  0.021153275            1 
 1936000   0.94325283   -7.9208246    490.32484   0.02110558  0.021147234            2 
 1937000   0.94656421   -7.8963329    490.69181  0.021110472  0.021141148            6 
 1938000   0.94196756    -7.894886    490.90633  0.021108803   0.02113504            7 
 1939000   0.95599864   -7.8820803    491.95506  0.021142989  0.021128999            2 
 1940000   0.94931934   -7.8817904    491.80296  0.021125557  0.021123004            1 
 1941000   0.94080788   -7.9269534    491.31073   0.02109354   0.02111702            2 
 1942000   0.94608936   -7.9137613    491.75635    0.0211018  0.021110989            2 
 1943000   0.94190317    -7.900412    491.41718  0.021076393  0.021105013            2 
 1944000   0.96589625   -7.9168808    492.73841  0.021122189  0.021099052            2 
 1945000   0.94467576    -7.917759    492.06226  0.021082359  0.021093021            2 
 1946000   0.96384457   -7.9061485    491.39768  0.021043066  0.021086968            3 
 1947000   0.93073782   -7.9091559    492.04005  0.021059752   0.02108092            2 
 1948000   0.94877103   -7.9239518    491.73091  0.021035717  0.021074864            2 
 1949000   0.95209396   -7.8882197    493.37289   0.02109513  0.021068867            3 
 1950000   0.93108728   -7.9275774    492.81465  0.021060455   0.02106286            4 
 1951000   0.95684126   -7.9352197    491.35845  0.020987462  0.021056738            5 
 1952000   0.94223185   -7.8996371    491.66602   0.02098984  0.021050713            2 
 1953000   0.95603077   -7.8774309    492.54953  0.021016792  0.021044644            2 
 1954000   0.92735624   -7.8706821     493.2549  0.021036118  0.021038626            1 
 1955000   0.93130407   -7.9318099    492.75776  0.021004167  0.021032503            1 
 1956000   0.93267691   -7.9340824    492.57704   0.02098573  0.021026311            2 
 1957000   0.95979077   -7.8977334    492.43696  0.020969041   0.02102019            2 
 1958000   0.93586523   -7.9179584    492.50096  0.020961055  0.021014052            3 
 1959000   0.95223575    -7.931682    493.76349  0.021004062  0.021007989            4 
 1960000   0.91756113   -7.9171906    491.64051  0.020903083  0.021001873            2 
 1961000   0.90350199   -7.9207623    493.74679  0.020981931  0.020995739            3 
 1962000   0.93905018   -7.9149975    494.43724  0.021000562  0.020989655            5 
 1963000   0.96509798   -7.8962599    494.59511  0.020996566  0.020983616            2 
 1964000   0.94009935   -7.8612625    494.74901  0.020992406  0.020977618            1 
 1965000   0.91540426   -7.8893044     493.7662  0.020940043  0.020971598            3 
 1966000   0.93883455   -7.8587734    494.55687  0.020962906  0.020965647            3 
 1967000   0.95130131   -7.8855145    494.44103  0.020947341  0.020959687            3 
 1968000   0.93587062   -7.9036714    495.06657  0.020963185  0.020953703            1 
 1969000   0.96740256   -7.8943134    495.06964  0.020952668  0.020947706            1 
 1970000   0.93187904   -7.8832549     495.9502  0.020979281  0.020941788            2 
 1971000   0.95912247   -7.8663149    497.22103  0.021022367  0.020935862            2 
 1972000   0.93497898   -7.9205366    496.57968  0.020984605  0.020929917            2 
 1973000   0.94386268   -7.9427874    494.49987  0.020886124  0.020923994            3 
 1974000   0.92825318   -7.9385717    494.71843   0.02088477  0.020918059            2 
 1975000   0.93545075   -7.8858572    496.72972   0.02095906  0.020912089            4 
 1976000   0.93712468   -7.9291012    496.01994   0.02091852   0.02090618            3 
 1977000   0.95027132   -7.9165515    495.65265  0.020892457  0.020900274            1 
 1978000   0.94601868   -7.9164014    495.16139  0.020861198  0.020894346            2 
 1979000   0.93486746   -7.9184915    495.85814  0.020879996  0.020888408            2 
 1980000    0.9179831   -7.8770169    495.83887  0.020868639  0.020882538            3 
 1981000   0.92001614   -7.9252509    496.83907   0.02090018  0.020876645            2 
 1982000   0.92225996   -7.9185471    496.96246  0.020894823  0.020870714            2 
 1983000    0.9079412   -7.8769488     496.7577  0.020875681  0.020864713            1 
 1984000   0.93821142   -7.9348251    497.06319   0.02087799  0.020858718            1 
 1985000   0.91418375   -7.8692826     498.9492   0.02094665  0.020852748            2 
 1986000    0.9376143   -7.8970525    496.87704  0.020849154  0.020846775            3 
 1987000   0.92999924   -7.9200441    497.16683  0.020850815  0.020840812            2 
 1988000   0.95447697   -7.9181258    497.53231  0.020855647  0.020834828            2 
 1989000   0.93738603   -7.9106727    497.76458  0.020854893    0.0208289            3 
 1990000   0.93236155   -7.9204223    495.61861  0.020754548  0.020822956            7 
 1991000   0.92073462   -7.9216496    497.61563  0.020827709   0.02081698            3 
 1992000   0.95739967   -7.9012194    498.68868  0.020862144  0.020810992            2 
 1993000   0.93093721   -7.9042232    497.49441   0.02080174  0.020805103            8 
 1994000   0.92851833   -7.8912786    497.99629  0.020812282  0.020799199            1 
 1995000   0.91319383   -7.9113161     497.3771  0.020775986  0.020793279            3 
 1996000   0.93567593   -7.9046182     498.3585  0.020806551  0.020787348            2 
 1997000   0.91124093   -7.8989639    497.27937    0.0207511  0.020781373            3 
 1998000   0.94210503    -7.933461    497.55272  0.020752115  0.020775301            4 
 1999000   0.93096142   -7.9138962    497.79004  0.020751628  0.020769229            4 
 2000000    0.9134846   -7.9337796    496.65849  0.020694104  0.020763219            2 
 2001000   0.93770956   -7.8936619    499.01349  0.020781838  0.020757156            2 
 2002000   0.93004268   -7.9340586    498.07411  0.020732356  0.020751097            3 
 2003000    0.9255233   -7.9366908     498.3042  0.020731578  0.020745075            2 
 2004000   0.95651558   -7.9204193    497.31007  0.020679893  0.020739078            3 
 2005000   0.92241381   -7.9140629    500.07121   0.02078434  0.020733129            2 
 2006000   0.94736222   -7.9239261    500.12272  0.020776118  0.020727224            5 
 2007000    0.9288915    -7.929503    499.92708  0.020757643  0.020721314            1 
 2008000   0.91212284   -7.9000118    500.12278  0.020755428  0.020715385            2 
 2009000   0.90950798   -7.9227121    499.69405  0.020727312  0.020709503            4 
 2010000   0.94370581   -7.9194325     500.1253   0.02073488   0.02070357            2 
 2011000    0.9409491    -7.927718    500.78744  0.020752007  0.020697706            2 
 2012000   0.92534324   -7.9440019    499.65072  0.020694613  0.020691788            2 
 2013000   0.93006968   -7.9278795    500.06898  0.020701647  0.020685871            4 
 2014000   0.93553583   -7.9295402     499.1311  0.020652561  0.020679974            2 
 2015000   0.94802349   -7.9060879    500.75044  0.020709282  0.020674101            3 
 2016000   0.92953128   -7.9282675    500.95286  0.020707377  0.020668181            2 
 2017000   0.94235583   -7.9162307    500.31375  0.020670705  0.020662268            6 
 2018000   0.93115579   -7.9460503    499.88871   0.02064291   0.02065635            2 
 2019000   0.92349674   -7.9441133    500.35204   0.02065181  0.020650376            3 
 2020000   0.91595415   -7.9158274    501.61291  0.020693602  0.020644493            3 
 2021000   0.92526429    -7.912314    501.46226  0.020677151   0.02063862            2 
 2022000     0.926165    -7.917832    501.54107  0.020670173  0.020632754            3 
 2023000   0.92467986   -7.9095633    501.77507  0.020669594  0.020626942            1 
 2024000   0.93584682   -7.9214744    502.86692  0.020704336  0.020621147            2 
 2025000   0.93614442   -7.9167329    502.60972  0.020683528  0.020615306            2 
 2026000   0.92399027   -7.9373062    502.58778  0.020672416  0.020609502           19 
 2027000   0.92999218   -7.9303757    501.69027  0.020625319  0.020603687            3 
 2028000   0.92422007   -7.9032645     502.9433  0.020666638   0.02059791            2 
 2029000     0.912891   -7.9393131    501.80722  0.020609792  0.020592053            2 
 2030000   0.90867301   -7.9035435    503.05767  0.020650972  0.020586244            2 
 2031000   0.91666166   -7.9356078    503.51408   0.02065953  0.020580449            4 
 2032000   0.91671946   -7.9466056    503.55685  0.020651118  0.020574623            3 
 2033000   0.94906982   -7.9448922      502.487  0.020597106  0.020568768            5 
 2034000   0.95272273    -7.914734    504.05985   0.02065142  0.020562984            6 
 2035000   0.92350198   -7.8902152    503.30755  0.020610465  0.020557204            4 
 2036000    0.9276715   -7.9277494     503.1849  0.020595322  0.020551458            4 
 2037000   0.91188398   -7.9084014    503.76676  0.020609015  0.020545687            2 
 2038000   0.92501522   -7.8948654     504.1187  0.020613293  0.020539958            2 
 2039000   0.91633022   -7.9143639    503.21446  0.020566228  0.020534198            2 
 2040000   0.92287994   -7.8701745    504.58392  0.020612088  0.020528432            4 
 2041000    0.9263694   -7.9229804    503.62552  0.020562858  0.020522629            2 
 2042000   0.92645246     -7.91476    503.49057  0.020547281  0.020516799            2 
 2043000   0.94111136   -7.9538756    503.32807  0.020530595  0.020510937            1 
 2044000   0.90283249   -7.9651297    502.26948  0.020477392  0.020504998            2 
 2045000   0.90838213   -7.9344254    503.50988  0.020517925  0.020499062            3 
 2046000   0.90368217   -7.9120245    503.72714  0.020516746   0.02049316            1 
 2047000   0.92099555   -7.9519797    503.77007  0.020508471  0.020487246            2 
 2048000   0.91926851   -7.9246883     504.3369  0.020521521  0.020481351            7 
 2049000   0.93277445   -7.9967682    502.34433  0.020430467  0.020475446            7 
 2050000   0.94567841   -7.9499191    504.34791  0.020501948  0.020469518            3 
 2051000   0.95236222   -7.9617787    503.79649  0.020469547   0.02046363            2 
 2052000    0.9096916   -7.9417903    504.73014  0.020497488  0.020457742            2 
 2053000   0.91851417   -7.9534112    505.64626   0.02052469  0.020451875            2 
 2054000   0.91855787   -7.9678483    504.27956  0.020459249  0.020446028            3 
 2055000   0.92251595   -7.9699719    504.23146  0.020447342  0.020440119            2 
 2056000   0.92321201   -7.9707218    503.98964  0.020427596   0.02043425            5 
 2057000    0.9430069   -7.9362592    506.90315  0.020535697  0.020428417            3 
 2058000   0.93180889    -7.951456     504.9471  0.020446514  0.020422644            2 
 2059000   0.92199708    -7.915444     506.1062  0.020483495  0.020416845            2 
 2060000   0.90845485   -7.9351723    504.54079  0.020410226  0.020411003            4 
 2061000   0.92772633   -7.9595406    506.18762   0.02046691  0.020405178            3 
 2062000   0.91636099   -7.9308605    505.60476  0.020433429  0.020399313            2 
 2063000   0.93768663   -7.9581493    506.45386  0.020457823  0.020393495            1 
 2064000   0.90020734    -7.941601    507.40516  0.020486319   0.02038777            3 
 2065000   0.91056025   -7.9413984    505.95412  0.020417842  0.020381963            2 
 2066000   0.92224574     -7.97315    506.88856   0.02044565  0.020376162            5 
 2067000   0.95117128   -7.9226661    507.58739  0.020463933  0.020370378            3 
 2068000   0.91277286   -7.9494114    506.77262  0.020421205  0.020364592            2 
 2069000   0.92561702   -7.9601495    506.53356  0.020401706  0.020358733            4 
 2070000   0.92066786   -7.9589556    506.04896  0.020372341  0.020352809            3 
 2071000   0.92303835   -7.9579572    506.07908  0.020363716   0.02034692            3 
 2072000   0.92501083   -7.9713211    506.39694  0.020366672  0.020341023            2 
 2073000   0.91865954      -7.9217    506.69073  0.020368658  0.020335144            1 
 2074000   0.92857484   -7.9181075    507.11655  0.020375946  0.020329298            6 
 2075000   0.93475372   -7.9346523    506.77879  0.020352562  0.020323455            2 
 2076000   0.92115668   -7.9688253    506.87743  0.020346717  0.020317609            5 
 2077000   0.90884476   -7.9300237    507.96229  0.020380448  0.020311712            3 
 2078000   0.94400021   -7.9351991    507.49421  0.020351869  0.020305822            1 
 2079000   0.91817922   -7.9477061    507.51009  0.020342716  0.020299925            5 
 2080000    0.9084081   -7.9710195    507.28783  0.020324032  0.020294034            2 
 2081000   0.92126545   -7.9831105    506.65724  0.020289013  0.020288126            3 
 2082000   0.93435758   -7.9214116     508.2326  0.020342323  0.020282254            6 
 2083000   0.91118392   -7.9580926    506.71379  0.020271795  0.020276314            2 
 2084000   0.92903148   -7.9804587    506.83757  0.020267018  0.020270367            2 
 2085000   0.92650838   -7.9518989    507.88006  0.020298963  0.020264469            4 
 2086000    0.9238836   -7.9364876    508.24995  0.020304009  0.020258546            5 
 2087000   0.91720619   -7.9703844     507.5002  0.020264343  0.020252632            5 
 2088000   0.92264384   -7.9788188    507.28262  0.020245954  0.020246705            1 
 2089000   0.90553233   -7.9655183    507.42231  0.020241835   0.02024076            2 
 2090000    0.9040242   -7.9363548    508.92957  0.020292247  0.020234886            2 
 2091000   0.92488129    -7.975174     508.1357  0.020250905  0.020228993            4 
 2092000   0.92701901   -7.9597528    508.18162  0.020243054  0.020223058            3 
 2093000   0.94110202    -7.960982    507.18002  0.020193503  0.020217168            2 
 2094000   0.91139756   -7.9438218    508.25533  0.020226653  0.020211225            1 
 2095000   0.92269886   -7.9582792    508.85906  0.020241013  0.020205316            3 
 2096000   0.93636281   -7.9366289     509.8772  0.020271835  0.020199417            2 
 2097000   0.91697895   -7.9605988    507.87852  0.020182742  0.020193494            5 
 2098000   0.90059152   -7.9253125    509.04501  0.020219455  0.020187553            2 
 2099000   0.91872897   -7.9696524    508.65223  0.020194228  0.020181633            2 
 2100000   0.90959109   -7.9687919     508.6635   0.02018506  0.020175737            2 
 2101000   0.89632093   -7.9898669    508.16422  0.020155649  0.020169771            3 
 2102000   0.91542355   -7.9480873    508.85139  0.020173303  0.020163873            2 
 2103000   0.88920362   -7.9349369    509.91731  0.020205948  0.020157967            2 
 2104000   0.91930704   -7.9796189    508.82085  0.020152917  0.020152075            4 
 2105000   0.90781305   -7.9683371    509.62022  0.020174989  0.020146179            5 
 2106000   0.91086401   -7.9040631    511.75289  0.020249798  0.020140348            4 
 2107000    0.9091369   -7.9849412    508.33258  0.020104911  0.020134507            3 
 2108000   0.91187299   -7.9604506    510.23146   0.02017044  0.020128595            3 
 2109000   0.89197808   -7.9636271    509.90067  0.020147806  0.020122797            3 
 2110000   0.90460128   -7.9266689    511.87523  0.020216241  0.020116964            2 
 2111000   0.92819527   -7.9706763    510.20712  0.020140815  0.020111076            3 
 2112000   0.91220835   -7.9909982    508.86451  0.020078303  0.020105139            4 
 2113000   0.91259567   -7.9576019    510.43186  0.020130615   0.02009923            2 
 2114000    0.9047778   -7.9188987    511.02086   0.02014431  0.020093382            1 
 2115000   0.91511445   -7.9636457     509.7794  0.020085871  0.020087484            1 
 2116000   0.90980885   -7.9655161    509.68065  0.020072489  0.020081577            3 
 2117000   0.89941289   -7.9309857    511.19437  0.020122594  0.020075724            4 
 2118000   0.90826601   -7.9719104    510.92308  0.020102419  0.020069868            2 
 2119000   0.90864691   -7.9772459    510.39638  0.020072219  0.020063917            1 
 2120000   0.89557458   -7.9628947     509.9615  0.020045656  0.020057961            1 
 2121000   0.91207471   -7.9881495    510.99874  0.020076958  0.020052046            5 
 2122000   0.91122303    -7.963478    509.92113  0.020025178  0.020046088            3 
 2123000   0.92955415   -7.9891091    512.37501  0.020112067  0.020040158            3 
 2124000   0.92108312   -7.9850393    511.95348  0.020086059  0.020034254            4 
 2125000   0.88037455   -8.0145449     508.9012   0.01995691  0.020028268            4 
 2126000   0.92761499   -8.0139177     510.6939  0.020017791  0.020022271           15 
 2127000   0.91264917   -8.0083351    510.83453   0.02001389  0.020016323            7 
 2128000   0.91779359   -8.0101486    511.72621  0.020039404   0.02001043            2 
 2129000   0.91731684   -7.9734587    512.81584  0.020072641  0.020004567            4 
 2130000   0.92899576   -7.9961982    511.78778  0.020022996  0.019998638            4 
 2131000   0.88235235   -8.0156166    511.71415  0.020010721  0.019992711            2 
 2132000   0.90732626   -7.9826416    512.36598  0.020026813  0.019986771            1 
 2133000   0.90709413   -7.9597922     512.2741  0.020013834  0.019980873            2 
 2134000   0.89499566   -7.9728044    513.55172  0.020054347  0.019975027            3 
 2135000   0.89695754    -7.963523    513.39479  0.020038829  0.019969183            2 
 2136000   0.90563726    -7.991813    512.13853  0.019980436  0.019963356            2 
 2137000   0.91587884   -7.9527477    511.88294  0.019961119  0.019957518            3 
 2138000   0.90245141   -7.9691533    512.79972  0.019987516  0.019951619            2 
 2139000    0.9186562   -7.9945851    512.65569  0.019972561  0.019945732            7 
 2140000   0.90229486   -7.9378434    513.61364  0.020000531  0.019939826            2 
 2141000   0.92176079   -7.9635697    512.70486  0.019955817   0.01993395            3 
 2142000   0.90600635   -7.9597583    513.49581  0.019977273  0.019928087            2 
 2143000   0.90906074   -7.9793445    512.78794  0.019940424  0.019922182            4 
 2144000   0.90435177   -7.9901561     512.1077  0.019904684  0.019916181            1 
 2145000   0.93217739    -7.969176    511.84113  0.019885048  0.019910162            2 
 2146000   0.90580192    -7.989674    512.58132  0.019904525  0.019904187            4 
 2147000   0.90015394   -7.9901163    512.07122  0.019875455  0.019898122            3 
 2148000   0.89287784   -8.0044655    511.54167  0.019845657  0.019892082            3 
 2149000    0.9072824   -8.0152645    512.09576  0.019857909  0.019886106            3 
 2150000   0.92854397   -8.0029758     512.4108  0.019860884  0.019880118            2 
 2151000   0.90501196   -7.9888201    512.48318  0.019854454  0.019874168            2 
 2152000   0.92309583    -7.984435    513.78413  0.019895606   0.01986828            3 
 2153000   0.90554664   -7.9706077    512.21571  0.019825658  0.019862358            2 
 2154000   0.89903185   -7.9814152    513.82333  0.019878649  0.019856409            3 
 2155000   0.91625279   -7.9897134    513.63746  0.019862238   0.01985042            4 
 2156000   0.90957818      -7.9833    511.48298   0.01976975  0.019844364            2 
 2157000   0.89095929   -7.9934881    512.58474   0.01980315  0.019838343            3 
 2158000   0.90146026   -8.0117509    512.45133  0.019788822  0.019832346            5 
 2159000   0.89250045   -7.9860295    512.07578  0.019765161  0.019826337            4 
 2160000   0.90631012   -8.0312897    512.09854  0.019756888  0.019820275            1 
 2161000   0.90247234    -8.004429    512.63224  0.019768327  0.019814271            3 
 2162000   0.90810315   -7.9933999    514.12208  0.019816608  0.019808235            3 
 2163000   0.90638805   -8.0149893    512.07374  0.019728531  0.019802192            3 
 2164000   0.91308399   -8.0183559    514.33708  0.019806573  0.019796155            2 
 2165000   0.90652863   -7.9887932      514.426  0.019800847  0.019790179            6 
 2166000   0.91473833    -8.033441    514.07802  0.019778317   0.01978418            2 
 2167000    0.9084554   -7.9790052    514.10444  0.019770206  0.019778225            3 
 2168000   0.90171544   -7.9724638    515.23582  0.019804575  0.019772297            2 
 2169000   0.89514149   -7.9875859    513.80952  0.019740645  0.019766387            5 
 2170000   0.90871438   -8.0284051    514.56145  0.019760424  0.019760426            7 
 2171000   0.91138057   -8.0318338      514.962  0.019766698  0.019754466            4 
 2172000   0.89762791   -7.9987482    514.15735  0.019726725  0.019748466            1 
 2173000   0.94508559   -7.9948276     515.0281  0.019751039  0.019742517            2 
 2174000   0.90616592   -7.9716308    514.07211  0.019705309   0.01973649            2 
 2175000   0.91783691   -8.0232263    515.25754  0.019741668  0.019730458            4 
 2176000   0.91295036   -8.0097391    514.47595  0.019702663  0.019724458            6 
 2177000   0.89291614   -8.0109885    514.19438  0.019682835  0.019718471            1 
 2178000   0.90852299    -7.996833    514.56691  0.019688051  0.019712464            2 
 2179000   0.88907114   -7.9705098    516.21735  0.019742135  0.019706444            2 
 2180000   0.91202558   -7.9946316    515.10192  0.019690441  0.019700433            5 
 2181000   0.90280777   -7.9969484    514.02744  0.019640358  0.019694385            2 
 2182000   0.90391806   -7.9589771    516.25635  0.019716481   0.01968842            2 
 2183000   0.91711321   -7.9831326    515.90909  0.019694194   0.01968244            3 
 2184000   0.92442217   -8.0006642     515.7022  0.019677282   0.01967639            3 
 2185000   0.91580539   -8.0143478    515.12572   0.01964629  0.019670372            3 
 2186000   0.91200193   -8.0011021    515.78555  0.019662456  0.019664315            3 
 2187000   0.91281686   -8.0199704    514.60781  0.019608589   0.01965831            2 
 2188000   0.90577653   -7.9949005    515.40024  0.019629808  0.019652286            5 
 2189000   0.90586783   -8.0128488      515.321  0.019617824  0.019646202            3 
 2190000   0.90773276   -7.9808048    515.27627  0.019607164  0.019640147            5 
 2191000    0.8866556   -8.0099906    514.30151  0.019561141  0.019634088            3 
 2192000   0.90465352   -8.0295575    513.98384   0.01954014  0.019628003            8 
 2193000   0.90664129   -7.9926665    515.77035  0.019599117  0.019621903            3 
 2194000   0.91212488   -8.0465359    514.95486  0.019559209  0.019615851            1 
 2195000   0.90202762   -7.9661377    516.03124  0.019591163   0.01960976            2 
 2196000   0.90326169   -7.9974323    516.24591  0.019590388  0.019603679            2 
 2197000    0.9237721   -8.0031118     515.7337  0.019562043  0.019597561            4 
 2198000    0.8913912   -8.0129851    514.03945  0.019488908  0.019591446            4 
 2199000   0.91424162   -8.0424032    515.66508  0.019541651  0.019585314            3 
 2200000   0.90308094   -7.9984564    515.93658  0.019543052   0.01957913            2 
 2201000   0.89157678   -7.9919922    516.70032   0.01956309  0.019573065            3 
 2202000   0.88849942   -8.0160334     515.7437  0.019518002  0.019566949            3 
 2203000   0.88112642   -8.0080009    515.94997  0.019516946  0.019560769            2 
 2204000   0.87517293   -8.0748307    515.12782  0.019477005  0.019554669            3 
 2205000   0.89336619   -8.0173812    515.53445  0.019483539  0.019548507            2 
 2206000   0.92123629   -8.0389242    515.61056  0.019477582   0.01954233            2 
 2207000   0.89758814   -8.0068859    516.17089  0.019489914  0.019536136            2 
 2208000   0.89686018   -8.0166947    515.63325  0.019460796  0.019529974            2 
 2209000   0.90851571   -8.0055437    514.83413   0.01942184  0.019523854            6 
 2210000   0.89731061   -8.0009957    516.90615  0.019491182  0.019517728            2 
 2211000   0.93217746   -8.0276488    515.53086  0.019430531  0.019511634            6 
 2212000    0.8877086   -8.0178095    516.52187  0.019459082  0.019505511            1 
 2213000    0.8829676   -8.0196546    517.01722  0.019468942  0.019499382            9 
 2214000   0.89415224   -8.0137901    517.75114  0.019487773  0.019493314            4 
 2215000   0.89670405   -7.9967714    517.01038  0.019451105  0.019487229            2 
 2216000    0.9062625   -7.9928028    517.46319  0.019459356  0.019481157            2 
 2217000    0.9106451   -8.0330136    517.85417  0.019465275  0.019475135            1 
 2218000   0.88875521    -8.017462    517.02815  0.019425464  0.019469049            2 
 2219000   0.91281433   -8.0053114    517.43126  0.019431849  0.019462982            2 
 2220000   0.88235569   -7.9959614    517.77466  0.019435986  0.019456943            2 
 2221000   0.90660142   -7.9624583    518.63151  0.019459384  0.019450943            2 
 2222000   0.88823729   -8.0413366    517.32631  0.019401677  0.019444876            1 
 2223000   0.89468893    -8.006983    519.01878  0.019456395  0.019438781            3 
 2224000   0.90955516   -8.0232856    518.63018  0.019433085  0.019432733            3 
 2225000   0.89566226   -8.0070513    517.61934  0.019386492   0.01942668            4 
 2226000   0.91132011   -7.9959286    518.82522  0.019422927  0.019420681            3 
 2227000   0.88345485   -7.9756908    519.56028  0.019441711  0.019414754            7 
 2228000   0.88774462   -7.9794492    520.67673  0.019474743  0.019408848            1 
 2229000   0.87828827   -7.9850954    519.78856  0.019432801  0.019402935            4 
 2230000     0.888074   -8.0402535    517.99375  0.019357016  0.019396947            2 
 2231000   0.91472008   -8.0013401     520.0687  0.019425844   0.01939098            2 
 2232000   0.87932835   -7.9998652    519.84349  0.019408733  0.019385009            2 
 2233000   0.87180479   -8.0149431    519.30536  0.019379958  0.019379062            6 
 2234000   0.88180037   -7.9843524    519.37615  0.019373924  0.019373116            3 
 2235000   0.88192414   -7.9895758    520.81499  0.019418904  0.019367183            2 
 2236000   0.87733885   -8.0076636    520.39202  0.019394455  0.019361179            2 
 2237000   0.89534638   -8.0317135    518.66308  0.019321378  0.019355155            4 
 2238000    0.8711935   -8.0434963    518.06618  0.019290519  0.019349103            2 
 2239000   0.90459288   -8.0340351    519.53719  0.019336653  0.019343049            2 
 2240000   0.90042048    -8.006024    519.71878  0.019334776  0.019336989            3 
 2241000    0.9031657   -8.0152525    518.51497  0.019281384  0.019330978            2 
 2242000   0.91349774   -8.0572593    519.66007  0.019315346  0.019324975            4 
 2243000   0.89452722   -8.0018977     521.2293  0.019365036  0.019318989            2 
 2244000   0.90642225   -8.0142317    519.92964  0.019308142  0.019312997            1 
 2245000   0.90551717   -7.9824814    520.47841  0.019319911  0.019306972            1 
 2246000   0.88186689   -8.0203679    520.55667  0.019314213  0.019300925            1 
 2247000   0.89501214     -8.01826    520.39945  0.019299787  0.019294912            1 
 2248000   0.89239622    -8.077673    519.40179  0.019254218  0.019288862            2 
 2249000   0.90595353   -8.0053922    520.25934  0.019277432  0.019282877            3 
 2250000   0.88766709   -7.9862335    522.91875  0.019367361  0.019276874            3 
 2251000   0.89829409   -8.0144208    520.65103  0.019274805  0.019270895            2 
 2252000   0.89184092   -8.0069003    519.74007  0.019232537  0.019264915            2 
 2253000   0.91573794   -8.0378913    520.35848  0.019246874  0.019258878            1 
 2254000   0.88902847   -8.0319561     521.1988  0.019269403  0.019252901            1 
 2255000   0.89704223   -8.0211555    520.17278  0.019222941  0.019246909            2 
 2256000   0.89497083   -8.0217763    521.49045  0.019263093  0.019240926           10 
 2257000   0.90156041   -8.0475577    520.99072  0.019236107  0.019234933            2 
 2258000   0.90367686   -8.0156333      519.962  0.019189622  0.019228946            3 
 2259000   0.89152917    -8.072724     519.1053  0.019149524  0.019222974            3 
 2260000   0.87797883    -8.011848    523.47873  0.019302313  0.019217065            3 
 2261000   0.88674269   -8.0082088    522.05369  0.019241253  0.019211161            2 
 2262000   0.87484023   -8.0324802    521.53405  0.019213603  0.019205194            1 
 2263000   0.89387511    -8.046455    520.53764  0.019168421  0.019199216            2 
 2264000   0.88536734   -8.0681567    521.01333  0.019177464  0.019193239            2 
 2265000   0.90822275    -8.017382    522.77877   0.01923395  0.019187264            3 
 2266000   0.90386814   -8.0365577    521.95615   0.01919521   0.01918133            1 
 2267000    0.8700958   -8.0388142    522.09252  0.019191756  0.019175312            4 
 2268000   0.89489079   -8.0359259    523.00087  0.019216669  0.019169328            6 
 2269000    0.8843211   -8.0194331    523.66906   0.01923274   0.01916339            3 
 2270000   0.90433947    -8.015529    522.61495  0.019185571  0.019157459            1 
 2271000   0.90361481   -8.0378642    522.34376  0.019167171  0.019151506            2 
 2272000   0.90425606   -8.0703457    522.30545   0.01915733  0.019145473            5 
 2273000    0.8912805   -8.0227413    523.14142   0.01917955  0.019139447            1 
 2274000   0.90685587   -8.0648756    521.54835  0.019112736   0.01913345            2 
 2275000   0.88662745   -8.0862423     521.2885  0.019094817   0.01912743            2 
 2276000   0.90683672   -8.0523462    520.57971  0.019060476  0.019121403            3 
 2277000   0.87599177   -8.0563526     521.8822  0.019099773  0.019115364            2 
 2278000    0.8708361   -8.0593562    520.63715  0.019045842  0.019109354            4 
 2279000   0.88210139   -8.0675478    520.82541  0.019044369  0.019103339            3 
 2280000   0.87358734   -8.0728025    521.59627  0.019064191  0.019097325            3 
 2281000   0.87480568   -8.0141957    524.14238  0.019148852  0.019091365            3 
 2282000   0.89039701   -8.0786397    522.45018  0.019078666  0.019085428            3 
 2283000   0.89489403   -8.0802906    522.48261  0.019071493  0.019079397            3 
 2284000   0.87100478   -8.0544359    521.76223  0.019036859  0.019073333            2 
 2285000    0.8581437   -8.0453279    521.71241  0.019026711  0.019067284            3 
 2286000     0.881396   -8.0554302    522.58367  0.019050148  0.019061187            5 
 2287000   0.87388217   -8.0561468     521.6823  0.019008975  0.019055132            4 
 2288000   0.91278474   -8.0728215    522.93289  0.019046215  0.019049062            2 
 2289000   0.90206681   -8.0404436    522.20763  0.019011491  0.019042992            1 
 2290000   0.87433598   -8.0566568     523.3681  0.019045419  0.019036932            2 
 2291000   0.88749587   -8.0525346    523.28394  0.019034044  0.019030903            4 
 2292000   0.87884136   -8.0661215     522.2596  0.018988496  0.019024827            4 
 2293000   0.87993513   -8.0599415    521.53257  0.018953793  0.019018776            2 
 2294000   0.88137359   -8.0571155    523.75256  0.019026175  0.019012725            3 
 2295000    0.8902813   -8.0465974    523.56463  0.019011061  0.019006698            3 
 2296000   0.88804523     -8.01163    522.79489  0.018974844  0.019000712            3 
 2297000   0.87574425   -8.0572366    523.96715  0.019009111  0.018994718            2 
 2298000    0.8919607   -8.0452317    523.60411  0.018987674  0.018988749            2 
 2299000   0.87565883   -8.0750513    523.63023  0.018980362  0.018982763            7 
 2300000   0.88154859   -8.0789841    523.17903  0.018955762  0.018976805            2 
 2301000   0.86834497   -8.0439583    523.85643  0.018972057  0.018970823            2 
 2302000   0.89904088   -8.0736137    524.06658  0.018971423  0.018964799            4 
 2303000   0.87224292   -8.0277455    524.53954  0.018980299  0.018958806            3 
 2304000   0.87811165   -8.0398033    524.98472  0.018988162  0.018952835            2 
 2305000   0.88165628   -8.0529244    524.53847  0.018963791  0.018946865            3 
 2306000   0.88681162   -8.0635073    524.74271  0.018962949  0.018940865            3 
 2307000   0.88429252   -8.0503325    523.97771  0.018927095  0.018934914            3 
 2308000    0.8827641   -8.0551034    524.47452  0.018936833  0.018928969            3 
 2309000   0.87047709   -8.0726997    524.86248  0.018942633  0.018923068            2 
 2310000   0.88991666   -8.0455936    524.53558   0.01892264  0.018917135            2 
 2311000   0.87047851   -8.0419465    525.45279  0.018947526  0.018911208            2 
 2312000   0.88707045   -8.0821545    525.56973  0.018943546  0.018905259            6 
 2313000   0.87934122   -8.0777963    525.05094  0.018916664   0.01889931            3 
 2314000   0.87722225   -8.0747733    524.33027  0.018882536  0.018893388            3 
 2315000   0.88062014   -8.0706521    526.17938  0.018940942  0.018887467            5 
 2316000   0.89170913   -8.0678638    526.23107  0.018934624  0.018881527            1 
 2317000   0.90473305   -8.0553681    526.98336  0.018953509  0.018875623            3 
 2318000   0.88318451   -8.0810866    524.16054   0.01884385  0.018869745            2 
 2319000   0.89173565   -8.0517152    527.51358  0.018956216  0.018863855            2 
 2320000    0.8831864   -8.0824378    525.90658  0.018890322  0.018857962            3 
 2321000   0.88727291   -8.0527821    526.29059  0.018895971  0.018852083            1 
 2322000   0.88634262   -8.0780374    525.55138  0.018861304  0.018846188            2 
 2323000   0.89014993   -8.0472622    527.02398  0.018906012  0.018840306            3 
 2324000   0.87520552   -8.0861425    526.83785  0.018891202  0.018834448            7 
 2325000   0.88275913   -8.0562097    525.88426  0.018848898  0.018828555            1 
 2326000   0.87566755   -8.1245812    526.09842  0.018848467  0.018822612            2 
 2327000     0.872361   -8.0506654    527.29061  0.018883062  0.018816702            7 
 2328000    0.8679894   -8.0485481    527.24239  0.018873224  0.018810849            2 
 2329000   0.87254329   -8.0412477      527.856  0.018887076  0.018805023            3 
 2330000   0.87488447   -8.0593668     526.7782  0.018840422  0.018799146            2 
 2331000   0.87467675   -8.0530291     527.2379  0.018848774  0.018793299            3 
 2332000   0.86917099   -8.0512843    526.23259  0.018804767  0.018787422            3 
 2333000    0.8616117   -8.0882906    528.08347  0.018862819  0.018781525            2 
 2334000   0.87887101    -8.065182    527.34063  0.018828214  0.018775629            5 
 2335000   0.86299226   -8.0780239    527.87247  0.018839132  0.018769743            1 
 2336000   0.87368598   -8.0645599    527.11117  0.018803909  0.018763871            7 
 2337000   0.88573792   -8.0503492    528.35867  0.018840346  0.018758024            3 
 2338000   0.88548013   -8.0721726    527.06543  0.018786193  0.018752173            6 
 2339000   0.85669457   -8.0625849    527.78255  0.018803711  0.018746284            3 
 2340000   0.87648422    -8.055415    527.17419   0.01877401  0.018740413            2 
 2341000   0.87769462   -8.0753751    526.95841  0.018758309  0.018734521            3 
 2342000   0.88487958   -8.0879568    527.47079  0.018768531   0.01872862            3 
 2343000   0.86608752   -8.0811225    527.53031  0.018762637  0.018722694            2 
 2344000   0.88359948    -8.083624    527.05383  0.018737693  0.018716772            2 
 2345000   0.87202147    -8.052645    527.04063  0.018729234  0.018710883            4 
 2346000   0.88651146    -8.095311    526.92171  0.018717026  0.018704994            4 
 2347000   0.87741555   -8.0706337    528.18202    0.0187538  0.018699087            3 
 2348000   0.86815698   -8.0610733    529.35443  0.018787423  0.018693238            4 
 2349000   0.87128631   -8.0558433    528.07692  0.018734104  0.018687369            4 
 2350000    0.8860303   -8.0683518    529.23427  0.018767173  0.018681512            5 
 2351000   0.89274643   -8.0733396    527.00874  0.018680304  0.018675645            2 
 2352000    0.8722278   -8.0817309      528.613  0.018729202  0.018669703            4 
 2353000     0.877541   -8.0869722    528.17979    0.0187059  0.018663756            2 
 2354000   0.87062841   -8.0678936    528.54548  0.018710899  0.018657816            2 
 2355000   0.87412253   -8.0942856    526.98759  0.018647827   0.01865189            2 
 2356000   0.85486016   -8.0644995    529.06653  0.018713445  0.018645961            2 
 2357000   0.87546397   -8.0698093    528.35507  0.018680352  0.018640052            4 
 2358000   0.86213108   -8.1011768    528.49489  0.018677371  0.018634177            3 
 2359000   0.85682617   -8.0815267     529.2092  0.018694687  0.018628274            3 
 2360000   0.86744207   -8.0845411    527.73457  0.018634695  0.018622369            2 
 2361000   0.88002795   -8.0605021    528.56469  0.018656102  0.018616464            2 
 2362000   0.87134185   -8.1102128    528.05642  0.018630272  0.018610582            2 
 2363000    0.8678583   -8.1011242    528.91888  0.018652803  0.018604696            4 
 2364000   0.87517878   -8.0677954    529.93475  0.018680723  0.018598829            2 
 2365000    0.8665598   -8.0946434    529.12818  0.018644404  0.018592936            3 
 2366000    0.8696625   -8.1045822    528.75205  0.018623276  0.018587045            4 
 2367000    0.8546548   -8.0780311    531.05855  0.018696611  0.018581164            2 
 2368000   0.88967522    -8.091898    529.93387  0.018649137  0.018575306            4 
 2369000   0.86804445   -8.0758024      529.457   0.01862449  0.018569431            2 
 2370000   0.87087786   -8.0874761    529.67549  0.018624314  0.018563588            2 
 2371000   0.87322861   -8.0927582    530.64036  0.018650371  0.018557712            3 
 2372000   0.86220921   -8.1069653    529.15317   0.01859026  0.018551838            1 
 2373000   0.87606332   -8.1043052    529.80503  0.018605318  0.018545964            5 
 2374000    0.8669524    -8.075125    529.49217  0.018586498  0.018540088            2 
 2375000   0.85395567   -8.0637413    530.32346  0.018607841  0.018534252            4 
 2376000   0.87352404   -8.0383571    530.06636  0.018590992  0.018528442            4 
 2377000    0.8796794   -8.0614858    530.11724  0.018584955  0.018522658            5 
 2378000   0.85694781   -8.0457373     531.3555  0.018620532  0.018516889            2 
 2379000   0.88401832   -8.0853932    530.59184  0.018585955  0.018511087            2 
 2380000   0.87735583   -8.0736515    530.83763  0.018586752  0.018505288            3 
 2381000   0.88104626   -8.0811803    529.90847  0.018546426  0.018499502            2 
 2382000   0.86094495   -8.0798249    530.40395  0.018555974  0.018493681            3 
 2383000   0.89595318   -8.0909192    530.89351  0.018565307  0.018487844            3 
 2384000   0.86726082   -8.0918682    530.06131  0.018528429  0.018481997            2 
 2385000   0.85991711    -8.063549    531.24245   0.01856193  0.018476191            3 
 2386000   0.87431321   -8.0906504    529.45306  0.018491655   0.01847036            4 
 2387000   0.84637516   -8.1201737     530.2878   0.01851305  0.018464504            1 
 2388000   0.87163332   -8.0867873    531.24907  0.018538843  0.018458676            4 
 2389000   0.86217513   -8.0814573     531.3627  0.018535046  0.018452823            3 
 2390000   0.86769158   -8.0967736    530.50423  0.018497358  0.018446965            2 
 2391000   0.86695602   -8.0896497    531.14945   0.01851211  0.018441161            1 
 2392000   0.87131403   -8.0925491    531.05176  0.018500967  0.018435321            3 
 2393000    0.8623899   -8.0907497    529.85709  0.018451633  0.018429479            1 
 2394000   0.87175846   -8.0743901    529.16754  0.018419923  0.018423623            3 
 2395000   0.85595137   -8.0579592    532.51395  0.018528669  0.018417837            2 
 2396000   0.86996005   -8.0671798    531.80127  0.018496149  0.018412087            2 
 2397000    0.8861574   -8.0408251    531.54775  0.018479618  0.018406299            1 
 2398000   0.86284743   -8.1011508     531.0461  0.018454479  0.018400531            3 
 2399000   0.86399156   -8.0505871    532.36472  0.018492591  0.018394723            3 
 2400000   0.85053229   -8.0551371    532.62432    0.0184939  0.018388963            1 
 2401000   0.86750935   -8.1146051    532.98921  0.018498862  0.018383184            1 
 2402000   0.86938711   -8.0798659     532.6346  0.018478858  0.018377382            1 
 2403000   0.85855433    -8.097189    532.63333  0.018471124  0.018371605            2 
 2404000   0.90529867   -8.0638549    532.72822   0.01846673  0.018365839            3 
 2405000   0.87252366   -8.0890234    532.20749  0.018441008  0.018360043            3 
 2406000   0.85907856   -8.1242651    532.49701  0.018443371  0.018354258            6 
 2407000   0.84889492   -8.0867403    531.75886  0.018410153  0.018348474            5 
 2408000   0.87842732   -8.0825148    533.40489  0.018459472  0.018342682            5 
 2409000   0.85068179   -8.0799609    531.89512  0.018399582  0.018336912            2 
 2410000   0.87044269   -8.0582701    534.25502  0.018473548  0.018331161            3 
 2411000   0.87295131   -8.1244173    531.38291  0.018366615  0.018325386            2 
 2412000   0.86867875   -8.1032513    533.10781  0.018418595  0.018319573            1 
 2413000   0.88208127   -8.1122238    532.49504    0.0183898  0.018313741            2 
 2414000   0.87875716   -8.1182583    531.50283   0.01834793  0.018307863            1 
 2415000   0.85197444   -8.1692829    531.76467  0.018349368  0.018301966            4 
 2416000   0.86542109   -8.1090061    532.33378  0.018361402  0.018296027            4 
 2417000   0.87120882   -8.1399434    532.12608  0.018346645  0.018290137            4 
 2418000   0.85446253    -8.136814    530.44103  0.018280984  0.018284265            3 
 2419000    0.8692235   -8.1074301    532.37892  0.018340186  0.018278421            2 
 2420000   0.86977822   -8.0972436    531.70781  0.018309498  0.018272577            1 
 2421000   0.84967086   -8.0966824    533.67619  0.018369689  0.018266763            2 
 2422000   0.85692511   -8.1188429    531.59606  0.018290533  0.018260916            3 
 2423000   0.86392244    -8.113033    530.65914  0.018250761  0.018255007            2 
 2424000    0.8675874   -8.1280034    531.13366  0.018259546  0.018249097            4 
 2425000   0.86036476    -8.114813    531.03777  0.018248721  0.018243162            4 
 2426000   0.85601302   -8.1281133     530.8598  0.018235085  0.018237262            2 
 2427000   0.86129869    -8.106801     531.1774  0.018238477   0.01823134            3 
 2428000   0.86433552   -8.1161901    531.20668   0.01823197  0.018225421            3 
 2429000   0.85508003    -8.143575    531.52467  0.018235374  0.018219503            3 
 2430000   0.86335782   -8.1318175    532.42925  0.018258891   0.01821359            7 
 2431000   0.86429207   -8.1438981    532.72284  0.018261444   0.01820766            2 
 2432000   0.86896088   -8.1239778    532.88058   0.01825934  0.018201761            3 
 2433000   0.86127177   -8.1107917     531.9524  0.018220044  0.018195809            2 
 2434000   0.87844025   -8.1277125    531.24256  0.018188255  0.018189821            2 
 2435000   0.84730929   -8.1122593    532.10409   0.01821027  0.018183849            2 
 2436000   0.86146584   -8.0936903     532.3373  0.018210772  0.018177934            3 
 2437000   0.86772656   -8.1141088    532.10848  0.018195475  0.018171992            4 
 2438000   0.85059054   -8.1142269    532.09302  0.018187484   0.01816605            3 
 2439000   0.86237999   -8.0972286    531.82677   0.01817093  0.018160134            4 
 2440000   0.86481129   -8.0787138    532.65214  0.018191671  0.018154243            3 
 2441000   0.84473951   -8.1035711    532.11518  0.018165888  0.018148335            8 
 2442000   0.85601154   -8.1089059    531.27892  0.018129911  0.018142404            2 
 2443000   0.85092974   -8.1236229    531.56398  0.018132214  0.018136439            4 
 2444000   0.87547923   -8.0927555    533.42114  0.018188119  0.018130491            5 
 2445000   0.86030691   -8.1636617    531.38871  0.018111408  0.018124522            5 
 2446000   0.86094708   -8.1131773    533.51713  0.018176517  0.018118554            2 
 2447000    0.8611827    -8.130526    531.52469  0.018101236  0.018112612            1 
 2448000   0.86925598   -8.1403863    532.48317   0.01812647  0.018106662            1 
 2449000   0.87151436   -8.1102746    533.23138  0.018144528  0.018100725            3 
 2450000   0.86782505   -8.1297861    533.03868  0.018130567  0.018094788            2 
 2451000   0.85889633   -8.1395742    532.98101  0.018121209  0.018088833            3 
 2452000   0.84985902   -8.1118339    532.82525  0.018108525  0.018082891            4 
 2453000    0.8468167   -8.1157252    532.18941  0.018079542  0.018076951            3 
 2454000   0.86507855    -8.126727     533.5704  0.018119071  0.018070965            2 
 2455000   0.85044431     -8.09543    533.87341  0.018121976  0.018065034            3 
 2456000   0.86398245   -8.1341646    532.30779  0.018061475  0.018059107            2 
 2457000   0.86768722    -8.125213    533.16071  0.018083052  0.018053175            4 
 2458000   0.85092473   -8.1230459    532.72137    0.0180608  0.018047263            3 
 2459000   0.84847785   -8.1157176    534.75301  0.018122306  0.018041362            3 
 2460000   0.87811142    -8.096532     534.3083  0.018099875  0.018035486            2 
 2461000   0.85840333   -8.0933245    534.33354  0.018093375  0.018029608            8 
 2462000   0.85733036   -8.1218752     533.8434  0.018069435  0.018023708            4 
 2463000   0.84983596   -8.1412577    532.82225  0.018027549  0.018017775            3 
 2464000   0.84540815   -8.1547846     532.7546  0.018017945  0.018011829            3 
 2465000   0.85131714   -8.1189569    533.14717  0.018023907  0.018005911            3 
 2466000   0.86212501   -8.1505634    532.57964   0.01799742  0.017999964            2 
 2467000   0.85762007   -8.1410082    532.74145   0.01799559   0.01799405            4 
 2468000   0.84929338   -8.1202105    534.54318  0.018049135  0.017988133            2 
 2469000   0.86430527   -8.1288937    534.05208  0.018025249  0.017982255            2 
 2470000   0.85160109   -8.1079542     533.9533  0.018014619  0.017976391            3 
 2471000    0.8579673   -8.1272431    535.88333  0.018072418  0.017970576            1 
 2472000   0.85663237   -8.1025835    535.75832  0.018060893  0.017964765            2 
 2473000   0.85967079   -8.1157675    534.82451  0.018022123  0.017958961            2 
 2474000   0.84715726   -8.1163156    535.20237  0.018027566  0.017953143            3 
 2475000   0.86839968     -8.08868    535.93105  0.018044817  0.017947358            6 
 2476000   0.84427961   -8.0920332    535.26132  0.018014988  0.017941578            6 
 2477000   0.85210432   -8.1347147    535.50363  0.018015867  0.017935767            4 
 2478000   0.84302602   -8.0952301    536.62029  0.018046149  0.017929963            4 
 2479000   0.84971156   -8.1007994    535.58522  0.018004075  0.017924186            8 
 2480000   0.85752494   -8.1393823    535.55099  0.017995665   0.01791838            7 
 2481000   0.86517386   -8.1360351    535.42681   0.01798424  0.017912568            4 
 2482000   0.84668642   -8.1063468    536.46247  0.018011767  0.017906723            2 
 2483000   0.85708024   -8.1536085    535.01745  0.017956016  0.017900879            2 
 2484000   0.86058467   -8.1502675    535.30581  0.017958461  0.017895041            2 
 2485000   0.84908286   -8.1318009    535.44902  0.017956037  0.017889186            6 
 2486000   0.85811899   -8.1476102    534.94479  0.017931912   0.01788334            3 
 2487000   0.83498294   -8.1348838    535.14381   0.01793137  0.017877482            3 
 2488000   0.86382701   -8.1391062    535.39957  0.017932729   0.01787161            2 
 2489000   0.85890129   -8.1263431    536.11163  0.017949365  0.017865812            3 
 2490000   0.84871664   -8.1105162    535.62428  0.017925846  0.017859984            3 
 2491000   0.86454637   -8.1662246    534.30554  0.017874533  0.017854095            3 
 2492000   0.86049926   -8.1563245     534.5554  0.017875715  0.017848193            3 
 2493000   0.84680258   -8.1698403    535.12391  0.017887549  0.017842288            2 
 2494000   0.86100178    -8.158692    535.29977  0.017886253   0.01783636            2 
 2495000   0.85602181   -8.1360782    535.93367  0.017900256  0.017830465            2 
 2496000   0.84267121   -8.1195298    534.37265  0.017840967  0.017824602            3 
 2497000   0.85998664   -8.1373835    536.13407  0.017892607  0.017818724            3 
 2498000     0.854229   -8.1290012    533.21144  0.017787945  0.017812841            3 
 2499000   0.86009321   -8.1296751     536.0939  0.017876947  0.017806979            4 
 2500000   0.84803693   -8.1446258    536.37512  0.017879171  0.017801109            1 
 2501000   0.84935129    -8.120743    535.99188  0.017859252  0.017795254            1 
 2502000   0.87219844   -8.1391134    535.28373  0.017828528  0.017789398            2 
 2503000   0.83433007    -8.111952    535.52838   0.01782955  0.017783526            3 
 2504000   0.86429537   -8.1903385    533.53046  0.017755939    0.0177776            7 
 2505000   0.85392008   -8.1291407    534.88869  0.017794035  0.017771648            2 
 2506000   0.85969395   -8.1511695    535.23177  0.017798343  0.017765704            2 
 2507000   0.87070462   -8.1232936    535.28338  0.017792959  0.017759778            1 
 2508000    0.8350507   -8.1247643    534.53642  0.017761045  0.017753868            2 
 2509000   0.84837939   -8.1230468    535.06236  0.017771435  0.017747942            3 
 2510000   0.84870552   -8.1448322    535.19097  0.017768624  0.017742004            1 
 2511000   0.84472969   -8.1608049    534.73433  0.017746394  0.017736062            1 
 2512000   0.85136902   -8.1739857    533.96317  0.017713746  0.017730091            1 
 2513000   0.86681574   -8.1296756    535.25918  0.017749674  0.017724124            1 
 2514000   0.84578996   -8.1344181    536.22802  0.017774729    0.0177182            2 
 2515000   0.82737955   -8.1292268    535.70721  0.017750405  0.017712277            4 
 2516000   0.84199813   -8.1472096    535.82415  0.017747223  0.017706325            3 
 2517000   0.85808284   -8.1236102    535.99998  0.017745993    0.0177004            5 
 2518000    0.8768939   -8.1649627    534.53834  0.017690572  0.017694429            4 
 2519000   0.84545513   -8.1389319    534.99675  0.017698715  0.017688485            4 
 2520000   0.84456431   -8.1333458    535.02887  0.017692754  0.017682554            2 
 2521000   0.84534507   -8.1174111     535.7908  0.017710921  0.017676611            6 
 2522000   0.83356445   -8.1700323    535.58276  0.017697025  0.017670669            3 
 2523000   0.83513224   -8.1495701     534.3091  0.017647942  0.017664742            4 
 2524000   0.83257293   -8.1120375    536.49331  0.017713065  0.017658817            5 
 2525000   0.85476426   -8.1412867    535.40319  0.017670072  0.017652916            5 
 2526000   0.85183863   -8.1659724    535.91785  0.017680056  0.017646992            5 
 2527000   0.85818434   -8.1414622    534.25986  0.017618383   0.01764108            4 
 2528000   0.84645526   -8.1124807    537.48158  0.017717615  0.017635184            3 
 2529000   0.83710414   -8.1251552    537.01873  0.017695358  0.017629302            4 
 2530000   0.84690465   -8.1454659    534.07931  0.017591545  0.017623419            8 
 2531000   0.84299268   -8.1396771    536.23299  0.017655505  0.017617477            3 
 2532000   0.83652739   -8.1612843    536.12407  0.017644947  0.017611554            3 
 2533000   0.83104659   -8.1579316    535.65837   0.01762266  0.017605658            4 
 2534000   0.86393845    -8.164604    536.83963  0.017654552  0.017599736            3 
 2535000   0.85692216   -8.1118955    536.94674  0.017651109  0.017593846            4 
 2536000   0.84079237    -8.115371    537.40458  0.017659193  0.017587973            2 
 2537000   0.84364397   -8.1462429    538.29934  0.017681623  0.017582112            1 
 2538000   0.84027488   -8.1541944    537.00152  0.017632044  0.017576186            1 
 2539000   0.83217966   -8.1869597    536.31291  0.017602498   0.01757026            2 
 2540000   0.85122274   -8.1594017    537.89323  0.017647416  0.017564317            3 
 2541000   0.83036084   -8.1420483    537.21586  0.017618256  0.017558394            5 
 2542000   0.84505417   -8.1406326     536.6315  0.017592168  0.017552515            4 
 2543000   0.85927031   -8.1511258    537.34523  0.017608639  0.017546628            3 
 2544000   0.85479949   -8.1701432    536.94336  0.017588553  0.017540693            5 
 2545000   0.83606063   -8.1501831    536.56652  0.017569303  0.017534779            3 
 2546000   0.83890017   -8.1766902    536.61961   0.01756414  0.017528852            4 
 2547000   0.85494603   -8.1531373    537.19873  0.017576192  0.017522948            2 
 2548000   0.85416482   -8.1830235    536.08886  0.017532995  0.017517002            2 
 2549000   0.85555916   -8.1992495    536.25339  0.017531496   0.01751108            5 
 2550000   0.83194509   -8.1667671    536.25268  0.017524597  0.017505154            3 
 2551000   0.83745449   -8.1690606    536.65971  0.017531024  0.017499235            4 
 2552000   0.81806977   -8.1662439    537.53857  0.017552853  0.017493317            3 
 2553000   0.83867317   -8.1846362    536.91506  0.017525625  0.017487427            3 
 2554000   0.84011631   -8.1680224    536.69863  0.017511702  0.017481517            5 
 2555000   0.85729067   -8.1740395    537.11628   0.01751847  0.017475602            3 
 2556000   0.85094561   -8.1246655    537.80039   0.01753392  0.017469662            2 
 2557000   0.83597458   -8.1546124    535.90608  0.017465327  0.017463752            2 
 2558000   0.84157061   -8.2074089    534.62133  0.017416645  0.017457802            4 
 2559000   0.85894788   -8.1797661    536.29251   0.01746426  0.017451827            2 
 2560000   0.83970368   -8.1755202    535.98473   0.01744742  0.017445862            4 
 2561000   0.83940187   -8.1634096    536.04596  0.017442599  0.017439922            2 
 2562000   0.84324215   -8.1675791    536.36367  0.017446125  0.017433953            3 
 2563000   0.85302623   -8.2145357    535.08077  0.017397606  0.017427976            7 
 2564000   0.87470505   -8.2100607    535.80261  0.017414281  0.017422019            6 
 2565000   0.83586434   -8.1805822    536.76303  0.017438695  0.017416059            2 
 2566000   0.83648905   -8.1928632    535.52993  0.017391853  0.017410091            2 
 2567000   0.85123534   -8.1961903     536.5626  0.017418601  0.017404109            5 
 2568000     0.848703   -8.1944172    536.21918  0.017400674  0.017398162            4 
 2569000   0.82996225   -8.1606391    536.72632  0.017410352    0.0173922            5 
 2570000   0.83541207   -8.1625161    536.86764  0.017408159  0.017386238            2 
 2571000   0.83714262   -8.1628121    537.72831  0.017429285  0.017380307            2 
 2572000   0.85302451   -8.1675048     535.4565  0.017348902  0.017374372            7 
 2573000   0.84959088   -8.1714628     536.2477  0.017367784  0.017368439            2 
 2574000   0.83453773   -8.1586236    537.16177   0.01739063  0.017362507            2 
 2575000   0.84002747    -8.178924    534.67494  0.017303396  0.017356567            2 
 2576000   0.84595784   -8.1908106    534.94747  0.017305495  0.017350577            4 
 2577000   0.84818835   -8.1914389    536.02296  0.017333558  0.017344591            4 
 2578000   0.83006079   -8.1808967    535.88812  0.017322476  0.017338654            3 
 2579000   0.83634097   -8.1591114    538.81967  0.017410484  0.017332718            3 
 2580000   0.84475623   -8.1540949    536.97926  0.017344291  0.017326816            2 
 2581000   0.83671803   -8.1673233    538.36407  0.017382283  0.017320897            2 
 2582000   0.83879914   -8.1876166    537.49319  0.017347444   0.01731495            5 
 2583000   0.82730471   -8.1880586    537.15998  0.017329977  0.017308999            3 
 2584000   0.84496481   -8.1628733    537.45636  0.017332829  0.017303075            4 
 2585000   0.84159597   -8.1694626    537.95467  0.017342188  0.017297172            7 
 2586000   0.84367417   -8.2165532    536.16266  0.017277735  0.017291236            2 
 2587000   0.84538997   -8.1404963    538.66406  0.017351632  0.017285319            3 
 2588000   0.82573716    -8.158747    538.81757   0.01734987  0.017279446            2 
 2589000   0.82513686   -8.1719093    537.96432  0.017315705  0.017273541            2 
 2590000   0.83943759   -8.1808011    538.20922  0.017316899  0.017267639            2 
 2591000   0.84060815   -8.1953351    538.37831  0.017315654  0.017261746            3 
 2592000   0.83528712   -8.1883733    537.34797  0.017275848   0.01725587            3 
 2593000    0.8385657   -8.1503614    538.76873  0.017314846   0.01725001            2 
 2594000   0.82763971   -8.2034665    537.71858  0.017274434   0.01724414            4 
 2595000   0.82552469   -8.1818763    539.68683  0.017330984  0.017238255            2 
 2596000   0.83690028    -8.186534    539.61962   0.01732215  0.017232382            3 
 2597000   0.82612077   -8.1660975    538.79617  0.017289057  0.017226529            3 
 2598000   0.85162464   -8.1539413    538.97078  0.017288003  0.017220702            2 
 2599000   0.83645276   -8.1966065    539.21698  0.017289245  0.017214873            2 
 2600000   0.82491835   -8.1558856    538.44566  0.017257874  0.017209016            1 
 2601000   0.85852244   -8.1842538     538.4653  0.017251868  0.017203167            2 
 2602000   0.81911647   -8.1923732    539.19659  0.017268658  0.017197322            4 
 2603000   0.83598387   -8.1845692    539.63201  0.017275964  0.017191465            2 
 2604000   0.84864574   -8.1922661     538.8097  0.017243014  0.017185632            2 
 2605000   0.85011511   -8.1626072    539.11142  0.017246047   0.01717978            3 
 2606000   0.83694939   -8.1932266    539.29465  0.017245288  0.017173969            3 
 2607000   0.83636296   -8.1980686    540.25201  0.017269275  0.017168123            4 
 2608000   0.82764027   -8.2002206      539.731  0.017246006  0.017162296            4 
 2609000   0.84274524   -8.1781089    540.07482  0.017250377  0.017156497            4 
 2610000   0.84079039   -8.1936617    540.35793  0.017252808  0.017150733            4 
 2611000   0.83105713   -8.1717045    540.89961  0.017263488  0.017144988            2 
 2612000   0.81595433   -8.1978566    539.71507  0.017219087  0.017139219            3 
 2613000   0.83402979    -8.169309    541.63917  0.017273861  0.017133441            3 
 2614000   0.83692498   -8.1908176    539.78831  0.017208248  0.017127683            2 
 2615000   0.81281928   -8.1661343    541.36698  0.017251975  0.017121922            3 
 2616000    0.8394407    -8.191013    541.39047  0.017246129  0.017116194            4 
 2617000   0.82679848   -8.1660214    540.10612  0.017198641  0.017110491            2 
 2618000    0.8395653   -8.1799802    541.25517  0.017228647  0.017104809            5 
 2619000   0.86432304   -8.2148538    540.14134  0.017186628  0.017099093            4 
 2620000   0.82588459   -8.2032943    541.77056  0.017231888  0.017093391            4 
 2621000   0.82123537   -8.2109281    540.96481  0.017199695  0.017087667            9 
 2622000   0.78634276   -8.1832972    541.53227   0.01721117  0.017081958            6 
 2623000   0.83308738   -8.1758154    541.25139  0.017195685  0.017076249            7 
 2624000   0.83903079   -8.1771075    542.15778  0.017217917  0.017070557            6 
 2625000   0.83614953   -8.1860944    543.07995  0.017240633  0.017064891            2 
 2626000   0.83685304   -8.1947888    541.71182  0.017190652  0.017059208            5 
 2627000   0.82584301   -8.2081441    541.42905  0.017175138  0.017053516            3 
 2628000   0.81844567   -8.2269443    540.76245  0.017147465  0.017047814            3 
 2629000   0.82421485   -8.1722507     542.2326  0.017187543  0.017042106            2 
 2630000   0.83903011   -8.2342331    540.23497  0.017117711  0.017036423            6 
 2631000   0.84333523   -8.2164233    541.42635  0.017148941  0.017030708            4 
 2632000    0.8267404   -8.2542176    540.68805  0.017119049  0.017024964            3 
 2633000    0.8333709   -8.2111053    541.24632  0.017130217  0.017019222            2 
 2634000   0.82911841   -8.2240296    541.41814  0.017129149  0.017013467            1 
 2635000   0.82319982   -8.2114593    541.92132  0.017138562  0.017007724            4 
 2636000   0.83469153   -8.2098389    541.26788  0.017111402  0.017001997            3 
 2637000   0.84974576   -8.1819615    541.01386  0.017096886   0.01699624            2 
 2638000    0.8250234   -8.1972563    541.18259  0.017095735   0.01699054            2 
 2639000   0.84187929   -8.1743109    542.43021  0.017128654  0.016984828            1 
 2640000   0.84516761   -8.2055113    541.69869  0.017099075   0.01697914            1 
 2641000   0.84532524   -8.1893151    542.90418  0.017130638  0.016973435            5 
 2642000   0.84295243   -8.1677135    542.27583  0.017104335   0.01696774            1 
 2643000   0.83714061   -8.2184391    541.99353  0.017088962  0.016962021            3 
 2644000   0.83917584     -8.18845    542.96157   0.01711301    0.0169563            5 
 2645000   0.83458945    -8.212486     542.5946  0.017094978  0.016950605            3 
 2646000   0.82963394   -8.2209482    541.65171  0.017058822  0.016944877            7 
 2647000   0.82571306   -8.1991634    542.17642  0.017068896  0.016939147            4 
 2648000   0.83710121   -8.1740081    543.62531  0.017108047   0.01693343            4 
 2649000   0.84333357   -8.2009872    541.09084  0.017021859  0.016927734            5 
 2650000   0.82306982   -8.2450185    541.59773  0.017031375  0.016922026            4 
 2651000   0.83432215   -8.2215292    541.40958  0.017019036   0.01691629            3 
 2652000   0.83457688   -8.2017833    542.29002  0.017040285  0.016910586            2 
 2653000   0.85059464   -8.2210374    542.34964  0.017035734  0.016904909            2 
 2654000   0.83746989   -8.1982576    541.94476  0.017016603   0.01689922            2 
 2655000   0.82672591   -8.1745438    541.81091  0.017005992  0.016893555            2 
 2656000   0.82136049   -8.1772909    543.22001    0.0170438  0.016887914            5 
 2657000   0.82929756   -8.1908118    542.14218  0.017003581  0.016882293            3 
 2658000   0.84512455   -8.1767833    543.81475  0.017049622  0.016876623            4 
 2659000    0.8465644   -8.2178603    542.56974  0.017004192  0.016870943            4 
 2660000   0.82758677    -8.197827    542.32478  0.016990125  0.016865276            6 
 2661000     0.810657   -8.1878886     542.8842  0.017001259  0.016859589            2 
 2662000   0.83584874   -8.2207765    540.55038  0.016921812  0.016853895            9 
 2663000   0.82225766   -8.1927331    541.81973   0.01695518  0.016848237            4 
 2664000   0.81586995   -8.2168918    542.72366  0.016977091  0.016842564            3 
 2665000   0.81774806   -8.1804713    542.68462    0.0169695  0.016836908            1 
 2666000   0.84306083   -8.1597745    543.74697  0.016996342  0.016831242            5 
 2667000   0.84853855   -8.1948253    543.32255  0.016976708  0.016825587            2 
 2668000   0.82633058   -8.2001373    543.96428  0.016990388   0.01681989            5 
 2669000   0.82573601   -8.1538252    544.39176   0.01699737  0.016814203            4 
 2670000    0.8224317   -8.1874827    541.51413   0.01690119  0.016808513            3 
 2671000   0.82333973   -8.1971513     542.6722  0.016930993  0.016802811            2 
 2672000    0.8141336   -8.2233957    542.48305  0.016918758  0.016797109            2 
 2673000   0.81857344   -8.2088774     541.7574  0.016889806  0.016791425            4 
 2674000   0.81710434   -8.2275826    544.14161  0.016957791  0.016785737            2 
 2675000   0.82985548   -8.2228381    543.66142  0.016936493   0.01678006            2 
 2676000   0.82013578   -8.2218902    542.95359  0.016908121  0.016774383            6 
 2677000   0.81614945   -8.1955113    542.50261  0.016887767  0.016768695            3 
 2678000   0.81218517    -8.215883    544.10093  0.016931196  0.016763047            3 
 2679000   0.81738558   -8.2084594    542.00915  0.016859809  0.016757381            3 
 2680000   0.83047321   -8.2276607    543.01353  0.016884749   0.01675169            3 
 2681000   0.82418896   -8.2221104    542.46419  0.016861376  0.016746017            2 
 2682000   0.82662444   -8.2267538    540.98967  0.016809274  0.016740328            9 
 2683000   0.81826509   -8.2260821    542.08902  0.016837154  0.016734618            1 
 2684000   0.82745895    -8.226256    541.28696  0.016805979   0.01672891            2 
 2685000   0.81985294   -8.2337214    542.66291  0.016842424  0.016723209            5 
 2686000   0.80547981   -8.2496642    542.97273  0.016845766  0.016717489            3 
 2687000   0.82756767   -8.1792883     544.1635  0.016876427  0.016711761            8 
 2688000   0.82185938    -8.223139    543.29961  0.016843366  0.016706056            4 
 2689000   0.83434335   -8.2097589    542.98292  0.016827288  0.016700377            6 
 2690000   0.82390767   -8.2574325    542.13367  0.016794723  0.016694683            2 
 2691000   0.83437603    -8.220167    542.83219  0.016810114   0.01668898            2 
 2692000   0.82207287   -8.2233365    542.30543  0.016787563  0.016683299            3 
 2693000   0.84579121   -8.2456342    543.07075  0.016805012  0.016677584            2 
 2694000   0.81026866   -8.2489402    541.75064  0.016757939  0.016671871            2 
 2695000   0.84294634   -8.2446605    543.54539  0.016807217  0.016666146            2 
 2696000   0.81198645   -8.2307748     542.0687  0.016755338   0.01666041            4 
 2697000    0.8181582   -8.2353823    543.23533  0.016785173  0.016654707            3 
 2698000   0.84536909    -8.243681    543.84426  0.016797759  0.016648995            2 
 2699000   0.81779885   -8.2320746     543.2109   0.01677198  0.016643308            6 
 2700000   0.82241598   -8.2025062     543.6429  0.016779102  0.016637624            3 
 2701000   0.82513569   -8.2174019    544.01583  0.016784395  0.016631958            4 
 2702000   0.83482602   -8.2425327    544.27722  0.016786245   0.01662627            4 
 2703000   0.83456647   -8.2425864    542.95688  0.016739329  0.016620589            3 
 2704000   0.81495121   -8.2264411    542.60302  0.016722233  0.016614907            2 
 2705000   0.80898784   -8.2469278    543.18075  0.016733849  0.016609247            3 
 2706000   0.82986312   -8.2478308     542.0993  0.016694361  0.016603542            3 
 2707000   0.81230106   -8.2513459    544.03189  0.016747688  0.016597867            2 
 2708000    0.8176587   -8.2727786    542.65034  0.016698989  0.016592197            3 
 2709000   0.83296196   -8.2148172    544.98684  0.016764699  0.016586527            3 
 2710000   0.81743362   -8.2162582    544.25277   0.01673594  0.016580895            5 
 2711000   0.84361163   -8.2682676    543.02012  0.016691876  0.016575245            2 
 2712000   0.81605612   -8.2480147    544.20023  0.016721984  0.016569606            1 
 2713000   0.81863009   -8.2144124    544.78355  0.016733737  0.016563966            2 
 2714000   0.82839817   -8.2207708    543.55757  0.016689928  0.016558319            1 
 2715000   0.83571554   -8.2093214    544.57998  0.016715162  0.016552691            1 
 2716000   0.83368982   -8.2227404    544.78892  0.016715418  0.016547064            4 
 2717000    0.8026528   -8.2261028    544.53646  0.016701523  0.016541427            4 
 2718000   0.82407903   -8.2276371    544.04965  0.016680453  0.016535792            3 
 2719000   0.82023467   -8.2578665    543.08112  0.016644634  0.016530127            6 
 2720000   0.81539195   -8.2472106    543.41531  0.016648753  0.016524445            4 
 2721000   0.83128044   -8.2331835    544.10778  0.016663842  0.016518783            3 
 2722000   0.81413703   -8.2467551     542.2172  0.016599841  0.016513085           14 
 2723000    0.8219095   -8.3055988    543.38879  0.016629599  0.016507359            3 
 2724000   0.82333819   -8.2562353    543.52398   0.01662763  0.016501638            2 
 2725000   0.82828786   -8.2651034    543.39229  0.016617501  0.016495963            3 
 2726000   0.81175002   -8.2364928    543.56859  0.016616795  0.016490313            2 
 2727000   0.80141605   -8.2234049    543.48322  0.016608093  0.016484647            8 
 2728000   0.80245991   -8.2642239     543.2198  0.016593958   0.01647899            5 
 2729000   0.80178773   -8.2459138    544.20541  0.016617974  0.016473304            2 
 2730000   0.81360313    -8.245115    543.88915  0.016602233  0.016467628            3 
 2731000   0.81586985   -8.2511786     543.8909  0.016596207  0.016461952            5 
 2732000   0.82508723   -8.2540575    543.15074  0.016567555  0.016456291            6 
 2733000   0.78955152   -8.2631186     544.3444   0.01659789  0.016450597            8 
 2734000   0.82665747   -8.2530468    543.78047   0.01657463  0.016444898           17 
 2735000   0.82128723   -8.2325318     543.7278  0.016566965  0.016439225            9 
 2736000   0.81194813   -8.2449157    543.89264  0.016565931  0.016433539            5 
 2737000   0.80747405    -8.245977    544.49327  0.016578166  0.016427869            1 
 2738000   0.82367956   -8.2578834    544.59679  0.016575262  0.016422215            5 
 2739000   0.81075394   -8.2643989    543.97651  0.016550338  0.016416573            4 
 2740000   0.82927262   -8.2438179    545.00505  0.016575579  0.016410938            6 
 2741000   0.81933153   -8.2339996    545.23644  0.016576567  0.016405353            3 
 2742000   0.78784712   -8.2329758    544.66505  0.016553156   0.01639975            5 
 2743000   0.82222981   -8.2137857    544.15053   0.01653149   0.01639412            3 
 2744000    0.7993874   -8.2478321    543.64486  0.016510109  0.016388481            2 
 2745000   0.81099892    -8.259755     543.3085  0.016493883  0.016382837            2 
 2746000   0.80675253   -8.2136764    545.24824  0.016546742  0.016377182            3 
 2747000   0.82685018   -8.2431643    544.35606  0.016513653  0.016371549            4 
 2748000   0.80444714   -8.2643111    544.16229  0.016501768  0.016365909            3 
 2749000   0.80273098   -8.2472773    544.98221   0.01652062  0.016360266            4 
 2750000   0.82777872   -8.2468457    544.86487  0.016511057  0.016354632            4 
 2751000   0.81601931    -8.241647     544.2452  0.016486284  0.016348978            3 
 2752000   0.82405182   -8.2530276    544.79232  0.016496861  0.016343342            3 
 2753000   0.82113818   -8.2026417    546.23263  0.016534466  0.016337743            2 
 2754000   0.78955792   -8.2205464    544.85852  0.016486883   0.01633213            2 
 2755000   0.81447126   -8.2445618    544.98558  0.016484742  0.016326535            5 
 2756000   0.80227678   -8.2396374    545.91931  0.016506994  0.016320933            2 
 2757000   0.80400724   -8.2532518    544.73148  0.016465104  0.016315333            4 
 2758000   0.81253484   -8.2957516    544.56016  0.016453957   0.01630971            3 
 2759000    0.8164773   -8.2300994    545.82377   0.01648616  0.016304099            3 
 2760000   0.80210716   -8.2644106     545.1707  0.016460468  0.016298508            6 
 2761000   0.82182783   -8.2722565    545.53026  0.016465359  0.016292904            7 
 2762000   0.78514637   -8.2644705    546.06633  0.016475571  0.016287316            2 
 2763000   0.79044721   -8.2857926    545.96113  0.016466435  0.016281754            3 
 2764000   0.82137652   -8.2578913    546.04478     0.016463  0.016276178            5 
 2765000   0.81204296   -8.2682289    545.25507  0.016433245  0.016270641            2 
 2766000   0.82330865   -8.2369407    546.31232  0.016459157  0.016265118            2 
 2767000   0.80845518   -8.2387005    545.60621  0.016431942  0.016259583            1 
 2768000   0.81055589   -8.2359125    546.52702  0.016453728  0.016254017            3 
 2769000   0.79913638   -8.2694314    546.31344  0.016441358  0.016248463            4 
 2770000   0.80071996   -8.2859443    545.51915  0.016411527  0.016242913            2 
 2771000   0.80603621   -8.2569512    546.30059  0.016429105  0.016237365            6 
 2772000   0.82676756   -8.2658233    546.49052  0.016428888  0.016231839            5 
 2773000   0.78409028   -8.2368685    545.84986   0.01640371  0.016226297            1 
 2774000   0.81190114   -8.2468614    546.35123  0.016412858  0.016220749            5 
 2775000   0.79854943   -8.2772153    545.03531  0.016367427  0.016215196            3 
 2776000    0.7987144   -8.2524601    547.40641  0.016432709  0.016209653            2 
 2777000   0.81004125   -8.2900366    546.61826  0.016403141  0.016204111            2 
 2778000   0.78590869   -8.2986958    545.76641  0.016371683  0.016198554            2 
 2779000   0.79946184   -8.2692164    546.80136  0.016396826  0.016193015            3 
 2780000   0.80686436   -8.2819431    547.52525  0.016412627   0.01618748            3 
 2781000   0.81687626   -8.2895283    546.07421  0.016363245  0.016181953            4 
 2782000   0.81861701   -8.2476851     546.9641  0.016384019  0.016176405            8 
 2783000   0.79521933   -8.2755399    546.50799  0.016364474  0.016170873            3 
 2784000   0.80790362   -8.2580651    548.13703  0.016407358  0.016165335            2 
 2785000   0.81291972    -8.293641    546.58681  0.016355081  0.016159775            5 
 2786000   0.79760884   -8.2900877    545.23616  0.016308811  0.016154207            2 
 2787000   0.80337374   -8.2447431    546.62871  0.016344597  0.016148646            1 
 2788000    0.8049639   -8.2380745    546.05468  0.016321577  0.016143145            5 
 2789000   0.79267362   -8.2785437    547.16964  0.016349039  0.016137632            5 
 2790000   0.79715819   -8.2636672    547.20873  0.016344347  0.016132111            3 
 2791000   0.80595845   -8.2706309    547.14253  0.016336514  0.016126624            5 
 2792000   0.81467772   -8.2520339    546.64066  0.016315684  0.016121122            2 
 2793000   0.80899414   -8.2521858    546.99419   0.01632039  0.016115636            7 
 2794000   0.80668821   -8.2613001    547.51244  0.016330006  0.016110156            6 
 2795000   0.80908684   -8.2283993    549.03252  0.016369485   0.01610469            2 
 2796000    0.8006826   -8.2239842    548.55778  0.016349481  0.016099231            8 
 2797000   0.82157325   -8.2234458    549.05672  0.016358501  0.016093769            4 
 2798000   0.79467641   -8.2530472    546.23641  0.016268657  0.016088286            5 
 2799000   0.80460121   -8.2631973    546.23977  0.016262944  0.016082776            6 
 2800000   0.79101916   -8.2839536     546.8784  0.016276143  0.016077284            3 
 2801000   0.78932683   -8.2788569    548.00166   0.01630375  0.016071791            3 
 2802000   0.78684789   -8.2765549    546.34847  0.016248765  0.016066288            2 
 2803000   0.80030027   -8.2949693    547.22859  0.016269134  0.016060768            3 
 2804000    0.8053389      -8.2819     546.2071  0.016232974   0.01605525            1 
 2805000   0.80506406   -8.2746028    547.63781  0.016269691  0.016049683            3 
 2806000   0.82049983   -8.2763445    546.34558  0.016225516   0.01604413            2 
 2807000   0.81369742   -8.2953761     546.3068  0.016218584  0.016038579            2 
 2808000   0.80645444   -8.2838107    545.50341  0.016188966  0.016033012            4 
 2809000   0.82138683   -8.3016648    545.18713   0.01617382  0.016027443            1 
 2810000   0.80855991   -8.2656608    546.42211  0.016204689  0.016021888            1 
 2811000    0.7849436   -8.2824434    546.97412  0.016215289  0.016016329            4 
 2812000   0.79543778   -8.2938497    544.65292  0.016140734  0.016010769            3 
 2813000   0.79869862   -8.2567265    546.35908   0.01618554  0.016005202            2 
 2814000   0.80162092   -8.2514099     546.2977   0.01617797  0.015999661            3 
 2815000   0.81073969   -8.2795999    547.20065  0.016198954  0.015994115            2 
 2816000   0.80346453    -8.282586     546.7933  0.016181147  0.015988567            3 
 2817000   0.79646005   -8.2790822     546.6439  0.016170983  0.015983004            4 
 2818000   0.79872333   -8.2702907    546.96034  0.016174602  0.015977445            2 
 2819000      0.79049    -8.277188    547.13491  0.016174025  0.015971899            5 
 2820000   0.80838322   -8.2766881    547.74533  0.016186328   0.01596636            3 
 2821000   0.81062075   -8.2807838    547.28759  0.016167068  0.015960832            3 
 2822000   0.80840292   -8.3049205    547.29472   0.01616155   0.01595529            2 
 2823000   0.79671456   -8.3033549    546.35497  0.016128084  0.015949715            5 
 2824000   0.79996172   -8.2975873     548.1451  0.016175198  0.015944148            2 
 2825000   0.79025027   -8.2669449    547.64779  0.016154802  0.015938619            2 
 2826000   0.81523164   -8.2714804    547.12167  0.016133571  0.015933073            2 
 2827000   0.80359796   -8.2785043    545.91533  0.016092304  0.015927552            2 
 2828000    0.8092242   -8.2940004    547.02056  0.016119182  0.015922004            3 
 2829000   0.81163386   -8.2895193    546.37259  0.016094397   0.01591647            3 
 2830000   0.79824639   -8.2801541     545.5825  0.016065445  0.015910941            3 
 2831000    0.8082354   -8.2793135    547.07626   0.01610374  0.015905386            1 
 2832000   0.81024982   -8.2858756    547.98268  0.016124726  0.015899847            4 
 2833000   0.82538732   -8.2910797    546.74576   0.01608265  0.015894292            2 
 2834000   0.80791903   -8.2835459    547.20228  0.016090399  0.015888732            2 
 2835000   0.78177314   -8.2972244     546.5435  0.016065359  0.015883154            2 
 2836000   0.79544972   -8.2907819    547.02633  0.016073881  0.015877573            3 
 2837000   0.78769541   -8.2835138    547.34873  0.016077686  0.015872007            4 
 2838000   0.78378195   -8.3064125    546.02077  0.016033027   0.01586645            2 
 2839000   0.81598953   -8.3061924    545.93335  0.016024814  0.015860878            2 
 2840000     0.781674   -8.2991489    547.02369  0.016051165  0.015855322            4 
 2841000   0.78593293   -8.3171629    546.30665  0.016024482  0.015849733            6 
 2842000   0.80787637   -8.3119559    545.05775  0.015982223  0.015844165            2 
 2843000   0.79941889   -8.3056801    547.44147  0.016046473  0.015838582            2 
 2844000    0.7842515   -8.2878981    546.43913  0.016011461  0.015833017            1 
 2845000   0.78178468   -8.2877539    546.57726  0.016009879   0.01582746            6 
 2846000   0.78011861   -8.3024622    547.34806  0.016026823  0.015821938            5 
 2847000   0.79537024   -8.2898984    548.23252  0.016047082    0.0158164            2 
 2848000   0.79937178   -8.2936465    547.70487  0.016026009  0.015810877            3 
 2849000   0.80544787   -8.2998239    545.85343  0.015966229  0.015805366            2 
 2850000   0.78679592   -8.3152861    545.88805  0.015961639   0.01579984            3 
 2851000   0.78303718   -8.2871031    547.79173  0.016011684   0.01579431            4 
 2852000   0.79374222   -8.2962473    547.98573  0.016011738   0.01578881            3 
 2853000   0.76582713   -8.2645827    548.47172  0.016020321  0.015783283            2 
 2854000   0.80274736   -8.2942595    546.65301  0.015961604   0.01577777            5 
 2855000   0.81576201   -8.2912718    547.32564  0.015975646  0.015772259            4 
 2856000   0.79354647   -8.3040567    546.81465  0.015955143  0.015766766            3 
 2857000   0.79418724   -8.3158608    547.62802  0.015973282  0.015761269            3 
 2858000   0.77242019   -8.3025698    548.41525  0.015990648   0.01575578            4 
 2859000    0.7933668   -8.3176172    546.97596  0.015943102  0.015750286            3 
 2860000     0.809712   -8.3053075    547.72008   0.01595921  0.015744775            2 
 2861000   0.78673688   -8.3216076    547.81609  0.015956428  0.015739256           10 
 2862000    0.7937378   -8.3101053    547.79117  0.015950127  0.015733755            4 
 2863000   0.80231275   -8.3070236    547.00366  0.015921634  0.015728264            2 
 2864000   0.77945525   -8.3029174     547.5053  0.015930671  0.015722783            4 
 2865000     0.797989   -8.2998083    548.63238  0.015957893  0.015717307            4 
 2866000   0.80901387   -8.3225718    547.09429  0.015907603  0.015711835            2 
 2867000   0.79405186   -8.2879493      548.234  0.015935182  0.015706362            1 
 2868000   0.78995501   -8.3158254     547.3285  0.015903315  0.015700865            2 
 2869000   0.82307597   -8.3379775    548.05207  0.015918789  0.015695385            3 
 2870000   0.79777405     -8.31811    546.74771  0.015875369   0.01568987            4 
 2871000   0.80408343   -8.3255431     547.7438  0.015898752   0.01568436            2 
 2872000   0.79328506   -8.3060474    547.77148  0.015894019  0.015678864            2 
 2873000   0.79831489   -8.3025186    546.54064  0.015852786  0.015673335            3 
 2874000   0.79928062   -8.3354925     548.0384  0.015890698  0.015667817            1 
 2875000   0.78542397   -8.3227935    547.91643  0.015881636  0.015662308            3 
 2876000   0.77728655   -8.2813753    548.39658  0.015890026  0.015656815            2 
 2877000   0.78045209   -8.3350338    547.96785  0.015872085  0.015651346            4 
 2878000   0.79830175   -8.3140406    548.28637  0.015875792  0.015645871            4 
 2879000   0.79985288   -8.3193439    548.18168  0.015867248  0.015640395            2 
 2880000   0.78560796   -8.3125579    547.22367  0.015834018  0.015634905            3 
 2881000   0.78486671   -8.3161152    548.33639  0.015860708  0.015629394            2 
 2882000   0.80026103   -8.3304141    547.95076  0.015844054  0.015623877            2 
 2883000   0.77370563   -8.3109692    548.55329  0.015855974  0.015618378            3 
 2884000   0.80530339    -8.290792    547.99794  0.015834429  0.015612899            6 
 2885000   0.78137707   -8.3076557    548.06632  0.015830916  0.015607428            5 
 2886000   0.78948415   -8.2634505    549.63469  0.015870718  0.015601952            3 
 2887000   0.78803518   -8.3153041    550.01536  0.015876208  0.015596484            7 
 2888000   0.77723947    -8.300832    548.25935  0.015820041  0.015591013            2 
 2889000   0.79044962   -8.3039459    547.90268  0.015804277  0.015585547            7 
 2890000   0.79206888   -8.3149492    547.73117  0.015793863  0.015580088            4 
 2891000   0.78045266   -8.3272726    548.59367  0.015813262  0.015574594            4 
 2892000   0.80259506   -8.3265502    548.36268  0.015801138  0.015569113            3 
 2893000   0.79624738   -8.2860549    548.13373  0.015789081  0.015563659            3 
 2894000   0.79966763   -8.3000219    547.80883  0.015774269   0.01555819            5 
 2895000   0.78784201   -8.3257502     548.6465  0.015792933  0.015552718            1 
 2896000   0.78318515   -8.3233867    548.45393  0.015781939  0.015547248            3 
 2897000   0.77271888   -8.3336996    547.34917  0.015744712  0.015541771            1 
 2898000   0.78489967   -8.3034923    548.99909  0.015786723  0.015536301            2 
 2899000   0.77682722    -8.315329    548.57074  0.015768964  0.015530845            4 
 2900000   0.78940211   -8.3082474    549.41592  0.015787814  0.015525394            3 
 2901000   0.77972219   -8.3088363    549.21192  0.015776511  0.015519942            2 
 2902000   0.79351838   -8.3227698    547.96972  0.015735404  0.015514509            5 
 2903000   0.80092152   -8.3085613    548.33782  0.015740551  0.015509063            2 
 2904000   0.78486749   -8.3069044    549.27736  0.015762091  0.015503597            4 
 2905000   0.77799738   -8.3381983      549.138  0.015752668  0.015498144            2 
 2906000   0.76551152    -8.322053    548.44743  0.015727444  0.015492678            2 
 2907000   0.78149539   -8.3345366    548.85173  0.015733624  0.015487238            2 
 2908000   0.79422415   -8.3302221    548.68275  0.015723371  0.015481792            7 
 2909000   0.79244222   -8.3142001    548.84875  0.015722721  0.015476363            5 
 2910000   0.79529839   -8.3220951    548.87531  0.015718079  0.015470931            5 
 2911000   0.80213802   -8.2875975    548.59764   0.01570473  0.015465503            4 
 2912000   0.79733391   -8.3051052    548.69434  0.015702105  0.015460084            4 
 2913000   0.79325495   -8.2830586    549.52051  0.015720349  0.015454658           12 
 2914000   0.78338782   -8.3378136    548.48028  0.015685206  0.015449226            3 
 2915000   0.78193939   -8.2898183    547.27274  0.015645304   0.01544377            4 
 2916000   0.79269628   -8.3147168    549.03397  0.015690271  0.015438315            5 
 2917000   0.78298111   -8.3409614    548.07195  0.015657409  0.015432856            3 
 2918000   0.78577878   -8.3316662    548.54953  0.015665682  0.015427399            2 
 2919000   0.77600368    -8.322327    547.13244   0.01561986  0.015421934            2 
 2920000   0.80013045   -8.3449873    547.32618   0.01562004  0.015416468            3 
 2921000   0.77727772   -8.3365231     548.5273  0.015648959  0.015411023           10 
 2922000   0.79210899   -8.3253515    547.78007  0.015622293  0.015405591            5 
 2923000   0.78209954   -8.3066579    548.00755  0.015623433  0.015400164            3 
 2924000   0.77599523   -8.3035929    548.27428  0.015625692  0.015394768            4 
 2925000   0.78195856   -8.3484066    548.63935  0.015630751  0.015389343            7 
 2926000   0.79050934   -8.2965858    548.52065  0.015622028  0.015383923            4 
 2927000   0.76864225   -8.3325645    548.61428  0.015619357   0.01537851            7 
 2928000   0.78899694   -8.3171965    549.00863  0.015625246  0.015373086            4 
 2929000   0.79091274   -8.3614046     548.2159  0.015597357  0.015367672            2 
 2930000   0.75907356   -8.3162621    548.73538  0.015606808   0.01536224            2 
 2931000     0.790419   -8.3184362    548.33769  0.015590176  0.015356829            4 
 2932000   0.76991296   -8.3210533    548.50397  0.015589585   0.01535141            5 
 2933000   0.79902457   -8.3400523      548.887  0.015595153  0.015345998            3 
 2934000     0.781452   -8.3158826    548.31074   0.01557347  0.015340595            6 
 2935000   0.76804687   -8.3177829     550.1558  0.015620551  0.015335189            5 
 2936000   0.78830515    -8.320465    549.96786  0.015609896  0.015329772            4 
 2937000   0.77194931   -8.3529586    548.63012  0.015566625  0.015324366            4 
 2938000   0.77790564    -8.362592    548.51371  0.015558025  0.015318962            2 
 2939000   0.78667949   -8.3552208    548.55919   0.01555402   0.01531353            2 
 2940000   0.77553202   -8.3572908    548.01163  0.015533209  0.015308114            3 
 2941000   0.78296447   -8.3444084    548.40108  0.015538963  0.015302714            5 
 2942000   0.77249459   -8.3232541    548.97034  0.015549806  0.015297306            8 
 2943000   0.77077196   -8.3456192    548.17255  0.015521932  0.015291898            4 
 2944000   0.78234424   -8.3536644    548.12202  0.015515229  0.015286477            2 
 2945000   0.78771518    -8.318596    549.40057   0.01554614  0.015281072            2 
 2946000    0.7789949    -8.349413    549.46797  0.015542769  0.015275698            2 
 2947000    0.7893356   -8.3315764    549.31485  0.015533165  0.015270309            1 
 2948000   0.78541615   -8.3208269     548.9379   0.01551724  0.015264927            4 
 2949000   0.76574508   -8.3303507    549.40763  0.015525252  0.015259532            3 
 2950000   0.77016192   -8.3443754    549.73067  0.015529115  0.015254142           10 
 2951000   0.76619383   -8.3509723    549.55077  0.015518773  0.015248761            3 
 2952000   0.78841411   -8.3506207    548.82245  0.015492955  0.015243388            5 
 2953000   0.77337827   -8.3557498    548.17451  0.015469424   0.01523799            4 
 2954000    0.7658663   -8.3504974    549.09978  0.015490289  0.015232608            2 
 2955000   0.78140586   -8.3583268    548.65362  0.015472465  0.015227213            4 
 2956000   0.78650858   -8.3518741    548.27532  0.015456566  0.015221806            4 
 2957000    0.7692118   -8.3449431    549.15302  0.015476074  0.015216396            3 
 2958000   0.78494233   -8.3286412    548.39764  0.015449562  0.015211012            7 
 2959000   0.78141968   -8.3532192    549.40737  0.015472777   0.01520562            2 
 2960000   0.77225286   -8.3600049    550.03446  0.015485204  0.015200215            4 
 2961000   0.76937656    -8.361306    547.65805  0.015413094  0.015194811            4 
 2962000   0.77818957   -8.3794968    546.65497  0.015379669  0.015189377            2 
 2963000   0.78381699   -8.3829349    548.61032  0.015429472  0.015183949            3 
 2964000   0.77219938   -8.3795671    547.66077   0.01539757  0.015178533            6 
 2965000   0.77176667   -8.3584245    548.60831  0.015419008  0.015173096            5 
 2966000    0.7660065   -8.3668555    548.66967  0.015415534  0.015167677            4 
 2967000   0.76971977   -8.3604678    548.06197  0.015393269  0.015162296            8 
 2968000   0.78175884   -8.3548465    548.03201  0.015387242  0.015156892            3 
 2969000   0.77747125   -8.3493044     547.5544  0.015368654  0.015151491            3 
 2970000   0.78872467   -8.3585644    549.80673  0.015426676  0.015146121            4 
 2971000   0.78265395    -8.358011    547.49639  0.015356681  0.015140737            2 
 2972000   0.77718489   -8.3600662    548.99896  0.015393645  0.015135343            2 
 2973000   0.80480758   -8.3550082    547.81987  0.015355417  0.015129951            3 
 2974000   0.78900585   -8.3568853     548.7966  0.015377623  0.015124565            7 
 2975000   0.79307965   -8.3451641    548.97983  0.015377586  0.015119176            3 
 2976000   0.78000709    -8.334479    549.44336  0.015385399   0.01511378            3 
 2977000   0.77350179   -8.3487514    548.17368  0.015344689  0.015108382            5 
 2978000   0.78449061   -8.3571262    548.54303  0.015349872  0.015102984            5 
 2979000   0.77688057   -8.3613501    548.87258  0.015353938  0.015097599            3 
 2980000   0.77082035    -8.366225     548.8104  0.015347047  0.015092199            2 
 2981000   0.77224908   -8.3698295    548.36096  0.015329335  0.015086802            4 
 2982000   0.77197023   -8.3818736    548.64006  0.015331994  0.015081415            6 
 2983000   0.76648255   -8.3549143     549.0752   0.01533901  0.015076028            6 
 2984000   0.76670979   -8.3468763    549.43041  0.015343789  0.015070653            2 
 2985000   0.77337124   -8.3709653    549.20158  0.015332261  0.015065313            2 
 2986000    0.7630365   -8.3664975    548.92042  0.015319279  0.015059936            2 
 2987000   0.78163361   -8.3543078     549.3222   0.01532536   0.01505456            2 
 2988000    0.7684847   -8.3555614    547.37931  0.015266045  0.015049182            2 
 2989000   0.76258361   -8.3378054    549.81008  0.015328707  0.015043793            4 
 2990000    0.7934328   -8.3911905    548.09732  0.015275845  0.015038422            2 
 2991000   0.78062155   -8.3417208     549.3369  0.015305274  0.015033054            4 
 2992000   0.77215524   -8.3698063    549.65752  0.015309089  0.015027696            4 
 2993000   0.76885403    -8.365753    549.43686   0.01529783  0.015022335            2 
 2994000   0.76505243   -8.3585656     548.4986  0.015266605   0.01501695            5 
 2995000   0.78394992   -8.3560649    548.37742  0.015258136  0.015011558            6 
 2996000   0.78481104   -8.3893138    548.85334  0.015266281  0.015006168            4 
 2997000    0.7673162   -8.3506758    549.27435  0.015272894  0.015000784            2 
 2998000   0.77384477   -8.3728532    548.74311  0.015253033  0.014995409            3 
 2999000   0.76116001   -8.3633002    549.68649  0.015274161  0.014990059            3 
 3000000   0.77647322    -8.356535     549.1498  0.015254161  0.014984696            4 
 3001000   0.76741226   -8.3900241    549.53099  0.015259663  0.014979352            2 
 3002000   0.77913572   -8.3780287    548.30939  0.015220669  0.014973992            3 
 3003000   0.76661781   -8.3580757    550.40739   0.01527382  0.014968618            3 
 3004000   0.77229908   -8.3578702    548.84484  0.015225389  0.014963264            6 
 3005000   0.77845379   -8.3551155    550.34957  0.015262051  0.014957915            4 
 3006000   0.75867533    -8.386398      549.326  0.015228598  0.014952587            2 
 3007000   0.78924647   -8.3584107    549.87004  0.015238611  0.014947242            3 
 3008000   0.75459224   -8.3591926    549.39902  0.015220496  0.014941896            6 
 3009000   0.80429915   -8.3671648    549.01114  0.015204695  0.014936575            4 
 3010000   0.76312869   -8.3448997    549.05551  0.015200872  0.014931229            8 
 3011000   0.77049009    -8.385053    548.90163  0.015191565  0.014925886           12 
 3012000   0.76040104   -8.3786833    548.22724  0.015167863  0.014920528            2 
 3013000   0.77930084   -8.3858964    549.12779  0.015187736  0.014915167            2 
 3014000   0.78700484    -8.382901    549.03649  0.015180173  0.014909805            4 
 3015000   0.77016639   -8.3603003    549.61286  0.015191069  0.014904431            3 
 3016000   0.77436575   -8.3835776    548.49843  0.015155239  0.014899056            3 
 3017000   0.77237855   -8.4070092     546.7604   0.01510221  0.014893683            3 
 3018000   0.76429633   -8.4008113    548.38635  0.015142101  0.014888317            3 
 3019000    0.7641568   -8.3626247    549.54375  0.015169034  0.014882952            2 
 3020000   0.76594534   -8.4050205    548.00435  0.015121533  0.014877578            3 
 3021000    0.7550983   -8.4142286    548.52149  0.015130792  0.014872197            3 
 3022000   0.76956176   -8.4061083    547.83623  0.015106889  0.014866796            2 
 3023000   0.77696689   -8.3863399    548.64372  0.015124151  0.014861424            4 
 3024000   0.75805837   -8.4071024    550.08013  0.015158734  0.014856048            5 
 3025000   0.77478021    -8.394789     548.9552  0.015122733  0.014850673            2 
 3026000   0.75830335   -8.3886018    548.94442  0.015117438  0.014845313            9 
 3027000    0.7579424   -8.3851982    548.37518  0.015096773  0.014839936            1 
 3028000   0.76232601   -8.3995014    548.62411  0.015098638  0.014834555            2 
 3029000   0.77454949   -8.3998274    549.10925     0.015107   0.01482918            4 
 3030000    0.7786925    -8.421586    548.58974  0.015087727  0.014823798            2 
 3031000    0.7684813   -8.3845165    548.60273  0.015083106  0.014818424            5 
 3032000   0.76056764   -8.3812078    548.66705  0.015079899  0.014813068            2 
 3033000    0.7729577   -8.3932755    547.84309  0.015052288  0.014807705            5 
 3034000   0.75940684    -8.365309    548.84968  0.015074975  0.014802382            1 
 3035000   0.75393901   -8.3937444    549.27837  0.015081778  0.014797046            3 
 3036000   0.75263991   -8.3866944    549.86558  0.015092929  0.014791701            2 
 3037000   0.76434764   -8.4151993    548.59281  0.015053035  0.014786379            6 
 3038000   0.75731407   -8.3831648    549.29905  0.015067453  0.014781054            4 
 3039000   0.75210375   -8.3537648    550.16713  0.015086298  0.014775742            3 
 3040000   0.77194563   -8.3844523    550.78304  0.015098219  0.014770432            3 
 3041000   0.77110187   -8.3566659    549.42194  0.015055956  0.014765123            4 
 3042000   0.76474248   -8.3583533    550.09169  0.015069354   0.01475984            2 
 3043000   0.75988697   -8.3223913    550.64399  0.015079526  0.014754572            1 
 3044000   0.76858953   -8.3665775    549.38346  0.015040064  0.014749314            3 
 3045000    0.7731512   -8.3934209    549.33849  0.015033894  0.014744041            5 
 3046000   0.75862801   -8.3656399    549.22397  0.015025825  0.014738754            5 
 3047000   0.76897746   -8.3683034    549.76432  0.015035672  0.014733458            3 
 3048000   0.74908881   -8.3627092    549.78318  0.015031255  0.014728167            3 
 3049000   0.75662887   -8.3827114    549.00611  0.015005087  0.014722868            4 
 3050000   0.74977927   -8.3818248    549.20108  0.015005494  0.014717575            5 
 3051000   0.76177527   -8.3713826    548.94051  0.014993459  0.014712268            6 
 3052000   0.76361047   -8.4017543    547.95977  0.014961768  0.014706973            6 
 3053000   0.76715709   -8.3586911    548.93443  0.014983471  0.014701685            2 
 3054000   0.75254919   -8.3822118     548.9578  0.014979202  0.014696402            8 
 3055000   0.76360743   -8.4066325    550.01044  0.015003012  0.014691119            5 
 3056000   0.75272207    -8.384472      549.918  0.014995582  0.014685846            5 
 3057000   0.76106834   -8.3944514     550.7355  0.015012962  0.014680587            4 
 3058000   0.75791603   -8.4090023    549.38528  0.014971258   0.01467531            4 
 3059000   0.76062025   -8.4070405     551.2365  0.015016795  0.014670028            2 
 3060000   0.76361325   -8.4101586    549.43606  0.014962856  0.014664737            2 
 3061000   0.77827027   -8.4026405    550.30767  0.014981696  0.014659467            6 
 3062000   0.74599746   -8.3961841    548.03185  0.014914866  0.014654176            2 
 3063000   0.76403179   -8.4134699    550.02131  0.014964123  0.014648889            3 
 3064000   0.76810488    -8.400168    549.58171  0.014947283  0.014643606            2 
 3065000   0.77390135   -8.4050728    549.98538  0.014953382  0.014638326            3 
 3066000    0.7619683   -8.3648739    550.49017  0.014962225  0.014633052            5 
 3067000   0.77122058   -8.4387759    547.97382  0.014888975  0.014627796            3 
 3068000   0.76574433   -8.4009992    550.57701   0.01495483   0.01462252            4 
 3069000   0.75919036   -8.3868131    550.69373  0.014953126  0.014617256            6 
 3070000   0.75870192   -8.3788616    549.80991  0.014924265  0.014612007            6 
 3071000    0.7607079   -8.4042617    549.74815  0.014917729  0.014606747            3 
 3072000    0.7510926   -8.4118818    550.70199  0.014938748  0.014601508            4 
 3073000   0.76103002   -8.4367617    549.80906  0.014909672  0.014596263           16 
 3074000   0.75249881   -8.4116632    549.74954  0.014903208  0.014591014            5 
 3075000    0.7583327   -8.4043684    550.57376  0.014920698  0.014585757           11 
 3076000   0.75287563   -8.4019914    549.87518  0.014896922  0.014580507            2 
 3077000   0.77633146   -8.3943982    548.80621   0.01486313  0.014575248            4 
 3078000     0.763871   -8.3715097    551.13405  0.014921325  0.014569999            2 
 3079000   0.76488506    -8.407526    549.79158  0.014880145  0.014564759            4 
 3080000   0.76385714   -8.4205756     548.8586   0.01485007  0.014559522            5 
 3081000   0.76277433   -8.3914757    549.35612  0.014858707  0.014554278            6 
 3082000   0.76997177    -8.409327    549.61124  0.014860784  0.014549034            4 
 3083000   0.76236866    -8.380743    550.43758    0.0148783  0.014543797            3 
 3084000    0.7604002    -8.429504    548.63977  0.014824896   0.01453856            2 
 3085000   0.76869809   -8.3906642    549.34883  0.014839244  0.014533341            2 
 3086000   0.75315797   -8.4229721    549.69522   0.01484379  0.014528118            2 
 3087000   0.75456103   -8.3754565    550.69154  0.014865877  0.014522888            2 
 3088000   0.74444791   -8.3834931    551.66717  0.014887391  0.014517676            6 
 3089000   0.75295659   -8.3622544    551.26493   0.01487172  0.014512496            4 
 3090000   0.76691758    -8.386467    550.69009  0.014851405    0.0145073            8 
 3091000   0.76191565   -8.3935912    549.90543  0.014825446  0.014502101            6 
 3092000   0.74840635   -8.3863989    550.44279  0.014835134  0.014496896           13 
 3093000   0.75712186   -8.4056328     551.6725  0.014863469  0.014491706            2 
 3094000   0.74563351   -8.4020961    550.41372  0.014824761  0.014486509            3 
 3095000   0.74571393   -8.4014444    549.89208  0.014805926  0.014481291            3 
 3096000   0.75526059   -8.4345871    549.72786  0.014796723  0.014476075            6 
 3097000   0.77366997   -8.4130853    550.23313  0.014805541  0.014470852            9 
 3098000   0.78303232   -8.4064418    550.68903  0.014813025  0.014465628            2 
 3099000   0.75280156   -8.4208496    550.48081  0.014802646  0.014460406            2 
 3100000   0.76803082    -8.415215    550.21294   0.01479067  0.014455181            4 
 3101000     0.758768   -8.4329791     549.6641  0.014771152   0.01444995            8 
 3102000   0.75364191   -8.4081756     549.9691  0.014774584  0.014444728            3 
 3103000   0.75443761   -8.3982915    551.61432  0.014814006  0.014439514            3 
 3104000   0.74222828   -8.4195983    549.64745  0.014756429  0.014434308            3 
 3105000   0.75652936   -8.4124873    550.28564  0.014768804  0.014429093            6 
 3106000   0.75265533    -8.403962    551.57391  0.014798613  0.014423885            3 
 3107000   0.74584263   -8.4313618    550.05049   0.01475299  0.014418659            4 
 3108000   0.74716875   -8.4485572    550.26538  0.014754005  0.014413444            4 
 3109000   0.76120309   -8.4025548    550.92699  0.014766993  0.014408242            4 
 3110000   0.75517589   -8.4582092    549.02133  0.014711182  0.014403036            5 
 3111000   0.74289806   -8.4223077    549.17812  0.014710653  0.014397823            3 
 3112000   0.76040887   -8.4384473    549.71103  0.014720197  0.014392618            4 
 3113000   0.74799712   -8.4159872    549.97659  0.014722577  0.014387419            2 
 3114000   0.75916918   -8.4288799    549.62111  0.014708336  0.014382208            3 
 3115000   0.76170771   -8.4179652     549.4403  0.014698777  0.014377002            3 
 3116000   0.75192536   -8.4437514     549.6007   0.01469835  0.014371807            2 
 3117000   0.75575068   -8.4173739    550.16579  0.014708742  0.014366608            5 
 3118000   0.74704128   -8.4089689    550.77599  0.014720333  0.014361421            1 
 3119000   0.74692573   -8.4496656    550.29551  0.014702776   0.01435624            6 
 3120000   0.75736296   -8.4443341    548.98179  0.014662975  0.014351046            2 
 3121000   0.75441237   -8.4242999    550.36535  0.014695219  0.014345856            3 
 3122000   0.76843784    -8.417314    549.93971  0.014679151   0.01434068            4 
 3123000   0.75124949   -8.4291292    550.19729  0.014681324  0.014335517            2 
 3124000   0.75760607   -8.4263209    549.96352  0.014670388  0.014330342            2 
 3125000   0.76953131   -8.4226641    550.08705  0.014668988  0.014325156            2 
 3126000   0.75872041   -8.4371297    549.74634  0.014655213  0.014319986            2 
 3127000   0.76111475   -8.4508279     550.4403   0.01466902  0.014314802            4 
 3128000   0.75833312   -8.4159384    550.71821  0.014671734  0.014309623            4 
 3129000   0.75680142   -8.4284065    549.39066  0.014631689  0.014304441            5 
 3130000   0.74310943   -8.4190659    550.39108   0.01465365  0.014299254            2 
 3131000   0.75294755   -8.4362691    550.15727  0.014642746  0.014294069            1 
 3132000   0.74323682   -8.4554288    549.61207  0.014623565  0.014288883            4 
 3133000   0.76809575   -8.4499308    548.49096  0.014589077    0.0142837            2 
 3134000   0.75790332   -8.4458696    550.31147   0.01463283  0.014278528            3 
 3135000    0.7352961   -8.4463146    551.10607  0.014649284  0.014273345            2 
 3136000   0.73863305    -8.478073    548.65422   0.01457946  0.014268148            4 
 3137000   0.73603822   -8.4554642    549.30683  0.014592148  0.014262962            4 
 3138000   0.76087274   -8.4411117    550.65528  0.014623308  0.014257785            3 
 3139000   0.74459637   -8.4480443    549.93431  0.014599509  0.014252618           13 
 3140000   0.73253946   -8.4253451    551.41692  0.014634207  0.014247446            2 
 3141000   0.74240046    -8.434005    550.22799  0.014598005  0.014242291            2 
 3142000   0.73067022   -8.4455277    549.33889  0.014569777  0.014237117            2 
 3143000    0.7502361   -8.4158171      550.103  0.014585401   0.01423195            5 
 3144000   0.75218092   -8.4329859    549.59213  0.014567222  0.014226784            2 
 3145000   0.75718173   -8.4301891    549.18233  0.014551731  0.014221622            4 
 3146000   0.75580094   -8.4296444    551.51506  0.014608897  0.014216463            4 
 3147000   0.76542857   -8.4396049    550.10925  0.014567028  0.014211304            4 
 3148000   0.73534683   -8.4688112    549.84341  0.014555363  0.014206142            5 
 3149000   0.76743302   -8.4411747    550.43744  0.014566461  0.014200974            5 
 3150000   0.74853154   -8.4553004    549.34532  0.014532945    0.0141958            4 
 3151000   0.74024824   -8.4568829    550.20476  0.014551062  0.014190634            6 
 3152000   0.73522009   -8.4638155    549.41155  0.014525474  0.014185462            2 
 3153000   0.73231121   -8.4438943    550.20976  0.014541964  0.014180283            6 
 3154000   0.75689871    -8.452663    549.76298  0.014525549  0.014175114            3 
 3155000   0.76747343   -8.4576412    548.41186  0.014485258  0.014169966            3 
 3156000    0.7674007    -8.428298    549.97556  0.014521957  0.014164818            9 
 3157000   0.74682186    -8.468591    549.15837  0.014495786  0.014159658           12 
 3158000   0.75508704    -8.442367    550.40438  0.014524076  0.014154496            3 
 3159000   0.74721802   -8.4396014    549.62126   0.01449882  0.014149336            2 
 3160000   0.75402268   -8.4498777    549.53289  0.014491901  0.014144167            3 
 3161000   0.75556355    -8.443412    549.73753  0.014492712  0.014139006            2 
 3162000   0.74550641   -8.4767953    550.66067  0.014512457  0.014133846            6 
 3163000   0.75930977    -8.454441    550.63289  0.014507137  0.014128676            7 
 3164000   0.73756732   -8.4534873     549.8099  0.014480876  0.014123511            4 
 3165000   0.75482613   -8.4232723    550.07363  0.014483245  0.014118355            4 
 3166000   0.76361765   -8.4550309     550.7996  0.014497778  0.014113211            2 
 3167000   0.73482617   -8.4649935    550.43023  0.014483482  0.014108043            4 
 3168000   0.74232418   -8.4409595    549.46091  0.014453412  0.014102899            3 
 3169000   0.72689845   -8.4323241    550.50719  0.014476364  0.014097756            1 
 3170000   0.77405872   -8.4550002    550.64962  0.014475542  0.014092617            4 
 3171000   0.72844608   -8.4331566    551.69492  0.014498447  0.014087485            5 
 3172000   0.75337398   -8.4301117    550.02593   0.01445003  0.014082347            1 
 3173000    0.7484821   -8.4714145    549.31094  0.014426698  0.014077212            3 
 3174000   0.74219106   -8.4609975    550.34092  0.014449194  0.014072062            3 
 3175000   0.75585222   -8.4694318    550.41144  0.014446494  0.014066918            4 
 3176000   0.73997656   -8.4747613    549.32127  0.014413341  0.014061774            6 
 3177000   0.75127327   -8.4609291    549.64789  0.014417372   0.01405663            9 
 3178000   0.74591962   -8.4720924    550.34625  0.014431148   0.01405148            2 
 3179000   0.75821149   -8.4749088    549.30233  0.014399243  0.014046335            2 
 3180000   0.76665575   -8.4492573    550.46571  0.014425202  0.014041194            7 
 3181000   0.74271557   -8.4506336    550.56237    0.0144232  0.014036067            3 
 3182000   0.75673472   -8.4691973    550.57622  0.014419029  0.014030943            1 
 3183000   0.74460301   -8.4371484    549.23426  0.014379366  0.014025832            3 
 3184000   0.73464066   -8.4330935    551.57086  0.014436004  0.014020732            6 
 3185000   0.73958816   -8.4600757    550.40055  0.014400852  0.014015635            7 
 3186000     0.740812   -8.4710317    549.87308  0.014382535  0.014010553            4 
 3187000   0.72346696   -8.4384834    550.44342  0.014392935  0.014005445            3 
 3188000   0.75652095   -8.4561988    549.89874  0.014374183  0.014000344            1 
 3189000   0.74143946   -8.4387254    551.32347  0.014406906  0.013995232            1 
 3190000   0.72790985   -8.4576607    549.89275  0.014365014  0.013990116            4 
 3191000   0.74525261   -8.4704358    549.54027  0.014351307  0.013984998            3 
 3192000   0.75232504    -8.464921    550.99156    0.0143847  0.013979875            5 
 3193000   0.74697525   -8.4480459    550.60552   0.01437012  0.013974785            2 
 3194000   0.75531949   -8.4517339     550.8248  0.014371342  0.013969674            1 
 3195000   0.71968779   -8.4566216    549.88254  0.014342267  0.013964577            4 
 3196000    0.7367725   -8.4630309    550.61517  0.014356883  0.013959478            4 
 3197000   0.73566582   -8.4545585    549.76819  0.014330315  0.013954375            7 
 3198000   0.73197833   -8.4599514    549.84682  0.014327882  0.013949276            8 
 3199000   0.74598921   -8.4624539    550.16534  0.014331701  0.013944176            4 
 3200000   0.73843781   -8.4609406    548.93074  0.014295071  0.013939084            4 
 3201000   0.74888191   -8.4380536    550.72181  0.014337233  0.013933973            9 
 3202000   0.74713823   -8.4835513     549.5686  0.014302743   0.01392886            8 
 3203000   0.72845036   -8.4889126    549.74271  0.014302808  0.013923739            3 
 3204000   0.72807948   -8.4709739    550.55529  0.014319478   0.01391862            5 
 3205000    0.7351874   -8.4806335    550.01242  0.014300895   0.01391351            4 
 3206000   0.74414483   -8.4598211    549.12028  0.014273245  0.013908413            5 
 3207000    0.7266031   -8.4569192    549.46759  0.014277819  0.013903336           12 
 3208000   0.75426924    -8.460337    548.88025  0.014258111   0.01389826            5 
 3209000   0.73268182   -8.4809254    550.00773  0.014282947  0.013893171            7 
 3210000   0.74638808   -8.4726572     550.0831  0.014280454  0.013888078            5 
 3211000   0.72867571   -8.4621944     550.6618  0.014291026  0.013882998            9 
 3212000   0.73565606   -8.4487325     549.8208  0.014264757  0.013877914           12 
 3213000   0.74014042   -8.4664767    549.85288   0.01426115  0.013872824           11 
 3214000   0.74363115   -8.4702753    549.72693  0.014253447  0.013867732            6 
 3215000   0.72943839    -8.469211    549.67583  0.014247689  0.013862629            9 
 3216000   0.75199167   -8.4801647    548.74998  0.014219268  0.013857523            9 
 3217000   0.74423799   -8.5031231    549.83243  0.014242887  0.013852413            2 
 3218000   0.72979219    -8.491014    549.80348  0.014237712  0.013847312           12 
 3219000   0.74399612   -8.4881875    549.12622  0.014215756  0.013842217           10 
 3220000   0.74863548    -8.506835    549.75369   0.01422758  0.013837118            9 
 3221000   0.74786603   -8.4879937    549.94485  0.014228109  0.013832036            2 
 3222000   0.72283786   -8.4841036    549.15161  0.014203176  0.013826946            5 
 3223000   0.73229823   -8.4657412    550.94763  0.014245207  0.013821852            5 
 3224000   0.72077942   -8.4851513    549.92883  0.014214455  0.013816768            5 
 3225000   0.73050243   -8.4553475    550.69449  0.014229832  0.013811686            6 
 3226000   0.74590988   -8.4791367     548.7703  0.014175715   0.01380662            3 
 3227000   0.73491253   -8.5008396    549.61108  0.014193035  0.013801557            3 
 3228000   0.71415959   -8.5081528    550.10579  0.014201409  0.013796491            1 
 3229000   0.73451559   -8.4914188    549.84623  0.014190312  0.013791426            2 
 3230000   0.73935482   -8.4725493    550.18688  0.014194708  0.013786358            3 
 3231000   0.73918167    -8.457026    550.69397  0.014203393  0.013781301            3 
 3232000   0.73453178    -8.491535    550.44833  0.014192665  0.013776253            2 
 3233000   0.75804894   -8.4770282    551.73672  0.014221485   0.01377121            9 
 3234000   0.73766453   -8.4578881    549.92992   0.01417053  0.013766159            4 
 3235000   0.73339805   -8.4729996    549.66997  0.014159453  0.013761101            4 
 3236000   0.73584784   -8.4782463    549.69265  0.014155662  0.013756058            4 
 3237000   0.74937435   -8.4732102     551.3955  0.014195127  0.013751007            2 
 3238000   0.71688998   -8.4797283     549.2427  0.014135338  0.013745961            2 
 3239000   0.73301415   -8.4626739    549.85755  0.014146793  0.013740913            2 
 3240000   0.73136398   -8.4670681    550.58541  0.014161147  0.013735874            3 
 3241000   0.73560352   -8.4995025    549.77766  0.014136009   0.01373082            2 
 3242000   0.73648015   -8.4753598    549.71804  0.014130116   0.01372577            5 
 3243000   0.74618504    -8.472551    550.45619  0.014144727  0.013720747            3 
 3244000    0.7347674   -8.4916533    550.22135  0.014134334  0.013715705            6 
 3245000   0.71909826   -8.4800892    550.67352   0.01414159  0.013710684            4 
 3246000   0.71580746    -8.448305    551.60628   0.01416118  0.013705677            4 
 3247000   0.73482598   -8.5110277    551.06334  0.014142884  0.013700657            4 
 3248000   0.73364547   -8.4852442    552.09878  0.014165096  0.013695653            3 
 3249000   0.72961959   -8.4891486    549.75275  0.014100563  0.013690635            4 
 3250000   0.71915623   -8.4680763     551.4395  0.014139474  0.013685623            6 
 3251000   0.73899285   -8.4930264    550.10452  0.014100905  0.013680604            7 
 3252000   0.72623775   -8.4947194    550.60101  0.014109292  0.013675588            4 
 3253000   0.73606278   -8.4583927    550.64818  0.014106163  0.013670576            3 
 3254000   0.72857622    -8.480342     550.9245  0.014108904  0.013665574            3 
 3255000   0.74187752     -8.49755     550.6803  0.014098318  0.013660562            1 
 3256000   0.73450784   -8.5218212    549.49072  0.014063542  0.013655542            3 
 3257000   0.73153032   -8.4907707    550.65772  0.014089083  0.013650529            3 
 3258000   0.71303446   -8.5155033    549.47029  0.014054386  0.013645518            7 
 3259000     0.725403    -8.478567    549.70935  0.014056187  0.013640505            1 
 3260000   0.72688039   -8.5053487    550.25653  0.014065862  0.013635493            2 
 3261000   0.72213166   -8.4828461    551.17828  0.014085104  0.013630487            1 
 3262000     0.727589   -8.4790934    550.22743  0.014056495  0.013625477            3 
 3263000   0.72459547   -8.4973535    549.87753  0.014043251  0.013620477            3 
 3264000   0.74545321     -8.50499    549.29429  0.014024058  0.013615467            6 
 3265000   0.72219446   -8.4831599    550.06693  0.014039483  0.013610452            2 
 3266000    0.7439904   -8.5008289    550.30703   0.01404131  0.013605447            2 
 3267000   0.73568283   -8.4986292    548.89395  0.014000968  0.013600458            4 
 3268000   0.73405119   -8.4914812    550.32592  0.014033199  0.013595475            3 
 3269000   0.73203835   -8.4805036    550.61837  0.014036361  0.013590474            3 
 3270000   0.73280421   -8.5113266    549.32647  0.013999146  0.013585489            2 
 3271000   0.73899159   -8.5082004    550.32487  0.014020301  0.013580501            3 
 3272000   0.73401708   -8.4970645    549.89488  0.014005065  0.013575508            5 
 3273000    0.7442454   -8.4520403     551.0822  0.014031016  0.013570544            3 
 3274000   0.73250171   -8.5082184    550.25345  0.014005637  0.013565584            1 
 3275000   0.75082488   -8.4977117    548.99752  0.013969402  0.013560616            5 
 3276000    0.7260736    -8.484898    550.89644  0.014013442  0.013555649            3 
 3277000   0.73198803   -8.4634885      550.245    0.0139926  0.013550682            3 
 3278000   0.71916969   -8.5000057    551.27994  0.014014642  0.013545713            3 
 3279000   0.70578117   -8.5120969     550.6094  0.013993326  0.013540748            3 
 3280000   0.73909083   -8.4821553    551.52241  0.014012256  0.013535775           10 
 3281000   0.71818405   -8.5256626    549.65115  0.013960458   0.01353081            3 
 3282000   0.72372579   -8.4966634    550.41888  0.013975698  0.013525854            5 
 3283000   0.73401113   -8.5345016     550.0782  0.013962793  0.013520881            3 
 3284000   0.72628899   -8.4857907    550.48014  0.013968741  0.013515909            3 
 3285000   0.72578044   -8.4983962     549.0286  0.013927666  0.013510926            2 
 3286000   0.70857077   -8.4961504    550.68184  0.013965354  0.013505952            5 
 3287000   0.74260415   -8.5235608    550.34847  0.013952654  0.013500982            6 
 3288000   0.72224887   -8.5044142    550.76235    0.0139589  0.013496014            4 
 3289000   0.73407601   -8.5001309    550.23454  0.013941282  0.013491036            4 
 3290000   0.74554099   -8.5307892    550.18909  0.013935894  0.013486054            5 
 3291000   0.73627476   -8.5201969    549.45432  0.013913054  0.013481072            3 
 3292000   0.72374067   -8.5087122    549.94946  0.013921361  0.013476105            3 
 3293000   0.70897042   -8.5126136     549.0448   0.01389424  0.013471134            4 
 3294000   0.73351908   -8.5108804    551.08384  0.013941607  0.013466164            3 
 3295000   0.71783832   -8.5424318    549.03536  0.013885568  0.013461199            2 
 3296000   0.70596144   -8.4802253    551.16415  0.013935178  0.013456222            3 
 3297000   0.72846259   -8.5157351    549.87353   0.01389833  0.013451254            1 
 3298000   0.72238794   -8.5009224    549.54902  0.013885916  0.013446283            1 
 3299000   0.74005829   -8.5095206    548.32972  0.013850907  0.013441311            7 
 3300000   0.73295022   -8.5332579     549.3235  0.013871805  0.013436326           10 
 3301000   0.71776524   -8.5148075    549.51185  0.013872358   0.01343135            4 
 3302000   0.73006986   -8.5341981    549.01778  0.013855688   0.01342638            9 
 3303000   0.71451262    -8.526092    549.24223  0.013857156  0.013421402            9 
 3304000   0.72007891   -8.5085379    549.95354  0.013870903  0.013416424            3 
 3305000   0.72563912   -8.5265106     548.7903  0.013837375  0.013411463            4 
 3306000    0.7347232   -8.5337487    548.84205  0.013834494  0.013406508            9 
 3307000   0.72036952   -8.5171117    550.21076  0.013864801   0.01340153            8 
 3308000   0.72681496    -8.544759    548.19948  0.013809942  0.013396547           11 
 3309000   0.70325604   -8.5252677    549.42462  0.013836623  0.013391573            6 
 3310000   0.73035198   -8.5093696      549.431  0.013832603  0.013386594            3 
 3311000   0.70995895   -8.5402471    549.20277  0.013822681  0.013381621            9 
 3312000   0.72545055   -8.5322787    548.73733  0.013806797   0.01337666            6 
 3313000   0.71593565   -8.5542845    549.29761  0.013816722  0.013371696           11 
 3314000   0.72927622   -8.5191489    549.60749  0.013820345  0.013366745            6 
 3315000   0.71127392   -8.5107651    549.57956  0.013815474  0.013361797            2 
 3316000    0.7374981   -8.5188948    549.56832  0.013811025  0.013356854            7 
 3317000    0.7257481   -8.5178208    549.16603  0.013796755  0.013351909            2 
 3318000   0.72011576   -8.5082503    549.71969  0.013806502  0.013346972            4 
 3319000   0.73352247   -8.5262964    549.65125  0.013800624  0.013342051            6 
 3320000   0.73245626   -8.5233349    550.56384  0.013819374  0.013337117            2 
 3321000   0.70892822   -8.5045662    549.33835  0.013784461  0.013332187            3 
 3322000   0.73259716   -8.5315217    548.88183   0.01376886  0.013327255            3 
 3323000   0.72516916   -8.5011681    549.67906  0.013784709  0.013322322            1 
 3324000   0.71574739    -8.501193    549.20744  0.013768738  0.013317406            1 
 3325000   0.72386881   -8.5071529    550.38624  0.013794141  0.013312489            3 
 3326000   0.72235014    -8.517476    550.12483  0.013783444  0.013307581            2 
 3327000   0.72188701   -8.5119105    551.02111  0.013801751  0.013302677            3 
 3328000   0.71815382   -8.5227138    550.59981  0.013787055  0.013297761            5 
 3329000   0.70972691   -8.5222936    550.29726   0.01377534  0.013292859            5 
 3330000   0.72606063   -8.5430013    549.32623  0.013746903  0.013287955            3 
 3331000   0.72021705   -8.5062304    550.20346  0.013764722  0.013283049            3 
 3332000   0.71480666   -8.5323438    549.57664  0.013744914  0.013278148            3 
 3333000    0.6973873   -8.5340311    549.86057  0.013747889  0.013273237            4 
 3334000   0.70953599   -8.5318778    550.01494  0.013747624  0.013268343            2 
 3335000   0.70881112   -8.5375629     550.0204  0.013743638   0.01326345            2 
 3336000    0.7235038   -8.5242452     549.9145  0.013736873  0.013258543            1 
 3337000   0.73055248   -8.5272318    549.73267  0.013728216  0.013253646            5 
 3338000   0.72547509   -8.5225399     551.3388    0.0137642   0.01324876            3 
 3339000   0.71067161     -8.51796    551.22827  0.013757319  0.013243875            3 
 3340000   0.70160994   -8.5227158    550.07043  0.013724312  0.013238994            3 
 3341000   0.70856109   -8.5351696    549.81393  0.013713807  0.013234104            4 
 3342000   0.72914438   -8.5473675     549.8804   0.01371136  0.013229213            3 
 3343000   0.70836503   -8.5172046    550.19196  0.013715025  0.013224333            6 
 3344000   0.72367411   -8.5391063    549.82426  0.013701761  0.013219464            2 
 3345000   0.70980494   -8.5501671    549.76832  0.013696271  0.013214578            2 
 3346000   0.72942005   -8.5125912    550.21741  0.013703363  0.013209692            2 
 3347000   0.71081942   -8.5618844    550.31218  0.013701628  0.013204808            3 
 3348000   0.71443655   -8.5328263    550.77437   0.01370904  0.013199917            5 
 3349000   0.71068805   -8.5057115    550.56591  0.013699759  0.013195034            5 
 3350000   0.70407596   -8.5218503    550.35416  0.013690402  0.013190158            3 
 3351000   0.74282377   -8.5266609    549.64128  0.013668589  0.013185284            4 
 3352000   0.72664194   -8.5405565    550.69594   0.01369073  0.013180412            3 
 3353000   0.70317102   -8.5477948     550.6947  0.013686616  0.013175541            3 
 3354000   0.71897136   -8.5320427    550.25171  0.013671529  0.013170677            4 
 3355000   0.71525243   -8.5314317     549.7239  0.013654344  0.013165799            7 
 3356000   0.73082504   -8.5442001     549.2915  0.013639539  0.013160941            4 
 3357000   0.72350981   -8.5338357    549.01602  0.013628637  0.013156089            4 
 3358000   0.71230317   -8.5232553    548.33331  0.013607636  0.013151222            3 
 3359000   0.71422085   -8.5364768    549.75203  0.013638782  0.013146351            4 
 3360000   0.70455871   -8.5607738    550.04573  0.013642007  0.013141483            2 
 3361000   0.72354381   -8.5522958    549.26273  0.013618534  0.013136618            4 
 3362000    0.7177869   -8.5531981    549.17715  0.013612362  0.013131751            4 
 3363000   0.72017785   -8.5359261    549.64193  0.013619832  0.013126892            4 
 3364000   0.70310894   -8.5561346    548.99441  0.013599743  0.013122032            2 
 3365000   0.71579064   -8.5406304    549.55354  0.013609548  0.013117172            4 
 3366000   0.71184843   -8.5302339    549.87783  0.013613533  0.013112325            2 
 3367000   0.71361916    -8.537157    549.79772  0.013607507  0.013107487            7 
 3368000   0.71158744   -8.5504155    550.00629  0.013608627  0.013102639            3 
 3369000   0.72271394   -8.5280203    550.25339    0.0136107  0.013097798            3 
 3370000   0.70977315    -8.532321    549.93582  0.013598809  0.013092959            2 
 3371000   0.70053455   -8.5286473    550.36843  0.013605469  0.013088127            3 
 3372000   0.71902841   -8.5298064    549.75594  0.013586297  0.013083304            3 
 3373000   0.70467398    -8.526583    549.10488  0.013566184  0.013078467            6 
 3374000    0.7198298   -8.5319269     548.4974   0.01354716  0.013073624            1 
 3375000   0.70517431   -8.5600754    549.19957  0.013560483  0.013068781            3 
 3376000    0.7155884   -8.5544462    549.12132  0.013554535  0.013063932            7 
 3377000   0.71189915   -8.5491904    549.17742  0.013551905  0.013059083            8 
 3378000    0.7279489   -8.5453039    550.18395  0.013572724  0.013054241            7 
 3379000   0.71144935   -8.5247989    549.54849  0.013553036  0.013049401            5 
 3380000   0.70393202   -8.5488156    549.14251  0.013539017  0.013044556            4 
 3381000   0.71106382   -8.5431596    550.69586  0.013573298  0.013039716            2 
 3382000   0.71460422   -8.5616086    549.31829  0.013535341  0.013034876            4 
 3383000    0.7100634   -8.5586138    549.96675  0.013547314  0.013030028            3 
 3384000   0.70087389   -8.5654236     550.6079  0.013559099  0.013025187           12 
 3385000   0.71929032   -8.5628232    548.17024  0.013495082  0.013020343            5 
 3386000   0.70191649   -8.5526961    548.72074  0.013504645  0.013015509            5 
 3387000   0.71400662    -8.554139    548.28943  0.013490046  0.013010673            9 
 3388000   0.71003497   -8.5675651    549.61295  0.013518618  0.013005838            7 
 3389000   0.70690612   -8.5716719    549.86428   0.01352081  0.013001004            3 
 3390000   0.69935141   -8.5776665    549.61805  0.013510768  0.012996164            2 
 3391000   0.69981465    -8.580457     550.2756  0.013522943   0.01299132            7 
 3392000   0.71812846   -8.5791017    549.79413  0.013507128  0.012986478            4 
 3393000   0.70035698   -8.5546064    549.60365  0.013498469  0.012981638            2 
 3394000   0.71885959   -8.5699948     549.8489  0.013500513  0.012976807            2 
 3395000   0.70020944    -8.571963    548.57713   0.01346532  0.012971967            8 
 3396000   0.71152556   -8.5633164    548.69432   0.01346423   0.01296714           11 
 3397000    0.7129782   -8.5848489     550.2994  0.013499642  0.012962314            3 
 3398000   0.71412648   -8.5574485    548.93536  0.013462217  0.012957496            3 
 3399000   0.70451805   -8.5624957    550.32324  0.013492283  0.012952693            5 
 3400000   0.71073654   -8.5845796     549.2966  0.013463152  0.012947889            3 
 3401000   0.72244763    -8.561123    547.65333  0.013418929  0.012943087            2 
 3402000   0.71243838    -8.551945    549.99264  0.013472287  0.012938283            6 
 3403000   0.71622104   -8.5709271    549.75493  0.013462507  0.012933485            2 
 3404000   0.71218205   -8.5764283    549.52005  0.013452802  0.012928669            4 
 3405000   0.70848947   -8.5595756    549.47533  0.013447756  0.012923854            4 
 3406000   0.71516319   -8.5761286     549.5464  0.013445547  0.012919035            9 
 3407000   0.71160001   -8.5795507    550.20085  0.013457608  0.012914208            7 
 3408000   0.70811554   -8.5666856    550.17373  0.013452996  0.012909394            4 
 3409000   0.70372558   -8.5761487    548.51031  0.013408387  0.012904571            3 
 3410000   0.70755317   -8.5931625    549.02765  0.013417098  0.012899756            5 
 3411000   0.70069126   -8.5771053    549.20325  0.013417455  0.012894944            4 
 3412000   0.69580832   -8.5728886    549.19928  0.013413425   0.01289013            4 
 3413000   0.70516088   -8.5733223    548.21714  0.013385515  0.012885311            4 
 3414000   0.70233653   -8.5701037    548.49876  0.013388468  0.012880495            3 
 3415000   0.69902107    -8.589629    549.35324  0.013405399  0.012875688            4 
 3416000   0.69460326   -8.5812606    548.98016  0.013392373  0.012870897            2 
 3417000   0.71504875   -8.6002846    547.94654  0.013363246  0.012866095            2 
 3418000   0.70441603   -8.5588847    549.34343  0.013393394  0.012861302            4 
 3419000   0.70976555   -8.5708288    548.98457   0.01338073  0.012856512            2 
 3420000   0.70911351   -8.5722155    548.89769    0.0133747  0.012851725            5 
 3421000   0.69887113   -8.6106537     548.2921  0.013356039  0.012846937            5 
 3422000   0.69963791   -8.5824361    549.57937  0.013383484  0.012842144            1 
 3423000    0.7003051   -8.5711229    548.96415  0.013364596   0.01283736            4 
 3424000     0.692505   -8.5713778    548.80206  0.013356748  0.012832576            4 
 3425000   0.70324192   -8.6147735    547.83171  0.013329239  0.012827794            3 
 3426000   0.70253239   -8.5852196    549.42577  0.013364122  0.012823017            6 
 3427000   0.70422675   -8.5817593    550.32373  0.013382057  0.012818259           15 
 3428000   0.70369755   -8.5881121    550.32415  0.013378164  0.012813487           10 
 3429000   0.70265085    -8.588172    547.66626  0.013309669  0.012808704            6 
 3430000   0.71075711   -8.5704827    549.35533  0.013346825   0.01280394            4 
 3431000   0.69208924   -8.5813241    549.62948  0.013349594  0.012799169            3 
 3432000   0.73164107   -8.6024926    548.05906  0.013307572  0.012794399           12 
 3433000   0.69367047    -8.573243    549.50455  0.013338784  0.012789623            5 
 3434000   0.71060485   -8.5861717    549.41119  0.013332634  0.012784846            9 
 3435000   0.68087277   -8.6162565    549.61343  0.013333659  0.012780069            5 
 3436000   0.69513948   -8.5684765    548.67234  0.013306954  0.012775298            3 
 3437000   0.70347008   -8.5966648    548.92558  0.013309223  0.012770527            6 
 3438000   0.71207495   -8.5798503    548.90627  0.013304883  0.012765761            6 
 3439000   0.69560835   -8.5930901    548.30888  0.013286539  0.012760993            6 
 3440000   0.72253808   -8.5870814    548.52629  0.013287943  0.012756224            4 
 3441000   0.70668987   -8.6328429    549.24347   0.01330145  0.012751456            7 
 3442000   0.69447128   -8.5903218    549.46999   0.01330307  0.012746699            4 
 3443000   0.69750414   -8.5903207    547.69347  0.013256207  0.012741941            6 
 3444000   0.69561195   -8.6266008     547.5252  0.013248287  0.012737174            7 
 3445000   0.71029051   -8.6081774    549.40781  0.013289981  0.012732405            4 
 3446000    0.7045349   -8.5781364    548.89196   0.01327365  0.012727648            9 
 3447000   0.69661819   -8.6220584    548.89253  0.013269813  0.012722898            6 
 3448000   0.68549137   -8.5931728    548.95784  0.013267542  0.012718135            9 
 3449000   0.69794395   -8.5963109     549.2034  0.013269629  0.012713386            7 
 3450000   0.71425026   -8.6067558    547.80551  0.013232017   0.01270863            4 
 3451000   0.71710782   -8.5444996    550.12477  0.013284188  0.012703882            3 
 3452000   0.71077284   -8.6150627    547.66231  0.013220894  0.012699141            6 
 3453000   0.71461434   -8.5992372    547.45512  0.013212065  0.012694389            3 
 3454000   0.72189849   -8.5877018    549.40803  0.013255357  0.012689642            4 
 3455000   0.70691274   -8.5925376    549.26263  0.013248013  0.012684901            4 
 3456000   0.69487311   -8.6122481    549.12639  0.013240895  0.012680167            5 
 3457000   0.70639458   -8.6075742    548.55638  0.013223324  0.012675428            4 
 3458000   0.69368202   -8.6008432    547.79112  0.013201058  0.012670692            3 
 3459000    0.7088668    -8.591984    549.08055  0.013228307  0.012665951            2 
 3460000   0.67746608   -8.6158518     547.2014  0.013179224  0.012661211            4 
 3461000   0.69897585   -8.6024345    548.73846  0.013212426  0.012656466            4 
 3462000   0.69870032   -8.6214704    547.91871  0.013188877  0.012651731            4 
 3463000   0.68464433    -8.625538    548.67695  0.013203315  0.012646987            2 
 3464000   0.70921034   -8.6187452    548.68079  0.013199596  0.012642242            3 
 3465000   0.70351778   -8.6171963    548.50868  0.013191647  0.012637504            4 
 3466000   0.71217148   -8.6151197    547.83991  0.013171762  0.012632773            4 
 3467000   0.71520778   -8.5965075    549.66777  0.013211897  0.012628049            5 
 3468000   0.69194043   -8.6115291    547.48328  0.013155596  0.012623321            3 
 3469000   0.70461038   -8.6038403    548.61586  0.013179011  0.012618592            3 
 3470000     0.701577   -8.5949477    547.66208  0.013152307  0.012613863            4 
 3471000   0.68489744   -8.5853755     548.1016   0.01315907  0.012609135            3 
 3472000   0.69194895   -8.5952068    549.73217  0.013194417  0.012604416            6 
 3473000   0.70098344   -8.6095678    548.81859  0.013168696  0.012599698            4 
 3474000   0.69636389   -8.6202828    548.40936  0.013155089  0.012594976            3 
 3475000   0.68915528   -8.6149315    547.85591  0.013138031  0.012590266            4 
 3476000     0.691829   -8.6210997    548.14418  0.013141163  0.012585551            3 
 3477000   0.69980738   -8.6049665    549.16432  0.013161833  0.012580836            2 
 3478000   0.68587348   -8.6184288    548.07414  0.013131928  0.012576128            3 
 3479000   0.69824021   -8.6260019    547.92487  0.013124578  0.012571418            4 
 3480000   0.68555305   -8.6035312    548.86748  0.013143378  0.012566716            4 
 3481000     0.707589    -8.582316    548.77797   0.01313746  0.012562016            2 
 3482000   0.70295534   -8.6057734    548.83994   0.01313517  0.012557323            4 
 3483000   0.71943655     -8.62848    547.76819  0.013105756  0.012552623            4 
 3484000   0.67783851   -8.6160768    547.78058  0.013102291  0.012547915            5 
 3485000   0.69159597   -8.6006766    548.10924   0.01310639  0.012543219            2 
 3486000   0.69882395   -8.6187088    550.00793  0.013148019  0.012538531            4 
 3487000   0.70289135   -8.6313523    547.78516  0.013091128  0.012533829            2 
 3488000   0.69741564   -8.6283849    548.47419  0.013103837  0.012529143            2 
 3489000    0.7000088   -8.5935699    548.51877  0.013101146  0.012524452            4 
 3490000   0.69030394   -8.6163656    547.24752  0.013067037  0.012519757            3 
 3491000   0.69317145   -8.6124513    548.96442  0.013104278  0.012515062            3 
 3492000   0.69374062    -8.614638     548.1468  0.013081014  0.012510366            1 
 3493000   0.69069943   -8.6402418    548.22266  0.013079079  0.012505681            3 
 3494000    0.6865691   -8.6078704    547.21121  0.013051212   0.01250098            2 
 3495000   0.70323214   -8.6139922    549.48083  0.013101594    0.0124963            6 
 3496000    0.6997063    -8.625938    547.85266  0.013059035  0.012491625            4 
 3497000    0.6951918    -8.605834    548.46356  0.013069859  0.012486947            2 
 3498000   0.69612466   -8.6265798    548.79864  0.013074105  0.012482278            3 
 3499000   0.70213635   -8.6094066    549.36922  0.013083958  0.012477612            6 
 3500000   0.67698098   -8.6032555    547.98331  0.013047222  0.012472932            4 
 3501000   0.68438467   -8.6266593    548.08378  0.013045886  0.012468261            6 
 3502000   0.71118949   -8.6266473    547.96813  0.013039409  0.012463589            3 
 3503000    0.6835489   -8.6193457     548.9835  0.013059842  0.012458918            4 
 3504000   0.67382112   -8.5913783    548.99432  0.013056372  0.012454253            3 
 3505000   0.68346564   -8.6179232    547.67162  0.013021199  0.012449589            3 
 3506000   0.69805433   -8.6282272    548.79762  0.013044248  0.012444929            2 
 3507000   0.68550106   -8.6061387    547.13976  0.013001135  0.012440267            2 
 3508000    0.7053545   -8.6111281    549.12622  0.013044617  0.012435606            2 
 3509000   0.68937502   -8.6229923    548.46486  0.013025194  0.012430946            3 
 3510000   0.70058348   -8.6152878    548.10471  0.013012932   0.01242628            5 
 3511000   0.69150349   -8.6306061    548.16498  0.013010657  0.012421626            2 
 3512000   0.70030861   -8.6111073    548.78637  0.013021696  0.012416974            2 
 3513000   0.69027004   -8.6320947    548.22055  0.013004567   0.01241233            2 
 3514000   0.69289861   -8.6178127    548.29339  0.013002594  0.012407678            2 
 3515000   0.69982869   -8.6083668     547.8806  0.012989109  0.012403029            4 
 3516000   0.70515668   -8.5983897    548.66786  0.013004073  0.012398394            3 
 3517000   0.70221008   -8.6541697    548.69232  0.013000955  0.012393752            3 
 3518000   0.69043734   -8.6413089    547.90285  0.012978559  0.012389112            2 
 3519000   0.69867339   -8.6331227    547.31256  0.012960892  0.012384481            2 
 3520000   0.69085309   -8.6020803    548.99877   0.01299713  0.012379842            2 
 3521000   0.68398438   -8.6284102    547.94878  0.012968588   0.01237521            2 
 3522000   0.70865769   -8.6332607    547.78223  0.012960965  0.012370579            7 
 3523000   0.70633627   -8.6499843    548.14333  0.012965828  0.012365952            2 
 3524000   0.67336027   -8.6463106    549.65949  0.012998001  0.012361319            3 
 3525000   0.69833453   -8.6362997    548.99634  0.012978637  0.012356696            1 
 3526000   0.69331353   -8.6130083    548.63212  0.012966348  0.012352073            3 
 3527000   0.68271606   -8.6249244    547.60307  0.012938358  0.012347448            1 
 3528000   0.68492229   -8.6226352    548.75806  0.012961972  0.012342829            2 
 3529000   0.67930529   -8.6345305    547.68237  0.012932898  0.012338211            3 
 3530000   0.68288032   -8.6288697    547.32477  0.012920793  0.012333599            5 
 3531000   0.70254657   -8.6164894    548.84677  0.012953053  0.012328986            4 
 3532000   0.67098444   -8.5938505    548.59772   0.01294351  0.012324381            1 
 3533000   0.69033502   -8.6205562     548.5979   0.01293985  0.012319778            2 
 3534000   0.68629017   -8.6116427    548.89961  0.012943303  0.012315175            4 
 3535000   0.68829269   -8.6270975    548.32331  0.012926056  0.012310576            2 
 3536000   0.69154445   -8.6188446    547.90698  0.012912589  0.012305975            3 
 3537000   0.69746409   -8.6135965    547.67768  0.012903536  0.012301383            2 
 3538000    0.7037777   -8.6219553    548.02468  0.012908062  0.012296778            5 
 3539000   0.68909737   -8.6252703    548.23729  0.012909421  0.012292174            2 
 3540000   0.70442368   -8.6164674    549.08747  0.012925788  0.012287582            2 
 3541000   0.67767366   -8.6425703    547.62078  0.012887621  0.012282997            3 
 3542000   0.68690568   -8.6446703    548.35799  0.012901327    0.0122784            6 
 3543000   0.68151821   -8.6123433    548.92794  0.012911091  0.012273809            2 
 3544000   0.67911586   -8.6399393    548.85043  0.012905625   0.01226921            2 
 3545000   0.68825802   -8.6118641    548.30589  0.012889184  0.012264623            2 
 3546000   0.68888416   -8.6209751    547.22252  0.012860089  0.012260032            4 
 3547000   0.68602944   -8.6345751    548.81605  0.012893902  0.012255441            5 
 3548000   0.69120719   -8.6136196    548.02704  0.012871736   0.01225086            2 
 3549000   0.68123504   -8.6281308    547.97636  0.012866919  0.012246273            2 
 3550000     0.688708    -8.628401    549.37944  0.012896231  0.012241685            2 
 3551000   0.68562153   -8.6548938    547.38834  0.012845873  0.012237093            2 
 3552000   0.66116773   -8.6393433    548.60653  0.012870836  0.012232506            4 
 3553000   0.68086319   -8.6344682    548.00238  0.012853044  0.012227917            3 
 3554000   0.67205426   -8.6398002    548.30221  0.012856458  0.012223339            3 
 3555000    0.6867142   -8.6357236    549.47748  0.012880391  0.012218762            1 
 3556000   0.68169068   -8.6152805    548.27434  0.012848574  0.012214198            4 
 3557000   0.70253183   -8.6187499    549.32547  0.012869587  0.012209632            5 
 3558000   0.68216964    -8.638925    547.93023  0.012833292  0.012205073            5 
 3559000    0.6663552    -8.631793    548.36347   0.01283983  0.012200508            6 
 3560000   0.69437024   -8.6324065    548.39129  0.012836875   0.01219594            4 
 3561000    0.6852024   -8.6313978    548.30633  0.012831282   0.01219138            5 
 3562000   0.67810064   -8.6041526    548.60584  0.012834687  0.012186824            2 
 3563000   0.68549017    -8.629541    547.96151  0.012816014  0.012182267            2 
 3564000   0.70252177   -8.6444407    547.73089  0.012807026  0.012177707            6 
 3565000   0.67638014   -8.6188118    548.89986  0.012830759  0.012173138            3 
 3566000   0.69214851   -8.6284751    549.54227  0.012842173  0.012168591            3 
 3567000   0.67246258   -8.6305789    548.91644  0.012823952  0.012164037            1 
 3568000   0.68440865   -8.6188499    548.17541   0.01280305  0.012159483            1 
 3569000   0.68533508   -8.6393919    548.77737  0.012813518  0.012154933            2 
 3570000     0.681301   -8.6346821    548.25843  0.012797816  0.012150393            3 
 3571000   0.69679966   -8.6207785    548.34604  0.012796276  0.012145858            2 
 3572000    0.6814938   -8.6257643    548.43333  0.012794731  0.012141323            5 
 3573000   0.66772774   -8.6131382    549.64214  0.012819343   0.01213679            2 
 3574000   0.67631639    -8.625874     550.8758  0.012844521  0.012132263            6 
 3575000   0.68685296   -8.6158655    548.61697  0.012788274  0.012127732            3 
 3576000   0.66812625   -8.6394017    547.97491  0.012769736  0.012123203            3 
 3577000   0.67944688   -8.6339267    548.12204  0.012769594  0.012118662            2 
 3578000   0.68007371   -8.6401559    547.83938  0.012759441  0.012114135            2 
 3579000     0.682962   -8.6348688    547.13344  0.012739439    0.0121096            5 
 3580000    0.6810694   -8.6185804    547.22359  0.012737979  0.012105053            3 
 3581000   0.68332975   -8.6285218     547.2145  0.012734211  0.012100526            2 
 3582000   0.68295842    -8.628095    548.08119  0.012750819   0.01209599            4 
 3583000   0.67444487   -8.6188498    548.24877  0.012751158  0.012091458            3 
 3584000   0.69729338   -8.6730617    547.27768  0.012725021  0.012086927            2 
 3585000    0.6934487   -8.6535801    547.80235  0.012733667  0.012082399            4 
 3586000   0.68069919   -8.6365095    547.61899  0.012725855  0.012077859            3 
 3587000   0.69317176   -8.6313633    546.93124  0.012706329  0.012073324            2 
 3588000   0.69156986    -8.652894    547.17446  0.012708437  0.012068795            4 
 3589000   0.64029553   -8.6677768    547.04008  0.012701776  0.012064262            5 
 3590000   0.68920474   -8.6419757    548.14613  0.012723912  0.012059728            2 
 3591000   0.69146575   -8.6649784    546.92244  0.012691972    0.0120552            3 
 3592000   0.66888891   -8.6510155    547.57295   0.01270353  0.012050671            7 
 3593000   0.66898215   -8.6496021     548.5956  0.012723713  0.012046149            2 
 3594000   0.67601852    -8.656665    547.50371  0.012694855  0.012041627            6 
 3595000   0.68217589   -8.6617562    546.99936  0.012679633  0.012037106            5 
 3596000   0.67250183   -8.6449338    547.58109  0.012689588  0.012032581           10 
 3597000   0.67253189   -8.6449509    547.90033  0.012693456  0.012028056            5 
 3598000   0.67153542   -8.6717491    546.16778    0.0126498  0.012023536            4 
 3599000    0.6841109   -8.6652288    546.83459  0.012661725  0.012019022            4 
 3600000   0.67884515   -8.6669938    547.96946  0.012684478   0.01201451            4 
 3601000   0.68166947   -8.6661134    547.27569  0.012664901   0.01200999            4 
 3602000   0.67158575   -8.6644962    547.16184  0.012658751  0.012005477            4 
 3603000   0.66893483   -8.6377749    548.28206  0.012681147  0.012000959            9 
 3604000   0.65629024   -8.6351969    548.75979  0.012688674  0.011996458            4 
 3605000   0.67453622   -8.6441694    548.44446  0.012677865  0.011991961            4 
 3606000   0.66548719   -8.6601022    547.98313  0.012663688  0.011987471            2 
 3607000   0.67877184   -8.6192531    547.94969  0.012659405  0.011982983            5 
 3608000   0.67269434   -8.6526117    547.79761  0.012652384  0.011978499            2 
 3609000   0.67424514   -8.6265641     548.6975  0.012669657  0.011974015            3 
 3610000   0.66614175   -8.6387586     547.4468  0.012637276  0.011969532            2 
 3611000   0.67088336   -8.6375522    548.48217   0.01265767  0.011965055            3 
 3612000   0.66875131   -8.6383657    548.06582   0.01264456  0.011960584            3 
 3613000   0.67096039   -8.6536528    548.18635   0.01264384  0.011956116            2 
 3614000   0.66948286   -8.6445323    548.27987  0.012642498  0.011951635           10 
 3615000   0.69370732   -8.6737417     547.9866  0.012632241  0.011947157            3 
 3616000    0.6671638   -8.6617301    547.21042   0.01261086  0.011942695            4 
 3617000   0.69501139   -8.6510119    547.14335  0.012605828  0.011938227            7 
 3618000   0.68517271   -8.6772147    547.31418  0.012606278  0.011933752            2 
 3619000    0.6841742   -8.6496886    547.18949  0.012599924  0.011929272            6 
 3620000   0.67389142   -8.6646863    547.58239  0.012605488  0.011924791            4 
 3621000   0.66965366   -8.6745049    546.87941  0.012585828  0.011920315            8 
 3622000   0.67381385   -8.6683253     548.5556  0.012620918  0.011915842            7 
 3623000   0.68042742   -8.6683923    547.26686  0.012587792  0.011911364            4 
 3624000   0.67412589   -8.6578747    547.54433  0.012590699  0.011906893            6 
 3625000   0.67477859   -8.6465828    548.22948  0.012602977  0.011902426            4 
 3626000   0.66212919   -8.6422429    548.22062  0.012599297  0.011897964            6 
 3627000    0.6772295   -8.6662993    547.62879  0.012582226  0.011893505            8 
 3628000   0.65763262   -8.6734002    547.31228  0.012571488  0.011889049           10 
 3629000   0.67363809   -8.6709969    546.70965  0.012554185  0.011884589            3 
 3630000    0.6712615   -8.6646329    547.53413  0.012569654  0.011880133            9 
 3631000   0.68006459   -8.6847125    547.58967  0.012567467  0.011875675            9 
 3632000   0.64565974   -8.6659087    547.93277  0.012571879   0.01187122            5 
 3633000   0.67319988   -8.6691016    547.20767  0.012551786  0.011866773            5 
 3634000   0.67324401   -8.6434093    547.21929  0.012548599  0.011862324            9 
 3635000   0.67089325   -8.6364155    548.21352  0.012567939  0.011857887            9 
 3636000   0.67246689   -8.6645981    548.14576   0.01256293  0.011853446           10 
 3637000   0.67294561   -8.6866966    546.85373  0.012529872  0.011849003            2 
 3638000   0.66846089   -8.6436484    548.04379  0.012553688  0.011844566            6 
 3639000   0.66692649   -8.6836852    548.10635  0.012551671  0.011840125            8 
 3640000   0.66943651   -8.6667038    547.43738  0.012532907  0.011835682            4 
 3641000   0.66611207   -8.6628871    547.41864  0.012529036  0.011831243            7 
 3642000   0.66813833   -8.6643291    547.56958  0.012529049  0.011826796            6 
 3643000   0.66901808   -8.6757874    547.25213  0.012518349  0.011822357           11 
 3644000   0.67551283   -8.6728342    546.61739  0.012500398  0.011817922           12 
 3645000   0.66758365   -8.6560008    547.28185  0.012512159  0.011813489            8 
 3646000   0.67758285    -8.661516    548.04699  0.012526216  0.011809054            7 
 3647000   0.67371021     -8.65714    547.44262  0.012508971  0.011804624            6 
 3648000    0.6785548   -8.6883295    546.62125  0.012486779  0.011800189            8 
 3649000   0.68194046   -8.6667166    546.86825  0.012488998  0.011795757            7 
 3650000   0.67016872   -8.6718254    547.77342  0.012506242   0.01179133            5 
 3651000   0.66434353   -8.6681125    548.02859  0.012508641  0.011786904           10 
 3652000   0.66844892   -8.6818458    546.57125  0.012471962  0.011782482            7 
 3653000   0.67872175    -8.659154    546.44344  0.012465632  0.011778058            6 
 3654000   0.66368286   -8.6746974    546.78502  0.012470011  0.011773635            5 
 3655000   0.67390108   -8.6502198    547.46813  0.012482174  0.011769218            4 
 3656000   0.66781374   -8.6907777    546.62235  0.012459481  0.011764792            7 
 3657000   0.66677893   -8.6852888    547.13937  0.012467855  0.011760369            9 
 3658000    0.6786689   -8.6842256    547.72821  0.012477862  0.011755948            5 
 3659000   0.67232299   -8.6656238    547.98833  0.012480375  0.011751535            6 
 3660000   0.66353939   -8.6754299     547.4715  0.012465198   0.01174712            8 
 3661000   0.69186519   -8.6806023    546.25837   0.01243418  0.011742704            7 
 3662000   0.65085994   -8.6928608    547.91385  0.012468456  0.011738303            5 
 3663000   0.66323057   -8.6927007    546.76964  0.012439022   0.01173389            6 
 3664000   0.67913449   -8.6945358    546.18699  0.012422375  0.011729479            7 
 3665000   0.65684592   -8.6820038    546.57692  0.012427852  0.011725062            5 
 3666000   0.66214489   -8.6823483    547.67083  0.012449328  0.011720661            7 
 3667000    0.6590144   -8.7094937    547.11709  0.012433349  0.011716251            7 
 3668000    0.6872705   -8.6858761    547.36491   0.01243559  0.011711846            6 
 3669000   0.67338212   -8.6913105    546.45885  0.012411621  0.011707442            6 
 3670000   0.67787587   -8.6910414    546.20345   0.01240244  0.011703033            7 
 3671000   0.66956845   -8.6896747    547.28992  0.012423725  0.011698628            3 
 3672000    0.6723577   -8.7143369    546.72596  0.012407543  0.011694228            5 
 3673000   0.67122039   -8.7308516    546.36575  0.012395992  0.011689827            5 
 3674000   0.67923199   -8.6787325    547.19738  0.012411481  0.011685426            7 
 3675000   0.67688811   -8.6987658    546.49525  0.012392183  0.011681034            4 
 3676000   0.66900882   -8.6971011    546.92346  0.012398519  0.011676638           11 
 3677000   0.65872745   -8.6909101    546.79744  0.012392291   0.01167224            9 
 3678000    0.6686221   -8.6793204    546.67886  0.012386235  0.011667843            5 
 3679000   0.66881291   -8.7018812     546.5199  0.012379267  0.011663442            8 
 3680000   0.67160702    -8.700924    546.74967  0.012381107  0.011659047            7 
 3681000   0.68323989   -8.6892749    546.24925  0.012366414  0.011654655            8 
 3682000   0.67036273   -8.7099273    546.20812  0.012362125  0.011650258            9 
 3683000   0.65778851    -8.705526    546.40683  0.012363264  0.011645853            8 
 3684000   0.66044592   -8.7050149    545.92005  0.012348897  0.011641457            7 
 3685000   0.67198528   -8.7059223    546.43848   0.01235727  0.011637067            6 
 3686000   0.66662408   -8.7179433    546.04764  0.012345081  0.011632679            6 
 3687000   0.65626767   -8.7092003    546.27846   0.01234695  0.011628296            7 
 3688000   0.66534634   -8.7161215    546.19991  0.012341827  0.011623916            6 
 3689000   0.65666103   -8.6828779    546.78415   0.01235168  0.011619528            7 
 3690000   0.66209622   -8.7156023    546.31282  0.012337688  0.011615146            9 
 3691000    0.6698266    -8.718895     545.6007  0.012318268  0.011610761            7 
 3692000   0.65902382   -8.6959961    546.68876   0.01233949  0.011606389            8 
 3693000   0.65681324   -8.7046507    545.65723  0.012312872  0.011602016            7 
 3694000   0.65378846   -8.7225081    546.21619  0.012322148   0.01159764            9 
 3695000   0.65189248   -8.7079993    546.24529   0.01231947  0.011593266            7 
 3696000   0.65901538   -8.7145743    546.15072  0.012314004  0.011588887            6 
 3697000    0.6734248   -8.7115434    545.93469  0.012305804  0.011584514            3 
 3698000   0.65048964   -8.7012345    545.73226  0.012297915  0.011580142            8 
 3699000   0.65995465   -8.6979507    547.81808  0.012341581  0.011575766            3 
 3700000   0.65342265   -8.7079348    546.68458  0.012312716  0.011571399           10 
 3701000   0.66313389   -8.6959257    546.45385  0.012304194  0.011567034            5 
 3702000   0.67362128   -8.7320997    546.54015  0.012302813  0.011562664            6 
 3703000   0.66439659   -8.7129367    546.90918  0.012307795  0.011558299            8 
 3704000   0.66375571   -8.7251149    545.79766  0.012279465  0.011553934            9 
 3705000   0.66434906   -8.7060455    545.98594  0.012280386  0.011549568            7 
 3706000   0.66160969   -8.7017886    545.32365   0.01226218  0.011545209            5 
 3707000   0.64889254    -8.704915    546.26161  0.012279957  0.011540857            7 
 3708000   0.65146072   -8.7332182    545.23338  0.012253537  0.011536498            7 
 3709000   0.65289382   -8.7293206    546.40097  0.012276467  0.011532134            7 
 3710000   0.66275407   -8.7283653    546.00339  0.012264227   0.01152778            7 
 3711000   0.64875896   -8.6981833    546.92309  0.012281575  0.011523429            7 
 3712000   0.67266014   -8.7209387    546.97253  0.012279376   0.01151908            6 
 3713000   0.65912707   -8.7250894    546.69066  0.012269743  0.011514739            7 
 3714000   0.66083822   -8.7167885    545.68729  0.012243926  0.011510394            5 
 3715000    0.6591866   -8.7150779    545.82148   0.01224364  0.011506041            9 
 3716000   0.65227765    -8.706971    545.32199  0.012229144  0.011501693            7 
 3717000   0.64311493   -8.7322782     545.4482  0.012228683  0.011497344            7 
 3718000   0.65701309   -8.7062139    546.15122  0.012241152  0.011493001            7 
 3719000    0.6716244   -8.7233668    546.18625  0.012238645  0.011488665           11 
 3720000    0.6591658   -8.7174874    546.40449  0.012240244  0.011484333            7 
 3721000   0.65034578   -8.7283934      546.207  0.012232532  0.011479998            8 
 3722000    0.6621097   -8.7087023    546.26945  0.012230643  0.011475672            6 
 3723000   0.65111232   -8.7143769    546.15013  0.012224687  0.011471346            7 
 3724000   0.65636774   -8.7139609    546.47322  0.012228635  0.011467023            5 
 3725000   0.64722324   -8.7093354     545.8549  0.012211519  0.011462698            7 
 3726000   0.64500058   -8.7140139    546.11606  0.012214083  0.011458375            6 
 3727000   0.66852195   -8.7329322    545.89496  0.012205862  0.011454059            7 
 3728000   0.66856801   -8.7305259     546.1212  0.012207645  0.011449742           10 
 3729000    0.6630283   -8.7215675    546.45372  0.012211802  0.011445426            5 
 3730000   0.65618926   -8.6955053    546.30446  0.012205193  0.011441118            6 
 3731000   0.65858129   -8.7064968    545.26898  0.012178794  0.011436804            7 
 3732000   0.66610179   -8.7111007    544.78035   0.01216462  0.011432496            5 
 3733000   0.67937784   -8.7333229    546.19557  0.012192954  0.011428184            6 
 3734000   0.65813273   -8.7079169    546.03519  0.012186109   0.01142387            6 
 3735000   0.64903535   -8.7190556    545.15074  0.012163113  0.011419559            7 
 3736000   0.62986639   -8.7279393    546.01298   0.01217909  0.011415248           10 
 3737000   0.66064156   -8.7231529    544.76827  0.012148075  0.011410944            8 
 3738000    0.6634512   -8.7381732    546.34462  0.012179967  0.011406642            8 
 3739000   0.64885272   -8.7329483    546.51852  0.012180586  0.011402333            8 
 3740000   0.64604848   -8.7386018    545.29035  0.012149963  0.011398031            9 
 3741000   0.65128975   -8.7259848    545.57648  0.012153089  0.011393739            3 
 3742000   0.64795946   -8.7130864    545.26086  0.012142813  0.011389438            6 
 3743000   0.65231061   -8.7121756    545.38803    0.0121424  0.011385139            7 
 3744000   0.64788151   -8.7285676    546.11987  0.012155446   0.01138084            5 
 3745000   0.65146439   -8.7132293    545.85687  0.012146348  0.011376549           16 
 3746000   0.66182995   -8.7239611    545.58535  0.012137065  0.011372262            9 
 3747000   0.64873232    -8.714401    545.77961  0.012138146  0.011367971            4 
 3748000   0.66228284   -8.7125215    545.95422   0.01213879  0.011363684            8 
 3749000   0.65294722   -8.7302943    545.12837  0.012117195  0.011359397            5 
 3750000   0.64700751   -8.7276311    544.46033  0.012099118   0.01135511            8 
 3751000   0.63860113   -8.7294374     545.4525  0.012117935  0.011350827            5 
 3752000   0.65798146   -8.7409339    545.46788  0.012115047  0.011346549            5 
 3753000   0.65367096   -8.7326335     546.4181  0.012132918  0.011342276            8 
 3754000   0.64447137   -8.7095038    545.91992  0.012118627  0.011337999            8 
 3755000   0.65288762   -8.7241783    545.37924  0.012103401  0.011333726            5 
 3756000   0.64986918   -8.7221243    545.27692  0.012097908  0.011329452            6 
 3757000   0.65637701    -8.720613    545.94142  0.012109427  0.011325191            6 
 3758000   0.66015526   -8.7473584    545.25138  0.012090903  0.011320925            6 
 3759000   0.64531453   -8.7363832     545.8509  0.012100978  0.011316655            5 
 3760000   0.65831856   -8.7253723    546.14919   0.01210437  0.011312393            4 
 3761000   0.64365882   -8.7323584    545.30527  0.012082453  0.011308133            7 
 3762000   0.65729456   -8.7435877    545.34282  0.012080073  0.011303871            6 
 3763000   0.65750673   -8.7130386    546.77902  0.012108668  0.011299614            3 
 3764000   0.64767012    -8.730281    545.64112  0.012080259   0.01129535            6 
 3765000   0.65070609   -8.7309793    545.61727  0.012076522  0.011291091            5 
 3766000    0.6437993   -8.7254985    545.92852  0.012080203  0.011286829            5 
 3767000   0.66682051   -8.7402901      545.499  0.012067494  0.011282571            6 
 3768000   0.64232504   -8.7059922     545.4277  0.012062715   0.01127832            6 
 3769000   0.65398272   -8.7385242    545.65799  0.012064606  0.011274066            8 
 3770000   0.65518958   -8.7393025    546.17238  0.012072776  0.011269817            5 
 3771000   0.63940949   -8.7252065      546.559  0.012078118  0.011265576            8 
 3772000   0.65172261   -8.7480055    545.84687  0.012059183   0.01126133            6 
 3773000   0.66246073    -8.728142    546.37171  0.012067579  0.011257091            5 
 3774000   0.65251716   -8.7412707    545.34281  0.012041662  0.011252849            8 
 3775000    0.6606941   -8.7288577    545.03476  0.012031672  0.011248608            7 
 3776000   0.65389504   -8.7270464    545.41926  0.012036972  0.011244364            4 
 3777000   0.65157464   -8.7365815    546.17306  0.012050416  0.011240128            7 
 3778000   0.64379768   -8.7374874    545.28136  0.012027558  0.011235897            8 
 3779000   0.64951958   -8.7313023     545.9088  0.012038211  0.011231662            4 
 3780000   0.65081876   -8.7434396    544.92932  0.012013433  0.011227431            6 
 3781000   0.62608217   -8.7384552     544.9745  0.012011251  0.011223201           10 
 3782000   0.65250692   -8.7225453    545.51929   0.01202008  0.011218974            9 
 3783000   0.64491462   -8.7470976    545.76721  0.012022363  0.011214749            6 
 3784000   0.64701889   -8.7455804    544.86854  0.011999395  0.011210525           10 
 3785000   0.65213186   -8.7440973    545.13736  0.012002144  0.011206295            9 
 3786000   0.64626614   -8.7429063    545.13151  0.011998845  0.011202071            5 
 3787000   0.64312518   -8.7586012    544.88516  0.011990255  0.011197844            8 
 3788000    0.6421158   -8.7385599    545.62409  0.012003346  0.011193621            8 
 3789000   0.64884553   -8.7465473    545.31961  0.011993481  0.011189402            7 
 3790000   0.64710531   -8.7447026    546.46829  0.012015574  0.011185181            5 
 3791000   0.64057766   -8.7367194    544.94242  0.011978863  0.011180961           10 
 3792000   0.63534057   -8.7438319    545.00779   0.01197714  0.011176744            3 
 3793000   0.64909473    -8.739961    546.22257  0.012000672  0.011172528            3 
 3794000   0.63649711   -8.7350162    545.36007  0.011978564  0.011168323            6 
 3795000   0.65189519   -8.7173636    545.66425  0.011982087  0.011164118            7 
 3796000   0.64401015   -8.7344459    546.07731  0.011987999  0.011159916            5 
 3797000   0.64796727   -8.7552024    545.75748  0.011977822  0.011155715            5 
 3798000   0.64536819   -8.7544922    545.39309  0.011966673   0.01115151            3 
 3799000    0.6567202   -8.7556091    545.84639  0.011973467  0.011147307            4 
 3800000   0.64622237   -8.7349736    544.84707  0.011948401  0.011143107            3 
 3801000   0.64865665   -8.7415309    546.02107  0.011970996   0.01113891            5 
 3802000   0.63271709   -8.7443506    544.59084  0.011936499  0.011134708            3 
 3803000   0.65159734   -8.7794134     544.1266  0.011923188  0.011130507            6 
 3804000    0.6348605   -8.7652901    544.38625  0.011925742  0.011126307            4 
 3805000   0.65171495   -8.7447296    544.82632  0.011932245  0.011122109            3 
 3806000   0.65556135   -8.7357585    545.94059  0.011953507  0.011117917            3 
 3807000   0.64919288   -8.7666344    544.51954  0.011919262  0.011113725            4 
 3808000   0.63709795    -8.742273    545.42645  0.011935978  0.011109536            3 
 3809000   0.64167786   -8.7629304    545.83833  0.011941855  0.011105355            4 
 3810000   0.63466247   -8.7579623    544.61694  0.011912007  0.011101174            3 
 3811000    0.6542605   -8.7618648     544.4018  0.011904176  0.011096986            4 
 3812000   0.63668534   -8.7569277    544.71043  0.011907801  0.011092804            6 
 3813000   0.63915535   -8.7545029    545.10286  0.011913254  0.011088626            4 
 3814000    0.6488807   -8.7292262    546.44591  0.011939475  0.011084457            5 
 3815000   0.64185561   -8.7519735    546.39464  0.011935226  0.011080282            6 
 3816000   0.65299977   -8.7501669     545.4349   0.01191114  0.011076107            7 
 3817000   0.64259561   -8.7538495    544.70814  0.011892152  0.011071932            5 
 3818000   0.64235997   -8.7715905    545.25672  0.011901011  0.011067763            5 
 3819000   0.62578137   -8.7467553    546.16172  0.011917643    0.0110636            5 
 3820000   0.64070834   -8.7448296    545.19923  0.011893526  0.011059438            7 
 3821000   0.63238006   -8.7658344    544.21867  0.011869028  0.011055269            7 
 3822000   0.64570674   -8.7452747    545.14928  0.011886213  0.011051104            7 
 3823000   0.63292487   -8.7593566    545.30699  0.011886542  0.011046933            5 
 3824000   0.63339144   -8.7367645     545.8354  0.011894949  0.011042771            8 
 3825000   0.62875586   -8.7485696    544.87083  0.011870824  0.011038607           13 
 3826000   0.65291316   -8.7642534    545.81206  0.011888222   0.01103445            3 
 3827000   0.64310564   -8.7545829    545.08596  0.011869305  0.011030293            5 
 3828000   0.63728244   -8.7708125    544.89922  0.011862139  0.011026134            9 
 3829000   0.64454642    -8.758309    544.64004    0.0118534  0.011021985            3 
 3830000   0.64246541   -8.7583078    545.10025  0.011860319  0.011017832            2 
 3831000   0.65516005   -8.7573135    545.44032   0.01186462  0.011013684            3 
 3832000   0.64120619   -8.7407852    545.26816   0.01185778  0.011009539            4 
 3833000   0.65459565    -8.739089    543.68933  0.011820361  0.011005391            5 
 3834000   0.64103771   -8.7414117    544.89339  0.011843449  0.011001252            4 
 3835000   0.61614787   -8.7529423    545.69932  0.011857873   0.01099711            7 
 3836000   0.63289313   -8.7578332    545.92875  0.011859766  0.010992974            6 
 3837000   0.63548896   -8.7498115    544.45691  0.011824709  0.010988837            5 
 3838000   0.64238303   -8.7734934    545.71914  0.011849035  0.010984702            5 
 3839000   0.63400987   -8.7555542    546.05482  0.011853235  0.010980571            5 
 3840000   0.63984026   -8.7413775     545.6229  0.011840775  0.010976439            7 
 3841000   0.64529757   -8.7706737    545.22458   0.01182905   0.01097231            2 
 3842000   0.63766976   -8.7811045    544.52633  0.011810826  0.010968182            9 
 3843000    0.6276072   -8.7530836    545.45098  0.011827803  0.010964054            4 
 3844000   0.63455152   -8.7623198    543.31996  0.011778528  0.010959931            4 
 3845000   0.63028632   -8.7636246    545.27097   0.01181775  0.010955811            9 
 3846000   0.64240501    -8.772917    544.50414  0.011798062  0.010951686            9 
 3847000   0.63847679   -8.7642324    545.25001  0.011811152  0.010947573            3 
 3848000      0.63373   -8.7810968    544.49891  0.011791816  0.010943448            6 
 3849000   0.64040624   -8.7805041    545.77815  0.011816449  0.010939333            7 
 3850000   0.62958441   -8.7732716    545.00003  0.011796537  0.010935211           11 
 3851000   0.63728623   -8.7590848     546.1435  0.011818218    0.0109311           16 
 3852000   0.63276323   -8.7609259    545.21733  0.011795114   0.01092699            5 
 3853000   0.63565603   -8.7461221    545.76447  0.011803886  0.010922887            5 
 3854000   0.64128066   -8.7765254    544.58027  0.011775218  0.010918784            4 
 3855000   0.63343503    -8.773501    544.87565  0.011778548  0.010914678           10 
 3856000   0.63347728   -8.7471259    544.73536  0.011772462  0.010910571            6 
 3857000   0.63672171    -8.759607     543.2904   0.01173819  0.010906468            2 
 3858000   0.62455526     -8.78703    544.53656  0.011762065  0.010902369            5 
 3859000   0.64052178    -8.741712    545.73853  0.011784973  0.010898272            3 
 3860000   0.63472569   -8.7864446    544.09152  0.011746363   0.01089417            4 
 3861000   0.62841479   -8.7647681    544.93861  0.011761604  0.010890072            3 
 3862000   0.64014251   -8.7648234    544.94836  0.011758768  0.010885977            2 
 3863000   0.64004249   -8.7689897    545.36365  0.011764683  0.010881889            2 
 3864000   0.62458413   -8.7589957    544.43057  0.011741515    0.0108778            5 
 3865000   0.61938359   -8.7724008    545.42587  0.011759937  0.010873712            6 
 3866000   0.63470212   -8.7770814    543.72833  0.011720304  0.010869619            4 
 3867000   0.63774232   -8.7652525    544.81621  0.011740716  0.010865525            6 
 3868000   0.63626128   -8.7757282    543.24723  0.011703879  0.010861435            5 
 3869000   0.64364523   -8.7754008    545.01127  0.011738849  0.010857348            2 
 3870000   0.64333501   -8.7700918    545.02862  0.011736189  0.010853264            3 
 3871000   0.62468412   -8.7502007    545.31003  0.011739215  0.010849188            2 
 3872000   0.63030268   -8.7748197    544.60712  0.011721056  0.010845113            4 
 3873000   0.62809956   -8.7655824    543.79386  0.011700531  0.010841035            3 
 3874000   0.62846547   -8.7873457    544.08853  0.011703849  0.010836956            4 
 3875000   0.64596252   -8.7898908    544.31824  0.011705769  0.010832884            5 
 3876000   0.63510653   -8.7611649    544.63864  0.011709637  0.010828812            4 
 3877000     0.633197   -8.7690165     544.3685   0.01170081  0.010824741            4 
 3878000   0.63525627   -8.7535052     544.9412    0.0117101  0.010820676            6 
 3879000   0.62132937   -8.7651002    545.31802  0.011715176  0.010816615            4 
 3880000   0.64771525   -8.7756804    544.08648  0.011685706  0.010812548            4 
 3881000   0.65008155   -8.7672684    543.86125  0.011677859  0.010808488            5 
 3882000   0.62427984   -8.7792085    544.62122  0.011691165  0.010804432            4 
 3883000   0.63943592   -8.7803768    544.66717   0.01168914  0.010800372            3 
 3884000   0.62794104   -8.7662036    545.64733   0.01170716  0.010796314            3 
 3885000   0.64134372   -8.7677116    544.47404   0.01167898  0.010792254           10 
 3886000   0.63224277   -8.7700678    544.47312  0.011675955  0.010788197            5 
 3887000   0.62844004   -8.7636698     545.5124  0.011695232   0.01078415            7 
 3888000   0.63710294   -8.7801143    545.15672  0.011684601    0.0107801            4 
 3889000   0.63375758   -8.7709323    544.96699  0.011677531  0.010776052            3 
 3890000   0.63190669   -8.7769946    544.72368  0.011669316  0.010772002            3 
 3891000   0.62928015   -8.7728577    544.79715  0.011667891  0.010767955            4 
 3892000   0.63772643   -8.7794337    545.42773  0.011678394  0.010763915            9 
 3893000   0.63382958   -8.7965603    543.76927  0.011639894  0.010759876            6 
 3894000     0.638345   -8.7617503    543.86342  0.011638919  0.010755835            6 
 3895000   0.62447352   -8.7769611    544.15724  0.011642217  0.010751796            5 
 3896000   0.61174795   -8.7694482    545.36511  0.011665065  0.010747757            6 
 3897000   0.62643035   -8.7781868    544.60342  0.011645783  0.010743724            2 
 3898000   0.62983956   -8.7855118    544.60743  0.011642882  0.010739692            5 
 3899000   0.62082809   -8.7768361    544.12021  0.011629482  0.010735658            4 
 3900000   0.62805818   -8.7986283    544.72661  0.011639457  0.010731624            9 
 3901000   0.62527505    -8.770338    545.14631  0.011645439  0.010727596            3 
 3902000   0.62573141   -8.7824144    544.51566  0.011628986  0.010723571            6 
 3903000     0.640859   -8.7954495    543.94094  0.011613736  0.010719541            6 
 3904000    0.6239299   -8.7750665    544.55875  0.011623949   0.01071552            9 
 3905000   0.62126494    -8.799251    544.55508  0.011620894  0.010711498            2 
 3906000   0.63097552   -8.7863822    543.88249  0.011603569  0.010707472            3 
 3907000   0.62796269   -8.7718458    544.39263   0.01161148  0.010703446            4 
 3908000   0.61084594    -8.779699    544.48747  0.011610531  0.010699424            7 
 3909000   0.62644805    -8.785071    544.48713  0.011607554  0.010695405            5 
 3910000   0.62150942   -8.7688746    544.34537  0.011601564  0.010691389            8 
 3911000   0.62209066   -8.7820847    545.24164  0.011617695  0.010687374            4 
 3912000   0.64112669   -8.8037836    543.44711  0.011576498  0.010683357            3 
 3913000   0.63301147   -8.7788541    543.83241  0.011581745  0.010679344            6 
 3914000   0.61958618   -8.7684156    544.52946  0.011593627  0.010675333            8 
 3915000   0.62176236   -8.7787926    544.49655  0.011589965  0.010671323            5 
 3916000   0.61494914   -8.7703402    544.34952  0.011583876  0.010667314            5 
 3917000   0.62001949   -8.7725136    544.39091    0.0115818  0.010663305            2 
 3918000   0.61753658   -8.7572358     544.4652  0.011580424  0.010659307            3 
 3919000   0.61039946   -8.7699029    544.82711  0.011585164   0.01065531            2 
 3920000   0.61903891   -8.7829742    544.42168   0.01157359  0.010651313            5 
 3921000   0.62739435   -8.7671263    544.08189  0.011563417  0.010647316            2 
 3922000   0.62743853   -8.7683945    544.81501  0.011576046  0.010643318            2 
 3923000   0.64901223   -8.8037904    544.36969  0.011563635  0.010639322            2 
 3924000    0.6207323    -8.785453    545.07955  0.011575763  0.010635326            4 
 3925000    0.6148251   -8.7884248    543.82631  0.011546206  0.010631332            4 
 3926000   0.61740499   -8.7832912     543.9142  0.011545131  0.010627342            3 
 3927000   0.62597945   -8.8084607    542.72881  0.011517036  0.010623356            2 
 3928000   0.61922678   -8.7651192    544.12098  0.011543639  0.010619375            4 
 3929000    0.6232827   -8.7756134    543.98838  0.011537889  0.010615398            4 
 3930000   0.62716528    -8.798824    542.90331  0.011511945  0.010611416            5 
 3931000   0.62441061   -8.7631253    545.17548  0.011557184  0.010607437            8 
 3932000   0.62668028   -8.7826759    544.88189  0.011548022  0.010603454            3 
 3933000   0.62984443   -8.7971708    543.75014  0.011521107   0.01059948           10 
 3934000   0.63158815   -8.7841998    545.05014  0.011545715  0.010595503            6 
 3935000   0.62552474   -8.7859503    544.37667  0.011528519  0.010591527            4 
 3936000    0.6281392   -8.7834428    543.85923  0.011514635  0.010587548            4 
 3937000   0.63563831   -8.8041215    543.57646  0.011505725  0.010583578            2 
 3938000   0.62798534   -8.7825684    544.65686  0.011525666   0.01057961            3 
 3939000   0.62166381   -8.7852836    544.93598  0.011528645  0.010575645            3 
 3940000   0.62716717   -8.7997727    543.81908  0.011502096  0.010571678            3 
 3941000   0.62301095   -8.7770123    545.15766  0.011527482  0.010567715            7 
 3942000   0.63159965   -8.7763783    544.71377  0.011515174  0.010563757            4 
 3943000   0.63112989   -8.7719659    544.22186  0.011501857  0.010559794            2 
 3944000   0.61663975   -8.7828234    544.46903  0.011504163   0.01055584            2 
 3945000   0.61844688   -8.7840025    544.38023  0.011499371  0.010551884            2 
 3946000   0.62687425    -8.779615    544.74737   0.01150421  0.010547932            5 
 3947000   0.61977133   -8.7864244    544.46629  0.011495361  0.010543988            2 
 3948000     0.625985   -8.7898492    543.40629  0.011470075  0.010540035            3 
 3949000   0.62347188   -8.7906546    543.03057  0.011459242  0.010536084            2 
 3950000   0.62337709   -8.7887548    543.83103  0.011473228   0.01053214            4 
 3951000   0.63483156   -8.7928255    542.56693  0.011443663  0.010528189            4 
 3952000   0.62410596   -8.8083264    543.06544  0.011451279   0.01052424            3 
 3953000   0.59910882   -8.7857774    545.30487  0.011495591  0.010520297            2 
 3954000   0.62586608   -8.7892222      544.068  0.011466616  0.010516353            2 
 3955000   0.61773353   -8.7922075    543.49504  0.011451644  0.010512409            5 
 3956000   0.62494291   -8.8059448    543.66423  0.011452314  0.010508468            7 
 3957000   0.62560459   -8.7946376    543.98873  0.011456253  0.010504524            5 
 3958000   0.62678733   -8.7934587    543.61163  0.011445419  0.010500593            4 
 3959000   0.61621326   -8.7694031    543.69747  0.011444335  0.010496661            5 
 3960000   0.62175957   -8.8058368    543.66405  0.011440742   0.01049273            5 
 3961000   0.62154562   -8.7892954    543.13111  0.011426641  0.010488801            7 
 3962000   0.62245879   -8.7959698    543.94319  0.011440838  0.010484867            9 
 3963000   0.62861536   -8.7991054    543.85091   0.01143601   0.01048094            3 
 3964000   0.62751703   -8.8100732    544.53044  0.011447411  0.010477014            5 
 3965000   0.61761121   -8.7917195    543.82864  0.011429774  0.010473089            2 
 3966000   0.61255172    -8.789439    544.00843   0.01143067  0.010469167            6 
 3967000   0.63183187   -8.7923887    544.34516  0.011434862  0.010465246            5 
 3968000   0.60459512   -8.7966955      544.499  0.011435211  0.010461329            4 
 3969000   0.60815073    -8.801873    544.17263  0.011425477  0.010457416            4 
 3970000   0.62185149   -8.8131991      544.485  0.011429156  0.010453498            4 
 3971000   0.61346669   -8.7979312    544.11867   0.01141859  0.010449583            4 
 3972000   0.60214215    -8.789661    543.88287  0.011410768  0.010445675            8 
 3973000   0.61973411   -8.8069771    544.45676  0.011419934  0.010441765            2 
 3974000   0.60974293   -8.8023669    543.22805  0.011391294  0.010437864            9 
 3975000   0.60217427   -8.7928385    543.60959  0.011396427  0.010433958            2 
 3976000       0.6092   -8.7949249    543.54989   0.01139231   0.01043005            6 
 3977000   0.63905944   -8.7859064    543.13009  0.011380649  0.010426144            3 
 3978000   0.59515808   -8.7893685    544.52911  0.011407095  0.010422248            5 
 3979000   0.60337347   -8.8054622     543.8844  0.011390726  0.010418348            3 
 3980000   0.62844498   -8.8164224    543.55723  0.011381014  0.010414448            3 
 3981000   0.61499352   -8.8126819    543.25801  0.011371892  0.010410548            5 
 3982000   0.62564026   -8.8182967    543.23962  0.011368651  0.010406653            2 
 3983000   0.61686121   -8.7866004    544.90294  0.011400597  0.010402762            2 
 3984000     0.623111   -8.8079654    543.75075  0.011373635   0.01039887            6 
 3985000   0.60311541   -8.7984322    543.14304  0.011358073  0.010394979            5 
 3986000   0.61608931    -8.793941    544.48006  0.011383176  0.010391089            2 
 3987000   0.60145587   -8.8093013    543.02126   0.01134983  0.010387203            4 
 3988000   0.61373359   -8.7935959    543.84601  0.011364218  0.010383316            2 
 3989000   0.60370819   -8.8035821    543.05376  0.011344818  0.010379432            6 
 3990000    0.6130586    -8.788524    543.59718  0.011353325  0.010375548            5 
 3991000   0.62052598   -8.8033403     544.5742   0.01137088   0.01037167            4 
 3992000   0.60620429   -8.8274753    544.14055  0.011358979  0.010367797            4 
 3993000   0.61343022   -8.8180669    542.71893  0.011326466  0.010363922            3 
 3994000   0.61017861   -8.8072616    543.49354  0.011339792  0.010360047            4 
 3995000   0.61498849   -8.8220047    543.40115  0.011335026  0.010356175            2 
 3996000   0.60519764   -8.8104333    543.95845  0.011343811  0.010352298            5 
 3997000   0.61061401   -8.8144414    543.07113  0.011322474  0.010348427            3 
 3998000   0.59410567   -8.8036926     541.7887  0.011292911  0.010344555            2 
 3999000    0.6267764   -8.8004456    543.50646  0.011325883  0.010340692            9 
 4000000   0.62319919    -8.805072    543.41793  0.011321207  0.010336829            2 
 4001000   0.60170719    -8.813945    543.25141  0.011314909  0.010332966            5 
 4002000    0.6036032   -8.8086179    544.08597   0.01132946  0.010329107            5 
 4003000   0.60518202   -8.7956813    543.71554  0.011318918  0.010325246            5 
 4004000   0.61613275   -8.8073571    543.59109  0.011313501  0.010321383            6 
 4005000   0.60903113   -8.8061981    544.63556  0.011332409  0.010317523            8 
 4006000   0.60754723   -8.8052735    543.07666  0.011297151  0.010313662            4 
 4007000   0.61501525    -8.824412    542.90642  0.011290792  0.010309808            5 
 4008000   0.60076651   -8.8170299    543.99185  0.011310542  0.010305953            4 
 4009000   0.60807713   -8.8223793     543.2169  0.011291613  0.010302101            8 
 4010000   0.61444043   -8.8113306     543.8892  0.011302768  0.010298251            4 
 4011000    0.6014793   -8.8062538    544.56173  0.011313923  0.010294401            5 
 4012000   0.60688577    -8.821778    543.55739  0.011290241  0.010290555            4 
 4013000   0.61720079   -8.8017704    544.79522  0.011313133  0.010286713            3 
 4014000   0.60017957   -8.8288782    543.60745  0.011285655  0.010282871            5 
 4015000   0.61991216    -8.819243    543.36938  0.011277903  0.010279029            7 
 4016000   0.60142825   -8.8133153    543.68738  0.011281694  0.010275186            9 
 4017000   0.61439222   -8.7981209    544.15316  0.011288548  0.010271343            8 
 4018000   0.60928976    -8.819847    543.16324  0.011265207  0.010267507            3 
 4019000   0.61188944   -8.8208055    544.24477   0.01128483  0.010263668            4 
 4020000   0.61538617   -8.8014732    543.77787  0.011272344  0.010259838            3 
 4021000   0.60110951   -8.8167935    542.86308  0.011250582  0.010256008            2 
 4022000   0.60707501   -8.8306271    543.37296  0.011258349  0.010252177            5 
 4023000   0.60352703    -8.811119    544.53311  0.011279582   0.01024835            3 
 4024000   0.59210735   -8.8068919    543.87965  0.011263247  0.010244523            3 
 4025000   0.61116753   -8.8328382     543.4385  0.011251315    0.0102407            4 
 4026000   0.61512916   -8.8349138    543.77646  0.011255515  0.010236872            4 
 4027000   0.60244589   -8.8057607     543.7137  0.011251422  0.010233045            8 
 4028000    0.6035409   -8.8230696    543.26517  0.011239349  0.010229221            2 
 4029000   0.60115974   -8.8365725    542.54408  0.011221645  0.010225394           13 
 4030000   0.60960397   -8.8357605    543.12962  0.011230968  0.010221576            3 
 4031000   0.61245385   -8.8267502    543.21561   0.01122996  0.010217763            6 
 4032000   0.60757543   -8.8171597    542.30239    0.0112083  0.010213948            2 
 4033000   0.60699289   -8.8285301    544.08183  0.011242289  0.010210135            4 
 4034000   0.61639869    -8.835129    542.46202  0.011206041  0.010206324            6 
 4035000   0.59972003   -8.8238801    543.71443  0.011229129  0.010202518            3 
 4036000   0.59482615   -8.8216004    543.58017  0.011223575  0.010198709            4 
 4037000   0.60702351   -8.8164484    542.31441  0.011194666  0.010194909            2 
 4038000    0.6006013   -8.8640056    542.92877  0.011204573  0.010191102            3 
 4039000   0.61199309   -8.8284034    544.18616  0.011227741  0.010187298            3 
 4040000   0.60510241   -8.8001881    544.03326  0.011221808  0.010183498            8 
 4041000   0.59814584    -8.818572    544.40463   0.01122669  0.010179704            4 
 4042000   0.61584763   -8.8195978     542.9105  0.011193108  0.010175909            3 
 4043000   0.60743511   -8.8273762    542.93825  0.011190911  0.010172114            8 
 4044000   0.60202064   -8.8184921     544.0403  0.011210854  0.010168323            2 
 4045000   0.58817869   -8.8273935    544.09076  0.011209122  0.010164533            6 
 4046000   0.61367753   -8.8457833    543.38534  0.011191822  0.010160742            3 
 4047000   0.60337417   -8.8234063     544.5116  0.011212248  0.010156952            7 
 4048000   0.59239571   -8.8207482    543.18112  0.011182088  0.010153162           10 
 4049000   0.60807856   -8.8260852    541.68058  0.011148444   0.01014937            6 
 4050000   0.59685894   -8.8057213    543.26111  0.011178212  0.010145582            2 
 4051000   0.59462341   -8.8421504    542.82091  0.011166397  0.010141797           11 
 4052000   0.59858591   -8.8401219    543.01245  0.011167581  0.010138012            3 
 4053000   0.60201596   -8.8437686    544.41622  0.011193688  0.010134236           15 
 4054000   0.60473241   -8.8462274    542.68373  0.011155314  0.010130461            5 
 4055000   0.60015342   -8.8198756    543.41347   0.01116756  0.010126687            2 
 4056000   0.59546496   -8.8193229    543.42765  0.011165098  0.010122916            5 
 4057000   0.59418843   -8.8181292    543.54933  0.011164845  0.010119143            2 
 4058000   0.60690754   -8.8261255    542.92594  0.011149292  0.010115374            5 
 4059000   0.59515795   -8.8140874     543.0255   0.01114859  0.010111602            3 
 4060000   0.62341305   -8.8559608    543.00809  0.011145486  0.010107835            3 
 4061000     0.602271   -8.8313417    543.67169  0.011156359  0.010104065            4 
 4062000   0.59574597   -8.8309064    543.21445  0.011144232  0.010100297            4 
 4063000   0.59835714   -8.8325508    543.88342   0.01115521  0.010096527            5 
 4064000    0.5961856   -8.8368114     543.9131  0.011153074  0.010092761            4 
 4065000   0.58630918   -8.8247111    542.86973  0.011128941     0.010089            4 
 4066000     0.596998   -8.8142085    543.25818  0.011134165   0.01008524            4 
 4067000   0.59053494   -8.8601949    542.50806  0.011116057  0.010081481            5 
 4068000   0.59745764   -8.8397565    543.65235  0.011136766  0.010077724            3 
 4069000   0.60022444   -8.8286579    543.05364  0.011121767  0.010073967            5 
 4070000   0.59649687   -8.8508763    543.49083  0.011127986  0.010070214            4 
 4071000   0.58563577   -8.8404519    543.02297  0.011115675   0.01006646           15 
 4072000   0.59665097   -8.8296085    543.29246  0.011118461  0.010062713            4 
 4073000   0.59041698   -8.8417184    542.77901  0.011105226  0.010058968            7 
 4074000   0.61362676   -8.8610213    542.41466  0.011095047  0.010055228            7 
 4075000   0.58698599   -8.8310152    542.99414  0.011104175  0.010051484            7 
 4076000   0.61260812   -8.8360509    543.37704  0.011109279  0.010047746            3 
 4077000   0.61957357    -8.844109    543.14732  0.011101858  0.010044009            9 
 4078000   0.60318364   -8.8161743    542.89082  0.011093895  0.010040274            4 
 4079000   0.60635096   -8.8392955    544.27035  0.011119358  0.010036542            6 
 4080000   0.61027428   -8.8382078    543.08473  0.011092417  0.010032808           11 
 4081000   0.58479466   -8.8401623    543.54642  0.011099126  0.010029076            3 
 4082000   0.58603836   -8.8266803    542.84187  0.011082024  0.010025351           17 
 4083000   0.58860209   -8.8473166    542.87983  0.011080085  0.010021619            4 
 4084000   0.60239678   -8.8519744     543.0303  0.011080442  0.010017893           17 
 4085000   0.59370698   -8.8458102    542.74631  0.011071936   0.01001417            6 
 4086000   0.60112441   -8.8378526    543.22444  0.011078978  0.010010445            7 
 4087000   0.60535645   -8.8396819    542.65995  0.011064757  0.010006726            4 
 4088000   0.59563317   -8.8471157    542.76029  0.011064096  0.010003006            3 
 4089000   0.58960433   -8.8387123    542.44366  0.011054937 0.0099992917            8 
 4090000   0.59845583   -8.8176377    542.22678  0.011047815 0.0099955754            4 
 4091000   0.60046392   -8.8568028    542.48663  0.011050408  0.009991855            5 
 4092000   0.59659045    -8.849543     542.1747  0.011041355 0.0099881402           14 
 4093000   0.59499773    -8.831075    543.41391  0.011063888 0.0099844278            4 
 4094000   0.59599882   -8.8462609    542.62408  0.011045108 0.0099807215            3 
 4095000   0.60564016   -8.8359393    542.23204  0.011034433 0.0099770148            6 
 4096000    0.6043535   -8.8506986    543.59183  0.011059404 0.0099733063            4 
 4097000    0.5942633   -8.8454272    542.43569  0.011033189 0.0099695981            3 
 4098000   0.59284567   -8.8323784    541.87385  0.011019071 0.0099658923            4 
 4099000   0.59143475   -8.8406214     542.2583  0.011024199 0.0099621892           18 
 4100000   0.60793302    -8.846171    542.94699  0.011035508 0.0099584837            2 
 4101000   0.60415548   -8.8473145    542.07589  0.011015116  0.009954778            5 
 4102000   0.58418517   -8.8249396    542.10056  0.011012932  0.009951079            2 
 4103000   0.59691827   -8.8533789    542.80378   0.01102453 0.0099473813            5 
 4104000   0.59346406   -8.8510817    542.30929  0.011011803 0.0099436824            4 
 4105000   0.60069202   -8.8424956    542.86083  0.011020317 0.0099399839            7 
 4106000   0.58572316   -8.8619805    542.22181  0.011004664 0.0099362861            3 
 4107000   0.60040369   -8.8364229    542.84069  0.011014542 0.0099325928            3 
 4108000   0.61401671   -8.8370302    542.07424  0.010996313 0.0099288983            4 
 4109000   0.59354242   -8.8649012    541.97847  0.010991694 0.0099252079            2 
 4110000   0.58822602   -8.8355882     542.6042  0.011001707 0.0099215158           10 
 4111000   0.60147495    -8.851891    541.78374    0.0109824 0.0099178285           12 
 4112000   0.59960262   -8.8344898    542.11045   0.01098635 0.0099141457           10 
 4113000   0.59190794   -8.8440425    543.04786  0.011002672  0.009910458            7 
 4114000   0.58052684   -8.8481526    542.87421   0.01099648  0.009906775            3 
 4115000     0.585901    -8.859288    541.64941  0.010969004 0.0099030911           12 
 4116000    0.5842111   -8.8657131    543.17619   0.01099725 0.0098994092            9 
 4117000   0.59412838   -8.8671135    543.10868  0.010993213 0.0098957289           20 
 4118000   0.59781397   -8.8538536    543.13631  0.010991102 0.0098920577            6 
 4119000   0.59726934   -8.8495372    542.87269    0.0109831 0.0098883815            5 
 4120000   0.59284243   -8.8404704    542.60645  0.010975049 0.0098847058            8 
 4121000    0.5949014   -8.8415721      543.853  0.010997594 0.0098810325            3 
 4122000   0.59273001   -8.8452878    543.30077  0.010983761 0.0098773646            3 
 4123000   0.59666864   -8.8526102    542.38098  0.010962507 0.0098736934            2 
 4124000    0.6087092   -8.8677608    542.43557  0.010960952 0.0098700246            3 
 4125000   0.58363523   -8.8591761     542.2024  0.010953584 0.0098663598            5 
 4126000   0.59372499   -8.8425343    541.85319  0.010943876 0.0098626914            5 
 4127000   0.59916235   -8.8680919    541.98269  0.010943839 0.0098590292            7 
 4128000   0.57567952    -8.856111     541.4791  0.010931022  0.009855363            4 
 4129000   0.59532424   -8.8533984    542.49369  0.010948851 0.0098517009            9 
 4130000   0.59620573   -8.8670358    543.02724  0.010956966 0.0098480412            4 
 4131000   0.58149093   -8.8455996    542.86139  0.010950968 0.0098443857            2 
 4132000   0.58932488     -8.86072    542.11358  0.010933236 0.0098407276           16 
 4133000   0.57636959   -8.8570094    542.32122  0.010934777 0.0098370775            5 
 4134000   0.58361893   -8.8442581    542.25309  0.010930759 0.0098334241            4 
 4135000   0.58320946   -8.8756684    542.34535  0.010929975  0.009829775            3 
 4136000     0.595408    -8.823217    543.05204  0.010941571 0.0098261301            6 
 4137000   0.59230716   -8.8662807     542.4698  0.010927198 0.0098224923            5 
 4138000   0.59142491    -8.868529    542.13314  0.010917777 0.0098188477           11 
 4139000   0.58549358    -8.851584    542.14331  0.010915344 0.0098152033            5 
 4140000   0.58594852   -8.8497372    541.54273  0.010900619 0.0098115617           10 
 4141000   0.59112692   -8.8666016    542.49765  0.010917203 0.0098079232            5 
 4142000   0.59174025   -8.8480998    543.08492  0.010926383 0.0098042896            6 
 4143000   0.60634153   -8.8490016    542.53098  0.010912603 0.0098006524            3 
 4144000   0.58094366    -8.851937     542.7482  0.010914338 0.0097970159            3 
 4145000   0.59108845   -8.8618267    541.76922  0.010892023   0.00979338           10 
 4146000   0.58931588   -8.8521121    543.17402  0.010917632 0.0097897481            7 
 4147000   0.58902597   -8.8575136    541.54701  0.010882305 0.0097861147            3 
 4148000   0.57956492    -8.873733    542.09177  0.010890625 0.0097824802            8 
 4149000   0.57844059   -8.8569275    542.48789  0.010895957 0.0097788499            1 
 4150000   0.58587826   -8.8470804    542.71163  0.010897824 0.0097752192           17 
 4151000   0.59500796   -8.8555875    542.25339  0.010885999 0.0097715946           12 
 4152000   0.57113129   -8.8613956    542.41578  0.010886637 0.0097679723            7 
 4153000    0.5950156   -8.8832706    542.60612  0.010887835 0.0097643527           12 
 4154000   0.58158366   -8.8754244    542.34159  0.010879907 0.0097607294            5 
 4155000   0.58345154   -8.8568112    542.29309  0.010876315   0.00975711            7 
 4156000   0.59049491   -8.8544928    543.10029  0.010889884 0.0097534929            9 
 4157000   0.60011924   -8.8642682     541.2957  0.010851089 0.0097498732            7 
 4158000   0.58156226   -8.8603774    541.77561  0.010858097 0.0097462581            4 
 4159000   0.58720947   -8.8710896    541.57039  0.010851374 0.0097426444           15 
 4160000   0.58503397   -8.8615416    542.21523  0.010861683 0.0097390288           11 
 4161000   0.58315037   -8.8699119    541.74622   0.01084968 0.0097354164           13 
 4162000   0.59124008   -8.8733783    542.27583  0.010857677 0.0097318057            4 
 4163000   0.59286117   -8.8700935    542.98144  0.010869194 0.0097281957            2 
 4164000   0.58459854   -8.8680489    541.58914   0.01083872 0.0097245899            2 
 4165000   0.58191351    -8.873101    542.00352  0.010844408  0.009720988           16 
 4166000    0.5847406   -8.8654345    542.58543  0.010853445 0.0097173846            4 
 4167000   0.60524029   -8.8515855    541.96676  0.010838468 0.0097137815            8 
 4168000    0.5872505   -8.8627167    542.35522  0.010843634  0.009710183            3 
 4169000   0.59199928   -8.8712408    542.95826  0.010853087 0.0097065851            7 
 4170000   0.58971084   -8.8725669    542.41718  0.010839672 0.0097029901           14 
 4171000   0.58565993   -8.8674806    542.15516  0.010831838 0.0096993917            6 
 4172000   0.57972519   -8.8805112    542.36142  0.010833362 0.0096957991            2 
 4173000   0.58863579   -8.8779164     542.5535  0.010834601 0.0096922091           16 
 4174000    0.5798782   -8.8635969    542.73203   0.01083557 0.0096886193           14 
 4175000   0.58654674   -8.8872356    542.48369  0.010828018 0.0096850315            5 
 4176000   0.56889303   -8.8689837    541.51777   0.01080615 0.0096814485            7 
 4177000   0.58706987    -8.877256    541.36321  0.010800479 0.0096778635            3 
 4178000   0.57760349   -8.8964839    542.18066  0.010814199 0.0096742788            6 
 4179000   0.58702514   -8.8874692     540.5335  0.010778765 0.0096706956           12 
 4180000   0.58652545     -8.86332     541.5004  0.010795462 0.0096671128           14 
 4181000   0.59267133   -8.8714712    542.64917  0.010815777  0.009663532           10 
 4182000   0.57705359   -8.8806453    541.75571  0.010795387 0.0096599555            4 
 4183000   0.58082455   -8.8771603    541.93723  0.010796423 0.0096563872           12 
 4184000   0.59032759   -8.8826742    541.83955  0.010791897 0.0096528154            9 
 4185000   0.60130028   -8.8605112    541.66667  0.010785875 0.0096492427            9 
 4186000   0.58362785   -8.8627664    540.87192  0.010767477 0.0096456724            7 
 4187000   0.59084951   -8.8795344    542.51032  0.010797514 0.0096421038           11 
 4188000   0.59438255   -8.8701112    541.99191  0.010784621 0.0096385399            4 
 4189000   0.58142749     -8.87538    542.01523   0.01078251 0.0096349762            6 
 4190000   0.57051034   -8.8766043    541.45225   0.01076874 0.0096314163            9 
 4191000    0.5901052   -8.8658776    542.49636  0.010786931 0.0096278579            5 
 4192000   0.57644475   -8.8508239    541.97746  0.010774043 0.0096243023            7 
 4193000   0.58536929   -8.8741957    542.06013  0.010773116 0.0096207485            4 
 4194000   0.57024689   -8.8864903     542.1419  0.010772173  0.009617194           12 
 4195000   0.57781326   -8.8645177    541.04189  0.010747753 0.0096136367            4 
 4196000   0.58738809   -8.8971033     540.9425  0.010743218 0.0096100872            7 
 4197000   0.58212303   -8.8645596    542.57144  0.010773001 0.0096065328           11 
 4198000   0.57793217   -8.8812836    541.82913    0.0107557 0.0096029827            3 
 4199000   0.58632629   -8.8556197    542.53417   0.01076713 0.0095994329            7 
 4200000   0.58312181      -8.8788    541.55639  0.010745166 0.0095958825            2 
 4201000   0.57272351   -8.8886408    542.05657  0.010752531 0.0095923354            7 
 4202000   0.58148421   -8.8901255     540.9406   0.01072784 0.0095887894            4 
 4203000   0.58540445   -8.8814633    542.24549   0.01075116 0.0095852479            9 
 4204000   0.58294166   -8.8888934    541.04588  0.010724823 0.0095817101            7 
 4205000   0.58017602   -8.8765246    542.05204  0.010742212 0.0095781732           14 
 4206000   0.58688245   -8.8836139    541.74696  0.010733614  0.009574637           10 
 4207000   0.57472689   -8.8795362    542.01677  0.010736407 0.0095711024            5 
 4208000   0.58457465    -8.870925    541.71477  0.010727875 0.0095675671            5 
 4209000   0.57569231   -8.8680605    542.03471  0.010731661 0.0095640353           13 
 4210000    0.5846461   -8.8627965    541.94214  0.010727279 0.0095605028            8 
 4211000   0.57107218    -8.873773    542.50014  0.010735774 0.0095569748           10 
 4212000   0.57019794   -8.8873061    542.63165  0.010735827 0.0095534463            4 
 4213000   0.57830213   -8.8636168    541.10108  0.010703004 0.0095499184            6 
 4214000   0.56972796   -8.8707066    541.65465  0.010711411 0.0095463938           16 
 4215000   0.58182549    -8.874675    541.48712  0.010705558 0.0095428743            8 
 4216000   0.57440431   -8.8622397    542.05797  0.010714302 0.0095393539            8 
 4217000   0.57674735    -8.887445    543.07202    0.0107318 0.0095358383           13 
 4218000   0.57364738   -8.8738595    541.55866  0.010699357 0.0095323248           13 
 4219000   0.57958491   -8.8903626    541.37883  0.010693269 0.0095288083           15 
 4220000   0.56194821   -8.8605708       541.52  0.010693523 0.0095252995           12 
 4221000   0.56650788   -8.8726531    541.14335  0.010683554  0.009521787           10 
 4222000   0.57605982   -8.8779452    542.62607  0.010710289 0.0095182782            8 
 4223000     0.570041   -8.8758524     541.1501  0.010678627 0.0095147689            2 
 4224000   0.56779019   -8.8843318    542.59286  0.010704562 0.0095112651           10 
 4225000   0.57344288   -8.8791361    541.26239  0.010675787 0.0095077539            4 
 4226000   0.57933535   -8.8867337    541.50816  0.010678107 0.0095042487            2 
 4227000   0.57685888   -8.8883435    540.88792  0.010663353 0.0095007421            8 
 4228000   0.57238865   -8.8982932    541.04916  0.010664009 0.0094972419            3 
 4229000   0.57357368   -8.9070551    542.65716  0.010693173 0.0094937452            3 
 4230000   0.57684709   -8.8881867    542.16932  0.010681035 0.0094902423           13 
 4231000   0.58642753   -8.8857012    541.71598  0.010669581 0.0094867463           11 
 4232000   0.58232162   -8.8735008    542.53543  0.010683196 0.0094832484            2 
 4233000    0.5851714   -8.8849268     542.2056  0.010674179 0.0094797581            9 
 4234000   0.56481735   -8.8726492    542.03526  0.010668305 0.0094762636            8 
 4235000   0.57771476   -8.8923299    541.09938  0.010647371 0.0094727725            7 
 4236000    0.5664955   -8.8772395    542.30467  0.010668568 0.0094692837           14 
 4237000   0.57062921   -8.8694361    541.38026  0.010647869 0.0094657964           13 
 4238000   0.58124553   -8.8897811    542.42509  0.010665902  0.009462307           10 
 4239000   0.57049036   -8.8911662    540.76477  0.010630746 0.0094588224            6 
 4240000   0.59152716   -8.8947432    540.93814  0.010631646 0.0094553411            2 
 4241000   0.57456576   -8.8811722     542.4671  0.010659182 0.0094518618           16 
 4242000   0.56664741   -8.8768566    541.76226  0.010642823 0.0094483836           12 
 4243000    0.5742418   -8.8719617    541.33773  0.010631977 0.0094449073           15 
 4244000   0.57058684   -8.8685099    541.52474  0.010633144 0.0094414285            6 
 4245000   0.57937876   -8.8735954    542.06579   0.01064126 0.0094379541            8 
 4246000   0.58613897   -8.8795222    542.46479  0.010646585 0.0094344807           14 
 4247000   0.58036564   -8.8852445    542.05605  0.010636058 0.0094310062           12 
 4248000   0.55832659   -8.8748077    541.50371  0.010622719 0.0094275321            9 
 4249000   0.56496446   -8.8618607    541.32612  0.010616736 0.0094240605            3 
 4250000   0.56866378   -8.8816119    541.42121  0.010616102  0.009420592            4 
 4251000   0.57600274   -8.8889002    541.40948  0.010613375 0.0094171253           11 
 4252000   0.57189237   -8.9059458    540.93019  0.010601485 0.0094136584            6 
 4253000   0.58081448   -8.8962406    540.09952  0.010582717 0.0094101953           10 
 4254000   0.57908796   -8.8951662    541.22723   0.01060232  0.009406732            9 
 4255000   0.55894673   -8.8779164    541.71569  0.010609395 0.0094032719            5 
 4256000    0.5733136   -8.8838926    541.48622  0.010602409 0.0093998109           11 
 4257000   0.56619689    -8.887429    540.92672  0.010588966 0.0093963561           10 
 4258000   0.56768697   -8.8938898    541.93846   0.01060628 0.0093929026           15 
 4259000    0.5745961   -8.8978316    542.12594  0.010607458 0.0093894511           12 
 4260000   0.58694536   -8.8913462     541.9195  0.010600929 0.0093860039            6 
 4261000   0.56963632   -8.9124096    541.94506  0.010598941 0.0093825551           14 
 4262000   0.55438131    -8.883996    541.57735  0.010589265  0.009379108           11 
 4263000   0.56706935   -8.8715881    541.35587  0.010582451 0.0093756582            8 
 4264000   0.57117752    -8.893897    540.98847  0.010572789 0.0093722095            5 
 4265000   0.57463133   -8.8874165      541.487  0.010580051 0.0093687619           11 
 4266000   0.57088795   -8.8991646      539.898  0.010546531 0.0093653166           23 
 4267000   0.56632323   -8.8959824    541.05385  0.010566633  0.009361874            4 
 4268000   0.55907512   -8.8987489    541.40723  0.010571056 0.0093584337           14 
 4269000    0.5537455   -8.8894187    541.14605  0.010563482 0.0093549968            4 
 4270000   0.56346418   -8.8798827    541.27987   0.01056362 0.0093515603           14 
 4271000   0.57572441   -8.9051304    541.04436  0.010556551  0.009348129            4 
 4272000   0.56705123   -8.8926096    541.00852  0.010553381 0.0093446957           15 
 4273000   0.57056736    -8.880612    541.88248  0.010567955 0.0093412618            4 
 4274000   0.56536372   -8.8968763    541.56935  0.010559377 0.0093378335           11 
 4275000   0.56763247   -8.8830586      541.146  0.010548655 0.0093343999            6 
 4276000    0.5768222   -8.8991567     541.1543   0.01054635 0.0093309705            4 
 4277000   0.56658101   -8.8908796    540.92105  0.010539339 0.0093275426           12 
 4278000   0.57696087   -8.8849403    541.86663  0.010555295 0.0093241214            4 
 4279000   0.57023738   -8.8639153    541.09657  0.010537831  0.009320702            2 
 4280000    0.5749049   -8.8792786    540.82781  0.010530136 0.0093172819            1 
 4281000   0.57271376   -8.8870596    541.46537  0.010540087 0.0093138619           13 
 4282000   0.56893143   -8.9051931    541.01841  0.010528927 0.0093104434           11 
 4283000    0.5629309   -8.8941891    542.41442  0.010553631 0.0093070283            3 
 4284000   0.56702041   -8.8775362      541.722  0.010537698 0.0093036085           14 
 4285000    0.5764556   -8.8751936    541.17653  0.010524631 0.0093001953            1 
 4286000    0.5617068    -8.891805    541.88347  0.010535921 0.0092967841           12 
 4287000    0.5721472   -8.8843468    541.88802  0.010533551 0.0092933754            9 
 4288000   0.57002832   -8.9000955    541.27147  0.010519113  0.009289968            2 
 4289000   0.57891649   -8.8958219     541.4707  0.010520531 0.0092865632            5 
 4290000   0.57023339   -8.9015884    540.88575  0.010506716 0.0092831554           12 
 4291000   0.56777926   -8.9077795    541.42939  0.010514825 0.0092797473            2 
 4292000   0.57068903   -8.9095081     541.8733  0.010520994 0.0092763407           15 
 4293000   0.57637932   -8.9095026    540.98854  0.010501369 0.0092729411            8 
 4294000   0.56119917   -8.8973858    541.33484  0.010505644 0.0092695385           10 
 4295000   0.57733133   -8.8870802    541.59238  0.010508195 0.0092661378           16 
 4296000   0.56714146   -8.9091107    541.26403   0.01049938 0.0092627435           15 
 4297000   0.56425192   -8.9046424     541.5699  0.010502868  0.009259348            4 
 4298000   0.55223339   -8.9017381    541.41573  0.010497435 0.0092559527           11 
 4299000   0.56442366   -8.8964663    541.46084  0.010495868 0.0092525594           11 
 4300000    0.5611567   -8.9175951    540.77196  0.010480077 0.0092491668            3 
 4301000   0.56496899   -8.8973165    540.66479  0.010475564 0.0092457744           13 
 4302000   0.56400284   -8.9177202    540.12653  0.010462702 0.0092423851            5 
 4303000   0.56583157   -8.8894603    540.63508  0.010470119  0.009238998            7 
 4304000   0.57168018   -8.9087222    541.18805  0.010478393 0.0092356136            8 
 4305000   0.56256059   -8.9083969    541.06032  0.010473487 0.0092322317           12 
 4306000   0.55764241   -8.9083163    540.30416  0.010456421 0.0092288481           21 
 4307000   0.56396225   -8.9127158    541.52036  0.010477524 0.0092254705           14 
 4308000   0.56860598   -8.8917284    540.56972  0.010456703  0.009222091            4 
 4309000   0.56436497   -8.8919362    540.57997  0.010454475 0.0092187129            9 
 4310000   0.57063578    -8.904233    540.97394  0.010459666 0.0092153395           11 
 4311000   0.57681175   -8.9164161     540.8451  0.010454749 0.0092119634            8 
 4312000   0.56199087   -8.9031255    540.22737  0.010440387 0.0092085918            5 
 4313000   0.55910458   -8.9108353    540.54862  0.010444173 0.0092052187            8 
 4314000    0.5679292   -8.8967517    541.05353  0.010451505 0.0092018507           11 
 4315000   0.55833295   -8.9233729    540.48796  0.010438161 0.0091984811           13 
 4316000   0.56362357   -8.9015433     540.6064  0.010438029 0.0091951134            9 
 4317000   0.54328413   -8.8944212    542.25037  0.010467346 0.0091917508            8 
 4318000   0.56258965   -8.9142941    541.53545  0.010451124 0.0091883884           10 
 4319000   0.55449051   -8.9039398    540.60562  0.010430764 0.0091850276           11 
 4320000   0.55135974   -8.9097349    540.71946  0.010430545 0.0091816681           15 
 4321000    0.5545797   -8.9068805     540.5361  0.010424595 0.0091783057            4 
 4322000   0.56197403     -8.92105    540.75871  0.010426475 0.0091749487            7 
 4323000   0.56860546   -8.9113811    540.76194  0.010424126 0.0091715915            6 
 4324000   0.55774495   -8.9211107    540.98627  0.010426038 0.0091682383            6 
 4325000   0.55812723   -8.8883582    541.53538  0.010434208  0.009164887           13 
 4326000   0.55889174   -8.9083259    541.33732   0.01042798 0.0091615328            9 
 4327000   0.56584812   -8.8901994    541.39914  0.010426761 0.0091581839            4 
 4328000   0.56631676   -8.9235812    540.73131  0.010411493 0.0091548354            5 
 4329000   0.56323117   -8.9112931    540.75576  0.010409559 0.0091514863            7 
 4330000   0.56713077    -8.916078    540.74351  0.010406919 0.0091481402            7 
 4331000   0.55440767   -8.9056673     540.1197  0.010392513 0.0091447968            8 
 4332000   0.56899198   -8.9149254    540.50537  0.010397533 0.0091414546            9 
 4333000   0.55118856     -8.90166     540.1596  0.010388484 0.0091381172            3 
 4334000   0.55532802    -8.916414    540.54246  0.010393448  0.009134777           11 
 4335000   0.54954429   -8.9064699    540.74883  0.010395018 0.0091314366           13 
 4336000    0.5637296   -8.9135849    539.83073  0.010374976 0.0091280998            5 
 4337000   0.55127151   -8.8886845    540.52286  0.010385882 0.0091247644            4 
 4338000   0.55728392   -8.9236941     541.5526  0.010403269 0.0091214305            5 
 4339000   0.55382517   -8.9214415    540.88187   0.01038799 0.0091180974            5 
 4340000   0.55739092   -8.9050094    541.61681  0.010399708 0.0091147682            9 
 4341000   0.55719996   -8.9072928    541.23122  0.010389911 0.0091114399           11 
 4342000   0.55306939   -8.9123918    541.17453   0.01038643 0.0091081142           11 
 4343000    0.5469115   -8.9182354    540.72009  0.010375318  0.009104787            7 
 4344000   0.55532443   -8.9215724    539.98897  0.010358904 0.0091014632            8 
 4345000   0.56136069   -8.9203784    539.99506  0.010356637 0.0090981426            5 
 4346000   0.56478616   -8.9256593    540.85405  0.010370725  0.009094824           16 
 4347000   0.55492263   -8.9158294    541.81618  0.010386784 0.0090915044            8 
 4348000   0.55385404   -8.9094144    540.10369  0.010351573 0.0090881847            8 
 4349000   0.55413325   -8.9343049    540.67543  0.010360149 0.0090848698            5 
 4350000   0.56115674   -8.8956487    540.92989  0.010362642 0.0090815556            3 
 4351000   0.55253531   -8.9264274    541.03561  0.010362285  0.009078245            8 
 4352000   0.54740206   -8.9146899    541.22102  0.010363454 0.0090749316            8 
 4353000   0.55513533   -8.9087727    540.92811  0.010355466 0.0090716205            7 
 4354000   0.55076605   -8.9195819    540.74125  0.010349511 0.0090683136            9 
 4355000   0.54851461   -8.9133355    541.00524  0.010352186 0.0090650037           12 
 4356000   0.56103288   -8.9226394    540.80805  0.010346037 0.0090616989            7 
 4357000   0.54677304   -8.9262228    540.57086  0.010339126 0.0090583963            8 
 4358000   0.55386358   -8.9202103    540.53977  0.010336159 0.0090550922            8 
 4359000   0.56149017   -8.9045906    541.76496   0.01035721 0.0090517894           11 
 4360000   0.54821145   -8.9031484    540.30683  0.010326965 0.0090484929           15 
 4361000   0.54970943   -8.9286615    540.50004  0.010328289 0.0090451934            7 
 4362000   0.53981416   -8.9048058    541.50605  0.010345141 0.0090418988           13 
 4363000   0.55020302   -8.9194032    540.78097  0.010328921 0.0090386057            9 
 4364000   0.55665578   -8.9072738     540.7191  0.010325372 0.0090353138           18 
 4365000   0.55155933     -8.92237    540.60682  0.010320863 0.0090320229            8 
 4366000    0.5711625   -8.9422582    539.88235  0.010304671 0.0090287323           18 
 4367000    0.5571224   -8.9230143    540.90429  0.010321813 0.0090254454           10 
 4368000   0.55375827   -8.9125569    540.64293  0.010314464 0.0090221548           14 
 4369000     0.550432   -8.9369475    540.88926  0.010316801 0.0090188665            4 
 4370000   0.55705509   -8.9099151    539.83134  0.010294267 0.0090155795            4 
 4371000   0.55618725   -8.9378881     540.3515  0.010301828 0.0090122912           16 
 4372000   0.54380462    -8.931281    540.16821  0.010295978 0.0090090064           11 
 4373000   0.55644768   -8.9330629     540.2164  0.010294542 0.0090057222            6 
 4374000   0.56047258   -8.9254298    540.53782  0.010298312 0.0090024421            7 
 4375000   0.53207501    -8.930196    540.36785  0.010292721 0.0089991629            9 
 4376000    0.5519735      -8.9256    540.12922  0.010285825 0.0089958871            3 
 4377000   0.54378816   -8.9125982    540.85796  0.010297349 0.0089926088            2 
 4378000    0.5679626   -8.9142001    540.19948  0.010282463 0.0089893352            4 
 4379000   0.54644247   -8.8979371    540.99589  0.010295271 0.0089860659           19 
 4380000   0.54316018   -8.9366902    540.37717  0.010281149 0.0089827947            4 
 4381000   0.53763905   -8.9335564    540.45973  0.010280372  0.008979525            3 
 4382000   0.55605518   -8.9088789    540.50414  0.010278871 0.0089762554            7 
 4383000   0.53187587   -8.9107765    540.89308   0.01028392  0.008972992            3 
 4384000   0.54342632   -8.9184662    539.87439  0.010262211 0.0089697286           17 
 4385000   0.55437654   -8.9411734    539.90762  0.010260502 0.0089664637            7 
 4386000   0.54807944    -8.927327    540.82297  0.010275554 0.0089632005            4 
 4387000   0.54362548   -8.9164391    540.90218  0.010274717 0.0089599381            4 
 4388000    0.5489517   -8.9331854    541.03022  0.010274807 0.0089566784            5 
 4389000   0.55774582   -8.9212379    540.24631  0.010257582 0.0089534184            6 
 4390000   0.53849134   -8.9332619    539.83047  0.010247351   0.00895016            7 
 4391000   0.54900147   -8.9353357    540.21835  0.010252379 0.0089469033            7 
 4392000   0.55054655   -8.9192258    540.83791    0.0102618 0.0089436482           16 
 4393000   0.55524136   -8.9305368    540.41962  0.010251529  0.008940396            5 
 4394000   0.55318391   -8.9429437    540.63511  0.010253283 0.0089371414            9 
 4395000   0.55941589   -8.9382537    539.83715   0.01023582 0.0089338907           13 
 4396000   0.55983628   -8.9485729    540.31703  0.010242588 0.0089306427           11 
 4397000   0.54719628   -8.9282108    540.91475  0.010251587  0.008927394            4 
 4398000    0.5415499   -8.9494502     539.9871  0.010231679 0.0089241507            5 
 4399000   0.54809792   -8.9260513     540.3376  0.010235993 0.0089209056            6 
 4400000   0.53621045   -8.9107664    541.32815  0.010252427 0.0089176604           19 
 4401000   0.55353942   -8.9036905    540.56711  0.010235687 0.0089144224            4 
 4402000   0.55588436   -8.9333404    540.82059  0.010238161 0.0089111866            6 
 4403000   0.54648037   -8.9205332    540.47797  0.010229351 0.0089079486           17 
 4404000   0.55345791   -8.9320839    540.53237  0.010228057 0.0089047115            5 
 4405000   0.54253459   -8.9370271    540.95815   0.01023379 0.0089014772            7 
 4406000   0.53545506   -8.9353117    539.88126    0.0102111 0.0088982428           18 
 4407000   0.54230143   -8.9270167    540.49539  0.010220395 0.0088950109           12 
 4408000   0.54419236   -8.9248113    541.13996  0.010230262 0.0088917817            5 
 4409000   0.53919579   -8.9397057    539.95599  0.010205564 0.0088885556           12 
 4410000   0.55441156   -8.9213187    540.23829  0.010208584 0.0088853263            9 
 4411000   0.54575895   -8.9330349    539.13945  0.010185511 0.0088820993           13 
 4412000   0.55393052   -8.9217799    540.16812  0.010202632 0.0088788769           10 
 4413000   0.54331822   -8.9475113    539.60789   0.01018974 0.0088756551           14 
 4414000   0.54147106   -8.9428287    540.22519  0.010199086 0.0088724326            4 
 4415000   0.54712399   -8.9328799    540.27565  0.010197728 0.0088692137            7 
 4416000   0.55056611   -8.9321661    539.99905    0.0101902 0.0088659937           19 
 4417000   0.55167908   -8.9548879    540.40541  0.010195559 0.0088627739           17 
 4418000    0.5601558   -8.9219126     540.4729  0.010194524 0.0088595598           14 
 4419000   0.54641848   -8.9445572    540.69769  0.010196456 0.0088563459            4 
 4420000   0.53584739   -8.9405009    540.56567   0.01019166 0.0088531315            5 
 4421000   0.54240752   -8.9395142    540.36402  0.010185554 0.0088499221            6 
 4422000   0.53210954   -8.9498997    539.93568  0.010175179 0.0088467133            3 
 4423000   0.54432927   -8.9507597    540.05759  0.010175175 0.0088435057            9 
 4424000   0.53635864   -8.9255799    539.99023  0.010171606 0.0088402994           15 
 4425000   0.54491163   -8.9448428    540.78951   0.01018436  0.008837094            7 
 4426000   0.54015859   -8.9521954    540.30376  0.010172913 0.0088338907            4 
 4427000   0.54922222   -8.9408117    540.05393  0.010165912 0.0088306882            4 
 4428000   0.53919742   -8.9389345    539.64164  0.010155857 0.0088274867            6 
 4429000   0.53223756   -8.9425072    539.72719  0.010155174 0.0088242867            5 
 4430000   0.53461436   -8.9256634    540.06278  0.010159194 0.0088210887           15 
 4431000   0.53637978   -8.9329901    540.69735  0.010168836 0.0088178887           15 
 4432000   0.54778884   -8.9362052    539.75246  0.010148775 0.0088146951           15 
 4433000   0.54410894   -8.9309935    540.34818  0.010157684 0.0088115013           15 
 4434000   0.54069544    -8.940545    540.29076  0.010154314 0.0088083101            5 
 4435000   0.55243276   -8.9483553    539.54938  0.010138094 0.0088051182           15 
 4436000   0.53938052    -8.932746    539.79071  0.010140342 0.0088019277           13 
 4437000   0.53590078   -8.9434585    540.14747  0.010144757 0.0087987393           11 
 4438000   0.54588816   -8.9364838    540.83638  0.010155407  0.008795555            3 
 4439000   0.53910266   -8.9156262     539.4161  0.010126457 0.0087923723           16 
 4440000   0.53717007   -8.9359423    539.62144   0.01012803 0.0087891885            4 
 4441000   0.52848871   -8.9406387    539.65473  0.010126374 0.0087860081            5 
 4442000   0.54801757   -8.9358407    540.97533  0.010148869 0.0087828289            6 
 4443000   0.54004813   -8.9126826    539.81006  0.010124729 0.0087796519            3 
 4444000   0.53902373   -8.9320387    540.60653  0.010137386 0.0087764763           19 
 4445000   0.54662896   -8.9538715    540.91365  0.010140863 0.0087733006           13 
 4446000   0.54581511    -8.936661      540.084  0.010123032  0.008770124           10 
 4447000   0.53512388   -8.9302381    539.51776  0.010110145   0.00876695            8 
 4448000   0.53796455   -8.9515188     540.6049  0.010128239 0.0087637841            4 
 4449000    0.5381559   -8.9382384    540.15424  0.010117522 0.0087606172            3 
 4450000   0.53782153   -8.9518348    540.48778  0.010121494 0.0087574539            6 
 4451000   0.52764826    -8.951371    538.53278  0.010082618  0.008754288           10 
 4452000   0.53800466    -8.948052    540.35621  0.010114484 0.0087511226            4 
 4453000   0.53127719   -8.9228182    540.29622   0.01011109 0.0087479595            8 
 4454000   0.55097753     -8.93218     540.6755  0.010115916 0.0087447987            5 
 4455000   0.54114825    -8.952146    540.60439  0.010112316 0.0087416395            6 
 4456000   0.53980679   -8.9596163    539.88856  0.010096659 0.0087384793            6 
 4457000    0.5506722   -8.9323591    539.75814  0.010091955 0.0087353234            8 
 4458000   0.53817255   -8.9482067    540.17733  0.010097527 0.0087321661            8 
 4459000   0.54998452   -8.9385518    540.01532  0.010092235 0.0087290114           10 
 4460000   0.55019002   -8.9447128     540.4608  0.010098296 0.0087258589           17 
 4461000   0.54438841   -8.9520673    540.52816  0.010097291  0.008722705            7 
 4462000    0.5444787   -8.9494304    540.27024  0.010090211 0.0087195532            6 
 4463000   0.53076468   -8.9404524    540.64218  0.010094895 0.0087164043            9 
 4464000   0.54248977   -8.9489807    539.96484  0.010079989 0.0087132591           13 
 4465000   0.54567597   -8.9340067    539.23691  0.010064145 0.0087101155            6 
 4466000   0.53657261   -8.9398057    539.76753  0.010071793 0.0087069693           13 
 4467000   0.52318927   -8.9583818    539.52568  0.010065026 0.0087038264            6 
 4468000   0.53985306   -8.9613041    540.62017  0.010083187  0.008700687            6 
 4469000   0.53453742   -8.9436895    540.80675   0.01008441 0.0086975516            7 
 4470000   0.54432313   -8.9248173    539.71385   0.01006178 0.0086944155            7 
 4471000   0.54031577   -8.9447598    540.18737  0.010068355 0.0086912783            5 
 4472000   0.53125877   -8.9404009     540.2245  0.010066795 0.0086881429            3 
 4473000   0.53289663   -8.9636932    540.14372   0.01006304  0.008685009            9 
 4474000   0.53888526   -8.9380632    540.03347  0.010058737 0.0086818741            6 
 4475000   0.54280325   -8.9449409    540.28585  0.010061189 0.0086787435            6 
 4476000   0.54877182   -8.9492157    539.64877   0.01004708 0.0086756143           13 
 4477000   0.53852825   -8.9494362    540.04173   0.01005215 0.0086724854            6 
 4478000   0.54606711   -8.9440488    540.80215  0.010064057 0.0086693572           11 
 4479000   0.54368459    -8.948396    540.38293   0.01005401 0.0086662335            7 
 4480000   0.53684557   -8.9377872    539.86582  0.010042147 0.0086631105            4 
 4481000   0.53842599   -8.9457624    539.51866   0.01003345 0.0086599885           19 
 4482000   0.53220728   -8.9502812    540.21819  0.010044217 0.0086568652            8 
 4483000   0.53471989   -8.9260166    540.26797  0.010042902 0.0086537449            8 
 4484000   0.54825725   -8.9577766    540.20677  0.010039525 0.0086506239            5 
 4485000   0.53416178   -8.9407845    539.87006  0.010031031 0.0086475062            3 
 4486000   0.52950281   -8.9280182    539.66399  0.010024966  0.008644386            4 
 4487000   0.53199429   -8.9576916    540.10959  0.010031008 0.0086412732           14 
 4488000   0.52014887   -8.9482722    539.63785  0.010020014 0.0086381597            7 
 4489000   0.52555993   -8.9499884    540.66274  0.010036807 0.0086350459           15 
 4490000   0.53471711   -8.9563217    540.56055  0.010032675 0.0086319358            3 
 4491000   0.53857128   -8.9541785    539.84913  0.010017241 0.0086288266           16 
 4492000   0.52733902    -8.951273    539.37575  0.010006229  0.008625717            4 
 4493000   0.52173296   -8.9498556    539.37582  0.010004003 0.0086226105           17 
 4494000   0.51960482   -8.9497195    539.15098 0.0099976075 0.0086195022            4 
 4495000   0.52803293   -8.9474885    540.44458  0.010019366  0.008616401            9 
 4496000   0.53398534   -8.9630632    540.27159  0.010013931 0.0086132975            8 
 4497000   0.53142413   -8.9763676    539.32883 0.0099942338 0.0086101917           14 
 4498000   0.52031648   -8.9657887    539.68175 0.0099985503 0.0086070901           10 
 4499000   0.53364481   -8.9664204    540.17916  0.010005541 0.0086039896            5 
 4500000   0.53415416   -8.9405993    540.85422  0.010015819 0.0086008921            5 
 4501000   0.53838082   -8.9611734    539.90609 0.0099960396 0.0085977981            2 
 4502000   0.52477991   -8.9724652    539.36021 0.0099837149 0.0085947046            7 
 4503000   0.53279872   -8.9628625    539.43818 0.0099829407 0.0085916104           11 
 4504000   0.53893251   -8.9553811    539.25039 0.0099772496 0.0085885221           13 
 4505000   0.52820006   -8.9624182    539.39144  0.009977644 0.0085854343            3 
 4506000   0.52270111   -8.9460866    539.61134 0.0099794965 0.0085823467            5 
 4507000   0.53249269    -8.957382    539.86009 0.0099818818 0.0085792601           13 
 4508000   0.53404255   -8.9610139    539.65592 0.0099758933 0.0085761758            5 
 4509000   0.53364479   -8.9672037    540.04033 0.0099807853 0.0085730909            4 
 4510000   0.52723852   -8.9720337    540.26252 0.0099826778 0.0085700096           12 
 4511000   0.53924397    -8.947091    540.63192 0.0099872888 0.0085669273            3 
 4512000   0.53547178    -8.969589    538.87576 0.0099526403 0.0085638488            5 
 4513000     0.546205   -8.9616717    539.55536  0.009962984 0.0085607718           11 
 4514000   0.53652619   -8.9662955    539.31013 0.0099562495  0.008557694            5 
 4515000   0.52436544   -8.9687424    539.47966 0.0099571734  0.008554618           13 
 4516000   0.52567177   -8.9707971    539.41197 0.0099537195  0.008551544           14 
 4517000   0.53058387   -8.9630199    539.97371 0.0099618794 0.0085484707            5 
 4518000   0.53425731   -8.9612952    539.40446 0.0099491748 0.0085453963            7 
 4519000   0.53186513   -8.9683885    539.96664 0.0099573401 0.0085423229            7 
 4520000   0.53199857   -8.9632528    539.99928 0.0099557389 0.0085392523            4 
 4521000   0.51659954   -8.9658209    540.91671 0.0099704474 0.0085361878           11 
 4522000   0.53488395   -8.9491986    539.68511  0.009945546 0.0085331256            3 
 4523000   0.53203275   -8.9442696     539.6367 0.0099424552 0.0085300585            6 
 4524000   0.52177099   -8.9598755    540.23661  0.009951308 0.0085269961            7 
 4525000   0.52151591   -8.9612656    540.18096 0.0099480839 0.0085239312            5 
 4526000   0.53338974    -8.962782    539.42388 0.0099319466 0.0085208674            2 
 4527000   0.53522167   -8.9613023    540.41765  0.009948046 0.0085178068            5 
 4528000   0.54219705   -8.9699201    539.68953 0.0099324486 0.0085147497            5 
 4529000   0.53652775   -8.9629893    539.52812 0.0099272856  0.008511694            6 
 4530000   0.53093274   -8.9752762     538.5265 0.0099066685 0.0085086371            6 
 4531000   0.52589407   -8.9574956    539.27736 0.0099182919 0.0085055827            4 
 4532000   0.53394601   -8.9663828    538.61896 0.0099039968  0.008502528            4 
 4533000    0.5361728   -8.9670157    539.69957 0.0099216776 0.0084994781            5 
 4534000   0.52688855   -8.9673523    540.49149 0.0099340445 0.0084964303            8 
 4535000     0.527267   -8.9539144    539.36334 0.0099111234 0.0084933839           16 
 4536000   0.53511668   -8.9646231     540.0616 0.0099217667 0.0084903354            4 
 4537000   0.52041081   -8.9670798     539.2645 0.0099049391 0.0084872898            4 
 4538000    0.5264219   -8.9666764    539.33145 0.0099039858 0.0084842428            8 
 4539000   0.51682781   -8.9485389     539.1979 0.0098993518 0.0084811973            5 
 4540000   0.53014014   -8.9808174    539.54935 0.0099036224 0.0084781561            4 
 4541000   0.52564251   -8.9586881    538.47701 0.0098817627 0.0084751181           12 
 4542000   0.52369682   -8.9364108    539.84119 0.0099046159 0.0084720798           23 
 4543000   0.52677423   -8.9587742    538.86461 0.0098845222 0.0084690418           15 
 4544000   0.53136897   -8.9500749    539.66528 0.0098970305 0.0084660071            5 
 4545000   0.52754359    -8.978345    539.21936 0.0098866769 0.0084629722            9 
 4546000   0.52163543   -8.9569131    540.03848 0.0098995176 0.0084599379            4 
 4547000    0.5327375   -8.9510038    539.53309  0.009888078 0.0084569067            6 
 4548000   0.52400102   -8.9679868    539.33658 0.0098823031 0.0084538718            4 
 4549000   0.51281608   -8.9711639    539.48269 0.0098828073 0.0084508423           10 
 4550000   0.51471053   -8.9626988    539.48153 0.0098806141 0.0084478165            3 
 4551000   0.52267602   -8.9696387    539.27455 0.0098746529 0.0084447922            8 
 4552000   0.51626665   -8.9521054    539.33779 0.0098736414 0.0084417678            5 
 4553000   0.51566087   -8.9674254    539.67292 0.0098776066 0.0084387445            2 
 4554000   0.52485839   -8.9560651    539.03891 0.0098638359  0.008435721           14 
 4555000   0.52961745     -8.95395    539.25999 0.0098657151 0.0084327035            5 
 4556000   0.53185269   -8.9556603    539.63058 0.0098703282 0.0084296851           13 
 4557000   0.53143604   -8.9667282    538.81801 0.0098533028 0.0084266694            4 
 4558000   0.53741551   -8.9732786    539.24676 0.0098589799 0.0084236531            5 
 4559000   0.51587696     -8.96378     540.7252 0.0098838415 0.0084206388            5 
 4560000   0.52269401   -8.9799501    539.59083 0.0098609434  0.008417626            7 
 4561000   0.51304844   -8.9818421    539.36017 0.0098545671 0.0084146152            4 
 4562000    0.5218746   -8.9856954    538.66295 0.0098396711 0.0084116034            4 
 4563000   0.53165318    -8.954713     539.8246 0.0098587296 0.0084085959            5 
 4564000   0.51119632   -8.9587391    539.70485 0.0098543831 0.0084055887           10 
 4565000   0.51899856   -8.9681829    539.46471 0.0098478406 0.0084025851            6 
 4566000   0.52936893    -8.970665     538.7644 0.0098329026 0.0083995781            4 
 4567000   0.53601266   -8.9684425     539.2496  0.009839603  0.008396574            6 
 4568000   0.52716384   -8.9677858    538.47888 0.0098233889 0.0083935692            3 
 4569000   0.52909055   -8.9877815    539.46104 0.0098391523 0.0083905683            8 
 4570000   0.52451912   -8.9676466    539.33709  0.009834739 0.0083875687            7 
 4571000     0.511155   -8.9796954    538.80641 0.0098229127 0.0083845686            8 
 4572000   0.52152634   -8.9661573    539.52427 0.0098338486 0.0083815715           12 
 4573000   0.51617417   -8.9817461    539.62139 0.0098334679 0.0083785776            8 
 4574000   0.52598011   -8.9745045    539.20936 0.0098238115 0.0083755838            9 
 4575000    0.5112477   -8.9825184    539.40286 0.0098251886 0.0083725876            7 
 4576000   0.51716387   -8.9695099    539.35508 0.0098221714 0.0083695944           17 
 4577000   0.52970951   -8.9656979    539.51462 0.0098229302 0.0083666033           11 
 4578000   0.50827507   -8.9493029    539.65476 0.0098233356 0.0083636102           12 
 4579000   0.52870832   -8.9645749    539.17766 0.0098125074 0.0083606225            5 
 4580000   0.52305356   -8.9754422     539.1888 0.0098105676 0.0083576324            5 
 4581000   0.51197338   -8.9909199    540.03159 0.0098237574 0.0083546455            2 
 4582000   0.51895057   -8.9667559    539.48417 0.0098116573 0.0083516623            3 
 4583000   0.51674165   -8.9746407    538.76718 0.0097964793 0.0083486799            7 
 4584000   0.52629136   -8.9871736    539.17379 0.0098017342 0.0083456986            7 
 4585000      0.52389   -8.9823811    539.40103 0.0098037264 0.0083427192            5 
 4586000   0.51311748   -8.9627082    539.24228  0.009798704 0.0083397384            4 
 4587000   0.53314762   -8.9716754    539.55053 0.0098021679 0.0083367623            7 
 4588000   0.51839131   -8.9728966    539.40597 0.0097974058 0.0083337885            3 
 4589000   0.50929574   -8.9850688    538.63859 0.0097813357 0.0083308135           15 
 4590000   0.52630228   -8.9806108    539.20323 0.0097894559 0.0083278386            5 
 4591000   0.51955303   -8.9740956    539.87689 0.0097995515 0.0083248653            9 
 4592000   0.53374407   -8.9638774    538.80192 0.0097779095 0.0083218944            4 
 4593000   0.50833947    -8.976405    539.74572 0.0097929045  0.008318926            8 
 4594000   0.51980074   -8.9603452    538.25964 0.0097638159 0.0083159573            3 
 4595000   0.51641356   -8.9872302    539.02062 0.0097754919 0.0083129901            5 
 4596000   0.50977975   -8.9843738    538.99411 0.0097728842 0.0083100234            2 
 4597000   0.52206653   -8.9629346    538.63509 0.0097642501 0.0083070607           10 
 4598000   0.51737664   -8.9859638    539.11109 0.0097707533 0.0083040968            5 
 4599000   0.51091201   -8.9773823    538.34351 0.0097547204 0.0083011338           14 
 4600000   0.50118709   -8.9713159    539.09729 0.0097662553 0.0082981754           13 
 4601000   0.51581987   -8.9558136     539.3124 0.0097680287 0.0082952157            4 
 4602000   0.52940413    -8.980321    539.62865 0.0097716328 0.0082922596            4 
 4603000    0.5162622   -8.9777465    538.98851 0.0097579208 0.0082893036           15 
 4604000   0.50778209   -8.9949668    539.21792 0.0097599537 0.0082863486            6 
 4605000   0.51284635    -8.966247     538.9914  0.009753735  0.008283394           10 
 4606000   0.51755303    -8.977776    539.60877 0.0097627871 0.0082804423           18 
 4607000   0.51260691   -8.9816813    539.13933 0.0097521765 0.0082774905            5 
 4608000   0.51033274   -8.9849904    538.94996 0.0097466355 0.0082745404            4 
 4609000   0.50988115   -8.9713829    538.58259 0.0097378786 0.0082715908           14 
 4610000   0.51684942   -8.9877994    538.65559 0.0097370859 0.0082686413            4 
 4611000   0.50952542   -8.9837161    538.84758 0.0097384439 0.0082656967            5 
 4612000   0.51151744   -8.9940824    539.56213 0.0097492434 0.0082627535            4 
 4613000   0.50652562   -8.9803173    538.90361 0.0097352339 0.0082598088            5 
 4614000    0.5098407   -8.9897987    538.57219 0.0097271382 0.0082568659            6 
 4615000   0.51727895   -8.9712132    538.56831 0.0097249605 0.0082539235            3 
 4616000   0.50803717   -8.9812226    538.93841 0.0097295352 0.0082509829            7 
 4617000   0.52549655   -8.9803298      538.892 0.0097265902 0.0082480454            3 
 4618000   0.50929515   -8.9854994    538.51416 0.0097176657 0.0082451081            7 
 4619000    0.5101136   -8.9749895    538.24197  0.009710651 0.0082421743            7 
 4620000   0.52133864   -8.9837416    538.57631 0.0097145799 0.0082392408            7 
 4621000   0.51898098   -8.9991716    539.47097 0.0097286115 0.0082363083            6 
 4622000   0.50920998   -8.9898985    538.53869 0.0097096979 0.0082333768            6 
 4623000   0.51677561   -8.9867044    538.69791 0.0097104678 0.0082304481           10 
 4624000   0.52171944   -8.9839228    539.17926 0.0097170425 0.0082275192            6 
 4625000   0.51050872   -8.9718762    538.61461 0.0097047677 0.0082245927            7 
 4626000   0.50585056   -8.9656904    539.25614 0.0097142265 0.0082216659           16 
 4627000   0.52047829   -8.9903704    539.54092 0.0097172559  0.008218743            7 
 4628000   0.51311209   -8.9851374     538.8533 0.0097027747 0.0082158204            8 
 4629000   0.51613879   -8.9765427    538.71226 0.0096981397 0.0082128964            5 
 4630000   0.51104183   -8.9824646    539.09436 0.0097029222 0.0082099731            7 
 4631000   0.50646236   -9.0008741    538.39904 0.0096883149 0.0082070507            6 
 4632000   0.50876376   -8.9902701    538.86847 0.0096946688 0.0082041287            5 
 4633000   0.51767309   -9.0146707    539.51533 0.0097042112 0.0082012102           19 
 4634000   0.50695695   -8.9852605    539.04254  0.009693615 0.0081982918            4 
 4635000   0.52148829   -8.9986639    538.12987 0.0096751145 0.0081953757            5 
 4636000   0.51799232    -8.998116    537.93606 0.0096695439 0.0081924611            6 
 4637000    0.5141498   -8.9877971    538.76962 0.0096824387  0.008189547            4 
 4638000    0.5143519   -8.9979311     538.4375 0.0096743837 0.0081866342           10 
 4639000   0.51537725    -9.004689     539.1514 0.0096851225 0.0081837248           11 
 4640000    0.5183206   -8.9807759    538.77979 0.0096763612 0.0081808162            4 
 4641000   0.51379031   -8.9975135    538.23604 0.0096645126 0.0081779072            6 
 4642000   0.50309795   -8.9877786    538.58637 0.0096687199  0.008175002            6 
 4643000   0.51404005   -9.0122264    539.22085 0.0096780251 0.0081720994            4 
 4644000   0.50998233   -8.9737849     539.1286 0.0096742859 0.0081691975           21 
 4645000   0.50622575   -8.9830667    539.58499 0.0096803909  0.008166296            6 
 4646000    0.5128069   -8.9938378    538.90307 0.0096660759 0.0081633946           10 
 4647000   0.51828702   -8.9868316    538.91102 0.0096641384 0.0081604969            4 
 4648000   0.51063105   -9.0072679    538.15809 0.0096485601 0.0081575997            9 
 4649000   0.49955515   -8.9912806    538.18328 0.0096469363 0.0081547022            3 
 4650000   0.51231608   -8.9824882    540.27911 0.0096824214 0.0081518083            3 
 4651000   0.50728604   -8.9895165     538.8793 0.0096552588 0.0081489129            3 
 4652000   0.50346102   -8.9891258    539.92862 0.0096719801  0.008146022            9 
 4653000   0.50578484   -8.9973215     537.9884  0.009635153 0.0081431318            3 
 4654000   0.50666914   -8.9974173    538.82778 0.0096481124 0.0081402406            8 
 4655000   0.50816499   -8.9893604    537.92815 0.0096299346 0.0081373516            2 
 4656000   0.50002213   -8.9888389    537.99548 0.0096290714 0.0081344654            2 
 4657000   0.50262552   -8.9977174    538.73112 0.0096401674 0.0081315795            4 
 4658000    0.5094894   -8.9988083    538.65303 0.0096367009 0.0081286932           10 
 4659000   0.50592037   -8.9770183    538.67921 0.0096351007  0.008125809           18 
 4660000   0.50637186   -8.9985084    539.25416 0.0096433148 0.0081229282            7 
 4661000   0.51163188    -8.988151    538.47149 0.0096272526 0.0081200477            4 
 4662000   0.51692745   -9.0009854    538.46676 0.0096251029 0.0081171681            3 
 4663000   0.50343685    -9.007147    538.30778 0.0096201977 0.0081142872            5 
 4664000    0.5087685   -8.9994084    538.45455 0.0096207574  0.008111411            4 
 4665000   0.50033878   -8.9833939    538.44576 0.0096185381 0.0081085331            4 
 4666000   0.50188517   -8.9903655    538.20418 0.0096121621 0.0081056595            5 
 4667000   0.49740869   -8.9957358    538.58777 0.0096169518 0.0081027883            3 
 4668000   0.50408411   -8.9991743    538.81264  0.009618906 0.0080999163            5 
 4669000   0.50350512   -8.9812298    538.57535 0.0096126107  0.008097044            4 
 4670000    0.5039547   -9.0095273    539.36825 0.0096247011 0.0080941753            6 
 4671000   0.50914718   -9.0071289    537.94677 0.0095972805 0.0080913071           12 
 4672000   0.49837162   -8.9977935    539.18645 0.0096173382 0.0080884406            4 
 4673000   0.50003863   -8.9973748    538.15491 0.0095968847 0.0080855771            8 
 4674000   0.50454894   -8.9948998    538.67046 0.0096040234 0.0080827132            6 
 4675000   0.49649611   -9.0181732    539.18586 0.0096111562 0.0080798499            4 
 4676000   0.50700184   -9.0119081    538.40102 0.0095951137 0.0080769869            5 
 4677000   0.50079669   -9.0040352    538.88722  0.009601725 0.0080741269           13 
 4678000   0.50546027   -8.9959735    538.48589 0.0095925233 0.0080712716           10 
 4679000   0.49915932    -9.000138    537.76987 0.0095777208 0.0080684135            4 
 4680000   0.51278503   -8.9956279    537.95825 0.0095790287 0.0080655585            3 
 4681000   0.50546795   -8.9912043    538.71801  0.009590508 0.0080627047            4 
 4682000    0.4980157   -9.0022317    539.29036 0.0095986466 0.0080598531            6 
 4683000   0.49878684   -8.9894672    538.39467 0.0095806583 0.0080569999            4 
 4684000   0.49714188   -9.0174846    538.22481 0.0095755909 0.0080541475            4 
 4685000   0.50420323   -9.0101831    538.42992 0.0095771953 0.0080512973           11 
 4686000   0.50799659    -9.012694    537.60215 0.0095604309 0.0080484473           13 
 4687000   0.49805797   -8.9982225    538.23134 0.0095695779 0.0080455985            5 
 4688000    0.4894684   -8.9958764    537.87098 0.0095611308  0.008042753            4 
 4689000   0.49259957    -9.005917    537.27844 0.0095485611 0.0080399095            5 
 4690000   0.49261591   -9.0180352    538.02211 0.0095597391 0.0080370643            3 
 4691000   0.51046108   -8.9986594    537.90653 0.0095556479 0.0080342228            5 
 4692000   0.50636172   -9.0091055    537.69911 0.0095499273 0.0080313815            6 
 4693000   0.50306028   -9.0214789     538.6157 0.0095641683 0.0080285405            9 
 4694000   0.49757237   -9.0012705    537.52436  0.009542756 0.0080257051            3 
 4695000   0.49608431   -8.9963644    538.89962 0.0095651334 0.0080228698            3 
 4696000   0.50975468   -9.0106156    538.41891 0.0095545661 0.0080200354            2 
 4697000    0.4923715   -9.0063151    538.42471 0.0095526348 0.0080172013            8 
 4698000    0.5108334   -9.0076124    538.57459   0.00955326 0.0080143692            4 
 4699000   0.50812358    -8.994659    538.26443 0.0095457266  0.008011538           14 
 4700000   0.49786818   -9.0043604    539.17781 0.0095598903 0.0080087093           14 
 4701000   0.49810606   -9.0184933    538.69467 0.0095492922 0.0080058791            4 
 4702000   0.49755106   -8.9902321    538.72816 0.0095478549 0.0080030509            5 
 4703000    0.4994628   -9.0147543    538.57707 0.0095431474 0.0080002242           14 
 4704000   0.50288369   -8.9963451    537.23765 0.0095173904 0.0079973965            4 
 4705000    0.4919497     -9.01029    539.02978 0.0095471091 0.0079945709            6 
 4706000   0.49666857   -8.9938723    537.98813 0.0095266349 0.0079917452            4 
 4707000   0.49836716   -9.0112053    538.19529 0.0095282786 0.0079889236            8 
 4708000   0.49488954   -9.0075447    539.38897 0.0095473833  0.007986102            6 
 4709000   0.49045726   -8.9952144    538.54786  0.009530471 0.0079832827            3 
 4710000   0.49208487   -9.0050292    537.22874 0.0095051086 0.0079804656           14 
 4711000   0.48343303   -9.0137038    538.29345 0.0095219248  0.007977647            4 
 4712000   0.49522347   -9.0004051       538.09 0.0095163059 0.0079748302           16 
 4713000   0.50552563   -9.0238022    537.87508 0.0095104866 0.0079720142           16 
 4714000   0.49434683   -9.0049483    538.16613 0.0095136143 0.0079692006           12 
 4715000   0.49952453   -9.0164099    537.93583 0.0095075262 0.0079663902           18 
 4716000   0.50268514   -9.0171156    537.35679 0.0094952783  0.007963581            7 
 4717000   0.49842151    -9.001681    539.12008 0.0095244167 0.0079607716            9 
 4718000   0.50091725   -9.0230412    538.33446 0.0095085216  0.007957963            4 
 4719000   0.49814879   -9.0189663    538.53546 0.0095100562  0.007955158            3 
 4720000    0.5005871    -9.015064    538.90412 0.0095145502 0.0079523539            4 
 4721000    0.4895555   -9.0097802    537.47293 0.0094872719 0.0079495464            5 
 4722000   0.50374628    -9.014852      538.358 0.0095008824 0.0079467434            6 
 4723000   0.48273444   -9.0249321    537.59753 0.0094854529 0.0079439425            3 
 4724000   0.49989975   -9.0083376     537.6461 0.0094843018 0.0079411398            4 
 4725000   0.49869939   -9.0228916     538.0239 0.0094889576 0.0079383423            4 
 4726000   0.49101762   -9.0202996    538.27005 0.0094912902 0.0079355456            4 
 4727000   0.49410426   -9.0096781    538.31327 0.0094900443 0.0079327478            6 
 4728000   0.50114313   -9.0040002    537.93693 0.0094814038 0.0079299526            3 
 4729000   0.50223226   -9.0120703    538.75565 0.0094938262 0.0079271592            4 
 4730000   0.49739598   -9.0084431    537.60753 0.0094715915 0.0079243676            5 
 4731000   0.49456098   -9.0305157    538.43432 0.0094841527 0.0079215769            2 
 4732000   0.49661114   -9.0141626    536.70267 0.0094516531 0.0079187856           12 
 4733000   0.49640032   -8.9993552      537.909 0.0094708958 0.0079159977            7 
 4734000   0.48693817   -9.0061007    537.38053 0.0094595925 0.0079132127            7 
 4735000   0.49998411    -9.020371    537.65641   0.00946245 0.0079104253            7 
 4736000   0.48679155   -8.9992505    539.16389 0.0094869773 0.0079076437            1 
 4737000   0.49973692   -9.0088073    537.92087 0.0094631072 0.0079048624            8 
 4738000   0.48825066   -9.0129786    538.74984 0.0094756902 0.0079020805            5 
 4739000   0.48531186   -9.0334282    537.52491 0.0094521508 0.0078992988            3 
 4740000   0.49756653   -9.0229178     538.6462 0.0094698699 0.0078965206            8 
 4741000   0.50105234   -9.0003333    538.09534 0.0094581899 0.0078937428            3 
 4742000    0.4993348   -9.0162119    538.23301 0.0094586148 0.0078909658            2 
 4743000   0.48404466   -9.0267627    536.98874  0.009434759  0.007888189            4 
 4744000   0.48931815   -9.0178786     538.1282  0.009452786 0.0078854158            3 
 4745000   0.48846612   -9.0121389    537.64162 0.0094422483 0.0078826437            5 
 4746000   0.49699449   -9.0076888    537.76023 0.0094423415  0.007879871            6 
 4747000   0.49004154   -9.0258812    538.16416 0.0094474432 0.0078771016            4 
 4748000   0.47960159   -9.0292503     538.1219 0.0094447118 0.0078743319            6 
 4749000   0.49737091   -9.0170541    537.76247 0.0094364159 0.0078715627            5 
 4750000   0.47614981   -9.0038108    538.00417 0.0094386697 0.0078687952            2 
 4751000    0.4843062   -9.0073483    537.82401  0.009433523 0.0078660258            3 
 4752000    0.4869279   -9.0195094    538.00973 0.0094347946 0.0078632585           10 
 4753000   0.49360879   -9.0186107    537.61342 0.0094258612 0.0078604951            3 
 4754000   0.48945268   -9.0193612    537.65065  0.009424531 0.0078577325            4 
 4755000   0.49141504   -9.0365944    537.50542 0.0094200038   0.00785497           12 
 4756000   0.49731065   -9.0155454    537.71071 0.0094216203 0.0078522097            3 
 4757000   0.48295049   -9.0255278    537.66011 0.0094187532 0.0078494525            4 
 4758000   0.48637117   -9.0143087    537.31252 0.0094106859 0.0078466947           11 
 4759000    0.4913117   -9.0226257    537.62217 0.0094141306 0.0078439393            8 
 4760000   0.49091271   -9.0157767    538.14175 0.0094212491 0.0078411847            3 
 4761000   0.50116126   -9.0412683    537.27934 0.0094041752 0.0078384275           11 
 4762000   0.48972793   -9.0131263     538.5839 0.0094250298 0.0078356722            5 
 4763000   0.48213895   -8.9968461      537.862 0.0094104207 0.0078329219            8 
 4764000    0.4877749   -9.0018554    537.13763 0.0093957743 0.0078301708            3 
 4765000   0.49212446   -9.0347284    538.66714 0.0094205516 0.0078274199            5 
 4766000   0.48085288   -9.0130464    537.53607 0.0093987982 0.0078246686           10 
 4767000   0.48817298   -9.0341923     537.7442 0.0094004651 0.0078219203            4 
 4768000   0.48664843   -9.0147996    538.38308 0.0094096596 0.0078191743            5 
 4769000   0.48442487   -9.0293877    537.63704 0.0093946501  0.007816428            6 
 4770000   0.49210248   -9.0164471    537.44856 0.0093893878 0.0078136867            5 
 4771000   0.49219083   -9.0367809    537.91141 0.0093955042 0.0078109463            5 
 4772000   0.49412934   -9.0261441    537.24026  0.009381815 0.0078082069            3 
 4773000   0.47534442   -9.0301036    537.38231 0.0093823295  0.007805468            5 
 4774000   0.49346292   -9.0021298    538.56817 0.0094010643 0.0078027301            5 
 4775000   0.47966151   -9.0243605    538.65251 0.0094005674 0.0077999944            3 
 4776000   0.49304181   -9.0185583    538.22891 0.0093912079 0.0077972597            6 
 4777000   0.48248889   -9.0204849    537.75671 0.0093810047  0.007794527            7 
 4778000   0.48577521   -9.0403937    538.37847 0.0093898855 0.0077917953            4 
 4779000   0.48067231   -9.0233394    538.08103 0.0093827341 0.0077890637            4 
 4780000   0.48427646   -9.0261384    537.25499 0.0093663702  0.007786334           11 
 4781000   0.47891051   -9.0236798    537.82219 0.0093742974 0.0077836034           14 
 4782000   0.49170608   -9.0255899    538.60506 0.0093859797 0.0077808745            3 
 4783000   0.48733201   -9.0179011    538.01626 0.0093737588 0.0077781476            8 
 4784000   0.49586734   -9.0347752    538.46568 0.0093796279 0.0077754245            9 
 4785000   0.48367055   -9.0172975    537.81813 0.0093663903 0.0077727003            5 
 4786000   0.49148754   -9.0239002    537.26233 0.0093547558 0.0077699763            4 
 4787000    0.4902793   -9.0266779     537.8858 0.0093636551 0.0077672542            3 
 4788000   0.48755037   -9.0280338    537.96134 0.0093630141  0.007764534            2 
 4789000   0.49168111   -9.0337717    538.07889 0.0093631045 0.0077618167            3 
 4790000   0.49267436   -9.0204436    537.92538  0.009358479 0.0077590983            6 
 4791000   0.48612984   -9.0158108    537.95364 0.0093570172  0.007756381           11 
 4792000   0.48681998   -9.0212296    537.76748 0.0093518274  0.007753665            5 
 4793000   0.48835623   -9.0369515    536.88667  0.009334562  0.007750952            4 
 4794000   0.49072259   -9.0472481    537.45101 0.0093424248 0.0077482378            6 
 4795000   0.48544099   -9.0190549    537.60468  0.009343147 0.0077455251            2 
 4796000   0.49494956   -9.0318724    537.41883 0.0093379697 0.0077428146            5 
 4797000   0.48147694    -9.016903    537.97395 0.0093456666 0.0077401049            6 
 4798000   0.47874972   -9.0441784    537.63695 0.0093378656 0.0077373996            3 
 4799000    0.4835392   -9.0312233    537.25763 0.0093293331 0.0077346934            2 
 4800000   0.47836019   -9.0283263    537.75261 0.0093359829  0.007731987            4 
 4801000    0.4883809   -9.0221487    538.42992 0.0093457946 0.0077292842            7 
 4802000    0.4786504   -9.0530275    537.30526 0.0093243312 0.0077265804            4 
 4803000   0.47507518   -9.0387801    536.83204 0.0093141794 0.0077238784           11 
 4804000   0.48395776   -9.0316871    537.91756 0.0093310706 0.0077211766            5 
 4805000   0.48594192   -9.0262738    536.61576 0.0093065514 0.0077184785            6 
 4806000   0.48343885   -9.0423801    537.25969 0.0093157804 0.0077157816            7 
 4807000   0.49050002   -9.0216944    538.36542 0.0093330112 0.0077130874           10 
 4808000   0.48380005   -9.0245106    537.53166 0.0093166193 0.0077103933            6 
 4809000   0.48537703   -9.0377407    537.82915  0.009319837  0.007707698           10 
 4810000   0.47836313   -9.0332085    537.19157 0.0093068532 0.0077050055            4 
 4811000   0.48227765   -9.0381373    537.21292 0.0093052886  0.007702313            4 
 4812000   0.47586165   -9.0400815    537.65724 0.0093110495 0.0076996224            3 
 4813000    0.4882416   -9.0313052    537.66722 0.0093092876 0.0076969326            5 
 4814000   0.48526722   -9.0351132    537.06877 0.0092969944 0.0076942427            3 
 4815000   0.49452039   -9.0228017    536.70735 0.0092888085 0.0076915563            3 
 4816000    0.4774877   -9.0287184    538.14802 0.0093118082 0.0076888707            5 
 4817000   0.47979655   -9.0467059    537.65551 0.0093013548 0.0076861884            2 
 4818000    0.4758454    -9.031258    536.99304 0.0092879659 0.0076835046            9 
 4819000   0.47576004   -9.0348383     537.5002 0.0092948088 0.0076808214            7 
 4820000   0.48162795   -9.0358267    536.53893  0.009276261 0.0076781431            4 
 4821000   0.47027509   -9.0361392    537.40614 0.0092893269  0.007675462            2 
 4822000   0.47643615   -9.0271109    537.68868 0.0092922832 0.0076727823            6 
 4823000   0.48149988   -9.0312534    536.74161 0.0092739929 0.0076701058            4 
 4824000   0.47633695   -9.0361343     537.3994 0.0092834336 0.0076674286            5 
 4825000   0.48394479   -9.0415276    537.23696 0.0092787039 0.0076647548            4 
 4826000   0.47969564   -9.0337717    538.15026 0.0092925518  0.007662081           11 
 4827000   0.48664227   -9.0501848    537.36815 0.0092771243 0.0076594103            4 
 4828000   0.47982159   -9.0469085    537.50939 0.0092776407 0.0076567407            8 
 4829000    0.4806919   -9.0470656    537.08737 0.0092684367 0.0076540691            6 
 4830000   0.48027102   -9.0200842    537.14024   0.00926743 0.0076514018            3 
 4831000   0.46839166     -9.04794    537.17459 0.0092661041 0.0076487347            4 
 4832000   0.47570689   -9.0434522    537.45075 0.0092689493 0.0076460687            3 
 4833000   0.48105013   -9.0268176    536.95861 0.0092585455 0.0076434021            3 
 4834000   0.47868578   -9.0316999    537.21512 0.0092610522  0.007640737           10 
 4835000   0.48000685   -9.0487082    537.35858 0.0092616094 0.0076380744            4 
 4836000   0.47682904   -9.0343132    537.66304 0.0092649407 0.0076354141            3 
 4837000   0.48614328   -9.0240799    538.24005 0.0092729662 0.0076327544            4 
 4838000   0.46190277    -9.037893    537.29281 0.0092547335 0.0076300949           10 
 4839000   0.47517135   -9.0448114    537.45664 0.0092556423  0.007627438            3 
 4840000   0.48501702   -9.0404813    536.90867 0.0092442953 0.0076247827            4 
 4841000   0.48331728   -9.0363145    537.05406 0.0092448884 0.0076221274            4 
 4842000    0.4831124   -9.0355156    537.85207 0.0092567134 0.0076194751            5 
 4843000   0.47266929   -9.0401027    537.56266 0.0092498221 0.0076168236            2 
 4844000   0.47455667    -9.056201    537.19485 0.0092415849 0.0076141722            5 
 4845000   0.48874463   -9.0532506    537.84494  0.009250859 0.0076115223            4 
 4846000     0.481348   -9.0471266    537.00161 0.0092344479 0.0076088722            5 
 4847000   0.48042892    -9.036843    537.62196 0.0092432081 0.0076062241            5 
 4848000   0.47505238   -9.0457745    537.22079 0.0092344057 0.0076035765            5 
 4849000   0.47612248    -9.045411     537.4763 0.0092368925 0.0076009328            5 
 4850000   0.46772713   -9.0305436    537.04835 0.0092276349  0.007598289            5 
 4851000   0.48759884   -9.0382943    537.20761 0.0092284685 0.0075956464            3 
 4852000   0.47006096   -9.0497546    538.20908 0.0092437669 0.0075930067            3 
 4853000   0.47266944   -9.0344586    537.28343 0.0092259673  0.007590366            3 
 4854000   0.47744433   -9.0353146    535.89442 0.0092002201 0.0075877257            4 
 4855000   0.47444044   -9.0533043     537.5816 0.0092272846 0.0075850905            7 
 4856000   0.47185673   -9.0392391     537.8844 0.0092305808 0.0075824531            4 
 4857000   0.48298151   -9.0477256    537.66764 0.0092249612 0.0075798188            7 
 4858000   0.46727556   -9.0512033    537.56454 0.0092212937 0.0075771859           10 
 4859000   0.47220338   -9.0419368    537.26951  0.009214336 0.0075745526            3 
 4860000   0.47037321   -9.0468194    537.27741 0.0092125756 0.0075719218            7 
 4861000   0.47415931   -9.0509144    537.11201 0.0092078449 0.0075692936            6 
 4862000   0.47559409   -9.0367288    537.19673 0.0092074031 0.0075666628            2 
 4863000   0.47141253   -9.0373878    537.20743 0.0092056931 0.0075640351            3 
 4864000   0.47530048   -9.0517735    536.92571  0.009198974 0.0075614056            4 
 4865000   0.46970022   -9.0379681    537.59632 0.0092085701 0.0075587792            2 
 4866000   0.47846594   -9.0467619    537.65876 0.0092077469 0.0075561554            5 
 4867000   0.45776777   -9.0450273    537.34528 0.0092004877 0.0075535337            6 
 4868000   0.47016225   -9.0454692    537.42227 0.0091999157 0.0075509131            4 
 4869000   0.47241543   -9.0434075     536.9079 0.0091892227  0.007548292            5 
 4870000   0.46373863   -9.0385021    537.72088 0.0092012471  0.007545672            5 
 4871000   0.46727904   -9.0521981    537.21603 0.0091907212 0.0075430546            3 
 4872000   0.47400028   -9.0423196    537.52792 0.0091941694 0.0075404372            4 
 4873000   0.47645251   -9.0446829    537.87851 0.0091982781 0.0075378203            3 
 4874000    0.4711531   -9.0548974    537.85313  0.009195957 0.0075352068            4 
 4875000   0.47432106   -9.0432223    537.28759 0.0091844032  0.007532593            4 
 4876000   0.46724662   -9.0657066    537.04929  0.009178447 0.0075299797            9 
 4877000   0.47273163   -9.0525576    537.11138 0.0091776259 0.0075273661            5 
 4878000   0.46407609   -9.0396503    537.68263 0.0091855034 0.0075247568            2 
 4879000   0.47121692   -9.0355779    537.20384 0.0091754431 0.0075221453           13 
 4880000   0.47883501   -9.0451874    537.18646 0.0091732661 0.0075195385            5 
 4881000   0.46094291    -9.056025    537.04697 0.0091690052 0.0075169305            6 
 4882000   0.47815262   -9.0484942    536.95171  0.009165501 0.0075143257            7 
 4883000   0.46555069   -9.0517495     536.3602 0.0091535292 0.0075117195            3 
 4884000   0.47306125   -9.0512808    537.53101  0.009171632 0.0075091158            3 
 4885000    0.4816903   -9.0601212    536.84778 0.0091580993 0.0075065119            3 
 4886000   0.46455861   -9.0553362    537.52123  0.009167711 0.0075039114            4 
 4887000   0.48295243   -9.0653087    536.67833  0.009151462 0.0075013073            5 
 4888000   0.47813767   -9.0476657    537.21888 0.0091588052 0.0074987054            3 
 4889000   0.45992518   -9.0441324    537.11697 0.0091551949 0.0074961072            4 
 4890000   0.47156054   -9.0473065    536.86127 0.0091489651 0.0074935087            5 
 4891000   0.46040392   -9.0524853    536.78137 0.0091457332 0.0074909102            3 
 4892000   0.47801681   -9.0617174    537.30612 0.0091528025 0.0074883161            2 
 4893000   0.47350459    -9.060841    536.90312 0.0091440685 0.0074857226           11 
 4894000   0.47435909    -9.051488    536.99724 0.0091438026 0.0074831285            3 
 4895000   0.47277001    -9.062658    536.83592 0.0091391883 0.0074805353           12 
 4896000   0.46277221   -9.0637325    536.88904 0.0091382257 0.0074779462            4 
 4897000   0.47425279   -9.0560124    537.55339 0.0091476651 0.0074753552            7 
 4898000   0.47938363   -9.0439943    536.65724 0.0091305506 0.0074727657            9 
 4899000   0.46241206   -9.0528528    536.61597 0.0091279848 0.0074701769            6 
 4900000   0.48205689   -9.0522222    537.63338 0.0091434248 0.0074675928            8 
 4901000    0.4717058   -9.0428445    536.24386 0.0091179327 0.0074650088           13 
 4902000   0.46505441   -9.0469218    537.17181 0.0091318476 0.0074624263            4 
 4903000   0.47093412   -9.0523946     537.5325 0.0091361156 0.0074598445            3 
 4904000   0.47131702   -9.0488256    537.01733 0.0091254984 0.0074572643            2 
 4905000   0.47813879    -9.045412    536.51039 0.0091150253 0.0074546865            4 
 4906000   0.46976733   -9.0542047     536.6557 0.0091156356 0.0074521055            3 
 4907000     0.467358    -9.048299    537.31958 0.0091250523 0.0074495311            3 
 4908000   0.47509161   -9.0636722    536.55262 0.0091101708 0.0074469555           13 
 4909000   0.45751133   -9.0495099    536.55219 0.0091083077 0.0074443813            6 
 4910000    0.4733956   -9.0453014    536.95543 0.0091132965 0.0074418063           11 
 4911000      0.46586   -9.0601953    536.51216  0.009103919 0.0074392347            5 
 4912000   0.47341481   -9.0498125    537.30866 0.0091155785 0.0074366636            3 
 4913000   0.45543467   -9.0584638    536.25942 0.0090959262 0.0074340937            3 
 4914000   0.46655999   -9.0674263    537.44716 0.0091142172 0.0074315253            3 
 4915000   0.46322591   -9.0611064    537.18725 0.0091079562 0.0074289575            5 
 4916000   0.46310616   -9.0689993    535.96942 0.0090854594 0.0074263902           10 
 4917000    0.4684471   -9.0548564    536.14264 0.0090865474 0.0074238236            3 
 4918000   0.45786414   -9.0546234    537.16509 0.0091020246 0.0074212602            8 
 4919000    0.4732198   -9.0738288    537.96422 0.0091137124 0.0074186989           15 
 4920000   0.47290188   -9.0724757    537.01535 0.0090957885 0.0074161367            6 
 4921000   0.47406792    -9.062396      537.158 0.0090963557 0.0074135768            3 
 4922000   0.44735523   -9.0677656     536.8126 0.0090886597  0.007411018            3 
 4923000   0.47075624   -9.0733846    536.46183 0.0090808761  0.007408459            5 
 4924000   0.46405797   -9.0417289    536.89557 0.0090863724 0.0074059017            4 
 4925000   0.48511106   -9.0518489    537.06769 0.0090874397 0.0074033476            4 
 4926000   0.46523968    -9.063256    536.97125 0.0090839635 0.0074007929            8 
 4927000   0.45742638   -9.0695535    536.53033 0.0090746623 0.0073982398            9 
 4928000    0.4634498   -9.0663066    537.01168 0.0090809606 0.0073956872            4 
 4929000   0.47324709   -9.0660977    536.24853 0.0090662157  0.007393134            2 
 4930000   0.47106552   -9.0531356    537.17175 0.0090799822 0.0073905842            4 
 4931000   0.45060137   -9.0581647     536.9722 0.0090747685 0.0073880343            4 
 4932000   0.47336299   -9.0575337     536.3641 0.0090626538 0.0073854857            4 
 4933000   0.45266135   -9.0756417    537.39941 0.0090783061 0.0073829399            6 
 4934000   0.46274257   -9.0655825    536.85281 0.0090672344 0.0073803931            8 
 4935000    0.4585105   -9.0749461    537.02356 0.0090682804 0.0073778485            4 
 4936000   0.46153085   -9.0541134    537.19025 0.0090692573 0.0073753056            4 
 4937000   0.46754995   -9.0633388    536.01748 0.0090476248 0.0073727613           12 
 4938000   0.46283903   -9.0501753    536.65257 0.0090565102 0.0073702197           16 
 4939000   0.46402878   -9.0616088    536.52403 0.0090525078 0.0073676788            4 
 4940000   0.46761365   -9.0563855    535.66352 0.0090361593 0.0073651387            9 
 4941000   0.45683755    -9.052254    536.83498 0.0090540879 0.0073626003            3 
 4942000   0.45589216   -9.0778892    537.35567 0.0090610358 0.0073600644           10 
 4943000    0.4662728   -9.0602007    536.86715 0.0090509669 0.0073575283            5 
 4944000   0.46698772   -9.0710676    536.80244 0.0090480455 0.0073549934            8 
 4945000   0.46672394   -9.0599109    537.19586 0.0090528456 0.0073524603            8 
 4946000   0.46749311   -9.0688041    536.31673 0.0090362032 0.0073499275            4 
 4947000   0.46219271   -9.0507268    535.64922 0.0090231321 0.0073473935            9 
 4948000   0.47094823   -9.0694639    537.47627 0.0090520795 0.0073448639            3 
 4949000   0.45872488   -9.0587312    535.62881 0.0090191422  0.007342335            5 
 4950000   0.46124808   -9.0594251    537.00095   0.00904042 0.0073398068           11 
 4951000   0.45675102   -9.0566351    537.07223 0.0090397937   0.00733728           11 
 4952000    0.4613926   -9.0567448    535.78048 0.0090162304 0.0073347546           10 
 4953000    0.4511752    -9.064046    537.56468  0.009044429 0.0073322296            8 
 4954000    0.4507742   -9.0735734    535.67829 0.0090108715 0.0073297047            5 
 4955000   0.45979749   -9.0770938    536.76656 0.0090273555   0.00732718            7 
 4956000    0.4572432   -9.0660991    536.94709 0.0090285696 0.0073246575           16 
 4957000   0.46399015   -9.0748383    537.63157 0.0090382552 0.0073221356            4 
 4958000   0.45448335   -9.0584676    536.82617 0.0090228952 0.0073196166            4 
 4959000   0.46043663    -9.067816    536.38722 0.0090136994 0.0073170985            3 
 4960000   0.45887499   -9.0582182    536.40759 0.0090122244 0.0073145802            2 
 4961000   0.45337243   -9.0755034    537.05698  0.009021316 0.0073120631            8 
 4962000   0.45723591    -9.063618      536.673 0.0090130491   0.00730955            7 
 4963000   0.45454934   -9.0715587    536.83123 0.0090138899 0.0073070356            6 
 4964000   0.45065522    -9.080872    536.26998 0.0090026521 0.0073045227            4 
 4965000   0.46229376   -9.0466273     536.1713 0.0089991826 0.0073020124            8 
 4966000   0.45306571   -9.0611717    536.40429 0.0090012802 0.0072995038            8 
 4967000   0.46719696   -9.0714942    536.12718 0.0089948188 0.0072969957            4 
 4968000   0.46386026    -9.059258    536.12321 0.0089929416 0.0072944893           10 
 4969000   0.45614817   -9.0910952    537.43031 0.0090130527 0.0072919836            4 
 4970000   0.45763974   -9.0601915    535.93792  0.008986216 0.0072894796            9 
 4971000   0.45908112   -9.0636641    536.67444 0.0089967552 0.0072869756            2 
 4972000   0.46011292   -9.0691806    536.31701  0.008988955 0.0072844709            3 
 4973000   0.45722862    -9.062814    535.97653  0.008981442 0.0072819691            5 
 4974000    0.4570496   -9.0560068    537.48084 0.0090048392  0.007279469           12 
 4975000    0.4677625   -9.0616026    535.87809 0.0089761825 0.0072769682            6 
 4976000   0.44926387   -9.0723918    537.00363  0.008993228 0.0072744679            5 
 4977000   0.45407685   -9.0732005    536.11411 0.0089765272 0.0072719682            7 
 4978000   0.45452395    -9.070961    535.90802 0.0089712739 0.0072694723            8 
 4979000     0.460448   -9.0898601    536.56925  0.008980539 0.0072669774           13 
 4980000    0.4575063   -9.0721178    536.28904 0.0089740469  0.007264483            2 
 4981000   0.45328059   -9.0747164    535.72405 0.0089627927 0.0072619897            8 
 4982000   0.45884876   -9.0801191    536.89498 0.0089805798 0.0072594984            4 
 4983000    0.4465112   -9.0713427     536.6347 0.0089744247 0.0072570075            2 
 4984000   0.44838391   -9.0824896    536.09687 0.0089636315 0.0072545178           13 
 4985000   0.44495838   -9.0721556    536.59615 0.0089701797  0.007252028            7 
 4986000   0.46685023   -9.0672281    535.36742 0.0089478442 0.0072495399            3 
 4987000   0.46352995   -9.0780813    536.15895 0.0089592767 0.0072470533            9 
 4988000   0.44871838    -9.064168    535.26535 0.0089425513 0.0072445688            2 
 4989000   0.44690342   -9.0770362    536.46563 0.0089608076 0.0072420845            5 
 4990000   0.46129374   -9.0789863    536.12899 0.0089533899 0.0072396028            4 
 4991000   0.44075116   -9.0740637    535.62808 0.0089432325 0.0072371208            4 
 4992000    0.4473481   -9.0761415    536.46889 0.0089554769 0.0072346382            6 
 4993000   0.44093997   -9.0799892    537.12488 0.0089646319 0.0072321597            4 
 4994000   0.45481506   -9.0879258    535.50186 0.0089357539  0.007229679            3 
 4995000   0.45658481    -9.082418    536.58185 0.0089519827 0.0072272018            4 
 4996000   0.46089972   -9.0769729    537.31688 0.0089624513 0.0072247246            4 
 4997000   0.44637376   -9.0761145     536.1345 0.0089409395 0.0072222492            2 
 4998000   0.44288578   -9.0829887    535.55988 0.0089295698  0.007219775            4 
 4999000    0.4549036    -9.078793     536.1728  0.008938001 0.0072173013            8 
 5000000    0.4356678   -9.0924762    536.38228 0.0089397046 0.0072148286            4 
 5001000   0.44975515   -9.0885521    536.00232 0.0089315857 0.0072123588            4 
 5002000   0.44399374    -9.073473    536.78469 0.0089428344 0.0072098912           17 
 5003000   0.45500246   -9.0700122    536.73142 0.0089401595 0.0072074244            2 
 5004000   0.43960304   -9.0779399    536.13853 0.0089284993 0.0072049562            3 
 5005000   0.46954422   -9.0772269    536.30969 0.0089295653 0.0072024913            5 
 5006000   0.44041818   -9.0715532    536.20796 0.0089260881 0.0072000258            3 
 5007000   0.45321005   -9.0780892    536.39255 0.0089273776 0.0071975619            5 
 5008000   0.45431205   -9.0837121    536.14413 0.0089214611 0.0071950993            3 
 5009000   0.44464148   -9.0741644    536.71583 0.0089291913 0.0071926384            6 
 5010000   0.45444317   -9.0710917    535.57413 0.0089084187 0.0071901789            5 
 5011000   0.44871688   -9.0706142    537.12101 0.0089323656 0.0071877205            3 
 5012000   0.44971261   -9.0940273    536.38106 0.0089182805 0.0071852621            3 
Loop time of 12535 on 48 procs for 5000000 steps with 4000 atoms

Performance: 68927.041 tau/day, 398.883 timesteps/s
99.4% CPU use with 48 MPI tasks x no OpenMP threads

MPI task timing breakdown:
Section |  min time  |  avg time  |  max time  |%varavg| %total
---------------------------------------------------------------
Pair    | 857.33     | 917.83     | 991.22     | 122.9 |  7.32
Neigh   | 82.238     | 86.247     | 89.904     |  22.9 |  0.69
Comm    | 787.51     | 862.29     | 930.8      | 123.8 |  6.88
Output  | 15.465     | 15.47      | 15.557     |   0.3 |  0.12
Modify  | 10510      | 10537      | 10570      |  14.8 | 84.06
Other   |            | 116.3      |            |       |  0.93

Nlocal:        83.3333 ave          95 max          75 min
Histogram: 1 4 9 6 10 11 3 2 1 1
Nghost:        2223.25 ave        2242 max        2201 min
Histogram: 1 5 1 6 9 5 8 6 3 4
Neighs:        14858.9 ave       17352 max       13354 min
Histogram: 2 8 9 8 6 9 2 3 0 1
FullNghs:      29718.3 ave       33935 max       26530 min
Histogram: 1 4 9 8 10 9 4 1 1 1

Total # of neighbors = 1426480
Ave neighs/atom = 356.62000
Neighbor list builds = 266796
Dangerous builds = 2

#clear
#
#next RN
#
#jump SELF
Total wall time: 3:28:58
