
units lj                  # Use reduced LJ style units
atom_style atomic         # Uncharged point particles
atom_modify map hash      # Needed for indexing of clusters etc
                          # Used to be able to find where atoms are in relation to each other.

lattice fcc 1.0 spacing 1 1 1
Lattice spacing in x,y,z = 1.5874011 1.5874011 1.5874011
region box block 0 10 0 10 0 10 units lattice
create_box 2 box
Created orthogonal box = (0.0000000 0.0000000 0.0000000) to (15.874011 15.874011 15.874011)
  3 by 4 by 4 MPI processor grid
create_atoms 1 box
Created 4000 atoms
  using lattice units in orthogonal box = (0.0000000 0.0000000 0.0000000) to (15.874011 15.874011 15.874011)
  create_atoms CPU = 0.026 seconds
set type 1 type/fraction 2 0.66 78393
Setting atom values ...
  2654 settings made for type/fraction
mass 1 1.0
mass 2 1.0
pair_style lj/cut  3.5
pair_modify tail  yes
pair_coeff 1  1  1.0  1.0   # Intearaction between 1 and 1 set with epsilon = 1 and sigma = 1
pair_coeff 1  2  1.5  0.8
pair_coeff 2  2  0.5  0.88

write_data data.0
System init for write_data ...
Neighbor list info ...
  update every 1 steps, delay 10 steps, check yes
  max neighbors/atom: 2000, page size: 100000
  master list distance cutoff = 3.8
  ghost atom cutoff = 3.8
  binsize = 1.9, bins = 9 9 9
  1 neighbor lists, perpetual/occasional/extra = 1 0 0
  (1) pair lj/cut, perpetual
      attributes: half, newton on
      pair build: half/bin/atomonly/newton
      stencil: half/bin/3d
      bin: standard
WARNING: Not all mixed pair coeffs generated from mixing. Use write_data with 'pair ij' option to store all pair coeffs. (../write_data.cpp:312)


#############################
#   M E L T   S Y S T E M   #
#############################

velocity all create 2.4 5300450 mom yes dist gaussian # Assign velocities
                                                    # Temperature 2.4, random number seed, zero linear momentum
                                                                                # Gaussian distribution

timestep 0.002   # simulation timestep
thermo 1000       # output thermodynamic data every 1000 steps bf 100

# Define a fix  in this case with index 1 applied to all
# particles in the simulation. This fix is for simulations
# in the anisotropic NPT ensemble. Note that we use the MTK
# correction.
fix 1 all npt temp 2.4 2.4 0.1 iso 5.68 5.68 0.5 mtk yes tchain 5 pchain 5 # Use NPT ensemble
                                                                         # Set temperature and pressure and damping
                                                                         # Numbers of thermostats in chain and in barostat
run 10000          # run for 10000 steps
Per MPI rank memory allocation (min/avg/max) = 3.642 | 3.644 | 3.648 Mbytes
Step Temp E_pair E_mol TotEng Press Volume 
       0          2.4   -4.3965799            0  -0.79747995   -3.9040118         4000 
    1000     2.421701   -4.0887033            0  -0.45705986    5.7580251    3627.3599 
    2000    2.3925134   -4.0430328            0  -0.45515984    5.7022885    3652.7816 
    3000    2.4348161   -4.0528901            0  -0.40157901    5.6827976    3653.9878 
    4000    2.3466479     -4.03192            0  -0.51282814    5.9944041    3625.3744 
    5000    2.3500165   -4.1072626            0  -0.58311905    5.8728028    3598.3282 
    6000     2.405422   -4.0677137            0  -0.46048279    5.5252568     3666.258 
    7000    2.4022507   -4.0826802            0  -0.48020499    5.3717638    3656.2239 
    8000    2.3493954    -4.102873            0  -0.57966103    5.5333313    3627.3921 
    9000    2.4277505   -4.1378507            0  -0.49713534    5.7805413    3590.3043 
   10000     2.336878   -4.1340675            0  -0.62962689    5.8679193    3579.1338 
Loop time of 2.75293 on 48 procs for 10000 steps with 4000 atoms

Performance: 627694.859 tau/day, 3632.493 timesteps/s
99.5% CPU use with 48 MPI tasks x no OpenMP threads

MPI task timing breakdown:
Section |  min time  |  avg time  |  max time  |%varavg| %total
---------------------------------------------------------------
Pair    | 1.2212     | 1.2717     | 1.3627     |   2.9 | 46.19
Neigh   | 0.21571    | 0.22146    | 0.23136    |   0.7 |  8.04
Comm    | 0.79583    | 0.88812    | 0.95506    |   4.0 | 32.26
Output  | 0.00025429 | 0.00026415 | 0.00042709 |   0.0 |  0.01
Modify  | 0.3099     | 0.35499    | 0.39755    |   4.1 | 12.90
Other   |            | 0.0164     |            |       |  0.60

Nlocal:        83.3333 ave          92 max          73 min
Histogram: 1 2 3 7 8 8 8 4 4 3
Nghost:        1771.98 ave        1803 max        1753 min
Histogram: 4 7 7 9 7 3 6 3 1 1
Neighs:        10670.2 ave       11990 max        9153 min
Histogram: 1 1 5 6 11 6 5 4 6 3

Total # of neighbors = 512172
Ave neighs/atom = 128.04300
Neighbor list builds = 897
Dangerous builds = 170

# Equilibrate just above the melting temperature to avoid step fn in T

fix 1 all npt temp 1.25 1.25 0.1 iso 5.68 5.68 0.5 mtk yes tchain 5 pchain 5
run 2000
Per MPI rank memory allocation (min/avg/max) = 3.644 | 3.646 | 3.650 Mbytes
Step Temp E_pair E_mol TotEng Press Volume 
   10000     2.336878   -4.1340675            0  -0.62962689    5.8679193    3579.1338 
   11000    1.2477486   -6.0225956            0   -4.1514406    5.6019114    2772.1673 
   12000     1.264715   -6.1034252            0    -4.206827    5.8445917    2745.5184 
Loop time of 0.718414 on 48 procs for 2000 steps with 4000 atoms

Performance: 481059.343 tau/day, 2783.908 timesteps/s
99.5% CPU use with 48 MPI tasks x no OpenMP threads

MPI task timing breakdown:
Section |  min time  |  avg time  |  max time  |%varavg| %total
---------------------------------------------------------------
Pair    | 0.30311    | 0.32504    | 0.38319    |   2.3 | 45.24
Neigh   | 0.040584   | 0.043572   | 0.049095   |   0.6 |  6.06
Comm    | 0.19121    | 0.25435    | 0.27655    |   2.9 | 35.40
Output  | 5.2978e-05 | 5.6311e-05 | 0.00017066 |   0.0 |  0.01
Modify  | 0.085241   | 0.090492   | 0.09474    |   0.9 | 12.60
Other   |            | 0.004908   |            |       |  0.68

Nlocal:        83.3333 ave          92 max          77 min
Histogram: 4 4 11 2 8 5 8 2 3 1
Nghost:        2121.27 ave        2138 max        2098 min
Histogram: 1 1 3 5 8 6 5 9 6 4
Neighs:        13912.4 ave       15787 max       12511 min
Histogram: 3 6 5 8 8 8 3 2 3 2

Total # of neighbors = 667794
Ave neighs/atom = 166.94850
Neighbor list builds = 143
Dangerous builds = 14

#############################
# L I N E A R  Q U E N C H  #
#############################

# Define solid atoms. This closely follows ten Wolde  Ruiz-Montero and Frenkel  Faraday Discuss  1996  104  93-110
# Compute components of the per-atom q6 vector
compute q6 all orientorder/atom degrees 1 6 components 6 nnn NULL cutoff 1.3 # compute the Q6 parameter.
                                                                             # Use all neighbours within 1.3 unit cell.

# get number of connections
compute coord_number all coord/atom orientorder q6 0.5

# An atom is solid if it has 8 or more connections (of a possible 14)
variable is_solid atom c_coord_number>=8
group solid dynamic all var is_solid    # Must be dynamic to update
dynamic group solid defined

# do clustering
compute cluster solid cluster/atom 1.3 # Create a cluster where all atoms within are solid and max 1.3 units from another member

# define chunks one chunk per cluster
compute clus_chunks solid chunk/atom c_cluster nchunk every compress yes  # Says which atoms are in which chunk

# count the size of each chunk
compute size_chunks solid property/chunk clus_chunks count


# Find the maximum entry in the vector of chunk sizes
variable max_n equal max(c_size_chunks)


# Thermo style which includes this variable
# thermo_style custom step temp pe vol v_max_n

thermo ${N}  # Print the thermo information every 100 steps
thermo 1000  

# Reset the npt fix at a lower temperature (below freezing)
fix 1  all npt temp  ${temp} ${temp}  0.1  iso  5.68  5.68  0.5  mtk yes tchain  5  pchain  5
fix 1  all npt temp  0.45 ${temp}  0.1  iso  5.68  5.68  0.5  mtk yes tchain  5  pchain  5
fix 1  all npt temp  0.45 0.45  0.1  iso  5.68  5.68  0.5  mtk yes tchain  5  pchain  5

dump dmp2 all dcd ${N} traj.dcd
dump dmp2 all dcd 1000 traj.dcd


compute msd all msd com yes
variable twopoint equal c_msd[4]/6/(step*dt+1.0e-6)
fix 9 all vector 10 c_msd[4]
variable fit equal slope(f_9)/6/(10*dt)
thermo_style custom step temp pe c_msd[4] v_twopoint v_fit v_max_n

fix 1 all npt temp 1.25 ${temp} 0.1 iso 5.68 5.68 0.5 mtk yes tchain 5 pchain 5
fix 1 all npt temp 1.25 0.45 0.1 iso 5.68 5.68 0.5 mtk yes tchain 5 pchain 5
run 5000000 # 5000000  # Run for this many steps
Neighbor list info ...
  update every 1 steps, delay 10 steps, check yes
  max neighbors/atom: 2000, page size: 100000
  master list distance cutoff = 3.8
  ghost atom cutoff = 3.8
  binsize = 1.9, bins = 8 8 8
  4 neighbor lists, perpetual/occasional/extra = 1 3 0
  (1) pair lj/cut, perpetual
      attributes: half, newton on
      pair build: half/bin/atomonly/newton
      stencil: half/bin/3d
      bin: standard
  (2) compute orientorder/atom, occasional
      attributes: full, newton on
      pair build: full/bin/atomonly
      stencil: full/bin/3d
      bin: standard
  (3) compute coord/atom, occasional
      attributes: full, newton on
      pair build: full/bin/atomonly
      stencil: full/bin/3d
      bin: standard
  (4) compute cluster/atom, occasional
      attributes: full, newton on
      pair build: full/bin/atomonly
      stencil: full/bin/3d
      bin: standard
Per MPI rank memory allocation (min/avg/max) = 9.849 | 9.853 | 9.856 Mbytes
Step Temp PotEng c_msd[4] v_twopoint v_fit v_max_n 
   12000     1.264715   -6.1034252 1.686979e-30 1.1715132e-32 8.3333333e+20            3 
   13000    1.2765539   -6.0815243   0.56258089 0.0036062876  0.046299959            4 
   14000    1.2571432   -6.0785457    1.1072928 0.0065910285  0.045349542            3 
   15000    1.2437096   -6.0610066    1.6622872 0.0092349284  0.045194775            4 
   16000    1.2359359   -6.1111786    2.1663766  0.011283211  0.045587055            3 
   17000    1.2578049   -6.1059011    2.6960894  0.013216124  0.044749519            2 
   18000    1.2747087   -6.1402486    3.3083607  0.015316484  0.044999535            3 
   19000    1.2400582   -6.1447438    3.8083583  0.016703326  0.045149431            2 
   20000    1.2592271   -6.1250558     4.265671  0.017773629  0.044863972            2 
   21000    1.2552131   -6.0982347    4.8826229  0.019375487   0.04465205            3 
   22000    1.2751505   -6.0901085    5.4124407  0.020501669   0.04477538            2 
   23000    1.2542587   -6.0709016    6.0246007  0.021828263  0.044969309            3 
   24000    1.2545993   -6.1213075    6.5806066  0.022849328  0.045166089            2 
   25000    1.2587028   -6.0733162    7.0300467  0.023433488  0.045202703            3 
   26000    1.2312726   -6.0938329    7.5993123   0.02435677  0.045133028            3 
   27000     1.257396   -6.1113877    8.1797393  0.025246109  0.045173958            3 
   28000    1.2419078    -6.030802    8.8146435  0.026234058  0.045362591            5 
   29000    1.2366876   -6.1145505    9.1855896  0.026395372  0.045392064            2 
   30000    1.2475013   -6.0547485    9.8145928  0.027262757   0.04529135            2 
   31000    1.2497304   -6.1263959    10.272196   0.02761343  0.045299908            2 
   32000    1.2625463   -6.0633583    10.740897  0.027971086  0.045223835            3 
   33000    1.2504266   -6.1063269    11.274397  0.028470698  0.045086306            2 
   34000    1.2326033   -6.0680262    11.760018  0.028823572  0.044952315            2 
   35000    1.2299452   -6.0597138    12.388661   0.02949681  0.044839236            1 
   36000    1.2552444   -6.1273154    12.838789  0.029719419  0.044756738            2 
   37000    1.2310996   -6.0900876    13.354702  0.030078157  0.044669975            2 
   38000    1.2444019    -6.031808    13.849026  0.030370671  0.044562163            1 
   39000    1.2359868   -6.0971363    14.441774   0.03085849  0.044498146            2 
   40000    1.2244398    -6.144582    14.849072  0.030935567  0.044436522            2 
   41000    1.2190043   -6.0939467    15.479249  0.031461888  0.044389126            2 
   42000     1.267891   -6.1111171    16.021247  0.031788188  0.044381017            1 
   43000     1.237979   -6.1104805     16.44852  0.031876977  0.044343388            6 
   44000    1.2231541   -6.1693921    16.917819  0.032041324  0.044285835            1 
   45000    1.2376491   -6.1113084    17.373072  0.032172355  0.044173419            2 
   46000    1.2175677   -6.1817309    17.734039  0.032126881  0.044037612            2 
   47000    1.2435135   -6.0731506    18.209462  0.032286279  0.043873906            4 
   48000     1.252794   -6.0880833    18.697746  0.032461365  0.043709757            6 
   49000     1.298833   -6.0984201    19.127549  0.032529845  0.043564899            3 
   50000    1.2680455   -6.1106803    19.632482  0.032720803  0.043409103            1 
   51000     1.264327    -6.079162    20.077851  0.032806946  0.043264435            2 
   52000    1.2513666   -6.1454335    20.391705  0.032679014  0.043118421            2 
   53000     1.245771   -6.1172678    20.854063  0.032789406  0.042949286            3 
   54000    1.2041488   -6.1496272    21.354957   0.03295518  0.042802145            4 
   55000    1.2258895   -6.1228704    21.942293  0.033245899  0.042672106            2 
   56000    1.2357389   -6.1401983    22.395261  0.033326282   0.04255155            2 
   57000    1.2355712    -6.140181    22.931256  0.033525227  0.042446938            3 
   58000     1.239896   -6.1230389    23.567788  0.033861765  0.042383069            4 
   59000    1.2421528   -6.1125401     24.05324  0.033973502  0.042346113            2 
   60000    1.2469193   -6.1018477    24.683418  0.034282525  0.042313984            2 
   61000    1.2479334   -6.0468416     25.44657  0.034763074  0.042304507            2 
   62000    1.2418163   -6.1058071    25.859141   0.03475691  0.042310295            3 
   63000    1.2572513   -6.1093697    26.358804  0.034866143  0.042321854            3 
   64000     1.281962   -6.1133819    27.009804  0.035169015  0.042344905            2 
   65000    1.2526811   -6.1155669    27.446892  0.035188322  0.042372698            3 
   66000    1.2605916   -6.1269855    27.957193  0.035299486  0.042395215            4 
   67000    1.2433354   -6.1084609    28.558681  0.035520747  0.042421857            3 
   68000    1.2280408   -6.1428777    29.165411  0.035741924  0.042466264            2 
   69000    1.2338315   -6.0784865    29.778833  0.035964774  0.042509005            2 
   70000    1.2433426   -6.1614072    30.350337  0.036131353  0.042552793            2 
   71000    1.2407175   -6.1039369    30.762587  0.036106323  0.042600716            3 
   72000    1.2436734   -6.1135258    31.331654  0.036263488  0.042645978            6 
   73000     1.239993   -6.1324573    31.811148  0.036314096  0.042690721            2 
   74000    1.2552396   -6.0680937    32.710125  0.036835726  0.042750322            1 
   75000    1.2398854   -6.1198646    32.984525  0.036649471  0.042805188            2 
   76000    1.2337445   -6.0751757    33.808276  0.037070478  0.042861037            2 
   77000    1.2400512   -6.0841045    34.210049  0.037023863  0.042917925            1 
   78000    1.2345458   -6.1139785    34.558544  0.036921521  0.042956737            2 
   79000    1.2353767   -6.1503955     35.00972  0.036930084  0.042974424            2 
   80000    1.2423156    -6.112628    35.501679  0.036980916  0.042993013            2 
   81000    1.2212132   -6.1355002     35.86801  0.036901244  0.043005933            1 
   82000    1.2483396    -6.118536    36.474753  0.037067839  0.043019213            3 
   83000    1.2805994   -6.0663033    37.133396  0.037282526   0.04302174            8 
   84000    1.2372861   -6.1139739    37.446591  0.037149396  0.043028123            2 
   85000    1.2413139   -6.0750519    38.115075  0.037367721  0.043036408            3 
   86000    1.2354406    -6.119463    38.493448  0.037299853  0.043046771            4 
   87000    1.2376191   -6.0994354     39.08595  0.037438649  0.043057209            2 
   88000     1.234619   -6.0993343    39.549106  0.037451805  0.043059071            2 
   89000     1.266716    -6.129586    39.986898  0.037440916  0.043056457            3 
   90000    1.2299405   -6.1883961    40.661048  0.037649119  0.043063855            2 
   91000    1.2305197   -6.1230334    41.193893  0.037723345  0.043077619            2 
   92000    1.2429681   -6.1008629    41.790319   0.03785355  0.043087502            3 
   93000    1.2521123   -6.1338135    41.982413  0.037618649  0.043089979            1 
   94000    1.2110141   -6.1016974    42.763003  0.037910463  0.043090081            6 
   95000     1.237007   -6.0898171    43.433505  0.038099566   0.04309483            2 
   96000    1.2539267   -6.1109124    43.888131  0.038097335  0.043105474            1 
   97000    1.2029155   -6.1203833     44.19435  0.037967654  0.043108238            6 
   98000    1.2276596   -6.0962504    44.718929    0.0380263  0.043105175            2 
   99000    1.2165681   -6.1028174    45.486473  0.038288277  0.043112504            3 
  100000    1.2280761   -6.1369421    45.930295  0.038275246  0.043119302            1 
  101000     1.222219   -6.1168805    46.419794   0.03830016  0.043128849            6 
  102000    1.2230053   -6.0932869    47.074486  0.038459547  0.043142307            2 
  103000    1.2303123   -6.1175079    47.489487  0.038421915  0.043151318            2 
  104000    1.2310995   -6.1735397    47.629047    0.0381643  0.043146855            3 
  105000    1.2150684    -6.154442    48.178705  0.038237067  0.043135913            1 
  106000    1.2472597   -6.1447286    48.839858  0.038396114  0.043130562            3 
  107000    1.2343136   -6.1280454    49.478786   0.03853488  0.043129311            3 
  108000    1.2372602   -6.1359932    49.600456  0.038271957  0.043121944            2 
  109000    1.2183956   -6.1599605     50.29308  0.038450367   0.04311606            3 
  110000    1.2455367    -6.121531    50.977055  0.038618981  0.043119059            3 
  111000    1.2171503   -6.1020623     51.55325  0.038703641  0.043122276            2 
  112000    1.2136955   -6.1207654    51.708218  0.038473377  0.043119575            2 
  113000    1.2129889    -6.125654    52.228935  0.038516914  0.043113772            3 
  114000    1.2548875   -6.1337919    52.619624  0.038464638  0.043099548            3 
  115000    1.2420163   -6.1613058     53.21388  0.038560782  0.043086312            2 
  116000    1.2206155   -6.1337544     53.66458  0.038552141  0.043077026            1 
  117000    1.2407243   -6.1208241    54.113282  0.038542224  0.043064822            1 
  118000     1.231387   -6.1307673    54.657916  0.038600223  0.043043813            3 
  119000    1.2312366   -6.1423282    54.919292  0.038458887  0.043025013            2 
  120000    1.2415677   -6.1223077    55.598316  0.038609941  0.043003789            2 
  121000     1.247831   -6.1210359    55.845649   0.03846119  0.042984831            1 
  122000    1.2068875   -6.1282278     56.65995  0.038702151  0.042967864            2 
  123000    1.2204883   -6.2007927    56.986509  0.038608746   0.04295108            2 
  124000    1.2257809   -6.1183132    57.599489  0.038709334  0.042930259            3 
  125000    1.2214995   -6.1522136    58.090298  0.038726865  0.042912455            4 
  126000    1.2275649   -6.1584279    58.409787  0.038630811  0.042898923            2 
  127000     1.205928   -6.1279133    58.972718  0.038696009  0.042873215            2 
  128000    1.2234855   -6.1335147    59.280615  0.038594151  0.042845977            3 
  129000    1.2175123   -6.1382525    60.011357  0.038767026   0.04282228            1 
  130000    1.2317411   -6.1442081    60.544757  0.038810742  0.042806018            2 
  131000    1.2367366   -6.1419798    60.990324  0.038797916  0.042787002            3 
  132000    1.2371568   -6.1205893    61.414473  0.038771763  0.042768402            2 
  133000    1.2495234   -6.1315537    61.951388  0.038816659  0.042753095            2 
  134000    1.2252787   -6.1258226    62.110697  0.038626055  0.042733088            6 
  135000    1.2434304   -6.1499531    62.721237  0.038716813  0.042711608            3 
  136000    1.2298402   -6.0808556    63.523811  0.038923904  0.042691457            8 
  137000    1.2310398   -6.1003021    64.001789  0.038930529  0.042678974            2 
  138000    1.2317575     -6.12967     64.62933  0.039027373  0.042668091            3 
  139000    1.2302439   -6.1570075    65.106871  0.039032896  0.042660116            2 
  140000    1.2044395   -6.0773756    65.845124  0.039193526  0.042652346            7 
  141000     1.226856    -6.128501    66.475373  0.039288045  0.042647541            1 
  142000    1.2414906   -6.1086287    66.849485  0.039230919  0.042642072            3 
  143000    1.2589181   -6.1847905    67.248062  0.039188847  0.042640088            4 
  144000     1.225331   -6.1442419    68.039429   0.03937467  0.042641182            3 
  145000    1.2502188   -6.1464882    68.702226  0.039484038  0.042640589            3 
  146000    1.2148432   -6.1287878    68.877242  0.039313494  0.042639773            5 
  147000    1.2302393   -6.0709212    69.574104  0.039441102   0.04263755            3 
  148000    1.2272297   -6.1380499    70.125332  0.039484984  0.042634899            2 
  149000    1.2158328   -6.1478871     70.20538  0.039264754  0.042628952            3 
  150000    1.2240304   -6.1610603    70.778269   0.03932126  0.042622742            2 
  151000    1.2350193   -6.1448784    70.833764  0.039091481  0.042611828            4 
  152000    1.2197225   -6.1225208    71.704524  0.039311691  0.042601746            4 
  153000    1.2420304   -6.1583745    72.144491  0.039294385  0.042594347            2 
  154000     1.208061   -6.1455768    72.587357  0.039278873  0.042585922            2 
  155000     1.235012   -6.1264193    73.593159  0.039566214  0.042580785            1 
  156000    1.2195146   -6.1488017     73.77162  0.039407917  0.042573066            2 
  157000    1.2292888   -6.1418921    74.087772   0.03932472  0.042564878            3 
  158000    1.2333136    -6.153401    74.591042  0.039341267  0.042553858            3 
  159000    1.1971701   -6.1299077    74.805609  0.039206294  0.042537767            2 
  160000    1.2516046    -6.170151    75.303732  0.039220694  0.042522762            4 
  161000    1.2417309   -6.1589448    76.190844  0.039436255  0.042510997            2 
  162000     1.201747   -6.1863373    76.317258  0.039257849  0.042498646            3 
  163000    1.2318921   -6.1373644    76.873897  0.039301583  0.042482169            4 
  164000    1.2436105   -6.1985974     76.91752  0.039084106  0.042462779            2 
  165000    1.2249233   -6.1632184    77.684187  0.039234438  0.042444591            3 
  166000    1.2447901   -6.1139717    78.108175  0.039210931  0.042431094            1 
  167000    1.2031373   -6.1829053    78.920763  0.039381618  0.042417622            2 
  168000    1.2205874    -6.147761    79.625473  0.039496762  0.042407584            3 
  169000    1.2462926   -6.1303074    79.783067  0.039340763  0.042395106            4 
  170000    1.2293786   -6.1206954    80.345777  0.039385185  0.042380756            4 
  171000    1.2308361   -6.1080421    81.157918  0.039550642  0.042366415            6 
  172000    1.2352373   -6.1137437    81.429729  0.039452388  0.042352806            1 
  173000    1.2276796   -6.1559104    81.349282  0.039185589  0.042336788            2 
  174000    1.2076713   -6.1415157      82.2423  0.039388075  0.042319229            4 
  175000    1.2386843   -6.1729568    82.292988  0.039187137  0.042302179            3 
  176000     1.217913   -6.1539202    82.686639  0.039150871  0.042285805            1 
  177000    1.2252416   -6.1539841    83.048768  0.039100173  0.042266295            2 
  178000    1.2347073   -6.1768328    83.667217  0.039170045   0.04224379            3 
  179000    1.2404212   -6.1657183    84.098937  0.039152205  0.042222301            1 
  180000    1.2475942   -6.1425908    84.772484   0.03924652  0.042203524            3 
  181000    1.2323634   -6.1352453    84.866627  0.039073033  0.042179602            4 
  182000    1.1973857   -6.1243523    85.525675  0.039160108   0.04215482            2 
  183000    1.2093956   -6.1902615    85.037181  0.038723671  0.042126906            2 
  184000    1.2261432   -6.1540908    86.252069  0.039063437  0.042096423            3 
  185000    1.2508589   -6.1386004    86.770146  0.039085651  0.042070384            1 
  186000    1.2421462   -6.1444361    86.681273  0.038835696  0.042043808            5 
  187000    1.2004386   -6.1541381    87.387966  0.038942944  0.042016057            7 
  188000    1.2533434   -6.1366767    87.771909  0.038905988  0.041990621            2 
  189000    1.2430306   -6.1438065    88.313589  0.038938972  0.041964205            1 
  190000     1.204575   -6.1209812    88.888171   0.03898604  0.041939578            1 
  191000    1.2228006    -6.168816    89.266453  0.038946969   0.04191601            4 
  192000    1.2379194   -6.1291827    90.035902  0.039078083  0.041892021            1 
  193000    1.2113086   -6.1028082    90.479127   0.03906698  0.041869194            2 
  194000    1.2257815    -6.185121    90.225467  0.038756644  0.041841748            5 
  195000    1.2116261    -6.148419    91.423682   0.03906995  0.041818359            2 
  196000    1.2221762   -6.1829866    91.378377  0.038851351  0.041793168            3 
  197000    1.2061118   -6.1613987    92.497881  0.039127699  0.041771226            3 
  198000     1.232656   -6.0988664    93.470401  0.039339394  0.041755859            3 
  199000    1.2264739   -6.1142299    94.200657  0.039447511  0.041742353            2 
  200000    1.2181226   -6.1318276    94.178732  0.039241138  0.041729706            3 
  201000    1.2243306   -6.1722524    94.939751  0.039361422  0.041720833            3 
  202000    1.2158659   -6.1745886    95.655214  0.039461722  0.041712958            4 
  203000    1.2279763   -6.1538031    96.223406  0.039500577  0.041706628            1 
  204000    1.2210733    -6.075408    96.998814  0.039623699  0.041701659            2 
  205000    1.2209204   -6.1328488     97.29101  0.039549191  0.041696742            4 
  206000    1.2059905   -6.1426936    97.445616  0.039419747  0.041688902            2 
  207000     1.192377   -6.1588765    97.986659  0.039447125  0.041683217            1 
  208000    1.2187132   -6.0955724    98.853505   0.03960477   0.04167598            2 
  209000    1.2359294   -6.1872431     98.75222  0.039374888  0.041667765            3 
  210000    1.2299004   -6.1728255    99.135144  0.039339343  0.041655627            2 
  211000    1.2208083    -6.152536    99.601459  0.039337069  0.041640133            3 
  212000    1.2105358   -6.1867023     99.87629  0.039259548  0.041625043            2 
  213000    1.1938373   -6.1236753    100.58073  0.039350832  0.041607577            3 
  214000    1.2395701    -6.116195     100.8872  0.039286293  0.041591546            2 
  215000     1.227319   -6.2020807    100.48623  0.038948151  0.041571539            2 
  216000    1.2326467   -6.1512682    101.18258   0.03903649  0.041552202            3 
  217000    1.1980315   -6.1571206     101.6429  0.039033371  0.041532687            4 
  218000    1.2307479   -6.2478434    101.51157  0.038804119  0.041513472            4 
  219000    1.2101142   -6.1673418    102.97102  0.039182276  0.041496456            1 
  220000    1.2042798   -6.1453648    103.76824   0.03930615   0.04148089            1 
  221000    1.1845997   -6.1963517    103.78328  0.039133965  0.041462696            1 
  222000    1.2114916   -6.1473103    104.54396  0.039243228  0.041445429            3 
  223000    1.2071179   -6.1622699    104.91073  0.039204307   0.04143089            1 
  224000    1.2145639   -6.1514732    105.25517  0.039157428  0.041414819            2 
  225000    1.2103953   -6.1683468    105.84531  0.039201965   0.04139996            1 
  226000     1.192381   -6.1461235    106.23172  0.039170988  0.041382485            2 
  227000       1.2321   -6.1723838    106.94152  0.039259001  0.041366437            2 
  228000    1.2224892    -6.202228    106.78418  0.039029307  0.041350649            1 
  229000    1.2076774    -6.210839    107.50641  0.039121691   0.04133574            2 
  230000    1.2329984   -6.1841889    107.76526  0.039045384  0.041321055            4 
  231000    1.2305316   -6.1546478    108.50238  0.039142274  0.041307178            4 
  232000    1.2115833   -6.1911804    108.84839   0.03909784  0.041293928            2 
  233000    1.2181004   -6.2007303    109.23813  0.039069431  0.041277883            1 
  234000    1.2263139    -6.207461    109.39273  0.038957526  0.041258841            3 
  235000    1.2202043   -6.2066198    109.89689  0.038970529  0.041240727            6 
  236000    1.1969812   -6.2031259    109.96636   0.03882993  0.041221574            3 
  237000    1.1754366   -6.1813417    110.62726  0.038898474  0.041200838            1 
  238000    1.2326957   -6.1511415    111.27996   0.03896357  0.041182051            3 
  239000    1.2067181   -6.1269241    112.28157   0.03914978  0.041165162            5 
  240000     1.203414   -6.1687752     112.8147  0.039171769   0.04114909            1 
  241000    1.2020817   -6.1390765    113.07728  0.039100027  0.041133701            3 
  242000    1.2112115   -6.1116297    113.58799  0.039114323  0.041118209            2 
  243000    1.1960969   -6.1708532    113.77143  0.039016264  0.041103395            2 
  244000    1.2147647   -6.1583112    113.84272   0.03888071  0.041087969            4 
  245000    1.2035709   -6.2232511    114.78668  0.039043088  0.041072978            3 
  246000    1.1918541    -6.167184    115.51502  0.039131106  0.041056027            3 
  247000    1.1805028   -6.1892867    115.38502  0.038928819  0.041042832            4 
  248000    1.1810443   -6.1760536    116.21645  0.039051226  0.041027387            1 
  249000    1.1966475   -6.1953577    116.49684  0.038988233  0.041010228            4 
  250000    1.2266997   -6.1385213    117.08359  0.039027863  0.040995026            3 
  251000    1.2079352   -6.1341333    117.89289  0.039141067  0.040981549            2 
  252000    1.2183912   -6.2233305    118.02652  0.039029933  0.040969744            3 
  253000    1.1976786   -6.1907119    118.59388  0.039062542  0.040956282            4 
  254000    1.2343911     -6.22292    119.06694  0.039063956  0.040944061            3 
  255000    1.2571635   -6.1763078    119.68353  0.039112264  0.040932149            2 
  256000    1.2070652   -6.1999256    120.04047  0.039075673  0.040920699            2 
  257000    1.2085197   -6.2058413    120.75628  0.039155733  0.040909782            2 
  258000    1.2068752   -6.1271304    121.79912    0.0393408  0.040901876            3 
  259000    1.2194122   -6.1623825    121.56257  0.039112795  0.040891561            2 
  260000    1.1798518   -6.1924029    122.02082  0.039109239   0.04088156            3 
  261000    1.2223801   -6.2051806    122.95355  0.039257199  0.040871135            6 
  262000    1.2094595   -6.1914511     123.2344  0.039196693  0.040863735            3 
  263000    1.2180554   -6.2147119     123.4229  0.039107383  0.040854565            2 
  264000    1.2101745   -6.2187082    123.68959   0.03904343  0.040844367            4 
  265000    1.2120057   -6.2088861    124.24136   0.03906961  0.040832292            3 
  266000     1.210533   -6.1632211      124.829  0.039106829  0.040822587            1 
  267000    1.2387164   -6.1950838    125.24582  0.039090456  0.040810889            3 
  268000    1.2094457   -6.2285262    125.34211  0.038974535  0.040798591            5 
  269000    1.1852842   -6.1473534    126.52319  0.039195537   0.04078668            1 
  270000    1.2179173   -6.1832559    127.11218  0.039232153   0.04077718            3 
  271000    1.2090457   -6.1883837    126.75394  0.038977228  0.040767479            4 
  272000    1.1981859   -6.2174397    127.30035  0.039001333  0.040754649            3 
  273000    1.2061514   -6.1994085    127.87879  0.039035039  0.040743421            2 
  274000    1.1654059    -6.177095    128.84918  0.039187707   0.04073381            3 
  275000     1.189881   -6.1979372     129.0858  0.039116908  0.040724157            3 
  276000    1.1872982   -6.2256261    129.49942  0.039100066  0.040716223            2 
  277000    1.1992167   -6.1841112    129.75688  0.039036366  0.040706861            1 
  278000    1.1972298   -6.2137743    130.60561  0.039150363    0.0406982            2 
  279000    1.1972549   -6.1665471    131.66491  0.039326437  0.040693492            3 
  280000    1.2189843   -6.2154734    131.99968  0.039285618  0.040687888            2 
  281000    1.1924452   -6.2192592     132.3735  0.039256674  0.040681688            4 
  282000    1.2122099   -6.1250717    133.43321  0.039430619  0.040676647            3 
  283000    1.2151912   -6.2232601    133.21199  0.039226144  0.040672258            2 
  284000     1.195074   -6.2057476    133.80909   0.03926323  0.040666823            2 
  285000    1.2163184   -6.1617312    134.18189  0.039234471  0.040661823            2 
  286000    1.1890995   -6.2127294    134.72401  0.039255248  0.040656173            3 
  287000    1.2127344   -6.1938949     135.2552  0.039272706  0.040649953            1 
  288000    1.1992491    -6.155086    135.69398  0.039263303  0.040643298            2 
  289000    1.2007919   -6.2318852    135.44255  0.039054946  0.040634331            4 
  290000    1.2276159   -6.2192864    136.17602   0.03913104  0.040625094            2 
  291000    1.1887624    -6.175163    137.12121  0.039267241  0.040617058            2 
  292000    1.2218022   -6.2101174    137.07753    0.0391203  0.040609745            2 
  293000    1.2086705   -6.2002402    137.99012  0.039246337  0.040601642            3 
  294000    1.2073054   -6.1776387    138.27579  0.039193819  0.040593781            3 
  295000    1.2029538   -6.2069365    138.80768   0.03921121  0.040585808            8 
  296000    1.1857824   -6.1849929    138.98614   0.03912898  0.040576634            3 
  297000     1.188251   -6.2037544    139.35102  0.039099611  0.040567435            2 
  298000    1.1915319   -6.1906568    140.07186  0.039169983  0.040558929            3 
  299000    1.2010715   -6.1617477    140.97344  0.039290256  0.040549426            1 
  300000    1.2189532   -6.1581239    141.03727  0.039177019  0.040540224            5 
  301000    1.1950535   -6.2411336    140.68277  0.038948719  0.040529692            3 
  302000    1.2249156   -6.1687355    142.32037  0.039271625   0.04052256            2 
  303000    1.2048063   -6.2216156    141.89412  0.039024785  0.040514598            4 
  304000    1.1756529   -6.2360256    142.21022  0.038983064  0.040505126            3 
  305000    1.2160657   -6.2341542    142.62987  0.038969911  0.040493704            3 
  306000    1.2151099   -6.2064545    143.60188  0.039107266  0.040482534            4 
  307000    1.2115655   -6.2043375    143.67175  0.038998846  0.040473088            2 
  308000     1.197855   -6.2108212    143.68357  0.038875425   0.04046097            2 
  309000    1.2241751   -6.2135075    144.45936  0.038958835  0.040449687            1 
  310000    1.1629876   -6.2256395    145.20763  0.039034309  0.040439335            2 
  311000     1.218674   -6.2225693    144.97098  0.038845385  0.040428196            4 
  312000    1.1995681   -6.1915543    146.36281  0.039092632  0.040416877            3 
  313000    1.2120257   -6.1642606    146.23759  0.038934395  0.040406323            3 
  314000    1.2012576   -6.1853978    146.51475  0.038883958  0.040396843            2 
  315000    1.1924137   -6.2588518    146.78666   0.03883245  0.040386521            2 
  316000    1.1838937   -6.1936173    147.93785  0.039013147   0.04037567            4 
  317000    1.1700694   -6.2140946    147.89041  0.038877606  0.040365516            2 
  318000    1.1953162   -6.2553052    147.75169  0.038718997  0.040353265            6 
  319000    1.2055536   -6.1993828    148.77776  0.038865662  0.040342356            5 
  320000    1.1975641   -6.1504539     149.6847  0.038980391   0.04033184            3 
  321000    1.1825724   -6.2522776      149.515  0.038814901  0.040322068            2 
  322000    1.2156435   -6.2103347    150.31765  0.038902082  0.040311444            2 
  323000    1.2061624   -6.2503717    150.42157  0.038808454  0.040300015            2 
  324000    1.1995278   -6.2167488    150.98831  0.038834441   0.04028974            4 
  325000    1.1881075    -6.216008     151.7007  0.038897615  0.040279906            3 
  326000    1.2110602   -6.2428683    152.10112  0.038880654  0.040269374            3 
  327000    1.1915606   -6.1742088    153.27834  0.039061759  0.040261092            2 
  328000    1.1819469    -6.202937    153.07515  0.038891045  0.040252903            3 
  329000    1.2072499    -6.185511    153.87967  0.038976612  0.040244506            2 
  330000    1.2012476   -6.1679334    154.32647  0.038971332  0.040235289            2 
  331000      1.19038   -6.1703989    155.29423  0.039097238  0.040226102            4 
  332000    1.2112616    -6.189788    154.77668  0.038849567  0.040215976            2 
  333000    1.2056692   -6.2061657    154.76728  0.038730552  0.040205544            4 
  334000    1.1838744   -6.1698921    155.64555   0.03883372  0.040194628            2 
  335000    1.1839022   -6.2188098    156.21924  0.038860508  0.040183923            4 
  336000    1.1885465   -6.2174699    157.01367  0.038941883  0.040173147            3 
  337000    1.2173304   -6.1879737    156.58462  0.038720233  0.040161953            1 
  338000    1.1906855   -6.2286665    157.63198  0.038863901  0.040149646            2 
  339000    1.2193651   -6.2308127    157.98849  0.038836894  0.040138547            8 
  340000    1.2116393   -6.2302611    158.17478   0.03876833  0.040127584            2 
  341000    1.1953988   -6.2445813    158.04564  0.038623079  0.040114962            2 
  342000    1.1828245   -6.1923865    159.73047  0.038920679  0.040103495            1 
  343000    1.2302084    -6.224595      159.529   0.03875826  0.040093939            5 
  344000     1.196124   -6.1903275     160.2436  0.038818702  0.040083046            1 
  345000    1.2015466   -6.1847549    160.88507  0.038861128    0.0400713            2 
  346000    1.2092262   -6.1809845    161.23633  0.038833414  0.040059661            2 
  347000     1.193079   -6.1948379    161.43143  0.038768356  0.040048252            2 
  348000    1.2161286   -6.2031265    162.21532  0.038844665  0.040038461            4 
  349000    1.2121271   -6.2102529    162.45679  0.038791019  0.040029952            6 
  350000    1.1868085    -6.198225    163.25939  0.038871282  0.040020572            3 
  351000    1.1849144   -6.2462194    163.00581  0.038700335  0.040010205            4 
  352000    1.1843007   -6.2368037    162.93412  0.038573418  0.039999441            2 
  353000    1.1761706   -6.2382168    163.67304  0.038638585  0.039988184            5 
  354000    1.1935526   -6.2174277    164.55629  0.038737355  0.039977929            6 
  355000    1.1918366    -6.249247    164.96025  0.038723062  0.039967619            3 
  356000    1.2076298   -6.2609969    164.99725  0.038622953  0.039958146            3 
  357000    1.1706005   -6.2357635    165.92917  0.038732299  0.039947532            2 
  358000    1.2076227    -6.189657    167.05726  0.038886698  0.039938269            4 
  359000    1.2062442   -6.2027401    166.69419  0.038694102  0.039928356            2 
  360000    1.1923845   -6.2034754    167.61887  0.038800665  0.039918646            2 
  361000    1.1875243   -6.2071814    167.97523  0.038775446  0.039910037            3 
  362000    1.2210993   -6.1994885    168.59409  0.038810795  0.039900168            5 
  363000    1.1679644   -6.2493841     168.7633  0.038742722  0.039891004            3 
  364000    1.2000923   -6.2201611    169.21548  0.038739808  0.039882866            2 
  365000    1.2080457    -6.201423    170.04294  0.038822588  0.039874135            1 
  366000    1.1871392   -6.2251607    170.12321  0.038734792  0.039865263            2 
  367000    1.1954436   -6.1896238    170.35476  0.038681826  0.039855656            1 
  368000    1.1955823   -6.2369137      170.644  0.038642211  0.039847096            4 
  369000    1.2020304   -6.2112691    172.07031  0.038859601  0.039839429            4 
  370000    1.1753035   -6.1931927    172.24217   0.03879328  0.039830799            3 
  371000    1.2375721   -6.2319095    172.11404  0.038659937    0.0398225            2 
  372000    1.1959765    -6.225046    172.75662  0.038699959  0.039814044            6 
  373000    1.1982497   -6.2065163    173.55653  0.038774918  0.039804764            2 
  374000    1.1886081   -6.2499293    173.75672  0.038715846  0.039795368            2 
  375000    1.1869834   -6.2013946     173.7205  0.038604556  0.039784858            1 
  376000    1.2092461   -6.2375185    174.48785  0.038671953  0.039777034            1 
  377000     1.184772    -6.193895    175.04379  0.038692262  0.039769836            2 
  378000    1.1940702   -6.2465127    175.28007  0.038641991   0.03976182            4 
  379000    1.1891497   -6.1795918    176.09459  0.038719128  0.039753585            2 
  380000    1.1875729   -6.2270879     176.2713  0.038655987  0.039745581            6 
  381000    1.1888035   -6.1720367    177.12371  0.038740969  0.039737666            2 
  382000     1.217172   -6.1717996    177.90392  0.038809755   0.03972976            2 
  383000    1.2002908   -6.2009092    178.40136  0.038816658  0.039721389            2 
  384000    1.1804276   -6.2344798    177.66494  0.038555759  0.039712542            4 
  385000    1.1978811   -6.2302558     178.5027  0.038636947  0.039701809            1 
  386000    1.2013866   -6.1948498    178.45756  0.038527107  0.039689206            1 
  387000    1.1754398   -6.1997605    178.22454  0.038377376  0.039676723            3 
  388000    1.1630777   -6.2441673    178.71352  0.038383488  0.039664872            3 
  389000    1.2340615   -6.2221553    179.22634  0.038394675  0.039652657            4 
  390000    1.1684592   -6.2363366    179.97934  0.038457123  0.039641776            1 
  391000    1.2085448   -6.2273203     180.8926  0.038553411  0.039631608            8 
  392000     1.195711   -6.2596062    180.17669  0.038302867  0.039621315            2 
  393000    1.1776052    -6.280089    181.06141  0.038393005  0.039610805            5 
  394000    1.1739994    -6.200235    181.93629  0.038480602  0.039599951            2 
  395000    1.1819683   -6.2623005    181.94866  0.038385793  0.039588114            3 
  396000    1.1748148    -6.259285    181.00686  0.038090669  0.039575203            5 
  397000    1.1962787     -6.25664    182.33863  0.038274271  0.039561989            1 
  398000    1.1815537   -6.2195459    183.11301  0.038340244  0.039550048            2 
  399000    1.2057358   -6.2383361     183.9605  0.038421158  0.039539044            3 
  400000    1.1919817   -6.2250479     184.5219  0.038442062  0.039528175            2 
  401000     1.176354   -6.2738618    184.96574  0.038438433  0.039517309            2 
  402000       1.1929   -6.2382565    184.68741  0.038285118  0.039506753            2 
  403000    1.1992616   -6.2162781    185.48658  0.038355371  0.039495254            2 
  404000    1.1658278   -6.2132522    186.26207  0.038420394  0.039483062            2 
  405000    1.1749602   -6.2476251    185.62146  0.038193715   0.03946998            1 
  406000    1.1962446   -6.1888773    186.80531  0.038342632  0.039457939            3 
  407000    1.1662856   -6.2264507    186.67128  0.038220983  0.039446459            3 
  408000    1.1857784   -6.2790894    186.59058  0.038110821  0.039433137            2 
  409000    1.1967318   -6.2544898    186.78019  0.038056274  0.039419808            1 
  410000    1.1959533   -6.2763197    188.11759  0.038235282  0.039406402            2 
  411000    1.1900783   -6.2422727    188.58373  0.038236767  0.039393715            3 
  412000    1.1865271   -6.2654092    187.92439  0.038010596   0.03937959            3 
  413000    1.1909101   -6.2072332    188.16138  0.037966379  0.039364465            1 
  414000    1.2004509   -6.2425258    189.04686  0.038052911  0.039350176            3 
  415000    1.1785425   -6.2526023    188.98695  0.037949187   0.03933462            4 
  416000    1.1717408   -6.2448216    189.03428  0.037867445  0.039318876            2 
  417000    1.1715681   -6.2118352    190.51232  0.038072006  0.039303684            2 
  418000    1.1741911   -6.2898865    190.07004  0.037892751  0.039289357            2 
  419000    1.2018127   -6.2748686    190.73412  0.037934391  0.039274056            3 
  420000    1.1897618   -6.2039334    191.42841  0.037981828  0.039259105            1 
  421000    1.1803993   -6.2442361    192.08482  0.038021539  0.039244432            4 
  422000    1.1849402   -6.2431333      191.943  0.037903435  0.039230392            1 
  423000    1.1563666    -6.259209    192.15473  0.037855541   0.03921539            3 
  424000    1.2025833   -6.2327362      192.771  0.037887383   0.03920006            3 
  425000     1.180126   -6.2622581    193.12548  0.037867742  0.039185553            3 
  426000    1.1820472   -6.2670836    193.56684  0.037865188  0.039171127            3 
  427000     1.200471   -6.2527208    194.45463  0.037949772  0.039157084            3 
  428000    1.1633046   -6.2616092    194.16271  0.037804266  0.039143619            3 
  429000    1.2014698   -6.2336436    195.31907  0.037940768   0.03912971            4 
  430000    1.1911077    -6.234266    195.73855  0.037933827  0.039116045            2 
  431000     1.187671    -6.264992    195.67291  0.037833122  0.039101992            2 
  432000    1.1998965   -6.2990522    196.74953  0.037953227   0.03908831            2 
  433000    1.1741978   -6.2297072    197.14654  0.037941983  0.039075642            5 
  434000    1.1835976   -6.2446388    197.33289  0.037890339  0.039063769            3 
  435000    1.1669016   -6.2364779    199.14838   0.03815103  0.039052131            2 
  436000    1.1765648   -6.2735432    198.80582  0.037998055   0.03904106            4 
  437000     1.159198   -6.2151754    199.59069  0.038060773  0.039028853            2 
  438000    1.1735314   -6.2848269    198.91795   0.03784588  0.039017129            1 
  439000    1.1839879   -6.2230931     200.4945  0.038058941  0.039005472            4 
  440000    1.1750057   -6.2552964    200.21367  0.037919256  0.038993739            9 
  441000    1.1804545   -6.2336586    201.36617  0.038051052  0.038981699            2 
  442000    1.1995815    -6.185117    202.82605  0.038240205  0.038971333            4 
  443000    1.1959598   -6.2757868    200.96082  0.037803013  0.038959443            5 
  444000    1.1926232   -6.2458751    201.20366  0.037763449   0.03894681            9 
  445000    1.1858447   -6.2679177    202.04994  0.037837067  0.038933543            3 
  446000    1.1844882   -6.2483851    202.47024  0.037830763  0.038921287            2 
  447000    1.1677828   -6.2378675    202.84735  0.037816433  0.038909184            4 
  448000    1.1736392     -6.23197    203.26393   0.03780951   0.03889683            4 
  449000    1.1670033   -6.2896217    203.26191  0.037724927    0.0388845            2 
  450000    1.2124877   -6.2501808    204.70644    0.0379086  0.038871777            3 
  451000    1.1654716   -6.2799227    203.55991  0.037612695  0.038858904            1 
  452000    1.1801783   -6.2547098    204.85741  0.037768697  0.038846568            6 
  453000    1.1785787   -6.2640973    205.61237  0.037824204  0.038834661            3 
  454000     1.166728   -6.2647775    204.83657  0.037598489  0.038822528            2 
  455000    1.2032268   -6.2581132    207.80337  0.038059224  0.038811302            2 
  456000    1.1668065   -6.2399928    207.64037  0.037945974   0.03880114            1 
  457000    1.2059468   -6.2685526    207.52543  0.037841981  0.038791521            1 
  458000    1.1667158   -6.2920696        208.1  0.037863901  0.038781308            3 
  459000    1.1679538   -6.2826539    208.99727  0.037944311   0.03877218            2 
  460000     1.192634   -6.2539885      210.527  0.038138949  0.038764102            4 
  461000    1.1666905   -6.2515438     209.5642  0.037882176  0.038755746            4 
  462000    1.1783687   -6.2919335    210.31898  0.037936324  0.038746234            3 
  463000    1.1643525   -6.2425452    211.46404  0.038060482  0.038737755            4 
  464000    1.1808103   -6.2543658    211.00817  0.037896582  0.038729291            3 
  465000    1.1693191   -6.2628145    211.62437  0.037925513   0.03872039            3 
  466000    1.1655841    -6.232599    211.96843  0.037905657  0.038711692            7 
  467000     1.183625     -6.27276     212.5307  0.037924822  0.038701723            3 
  468000     1.185173   -6.2753752    212.44647  0.037828787  0.038692296            3 
  469000    1.1656556   -6.2766589    212.46154  0.037750807  0.038681863            3 
  470000     1.156592   -6.2985236    213.04075  0.037773183  0.038671955            2 
  471000    1.1757602   -6.2617911    213.87361  0.037840342  0.038661768            2 
  472000    1.1830377   -6.2797517    214.63204  0.037894075  0.038652654            2 
  473000     1.162806    -6.293522    214.39275  0.037771802  0.038643146            3 
  474000    1.1714925   -6.2711498    214.87111  0.037776214  0.038632627            5 
  475000     1.157261   -6.2951631    214.93338  0.037707611  0.038621342            3 
  476000    1.1594275   -6.2754968    214.67089  0.037582438   0.03861046            7 
  477000    1.1715279   -6.3000727    215.84818  0.037709325   0.03859946            2 
  478000    1.1689495   -6.2527584    216.33986  0.037716155  0.038588673            3 
  479000    1.1918386   -6.2883276    216.64196  0.037689972  0.038578883            3 
  480000    1.2151876   -6.2563617    217.55151  0.037769359   0.03856924            1 
  481000    1.1837625   -6.2537946    217.88832   0.03774919  0.038558725            2 
  482000    1.1379043   -6.2605559    217.43555  0.037592592  0.038546688            2 
  483000    1.1689666   -6.2713979     218.0819  0.037626277  0.038535479            2 
  484000    1.1793969   -6.2460686    219.45131  0.037784316   0.03852487            6 
  485000    1.1746782    -6.227239     219.5142  0.037717216  0.038515121            3 
  486000    1.1735482   -6.2613295    219.62179  0.037658057  0.038505181            2 
  487000     1.197151   -6.3085145    219.63555  0.037583086  0.038495218            1 
  488000    1.1379785   -6.2400449    221.26285  0.037783956   0.03848538            3 
  489000    1.1866215   -6.2358706     221.7022  0.037781561  0.038476479            3 
  490000    1.1425906   -6.2543606    221.95436  0.037747339  0.038467651            3 
  491000    1.1556808   -6.3089853    222.26236  0.037722735  0.038458949            2 
  492000    1.1627225   -6.2816808    222.90667  0.037755195  0.038449864            2 
  493000    1.1665431   -6.2941083    223.18986  0.037726481  0.038442139            1 
  494000    1.2004896   -6.2185886     224.4919  0.037869754  0.038434381            2 
  495000    1.1898963   -6.2351086    225.28891  0.037927425  0.038427843            4 
  496000    1.1754982   -6.3037934    225.48608  0.037884085  0.038421071            1 
  497000    1.1656757   -6.2737321    225.99987  0.037894009  0.038414837            1 
  498000    1.1757985   -6.2948748    226.43528  0.037890777  0.038408788            3 
  499000    1.1553737   -6.2676903     227.7862  0.038040447  0.038403355            2 
  500000    1.1849092   -6.2907509    227.79917  0.037966529  0.038397713            2 
  501000    1.1791767   -6.3193892    228.44336  0.037997898  0.038392408            3 
  502000    1.1988073   -6.3273175    228.48744  0.037929522  0.038387417            1 
  503000    1.1733262   -6.2707817    229.28617  0.037986443  0.038382003            1 
  504000    1.1866082   -6.2590035    230.12469  0.038049718  0.038377456            2 
  505000    1.1765316   -6.2886463    229.50452  0.037872032  0.038373585            2 
  506000    1.1771401   -6.2909697    230.72994  0.037999001  0.038368019            4 
  507000    1.1913747   -6.2602779    230.66081  0.037912691  0.038362762            2 
  508000    1.1562359   -6.2599713    230.82829  0.037865532  0.038357805            4 
  509000    1.1797516   -6.2960614    232.06301  0.037993289  0.038353853            5 
  510000    1.1696918   -6.2474206    232.75528  0.038031908  0.038349751            2 
  511000    1.1711807   -6.2721779    233.16882  0.038024922  0.038345959            3 
  512000    1.1386747   -6.2868896    233.01656  0.037925873  0.038341325            8 
  513000      1.17541   -6.2386365    233.65135  0.037955059  0.038337332            3 
  514000    1.1444928   -6.2950484    234.18414  0.037967598  0.038332459            3 
  515000    1.1681663   -6.2713486    234.46453  0.037939244  0.038328579            2 
  516000    1.1535429     -6.25204    236.95473  0.038267883  0.038325309            2 
  517000    1.1953273   -6.2662775    236.49693  0.038120073  0.038322895            2 
  518000     1.156413   -6.2654525    237.55965  0.038217448  0.038320448            2 
  519000    1.1586077    -6.278049     237.4613  0.038128019  0.038317896            3 
  520000    1.1576198   -6.2572768    237.66453  0.038087264  0.038315336            1 
  521000    1.1491341   -6.3090788    237.22854  0.037944424  0.038311937            3 
  522000    1.1810158   -6.2706915    238.74774  0.038114262  0.038308411            2 
  523000    1.1357505   -6.2973769    238.83464  0.038055233  0.038304922            6 
  524000    1.1619089   -6.2933654    238.33629  0.037903354  0.038301752            3 
  525000    1.1693842   -6.2559225    239.12791  0.037956812  0.038298351            6 
  526000    1.1339566   -6.2745601    240.69318  0.038132633  0.038294892            2 
  527000    1.1872445   -6.2917827    240.26651  0.037992806  0.038291345            3 
  528000    1.1422919   -6.2755013    240.81273  0.038007059  0.038287774            2 
  529000    1.1477222   -6.2900385    241.32236  0.038015494  0.038284546            2 
  530000    1.1502131   -6.3183741    241.79504  0.038018088  0.038281537            6 
  531000    1.1521943   -6.3391476    241.64175  0.037922434  0.038278296            3 
  532000     1.170418   -6.3119198    241.79913  0.037875804  0.038275361            2 
  533000     1.180423   -6.2982642    242.13257  0.037856874  0.038271798            1 
  534000    1.1628718   -6.2846498    243.32934  0.037972743  0.038267673            3 
  535000    1.1687115   -6.3393407    242.83974  0.037825505  0.038263311            2 
  536000    1.1556913    -6.283244    243.82533  0.037908166  0.038258228            2 
  537000    1.1722842   -6.2864891    243.82897  0.037838139  0.038253395            4 
  538000    1.1530935    -6.289253    243.35167  0.037693877  0.038247785            5 
  539000     1.160397   -6.2748192    244.18473  0.037752741  0.038241143            2 
  540000    1.1675838   -6.2947659    244.40338  0.037716571  0.038233679            2 
  541000    1.1584517   -6.2983835    244.61234  0.037679042  0.038226935            2 
  542000    1.1291345   -6.2993672    246.05359  0.037831118  0.038221588            2 
  543000    1.1894535   -6.2374862    246.64608  0.037852376  0.038216064            2 
  544000    1.1804889   -6.3014865    246.42913  0.037749561  0.038210697            3 
  545000    1.1757148   -6.3271327    247.07872   0.03777962   0.03820517            2 
  546000    1.1751883   -6.2883996     247.4734  0.037770665  0.038200473            4 
  547000    1.1853027   -6.2567658    249.42777  0.037999355  0.038195779            4 
  548000     1.156044   -6.3150106    248.57644  0.037800554  0.038190677            2 
  549000      1.17946   -6.3065137    248.89438   0.03777996  0.038185926            4 
  550000    1.1518758   -6.2935151    249.50689  0.037804074   0.03818075            3 
  551000    1.1839859   -6.2899042    250.27006  0.037850886  0.038176058            2 
  552000    1.1663602   -6.2585223    251.71085  0.037999826  0.038171396            2 
  553000    1.1594902   -6.2671611    251.08729  0.037837144  0.038166798            3 
  554000    1.1321063   -6.3013037    251.62476  0.037849693  0.038162111            1 
  555000    1.1483416   -6.3372584    250.68955  0.037641073  0.038157056            4 
  556000    1.1700421   -6.2626961    251.85591  0.037748187  0.038151952            7 
  557000    1.1925156   -6.2592567    253.39815  0.037911154  0.038147788            2 
  558000    1.1469501   -6.2837421    252.63703  0.037729545  0.038143529            2 
  559000    1.1794651   -6.2834348    253.57613  0.037802047  0.038138489            3 
  560000    1.1664369   -6.3060107    252.33888  0.037550429  0.038132739            2 
  561000    1.1777698   -6.3376323    253.61347  0.037672827  0.038127384            4 
  562000    1.1414317   -6.3035025    253.96052  0.037657254   0.03812199            2 
  563000    1.1610346   -6.3083766    255.54178   0.03782442  0.038116299            7 
  564000    1.1891315   -6.2987715    255.52746  0.037755239   0.03811057            2 
  565000    1.1591274   -6.3239809    255.12943   0.03762971  0.038105621            3 
  566000    1.1418384   -6.3140377    255.86498  0.037671522  0.038100693            3 
  567000     1.153045   -6.3187058    256.93398  0.037762196   0.03809588            2 
  568000    1.1622067   -6.3098602    257.11273  0.037721938  0.038092019            2 
  569000    1.1564169   -6.2636615    257.50035  0.037712412  0.038087642            2 
  570000    1.1595476   -6.2931377    257.86386  0.037699394  0.038082762            5 
  571000    1.1545364   -6.3637003     256.8559  0.037486266    0.0380765            2 
  572000    1.1675178    -6.265548    258.87241  0.037714513  0.038070125            3 
  573000    1.1750248   -6.2865505    258.22045  0.037553876  0.038063344            2 
  574000    1.1642016   -6.2974786    259.01038  0.037603132   0.03805735            3 
  575000    1.1492419   -6.2996841    259.03667  0.037541547  0.038050251            3 
  576000    1.1822663   -6.2940706    259.80827  0.037588002  0.038043782            2 
  577000    1.1440778   -6.2835957    259.96622  0.037545671   0.03803734            6 
  578000     1.163943   -6.2636565    260.52918  0.037561877  0.038031155            2 
  579000    1.1559299   -6.3064242    260.67527   0.03751803   0.03802487            5 
  580000    1.1567351   -6.2803659    261.89472  0.037628552  0.038018187            5 
  581000    1.1513142   -6.2797476    261.61181  0.037523208  0.038012437            2 
  582000    1.1681098   -6.2805877    263.05475  0.037665343  0.038006098            3 
  583000    1.1316309   -6.3076828    261.71402  0.037409094  0.037999406            4 
  584000    1.1617294   -6.2740941     263.6647  0.037623387  0.037992762            2 
  585000    1.1617499   -6.2812629    262.62002  0.037410259    0.0379863            3 
  586000    1.1494765   -6.3020773    263.37872  0.037454312  0.037978943            5 
  587000    1.1389561   -6.3158994    263.02401  0.037340149  0.037972232            1 
  588000    1.1693251   -6.3181784    263.85574  0.037394521  0.037964693            5 
  589000    1.1321729   -6.3772015    263.92377  0.037340658  0.037957418            3 
  590000     1.151863   -6.3116053    265.47633  0.037496657  0.037949797            4 
  591000    1.1733753   -6.2643688    265.26254  0.037403066  0.037942349            2 
  592000    1.1583579   -6.3131643    266.05976  0.037452107  0.037935578            4 
  593000    1.1335356   -6.2887561    267.52287  0.037594557  0.037929026            2 
  594000    1.1450825   -6.3387031    266.02894   0.03732168    0.0379222            1 
  595000    1.1586402   -6.2793224    267.64174  0.037484838  0.037915955            2 
  596000    1.1609703   -6.3181152    267.07048   0.03734207    0.0379098            5 
  597000    1.1472264   -6.3119353    267.10032  0.037283685  0.037903215            6 
  598000    1.1532876   -6.2985886    267.89907  0.037332646  0.037895755            2 
  599000    1.1687368   -6.2892231    267.17597  0.037169723  0.037887704            4 
  600000    1.1492471   -6.3532073    268.62756  0.037309384  0.037880264            4 
  601000    1.1525168   -6.3177709    268.91564   0.03728725  0.037872937            4 
  602000    1.1571477   -6.3363741      269.191  0.037263428  0.037866167            2 
  603000    1.1606353   -6.3150947    269.58461  0.037256027  0.037858727            4 
  604000    1.1517789   -6.2743057    271.54975  0.037465473  0.037851718            3 
  605000    1.1519156   -6.2864941     271.3988  0.037382755  0.037844401            4 
  606000    1.1606202   -6.2864423    271.25626  0.037301467  0.037836825            3 
  607000    1.1484798    -6.310178    271.89228  0.037327331  0.037829274            2 
  608000    1.1508274   -6.3107464    271.28144  0.037182215  0.037821303            3 
  609000    1.1310931   -6.3232067    272.43469  0.037278966     0.037814            3 
  610000    1.1605204    -6.265711     272.8812  0.037278852  0.037806382            2 
  611000    1.1509782   -6.3195426    274.12451  0.037387413  0.037799135            5 
  612000    1.1703515   -6.3415701     273.2996  0.037213998    0.0377916            2 
  613000     1.141881   -6.3170458    274.49364  0.037315611  0.037783686            1 
  614000    1.1870938   -6.3488918     273.6158  0.037135695  0.037776439            3 
  615000    1.1537293   -6.3428632    273.94778  0.037120295  0.037768601            1 
  616000    1.1580465   -6.2907057     274.8231   0.03717845  0.037760623            1 
  617000    1.1279552   -6.3271253    275.38469  0.037194042   0.03775254            3 
  618000    1.1453806    -6.258567    276.87103  0.037334281  0.037744975            3 
  619000      1.14801   -6.3386787    275.81751  0.037132136  0.037737726            4 
  620000    1.1336594    -6.318341    276.70933  0.037192115  0.037730137            2 
  621000    1.1920481   -6.3119897    277.96825  0.037301161  0.037723606            3 
  622000    1.1415112   -6.3273784    278.89814  0.037365775  0.037717185            3 
  623000    1.1326753   -6.3410613    277.78816  0.037157325  0.037710657            4 
  624000    1.1473064   -6.2937192    279.46202  0.037321317  0.037703949            1 
  625000    1.1452719    -6.373181    278.01799  0.037069065  0.037697379            2 
  626000    1.1438177   -6.3103542    280.14725  0.037293298  0.037690976            2 
  627000    1.1400809   -6.3353473    280.65528   0.03730134  0.037684702            3 
  628000    1.1542697   -6.2771474    281.30463  0.037328109  0.037678913            3 
  629000    1.1535187   -6.3527435    280.98647  0.037226612  0.037672936            3 
  630000    1.1766299   -6.3556193    282.09868   0.03731464   0.03766633            2 
  631000    1.1589293   -6.3217552    282.68011  0.037332291   0.03765974            1 
  632000    1.1622651   -6.3499149    282.21405  0.037211768  0.037653883            5 
  633000    1.1402495   -6.3156702    283.85237  0.037368664  0.037648042            4 
  634000    1.1488756   -6.3291303    282.21623  0.037094668  0.037642594            4 
  635000    1.1609775   -6.3351873    284.27234  0.037306081  0.037636682            3 
  636000    1.1638483   -6.3190686    284.23141  0.037242062  0.037630493            3 
  637000    1.1548136    -6.341076    285.55753  0.037357081  0.037624938            4 
  638000    1.1606085   -6.3033335    285.19764  0.037251521    0.0376198            3 
  639000    1.1341345   -6.3692897    285.66857  0.037254638  0.037614588            4 
  640000     1.140968   -6.3499675    286.15035   0.03725916  0.037609153            4 
  641000    1.1582043    -6.261926    288.98985  0.037570183  0.037604006            3 
  642000    1.1644372   -6.3272718    287.56401  0.037326585  0.037599622            2 
  643000    1.1595996   -6.2866028    288.57805  0.037399955  0.037594933            3 
  644000    1.1408564   -6.3446941      288.663  0.037352872  0.037590521            3 
  645000    1.1339531   -6.3603422    288.01518  0.037211263  0.037585459            2 
  646000    1.1462253   -6.3387316      289.117  0.037295794  0.037580576            5 
  647000    1.1656986   -6.2821505    290.27066  0.037386741  0.037575487            3 
  648000    1.1467953   -6.3292633    289.99078  0.037293053  0.037570943            5 
  649000    1.1431549   -6.3201348    290.28458  0.037273315  0.037565439            3 
  650000    1.1487626   -6.3608796    289.58564  0.037126364  0.037559805            3 
  651000    1.1503328   -6.3340575    290.19989  0.037147963  0.037553922            2 
  652000    1.1210637   -6.3102153    291.21526  0.037220764  0.037547913            2 
  653000    1.1525007   -6.3163757    290.99745  0.037135969  0.037542358            6 
  654000    1.1368265   -6.3778264    291.11795   0.03709454  0.037536205            2 
  655000    1.1399304   -6.3681336    292.09529   0.03716225   0.03753012            2 
  656000    1.1709066   -6.3292385    292.34938  0.037137878  0.037524391            2 
  657000    1.1558464    -6.353547    292.24641  0.037068292  0.037518772            2 
  658000    1.1392028   -6.3768282    292.94709  0.037100696  0.037512881            4 
  659000    1.1278032   -6.3256557    293.72427  0.037142675  0.037506305            5 
  660000     1.141712   -6.3429126    293.66696  0.037079161  0.037499577            3 
  661000    1.1583458   -6.3427191    294.26009  0.037097843  0.037492721            6 
  662000    1.1577155   -6.3510664    294.43071  0.037063282  0.037486332            4 
  663000     1.148249   -6.3405886    294.91844  0.037068682  0.037480029            2 
  664000    1.1498227   -6.3449209    294.75204  0.036991973  0.037473542            1 
  665000     1.138504   -6.3349208    296.06894  0.037101371  0.037466792            2 
  666000    1.1340216   -6.3051475    296.22547  0.037065249  0.037460788            4 
  667000    1.1345302   -6.3493078    295.99333  0.036980675  0.037454651            3 
  668000    1.1542929    -6.289481    297.94408  0.037168672  0.037448297            3 
  669000    1.1309513   -6.2841878    298.53118  0.037186246  0.037442517            2 
  670000    1.1441991   -6.3568157    297.85345   0.03704645  0.037437092            4 
  671000    1.1344881   -6.3244805    299.03523  0.037138006  0.037431211            4 
  672000    1.1259428    -6.300863    299.24737  0.037109049  0.037425121            4 
  673000    1.1465643   -6.3682042    297.87394  0.036883846  0.037419214            3 
  674000    1.1312025   -6.3167809    299.39188    0.0370168  0.037412767            2 
  675000    1.1214142   -6.3442831    298.80616   0.03688965  0.037406269            5 
  676000    1.1571382   -6.3209894    300.24333  0.037012245  0.037400239            4 
  677000    1.1448025   -6.3509437    299.56309  0.036873841  0.037393653            4 
  678000    1.1254043   -6.3262328    299.81034  0.036849845  0.037387017            2 
  679000    1.1675894   -6.3186816    302.77225  0.037159088  0.037381068            3 
  680000    1.1802098    -6.331272    302.60089  0.037083443  0.037374983            3 
  681000    1.1563337   -6.3219725     300.9627  0.036828524   0.03736797            3 
  682000    1.1322733   -6.3455827    301.57301  0.036849097  0.037360357            2 
  683000    1.1279442   -6.3452013     301.8413  0.036827879  0.037352833            4 
  684000    1.1456424   -6.3846571    300.94943  0.036665379  0.037345196            2 
  685000    1.1169526   -6.3679388    301.73051  0.036706874  0.037337226            3 
  686000    1.1321677   -6.3561972    303.48661  0.036866692  0.037329828            3 
  687000    1.1085646   -6.3088209    303.77007  0.036847413  0.037322373            5 
  688000    1.1496436    -6.319512    304.39989  0.036870142  0.037314463            3 
  689000    1.1344348   -6.3725637    303.00532  0.036647958  0.037306891            4 
  690000     1.154693   -6.3282628    303.31214    0.0366319  0.037299427            2 
  691000    1.1754226   -6.3466136    305.29109  0.036817546  0.037291354            3 
  692000    1.1318668    -6.373106    304.37884  0.036654484  0.037283049            5 
  693000    1.1397635   -6.3288214    306.20302   0.03682095  0.037274847            4 
  694000    1.1692772   -6.3652825    305.69822  0.036707279  0.037266885            4 
  695000    1.1286581   -6.3590944    306.30442  0.036727149  0.037258765            4 
  696000    1.1280548    -6.344992    306.89386  0.036744955  0.037251147            2 
  697000    1.1405103   -6.3531274     307.6035   0.03677708  0.037243273            2 
  698000     1.118823   -6.3369932    307.32783  0.036691479  0.037235707            2 
  699000    1.1298866   -6.3157818    308.34658  0.036760441  0.037228058            4 
  700000    1.1235785   -6.3250293    308.65035  0.036744089  0.037220119            4 
  701000    1.1457533   -6.3733896    307.36412  0.036538768  0.037212162            1 
  702000    1.1600267   -6.3546674    309.38338  0.036726422  0.037204178            4 
  703000    1.1396421   -6.3685265    308.83121  0.036608725  0.037196255            3 
  704000    1.1593249   -6.3610292    309.66006  0.036654837  0.037188875            3 
  705000     1.123279   -6.3447601     309.5893   0.03659448  0.037181304            3 
  706000    1.1392545   -6.3683062    311.50237  0.036768457  0.037173932            5 
  707000    1.1623798   -6.3596136    310.06168  0.036546638  0.037166766            4 
  708000    1.1407191   -6.3686316    311.27494  0.036637822  0.037158833            2 
  709000    1.1387457   -6.3713538     312.3622   0.03671394  0.037150731            4 
  710000    1.1380396   -6.3551238    313.17407   0.03675752  0.037143685            6 
  711000    1.1252072   -6.3738005    311.97765  0.036565594  0.037136875            3 
  712000    1.1480966   -6.3465461    312.73832  0.036603268  0.037129778            5 
  713000    1.1392081    -6.359405    312.60921  0.036536841  0.037122105            2 
  714000    1.1163095   -6.3730891    313.87803  0.036633757  0.037114823            7 
  715000     1.127911   -6.3619524    314.39997  0.036643353  0.037107678            3 
  716000    1.1416669   -6.3430255    314.86526  0.036646329  0.037100784            4 
  717000     1.121369   -6.3645168    316.46791  0.036781487  0.037094315            3 
  718000    1.1163504    -6.386446    315.84839  0.036658355  0.037087805            4 
  719000    1.1347451   -6.3712292    317.43351  0.036791089  0.037081034            4 
  720000    1.1610386   -6.3729232    316.19582  0.036596738  0.037074205            2 
  721000    1.1701261   -6.3335492    317.12335  0.036653184   0.03706732            2 
  722000    1.1401144   -6.3741318    317.39568  0.036633851  0.037060624            3 
  723000    1.1210358   -6.3618036    318.41743  0.036700949  0.037053881            5 
  724000    1.1570931   -6.3591182    317.79571  0.036578696  0.037046805            4 
  725000    1.1213002    -6.343668     319.7976  0.036758344  0.037040067            3 
  726000    1.1397198    -6.377194    318.63523  0.036574292  0.037032744            3 
  727000    1.1312261    -6.377565    318.90924  0.036555392  0.037025229            4 
  728000    1.1638961   -6.3693493    319.86039  0.036614056  0.037018083            1 
  729000    1.1431267   -6.3632106    320.84734   0.03667665  0.037010787            4 
  730000    1.1524846   -6.3719054    320.60047  0.036598228  0.037003662            3 
  731000    1.1389903   -6.3427993    320.74253  0.036564356  0.036996534            3 
  732000    1.1396646   -6.3823003    321.12818  0.036558308  0.036989417            1 
  733000    1.1186232   -6.3973449    321.44556  0.036544516  0.036982066            3 
  734000     1.125031   -6.4005869    321.83596   0.03653905  0.036974941            2 
  735000    1.1195312    -6.380263    322.94898   0.03661553   0.03696796            3 
  736000    1.1304274   -6.3596894    323.65875  0.036646145  0.036960934            2 
  737000    1.1442722   -6.3394915    323.06015  0.036528737  0.036954248            3 
  738000    1.1094081   -6.3761112    322.94653   0.03646641  0.036946888            4 
  739000    1.1459995   -6.3587552    323.70564  0.036502666  0.036939892            3 
  740000     1.124456   -6.4175041    323.47945  0.036427866  0.036932282            1 
  741000    1.1483178   -6.3598719    325.10627  0.036561658  0.036925207            3 
  742000    1.1575245   -6.3943386    325.14135  0.036516324  0.036918047            2 
  743000    1.1310035   -6.3608178    325.44245  0.036500947  0.036910671            3 
  744000    1.1405153   -6.3733896    325.41743  0.036449085  0.036903133            4 
  745000    1.1305505   -6.3810238     325.5479  0.036414754  0.036895635            6 
  746000    1.0907866   -6.3646677    325.95998  0.036411973   0.03688827            3 
  747000     1.130617   -6.3960712    325.78407  0.036343605  0.036880628            2 
  748000     1.148139   -6.3624578    326.76693  0.036404515  0.036873089            1 
  749000    1.1702391    -6.373491    326.22284  0.036295376  0.036865481            4 
  750000    1.1607864   -6.3545872    327.26804  0.036363115  0.036857953            3 
  751000    1.1597217   -6.3788872    327.34286  0.036322998  0.036850703            2 
  752000    1.1095003   -6.3768465    328.58364  0.036412194  0.036843844            2 
  753000    1.1108372   -6.3617041    328.88687  0.036397396  0.036836246            5 
  754000     1.152545   -6.3767417    328.96849  0.036358145   0.03682876            4 
  755000    1.1273711   -6.3380545    330.11966  0.036437048   0.03682166            6 
  756000    1.1537312   -6.3805659    329.51228    0.0363219  0.036814017            2 
  757000     1.143663   -6.3292662     330.0275  0.036330636  0.036806571            2 
  758000    1.1232719   -6.3937652    328.52693  0.036117736  0.036798615            2 
  759000    1.1407247   -6.3851149    329.34258  0.036159703  0.036790647            4 
  760000    1.1427141   -6.3651199    330.91457  0.036284492  0.036782599            2 
  761000    1.1261592   -6.3679564    330.63828  0.036206557  0.036774645            2 
  762000    1.1371172   -6.4214693    331.35466  0.036237386  0.036766486            7 
  763000    1.1479905   -6.4090979    330.97871  0.036148833  0.036758334            3 
  764000    1.1248999   -6.3604715    333.00314  0.036322332  0.036750231            2 
  765000    1.1586306   -6.3853154    333.20251   0.03629657  0.036742504            6 
  766000    1.1340251   -6.3359866    333.56279   0.03628838  0.036734846            2 
  767000    1.1125666     -6.37032    334.44027  0.036336405  0.036727285            1 
  768000    1.0979076   -6.3838658    334.18013  0.036260865  0.036719884            2 
  769000    1.1398188    -6.371197     334.1722  0.036212852   0.03671202            1 
  770000    1.1119683    -6.376746    334.73824  0.036227082  0.036703759            5 
  771000    1.1285345   -6.3468197    335.88699  0.036304257  0.036695463            2 
  772000    1.1098275   -6.3946343    334.91286  0.036152079  0.036687698            4 
  773000    1.1534896   -6.3431103    334.38457  0.036048359  0.036679213            1 
  774000    1.1254586   -6.3427064    336.78717  0.036260462  0.036671152            4 
  775000    1.1368572   -6.3976003    336.01373  0.036130509  0.036662877            3 
  776000    1.1318337   -6.3681758    336.05859  0.036088766  0.036654114            3 
  777000    1.1340327   -6.4287787     334.5125  0.035876502  0.036645265            3 
  778000     1.098558   -6.3539675    336.24563  0.036016027  0.036636189            3 
  779000    1.1291743   -6.3996958    337.47212  0.036100997  0.036627482            1 
  780000    1.1381804   -6.3587817    337.83149  0.036093108  0.036619188            4 
  781000    1.1400018   -6.4169491    337.46797  0.036008106  0.036610054            2 
  782000    1.1158596   -6.4264915    337.38672  0.035953401  0.036601144            3 
  783000     1.136352   -6.3599942    338.39866  0.036015183  0.036592625            2 
  784000    1.1276189   -6.3758198    339.64743   0.03610198  0.036584711            6 
  785000    1.1197089   -6.3595586    339.16017  0.036004264  0.036576341            4 
  786000    1.1154377   -6.3800682    339.63432  0.036008727   0.03656828            5 
  787000    1.1262685   -6.3891559    340.60381   0.03606563  0.036560209            3 
  788000    1.1346134   -6.3979594    340.82234  0.036042971  0.036552524            3 
  789000    1.1198045    -6.377687    340.97983  0.036013924  0.036544545            8 
  790000    1.1172727   -6.3634633    343.01315  0.036182821  0.036536921            2 
  791000    1.1134136   -6.3936253    341.49173  0.035976794  0.036528962            4 
  792000    1.1266981   -6.3859188    342.87015  0.036076405  0.036521502            4 
  793000     1.093907   -6.3651877    342.76506  0.036019867   0.03651367            3 
  794000     1.116022   -6.4174043    342.32459  0.035928273  0.036505503            8 
  795000    1.0968447   -6.3645121    343.67613  0.036024751   0.03649759            3 
  796000    1.1173818   -6.4037814    343.70242  0.035982247  0.036489713            4 
  797000    1.1272008   -6.3707035    344.50076  0.036020573  0.036481729            3 
  798000    1.1159602   -6.4126925    344.41636   0.03596662  0.036473795            3 
  799000     1.117036   -6.3955283    344.61867  0.035942706  0.036466242            2 
  800000    1.1201915    -6.371381    346.80874   0.03612591  0.036458515            4 
  801000    1.1222659   -6.3882378    345.99227  0.035995867  0.036451086            4 
  802000    1.1146654   -6.3948853     345.7264  0.035923359  0.036443142            1 
  803000    1.1271784   -6.4173253    346.12827  0.035920327  0.036435304            5 
  804000     1.126137   -6.3724545    347.14055  0.035980571  0.036426964            2 
  805000    1.1348885   -6.3729266    348.13618  0.036038942  0.036418993            5 
  806000     1.115032   -6.4010111     347.7441  0.035953691  0.036411114            2 
  807000    1.1172784   -6.3690404    347.53562  0.035887611  0.036402956            2 
  808000    1.1163475   -6.3708378    348.49288  0.035941923  0.036394515            3 
  809000    1.1226911   -6.3910487    349.38655   0.03598955   0.03638627            2 
  810000    1.1022049   -6.3689705    347.80389  0.035782293  0.036378086            3 
  811000    1.1357193     -6.36801    349.15691    0.0358772  0.036369341            2 
  812000    1.1241539   -6.4607746    347.00587  0.035612261  0.036360464            2 
  813000    1.1220192   -6.4036839    348.53274  0.035724963  0.036351457            3 
  814000    1.1431624   -6.4096184    349.43608  0.035773554  0.036342288            5 
  815000    1.0833161    -6.425952    347.82052   0.03556447  0.036332775            4 
  816000    1.1186144   -6.4187797    348.86661  0.035627718  0.036323011            9 
  817000    1.1107491   -6.4103231     348.4592  0.035542554  0.036313243            4 
  818000    1.1303684   -6.4242892    348.83229  0.035537112  0.036303173            7 
  819000    1.1456511   -6.3686391    350.35562   0.03564872  0.036293592           10 
  820000    1.1159352   -6.3957036     349.8459  0.035553445  0.036283733            4 
  821000    1.1273571    -6.374612     350.5442  0.035581019  0.036274055            4 
  822000    1.1039169   -6.4230695      350.175  0.035500304  0.036264236            8 
  823000    1.1044757    -6.409556    351.42089  0.035583323  0.036254205            3 
  824000    1.1481642   -6.4277128    350.43552  0.035440486  0.036244277            3 
  825000     1.141576   -6.3914553    352.45861   0.03560188  0.036234239            5 
  826000    1.1206813   -6.3904036    353.26864  0.035640501  0.036224823            2 
  827000    1.1069018   -6.4127342    352.25959  0.035495726  0.036214726            3 
  828000    1.1415093   -6.4207255    353.18716  0.035546212  0.036204522            5 
  829000    1.1386173   -6.4018597    352.86761  0.035471211   0.03619439            2 
  830000    1.1011949   -6.3936749    353.09875  0.035451682  0.036184599            4 
  831000     1.114375   -6.3851683    353.92235  0.035491611  0.036175447            2 
  832000    1.1037443   -6.3969764    354.53879  0.035510696  0.036166093            4 
  833000    1.1143395   -6.4202388    354.84335  0.035498534  0.036156713            3 
  834000    1.1282157   -6.4075831    355.10158  0.035481772  0.036146982            3 
  835000    1.1303511   -6.4262668    356.13242  0.035542157  0.036137518            4 
  836000    1.1491876   -6.4229128    356.69724  0.035555945  0.036128332            5 
  837000    1.1316421   -6.4013921    357.03746  0.035547338  0.036119295            3 
  838000    1.1477983   -6.4608656    356.89322  0.035490574  0.036110389            5 
  839000    1.1165157   -6.4116857    357.82965  0.035541285  0.036101179            2 
  840000    1.1158102    -6.435371     356.7198  0.035388869  0.036091745            2 
  841000    1.0970723    -6.381412    358.01526  0.035475154  0.036082259            3 
  842000    1.1185158   -6.3728171    358.66622  0.035497448  0.036073203            2 
  843000    1.1213164   -6.4068351    358.19734   0.03540899  0.036064087            4 
  844000     1.104815   -6.3992419    359.15799  0.035461887  0.036054545            5 
  845000    1.1408591   -6.4121296    358.46815  0.035351889  0.036045394            2 
  846000    1.0991909   -6.3856803    358.57765  0.035320887  0.036035949            4 
  847000    1.1055318   -6.4136694    359.15637  0.035336124  0.036026397            2 
  848000    1.1112223   -6.3856989    361.14374  0.035489755  0.036016866            4 
  849000    1.1145383   -6.3956219    360.93791   0.03542775  0.036008107            4 
  850000    1.0951402   -6.4201222    359.82805  0.035277259  0.035998708            2 
  851000    1.1076124   -6.3921635    360.83748  0.035334653  0.035989522            3 
  852000    1.1127051   -6.4126171     361.9598  0.035402954  0.035980122            6 
  853000    1.1536367   -6.4057079    363.09965  0.035472806  0.035970699            3 
  854000    1.1248455   -6.4228509     362.1039  0.035334104  0.035961295            4 
  855000    1.1072805    -6.404383    362.33051  0.035314864  0.035951755            5 
  856000    1.1224409   -6.3705529    362.34153  0.035274682  0.035942216            3 
  857000    1.1318022   -6.3980039    361.95763  0.035196191  0.035932394            3 
  858000    1.1222028   -6.4128173    362.63981  0.035221427  0.035922528            2 
  859000    1.1088697   -6.3908621    364.16286  0.035328178   0.03591276            2 
  860000    1.0883902   -6.4660414    361.93284  0.035071011  0.035902706            4 
  861000    1.1103064   -6.4372908    362.94507   0.03512825  0.035892415            4 
  862000    1.1231466   -6.3960927    364.99825  0.035285987  0.035882622            7 
  863000    1.0803833   -6.4008433    363.95526  0.035144386  0.035872734            2 
  864000    1.1212887    -6.399725    364.77348  0.035182627  0.035862507            3 
  865000    1.1061087   -6.3888304    365.53145  0.035214976  0.035852919            3 
  866000    1.1382989   -6.4047818    364.63906  0.035088439  0.035843219            3 
  867000    1.1312839    -6.430892     365.1941  0.035101317  0.035832855            2 
  868000    1.1082865   -6.4371068    365.02128  0.035044285  0.035822646            3 
  869000    1.0881285   -6.4201365    365.99837  0.035097658  0.035812558            4 
  870000    1.0856995   -6.4076457    367.56942  0.035207799  0.035801834            3 
  871000    1.0888954   -6.4013129    366.37799  0.035053386  0.035791693            5 
  872000     1.110911   -6.4156468      366.485  0.035023413  0.035780863            9 
  873000    1.1129968   -6.4135493    366.62517  0.034996676  0.035770354            1 
  874000    1.1047131   -6.4429087    366.73297  0.034966911  0.035760076            3 
  875000    1.1004541    -6.420221    367.01618  0.034953921  0.035749203            2 
  876000    1.1371298   -6.4665778    366.04321  0.034821462  0.035738227            1 
  877000    1.0928746   -6.4128988    368.69112  0.035033364  0.035727164            4 
  878000    1.1085557    -6.432762    368.19536  0.034946408  0.035716352            4 
  879000    1.1287217   -6.4021184    369.06504  0.034989101  0.035705568            4 
  880000    1.1103865   -6.3920063    369.56325   0.03499652  0.035695378            3 
  881000     1.094894   -6.4079363    369.58256  0.034958623  0.035685013            6 
  882000    1.0955758   -6.4517205    370.13573  0.034971252  0.035674713            3 
  883000    1.1031685   -6.4104713    371.31576  0.035043012  0.035664699            5 
  884000    1.1025357   -6.4273166    369.57418  0.034839195   0.03565439            2 
  885000    1.1067462   -6.4304784    369.45345  0.034788461  0.035644151            2 
  886000     1.128826   -6.4336332    371.84531  0.034974164  0.035633955            6 
  887000    1.1123079   -6.4638327    371.45022  0.034897616  0.035623899            3 
  888000    1.1106347   -6.4239366    372.31312  0.034939294  0.035613877            4 
  889000    1.1320666   -6.4563222    372.93401  0.034958193  0.035604349            4 
  890000    1.0977083   -6.4204144    373.60887  0.034982104  0.035594469            2 
  891000    1.0922989    -6.436461    373.47716  0.034930524  0.035584574            3 
  892000    1.1056934   -6.4261386    373.37311  0.034881643   0.03557449            3 
  893000    1.0742504   -6.4328221    373.54929  0.034859023  0.035564581            4 
  894000    1.1233556   -6.3845772    375.59965  0.035011153  0.035554479            5 
  895000    1.0861384   -6.4133757    374.72261  0.034890373  0.035544307            3 
  896000    1.0843026   -6.4389512    375.12407  0.034888771   0.03553422            4 
  897000    1.1066007   -6.4432747    373.99071  0.034744584  0.035524387            3 
  898000    1.0929995   -6.4702177    374.29092  0.034733753  0.035514346            3 
  899000    1.0997259   -6.4050824    375.92366  0.034846464  0.035504059            2 
  900000    1.1109529   -6.4268505    375.74249  0.034790971  0.035493717            3 
  901000    1.1155196   -6.4551093    377.11097  0.034878928  0.035483367            3 
  902000    1.1126559   -6.4254916    377.22701   0.03485098  0.035473335            5 
  903000    1.1158183   -6.4746544    375.30731  0.034635226  0.035463096            2 
  904000    1.1131534    -6.427041    377.76996  0.034823927   0.03545301            2 
  905000    1.1480407   -6.4563517    376.49981  0.034668491   0.03544254            3 
  906000    1.1068043   -6.4266302    378.00956  0.034769092  0.035432143            4 
  907000     1.074632    -6.401154    378.28962  0.034756488  0.035421858            3 
  908000    1.0996068   -6.4080488    378.18723  0.034708813  0.035411498            9 
  909000    1.0981293   -6.4324373    378.67149  0.034715025  0.035401115            5 
  910000    1.1406495   -6.4349001    379.19533  0.034724847  0.035391225            3 
  911000    1.1134363   -6.4201309    379.38668  0.034704233  0.035381295            5 
  912000    1.1297228   -6.4339388    381.01173  0.034814668   0.03537145            3 
  913000    1.0889846   -6.4601524    380.91559  0.034767761  0.035361584            3 
  914000    1.0945399   -6.4367043    381.54622   0.03478722  0.035352007            3 
  915000    1.1127014   -6.4644853    380.82391  0.034683416  0.035342299            6 
  916000    1.0879813   -6.4414909    380.94674  0.034656727  0.035332351            4 
  917000    1.0969245   -6.4358459    383.45024  0.034846441  0.035323072            3 
  918000    1.1079613   -6.4334064    383.06031  0.034773086  0.035313374            2 
  919000    1.1124036   -6.4530979    384.04088  0.034824164    0.0353038            6 
  920000    1.1017769   -6.4131654    384.10286  0.034791925  0.035294634            3 
  921000    1.1004403   -6.4089063    384.30711   0.03477263  0.035285659            4 
  922000    1.1091179   -6.4224124    384.73053  0.034773186  0.035276921            2 
  923000    1.0883206   -6.4306107    385.06625  0.034765822  0.035268031            5 
  924000    1.0864251   -6.4473664    384.31397  0.034660351  0.035258815            2 
  925000    1.1013938   -6.4574245    385.20895  0.034703509   0.03524933            1 
  926000    1.0951119   -6.4434886    385.43328   0.03468622  0.035240206            3 
  927000    1.1109213   -6.4478564    386.54876  0.034749079  0.035230928            3 
  928000    1.1180925   -6.4403722    388.70874  0.034905598  0.035221964            3 
  929000     1.118809   -6.4138318    387.22247  0.034734703  0.035213282            2 
  930000    1.0970567   -6.4271733    388.55489  0.034816746   0.03520425            3 
  931000    1.1129377   -6.4320018    388.11272  0.034739771  0.035195309            2 
  932000    1.0853403   -6.4523807    387.40073  0.034638835  0.035186197            3 
  933000    1.1200603   -6.4670167     387.8848  0.034644944  0.035176917            2 
  934000    1.1138107    -6.454377    388.02989  0.034620797  0.035167878            3 
  935000    1.1229447   -6.4324965     389.3422  0.034700731  0.035158986            5 
  936000    1.1113525   -6.4538752    389.50624  0.034678262  0.035150403            2 
  937000    1.0893164   -6.4252903     391.3797  0.034807871  0.035141806            4 
  938000    1.0901396   -6.4115549    392.71168  0.034889098    0.0351337            3 
  939000    1.0765519   -6.4606443    390.71458  0.034674705  0.035125388            4 
  940000    1.1210463   -6.4134834    391.41721  0.034700107  0.035116845            2 
  941000    1.1238613   -6.4241985    391.68049  0.034686547  0.035108286            5 
  942000     1.127525   -6.4340737    392.74443  0.034743845   0.03510012            3 
  943000    1.1013179   -6.4189081    393.91302  0.034810271  0.035091753            3 
  944000    1.1081328   -6.4128634    392.91975  0.034685712  0.035083666            3 
  945000    1.0941247   -6.4550844    392.61852  0.034622444  0.035075131            3 
  946000     1.103162   -6.4704002    394.18875  0.034724167  0.035066353            3 
  947000    1.0850813   -6.4464937    393.84255  0.034657035  0.035057748            2 
  948000    1.1035851   -6.4578922    393.57435  0.034596901  0.035048993            6 
  949000    1.1043526   -6.4625747     393.3663  0.034542176  0.035040284            3 
  950000    1.1038995   -6.4057882    394.82327   0.03463362  0.035031781            4 
  951000    1.0785183   -6.4809456    394.10424  0.034534195  0.035023192            4 
  952000    1.0992141   -6.4015278    396.15827   0.03467772  0.035014511            1 
  953000    1.0882612   -6.4439711    395.92474  0.034620911  0.035005965            2 
  954000    1.1039768   -6.4851139     395.3108  0.034530992  0.034997337            4 
  955000    1.1063127   -6.4058331     396.0401  0.034558473  0.034988354            6 
  956000    1.0793273   -6.4403958     397.2518  0.034627946  0.034979563            2 
  957000    1.0948908   -6.4749654    396.55745    0.0345313  0.034970863            6 
  958000    1.1118617   -6.4994975    396.16801  0.034461379  0.034962299            3 
  959000    1.0824408   -6.4417327    398.15607  0.034598198  0.034953344            6 
  960000    1.0644558   -6.4811322    397.23302  0.034482033  0.034944731            6 
  961000    1.0829159   -6.4735803    397.39493  0.034460192  0.034935787            5 
  962000    1.0658704   -6.4642715    398.92905  0.034557264  0.034926823            3 
  963000    1.1009726   -6.4891307    397.44594  0.034393038  0.034917868            2 
  964000    1.0751656   -6.4440065    399.85249  0.034565395  0.034908721            2 
  965000    1.0992126   -6.4270581    400.35586  0.034573045  0.034900188            2 
  966000    1.0949587   -6.4597903    398.45166  0.034372986  0.034891293            3 
  967000    1.0998076   -6.4381848    398.78478  0.034366148  0.034882369            2 
  968000    1.0836115   -6.4350162     399.8925  0.034426008  0.034873762            5 
  969000    1.0850546   -6.4666413     399.4465  0.034352124  0.034865022            6 
  970000    1.1018334   -6.4574738    399.90187  0.034355831  0.034855889            5 
  971000    1.0821879   -6.4203467    401.41424  0.034450243  0.034847074            2 
  972000    1.0941093   -6.4456809    400.73752  0.034356783  0.034838638            5 
  973000     1.088656   -6.4449961    401.08549  0.034351276  0.034829666            4 
  974000    1.1167875    -6.460568    400.91004  0.034300996  0.034820604            2 
  975000    1.0909881   -6.4755462    400.74135  0.034251398  0.034811494            5 
  976000    1.1053639   -6.5068235    400.94356  0.034233569  0.034802448            2 
  977000    1.0928851   -6.4773842    401.52451  0.034248082  0.034793032            3 
  978000    1.0991855   -6.4889238    401.62273  0.034221432  0.034783392            4 
  979000     1.107871   -6.4620974    402.22888  0.034238073  0.034774168            3 
  980000    1.1334709   -6.5123898    401.02622  0.034100869  0.034764625            3 
  981000    1.0938939   -6.4565473    403.84481   0.03430554  0.034755208            2 
  982000    1.0995567   -6.4352456    404.49307  0.034325617  0.034746069            2 
  983000      1.08875   -6.4739715    403.03818   0.03416736  0.034737078            4 
  984000    1.1218502   -6.4493101     403.8253  0.034199297  0.034727956            6 
  985000    1.0961584   -6.4660703    405.37265  0.034295486  0.034718472            2 
  986000    1.0988275   -6.4921568    404.48357  0.034185562  0.034709046            2 
  987000    1.0949349   -6.4851536     404.2194  0.034128622  0.034699544            3 
  988000    1.1091404    -6.449457     405.0075  0.034160552  0.034690117            3 
  989000    1.0943604   -6.4649284    405.77447  0.034190636  0.034680796            3 
  990000    1.0807197   -6.5012469     405.2302  0.034110287  0.034671288            3 
  991000    1.0751728   -6.4479192    406.55553  0.034187313  0.034661701            2 
  992000    1.1066747   -6.4903262    404.49463  0.033979723  0.034651886            4 
  993000     1.074706   -6.4559566    406.48736  0.034112735  0.034642331            3 
  994000    1.0974697   -6.5067469    406.02584  0.034039725  0.034632871            6 
  995000    1.0856778    -6.474326    408.69547  0.034229101  0.034623544            6 
  996000     1.116063   -6.4598532    407.16245   0.03406647  0.034614167            4 
  997000    1.0812616   -6.4829598    406.54788  0.033980933  0.034604773            3 
  998000    1.0996044    -6.494113    407.48264  0.034024937  0.034594903            3 
  999000    1.1055416   -6.4638021    408.24918   0.03405482  0.034585381            4 
 1000000    1.0897764    -6.461246    408.97834  0.034081528  0.034576006            3 
 1001000    1.0811997    -6.489576    407.99139  0.033965317  0.034566206            3 
 1002000    1.1086537   -6.4819782    409.09256  0.034023001  0.034556279            4 
 1003000    1.0960459   -6.4601774    409.78648  0.034046733    0.0345464            4 
 1004000    1.1147766   -6.4793997    410.69705  0.034088401  0.034536596            3 
 1005000    1.0909663   -6.4746813    410.17298  0.034011026   0.03452694            3 
 1006000    1.0934883   -6.5009593     410.3134   0.03398885  0.034517118            5 
 1007000    1.1305812   -6.4622079    411.24574  0.034032253  0.034507352            3 
 1008000    1.0913594   -6.4521845    411.46431   0.03401656  0.034497634            3 
 1009000    1.0690062   -6.4517713    411.30331   0.03396955  0.034487746            4 
 1010000    1.0898237   -6.5004319    409.82042  0.033813566  0.034477784            2 
 1011000    1.0765082   -6.4682756     411.3472  0.033905968  0.034467923            2 
 1012000    1.0847097   -6.5228028    411.45262  0.033881145  0.034457794            3 
 1013000    1.0941163   -6.4949627    411.79866  0.033876165  0.034447846            7 
 1014000    1.0874248   -6.4649739    411.99003  0.033858484  0.034438404            4 
 1015000    1.1059696   -6.4434058    413.07561  0.033914253  0.034428971            3 
 1016000    1.0933279   -6.4639436    413.58845  0.033922937  0.034419392            4 
 1017000    1.0983128   -6.4591732    414.30676   0.03394844  0.034410111            2 
 1018000    1.1000667   -6.5048007    412.49822  0.033767045  0.034400268            4 
 1019000    1.0757566   -6.4630788     413.4693  0.033813322  0.034390157            7 
 1020000    1.0922419   -6.4738825    413.81535  0.033808443  0.034380167            4 
 1021000    1.0665875   -6.4970416    412.73714  0.033687328  0.034370154            2 
 1022000    1.1169981   -6.4297951    414.96288  0.033835851   0.03436006            5 
 1023000    1.0970449   -6.4842315    415.40599  0.033838872  0.034350274            6 
 1024000    1.0974166   -6.4660026    415.68618  0.033828628  0.034340531            5 
 1025000    1.0891808   -6.5030656    415.25399  0.033760487  0.034331018            3 
 1026000    1.0737602   -6.4475132    418.25225  0.033971105  0.034321391            2 
 1027000     1.099727   -6.5029017    416.56337  0.033800987  0.034312244            4 
 1028000    1.1016304   -6.4701284    418.45916  0.033921786  0.034303149            8 
 1029000    1.0827858   -6.4822104    418.00312  0.033851889  0.034293918            8 
 1030000    1.0823385   -6.4659746    419.97125  0.033978256  0.034284964            2 
 1031000    1.0803282   -6.5075825    417.96706  0.033783306  0.034275767            4 
 1032000     1.068384   -6.5011239    418.96508   0.03383116  0.034266588            2 
 1033000    1.0715353   -6.5166026    418.89587  0.033792826  0.034257653            3 
 1034000    1.0789059   -6.4896628     420.1547  0.033861597  0.034248761            5 
 1035000    1.0838042   -6.4878542    420.57641  0.033862835  0.034239835            4 
 1036000    1.0786283   -6.4651701    420.97971  0.033862589   0.03423082            4 
 1037000    1.0985832   -6.4729058    421.86457  0.033901042  0.034222108            2 
 1038000     1.072029   -6.5149506    420.66628   0.03377218  0.034213444            4 
 1039000    1.1041871   -6.5351258    420.86074  0.033755273  0.034204447            4 
 1040000    1.0800233   -6.4738549    421.30939  0.033758766  0.034195499            5 
 1041000    1.1047824   -6.4710149    422.24815  0.033801485  0.034186711            2 
 1042000    1.1110886   -6.4669942    423.78315  0.033891806  0.034177664            4 
 1043000    1.0809729   -6.5147688    421.24932  0.033656864  0.034168749            4 
 1044000    1.0920019   -6.4938376    423.86983  0.033833799  0.034159669            2 
 1045000    1.0775178   -6.4913284    423.08058  0.033738484  0.034150805            4 
 1046000    1.0911116   -6.4917707    423.47374  0.033737551  0.034141848            3 
 1047000    1.0772208    -6.515883    422.46098   0.03362472  0.034132577            1 
 1048000    1.0933007   -6.4595593    425.26505  0.033815605  0.034123539            7 
 1049000    1.1014163   -6.4772843    425.19491  0.033777797  0.034114775            7 
 1050000    1.0861804   -6.4917876    426.04705  0.033813258  0.034105987            2 
 1051000    1.0810298   -6.5203562    424.31139  0.033643465  0.034096878            6 
 1052000    1.0895743   -6.4833694    426.43046  0.033779346  0.034088135            3 
 1053000    1.0924633   -6.4540158    425.87705   0.03370347   0.03407921            2 
 1054000    1.0798543   -6.5263447     425.7462  0.033661148  0.034070249            2 
 1055000    1.0693098   -6.5284153    425.90792  0.033642015  0.034061241            6 
 1056000     1.090068   -6.5055307    426.73657   0.03367555  0.034052377            3 
 1057000     1.064131   -6.4846343    427.09995  0.033672339  0.034043403            4 
 1058000    1.1012026   -6.4847408    426.69578  0.033608678  0.034034618            3 
 1059000    1.0883746   -6.4806808    429.97445  0.033834943  0.034025823            3 
 1060000    1.0734773   -6.4863839    428.10585   0.03365612  0.034017297            2 
 1061000    1.0805819   -6.5110458    428.28865  0.033638756  0.034008611            4 
 1062000    1.0854243   -6.5039062    428.28614  0.033606885  0.033999905            4 
 1063000     1.068026   -6.5552937    427.19098  0.033489415     0.033991            3 
 1064000    1.0846214   -6.5252015    429.80592  0.033662744  0.033982017            4 
 1065000    1.1009503    -6.534335    428.54977  0.033532846  0.033973234            2 
 1066000    1.0785074   -6.4953156    430.17084  0.033628114  0.033964477            2 
 1067000    1.0665399    -6.508787    430.24819  0.033602639  0.033955847            2 
 1068000    1.0659955   -6.5273316    430.47511  0.033588882  0.033947216            4 
 1069000    1.1016318   -6.5086491    431.47759  0.033635609  0.033938563            3 
 1070000    1.0774968   -6.4837827    433.19185  0.033737683  0.033929869            8 
 1071000    1.0672683   -6.4670073    433.49622  0.033729864  0.033921575            6 
 1072000    1.0461802   -6.5044769    431.85062  0.033570477   0.03391321            8 
 1073000    1.0750777   -6.5247776    431.33428   0.03349909  0.033904628            3 
 1074000    1.0777356   -6.5097129    433.58363  0.033642429  0.033896137            2 
 1075000    1.0657624   -6.4627138    435.55445  0.033763911  0.033888157            5 
 1076000    1.0751745   -6.4589101    434.57107  0.033656372  0.033880157            3 
 1077000    1.0869374   -6.4930977    435.30562  0.033681958  0.033871715            4 
 1078000    1.0918928   -6.4927581    433.65492  0.033523107  0.033863613            4 
 1079000    1.0691237   -6.5007901    434.37964   0.03354801  0.033855341            3 
 1080000    1.0712549   -6.5424346     433.3929   0.03344081  0.033846817            4 
 1081000    1.0740203   -6.5295565    434.35207  0.033483816  0.033838355            3 
 1082000    1.0643768   -6.4637087    436.70312  0.033633943  0.033830169            2 
 1083000    1.0833139   -6.4497778    436.79811  0.033610197   0.03382202            3 
 1084000    1.0823243   -6.4692799    438.37613  0.033700502  0.033813967            2 
 1085000    1.0603537   -6.4887687    437.41163  0.033595363  0.033806118            3 
 1086000     1.077403   -6.5244989    436.71251  0.033510782  0.033798197            3 
 1087000    1.0701415   -6.5000164    437.10959  0.033510395  0.033790179            5 
 1088000    1.0859011   -6.4881501    437.88645  0.033539097  0.033781992            2 
 1089000     1.069398   -6.4852067    438.62984  0.033565185  0.033773878            3 
 1090000    1.0712098   -6.4964677    438.60716  0.033532657  0.033765509            3 
 1091000    1.0749964   -6.5159168    438.65393  0.033505494  0.033756885            3 
 1092000    1.0725522     -6.50457    437.63591  0.033397124  0.033748509            4 
 1093000    1.0866987   -6.5349461    438.54786  0.033436098  0.033740137            4 
 1094000    1.0798987   -6.5319835    437.35592  0.033314741  0.033731541            4 
 1095000     1.090731   -6.5461509    438.99166  0.033408802  0.033723045            2 
 1096000    1.0913832   -6.5623008    438.46317  0.033338137   0.03371491           12 
 1097000    1.0815346   -6.5067095    440.10175  0.033432221  0.033706642            2 
 1098000    1.0688659   -6.5107432    440.40318  0.033424649  0.033698515            4 
 1099000    1.0832824   -6.5164491    440.23004  0.033381107  0.033689804            4 
 1100000    1.0490319   -6.5585234    439.23232  0.033275176  0.033681061            2 
 1101000    1.0885534   -6.5048778     441.9528  0.033450863  0.033672465            5 
 1102000    1.0970615   -6.5114736    442.00072  0.033424132  0.033663963            6 
 1103000    1.0801455   -6.5108904     441.2393  0.033336302  0.033655612            4 
 1104000    1.0961279   -6.5296835    442.12054  0.033372626  0.033646843            4 
 1105000    1.0805535    -6.502596    441.76785  0.033315826  0.033638296            5 
 1106000    1.0508323    -6.525626    442.16287  0.033315466   0.03362988            2 
 1107000    1.0934867   -6.5392733    442.61411   0.03331934    0.0336214            3 
 1108000    1.0860552   -6.5182585    442.03515  0.033245724  0.033612882            3 
 1109000    1.1081987   -6.4725702    444.62986   0.03341072  0.033604658            4 
 1110000    1.0813573   -6.5279253     444.5041  0.033371179  0.033596353            5 
 1111000    1.0836478   -6.5162616    446.21021  0.033469113   0.03358841            2 
 1112000    1.0617653   -6.5312322    445.10036  0.033355843   0.03358047            5 
 1113000    1.0805353   -6.5294208    444.01445  0.033244568  0.033572127            2 
 1114000    1.0850502   -6.4925205    445.82047  0.033349826  0.033563883            5 
 1115000    1.0675626    -6.451962     447.4977  0.033445269  0.033556127            4 
 1116000    1.0725894   -6.5278553    446.87715  0.033368963  0.033548298            4 
 1117000    1.0791234   -6.4904668    447.66107  0.033397573  0.033540498            2 
 1118000    1.0617332   -6.4746554    448.95975  0.033464501  0.033532727            3 
 1119000    1.0860398   -6.5026807      448.223  0.033379729  0.033524692            1 
 1120000    1.0856995   -6.5366293    447.39764  0.033288515  0.033516711            4 
 1121000    1.0732664   -6.5447041     447.3421  0.033254691  0.033508502            2 
 1122000     1.063576   -6.5468646    448.00053  0.033273955  0.033500443            3 
 1123000    1.0879041   -6.4826876    450.66909  0.033442349  0.033492708            3 
 1124000    1.0777184   -6.5039536    448.69744  0.033266417  0.033484818            3 
 1125000    1.0823184    -6.530594    450.08976  0.033339982  0.033476858            6 
 1126000    1.0708031   -6.5448299    449.61955  0.033275573  0.033469073            2 
 1127000    1.0685894   -6.4992552    449.59222  0.033244027  0.033461162            2 
 1128000    1.0517309   -6.5099129    449.89617   0.03323701  0.033453134            2 
 1129000    1.0476502   -6.4955444    451.35177  0.033315011  0.033445263            1 
 1130000    1.0934187   -6.5422224     450.4573  0.033219565  0.033437152            5 
 1131000    1.0600624   -6.4750864    450.50755  0.033193895  0.033428931            5 
 1132000    1.0817326   -6.5280624    449.36746  0.033080643  0.033420675            2 
 1133000    1.0887932   -6.5344443    450.31542   0.03312117  0.033412403            5 
 1134000    1.0707119    -6.533353    450.68841  0.033119372  0.033404171            2 
 1135000     1.076245    -6.494356    451.27068  0.033132943  0.033395976            4 
 1136000    1.0516978   -6.5392525    451.46803  0.033118254  0.033387819            2 
 1137000    1.0636669   -6.5215486    451.38389  0.033082959  0.033379439            3 
 1138000    1.0667024   -6.5781284    451.16314  0.033037723  0.033371151            2 
 1139000    1.0761712   -6.5333047    451.79214  0.033054736  0.033362686            4 
 1140000    1.0766295   -6.5472418    453.06379  0.033118698  0.033354365            4 
 1141000    1.0910279   -6.5574474    452.33833  0.033036688  0.033346055            4 
 1142000    1.0885506   -6.5207697    453.27686  0.033076245  0.033337615            5 
 1143000    1.0667948   -6.5324991      452.699  0.033005176  0.033329311            2 
 1144000    1.0724354   -6.5648712    452.33717  0.032949969  0.033320978            3 
 1145000    1.0893907   -6.5151889     453.9833  0.033040997  0.033312445            3 
 1146000    1.0524312    -6.537053    452.84282  0.032929233  0.033303716            5 
 1147000     1.091122   -6.4878496    454.94014  0.033052902  0.033295208            6 
 1148000    1.0667697   -6.5180266    455.44157  0.033060509  0.033286566            1 
 1149000    1.0914893   -6.5106511    453.66446  0.032902847  0.033278176            2 
 1150000    1.0493618   -6.4993872    454.79001  0.032955798  0.033269417            5 
 1151000    1.0937925   -6.5592702    454.33665  0.032894342   0.03326073            2 
 1152000    1.0533292   -6.5313787    456.55426  0.033026205  0.033252272            5 
 1153000    1.0690655   -6.4813627    457.04569   0.03303308   0.03324381            4 
 1154000    1.0859425   -6.5368865    457.20346  0.033015848  0.033235466            4 
 1155000    1.0738173   -6.5151001    458.06326  0.033049297  0.033227432            6 
 1156000    1.0548508   -6.5506594    457.50276  0.032980303  0.033219209            5 
 1157000    1.0540109   -6.5331031    457.56852  0.032956534  0.033210829            3 
 1158000    1.0559284   -6.4926138    457.02692  0.032889099  0.033202723            4 
 1159000    1.0483881   -6.5486526    457.71907  0.032910488  0.033194339            2 
 1160000    1.0684972   -6.5991758    458.72702  0.032954527  0.033185896            5 
 1161000    1.0633829   -6.5300497    459.59722  0.032988603  0.033177754            2 
 1162000     1.074839   -6.5183838    459.79994  0.032974752  0.033169682            5 
 1163000     1.060061   -6.5347149    459.92992  0.032955712   0.03316143            4 
 1164000    1.0664428   -6.5007443    460.63799  0.032978092  0.033153281           11 
 1165000    1.0697656   -6.5407136    461.16948  0.032987803  0.033145315            4 
 1166000    1.0495106    -6.525837    460.22313  0.032891876  0.033137103            3 
 1167000    1.0786995   -6.5444085    460.88299   0.03291081  0.033129113            3 
 1168000    1.0628597   -6.4880298    461.75837  0.032945089  0.033121072            3 
 1169000    1.0715755     -6.51348    461.97137  0.032932091  0.033113013            4 
 1170000    1.0571472   -6.5224791    461.85069  0.032895349  0.033104745            6 
 1171000    1.0461642   -6.5265442    462.24882  0.032895589   0.03309646           13 
 1172000    1.0458678   -6.4837787    463.12776  0.032930017  0.033088322            3 
 1173000    1.0544609   -6.6150583    458.60382   0.03258055  0.033079905            3 
 1174000    1.0497059   -6.5777411    461.34634  0.032747469  0.033071184            3 
 1175000    1.0795251   -6.5206959    462.42255  0.032795926  0.033062656            8 
 1176000    1.0521664   -6.5227771    461.37514  0.032693816  0.033054268            6 
 1177000    1.0634194   -6.4902883    464.50107  0.032887359  0.033045704            4 
 1178000    1.0640698   -6.5673193    462.79426    0.0327387  0.033037062            4 
 1179000    1.0476233   -6.5301046    463.48064  0.032759446  0.033028656            2 
 1180000    1.0527559   -6.5293937    462.42719  0.032657288  0.033020211            4 
 1181000    1.0540241   -6.5483696    463.77691  0.032724874  0.033011852            3 
 1182000    1.0577244   -6.5695502    463.78334  0.032697641  0.033003336            3 
 1183000    1.0446691    -6.584656    464.61872  0.032728847  0.032995038            2 
 1184000     1.070093   -6.5444487    464.23709  0.032674345  0.032986485            6 
 1185000    1.0657149   -6.5504956    464.75036  0.032682866  0.032977892            2 
 1186000    1.0578433   -6.4913127    467.65857  0.032859652  0.032969607            3 
 1187000     1.043865   -6.5446286    466.18513  0.032728526  0.032961349            6 
 1188000    1.0515891   -6.5561869    466.31121  0.032709821  0.032952872            4 
 1189000    1.0760975   -6.5265985    465.71834  0.032640758  0.032944349            6 
 1190000    1.0684149   -6.5233448    466.87951  0.032694643  0.032935836            1 
 1191000     1.075506   -6.5211077    467.84329  0.032734627  0.032927573            2 
 1192000    1.0514808   -6.5525116    467.82059  0.032705578  0.032919338            2 
 1193000    1.0624332   -6.5219305    470.12442  0.032839091  0.032911351            3 
 1194000    1.0581451    -6.593215    466.51456  0.032559643  0.032903211            4 
 1195000    1.0581609    -6.558988    469.07609  0.032711025  0.032894684            2 
 1196000     1.076294   -6.6003614    465.81833  0.032456684  0.032886149            5 
 1197000    1.0383083   -6.5456157    468.98428  0.032649978   0.03287786            2 
 1198000    1.0507122   -6.5516797    468.91246  0.032617728  0.032869628            3 
 1199000    1.0544156   -6.5526444    470.08811  0.032672235    0.0328616            5 
 1200000    1.0614311   -6.5457885    470.11251  0.032646702  0.032853432            3 
 1201000    1.0953216   -6.5850397    468.63134  0.032516746  0.032845072            4 
 1202000    1.0805612   -6.5568367    470.72247  0.032634669  0.032836828            4 
 1203000    1.0826359   -6.5467241     470.9831  0.032625595  0.032828724            3 
 1204000    1.0612612   -6.5222224    473.04775    0.0327414  0.032820765            5 
 1205000    1.0798464   -6.5614746    471.07606  0.032577874  0.032812693           10 
 1206000    1.0534303   -6.5793265    471.82602  0.032602682  0.032804603            9 
 1207000    1.0814879   -6.5562785     471.9357  0.032583243  0.032796598            3 
 1208000    1.0377129   -6.5854271    471.72929  0.032542031  0.032788508            3 
 1209000    1.0730767   -6.5632298    472.29533  0.032554131  0.032780483            7 
 1210000    1.0664431   -6.5473544     472.9448  0.032571956  0.032772517            2 
 1211000    1.0666267   -6.5513908    473.39448  0.032576004  0.032764375            6 
 1212000    1.0768684   -6.5182613    475.08888  0.032665627  0.032756417            4 
 1213000    1.0496176   -6.5690266    473.76762  0.032547926  0.032748471            3 
 1214000    1.0416965   -6.5466768    474.39253  0.032564012  0.032740579            4 
 1215000    1.0603032   -6.5630871    473.93731  0.032505988  0.032732581            2 
 1216000    1.0496527   -6.5881851    473.97839  0.032482071  0.032724787            6 
 1217000    1.0671029   -6.5561093    474.19478  0.032470198  0.032716798            7 
 1218000    1.0653951   -6.5498671    478.82565  0.032760376  0.032708913            3 
 1219000    1.0430382   -6.5831036    476.20988  0.032554681  0.032701008            6 
 1220000    1.0572322   -6.5470137     477.4339  0.032611605  0.032693272            6 
 1221000    1.0862229    -6.584044    476.29288  0.032507022  0.032685678            3 
 1222000    1.0528202   -6.6053657    477.77464  0.032581467  0.032677961            4 
 1223000    1.0615628    -6.549254    477.26117   0.03251984  0.032670261            4 
 1224000    1.0770499   -6.6068509    476.73278  0.032457297  0.032662616            2 
 1225000    1.0665773   -6.5479292    479.19917  0.032598583  0.032655002            5 
 1226000    1.0637146   -6.5578302    479.17654  0.032570455  0.032647555            8 
 1227000    1.0669988   -6.5701592     478.1029  0.032470993  0.032639851            2 
 1228000    1.0715014   -6.5328691    479.53769  0.032541917  0.032631908            4 
 1229000    1.0562856   -6.5459445    481.10311  0.032621584  0.032624153            3 
 1230000    1.0617049   -6.5732608    479.85899  0.032510771   0.03261635            2 
 1231000    1.0707887   -6.5665872     479.7701  0.032478344  0.032608719            8 
 1232000    1.0413283   -6.5802952    478.60666  0.032373286  0.032600785            3 
 1233000    1.0550714   -6.5772706    479.93373  0.032436722  0.032592648            3 
 1234000    1.0414146   -6.6134252     480.8388  0.032471556   0.03258469            4 
 1235000    1.0536436   -6.5844589    481.72983  0.032505387  0.032576908            6 
 1236000      1.06214   -6.5494125    481.80706  0.032484295  0.032569576            4 
 1237000     1.042429   -6.5439136    482.23375  0.032486779  0.032562111            2 
 1238000     1.068072   -6.5634095    483.16129  0.032522973  0.032554529            4 
 1239000    1.0445476   -6.5761368    482.33091  0.032440874  0.032546937            2 
 1240000    1.0505302   -6.5469303    483.55206  0.032496778   0.03253913            3 
 1241000    1.0422926   -6.5216423    483.67993  0.032479179  0.032531606            5 
 1242000    1.0716558   -6.5797187    482.54324   0.03237676  0.032524044            4 
 1243000    1.0697906   -6.5794368    484.17791  0.032460305  0.032516263            4 
 1244000    1.0417885   -6.5937163     482.6359  0.032330915   0.03250865            3 
 1245000    1.0381512   -6.5823624    484.27236  0.032414482  0.032500967            4 
 1246000    1.0479176   -6.5573301    484.04486  0.032373252  0.032493341            4 
 1247000     1.056277   -6.5705872    485.35242  0.032434672   0.03248559            3 
 1248000    1.0548456   -6.5495674    485.35072  0.032408568  0.032477867            4 
 1249000    1.0537056   -6.5689132     485.0135  0.032360121  0.032470281            2 
 1250000    1.0345588   -6.5495201    485.04672  0.032336448  0.032462676            3 
 1251000    1.0362622   -6.5603792    485.03872  0.032310067  0.032455002            2 
 1252000    1.0462023   -6.5596477    484.80237  0.032268528  0.032447281            4 
 1253000    1.0350837   -6.5637523    486.30428  0.032342663   0.03243967            6 
 1254000    1.0574861   -6.5635919    485.31076  0.032250848  0.032432003            7 
 1255000    1.0533298   -6.5627378    486.65461  0.032314383  0.032424271            5 
 1256000    1.0278231   -6.5836817    486.04771  0.032248388  0.032416677            4 
 1257000    1.0727209   -6.5673408    487.14117  0.032295225   0.03240909            3 
 1258000    1.0542206   -6.6408532    485.14232  0.032137144  0.032401149            5 
 1259000    1.0543267   -6.5859642    487.31907  0.032255697  0.032393338            2 
 1260000    1.0478181   -6.5512042    489.01191  0.032342058  0.032385791            4 
 1261000    1.0537262   -6.5701508    488.97751  0.032314136  0.032378029            6 
 1262000    1.0346856    -6.573909    488.62089  0.032264982  0.032370091            5 
 1263000     1.040892   -6.5223621    489.68675  0.032309762  0.032362335            4 
 1264000    1.0259988   -6.5727149    488.90298  0.032232527  0.032354638            2 
 1265000    1.0507886   -6.6125609    490.31544  0.032300095  0.032346615            6 
 1266000    1.0495003   -6.6098059    487.61824   0.03209704  0.032338778            2 
 1267000    1.0458556   -6.5793494    489.87806  0.032220341   0.03233095            4 
 1268000    1.0522469   -6.5504796    489.84036  0.032192452    0.0323232            3 
 1269000    1.0591436   -6.6022632    488.84985  0.032102039  0.032315441            5 
 1270000    1.0597216   -6.5910351    488.46336  0.032051401  0.032307516            5 
 1271000    1.0355596   -6.5433394    489.66331  0.032104859  0.032299618            2 
 1272000    1.0515235   -6.6236924    488.60172  0.032010071  0.032291472            3 
 1273000    1.0550275   -6.5933625    489.92239  0.032071379  0.032283145            4 
 1274000    1.0352105   -6.6066104    488.08687  0.031926143  0.032274857            5 
 1275000    1.0314253   -6.5834439    491.22709  0.032106345  0.032266708            7 
 1276000    1.0764236   -6.6484978    488.80356  0.031922908  0.032258496            3 
 1277000    1.0541943   -6.5399604    491.87403  0.032098279  0.032250349            3 
 1278000    1.0295545   -6.6156503    490.59892  0.031990018  0.032242169            3 
 1279000    1.0074094   -6.5654507    491.97384  0.032054589  0.032233796            3 
 1280000    1.0612299   -6.5604656    491.84105  0.032020902  0.032225571            4 
 1281000     1.041477   -6.5631005    493.38248   0.03209618  0.032217181            2 
 1282000    1.0662842   -6.5803755    490.61457  0.031891223   0.03220875            6 
 1283000      1.04812   -6.5773588    491.42281  0.031918863  0.032200546            8 
 1284000     1.043821   -6.6401979    490.49623  0.031833867  0.032192108            3 
 1285000    1.0836284   -6.5779487    493.21447  0.031985374  0.032183722            5 
 1286000    1.0672264    -6.642923    489.85526  0.031742824  0.032175338            2 
 1287000    1.0435841   -6.5928893    492.09979  0.031863493  0.032167029            7 
 1288000    1.0500246   -6.5578578    494.22613  0.031976328  0.032158812            4 
 1289000    1.0477186   -6.5856894    494.02745  0.031938677    0.0321506            5 
 1290000    1.0251063   -6.5841478    495.17693  0.031988174  0.032142302            2 
 1291000     1.049009    -6.599319    494.96624  0.031949796  0.032134265            2 
 1292000    1.0361698   -6.6034337    494.31077  0.031882789   0.03212592            4 
 1293000    1.0603248   -6.5674101    494.48746  0.031869519  0.032117578            3 
 1294000    1.0616737    -6.536405    496.96337  0.032004338  0.032109577            4 
 1295000    1.0569398   -6.5517913    496.07024  0.031922152  0.032101602            3 
 1296000      1.05957   -6.5713801    496.59873  0.031931503  0.032093703            2 
 1297000    1.0541041   -6.5877945    497.71262  0.031978452  0.032085523            6 
 1298000    1.0447051    -6.611852    496.44247  0.031872269  0.032077341            5 
 1299000    1.0474324   -6.6043048    495.36505  0.031778615  0.032069076            5 
 1300000     1.056484   -6.5705036    497.59495  0.031897112  0.032060839            4 
 1301000    1.0478319    -6.621131    495.76652  0.031755478  0.032052427            5 
 1302000    1.0620955   -6.5869243    496.40892  0.031772204  0.032044201           11 
 1303000    1.0435209   -6.5548897    498.73012  0.031896273  0.032035874            4 
 1304000    1.0537632   -6.5812179    498.36905  0.031848738  0.032027595            3 
 1305000    1.0343504   -6.6023464    496.88423  0.031729516  0.032019356            6 
 1306000    1.0479943   -6.5522553    500.84004  0.031957634  0.032011327            5 
 1307000    1.0432608   -6.6120212    499.12199  0.031823641  0.032003212            3 
 1308000    1.0364393   -6.5818524    499.16781  0.031802231  0.031995045            6 
 1309000    1.0400096   -6.5805092    498.93645  0.031763206  0.031986907            5 
 1310000    1.0331358    -6.574702     499.0935   0.03174895  0.031978778            4 
 1311000    1.0428688   -6.6224411    499.83731  0.031772013  0.031970713            3 
 1312000    1.0260847    -6.594346    499.45139  0.031723285  0.031962588            2 
 1313000     1.034673   -6.6049372     501.0701   0.03180186  0.031954481            2 
 1314000    1.0494828   -6.6165062    501.63889   0.03181373  0.031946456            3 
 1315000    1.0378598   -6.6150579    498.83976  0.031612152  0.031938414            3 
 1316000    1.0246295   -6.6106924     499.4683  0.031627932  0.031930274            6 
 1317000    1.0309576   -6.6077788    501.49419  0.031732105  0.031922147            5 
 1318000    1.0245374   -6.6303966    501.45403   0.03170549  0.031913885            2 
 1319000    1.0192942   -6.5902722     502.8312  0.031768461  0.031905879            4 
 1320000    1.0338401   -6.6161399     501.0407  0.031631357  0.031897739            4 
 1321000    1.0364922   -6.6150418    501.11537  0.031612123  0.031889443            4 
 1322000    1.0324964   -6.6195389    502.28271  0.031661794  0.031881053            7 
 1323000     1.048932   -6.6102011    501.93577   0.03161601  0.031872541            8 
 1324000    1.0214603    -6.615031     501.6532  0.031574345  0.031864104            9 
 1325000    1.0471426   -6.6272271    502.57785   0.03160867  0.031855704            3 
 1326000    1.0480792   -6.5988147    503.13761  0.031620011  0.031847502            5 
 1327000    1.0353181   -6.6407524    503.54527  0.031621783  0.031839316            3 
 1328000    1.0599577   -6.6289294    503.93243  0.031622266  0.031831199            4 
 1329000    1.0080096    -6.564802    505.51987   0.03169801  0.031823021            4 
 1330000    1.0333812   -6.5884717    506.68578  0.031747229  0.031815001            2 
 1331000    1.0466309   -6.5849861    505.82488  0.031669477  0.031807024            6 
 1332000    1.0330646   -6.6060729    505.77736  0.031642728  0.031798824            2 
 1333000    1.0379995   -6.6085063    505.98694  0.031632091  0.031790786            5 
 1334000    1.0461949   -6.6007452    506.76375  0.031656906  0.031782775            4 
 1335000    1.0518946   -6.5915857    506.68044  0.031627993  0.031774803            3 
 1336000    1.0288268   -6.6279444    507.33338  0.031645046  0.031766586            8 
 1337000    1.0333386   -6.6329466    506.08004  0.031543259  0.031758424            3 
 1338000    1.0227177   -6.6092795    508.74472  0.031685645  0.031750502            3 
 1339000    1.0590934   -6.6233547    505.53009  0.031461917  0.031742333            4 
 1340000    1.0747274   -6.6398429    506.80766  0.031517889   0.03173418           15 
 1341000     1.033065   -6.6065337    508.74763  0.031614941  0.031725983            2 
 1342000    1.0439008   -6.6249305     507.7048  0.031526627  0.031718073            4 
 1343000    1.0279554   -6.5785887     509.8441  0.031635896  0.031710109            4 
 1344000    1.0558423   -6.6450337     508.1712  0.031508631  0.031702316            8 
 1345000    1.0349323   -6.6337355    508.48743  0.031504797   0.03169442            5 
 1346000    1.0593167   -6.6101261    508.67598  0.031493065  0.031686446            4 
 1347000    1.0424691   -6.6267471    508.98585  0.031488855  0.031678545            3 
 1348000    1.0501657   -6.6237224    510.01066  0.031528849  0.031670412            6 
 1349000    1.0345487   -6.6319717    510.78678  0.031553421   0.03166244            6 
 1350000    1.0495359   -6.6705927    509.42552   0.03144602  0.031654491            1 
 1351000     1.045292   -6.5967805    508.01346  0.031335644   0.03164638            5 
 1352000    1.0384994   -6.6437923    510.13953  0.031443511   0.03163828            9 
 1353000     1.046958    -6.611075    510.45952   0.03143998  0.031630256            7 
 1354000      1.06655   -6.6128497     509.6039    0.0313641  0.031622227            3 
 1355000    1.0360363   -6.6085166    511.23831  0.031441471  0.031614271            3 
 1356000    1.0427492   -6.6292306    512.92889  0.031522178   0.03160632           14 
 1357000    1.0390363   -6.6551124    510.41388  0.031344502  0.031598319            3 
 1358000    1.0473713   -6.6202604    513.15443  0.031489595  0.031590561            4 
 1359000    1.0382737    -6.589044    515.40077  0.031604168  0.031582567            3 
 1360000    1.0245653   -6.6403547     512.2563  0.031388254   0.03157464            3 
 1361000    1.0290259   -6.6331486    511.70918  0.031331691  0.031566641            5 
 1362000    1.0235402   -6.5956107    513.60567  0.031424723  0.031558631            4 
 1363000    1.0304668   -6.6156463    515.31336  0.031506075  0.031550571            6 
 1364000    1.0384439   -6.6303805    513.15754  0.031351267  0.031542546            7 
 1365000    1.0286742   -6.6395094    515.47216  0.031469607  0.031534342            3 
 1366000    1.0161914     -6.63513    512.73471   0.03127957  0.031526403            4 
 1367000    1.0191202   -6.5890063    513.25698  0.031288526  0.031518384            2 
 1368000    1.0317838   -6.6002245    515.02942  0.031373624  0.031510473            2 
 1369000    1.0275826   -6.6198898    515.24426  0.031363785  0.031502528            3 
 1370000    1.0480033   -6.6241797    516.24438  0.031401726   0.03149446            5 
 1371000    1.0290893   -6.6262194    514.92186  0.031298435  0.031486483            2 
 1372000     1.034087   -6.6189039    515.05764  0.031283871  0.031478555            6 
 1373000    1.0413161   -6.6055513     516.1351  0.031326481  0.031470761            6 
 1374000    1.0324062   -6.6233723    515.26176  0.031250713  0.031462766            4 
 1375000    1.0049887   -6.6755504    515.06363  0.031215978  0.031454686            3 
 1376000    1.0548908   -6.6243253    518.73513  0.031415645  0.031446687            2 
 1377000    1.0364666    -6.621579    518.91818  0.031403908  0.031438817            4 
 1378000    1.0159251   -6.6067155    517.96475  0.031323461  0.031430987            3 
 1379000    1.0136523   -6.6486945    517.10483  0.031248781  0.031423114            5 
 1380000    1.0099063   -6.6282516    517.85657  0.031271532  0.031415186            6 
 1381000    1.0215894   -6.6123013    518.63906  0.031296105  0.031407121            7 
 1382000    1.0093762   -6.6366123    518.04295  0.031237515    0.0313992            2 
 1383000    1.0338335   -6.6446214    519.25861  0.031288179  0.031391273            3 
 1384000    1.0279158   -6.6602054    517.63954  0.031168084  0.031383359            4 
 1385000    1.0065447   -6.6037938    519.92268  0.031282953  0.031375432            6 
 1386000    1.0197733   -6.6276715    519.62362  0.031242402  0.031367707            3 
 1387000     1.010391   -6.5750772    520.22503   0.03125601  0.031360103            4 
 1388000    1.0192934   -6.6181146    519.19264  0.031171508  0.031352256            3 
 1389000    1.0212142   -6.6303736    518.89703  0.031131331  0.031344309            3 
 1390000     1.046395   -6.5928134    520.74639  0.031219808  0.031336356            3 
 1391000    1.0156156   -6.6669047    517.59742  0.031008712  0.031328201            2 
 1392000     1.015791   -6.6400889    521.19619  0.031201879  0.031319998            3 
 1393000    1.0424837   -6.6588511    520.49842  0.031137738  0.031311866            3 
 1394000    1.0105257   -6.6416762     519.9951  0.031085312  0.031303577            6 
 1395000     1.036292   -6.6443235    520.04131  0.031065789  0.031295344            3 
 1396000    1.0123192   -6.6258897    521.62005  0.031137778  0.031287148            5 
 1397000    1.0440053   -6.6037221    521.08926  0.031083826  0.031279165            3 
 1398000    1.0280466   -6.6410548    522.59512  0.031151354  0.031270988            5 
 1399000    1.0166507   -6.6781715    522.25447  0.031108796  0.031262801            4 
 1400000    1.0167314   -6.6715588    521.28296  0.031028748  0.031254632            6 
 1401000    1.0219545   -6.6425361      522.557  0.031082382   0.03124646            3 
 1402000      1.02948   -6.6243982    522.57254  0.031061135  0.031238388            7 
 1403000    1.0344695   -6.6357513    523.40533  0.031088461  0.031230393            4 
 1404000    1.0327422   -6.6453329    523.02742  0.031043888  0.031222426            2 
 1405000    1.0208801   -6.6180076    524.26791  0.031095368  0.031214631            5 
 1406000    1.0501787   -6.6205087    523.45085  0.031024825  0.031206765            3 
 1407000    1.0430129   -6.6060473    526.53373  0.031185367  0.031198943            5 
 1408000    1.0457314   -6.6541461    525.74705  0.031116658  0.031190978            3 
 1409000    1.0130671   -6.6599535    524.51999  0.031022001  0.031182905            3 
 1410000    1.0359455   -6.6625543    524.53836  0.031001085   0.03117496            3 
 1411000    1.0203668   -6.6376371    526.12548  0.031072849  0.031166951            4 
 1412000     1.039155    -6.690006    525.17458  0.030994723  0.031158794            3 
 1413000    1.0328681   -6.6204349    527.76957   0.03112583   0.03115069            3 
 1414000    1.0313441   -6.6715461    525.88314  0.030992641  0.031142657            3 
 1415000    1.0247702   -6.6420824    524.72777  0.030902695  0.031134587            4 
 1416000    1.0418381   -6.6532552    525.94546  0.030952534  0.031126476            5 
 1417000    1.0338736   -6.6829887    524.10439  0.030822418    0.0311182            3 
 1418000   0.99800471   -6.6646883    525.70168  0.030894551  0.031110005            4 
 1419000   0.99678516   -6.6736182    525.99729  0.030890139  0.031101753            3 
 1420000    1.0329682   -6.6458884    527.16472  0.030936897  0.031093407            5 
 1421000    1.0340062   -6.6685159    526.80362  0.030893949  0.031085236            3 
 1422000    1.0455012   -6.6321599    527.47016  0.030911284  0.031077144            3 
 1423000    1.0304931   -6.6247035    527.71758  0.030904052  0.031069018           10 
 1424000    1.0296438   -6.6299125    528.70116  0.030939909  0.031061118            2 
 1425000    1.0269783   -6.5867133    529.62884  0.030972447  0.031053093            4 
 1426000    1.0096737   -6.6677644    528.11878  0.030862481  0.031044878            4 
 1427000    1.0404227   -6.6262107    528.18627  0.030844795  0.031036706            5 
 1428000    1.0037946   -6.6620471    527.51008  0.030783735  0.031028439            4 
 1429000    1.0214622   -6.6240435    527.96384  0.030788654  0.031020203            3 
 1430000    1.0177838   -6.6731346    528.43191    0.0307944  0.031011857            3 
 1431000    1.0256235   -6.6605816    528.97826  0.030804697  0.031003428            4 
 1432000   0.99207502   -6.7002993    526.87311  0.030660679  0.030994932            6 
 1433000    1.0242084   -6.6550485    529.11297  0.030769538  0.030986607            4 
 1434000    1.0310566   -6.6612758    529.96765  0.030797748  0.030978277            6 
 1435000    1.0281975   -6.6479769    530.85014  0.030827535  0.030970083            4 
 1436000    1.0511351   -6.6633558    529.85588  0.030748368  0.030961733            6 
 1437000    1.0385711   -6.6561541    528.32844  0.030638392  0.030953485            4 
 1438000    1.0273636   -6.6731493    530.03623  0.030716054  0.030945234            8 
 1439000    1.0122323    -6.687235    530.87683  0.030743388  0.030937032            2 
 1440000    1.0010032   -6.6744489     529.4904  0.030641805  0.030928658            5 
 1441000     1.019783   -6.6533416    530.91174  0.030702737  0.030920054            7 
 1442000    1.0339879   -6.6899478    530.80987  0.030675559  0.030911517            3 
 1443000    1.0346092   -6.6486062    529.98592  0.030606717  0.030903091            3 
 1444000    1.0018039   -6.6246747    532.44122  0.030727217  0.030894783            4 
 1445000    1.0208141     -6.62828    531.71345  0.030663982  0.030886479            5 
 1446000    1.0176875   -6.6088934    532.74165  0.030702032  0.030878099            3 
 1447000    1.0163884   -6.7020679    531.78655  0.030625809  0.030869678            5 
 1448000    1.0150963   -6.6685831    533.52747   0.03070485  0.030861376            8 
 1449000    1.0203304   -6.6288323    534.18219  0.030721313  0.030852969            3 
 1450000   0.99645222   -6.6423941    532.89924  0.030626393  0.030844463            4 
 1451000    1.0541545   -6.6509185    532.56248  0.030585946  0.030835942            4 
 1452000    1.0171778   -6.6337995    533.05711  0.030593268  0.030827454            5 
 1453000    1.0237312   -6.6671673    532.65831  0.030549341  0.030818999            5 
 1454000    1.0264358   -6.6771208    533.18583  0.030558565  0.030810505            5 
 1455000   0.99872055    -6.659347    533.14298  0.030535108  0.030801997            5 
 1456000    1.0061936   -6.6550818    533.43396   0.03053079  0.030793443            5 
 1457000    1.0049286   -6.6413439    534.62456  0.030577932  0.030784755            4 
 1458000    1.0166154    -6.672533    533.72518  0.030505554  0.030776174            5 
 1459000    1.0255331   -6.6133417    533.57579  0.030476113  0.030767577            3 
 1460000    1.0329891   -6.6591749    534.71458  0.030520238  0.030758988            6 
 1461000    1.0386986   -6.6634139    534.93907  0.030512153  0.030750471            5 
 1462000   0.99720097   -6.6698674    534.09586  0.030443221  0.030741874            6 
 1463000    1.0182114   -6.6612866    534.30603  0.030434383  0.030733216            7 
 1464000    1.0330197   -6.6135038    535.64647  0.030489895  0.030724529            5 
 1465000    1.0193177   -6.6212891    535.64568  0.030469037  0.030715955            4 
 1466000     1.002832   -6.6481588    536.43586  0.030493171  0.030707539            2 
 1467000    1.0354644   -6.6760644    535.55058  0.030422096  0.030698978            2 
 1468000    1.0137157    -6.709928    535.84451  0.030418058  0.030690565            6 
 1469000    1.0320962   -6.6918684    535.86804  0.030398686  0.030681942            3 
 1470000   0.99759928   -6.6605966    536.98229  0.030441173  0.030673364            5 
 1471000    1.0265328   -6.6649067    537.89677  0.030472285  0.030664972            4 
 1472000    1.0218788    -6.689985    536.13328  0.030351748   0.03065668            1 
 1473000    1.0247001   -6.6248758    536.97877  0.030378975  0.030648279            3 
 1474000    1.0223388   -6.6635233    537.05504  0.030362678  0.030639858            5 
 1475000    1.0257036   -6.6753872    538.48642  0.030422961  0.030631387            8 
 1476000    1.0380082   -6.6891224    538.95613  0.030428869  0.030623138            3 
 1477000    1.0153934   -6.6664447    539.40432  0.030433555  0.030614654            8 
 1478000    1.0223036   -6.6879206    538.99171  0.030389699  0.030606228            4 
 1479000    1.0151308   -6.6952523    538.99679  0.030369438  0.030597833            3 
 1480000    1.0028633   -6.7195599    539.49019    0.0303767  0.030589311            6 
 1481000   0.99895121   -6.6650765    539.63304  0.030364227  0.030580959            3 
 1482000    1.0281693   -6.6604026    540.61155   0.03039876  0.030572774            6 
 1483000    1.0194558   -6.6827904    540.06434  0.030347513   0.03056452            5 
 1484000    1.0074204   -6.6413223    542.18015  0.030445876  0.030556152            8 
 1485000    1.0110109   -6.6643964     539.7632  0.030289742  0.030547852            7 
 1486000    1.0073837   -6.6296638    540.86455  0.030331121  0.030539414            2 
 1487000    1.0116436   -6.7205966    539.89452  0.030256362   0.03053087            5 
 1488000   0.99964195   -6.6791089    540.26969  0.030257039  0.030522403            4 
 1489000    1.0253875   -6.7212709     539.1547  0.030174317  0.030513766            4 
 1490000    1.0113747   -6.6592746    541.37938  0.030278489  0.030505114            7 
 1491000    1.0017388   -6.6552588    540.88352  0.030230467  0.030496628            5 
 1492000    1.0364983   -6.6957212     539.7638  0.030147665  0.030488066            2 
 1493000    1.0126063   -6.6932172     541.2893   0.03021262  0.030479478            3 
 1494000    1.0194923   -6.6861699    541.30488  0.030193267  0.030470901            8 
 1495000    1.0016394    -6.674908    543.48819  0.030294771  0.030462324            4 
 1496000    1.0126391   -6.6832275    540.73712  0.030121274  0.030453813            4 
 1497000    1.0069947   -6.6324844     544.3707  0.030303423  0.030445352            5 
 1498000    1.0161295   -6.7259936    541.51292  0.030124217  0.030436757           10 
 1499000    1.0022122   -6.6912758    543.85322  0.030234224  0.030428138            3 
 1500000    1.0260529    -6.682211    543.12201  0.030173445  0.030419729            6 
 1501000    1.0248606    -6.688865    544.42604   0.03022574  0.030411315            2 
 1502000    1.0087122   -6.6816392    544.56507   0.03021333  0.030402773            3 
 1503000    1.0105336   -6.6363612    543.65607  0.030142829  0.030394247            3 
 1504000    1.0038469   -6.7047029    543.88221  0.030135318  0.030385721            3 
 1505000    1.0251615    -6.687146    544.66465  0.030158618  0.030377256            4 
 1506000    1.0078564   -6.6785742    544.30125  0.030118484  0.030368685            4 
 1507000   0.99831487   -6.6989682    544.31951  0.030099509  0.030360137            3 
 1508000     1.011898    -6.696893    544.57854  0.030093863  0.030351372            7 
 1509000    1.0127615   -6.6866106    545.10391  0.030102933  0.030342649            6 
 1510000    1.0271294   -6.6924718    544.41387  0.030044916   0.03033402            4 
 1511000    1.0259569    -6.696498    545.18044  0.030067308  0.030325298            5 
 1512000   0.97740977   -6.6823509    544.55146  0.030012757  0.030316487            7 
 1513000   0.99434223    -6.700589    544.64278   0.02999795  0.030307683            9 
 1514000    1.0246966   -6.7047612    545.91932    0.0300484  0.030298974            4 
 1515000    1.0098561   -6.6835461    545.90643  0.030027856  0.030290246            5 
 1516000    1.0088156   -6.7130267    545.58618  0.029990445  0.030281488            1 
 1517000    1.0025461   -6.6957569    546.72145  0.030033039  0.030272673            4 
 1518000    1.0081294   -6.7141417    544.88445  0.029912409  0.030263902            6 
 1519000    1.0080659   -6.6899433     545.2397  0.029912206   0.03025488            5 
 1520000   0.99736458   -6.7283148    544.63425  0.029859334  0.030245884            3 
 1521000    1.0110143   -6.7021582    546.20708  0.029925875  0.030236978            3 
 1522000    1.0096679   -6.7073072    545.45794  0.029865196  0.030228023            3 
 1523000   0.99731767   -6.6908408    546.50619  0.029902943  0.030219267            4 
 1524000    1.0193121   -6.7156654    546.06803  0.029859363  0.030210366            6 
 1525000    1.0076627   -6.7162447     547.6372   0.02992553  0.030201282            6 
 1526000    1.0155045   -6.7004841     545.7969  0.029805423  0.030192254            4 
 1527000    1.0075768   -6.6937664    546.60929  0.029830239  0.030183381            7 
 1528000    1.0080614    -6.672331     549.6101  0.029974373  0.030174684            4 
 1529000   0.97839704   -6.6685007     550.0968  0.029981295  0.030165962            4 
 1530000    1.0060376   -6.6876709    547.04586  0.029795526   0.03015716            6 
 1531000    1.0130722   -6.7099281    548.16996   0.02983725   0.03014842            6 
 1532000    1.0013209   -6.6736101    550.52493  0.029945873  0.030139625            6 
 1533000   0.99469856   -6.6759224    549.97521  0.029896456  0.030131113            4 
 1534000   0.98178208   -6.7584399     546.5004  0.029688201  0.030122371            3 
 1535000    1.0206483   -6.7200497    548.50604  0.029777744   0.03011361            5 
 1536000    0.9889702   -6.6580052     551.0516  0.029896463  0.030104918           10 
 1537000    1.0011368   -6.6842344    550.91508  0.029869609  0.030096279            2 
 1538000    1.0150277   -6.7217251    550.43516  0.029824185  0.030087689            8 
 1539000    1.0180558    -6.723014    551.08825  0.029840169  0.030079088            4 
 1540000     1.039738   -6.6910277    550.39006  0.029783012  0.030070325            6 
 1541000    1.0169765   -6.7000489    549.53456  0.029717421  0.030061347            3 
 1542000    1.0108539   -6.7084117    549.71266  0.029707775   0.03005232            3 
 1543000    1.0308644   -6.6759876     550.1444  0.029711839   0.03004348            5 
 1544000    1.0095083   -6.6512457    552.05291  0.029795602  0.030034733            6 
 1545000    1.0286767   -6.6993633    551.38705  0.029740402  0.030025915            9 
 1546000    1.0163308   -6.6957893    548.22379  0.029550657  0.030017019            6 
 1547000   0.99380287   -6.6948447    549.57181   0.02960417  0.030007946            7 
 1548000    1.0198247   -6.6888218    550.03051  0.029609739  0.029998844            3 
 1549000     0.999427   -6.6815986    550.08568  0.029593592  0.029989669            3 
 1550000   0.99730042   -6.7202401    551.68872  0.029660684  0.029980541            8 
 1551000    1.0161076   -6.7005407    551.47603  0.029630133  0.029971298            3 
 1552000    1.0024899   -6.6783056    552.38521  0.029659859  0.029962231            6 
 1553000    1.0027453   -6.7321086    552.56668  0.029650498  0.029953074            5 
 1554000    1.0086252   -6.6918883    552.30241  0.029617246  0.029943888            5 
 1555000     0.983532   -6.7626342    549.87237  0.029467973  0.029934664            8 
 1556000    1.0036357   -6.7221939    550.17149  0.029465054  0.029925468            9 
 1557000   0.98960183   -6.7188268    552.39417  0.029565092  0.029916397            3 
 1558000   0.98522159   -6.6927921    552.45774  0.029549515  0.029907175            4 
 1559000   0.99900469   -6.7397952    550.56806  0.029429552  0.029897942            6 
 1560000    1.0072928   -6.7177996    552.92456  0.029536569  0.029888697            5 
 1561000   0.99380699   -6.7437249    550.27688  0.029376301  0.029879423            7 
 1562000   0.99398009   -6.7014394    553.33291  0.029520535  0.029870064            3 
 1563000   0.98875287   -6.7215449    551.94714  0.029427764  0.029860784            4 
 1564000    1.0162988   -6.6635557    552.77577  0.029453099  0.029851583            2 
 1565000    1.0236688   -6.6917754    553.25377  0.029459732  0.029842401            4 
 1566000    1.0257951   -6.7239507    552.89298  0.029421721  0.029833218            7 
 1567000   0.99543477   -6.6661799    554.79476  0.029504082  0.029824178            4 
 1568000   0.98963223   -6.7051749    553.44833  0.029413708  0.029814968            7 
 1569000   0.99074847   -6.7250167    553.39972   0.02939238  0.029805785            5 
 1570000   0.99124481   -6.7255254    554.66444  0.029440788  0.029796635           12 
 1571000    1.0033184   -6.6856445    556.32422   0.02951009  0.029787665            4 
 1572000   0.97103959   -6.6967544    555.47856  0.029446488  0.029778658            5 
 1573000    1.0021773    -6.721838    554.83035  0.029393428  0.029769486            2 
 1574000   0.99289069   -6.7218775      554.224  0.029342652  0.029760605           10 
 1575000   0.99418129    -6.704117    556.71952  0.029456059  0.029751752            3 
 1576000   0.98989729   -6.6760059    558.65438  0.029539677  0.029742908            3 
 1577000    1.0043586   -6.7361731    556.44541  0.029404217  0.029734084            2 
 1578000   0.99786363    -6.670313    557.81205  0.029457755  0.029725259            4 
 1579000   0.98786735    -6.738925    557.25496  0.029409698  0.029716287            4 
 1580000    1.0185616   -6.7249745    556.26127  0.029338675  0.029707266            6 
 1581000    1.0161156   -6.7249484    555.74606  0.029292961  0.029698213            2 
 1582000   0.97987548    -6.696861    556.45852  0.029311974  0.029689191            3 
 1583000   0.99253028   -6.7027987    558.06469   0.02937801  0.029680094            3 
 1584000    1.0023811   -6.7596746     555.7902  0.029239804  0.029671087            9 
 1585000    1.0067756   -6.7203529    559.00421  0.029390337  0.029662086            2 
 1586000    0.9623935   -6.7049178    559.01864  0.029372564   0.02965298            2 
 1587000   0.99724757   -6.7729836     556.5782  0.029225908  0.029643977            4 
 1588000   0.98266765   -6.7398622    558.73682  0.029320782  0.029634826            4 
 1589000   0.99301061   -6.7446356     556.1332  0.029165786  0.029625603            5 
 1590000    1.0016087   -6.7458661     555.4173  0.029109921   0.02961642            4 
 1591000    1.0216205   -6.7461491    557.37637  0.029194237  0.029607231            6 
 1592000     1.001878   -6.7265261    558.99767  0.029260766  0.029598094            4 
 1593000   0.99833423   -6.7430563    558.41897  0.029212124  0.029589083            9 
 1594000     1.002033    -6.730249    560.19076  0.029286426  0.029579973            4 
 1595000   0.98728857   -6.7356324    561.09402  0.029315257  0.029571027            4 
 1596000   0.99648322   -6.6949937    561.40959  0.029313366  0.029562261            7 
 1597000    1.0036581   -6.7126106    561.45842  0.029297559  0.029553442            3 
 1598000    1.0085152   -6.7192949    561.88447  0.029301443   0.02954464            4 
 1599000     1.001914   -6.7368435    560.32543  0.029201867  0.029535853            4 
 1600000   0.98720666   -6.7191784    563.20815  0.029333758  0.029526953            7 
 1601000   0.98146715   -6.7246607    560.96103  0.029198471  0.029517918            3 
 1602000   0.97808804   -6.7201622    560.05126   0.02913292  0.029508804            6 
 1603000   0.99068654   -6.7112344    562.95313  0.029265602  0.029499819            5 
 1604000   0.98917709   -6.7184378    563.62989  0.029282517  0.029491062            7 
 1605000    1.0435994   -6.7317703    561.44981   0.02915108  0.029482339            5 
 1606000   0.97991558   -6.7241897    561.27595  0.029123908  0.029473579            2 
 1607000   0.97223689   -6.7225598    562.85085  0.029187454  0.029464838            3 
 1608000   0.98232949   -6.7609121    562.50808  0.029151538  0.029456026            4 
 1609000   0.99218946   -6.7565938    562.45939  0.029130899  0.029447075            5 
 1610000   0.99967461   -6.7479065    559.87371   0.02897897  0.029438104            9 
 1611000    1.0092327   -6.7362595    561.36103  0.029037918  0.029429077            5 
 1612000    1.0141456   -6.7222763    562.83464  0.029096084  0.029419914            5 
 1613000   0.98609226     -6.74398    562.22679  0.029046641  0.029410802            6 
 1614000    0.9869292   -6.6887469    563.01559  0.029069372  0.029401887            4 
 1615000    1.0083727   -6.7241522    563.24423   0.02906317  0.029392958            4 
 1616000   0.98700773   -6.7398098    562.89136  0.029026989  0.029384036            5 
 1617000    1.0132308   -6.7287019    563.35674  0.029033021  0.029375096            5 
 1618000    1.0043344   -6.7277232    563.64036  0.029029685  0.029366119            3 
 1619000   0.98148604   -6.7043821    565.85939  0.029125972  0.029357328            3 
 1620000    1.0118016   -6.7359969    562.83758  0.028952551  0.029348311            6 
 1621000   0.98150775   -6.7449161    563.17717  0.028952147  0.029339369            3 
 1622000    1.0108801    -6.740853    565.25878  0.029041244   0.02933049            5 
 1623000   0.96343221   -6.7012803    565.25624  0.029023221  0.029321541            9 
 1624000    1.0007341   -6.7555834    565.69903   0.02902807  0.029312743            4 
 1625000   0.98263089   -6.7667947    564.75922  0.028962011  0.029303838            4 
 1626000   0.99925274   -6.7108012    565.63501  0.028989084  0.029295001            5 
 1627000   0.99275113   -6.6778225    569.18161   0.02915292  0.029286091            4 
 1628000   0.99700524    -6.767906    565.88313  0.028966171  0.029277115            6 
 1629000   0.97371299   -6.7140982    567.41012  0.029026505  0.029268298            3 
 1630000    1.0170648    -6.728851    567.05852  0.028990722  0.029259473            3 
 1631000   0.99786706    -6.710329    567.71211  0.029006341  0.029250636            4 
 1632000   0.98669933   -6.7013561    566.38052  0.028920574  0.029241852            3 
 1633000   0.97181545   -6.6881186    568.37486  0.029004637  0.029233141            6 
 1634000   0.98953562   -6.7277041    566.84838  0.028909036  0.029224245           12 
 1635000    1.0001217   -6.7103894     567.9718  0.028948614  0.029215585            4 
 1636000   0.98796836   -6.7527124    566.39665  0.028850685  0.029206877            5 
 1637000   0.98909887   -6.7253313    568.43277  0.028936712  0.029198076            3 
 1638000    1.0157922   -6.7327335    567.11826   0.02885217  0.029189242            3 
 1639000   0.99732462    -6.728128    568.42021  0.028900763   0.02918048            4 
 1640000   0.98580717   -6.7275788    570.72203  0.029000103   0.02917162            4 
 1641000   0.98772247   -6.7615851    568.47168  0.028868154  0.029162855            9 
 1642000    0.9712765   -6.7589127     568.9946  0.028877111   0.02915398            5 
 1643000   0.98416871   -6.7726115    568.01149  0.028809672  0.029145053            3 
 1644000   0.97956949    -6.731475    569.05951  0.028845271  0.029136235            6 
 1645000   0.99271447   -6.7311415    568.80389  0.028814787  0.029127535            4 
 1646000   0.99625128   -6.7186282    569.31677  0.028823247  0.029118939            5 
 1647000    1.0017479   -6.7090364      571.219  0.028901994  0.029110402            4 
 1648000   0.97870369   -6.7530214    571.50864  0.028899102  0.029101926            2 
 1649000   0.98994078   -6.7482182    570.36449  0.028823756  0.029093306            5 
 1650000   0.99858323   -6.7377813    572.61795  0.028920098  0.029084749            2 
 1651000   0.99746495   -6.7867061    571.00058  0.028820946  0.029076081            4 
 1652000   0.98370762   -6.7574493    571.97906  0.028852858  0.029067504            4 
 1653000   0.99475116   -6.7426045    571.97658  0.028835278  0.029058952            7 
 1654000   0.98354113   -6.6879107    572.50851  0.028844645  0.029050531            3 
 1655000   0.99273972   -6.7393856    573.03792  0.028853873  0.029042073            3 
 1656000   0.98059088   -6.7904694    571.79563  0.028773935  0.029033434            4 
 1657000   0.97100323   -6.7509905    572.76088  0.028805114  0.029024882            8 
 1658000    1.0076491    -6.721055     573.5319  0.028826493  0.029016279            4 
 1659000   0.99187582   -6.7651769    572.62674   0.02876365  0.029007717            4 
 1660000   0.98659373   -6.7660985    572.62817  0.028746394  0.028999099            9 
 1661000    0.9743296   -6.7594328    573.65283  0.028780495  0.028990357            6 
 1662000    1.0021947   -6.7430746    573.79617  0.028770365   0.02898193           10 
 1663000    1.0234696   -6.7300844    575.35664  0.028831261  0.028973454            4 
 1664000   0.98876213   -6.7416174    574.31846  0.028761942  0.028964965            4 
 1665000   0.98534802   -6.7420718    574.84727  0.028771134  0.028956334            7 
 1666000   0.98749747   -6.7139276    575.87437   0.02880524  0.028947608            4 
 1667000   0.97779997   -6.7085049    577.04859   0.02884666  0.028939149            8 
 1668000   0.99091554   -6.7121952    576.76299  0.028815098  0.028930672            3 
 1669000   0.97215939   -6.7781776    574.60671  0.028690169   0.02892202            7 
 1670000   0.99171689   -6.7529319    573.48523  0.028617028   0.02891334            4 
 1671000    0.9746974   -6.7676123    573.51252  0.028601263   0.02890466            3 
 1672000   0.97100194   -6.7697121    574.19046  0.028617945   0.02889592            7 
 1673000   0.98371091   -6.7669039    574.93052  0.028637703  0.028887158            2 
 1674000   0.99034293   -6.7818013    573.94493  0.028571532  0.028878482            4 
 1675000   0.98073391   -6.7550056    574.61903  0.028588012  0.028869702            8 
 1676000   0.99771479   -6.7268039    577.68385  0.028723342  0.028861179            3 
 1677000   0.98061465   -6.7616562    575.92529  0.028618828  0.028852746            5 
 1678000   0.96705631   -6.7462228    576.35011   0.02862287  0.028844187            6 
 1679000   0.99549183   -6.7466564    576.16121  0.028596447   0.02883571            7 
 1680000    0.9657151   -6.7603891    574.85999   0.02851488  0.028826983            4 
 1681000   0.96365553   -6.7193298    579.30455  0.028718251  0.028818457            5 
 1682000   0.99303569   -6.7479359    578.06775    0.0286399  0.028809989            3 
 1683000   0.97472913   -6.7660371    576.96548  0.028568305  0.028801425            6 
 1684000   0.98721584   -6.7491055    577.92603  0.028598873  0.028792906            3 
 1685000   0.97890326   -6.7675301    578.08856  0.028589939  0.028784333            7 
 1686000   0.96063458   -6.7593632    579.01215  0.028618631  0.028775712            4 
 1687000   0.96430304   -6.7432019     578.9481  0.028598503  0.028767085            7 
 1688000   0.98950566   -6.7631515    578.09388   0.02853939  0.028758551           12 
 1689000   0.96656049   -6.7533911    580.79337  0.028655682   0.02875005            3 
 1690000   0.98537033   -6.7786803    578.76864  0.028538887  0.028741587            3 
 1691000   0.98145581   -6.7524576    580.99646  0.028631799  0.028733294            5 
 1692000   0.97069026   -6.7557229     580.6636  0.028598483  0.028725018            3 
 1693000   0.99433673   -6.7465149    581.94743  0.028644784  0.028716718            2 
 1694000   0.98907952   -6.7723513    580.55463  0.028559358  0.028708343            3 
 1695000   0.98829993   -6.7938577    580.00413  0.028515444   0.02869996            2 
 1696000   0.98057938   -6.7297696    581.17449  0.028556137  0.028691565            4 
 1697000    1.0087799   -6.7551683    581.19883  0.028540504  0.028683251            4 
 1698000   0.96877135   -6.7574623    581.00615   0.02851424  0.028674801            4 
 1699000    0.9768721   -6.7719523     579.8353  0.028440029  0.028666327            2 
 1700000   0.96396294    -6.756418    582.61218  0.028559421  0.028657981            5 
 1701000   0.98756983    -6.786885     582.4984  0.028537057  0.028649466            4 
 1702000     1.010724   -6.7346064    582.90453  0.028540175  0.028641023            7 
 1703000   0.95697907   -6.7791339    582.45902  0.028501616   0.02863266            3 
 1704000   0.96990702   -6.7268295    581.71033  0.028448275  0.028624149            3 
 1705000   0.99948047   -6.7382401    582.01818  0.028446636  0.028615714            3 
 1706000   0.97981286   -6.7380065    581.82914  0.028420728  0.028607207            6 
 1707000   0.98034965   -6.7604032    581.87416  0.028406276  0.028598703            8 
 1708000   0.98380826   -6.7587429    581.35622  0.028364375  0.028590195            3 
 1709000   0.97416581   -6.8064149    581.47623  0.028353629  0.028581572            6 
 1710000   0.97718856   -6.8160607    582.27687  0.028376066  0.028573042            3 
 1711000   0.95538562   -6.7995118    582.17139  0.028354344  0.028564559           10 
 1712000   0.95080983    -6.806619    581.60866  0.028310391  0.028556041            7 
 1713000   0.97137966   -6.7887345    583.64687  0.028393018  0.028547455            4 
 1714000   0.96443276    -6.753782     584.3331  0.028409816  0.028539105            3 
 1715000    1.0015418   -6.7802015    583.48505  0.028352043  0.028530669            6 
 1716000   0.99891664   -6.7596294    584.13996  0.028367325  0.028522244            3 
 1717000   0.99356073   -6.8077058    584.17715  0.028352609  0.028513738            4 
 1718000   0.97224126   -6.7614035    584.53182  0.028353309  0.028505275            7 
 1719000   0.98628426   -6.7780196    585.14109  0.028366351  0.028496872            4 
 1720000   0.97168775   -6.7596886    584.71629  0.028329277  0.028488531            5 
 1721000   0.96854575   -6.7878741    584.98156  0.028325661  0.028480193            3 
 1722000   0.98221312   -6.7307773    585.69358  0.028343669   0.02847188            6 
 1723000    1.0022452   -6.7591376    585.84528  0.028334556  0.028463563            3 
 1724000   0.96691303   -6.7487039    587.50685  0.028398436    0.0284551            4 
 1725000   0.98870727   -6.7635775    586.56939  0.028336685  0.028446915            5 
 1726000   0.96903672    -6.775806    588.21428  0.028399685  0.028438639            6 
 1727000   0.95526234   -6.7813079    586.87642  0.028318684  0.028430365            6 
 1728000   0.98215353   -6.7426932    588.17986  0.028365155    0.0284221            2 
 1729000   0.96359003    -6.782598    587.24235  0.028303564  0.028413749            3 
 1730000   0.97587273     -6.76099    588.76371  0.028360487  0.028405477            2 
 1731000    0.9966041   -6.7584766    586.20675  0.028221007  0.028397152            5 
 1732000   0.98625957   -6.8031221    586.24421  0.028206515  0.028388802            6 
 1733000   0.96249003   -6.7471285    589.17535  0.028331186  0.028380454            4 
 1734000   0.96481328   -6.7621571    584.94675  0.028111628  0.028372058            7 
 1735000   0.96613898   -6.8368971    585.06564  0.028101136  0.028363506            6 
 1736000   0.98687429   -6.8094249    586.78073  0.028167278  0.028354977            4 
 1737000   0.97468897   -6.7333763    589.54991  0.028283914  0.028346697            4 
 1738000   0.95869243   -6.7878494    588.64269  0.028224141  0.028338202            4 
 1739000   0.95816034   -6.7825267    588.77655  0.028214326  0.028329592            6 
 1740000   0.97951059   -6.7888336    588.75011  0.028196844  0.028321192            4 
 1741000   0.97896531   -6.7624059    588.29011   0.02815863  0.028312848            3 
 1742000   0.97423875   -6.8206745    587.65482  0.028112075   0.02830443            7 
 1743000   0.97195122     -6.78261    588.04611  0.028114654  0.028296144            4 
 1744000    0.9753401   -6.7511156    590.64462  0.028222698  0.028287872            4 
 1745000    0.9817196   -6.8236321    588.10466  0.028085227  0.028279587            5 
 1746000   0.96181228   -6.7851018    589.67561   0.02814412  0.028271341            4 
 1747000   0.96816223   -6.7737092    588.77116  0.028084868  0.028263115            5 
 1748000    1.0081567   -6.8192955    589.77778   0.02811679  0.028254686            4 
 1749000   0.96320576   -6.8091717    591.51945  0.028183698  0.028246329            4 
 1750000   0.95268271   -6.8095318    589.10208   0.02805248   0.02823805            5 
 1751000    0.9704511   -6.7800798    591.00867  0.028127197  0.028229732            3 
 1752000   0.97967889    -6.780918    592.75384  0.028194151  0.028221438            4 
 1753000   0.96749179   -6.7803167    591.43261   0.02811526  0.028213097            4 
 1754000   0.93875709   -6.7773537    591.40035  0.028097698  0.028204795            3 
 1755000    0.9882568   -6.8310527    588.84673  0.027960434  0.028196322            4 
 1756000    0.9756635   -6.8061203    589.92185  0.027995532  0.028187884            6 
 1757000   0.97064293   -6.7921148    591.09751  0.028035359    0.0281795            4 
 1758000    0.9926834   -6.7989055       591.83  0.028054133  0.028171113            3 
 1759000   0.96659084   -6.7799103    592.37769  0.028064132  0.028162747            4 
 1760000   0.98527691   -6.8107576    590.08944  0.027939841  0.028154202           17 
 1761000   0.96209514   -6.7956623     591.8322  0.028006445  0.028145684            7 
 1762000   0.96102414   -6.7937904    591.80238   0.02798914  0.028137212            2 
 1763000   0.95963024   -6.7968321    592.32855  0.027998135  0.028128773            4 
 1764000    0.9873864   -6.7780509    592.50624  0.027990658  0.028120311            4 
 1765000   0.97849763   -6.7679941    591.53736  0.027929054  0.028111971            6 
 1766000    0.9767108   -6.7395751    592.84685   0.02797503  0.028103653            3 
 1767000   0.97631249   -6.7954297    591.89791  0.027914446  0.028095309            4 
 1768000   0.97339236   -6.8250303    591.63262  0.027886153  0.028086866            7 
 1769000   0.98257491   -6.8145452    592.69499  0.027920435  0.028078339            4 
 1770000   0.98085051   -6.8184063    593.44271  0.027939864  0.028069956            3 
 1771000   0.93784861    -6.824332    591.44509  0.027830091   0.02806146            2 
 1772000   0.96784654    -6.786452    594.73492  0.027969099  0.028053039            8 
 1773000   0.96138314   -6.7517881    595.28658  0.027979253  0.028044712            7 
 1774000   0.95964004   -6.7706183    596.06463  0.028000029  0.028036419            3 
 1775000   0.97619464   -6.7463618    597.34606  0.028044416  0.028028071           10 
 1776000   0.96601686   -6.8118672    595.69986  0.027951382  0.028019893            3 
 1777000   0.96475445   -6.8054656     595.2148  0.027912906   0.02801169            5 
 1778000    0.9544131   -6.7946781    595.23811  0.027898299  0.028003449            5 
 1779000   0.96085667   -6.8200074    595.16202  0.027879053  0.027995212            2 
 1780000   0.96319666   -6.8288667     595.4497  0.027876858  0.027986928            5 
 1781000   0.94215563   -6.7946757    595.55199  0.027865993  0.027978711            4 
 1782000   0.97234694   -6.7737394    597.25669  0.027930074  0.027970547            6 
 1783000   0.95594938   -6.7849628    598.92802  0.027992523  0.027962355            4 
 1784000   0.97156452   -6.7631965    596.51204  0.027863978  0.027954121            3 
 1785000   0.98527715   -6.7987445    596.73804  0.027858919  0.027945985            4 
 1786000   0.96690132   -6.8067494    596.70926  0.027841977  0.027937799            3 
 1787000   0.96022028   -6.8020884    596.68829  0.027825419  0.027929589            6 
 1788000   0.96390721   -6.8294719    594.85584  0.027724452  0.027921372            4 
 1789000    0.9817272   -6.7672201    598.75637  0.027890645  0.027913206            9 
 1790000   0.95991395   -6.7894916    596.51212  0.027770583  0.027905065            4 
 1791000   0.96620469   -6.8021249    598.80148  0.027861599  0.027896944            8 
 1792000   0.98336884   -6.8159077    595.29774  0.027683117   0.02788864            6 
 1793000   0.99483752   -6.8733961    596.14913  0.027707247  0.027880339            6 
 1794000   0.95629203   -6.7925287    598.06905  0.027780985  0.027872048            6 
 1795000   0.97476229    -6.806602    597.72989  0.027749763   0.02786377            7 
 1796000   0.96245043   -6.7477886    600.08711  0.027843686  0.027855506            4 
 1797000   0.97323622     -6.78564    598.19802  0.027740587  0.027847301            8 
 1798000   0.98019831   -6.8186169     597.1755  0.027677767  0.027839119            4 
 1799000   0.97511404   -6.8277236    599.73591  0.027780985  0.027830878            4 
 1800000   0.96021047   -6.8364222    599.50755  0.027754979  0.027822608            8 
 1801000   0.96158278   -6.8442755    598.56893  0.027696138  0.027814287            4 
 1802000   0.94854851   -6.8213095    597.99582  0.027654265  0.027805989            6 
 1803000   0.95816142   -6.8016691    599.97879  0.027730578  0.027797646            5 
 1804000   0.95404457   -6.7930017    600.00301  0.027716325  0.027789494            5 
 1805000   0.96347454   -6.7953174    600.58041  0.027727627  0.027781386            5 
 1806000   0.97003781   -6.7948306    600.51138  0.027709089  0.027773165            3 
 1807000   0.96486641   -6.8379162    598.24245  0.027589118  0.027764886            6 
 1808000   0.94764422   -6.8161672    600.46465  0.027676284  0.027756615            4 
 1809000   0.97356461   -6.8156543    600.38135  0.027657147  0.027748457            4 
 1810000   0.98666387   -6.8284935    599.59741  0.027605774  0.027740208            7 
 1811000   0.96517212   -6.8390175    600.84182  0.027647792  0.027731852            4 
 1812000   0.95167183   -6.8344792    600.19345  0.027602716  0.027723529            9 
 1813000   0.97207088   -6.8100687    601.12871  0.027630479  0.027715076            7 
 1814000   0.95207937   -6.7941866    601.36323  0.027626021  0.027706825            3 
 1815000   0.94831314   -6.8087839    601.73896  0.027628052  0.027698631            5 
 1816000    0.9473918     -6.80053    600.98621  0.027578295  0.027690505            4 
 1817000   0.95734528   -6.7886005    602.09401  0.027613925  0.027682361            9 
 1818000   0.95074262   -6.7434391     604.2546  0.027697772  0.027674131            2 
 1819000   0.94310062   -6.8438001    600.89098  0.027528449  0.027665958            7 
 1820000   0.97941971   -6.8136472    603.41723  0.027628994  0.027657762            8 
 1821000   0.97213075    -6.860656    602.25796  0.027560771  0.027649589            4 
 1822000   0.95154166    -6.859875    601.65861  0.027518232   0.02764134            4 
 1823000   0.95905769    -6.835987    601.61576  0.027501177  0.027633029            7 
 1824000   0.95350605   -6.8346819    603.42159  0.027568603  0.027624744            7 
 1825000   0.99124162   -6.8257684    603.23192  0.027544836  0.027616605            7 
 1826000   0.96534387   -6.8117962    603.92094  0.027561197  0.027608413            3 
 1827000   0.95163415   -6.8124762    603.70789  0.027536394  0.027600187            2 
 1828000   0.96708341   -6.7886978    605.88342  0.027620506  0.027592219            5 
 1829000   0.97685356   -6.8077032     603.9186  0.027515883  0.027584281            4 
 1830000   0.95605748   -6.7947951    605.01288  0.027550678   0.02757627            5 
 1831000   0.94306379   -6.8273792    604.47433   0.02751112  0.027568123            6 
 1832000   0.97206492   -6.7974425    605.20209  0.027529207  0.027560159            7 
 1833000    0.9417661   -6.8051468    606.63201  0.027579197  0.027552147            7 
 1834000   0.95439887   -6.8055765    603.64042  0.027428227  0.027544116            6 
 1835000   0.95390229   -6.8519834     603.8881  0.027424528    0.0275361            3 
 1836000   0.96404755   -6.8207511    605.91067  0.027501392  0.027528038            7 
 1837000   0.96105232   -6.8499043    605.82448  0.027482511  0.027519919            5 
 1838000   0.94277034   -6.8487763    605.35329  0.027446195  0.027511733           11 
 1839000   0.96252754   -6.8021989    606.07219  0.027463847  0.027503637            3 
 1840000     0.967174   -6.8261054    605.59219  0.027427183  0.027495575           10 
 1841000   0.93798097   -6.8197193    605.98242  0.027429948  0.027487595            8 
 1842000   0.95293154   -6.8102228    606.66793   0.02744607  0.027479621            4 
 1843000   0.93759023    -6.828964    607.83492  0.027483945  0.027471549            5 
 1844000   0.94764956    -6.817654    606.77631    0.0274212  0.027463556            4 
 1845000   0.94764503   -6.7942355    607.18432  0.027424766   0.02745561            5 
 1846000   0.96800578   -6.8352393    609.29813  0.027505333  0.027447692            6 
 1847000   0.95189536   -6.8432411    605.32211   0.02731105  0.027439597            3 
 1848000   0.94480337   -6.8156215    608.12481  0.027422655  0.027431502            6 
 1849000   0.95448968   -6.8402851    607.30752   0.02737099  0.027423377            4 
 1850000   0.95987132   -6.8442323    607.43694  0.027362024  0.027415354            6 
 1851000   0.96130255   -6.8357254    606.80689  0.027318877  0.027407294            5 
 1852000   0.94614165   -6.8595147    607.24836   0.02732399  0.027399163            6 
 1853000   0.94576644   -6.7937748    607.94831  0.027340723   0.02739106            4 
 1854000   0.96160642   -6.8453292    608.44492  0.027348297  0.027382979            4 
 1855000   0.95946335   -6.8370105    608.07534  0.027316951  0.027374881           12 
 1856000   0.94400669   -6.8342082    609.36756  0.027360253  0.027366726            6 
 1857000   0.96344909   -6.8421053    607.37118  0.027255932  0.027358667            6 
 1858000   0.94197797   -6.8498416    609.53282  0.027338214  0.027350459            3 
 1859000   0.92943084   -6.8425859    609.00113  0.027299674  0.027342266            7 
 1860000     0.952259   -6.7979251    610.53602  0.027353764  0.027334181            6 
 1861000   0.94027617   -6.8131254    609.30438  0.027283914  0.027326145            3 
 1862000    0.9618859   -6.8309387    610.43755  0.027319976  0.027318088            3 
 1863000   0.94925956   -6.8206411    609.47814  0.027262396  0.027309866            6 
 1864000   0.95040406   -6.8635943     608.5141  0.027204672  0.027301726            4 
 1865000   0.94457392   -6.8557534    607.74679  0.027155799  0.027293433            3 
 1866000   0.94911302   -6.8887149    607.94401  0.027150054   0.02728517            6 
 1867000   0.96335263   -6.8685241    608.66226  0.027167571  0.027276767            6 
 1868000   0.95071282   -6.8633113    608.22755  0.027133635  0.027268442            6 
 1869000   0.94849755   -6.8618953     608.5821  0.027134925  0.027260089            4 
 1870000   0.93637328   -6.8302946    608.77178  0.027128867  0.027251693            4 
 1871000   0.93784654   -6.8536533    608.51185   0.02710279  0.027243403            2 
 1872000   0.96313913   -6.8407409    609.10883  0.027114887  0.027235165           13 
 1873000   0.96653751   -6.8052116    608.86875  0.027089729  0.027226929            4 
 1874000   0.95695925    -6.829065     609.8853  0.027120478  0.027218609            6 
 1875000   0.95462872   -6.8010307     610.2153   0.02712068  0.027210481            4 
 1876000   0.95485799   -6.8217621    609.56708  0.027077429  0.027202413            7 
 1877000   0.95809766   -6.8215038    611.30789   0.02714029  0.027194285            2 
 1878000   0.95840377   -6.8407953    611.09173  0.027116246  0.027186242            5 
 1879000   0.95525358   -6.8512875    612.41892  0.027160676  0.027178107            4 
 1880000   0.92400615   -6.7895595    614.21782  0.027225967  0.027169954            7 
 1881000   0.95050955   -6.8110952    612.97577  0.027156467  0.027161924            5 
 1882000   0.97601008   -6.8352224    611.53211  0.027078113  0.027153764            5 
 1883000   0.94098361   -6.8369474    613.22784  0.027138779   0.02714559            6 
 1884000   0.93818171   -6.8540009    612.96803  0.027112882  0.027137458            9 
 1885000   0.95110173   -6.8550729    613.98162  0.027143308  0.027129337            4 
 1886000   0.94438572   -6.8064381    612.41353  0.027059629  0.027121277            4 
 1887000   0.94911527   -6.8723742    611.69544  0.027013577  0.027113124            7 
 1888000   0.95439299   -6.8258324    613.89671   0.02709643  0.027105051            2 
 1889000   0.94349897   -6.8817044    613.17364  0.027050187   0.02709682           10 
 1890000    0.9350189   -6.8365919    614.45081  0.027092187  0.027088632            4 
 1891000    0.9259547   -6.8328228    613.09836   0.02701826  0.027080487            7 
 1892000    0.9699715   -6.8368151    615.21599  0.027097251  0.027072413           15 
 1893000   0.95620105   -6.8564613     612.2181  0.026950964  0.027064246            5 
 1894000   0.93199026   -6.8324034    613.19919  0.026979901   0.02705607            8 
 1895000   0.93917711   -6.8484043    611.94807  0.026910645  0.027047859            4 
 1896000   0.95679136   -6.8673269    612.74202  0.026931348   0.02703969            7 
 1897000   0.93494326   -6.8271563    616.92822  0.027101046  0.027031621            5 
 1898000   0.95700791   -6.7983583    617.15593  0.027096765  0.027023585            5 
 1899000    0.9450749   -6.8183248    615.78213   0.02702221  0.027015724            4 
 1900000   0.93326637   -6.8421102    615.66637  0.027002911  0.027007625            8 
 1901000   0.95708377   -6.8393461    614.44417  0.026935129  0.026999561            3 
 1902000   0.97728761   -6.8570374      613.621  0.026884902  0.026991439           17 
 1903000   0.93324356   -6.8623403    613.42427  0.026862159  0.026983428            8 
 1904000   0.94476112   -6.8806922    614.69231   0.02690355  0.026975223            3 
 1905000   0.94411849   -6.8091502    616.69986  0.026977247  0.026967115            5 
 1906000   0.96647161   -6.8259055    617.12997  0.026981898  0.026959155            5 
 1907000   0.95521023    -6.833472    617.26653  0.026973717  0.026951206            4 
 1908000   0.95024758   -6.8609242    617.50726  0.026970094  0.026943181            3 
 1909000   0.94911281   -6.8309249    618.00943  0.026977887   0.02693507            7 
 1910000     0.931376   -6.8852606    617.75404  0.026952619  0.026927103            4 
 1911000   0.96456175   -6.8780206    616.47414  0.026882703  0.026919142            4 
 1912000    0.9475967   -6.8355483    618.50398  0.026957112  0.026911295            4 
 1913000   0.94214106   -6.8893681      617.737   0.02690961  0.026903522           10 
 1914000   0.93689705   -6.8346478    618.91174  0.026946697  0.026895566            8 
 1915000   0.94841376   -6.9144874    615.43351  0.026781267  0.026887648            6 
 1916000   0.94035741   -6.8564483    618.57754  0.026904033  0.026879779            4 
 1917000    0.9403584   -6.8472884    620.26093  0.026963177  0.026871951            3 
 1918000   0.94584051   -6.8620995    619.35017  0.026909548  0.026864133            4 
 1919000   0.91381785   -6.8572234    619.11801  0.026885444  0.026856341            4 
 1920000   0.96207102    -6.891727    618.23059  0.026832925  0.026848502            5 
 1921000   0.94822596   -6.8730957    618.96612  0.026850864  0.026840573            6 
 1922000   0.96869724    -6.904158    621.02737  0.026926265  0.026832735            8 
 1923000   0.94155355   -6.8328218    619.95459  0.026865774   0.02682504            7 
 1924000   0.94540971   -6.8786123    618.87398  0.026805006  0.026817383            8 
 1925000   0.95206566   -6.8772503    621.12662  0.026888598  0.026809661            5 
 1926000   0.92024816   -6.8581531    621.50173  0.026890867  0.026801921            6 
 1927000   0.94446094   -6.8427484    622.18489  0.026906456  0.026794241           10 
 1928000   0.94967085   -6.8761131    621.45602  0.026860997  0.026786601            6 
 1929000   0.92543695   -6.8548496    622.42805  0.026889064  0.026778858           18 
 1930000   0.95321696   -6.8494599    622.62118  0.026883471  0.026771182            8 
 1931000   0.93795889   -6.8976026    620.25797  0.026767563  0.026763488            2 
 1932000   0.93565769    -6.875613    621.97602  0.026827813  0.026755678            9 
 1933000    0.9506096     -6.89272    620.83412  0.026764706   0.02674784            7 
 1934000   0.95068453   -6.8639635     622.4522  0.026820588  0.026740014            7 
 1935000   0.95901114   -6.8802891    621.04436  0.026746097  0.026732208            3 
 1936000   0.94743941   -6.9102131    621.42353  0.026748602  0.026724383            5 
 1937000   0.92823998   -6.8672497    620.72712  0.026704832   0.02671656            4 
 1938000   0.92815805   -6.9044344    621.98245  0.026745031  0.026708743            9 
 1939000   0.94192738   -6.8989511    621.87833  0.026726763  0.026700862            4 
 1940000   0.93670808   -6.8638676    621.30786  0.026688482  0.026693104            3 
 1941000   0.95613762   -6.8709896    622.45616  0.026724032  0.026685299            7 
 1942000   0.94522962   -6.8438679    622.18521  0.026698644  0.026677523            6 
 1943000   0.95067417   -6.8943495     623.0311  0.026721183  0.026669733            5 
 1944000   0.92641817   -6.8935102    621.51023  0.026642243  0.026661896            4 
 1945000   0.95530043   -6.9110838    622.07245  0.026652633  0.026654056            6 
 1946000   0.93291588    -6.905739    621.90398  0.026631722  0.026646116           10 
 1947000   0.93905302   -6.8842391    624.37598  0.026723848  0.026638258            8 
 1948000   0.95032406   -6.8613485    625.05374  0.026739123  0.026630475            5 
 1949000   0.96104653   -6.8249676    625.26556   0.02673446  0.026622734            5 
 1950000   0.93349831   -6.8787345    625.70391  0.026739483  0.026614952            9 
 1951000   0.93081581   -6.8316535    627.24263  0.026791501  0.026607304            3 
 1952000   0.94011742   -6.8670172    625.33208  0.026696212  0.026599704            6 
 1953000   0.94301531   -6.8866474     624.6347  0.026652786  0.026591907            6 
 1954000   0.94041354   -6.9132031    622.73764  0.026558241  0.026584033           10 
 1955000   0.93733044   -6.8786001    624.59908  0.026624002  0.026576136            6 
 1956000   0.94368457   -6.9079069    622.97937  0.026541384   0.02656832            6 
 1957000   0.94166811   -6.9017092    624.23918  0.026581467  0.026560451            6 
 1958000   0.93118275   -6.8562613    625.90658  0.026638857  0.026552682            6 
 1959000    0.9400459   -6.8832433    624.37738  0.026560208  0.026545055            7 
 1960000   0.94820682   -6.8983336    627.30125  0.026670971  0.026537326            5 
 1961000   0.93365892   -6.8569571    626.13018  0.026607606  0.026529705            5 
 1962000    0.9296484   -6.8436268    629.12314  0.026721166  0.026522071            3 
 1963000   0.95593196   -6.8870929    626.41542  0.026592606  0.026514368            8 
 1964000   0.93883357   -6.8659116    626.51747  0.026583396  0.026506681            4 
 1965000   0.93926022   -6.8846044    627.18252  0.026598071  0.026499021            2 
 1966000   0.94582536   -6.8934796    625.61546  0.026518119  0.026491354            6 
 1967000   0.93762995   -6.8739729    626.61683  0.026547061  0.026483591            4 
 1968000   0.92495627   -6.8902142    627.36271  0.026565155  0.026475791           22 
 1969000   0.94945651    -6.893473    627.78677  0.026569611  0.026467974            5 
 1970000   0.93228257   -6.9037463    627.00702   0.02652314  0.026460242            4 
 1971000   0.94286534    -6.893467    626.52304   0.02648922  0.026452504            3 
 1972000   0.93452862    -6.901693    626.25475   0.02646445  0.026444694            7 
 1973000   0.93363104   -6.8758372    628.13122  0.026530293  0.026436894            4 
 1974000   0.94110047   -6.8939873    626.98791  0.026468588  0.026429137            4 
 1975000   0.94903061   -6.9069412    627.22547   0.02646521  0.026421314            8 
 1976000    0.9637024   -6.9197779    628.13308  0.026490093  0.026413503            5 
 1977000   0.95263848   -6.8619838    630.12446  0.026560633  0.026405781            3 
 1978000   0.94231401   -6.8972047     627.5115  0.026437121  0.026397975            6 
 1979000   0.90292156   -6.9430769    627.04011  0.026403912   0.02639022            6 
 1980000   0.94217943    -6.951179    627.90494  0.026426976  0.026382375            7 
 1981000   0.94419891    -6.884893    629.99464  0.026501541  0.026374634            4 
 1982000   0.93750062   -6.8691135    629.12736  0.026451705  0.026366996            6 
 1983000    0.9605082   -6.8817973    629.39407  0.026449574  0.026359322            4 
 1984000   0.94716895   -6.8551542    629.06869  0.026422576  0.026351653            5 
 1985000   0.94195484   -6.8737298    630.30759  0.026461276  0.026343932            3 
 1986000   0.94909758   -6.8812318    628.14819  0.026357343  0.026336282            8 
 1987000   0.92732311   -6.8689972    629.29693  0.026392255  0.026328639            4 
 1988000   0.93032532   -6.8496972    630.87778  0.026445245  0.026320971            6 
 1989000   0.95089764   -6.8442804    631.62179  0.026463122  0.026313373            5 
 1990000    0.9308368   -6.8848908    632.92092  0.026504226  0.026305796            7 
 1991000   0.94089981   -6.8702711    633.02315  0.026495193  0.026298196            3 
 1992000   0.93402685   -6.9141794    630.80657  0.026389164  0.026290494            5 
 1993000    0.9309622   -6.8901291    631.76783  0.026416116  0.026282907            4 
 1994000   0.92263539   -6.9197059    631.43927  0.026389137  0.026275273            3 
 1995000   0.92468908   -6.9115031     630.3855  0.026331892  0.026267464            9 
 1996000   0.92247142   -6.8670709    632.66951  0.026414058   0.02625979            5 
 1997000    0.9298938   -6.8613336    632.12662  0.026378176  0.026252213            5 
 1998000   0.91192215   -6.8911432    632.92751  0.026398378  0.026244665            4 
 1999000   0.92754133   -6.8917597    632.10089  0.026350712   0.02623703           10 
 2000000   0.90146879   -6.8716574    632.79755  0.026366565  0.026229521            3 
 2001000   0.92703743   -6.8985667    631.97284  0.026319042  0.026221869            5 
 2002000   0.92773468   -6.8758429    632.58051   0.02633119  0.026214252            5 
 2003000   0.92523896   -6.8450864    634.37393  0.026392658  0.026206585            5 
 2004000   0.91792415   -6.9052468     631.3834  0.026255131  0.026199022            4 
 2005000   0.95344681   -6.9105894    632.35136  0.026282267  0.026191352            7 
 2006000   0.93751441   -6.9127383    632.77085  0.026286592  0.026183669            7 
 2007000    0.9157684   -6.8775394    632.66824  0.026269234  0.026176084            6 
 2008000   0.93683903   -6.8909855     631.4388   0.02620513  0.026168429            6 
 2009000   0.93029501   -6.8798978    632.71829  0.026245159  0.026160672            8 
 2010000   0.93107633   -6.8695905    633.98851  0.026284764   0.02615292            7 
 2011000   0.93608708   -6.9157488    633.48402  0.026250788  0.026145267            9 
 2012000   0.94078913   -6.9146751    633.48202  0.026237658   0.02613761            5 
 2013000   0.92635055   -6.9066878    632.85227  0.026198554  0.026129921            4 
 2014000   0.93852393   -6.9251634    633.77147  0.026223579  0.026122184            7 
 2015000   0.92978735    -6.932915    632.30653  0.026149981  0.026114414            7 
 2016000   0.93236276   -6.9282077    633.89017  0.026202471   0.02610671            5 
 2017000   0.93513805   -6.8578772    635.05085  0.026237434  0.026099013            7 
 2018000   0.92106956   -6.9042907    635.46563   0.02624156  0.026091283            6 
 2019000   0.94743291   -6.8946494    633.20364  0.026135201  0.026083633            7 
 2020000   0.94247085   -6.8957536    634.23523   0.02616482  0.026075917            5 
 2021000   0.92433753   -6.9118578    633.73189  0.026131119  0.026068193            9 
 2022000   0.91837322   -6.9078502    634.68753   0.02615758  0.026060601            5 
 2023000   0.90996651   -6.8948672    635.21288  0.026166291  0.026052886            4 
 2024000   0.91793002   -6.9538486    633.42605  0.026079794  0.026045092            4 
 2025000   0.93790331   -6.9058769    635.73171  0.026161799  0.026037434            4 
 2026000   0.92790272   -6.9346697    636.11699  0.026164733  0.026029748            3 
 2027000   0.92888207   -6.8618646    637.10163  0.026192305  0.026022147            6 
 2028000   0.91672083   -6.8789248    635.78719  0.026125378   0.02601456            5 
 2029000   0.90843425   -6.9064797    637.21926  0.026171319  0.026006971            5 
 2030000   0.93875291   -6.8719295    635.64913  0.026093971  0.025999305            4 
 2031000   0.91790214   -6.9289814    636.87978  0.026131618  0.025991607           10 
 2032000   0.93640616   -6.8931737    636.19012  0.026090474  0.025983976            6 
 2033000   0.93791043   -6.9181678    635.06172  0.026031387  0.025976291            6 
 2034000   0.92519109   -6.9243331    636.29353  0.026069057   0.02596855            6 
 2035000   0.91686083   -6.8959078    638.24902  0.026136324  0.025960938            6 
 2036000   0.92730486   -6.9269035    637.06581  0.026075058   0.02595334            4 
 2037000   0.92813937   -6.9379596    636.53736  0.026040638  0.025945618            8 
 2038000   0.93565295   -6.8654612    636.62944  0.026031626   0.02593786            8 
 2039000   0.93745038   -6.8873725    638.56845  0.026098106  0.025930216            7 
 2040000   0.91983924   -6.8831346    637.28102  0.026032721  0.025922496            7 
 2041000   0.92235822   -6.8996006     637.1507  0.026014646  0.025914775            5 
 2042000   0.91622369   -6.9109878     637.1881  0.026003432  0.025907097            6 
 2043000   0.91705986   -6.8896009    637.31742  0.025995979  0.025899399            4 
 2044000   0.93328994   -6.8899485    637.01852  0.025971075  0.025891806            8 
 2045000   0.90975283   -6.8807601    638.98989  0.026038708  0.025884175            8 
 2046000      0.93368   -6.9021694    637.44051  0.025962875  0.025876417            7 
 2047000   0.92839964   -6.9199507    638.22336  0.025982062  0.025868632            9 
 2048000    0.9281554   -6.9169594    638.67469   0.02598774    0.0258609            9 
 2049000   0.91004106    -6.928074    636.40664  0.025882814  0.025853152            7 
 2050000   0.92590496   -6.8864112    638.63542   0.02596079  0.025845422            7 
 2051000   0.90684989   -6.9324242    637.26936  0.025892628    0.0258378            4 
 2052000    0.9095308    -6.938068    639.03636  0.025951769  0.025830106            4 
 2053000   0.92094396   -6.9334201    636.66956  0.025843057  0.025822378            9 
 2054000   0.93458515   -6.9151693    638.36219  0.025899148  0.025814721            7 
 2055000    0.9434926   -6.9136802    638.38518  0.025887477  0.025807062           16 
 2056000   0.93250829   -6.9402091    639.34395  0.025913746  0.025799383            5 
 2057000   0.91979014   -6.9581163    636.97692  0.025805255  0.025791676            8 
 2058000   0.92761959   -6.9211014    640.55563  0.025937627   0.02578404            4 
 2059000   0.90478964   -6.9381297    638.09029  0.025825251  0.025776392            4 
 2060000   0.92466371   -6.9217907    640.79044  0.025921943   0.02576871            6 
 2061000   0.93522046   -6.9257725    639.18128  0.025844302  0.025761076            3 
 2062000   0.92893953   -6.9846523    637.54291  0.025765556  0.025753396            7 
 2063000   0.91101693   -6.9703984    638.48838  0.025791258  0.025745646            6 
 2064000   0.89641697   -6.8907084    642.50995  0.025941132  0.025737982            7 
 2065000   0.92312937   -6.9331413    640.19073  0.025834977  0.025730338            7 
 2066000   0.91964028   -6.9782123    640.80251  0.025847149  0.025722647           10 
 2067000   0.92946804   -6.9245885    641.38724  0.025858218  0.025714986            4 
 2068000   0.91578429   -6.9291627    639.73356  0.025779076  0.025707394            4 
 2069000   0.91956295   -6.9156865    640.91077  0.025814031  0.025699796            6 
 2070000   0.92424162    -6.900044    640.91033  0.025801543  0.025692232           14 
 2071000   0.92990018   -6.9531565    640.48661  0.025772035   0.02568457            5 
 2072000   0.92212661   -6.9535316    640.54385  0.025761899  0.025676888            4 
 2073000   0.93092431   -6.9146324    642.43669  0.025825563  0.025669288            7 
 2074000   0.91728196   -6.9479161    640.49073  0.025734922  0.025661763            6 
 2075000   0.91067389   -6.9459058    641.91903  0.025779881  0.025654155            6 
 2076000   0.91453116   -6.9204488    642.71227  0.025799304  0.025646703            3 
 2077000    0.8925768   -6.9093226    643.97214  0.025837431   0.02563931            9 
 2078000   0.90743641   -6.8989619    645.65648  0.025892544  0.025631798            3 
 2079000   0.92139248   -6.9522135    643.04642   0.02577547  0.025624308            4 
 2080000   0.93732053    -6.963538     643.8511  0.025795316  0.025616666            6 
 2081000   0.90939244   -6.9518936     641.7595  0.025699163  0.025608976            6 
 2082000   0.93361356   -6.9422062    640.97083  0.025655253  0.025601298            2 
 2083000   0.94328156   -6.9526162    643.28432   0.02573549  0.025593586           13 
 2084000   0.90729119   -6.9003496    642.58866  0.025695324   0.02558595           11 
 2085000    0.9330406   -6.9233228    643.10778  0.025703748  0.025578272            3 
 2086000   0.92300605   -6.9062821    643.81084  0.025719512  0.025570735            3 
 2087000   0.93153887   -6.9258609     641.8351  0.025628298  0.025563164            4 
 2088000   0.91921219   -6.9246384    644.08208  0.025705702  0.025555576            5 
 2089000   0.89858694   -6.8808819    644.15027  0.025696117   0.02554803            5 
 2090000   0.92257336   -6.9522222    642.95311  0.025636089  0.025540434            9 
 2091000   0.92767505   -6.9417255    643.79979  0.025657572  0.025532789            9 
 2092000   0.91541369   -6.9359019    644.26499  0.025663838  0.025525189            4 
 2093000   0.93553179   -6.9262207    645.28281  0.025692101  0.025517585            4 
 2094000   0.90640104   -6.9578143    642.66017  0.025575461  0.025509996            7 
 2095000    0.9051533   -6.9379662    644.19086  0.025624139  0.025502414            6 
 2096000   0.92694465   -6.9534324    643.40608  0.025580712  0.025494857            5 
 2097000   0.90152051   -6.9336891    643.38052  0.025567498  0.025487234           10 
 2098000   0.91415944   -6.9534555      644.197  0.025587742  0.025479543            7 
 2099000   0.90602685   -6.9112376    645.32696  0.025620413  0.025471916            8 
 2100000   0.93207867   -6.9963202    643.04274  0.025517569  0.025464262            8 
 2101000    0.9085918   -6.9614634    643.21669  0.025512323   0.02545662            5 
 2102000    0.9063422   -6.9741369     644.7008  0.025559023   0.02544892            6 
 2103000   0.91837201   -6.9260049    645.41629  0.025575222   0.02544132            5 
 2104000   0.92765608   -6.9448929    644.57522  0.025529754  0.025433677            5 
 2105000   0.90981854   -6.9166495    643.27889  0.025466306  0.025426078           10 
 2106000   0.90630796   -6.9657736    642.51253  0.025423889  0.025418434            5 
 2107000   0.91124562   -6.9758839    641.95314  0.025389699  0.025410699            9 
 2108000   0.91832792   -6.9821236    642.92387  0.025416029  0.025402931            5 
 2109000   0.91203431   -6.9362488    644.40463  0.025462488  0.025395164            4 
 2110000   0.89837046   -6.9607681    645.79643  0.025505388  0.025387504            8 
 2111000   0.91586915   -6.9425385    645.73383  0.025490835  0.025379947            7 
 2112000   0.91498049   -6.9315406    646.29251  0.025500809    0.0253724            5 
 2113000   0.91529079   -6.9325479    645.70441  0.025465547  0.025364838            8 
 2114000   0.90704999   -6.9771089    644.89269  0.025421503  0.025357262            4 
 2115000   0.91176016   -6.9399701    647.78871   0.02552359  0.025349687            3 
 2116000    0.9110038   -6.9433948    647.34406  0.025494016  0.025342101            5 
 2117000    0.9092562   -6.9618391     646.8279  0.025461656  0.025334526            9 
 2118000   0.91488906   -6.9326463    647.16652  0.025462957  0.025326938            2 
 2119000    0.9372657   -6.9351948    646.33844  0.025418375  0.025319306            7 
 2120000   0.92169394   -6.9726911    647.75175   0.02546194  0.025311685            6 
 2121000   0.91374385   -6.9612823    646.16613  0.025387637  0.025304036            4 
 2122000   0.92359219    -6.947176    648.59574  0.025471086  0.025296404            5 
 2123000   0.91883945    -6.967223    646.33427   0.02537032  0.025288812            5 
 2124000   0.92489617   -6.9465289    647.09318  0.025388151  0.025281168            5 
 2125000   0.91069472   -6.9685826    648.33056  0.025424728   0.02527358            7 
 2126000   0.92475225   -6.9440731    648.27971  0.025410776  0.025266048            5 
 2127000   0.89793688   -6.9710535     646.8182  0.025341569  0.025258496            6 
 2128000   0.92748784   -6.9580675    647.93896  0.025373549  0.025250824            9 
 2129000   0.92634291   -6.9947505    646.06951  0.025288458  0.025243168            8 
 2130000   0.92867467   -6.9688593    647.34688   0.02532656  0.025235564            8 
 2131000   0.89761086   -6.9527569    648.90935  0.025375776  0.025227911            6 
 2132000   0.90173738   -6.9408101    649.20256  0.025375335  0.025220261            3 
 2133000   0.89785145   -6.9862136    647.70112  0.025304779  0.025212605            4 
 2134000   0.91518143   -6.9683359    647.54571  0.025286852  0.025205074            6 
 2135000   0.90659009   -6.9486032    649.67722  0.025358205   0.02519746            4 
 2136000    0.9050576   -6.9439825    650.29684  0.025370507  0.025189852            9 
 2137000   0.91624764   -6.9176209    648.68146  0.025295643  0.025182318            5 
 2138000   0.91416819   -6.8936984    652.05339   0.02541524   0.02517489            7 
 2139000    0.9183376   -6.9745195    648.15615  0.025251525  0.025167427            4 
 2140000     0.923129   -6.9610511     649.7668  0.025302445  0.025159875            4 
 2141000   0.91270272   -6.9776271    649.44375  0.025278054  0.025152355            7 
 2142000   0.90181252   -6.9279143    649.50242  0.025268535  0.025144808           10 
 2143000   0.92230895    -6.939467     649.7288  0.025265547    0.0251373            4 
 2144000   0.89565923   -6.9673543    648.59541   0.02520971  0.025129742            6 
 2145000   0.91356257   -6.9407108    650.14119  0.025258011  0.025122279            5 
 2146000   0.91093746   -6.9526838    651.20303  0.025287474  0.025114792            7 
 2147000   0.91215793   -7.0087784    649.75211   0.02521938  0.025107263            5 
 2148000   0.89358916    -6.964757    651.05704  0.025258265  0.025099595            5 
 2149000   0.89774262   -6.9784616    649.88709  0.025201143  0.025092085            3 
 2150000   0.88718988   -6.9435521    652.09974  0.025275184  0.025084605            6 
 2151000   0.92774924    -6.922404    653.56559  0.025320223  0.025077131            9 
 2152000   0.91205019   -6.9868246    652.44046  0.025264888  0.025069672            3 
 2153000   0.91123219   -6.9842462    650.94383  0.025195225  0.025062226            5 
 2154000   0.91642695    -6.913415     653.6785  0.025289326  0.025054883            4 
 2155000   0.90169316   -6.9625681    652.07961  0.025215762  0.025047423            7 
 2156000   0.90082132    -6.929989    654.19334  0.025285766   0.02504007            5 
 2157000   0.90999168   -6.9613922    653.99297  0.025266302  0.025032709            4 
 2158000   0.89925366   -7.0020527    652.16073   0.02518384  0.025025296            4 
 2159000   0.91674179   -7.0011886    651.98067  0.025165226  0.025017806            5 
 2160000   0.90184633   -6.9665028    653.63264  0.025217309  0.025010397           12 
 2161000   0.91030786   -6.9747777    651.94086    0.0251404  0.025002981            8 
 2162000   0.87578026   -6.9619331     652.2179   0.02513945  0.024995488            9 
 2163000   0.92053626     -6.96582    655.19589   0.02524256  0.024988018            3 
 2164000   0.90354979   -6.9482793    653.74288  0.025174942  0.024980641            6 
 2165000   0.87838415   -6.9941574    653.41135  0.025150552  0.024973219           10 
 2166000   0.90443658   -6.9645476    653.64693  0.025148004  0.024965761            4 
 2167000   0.89510585    -6.993054    652.90491  0.025107864  0.024958247            9 
 2168000   0.91417764   -6.9505416    652.88529  0.025095529  0.024950728            7 
 2169000   0.91646593   -6.9946507    652.44763  0.025067144  0.024943325            6 
 2170000   0.91098644   -6.9691814    653.44446  0.025093873   0.02493587           12 
 2171000   0.91667674   -6.9801787    653.35571  0.025078908  0.024928418            6 
 2172000   0.89181837   -6.9582839    657.33298  0.025219958     0.024921            5 
 2173000   0.91130725    -7.012383    654.11341  0.025084883  0.024913553            5 
 2174000   0.91544815   -6.9663444    655.51347  0.025127011  0.024906131            9 
 2175000   0.90323296   -6.9854389    654.65307  0.025082493   0.02489872           12 
 2176000   0.90318076   -6.9455719    657.06667  0.025163399  0.024891343            4 
 2177000   0.91995307   -6.9487532    656.91858  0.025146171  0.024884003            4 
 2178000   0.88818259   -6.9857608    653.54493  0.025005545  0.024876714            7 
 2179000   0.90123534   -7.0077474    654.01374  0.025011998  0.024869242            8 
 2180000   0.90678781   -6.9864103    657.36102  0.025128479  0.024861961            9 
 2181000   0.90875201   -6.9847043     655.5741  0.025048682  0.024854572            5 
 2182000   0.92127871   -6.9892364    654.87881  0.025010648  0.024847144            6 
 2183000   0.91228182   -6.9634507    655.08175  0.025006938  0.024839711            7 
 2184000   0.91353658   -7.0262966     655.6321  0.025016487  0.024832242            6 
 2185000   0.89767798   -6.9296564    656.31652  0.025031141   0.02482482            4 
 2186000   0.90937728   -6.9558147    656.90432  0.025042098  0.024817531            3 
 2187000   0.89884536   -6.9557381    655.91905  0.024993105  0.024810158            2 
 2188000   0.90955698   -6.9585165    656.36563  0.024998691  0.024802754            5 
 2189000   0.90908711   -7.0003105    655.00531  0.024935485  0.024795219            3 
 2190000   0.89949047     -6.97011    654.56563  0.024907368  0.024787652            5 
 2191000   0.90180382   -6.9785782    654.99518  0.024912338  0.024780098            5 
 2192000   0.89762793   -7.0188054    654.76456  0.024892205  0.024772544            7 
 2193000   0.91159867   -6.9570353    657.33895   0.02497868  0.024765044            3 
 2194000   0.90104011   -6.9871668    656.08042  0.024919493  0.024757543            6 
 2195000   0.90541806   -6.9723267    656.24369  0.024914339  0.024749999            5 
 2196000    0.8985744   -6.9836567    656.06611  0.024896255  0.024742516            5 
 2197000    0.8884247   -6.9736575    656.85611  0.024914888  0.024735039            5 
 2198000   0.91832155   -6.9984339    654.05555  0.024797374  0.024727573            8 
 2199000   0.89655544   -6.9657429     657.6921  0.024923909    0.0247201           16 
 2200000   0.88628261   -6.9950578    656.50085  0.024867456  0.024712656            4 
 2201000   0.88338828   -6.9706053    656.82029  0.024868253  0.024705262            7 
 2202000   0.89602124   -7.0064795    655.76258  0.024816931   0.02469777            3 
 2203000   0.90800298   -6.9886303    657.25604  0.024862159  0.024690258            4 
 2204000    0.9090568    -6.971401    657.20475  0.024848939  0.024682811            6 
 2205000   0.91205539   -7.0111999    656.67661   0.02481771  0.024675337            5 
 2206000    0.9115998   -6.9673019    657.03783  0.024820106  0.024667932            6 
 2207000   0.88422497   -6.9326711    659.87578  0.024916016  0.024660504            5 
 2208000   0.88003274   -7.0005097    656.69077  0.024784525  0.024653014            7 
 2209000   0.86900479   -6.9848731     659.5454  0.024880994  0.024645558            8 
 2210000   0.89621649   -6.9801612    658.16592   0.02481772  0.024638078            5 
 2211000   0.91199327   -7.0177589    656.36618  0.024738662  0.024630582            9 
 2212000   0.90014473   -6.9915708    656.90614   0.02474782  0.024623048            5 
 2213000    0.9006177   -6.9639684    659.86842  0.024848186  0.024615582            8 
 2214000   0.89331445   -6.9891502    658.15615  0.024772514   0.02460815            4 
 2215000   0.89700387   -6.9950406    659.07472  0.024795889  0.024600678            5 
 2216000   0.90535986   -7.0213712    656.61797  0.024692312  0.024593211            4 
 2217000   0.90138195    -7.007176    658.57685  0.024754806  0.024585642            7 
 2218000   0.91214329   -7.0096497    659.61899    0.0247828  0.024578103            3 
 2219000   0.91058452    -6.987187    659.04843  0.024750204  0.024570684            5 
 2220000   0.90552279   -7.0383248    656.68387  0.024650295  0.024563236            8 
 2221000    0.8871903   -7.0060276    657.44817  0.024667874  0.024555728           11 
 2222000   0.90353789   -6.9932979    658.68978  0.024703337   0.02454827            8 
 2223000   0.90153423   -7.0247589    658.38462  0.024680785  0.024540895            7 
 2224000   0.88896661    -6.994415    660.73744  0.024757848  0.024533542           14 
 2225000   0.88363637   -7.0282912     658.6652  0.024669108  0.024526132            9 
 2226000    0.9087079   -7.0547093    658.33288  0.024645586  0.024518623            6 
 2227000   0.90853554   -7.0205805    659.42949  0.024675554  0.024511134            7 
 2228000    0.8961545   -7.0397182    658.72485  0.024638123  0.024503618           12 
 2229000   0.89518738   -7.0391196    660.83261   0.02470587  0.024496142            4 
 2230000   0.92088446    -7.028369    661.80196  0.024731015  0.024488631           15 
 2231000   0.88487915   -7.0019794    658.90262  0.024611632  0.024481109            6 
 2232000   0.89929931   -7.0306091    658.64298  0.024590912  0.024473647            8 
 2233000   0.89073072   -7.0195904    660.34215   0.02464331  0.024466166            4 
 2234000    0.8902524   -7.0307895    659.31811   0.02459408  0.024458751            6 
 2235000   0.88757412   -7.0090232      659.606  0.024593811  0.024451304            4 
 2236000   0.91772318   -7.0025921     662.0292  0.024673122  0.024443886            2 
 2237000   0.91523797    -7.006885    662.99089  0.024697917    0.0244365            9 
 2238000   0.89420158   -7.0062015    659.78602  0.024567546   0.02442912            7 
 2239000   0.89789925   -7.0377348     658.7911  0.024519544  0.024421719            9 
 2240000   0.89379974   -7.0741605    659.96339  0.024552209  0.024414222            7 
 2241000   0.87097986   -6.9995323    660.53024  0.024562332  0.024406709            5 
 2242000   0.88887896   -7.0309304    660.13786  0.024536792   0.02439924            6 
 2243000   0.90400641   -7.0294635    660.92786  0.024555204  0.024391763            7 
 2244000   0.88967185   -7.0034549    661.15636  0.024552747  0.024384277            7 
 2245000   0.89839622   -7.0276703     660.0409  0.024500404    0.0243768            6 
 2246000   0.90866025   -7.0157536    660.29716  0.024499004  0.024369326            8 
 2247000   0.89049641   -7.0422368    660.64765    0.0245011  0.024361867            6 
 2248000   0.89204989   -7.0134885    660.00151  0.024466248  0.024354389            8 
 2249000   0.88987305   -6.9964312    660.48395  0.024473246  0.024346896            8 
 2250000   0.89224781   -7.0132866    662.19057  0.024525577  0.024339472            9 
 2251000   0.87482963   -6.9979109    663.17084  0.024550971  0.024332032            4 
 2252000   0.89879635   -7.0125004    664.10077  0.024574481  0.024324623            6 
 2253000   0.88007391   -7.0151228    661.40601    0.0244639  0.024317158            5 
 2254000   0.89086191   -7.0261408    661.15979  0.024443944  0.024309585            6 
 2255000   0.89623401   -7.0335943    661.81812  0.024457432  0.024302025            5 
 2256000   0.90206787   -6.9790352    663.46227  0.024507324   0.02429449            7 
 2257000   0.88472268   -7.0201619    663.14659   0.02448481  0.024287039            5 
 2258000   0.90007388   -7.0317342    661.12359  0.024399306  0.024279508            7 
 2259000   0.89679009   -7.0198535    663.60216  0.024479938  0.024271992            6 
 2260000     0.892849   -7.0336367    660.09906  0.024339936  0.024264476            3 
 2261000   0.89882722   -7.0093683    661.52444  0.024381706  0.024256967           18 
 2262000   0.89420769   -7.0265276    662.21414  0.024396336   0.02424946            4 
 2263000   0.88609283   -7.0041964    662.42282   0.02439324  0.024241925            3 
 2264000   0.90566515   -7.0008991    661.76937  0.024358413  0.024234385            5 
 2265000   0.89556402    -7.049206    662.14784  0.024361584  0.024226814            5 
 2266000   0.88429179   -6.9932856    664.02994  0.024420048  0.024219302           12 
 2267000    0.8990656   -7.0218003    664.63217  0.024431414  0.024211885           10 
 2268000   0.88712636   -7.0073011     662.0746  0.024326668  0.024204387           19 
 2269000   0.88127993   -7.0290005    663.12933  0.024354684  0.024196912            4 
 2270000   0.88366852   -7.0665568    663.11261  0.024343341  0.024189418           11 
 2271000   0.89051071   -7.0510495    664.44326  0.024381449   0.02418198           10 
 2272000   0.89471702   -7.0255499    662.80889  0.024310772  0.024174537            6 
 2273000   0.88426104   -7.0296014    663.98695  0.024343267  0.024167066           10 
 2274000   0.88159525   -7.0324486    663.45409  0.024313035  0.024159584            9 
 2275000   0.88879424   -7.0289125     664.7161  0.024348575  0.024152079            8 
 2276000   0.89470802   -7.0288395    662.89697  0.024271271  0.024144578            9 
 2277000   0.89370463    -7.025259    663.37815  0.024278223  0.024137072            9 
 2278000   0.89868737   -7.0524354    662.55301   0.02423738  0.024129528            9 
 2279000   0.87620014   -7.0508278    663.56045  0.024263583  0.024121915           20 
 2280000   0.89716746   -7.0124687     663.0821  0.024235457  0.024114328            6 
 2281000   0.89301091   -6.9871577    666.18989  0.024338371   0.02410679            6 
 2282000   0.87744771   -6.9977731    665.69813  0.024309748   0.02409929            9 
 2283000   0.88662902   -7.0415202    662.88604  0.024196453  0.024091683            6 
 2284000   0.88217236   -7.0616626    661.57422  0.024137997  0.024084089            6 
 2285000   0.90956232   -7.0475643    662.46739  0.024160007  0.024076506            5 
 2286000   0.89622941    -7.068566    662.23949  0.024141131  0.024068862            5 
 2287000   0.86403506   -7.0728961    663.36002  0.024171404  0.024061241            7 
 2288000   0.87686418    -7.027723    664.41599    0.0241993  0.024053625            6 
 2289000   0.89670655   -7.0321207    665.87734   0.02424193  0.024046067            8 
 2290000   0.87361979   -7.0335628     663.0892  0.024129883  0.024038459            6 
 2291000     0.884894   -7.0559606    662.39169   0.02409398  0.024030841            3 
 2292000   0.90030452   -7.0706475    662.77559  0.024097426  0.024023201           10 
 2293000   0.88336479   -7.0020412     663.9492  0.024129568   0.02401556            5 
 2294000   0.88579265   -7.0387364    664.46704  0.024137861  0.024007957            6 
 2295000   0.86562214   -7.0403526    663.28414  0.024084391  0.024000381            8 
 2296000   0.88617019   -7.0283555    663.57995  0.024084638  0.023992818            7 
 2297000   0.86960474     -7.04125    666.15087  0.024167424  0.023985348           13 
 2298000   0.89636055   -7.0388649    666.98089  0.024187006  0.023977874            8 
 2299000   0.88445872   -7.0189368    665.74269  0.024131604  0.023970409            3 
 2300000   0.88065437   -7.0154784    668.51167  0.024221437     0.023963           11 
 2301000     0.883891    -7.015153    666.39466  0.024134241  0.023955535            7 
 2302000   0.90026868   -7.0321049    664.27808  0.024047136  0.023948075            7 
 2303000   0.87244901   -7.0710697    665.53754  0.024082267  0.023940591           22 
 2304000   0.87925865   -7.0513634    666.31118  0.024099797  0.023933017           11 
 2305000   0.86704282   -7.0272007    665.99472    0.0240779  0.023925433            7 
 2306000   0.89092782    -7.037193    665.17859  0.024037966  0.023917895            6 
 2307000   0.87867114   -7.0332019     664.7802  0.024013155  0.023910345            7 
 2308000    0.8784065   -7.0632971    665.06983  0.024013209  0.023902828            9 
 2309000   0.86707972   -7.0639667    666.37237  0.024049819  0.023895272            5 
 2310000   0.87694571   -7.0654647    664.07536  0.023956543   0.02388767           13 
 2311000   0.87888935   -7.0668826    664.36937  0.023956778  0.023880085           12 
 2312000   0.88774055   -7.0400072    666.47308  0.024022242  0.023872499            6 
 2313000    0.8688553   -7.0110225    667.20945  0.024038386  0.023864971            4 
 2314000   0.85095877   -7.0266956    666.28539   0.02399472   0.02385747            4 
 2315000   0.89336692   -7.0442639    667.14895  0.024015441  0.023849943            4 
 2316000   0.86447367   -7.0370296    664.63486  0.023914611   0.02384244            6 
 2317000   0.87977943   -7.0539839    665.31594  0.023928785   0.02383494           10 
 2318000   0.86527358   -7.0510912    665.60398  0.023928817  0.023827403            5 
 2319000   0.89512786   -7.0397552    666.74171  0.023959383  0.023819871            6 
 2320000   0.88119097   -6.9946392    667.72818  0.023984489  0.023812399           11 
 2321000    0.8771986   -7.0494061    665.00507  0.023876385   0.02380487           20 
 2322000   0.87436613   -7.0196031    669.78001  0.024037468  0.023797419            3 
 2323000   0.89219972   -6.9974166    668.61664  0.023985387   0.02378997            5 
 2324000   0.87528961    -7.003078    668.90676  0.023985469   0.02378253            4 
 2325000   0.87928919   -7.0321254    667.80597  0.023935698   0.02377516            3 
 2326000   0.89188023    -7.023282    670.18462  0.024010627  0.023767752            4 
 2327000   0.87020716   -7.0453003    667.35202  0.023898869  0.023760398            7 
 2328000   0.88840573   -7.0361753    667.39119  0.023890005  0.023752976            8 
 2329000   0.89278662   -7.0710791    667.30354  0.023876612  0.023745479            9 
 2330000   0.85448375   -7.0294868    668.29828  0.023901941  0.023738033            4 
 2331000   0.87464897   -7.0557446    667.48495  0.023862611  0.023730499            7 
 2332000   0.89192226   -7.0759956    667.00884  0.023835365  0.023722961            6 
 2333000   0.87877904   -7.0232583     668.5831  0.023881379  0.023715447            8 
 2334000   0.87238976    -7.038929    667.20251  0.023821855  0.023707939           16 
 2335000   0.87296033   -7.0485601    668.66742  0.023863934  0.023700376            6 
 2336000   0.89585989   -7.0662611    667.05467  0.023796185   0.02369284            9 
 2337000   0.87269284   -7.0208982    669.26495  0.023864818  0.023685305            7 
 2338000   0.88778646   -7.0547075     667.2917  0.023784278  0.023677832            9 
 2339000    0.8726307   -7.0233004    668.07783  0.023802118  0.023670305           14 
 2340000   0.88387715   -7.0437272    666.99709  0.023753458  0.023662747            5 
 2341000   0.87706618   -7.0363015    669.65264  0.023837841  0.023655196           19 
 2342000   0.86488428   -7.0818422    667.58931  0.023754245  0.023647643            7 
 2343000   0.90836432   -7.0694997    667.21155  0.023730671  0.023640119            5 
 2344000   0.86820212    -7.046445    669.01932  0.023784816  0.023632626            7 
 2345000   0.89529464   -7.0641523    668.65137  0.023761598  0.023625139           12 
 2346000   0.86456653    -7.060589    669.09358  0.023767177  0.023617629            5 
 2347000   0.87262519   -7.0435486    668.16161   0.02372396  0.023610017            6 
 2348000   0.87839235   -7.0782499    666.84692  0.023667196  0.023602482           15 
 2349000   0.87496072   -7.0464977    668.15149  0.023703402  0.023594951            8 
 2350000   0.87752101   -7.0479291    671.13093  0.023798969   0.02358748           10 
 2351000   0.88666366   -7.0741139    668.63605  0.023700413  0.023579986           10 
 2352000   0.87634931   -7.0406182    670.50685   0.02375662  0.023572528            4 
 2353000   0.86661049   -7.0553496    668.42058  0.023672637  0.023565078           10 
 2354000   0.86637976    -7.054514    668.27445  0.023657407  0.023557555            4 
 2355000   0.88617839   -7.0598499    670.16431  0.023714236  0.023549986           11 
 2356000   0.86943792   -7.0464697    669.10151  0.023666579   0.02354247           14 
 2357000    0.8908435   -7.0599418    668.94809  0.023651113  0.023534959            8 
 2358000   0.87026117   -7.0607878    669.38756  0.023656614  0.023527422            8 
 2359000    0.8702062   -7.0603359    669.45853  0.023649093  0.023519853            9 
 2360000   0.87529484   -7.0435004    670.34554  0.023670394   0.02351238            5 
 2361000   0.88112072   -7.0654777    668.84362  0.023607356  0.023504897            5 
 2362000   0.87596126   -7.0470814    670.81017  0.023666743  0.023497417            8 
 2363000   0.88841212    -7.060361    670.74865  0.023654558  0.023489932           12 
 2364000   0.84525609   -7.0479792    671.78517   0.02368109  0.023482507            6 
 2365000   0.86892065   -7.0312016    671.27951   0.02365326  0.023475061            5 
 2366000   0.87239631   -7.0932428    670.50535  0.023615996  0.023467628           13 
 2367000    0.8677777   -7.1008789    668.58625  0.023538454  0.023460105            7 
 2368000   0.87798952   -7.0892421    668.64472  0.023530571  0.023452569            9 
 2369000   0.88801534   -7.0899529     671.0162  0.023604059   0.02344503           15 
 2370000   0.87998196   -7.0627969    670.93452  0.023591228  0.023437453            4 
 2371000   0.87540339   -7.0722541    671.20656  0.023590839   0.02342996           12 
 2372000   0.89576128   -7.0595165    671.55379  0.023593093  0.023422419            3 
 2373000   0.85255734   -7.0806188    670.31526  0.023539656  0.023414911           10 
 2374000   0.87714372   -7.0838796    669.99109  0.023518362  0.023407342            4 
 2375000   0.85330873   -7.0908638    668.99918  0.023473655  0.023399743           22 
 2376000   0.89302304   -7.1289922    669.28793  0.023473903  0.023392166           21 
 2377000   0.86516047   -7.0649287    670.40482  0.023503184  0.023384601            5 
 2378000   0.86191677   -7.0517747    672.18112  0.023555548  0.023377034           16 
 2379000   0.85117317   -7.0696634    671.40964  0.023518623  0.023369539           12 
 2380000   0.88067164   -7.0812458    671.78598  0.023521918  0.023362037           14 
 2381000   0.85851525   -7.0980832    671.29385  0.023494815  0.023354507            8 
 2382000   0.86675268   -7.0716768     670.4695  0.023456112  0.023347035            8 
 2383000   0.88675265   -7.0708542    673.39741  0.023548657  0.023339497            4 
 2384000   0.85289331     -7.09478    669.70287  0.023409636  0.023331976            7 
 2385000   0.86322266   -7.0495905    669.98043  0.023409519  0.023324438            4 
 2386000   0.86436065   -7.1074493    670.57309  0.023420407   0.02331686            4 
 2387000   0.86152591   -7.0682032    671.17723  0.023431686  0.023309302           15 
 2388000   0.84523275    -7.077513    669.52254  0.023364131  0.023301674            3 
 2389000   0.87691424   -7.1463672    670.65636  0.023393901  0.023293969            7 
 2390000   0.85761205   -7.1097943    670.15644  0.023366682  0.023286292            9 
 2391000   0.87230171   -7.0750881    670.01386   0.02335194  0.023278671           12 
 2392000   0.85471291     -7.07889    670.39238  0.023355364  0.023271076            5 
 2393000   0.87080965   -7.1005575    670.36457  0.023344636  0.023263505            5 
 2394000   0.88137545   -7.1065703    670.11409  0.023326166  0.023255854           11 
 2395000   0.84619433   -7.1581927    668.74952  0.023268946  0.023248171            5 
 2396000   0.86900465   -7.1162831    670.46361  0.023318851  0.023240508            7 
 2397000   0.86297518   -7.0738575    671.49909  0.023345122  0.023232905           19 
 2398000   0.88199451    -7.061962    671.43886  0.023333294  0.023225386            9 
 2399000   0.86014499   -7.0687908    673.01758  0.023378407  0.023217884            7 
 2400000    0.8600363   -7.0564925    673.81152  0.023396233  0.023210335            4 
 2401000    0.8809693   -7.1187091    672.67145   0.02334692  0.023202773            3 
 2402000   0.88175556   -7.0814869    672.41593  0.023328335  0.023195146           16 
 2403000   0.85695893   -7.0625913     672.1864  0.023310667  0.023187635            8 
 2404000   0.85774953   -7.0779447    672.92112  0.023326439  0.023180143            6 
 2405000   0.86775467   -7.0853087    673.30881  0.023330173  0.023172582            9 
 2406000   0.85579683   -7.1013388    674.20578  0.023351544  0.023165092            8 
 2407000   0.85201071   -7.0991379     671.6726  0.023254141  0.023157558            7 
 2408000   0.86597112   -7.0272599    676.46437  0.023410312  0.023150027            8 
 2409000   0.84558457    -7.072343    672.69852  0.023270324  0.023142599            7 
 2410000   0.86254932   -7.0701869    672.97779  0.023270325  0.023135116            6 
 2411000   0.85984529   -7.0793651    674.21869  0.023303563  0.023127647            5 
 2412000   0.85803671   -7.0726207    672.83805  0.023246201  0.023120204            3 
 2413000   0.85516727   -7.1002991    671.59429  0.023193614  0.023112703           11 
 2414000   0.85843147   -7.1082977    671.15023  0.023168677  0.023105118            6 
 2415000   0.88469557   -7.0936234    672.18646   0.02319484  0.023097474           12 
 2416000   0.87771647   -7.0714333    674.10523  0.023251422  0.023089947            7 
 2417000   0.86493023    -7.045293    675.56916  0.023292275  0.023082473           14 
 2418000   0.87217927   -7.0849224    673.29464  0.023204254  0.023074949            5 
 2419000   0.88385563   -7.0911935    674.52962  0.023237206  0.023067469            4 
 2420000   0.85681046   -7.0678462    673.74976  0.023200749  0.023059928           20 
 2421000   0.87724402    -7.066485    673.25222   0.02317404  0.023052451            9 
 2422000   0.86522535   -7.0800037    674.50319  0.023207514  0.023044969           11 
 2423000   0.84709215   -7.0702963    674.25719  0.023189475  0.023037495            5 
 2424000   0.87781883   -7.0924428    674.99591  0.023205305   0.02303008            4 
 2425000   0.86534773   -7.0931188    675.58902  0.023216117   0.02302258            7 
 2426000   0.85594104   -7.0679007    672.98394  0.023117063  0.023015081            7 
 2427000   0.85172226    -7.124244    673.98197  0.023141806  0.023007512            7 
 2428000   0.85323109   -7.1177318    672.67318  0.023087355  0.022999891           10 
 2429000   0.86092317   -7.0774494    673.61198  0.023110058  0.022992298            8 
 2430000   0.85717988   -7.0976389    674.55638  0.023132935  0.022984762            8 
 2431000   0.87640365    -7.105019    673.33272  0.023081473  0.022977259           13 
 2432000   0.86537512   -7.0667427    675.58878  0.023149287  0.022969783            5 
 2433000   0.86275072   -7.1208162     672.1259  0.023021164   0.02296236            8 
 2434000   0.87022415   -7.1080207    675.38749  0.023123374  0.022954839           10 
 2435000    0.8417031    -7.103263    674.05833  0.023068389  0.022947319            9 
 2436000   0.86935043   -7.1390746     674.2017  0.023063824  0.022939815            8 
 2437000   0.86498345   -7.1043613    675.55279   0.02310056  0.022932352            5 
 2438000   0.86341001   -7.1061246    675.29447  0.023082256  0.022924845            9 
 2439000   0.85227355   -7.0748603    674.67686   0.02305169  0.022917371            2 
 2440000   0.87975543   -7.1025018    675.13024  0.023057727  0.022909921            5 
 2441000   0.83242052   -7.0863561    676.70332  0.023101984  0.022902477            5 
 2442000   0.86144142   -7.1185864    676.31025   0.02307911  0.022895003           15 
 2443000   0.85206499   -7.0586545    675.74637  0.023050429  0.022887533           10 
 2444000    0.8818131   -7.0835445    674.50569  0.022998694  0.022880073            9 
 2445000   0.84579121   -7.1029253    676.21598  0.023047579  0.022872627            4 
 2446000   0.87238119   -7.0639512    676.71887   0.02305529   0.02286516            7 
 2447000   0.85513524   -7.0945129    677.01538  0.023055966  0.022857745            7 
 2448000   0.86427001   -7.1444618    674.72846  0.022968697  0.022850273            5 
 2449000   0.86198445   -7.0760711    675.10324  0.022972072  0.022842765           13 
 2450000   0.85203707   -7.1228035    673.87723  0.022920994  0.022835333           11 
 2451000   0.86028793   -7.1097176    674.48709  0.022932378  0.022827828            8 
 2452000   0.86678841   -7.1550355    674.57364  0.022925967  0.022820259            5 
 2453000    0.8543566   -7.1276392    676.88139  0.022995019  0.022812658            7 
 2454000   0.86059377   -7.0938349    678.60973   0.02304434   0.02280521           10 
 2455000   0.84585598   -7.1136677    675.15144  0.022917564  0.022797809            7 
 2456000   0.87255175   -7.1285915    675.22432  0.022910706  0.022790293            8 
 2457000   0.87036641   -7.0932515    676.15499  0.022932946  0.022782798            5 
 2458000   0.85170901   -7.0851955    676.57877  0.022937984  0.022775356           14 
 2459000   0.86601742   -7.0869857    678.10376  0.022980336  0.022767889            6 
 2460000   0.84947584   -7.1302207    675.70066  0.022889589  0.022760421            6 
 2461000   0.87317195   -7.1304267    677.21543   0.02293158  0.022752917            5 
 2462000   0.85506391   -7.1031943    676.25099  0.022889622  0.022745423            8 
 2463000   0.85459567   -7.1200377    677.48142  0.022921959  0.022738009           10 
 2464000   0.85532395   -7.1019608    677.38477  0.022909387  0.022730599            7 
 2465000   0.84666904   -7.1257964    676.03437  0.022854441  0.022723204            9 
 2466000   0.84678029   -7.0722682    680.83188  0.023007295  0.022715837            6 
 2467000   0.84230625   -7.0871414    678.42843  0.022916782  0.022708506            7 
 2468000   0.87237517   -7.1166129    678.59225  0.022913028   0.02270115            6 
 2469000   0.85640679   -7.1396572    678.18132  0.022889879  0.022693767            7 
 2470000   0.85267445   -7.1067665    675.75333  0.022798695  0.022686352            5 
 2471000   0.83194733   -7.0954877    680.48558  0.022949062  0.022679032            9 
 2472000   0.85237987   -7.1341752    676.06027  0.022790597  0.022671669           12 
 2473000   0.85248175   -7.1376722    677.98037  0.022846083  0.022664221           13 
 2474000   0.84137285    -7.104421    679.90566    0.0229017  0.022656841            6 
 2475000    0.8733344   -7.1064001    679.84471  0.022890394  0.022649432            7 
 2476000   0.86915699   -7.1192544    678.29701  0.022829059  0.022642006           12 
 2477000   0.83807581   -7.1396606    677.90542  0.022806669  0.022634582            7 
 2478000   0.83483285   -7.1112752    680.32626  0.022878876  0.022627166           11 
 2479000   0.84815418   -7.1059177    677.95701  0.022790003  0.022619779           10 
 2480000   0.87034233   -7.1097909    678.86204  0.022811225  0.022612407           18 
 2481000   0.84624378   -7.1061913    678.58623  0.022792766     0.022605            9 
 2482000   0.84968919     -7.17488    674.27462   0.02263882   0.02259755           23 
 2483000   0.86883228   -7.1594942    678.11209  0.022758494  0.022590119            5 
 2484000   0.85523904   -7.1130366    679.48246  0.022795305   0.02258272            6 
 2485000   0.85064388   -7.1088726    677.99742  0.022736332  0.022575331            6 
 2486000   0.85264512   -7.0953114    681.24761  0.022836136  0.022567965            6 
 2487000   0.85803116   -7.1469074    678.08425  0.022720957  0.022560606            5 
 2488000   0.85279929   -7.1235291    678.91611  0.022739687  0.022553166            8 
 2489000    0.8537736   -7.1782913    677.26481  0.022675265  0.022545709           15 
 2490000   0.84450906   -7.1555377    679.02534  0.022725078  0.022538239           11 
 2491000   0.85494374    -7.120133    678.54519  0.022699893   0.02253079           38 
 2492000   0.83896126   -7.1146673    680.97164  0.022771925   0.02252343            9 
 2493000   0.83583353   -7.1408579    679.24897  0.022705207  0.022516057            9 
 2494000   0.85044634   -7.1437787    679.72547  0.022712025  0.022508633            4 
 2495000   0.86789854   -7.1361235    678.68194  0.022668067  0.022501264            4 
 2496000   0.85943619    -7.149528    679.60038  0.022689649  0.022493884            8 
 2497000   0.84665859   -7.1654169    679.24931  0.022668846  0.022486466            5 
 2498000   0.86419315   -7.1183778    679.11443  0.022655272  0.022479123           29 
 2499000   0.86659904   -7.1255281    680.38361  0.022688529  0.022471821            4 
 2500000   0.84483882   -7.1400217    681.06649  0.022702216  0.022464519            9 
 2501000   0.84982577   -7.1522376    680.24882  0.022665894  0.022457199            8 
 2502000   0.86386406   -7.1268575    679.67256  0.022637642  0.022449913            7 
 2503000   0.84836065   -7.1144931     680.9556  0.022671314  0.022442591           10 
 2504000   0.84312052     -7.13198    682.53016  0.022714662  0.022435363            7 
 2505000   0.85883457   -7.1239327    682.74844  0.022712856  0.022428081            5 
 2506000   0.86305304   -7.1290026      681.526  0.022663142  0.022420841            9 
 2507000    0.8513256   -7.1183972    680.05887  0.022605334  0.022413548           16 
 2508000   0.84625125   -7.1530747    681.43809  0.022642148  0.022406305            7 
 2509000   0.85956845   -7.1489857    681.59226  0.022638244  0.022399008            7 
 2510000   0.82951274    -7.170295    681.57784  0.022628746  0.022391716           18 
 2511000   0.83254558   -7.1650357     682.0751  0.022636237  0.022384433            6 
 2512000   0.84811209   -7.1510154    682.81682  0.022651832  0.022377146            7 
 2513000    0.8569062   -7.1341279    683.50551  0.022665655  0.022369844            9 
 2514000   0.84809862   -7.1028574     684.4157  0.022686811  0.022362596            7 
 2515000   0.85925259   -7.1075216     684.2772  0.022673201  0.022355439            6 
 2516000   0.84545262   -7.0979187    684.88668  0.022684376  0.022348277            6 
 2517000   0.84305762    -7.137325    682.96023  0.022611582  0.022341128            5 
 2518000    0.8318705   -7.1362138    683.08014  0.022606571  0.022333992           16 
 2519000   0.83608521   -7.1101251    684.16986  0.022633646   0.02232691            8 
 2520000    0.8449944   -7.1005058    682.64808  0.022574341   0.02231986            8 
 2521000   0.84156728   -7.1272095    684.42517   0.02262413  0.022312712            9 
 2522000   0.84483508    -7.094379    684.84727  0.022629106  0.022305553            5 
 2523000   0.83846639   -7.1344811    683.30507  0.022569199  0.022298355            6 
 2524000   0.86550519   -7.1525986    682.33795  0.022528326  0.022291143            6 
 2525000   0.87402257   -7.1170217     684.5028  0.022590852  0.022283966           14 
 2526000   0.83504371   -7.1432337    683.04383  0.022533776  0.022276815            5 
 2527000   0.84397607     -7.12865    683.00969  0.022523733  0.022269638            9 
 2528000   0.84740667   -7.1411592    682.19507  0.022487971  0.022262376            4 
 2529000   0.83461327   -7.1287988    683.73469   0.02252981  0.022255166            6 
 2530000   0.84772598   -7.1322954    684.07001   0.02253195  0.022247951            6 
 2531000   0.84474203   -7.1178237    683.80576  0.022514347  0.022240739            7 
 2532000   0.83934134   -7.1515178    682.24503  0.022454089  0.022233496            9 
 2533000    0.8362147   -7.1282635    682.88651  0.022466328   0.02222626            6 
 2534000   0.85350886   -7.1618897      683.514  0.022478098  0.022218981            5 
 2535000   0.82806428   -7.1513403    683.26846  0.022461159  0.022211748            8 
 2536000   0.83083144   -7.1796122    683.32625  0.022454201  0.022204473            9 
 2537000   0.85981544   -7.1679229    682.81842   0.02242867  0.022197195            8 
 2538000   0.83448238   -7.1609096    684.15931   0.02246386  0.022189963            6 
 2539000    0.8447277   -7.1428928    683.86325  0.022445295  0.022182725            8 
 2540000   0.84987808    -7.153779    683.01898  0.022408759  0.022175551            9 
 2541000   0.85195464   -7.1373581    683.88582  0.022428369  0.022168387            4 
 2542000   0.85089389   -7.1437196    684.54405  0.022441124  0.022161211           12 
 2543000   0.83270241   -7.1663164    681.59416  0.022335633  0.022153977            9 
 2544000   0.85489934   -7.1369801    686.55395   0.02248932  0.022146718            4 
 2545000   0.84761103   -7.1508529    685.12911  0.022433828  0.022139525            8 
 2546000   0.83727834   -7.1358591    686.17627  0.022459291  0.022132349           11 
 2547000   0.83571343   -7.1325033    683.59688   0.02236608  0.022125217            7 
 2548000   0.82155161   -7.1239297    684.96275  0.022401974  0.022118131            5 
 2549000   0.86299185   -7.1404841    684.76399  0.022386687  0.022111026            9 
 2550000    0.8490483   -7.1277133     687.3485  0.022462369  0.022103923            8 
 2551000   0.83810066   -7.1834117     683.7262  0.022335235  0.022096795            4 
 2552000   0.83575699   -7.1666913    684.71248  0.022358688  0.022089608            5 
 2553000   0.83956675   -7.1608605    685.49805  0.022375573  0.022082486            8 
 2554000   0.83477652   -7.1633268     685.1073  0.022354062  0.022075319            6 
 2555000   0.84391156   -7.1569816    685.05576  0.022343632  0.022068135           13 
 2556000   0.84307276   -7.1672689    685.45052  0.022347761  0.022060969            3 
 2557000   0.83745998   -7.1466542    686.34096  0.022368041  0.022053833           12 
 2558000   0.82666011   -7.1847319    684.19103  0.022289257  0.022046689           14 
 2559000   0.84321381   -7.1193929    685.10443  0.022310291  0.022039521            7 
 2560000   0.82477775   -7.1491365    686.15677  0.022335832  0.022032351           12 
 2561000   0.83319016   -7.1596373    686.83578  0.022349205  0.022025236            8 
 2562000   0.85369469    -7.197975     684.6751  0.022270202   0.02201808           10 
 2563000   0.83210676   -7.1606599    686.42063  0.022318267  0.022010909           13 
 2564000   0.83393965   -7.1989224    683.54389  0.022216065  0.022003721           14 
 2565000    0.8416678   -7.1592761    684.87033  0.022250498  0.021996567            9 
 2566000   0.84411524   -7.1324784    687.15162  0.022315914  0.021989355            5 
 2567000    0.8510778    -7.132659    686.87577  0.022298265  0.021982234            9 
 2568000   0.84431645   -7.1712236     685.8109  0.022255027  0.021975072           11 
 2569000   0.82720357   -7.1433912    684.92481  0.022217621  0.021967892            5 
 2570000   0.83745195   -7.1593575    684.08838  0.022181854   0.02196069           13 
 2571000   0.82106481    -7.189115    686.32564  0.022245742  0.021953522           26 
 2572000   0.84366824   -7.1694089    684.13976   0.02216627  0.021946341           20 
 2573000   0.83169953   -7.1700815     687.0076  0.022250538  0.021939192            7 
 2574000   0.84596909   -7.1866025    685.00801  0.022177157  0.021932042            6 
 2575000   0.84786803   -7.1793319    685.68604  0.022190487  0.021924881            5 
 2576000   0.84877392   -7.1641028     686.2098  0.022198816  0.021917719           10 
 2577000   0.84273995   -7.1990811     686.5082  0.022199851  0.021910496            7 
 2578000   0.85552635   -7.1733388    686.28978  0.022184179  0.021903327           11 
 2579000   0.84409677   -7.1796597    686.45668  0.022180971  0.021896139            6 
 2580000   0.82217495    -7.190677    683.78776  0.022086168  0.021888917            9 
 2581000   0.84427705   -7.1782253    685.75707  0.022141194  0.021881677           11 
 2582000   0.84934639   -7.1429666    687.76126  0.022197304  0.021874484            7 
 2583000    0.8247744   -7.1744463    684.89524  0.022096246  0.021867301           12 
 2584000   0.83860697   -7.1915505    685.49758   0.02210712  0.021860114            8 
 2585000   0.82998355   -7.1473384    686.04047  0.022116069  0.021852909           10 
 2586000   0.85036431   -7.1679476    684.69142  0.022064044  0.021845674           12 
 2587000   0.81728421    -7.178467    685.58696  0.022084363  0.021838464            5 
 2588000     0.851291   -7.1460537    686.57937  0.022107785  0.021831306           12 
 2589000   0.83863847   -7.1570278    687.16898  0.022118224  0.021824193            6 
 2590000   0.84538995   -7.1428579     687.8565  0.022131805  0.021817131            5 
 2591000   0.81039553   -7.1423792    688.78849  0.022153238   0.02181003            5 
 2592000   0.83875831   -7.1971544    687.02384  0.022087958  0.021802871           12 
 2593000   0.84820877   -7.2244537    685.63664  0.022034858  0.021795628            8 
 2594000   0.83555643     -7.18097    686.54792  0.022055639  0.021788451            8 
 2595000   0.81930311    -7.171192    687.40218  0.022074572  0.021781286            7 
 2596000   0.84398851   -7.1822083    686.18141  0.022026882  0.021774052           12 
 2597000   0.84861653   -7.2002049    685.71161  0.022003325  0.021766808            8 
 2598000    0.8621645   -7.2031446    685.43672  0.021986038  0.021759544           15 
 2599000    0.8152787   -7.1787214    686.02078  0.021996306  0.021752302           12 
 2600000   0.83090584   -7.1996865    685.46619   0.02197007  0.021745025           11 
 2601000   0.85364291   -7.1761001    686.05527  0.021980497  0.021737739           10 
 2602000   0.83100766   -7.1772001    686.37231  0.021982203  0.021730484            7 
 2603000   0.84026112   -7.1794234    685.77385  0.021954599   0.02172326            7 
 2604000   0.82346654   -7.1454358    686.74796  0.021977341  0.021716035            7 
 2605000   0.82498015   -7.2236642    684.03271  0.021882044  0.021708747            9 
 2606000   0.82829354   -7.2483323    684.59297  0.021891564   0.02170145           32 
 2607000   0.82539801   -7.2072568    686.29693  0.021937634  0.021694104           13 
 2608000   0.83596252   -7.2033529    685.01258  0.021888183   0.02168681            8 
 2609000   0.82523124   -7.1905382    687.64308  0.021963814   0.02167952           10 
 2610000   0.84096674   -7.2009579    685.71565  0.021893858  0.021672233           11 
 2611000   0.81921211   -7.2144092     685.7711  0.021887243  0.021664914           10 
 2612000   0.83703181   -7.2069986    685.63837  0.021874629  0.021657645           10 
 2613000   0.82617928   -7.1762003    687.13398  0.021913955  0.021650383            6 
 2614000   0.84083704   -7.2041259    685.46266  0.021852291  0.021643123            4 
 2615000   0.84440961   -7.1979976    686.17741  0.021866711  0.021635844            6 
 2616000   0.84771455   -7.2085032    685.16556   0.02182612  0.021628567            5 
 2617000   0.83400934   -7.1741697    685.71779  0.021835365  0.021621333           13 
 2618000   0.82851993    -7.172387    687.91978  0.021897115  0.021614089           27 
 2619000   0.82434252   -7.1833876    686.72241  0.021850656  0.021606901           29 
 2620000    0.8319781   -7.2079161    688.80615  0.021908592  0.021599734           18 
 2621000   0.82967047   -7.1708611    687.62829  0.021862784  0.021592568           10 
 2622000   0.83550872   -7.1883423    686.15968   0.02180777  0.021585383           19 
 2623000   0.83906376   -7.2021065    688.77418   0.02188252  0.021578225            8 
 2624000   0.81491384   -7.1775419    686.95567  0.021816428  0.021571085            9 
 2625000     0.837615   -7.1806854    688.03666  0.021842434  0.021563943           12 
 2626000   0.80511964   -7.1861923    688.23888  0.021840533  0.021556778            5 
 2627000   0.82688526   -7.1723844    686.71628   0.02178392  0.021549595           10 
 2628000    0.8224886   -7.1981024    688.53641  0.021833346  0.021542449           11 
 2629000   0.83305851   -7.2075622    687.93602  0.021806011  0.021535294            3 
 2630000   0.83468739   -7.2004202    687.86688  0.021795528  0.021528111            7 
 2631000   0.83957113   -7.1801447    687.40893  0.021772739  0.021520926           16 
 2632000   0.82150824   -7.1914063    688.31425  0.021793131  0.021513759            9 
 2633000   0.84081205   -7.1931394    688.08365  0.021777556  0.021506558           11 
 2634000   0.83776931   -7.2005355    688.30522  0.021776298   0.02149938           10 
 2635000   0.83069291   -7.1639057    689.93977  0.021819727  0.021492233           17 
 2636000   0.84043727   -7.1831993    689.27766  0.021790518  0.021485102            7 
 2637000   0.83561891   -7.1782779    689.14336   0.02177801  0.021477928            8 
 2638000   0.82049722   -7.1748804     689.5432  0.021782386  0.021470797           13 
 2639000   0.81487587   -7.1601022    688.83774  0.021751855  0.021463679            7 
 2640000   0.83568254      -7.1646    689.05864  0.021750588  0.021456549            7 
 2641000   0.82652653   -7.1969029    688.66776  0.021730019  0.021449426            8 
 2642000   0.83863911   -7.2104682    689.31564  0.021742229  0.021442268            7 
 2643000   0.83038049   -7.2079761    688.37738   0.02170442  0.021435135            5 
 2644000   0.84012374   -7.2152029     689.2227  0.021722854  0.021428024            9 
 2645000   0.82446819   -7.2103058    688.80188  0.021701382  0.021420855            6 
 2646000   0.82793413   -7.1812659    689.97104  0.021730003  0.021413698           11 
 2647000   0.83352146   -7.2111032     689.2159   0.02169802  0.021406572            8 
 2648000   0.82502425   -7.1787371    688.13838  0.021655916  0.021399446            7 
 2649000   0.82538224   -7.1855766    689.07529  0.021677214  0.021392336            8 
 2650000   0.83711899      -7.2011    687.78912  0.021628589   0.02138525           10 
 2651000   0.86362822   -7.2095353    688.83484  0.021653302  0.021378148           12 
 2652000   0.83795092   -7.2101147    688.62184  0.021638444  0.021371027            8 
 2653000   0.83651033   -7.1820119    691.69218   0.02172673  0.021363986           12 
 2654000   0.81172507   -7.1982336    689.39753  0.021646494  0.021356929            9 
 2655000   0.80898772   -7.1931887    691.52612  0.021705151  0.021349868           10 
 2656000   0.82387068   -7.1991503     690.3765  0.021660909  0.021342802           10 
 2657000   0.81509201   -7.1765698    692.86699  0.021730868  0.021335734            9 
 2658000    0.8301634    -7.161123    691.19959  0.021670416   0.02132868           10 
 2659000   0.82107206   -7.1921898    691.46645   0.02167063  0.021321666           17 
 2660000   0.82645112   -7.1748454    691.50896  0.021663814   0.02131463           12 
 2661000   0.81910336   -7.1490444    692.14882  0.021675711  0.021307612            4 
 2662000   0.82150308   -7.1991487    689.55574  0.021586393  0.021300564            6 
 2663000   0.84529479   -7.1964325    691.25087  0.021631333  0.021293516            6 
 2664000   0.81021502   -7.1872903    688.17255  0.021526919  0.021286492            7 
 2665000   0.82358784   -7.2148035    690.24916  0.021583776  0.021279476           11 
 2666000   0.83724372   -7.2049457    690.95497  0.021597742  0.021272438           10 
 2667000   0.82253887   -7.1718658    691.30507  0.021600583   0.02126538            7 
 2668000    0.8331308   -7.1798739    691.16851  0.021588222   0.02125834           17 
 2669000   0.81745936   -7.2075238     690.3983  0.021556085  0.021251308            8 
 2670000   0.81217866   -7.1943765    691.23563  0.021574146  0.021244259           31 
 2671000   0.83670556   -7.2301529    689.11878  0.021500024  0.021237163            7 
 2672000   0.80764931   -7.1935922    691.49688  0.021566145  0.021230061           20 
 2673000   0.81936534   -7.2544363    689.31859  0.021490167  0.021222952            6 
 2674000   0.83596383   -7.1775166     691.6239  0.021553973  0.021215821           25 
 2675000    0.8130316    -7.186581    690.19702  0.021501465  0.021208761            8 
 2676000   0.82792625    -7.229589    691.09778   0.02152148  0.021201664            9 
 2677000   0.83505626    -7.231637     691.2616  0.021518541  0.021194523            9 
 2678000   0.80780706   -7.2422617    691.18874  0.021508238  0.021187413           20 
 2679000   0.81311601   -7.2092151    689.78982  0.021456695  0.021180276           10 
 2680000   0.81570584   -7.2571806     688.7383  0.021415992  0.021173162            8 
 2681000   0.83624672   -7.2432776    689.16459  0.021421254  0.021166044            6 
 2682000   0.83748191   -7.2262592    690.83971  0.021465316  0.021158889            8 
 2683000   0.81274792   -7.2118269    691.16291  0.021467353  0.021151784           19 
 2684000   0.82162259   -7.2435812    688.82893  0.021386889  0.021144659            6 
 2685000   0.81086449   -7.2139697    690.15782  0.021420168  0.021137557           14 
 2686000   0.82163041   -7.2127211    689.61791  0.021395443  0.021130367            4 
 2687000   0.80208244    -7.214743    690.98168  0.021429775  0.021123267           11 
 2688000   0.80666311     -7.19421    692.09233  0.021456236  0.021116159            9 
 2689000   0.81734148   -7.1892394    691.35439  0.021425387  0.021109063            8 
 2690000   0.81267848   -7.2191823    689.55648  0.021361725  0.021101965           15 
 2691000   0.80738333   -7.2224016    689.13282  0.021340667  0.021094821            8 
 2692000   0.81378698   -7.2207419     692.4772  0.021436268  0.021087718            5 
 2693000   0.80952324   -7.2162298    690.16387  0.021356723  0.021080616            6 
 2694000   0.81768047   -7.2341474    690.86218  0.021370397  0.021073518            9 
 2695000   0.80377162   -7.2373448    690.88649  0.021363219  0.021066391            9 
 2696000   0.82430717   -7.2546587    691.09701  0.021361802  0.021059294            8 
 2697000   0.81685456   -7.2559365    689.75404  0.021312386  0.021052207            7 
 2698000   0.82713419   -7.2252677    690.59457  0.021330447  0.021045089           15 
 2699000   0.82029726   -7.2403173    691.98616  0.021365511  0.021037974            3 
 2700000   0.81469428   -7.2154275    692.78568  0.021382274  0.021030872           21 
 2701000    0.8295021   -7.2607835     689.8926  0.021285098  0.021023796           15 
 2702000   0.81100732   -7.2147335    693.24708  0.021380677  0.021016739            6 
 2703000   0.81898102   -7.1943469    692.88238  0.021361524  0.021009679            3 
 2704000   0.81057461   -7.2165351    693.53305  0.021373676  0.021002653           11 
 2705000   0.82076394   -7.2051449    691.03699  0.021288878  0.020995628            9 
 2706000   0.82979777   -7.2136654    691.43374  0.021293229  0.020988559            5 
 2707000   0.79313409   -7.1800333    691.92816  0.021300584  0.020981518            5 
 2708000   0.82097459   -7.2399324     692.3483  0.021305647  0.020974466           10 
 2709000   0.80283227   -7.2394163    692.01768  0.021287612  0.020967364            7 
 2710000   0.81175475   -7.2190329    689.45674  0.021201007  0.020960311           11 
 2711000    0.8202348   -7.2355853    692.85192  0.021297551  0.020953236           21 
 2712000   0.81877374    -7.215654    692.07253  0.021265749  0.020946161           14 
 2713000    0.8337406   -7.2122989    692.63587  0.021275214  0.020939104            9 
 2714000   0.81254643   -7.2325324    693.82194  0.021303793  0.020932086           10 
 2715000   0.83021981   -7.2170468    692.18334  0.021245652  0.020925064           23 
 2716000   0.82195162   -7.2334724    693.07101  0.021265065  0.020918003           19 
 2717000   0.82217802   -7.2453511    691.93462  0.021222384  0.020910888            9 
 2718000   0.82675677   -7.2336132    691.93788  0.021214676  0.020903776           13 
 2719000   0.81141391   -7.2415192    690.97727  0.021177433  0.020896708           14 
 2720000    0.8206408   -7.2183732    692.00477  0.021201126  0.020889614           28 
 2721000   0.81720438   -7.2171817     691.5026  0.021177955  0.020882548            5 
 2722000    0.8101586   -7.2557404     691.5714  0.021172281  0.020875487           13 
 2723000    0.8069085   -7.2152841    693.95009  0.021237302  0.020868412            8 
 2724000    0.7983727     -7.20052    691.35878  0.021150232  0.020861422            6 
 2725000   0.80334622   -7.1929209    693.71906   0.02121465   0.02085446            7 
 2726000   0.80645499   -7.2358897     691.4866  0.021138622  0.020847451           10 
 2727000   0.80637007   -7.2525041    692.98337   0.02117661  0.020840426           11 
 2728000   0.83193649   -7.2332544     693.5616   0.02118651  0.020833431            7 
 2729000   0.79267401   -7.2507261    692.22388  0.021137898  0.020826433           14 
 2730000   0.82239014   -7.2311691    692.88718  0.021150402  0.020819445            5 
 2731000   0.81571159   -7.2334925    692.16345  0.021120574  0.020812475           17 
 2732000   0.80801521    -7.248297    693.08243  0.021140875  0.020805457           19 
 2733000   0.82119828   -7.2345619    693.45911  0.021144625  0.020798447           22 
 2734000   0.80060308   -7.2282592    694.15178  0.021158004  0.020791448           14 
 2735000   0.81460092   -7.2226503    693.66798  0.021135526  0.020784449           11 
 2736000   0.83832174   -7.2180755    692.95627  0.021106124  0.020777443           11 
 2737000   0.82527234   -7.2208212    692.88138  0.021096133  0.020770415            7 
 2738000   0.83154773   -7.2427858    693.51603  0.021107744  0.020763409           14 
 2739000   0.79909937   -7.2561008    693.77518  0.021107922  0.020756387           16 
 2740000   0.80180248   -7.2245466    692.88213  0.021073058  0.020749372           19 
 2741000    0.8083657   -7.2505315    693.48907  0.021083822  0.020742399           19 
 2742000   0.80920379   -7.2559966     693.1449  0.021065673  0.020735396            8 
 2743000   0.79973805   -7.2423551    692.80477   0.02104766  0.020728419           15 
 2744000   0.79764215   -7.2652543    693.66209  0.021066026  0.020721437            9 
 2745000   0.82195447   -7.2609347     696.0932  0.021132155  0.020714455           21 
 2746000   0.80347035   -7.2574242    694.04267  0.021062232  0.020707431           13 
 2747000   0.82137063   -7.2524653    693.03276  0.021023928  0.020700469            5 
 2748000   0.80378951    -7.274348    694.80039  0.021069881  0.020693468           13 
 2749000   0.81711275   -7.2685754    692.33086  0.020987355   0.02068647           20 
 2750000    0.8218126   -7.2487807    693.39065  0.021011838  0.020679484           31 
 2751000   0.81000016   -7.2542807    694.80153  0.021046938  0.020672495            8 
 2752000   0.79874194   -7.2753207    694.60649  0.021033384  0.020665584           13 
 2753000   0.82165188   -7.2358459    694.09356  0.021010218  0.020658609            8 
 2754000   0.82391144   -7.2700805    695.14909  0.021034528   0.02065165           19 
 2755000    0.8023032    -7.225314    697.04166   0.02108414  0.020644752            6 
 2756000   0.79326897   -7.2335074    695.06121  0.021016607  0.020637834           15 
 2757000   0.81395648   -7.2346895    694.94992   0.02100562  0.020630943           13 
 2758000   0.82699444   -7.2633054    694.54181  0.020985672  0.020624072            5 
 2759000   0.82378712   -7.2694791    694.54671  0.020978214   0.02061714            7 
 2760000   0.79749488   -7.2476918    696.80324  0.021038745  0.020610188           10 
 2761000   0.81671655   -7.2756974    692.94398  0.020914644  0.020603223            8 
 2762000   0.81252032   -7.2816883    696.11464  0.021002735  0.020596313            8 
 2763000   0.80478519   -7.2765708    694.88499  0.020958047  0.020589388            5 
 2764000   0.80143388   -7.2496767    694.89707  0.020950828  0.020582455            8 
 2765000   0.80080009   -7.2603362    693.89172  0.020912951  0.020575506           14 
 2766000   0.82224518   -7.2658142    694.39463  0.020920542  0.020568593           14 
 2767000   0.79518605   -7.2511433    694.92438  0.020928936  0.020561661            8 
 2768000   0.80778235   -7.2740934    694.82569  0.020918403  0.020554678            7 
 2769000   0.79372685   -7.2729359    694.01234  0.020886371  0.020547747            8 
 2770000    0.8042368    -7.249886    692.90415  0.020845492  0.020540822            4 
 2771000   0.80463245   -7.3030043    691.96297  0.020809665  0.020533895            8 
 2772000   0.79945949   -7.2505377    695.48131  0.020907928  0.020526961            9 
 2773000   0.82129059   -7.2532722    694.96668  0.020884922  0.020520091            7 
 2774000   0.82201215   -7.2718201    693.74287  0.020840629  0.020513168           11 
 2775000    0.8173965   -7.2681237    695.90137  0.020897939  0.020506231           25 
 2776000   0.80877855   -7.2463584    695.77758  0.020886695  0.020499293           11 
 2777000   0.81560232   -7.2837143    696.37053  0.020896967  0.020492373            7 
 2778000   0.79734315   -7.2802055    695.82106  0.020872962  0.020485461            7 
 2779000   0.80504101    -7.273088    695.38701  0.020852435   0.02047853           10 
 2780000   0.80976825   -7.3140212    693.00788  0.020773617  0.020471583           10 
 2781000   0.80107782   -7.2536759      696.118  0.020859343  0.020464682           11 
 2782000   0.80218223   -7.2510871    697.71668  0.020899733  0.020457825           11 
 2783000   0.80182994   -7.2481133    695.94159   0.02083907  0.020450911           11 
 2784000   0.79381102   -7.2590193    697.18172  0.020868706   0.02044403            6 
 2785000   0.82127069   -7.2585415    695.91564  0.020823329  0.020437159           20 
 2786000   0.79938823   -7.2145813    696.41927  0.020830919   0.02043028           13 
 2787000   0.79408895    -7.218708    698.74354  0.020892942  0.020423475           10 
 2788000   0.80747854   -7.2585451    694.80489  0.020767722  0.020416626           11 
 2789000   0.81127356   -7.2543257    695.58217    0.0207835  0.020409751           13 
 2790000   0.81385554   -7.2433818    696.68836  0.020809091  0.020402937            4 
 2791000   0.78596889   -7.2556468    696.42584  0.020793797  0.020396065            9 
 2792000   0.79854067   -7.2647953    696.42876  0.020786436  0.020389219            5 
 2793000   0.78856531   -7.2371843    697.62892  0.020814803   0.02038237            8 
 2794000   0.79557756   -7.2748178    696.50293  0.020773769  0.020375508           10 
 2795000   0.78015512   -7.2522751    697.68896  0.020801698  0.020368629            8 
 2796000   0.78440065   -7.3042719    696.09963  0.020746889  0.020361785           20 
 2797000   0.79980046   -7.2539534    698.03451  0.020797119  0.020354949           33 
 2798000   0.79430365   -7.2835506    695.78198  0.020722599  0.020348106            9 
 2799000    0.7895303   -7.2747137    696.25563  0.020729297  0.020341205           14 
 2800000   0.80933383   -7.3146902    696.58519  0.020731702   0.02033429           15 
 2801000   0.80970014   -7.3354781    694.69203  0.020667976  0.020327395           16 
 2802000   0.78668468   -7.2539255    697.72149  0.020750699  0.020320508           15 
 2803000   0.80419447   -7.2448236    697.93579  0.020749667  0.020313681           11 
 2804000   0.80507003   -7.2889543     696.1437  0.020689007  0.020306851           22 
 2805000   0.79871001   -7.2996069    696.77647   0.02070043  0.020299971            7 
 2806000   0.82004339   -7.3083287    695.51159  0.020655488  0.020293136           16 
 2807000   0.80095447   -7.2974266    697.54484  0.020708492  0.020286276           14 
 2808000   0.79414022    -7.286031    695.80091  0.020649362  0.020279441           14 
 2809000   0.79918559   -7.2772512    700.45958  0.020780218  0.020272603           22 
 2810000   0.79739976   -7.2656817    697.67349  0.020690199  0.020265801            9 
 2811000   0.78571737   -7.3176057    697.05034  0.020664364  0.020258963           13 
 2812000   0.80632588   -7.2901894    695.96589  0.020624878  0.020252132            8 
 2813000   0.80658146   -7.3252125    695.40556  0.020600947  0.020245311           14 
 2814000   0.79890822   -7.2774378    697.12402  0.020644516  0.020238496           11 
 2815000   0.80015444   -7.3071766    697.13204   0.02063742  0.020231655           12 
 2816000   0.80582295    -7.299253    696.89037   0.02062294  0.020224828            8 
 2817000   0.80255148   -7.3059919    698.48211  0.020662706  0.020218015           14 
 2818000   0.79939117   -7.3011286    696.75822  0.020604395  0.020211214            5 
 2819000   0.80380264   -7.3159131    698.28616  0.020642254  0.020204378           10 
 2820000   0.80226291   -7.2937967    699.25184   0.02066347  0.020197572           20 
 2821000   0.79357935   -7.2883428    698.70524  0.020639999  0.020190771           10 
 2822000   0.80350706   -7.2987065    699.01188   0.02064174  0.020183982           10 
 2823000   0.82003923   -7.2757113    698.87887  0.020630502  0.020177208            6 
 2824000   0.79524777    -7.286986    699.89098  0.020653062  0.020170459           21 
 2825000   0.81201882   -7.2870614     697.9685  0.020589041  0.020163736           12 
 2826000     0.805387   -7.2993968    697.49634  0.020567833  0.020157026           16 
 2827000    0.7895646   -7.2951518    698.61849  0.020593635  0.020150305           25 
 2828000   0.80213968   -7.2673011    699.08446  0.020600084  0.020143639           20 
 2829000   0.80170604   -7.3055757    699.10832  0.020593505  0.020136936           15 
 2830000   0.78914603   -7.2742524    699.79661  0.020606496  0.020130216           29 
 2831000   0.83156025   -7.2821277    699.47094  0.020589631  0.020123507           29 
 2832000   0.79840355   -7.2921313    699.90381  0.020595098  0.020116802           18 
 2833000   0.79938953   -7.3093166     698.5462  0.020547894  0.020110075           15 
 2834000   0.80009449   -7.2767158    699.06243  0.020555823  0.020103383            8 
 2835000     0.803149    -7.302781    699.12478  0.020550405  0.020096715           20 
 2836000   0.79718704    -7.262987    702.27891   0.02063584  0.020090062           12 
 2837000   0.82080036   -7.2730309     701.0979  0.020593876  0.020083457           29 
 2838000   0.78241405   -7.2916935     701.2654  0.020591537  0.020076822           17 
 2839000   0.80499085   -7.2767379    699.60703  0.020535606   0.02007019           29 
 2840000   0.79462469   -7.2983362    702.59316  0.020615996  0.020063593           15 
 2841000   0.77911399   -7.2620497    700.29915  0.020541451  0.020056986           36 
 2842000   0.80594299   -7.2793616    702.01774  0.020584616  0.020050399           36 
 2843000    0.7912434   -7.2643997    701.20796  0.020553639  0.020043821           26 
 2844000   0.78979871   -7.3208891    701.19696   0.02054609  0.020037207           13 
 2845000   0.79160348   -7.3398612    700.01555  0.020504263  0.020030594           26 
 2846000   0.80777774   -7.3188552    699.27955  0.020475508   0.02002393           39 
 2847000   0.80505646   -7.3115457    701.14928  0.020523044  0.020017304           35 
 2848000   0.80797848   -7.3425384    701.00213  0.020511532  0.020010673           23 
 2849000   0.78686275   -7.2838348    702.40546   0.02054538  0.020003998            7 
 2850000   0.78498328   -7.2956231    702.12629  0.020530008  0.019997402           27 
 2851000   0.80187837   -7.3062259    700.42806  0.020473169  0.019990768           13 
 2852000   0.76800804   -7.3254297     700.1889  0.020459002  0.019984128           11 
 2853000   0.79911595   -7.3061376     700.8406  0.020470867  0.019977478           32 
 2854000   0.78942973   -7.2796361    702.92445   0.02052454  0.019970848           12 
 2855000   0.81528412   -7.2856943    702.39664  0.020501945  0.019964239            6 
 2856000   0.78492012   -7.2958837    699.91197  0.020422268  0.019957641            7 
 2857000   0.78189091   -7.3298463    700.77817  0.020440385  0.019950994           48 
 2858000   0.79569288   -7.3173291     699.2447   0.02038852   0.01994433           28 
 2859000    0.7927555   -7.3281727    700.52803  0.020418795  0.019937685           22 
 2860000   0.78800582   -7.3254639    700.66138  0.020415541  0.019931061           24 
 2861000   0.79247554   -7.2847012    702.28119  0.020455586  0.019924435           22 
 2862000    0.7924135   -7.3158313    701.48018  0.020425116  0.019917852           23 
 2863000   0.79294198   -7.3308399    700.11927   0.02037837  0.019911177           17 
 2864000   0.77928294    -7.344422     700.6706  0.020387296  0.019904527           38 
 2865000   0.78877851   -7.3844634    698.57934  0.020319352  0.019897838           62 
 2866000   0.80055586   -7.3497107    700.77603  0.020376135  0.019891093           15 
 2867000   0.78590989   -7.3299937    700.11037  0.020349679  0.019884403           31 
 2868000    0.7882068   -7.3365247    699.65859  0.020329457   0.01987772           15 
 2869000   0.79165615   -7.3389669    700.66275  0.020351538  0.019871033           40 
 2870000   0.79151662   -7.3092694    702.77876  0.020405887   0.01986439           34 
 2871000   0.79627269   -7.3097202    701.62836  0.020365388   0.01985775           28 
 2872000   0.79418459   -7.3215199    701.83354  0.020364251  0.019851097           33 
 2873000   0.79830738    -7.326082    700.50223  0.020318547  0.019844471            5 
 2874000   0.79673928   -7.2934473    701.67504  0.020345484   0.01983786            8 
 2875000   0.79336157   -7.3252614    701.28052  0.020326972  0.019831222           12 
 2876000   0.79444729   -7.3069206    700.13581  0.020286735  0.019824574           16 
 2877000    0.7993663   -7.3211374    699.67508  0.020266339   0.01981792           27 
 2878000   0.79599058   -7.3148631    699.24201  0.020246757  0.019811235           34 
 2879000    0.7985108   -7.3345781    700.68726  0.020281558  0.019804561           11 
 2880000   0.79699301   -7.3230737    701.32132  0.020292862  0.019797904           34 
 2881000   0.77557569   -7.3214206    701.42869  0.020288924  0.019791249            8 
 2882000    0.7855579   -7.3075614    701.41368   0.02028145  0.019784621           14 
 2883000    0.7710365   -7.3097263    702.63629  0.020309755   0.01977795           14 
 2884000   0.78635479     -7.33697     701.3119  0.020264445  0.019771302           21 
 2885000   0.78126623   -7.3565863    700.20561  0.020225465  0.019764655           14 
 2886000   0.80815292   -7.3426104    700.33001  0.020222049  0.019757979           23 
 2887000   0.79817592   -7.3193064    701.44622  0.020247264  0.019751312           46 
 2888000   0.80286503   -7.2958904    700.98248  0.020226872  0.019744716           12 
 2889000   0.79616868   -7.3219216    702.85759  0.020273958  0.019738067           15 
 2890000    0.7687646   -7.3044349    702.54941  0.020258057  0.019731433            8 
 2891000   0.81120127   -7.3345759    701.67001  0.020225701  0.019724796           10 
 2892000   0.78605511    -7.341697    699.27114  0.020149583  0.019718152           11 
 2893000   0.80126282   -7.3211735    703.45083  0.020263015  0.019711529            7 
 2894000   0.79713997   -7.2799475    703.12504  0.020246632  0.019704929           10 
 2895000   0.79674465   -7.3285808    702.23829  0.020214113   0.01969834           16 
 2896000   0.78062912   -7.3397032    702.21287  0.020206402  0.019691761            9 
 2897000   0.79538692   -7.3364577    701.21122  0.020170614  0.019685161            9 
 2898000   0.78781282   -7.3043838    701.75941  0.020179417  0.019678585           13 
 2899000   0.78347426   -7.3457618    700.67492  0.020141282  0.019671958           11 
 2900000   0.77823521   -7.3105164    702.20322  0.020178253  0.019665319           16 
 2901000   0.79686326   -7.3350608    701.20782  0.020142704  0.019658701           25 
 2902000   0.79640824   -7.3265205    701.04131  0.020130982  0.019652087           17 
 2903000   0.79575122   -7.3157771    702.05657  0.020153191  0.019645462           15 
 2904000   0.78389958   -7.3446856    702.83505  0.020168591  0.019638841           22 
 2905000   0.78655444   -7.3468262    701.95464  0.020136392   0.01963221           26 
 2906000   0.79920597   -7.3212659    701.84122  0.020126211  0.019625615           18 
 2907000    0.7916352   -7.3500857     700.4013   0.02007801  0.019619013           32 
 2908000   0.78171306   -7.3223457    701.34124  0.020098041  0.019612416           29 
 2909000   0.78718884    -7.329733    701.69007  0.020101125  0.019605838           27 
 2910000   0.76961722   -7.3456601    702.44574  0.020115857  0.019599274           44 
 2911000    0.7821909   -7.3406345    703.37428  0.020135529  0.019592707           10 
 2912000    0.7959759   -7.3393341     703.0799  0.020120189   0.01958612           10 
 2913000   0.79290772   -7.3605601    699.62997  0.020014589  0.019579522           19 
 2914000   0.76582902   -7.3249841    702.04445  0.020076769  0.019572954           14 
 2915000   0.77286865    -7.357423    700.36865  0.020021974  0.019566359           12 
 2916000   0.78562227   -7.3590537    704.01617  0.020119346  0.019559725           13 
 2917000   0.79524814   -7.3333983    700.56833  0.020013951  0.019553126            6 
 2918000   0.77640816   -7.3494397    701.58676  0.020036177  0.019546535           10 
 2919000   0.78528409   -7.3584319    701.35939  0.020022822  0.019539953           12 
 2920000   0.78632336   -7.3367487    702.80138  0.020057117  0.019533384           13 
 2921000   0.77011514   -7.3525652     703.4458  0.020068635  0.019526818           14 
 2922000   0.79512516   -7.3663008    701.76146  0.020013731  0.019520269           16 
 2923000   0.77203992   -7.3568009    703.92392  0.020068535  0.019513715           26 
 2924000   0.78505592   -7.3209863    704.92228  0.020090124  0.019507203           19 
 2925000   0.77850955   -7.3154145    703.39523   0.02003975    0.0195007           16 
 2926000   0.77547973   -7.3305484    703.00092  0.020021671  0.019494187           30 
 2927000   0.77417434   -7.3195942    702.93193  0.020012867  0.019487681           12 
 2928000   0.77575973   -7.3613398    703.53044  0.020023066  0.019481163           18 
 2929000   0.77818688   -7.3495653    702.53731  0.019987974  0.019474592           15 
 2930000   0.76832481    -7.327104    705.32261   0.02006037  0.019468065            9 
 2931000   0.78595274   -7.3643863    703.15365  0.019991859  0.019461573           24 
 2932000   0.77200117   -7.3530409    703.05553  0.019982251  0.019455035           13 
 2933000   0.77890952   -7.3469481     703.7892  0.019996284  0.019448478           15 
 2934000   0.76798979   -7.3508162     704.1473  0.019999639  0.019441953           11 
 2935000   0.77069309   -7.3221814    702.13569  0.019935709  0.019435427           11 
 2936000   0.79089916   -7.3131865    703.54227  0.019968843  0.019428899           43 
 2937000   0.78556504   -7.3466897    704.56289  0.019991002  0.019422357           33 
 2938000   0.78542978   -7.3427705     703.4994  0.019954033  0.019415817           23 
 2939000   0.78969551   -7.3504293    703.00664  0.019933272  0.019409264           15 
 2940000   0.78301129   -7.3298018    703.09853  0.019929097  0.019402718           29 
 2941000   0.79410423   -7.3656633    702.86693  0.019915758  0.019396195           13 
 2942000   0.77476425   -7.3668047    703.81766  0.019935918  0.019389676           10 
 2943000   0.78555492   -7.3327918    702.67049  0.019896661  0.019383148           22 
 2944000   0.77594972   -7.3569616    703.90189  0.019924759  0.019376641           16 
 2945000   0.78370264   -7.3410193    704.72395  0.019941255  0.019370155           14 
 2946000   0.79960555    -7.343251    705.31376   0.01995117  0.019363676           11 
 2947000   0.78539068    -7.347343    705.53986  0.019950794  0.019357218           16 
 2948000   0.77911767   -7.3653049    703.56881  0.019888309  0.019350758           12 
 2949000   0.75862582   -7.3636073    704.30486  0.019902364  0.019344291           11 
 2950000   0.77748456   -7.3681151    703.40172  0.019870105  0.019337822           14 
 2951000   0.77242241   -7.3768208    702.51202  0.019838247  0.019331342           11 
 2952000   0.76573217   -7.3812293    703.11843  0.019848646  0.019324856            9 
 2953000   0.77653102   -7.3347635    705.21921  0.019901208   0.01931838            6 
 2954000   0.78172931   -7.3556033    704.46081  0.019873076  0.019311906            9 
 2955000   0.77945846   -7.3630017    703.27557  0.019832926  0.019305425           12 
 2956000   0.77864201   -7.3651033      702.718  0.019810498  0.019298952           11 
 2957000   0.77385789   -7.3409058    704.94978  0.019866694  0.019292489           11 
 2958000   0.77377528   -7.3721349    704.91435   0.01985898  0.019286004           20 
 2959000   0.78766788   -7.3724634    706.00397  0.019882955  0.019279517           20 
 2960000   0.77064264    -7.340077     707.0225  0.019904913  0.019273088           18 
 2961000   0.78455937   -7.3274592    705.99606  0.019869303   0.01926669           15 
 2962000   0.77557729   -7.3562544    703.90741  0.019803832  0.019260293            9 
 2963000   0.79176262    -7.333923    705.98172  0.019855488  0.019253904           24 
 2964000   0.77806359   -7.3750193    704.30125  0.019801542  0.019247506            9 
 2965000   0.77819155   -7.3585018    704.71877  0.019806599  0.019241109            8 
 2966000   0.78267682   -7.3353607    705.69725  0.019827412  0.019234694           15 
 2967000   0.78587353   -7.3668608    704.87252  0.019797565  0.019228306           11 
 2968000   0.76985066   -7.3500739    705.29788  0.019802838   0.01922191           10 
 2969000   0.79659878    -7.362414    705.32933  0.019797051  0.019215514           16 
 2970000   0.76145561   -7.3439717    706.69004  0.019828565  0.019209097           11 
 2971000   0.78796575   -7.3790521    705.46281  0.019787468  0.019202707           12 
 2972000   0.77036562   -7.3457611    706.92196  0.019821724  0.019196305           10 
 2973000    0.7512177   -7.3229285    707.01382  0.019817632  0.019189932            7 
 2974000   0.77771278   -7.3475307    705.88165  0.019779244  0.019183549            8 
 2975000   0.77435302   -7.3680776     704.0097   0.01972016   0.01917719           12 
 2976000   0.76757233   -7.3526364     704.3536  0.019723163  0.019170802           10 
 2977000   0.76035519   -7.3776526       706.74  0.019783339  0.019164439           12 
 2978000   0.78944844    -7.370262    705.18395  0.019733153  0.019158063            8 
 2979000   0.78047949   -7.3760957    704.28639  0.019701421  0.019151661           17 
 2980000   0.79040496   -7.3673516    705.95607  0.019741501  0.019145268           11 
 2981000   0.77899019   -7.3244212    705.99255  0.019735898  0.019138927            5 
 2982000   0.77869026   -7.3259947     706.4706  0.019742639  0.019132587           10 
 2983000   0.78263333   -7.3168463    709.02828  0.019807472  0.019126243           11 
 2984000   0.76430284   -7.3678462    705.82324  0.019711328  0.019119872           18 
 2985000   0.77561892   -7.3706551    705.24472  0.019688574  0.019113426           13 
 2986000    0.7759769   -7.3169033    708.99116  0.019786536  0.019107055            9 
 2987000   0.77984498   -7.3491021    706.78989  0.019718499  0.019100734           13 
 2988000   0.76956388   -7.3450574    707.45932   0.01973057  0.019094409           17 
 2989000    0.7753019   -7.3422957    708.33808  0.019748469  0.019088106           14 
 2990000   0.76641801   -7.3567814     707.2456  0.019711416  0.019081788            7 
 2991000   0.77476122   -7.3349625     706.3742  0.019680547  0.019075454           11 
 2992000   0.78043345   -7.3879854    706.80437   0.01968595  0.019069123           14 
 2993000   0.78817945   -7.4170203    704.43021   0.01961327  0.019062727            9 
 2994000   0.76876391   -7.3568214      706.346  0.019660042  0.019056364           10 
 2995000   0.78066082    -7.365779    705.44058  0.019628286  0.019049962           23 
 2996000   0.78233921   -7.3660236    707.39162  0.019676002  0.019043562           12 
 2997000   0.78802973   -7.3853964    702.58447  0.019535771  0.019037153           36 
 2998000   0.75938015   -7.3786854    706.31774  0.019633026  0.019030709           21 
 2999000   0.77788019   -7.3976154    705.83931  0.019613185  0.019024304           15 
 3000000   0.76717899   -7.3488993    705.09582  0.019585995   0.01901791           16 
 3001000   0.75150277    -7.353654     706.2253  0.019610832  0.019011517           29 
 3002000   0.77887014   -7.3865629    706.45284  0.019610616  0.019005141           10 
 3003000   0.78349743    -7.352121    708.28141  0.019654829  0.018998802           16 
 3004000   0.76547417   -7.3661747    707.90638  0.019637882  0.018992442           20 
 3005000   0.78160715   -7.3735659     706.1991  0.019584002  0.018986073           32 
 3006000   0.76446189   -7.3676141    704.27562  0.019524163  0.018979673           15 
 3007000   0.76087946   -7.3758527    706.59087  0.019581833  0.018973319           14 
 3008000   0.76544142   -7.3861873    705.98349  0.019558496  0.018966959           17 
 3009000   0.77419956   -7.3658285    706.91609  0.019577825  0.018960621           16 
 3010000   0.76431527   -7.3815228    707.30625  0.019582122  0.018954279           10 
 3011000     0.770082   -7.3708477    707.02493  0.019567833  0.018947925           21 
 3012000   0.77381434   -7.3686282    706.35528  0.019542809  0.018941563           15 
 3013000   0.75750397   -7.3795161    705.57187  0.019514655  0.018935203           22 
 3014000   0.76150395   -7.3817352    708.15062   0.01957948  0.018928885           22 
 3015000   0.78551397   -7.3371909    708.98548  0.019596061  0.018922578           29 
 3016000   0.75861431   -7.3651737    705.32826  0.019488513  0.018916256           27 
 3017000   0.77557775   -7.3906376    707.29973  0.019536508  0.018909942           21 
 3018000   0.77944149   -7.4021465    707.28776  0.019529704  0.018903601           32 
 3019000   0.77292248   -7.3617851     708.0816  0.019545147  0.018897268           41 
 3020000   0.75866944   -7.3886666    707.38946  0.019519577  0.018890942           15 
 3021000   0.76265758     -7.42477    704.89582  0.019444329  0.018884605           30 
 3022000   0.77450051   -7.4007589    705.99292  0.019468148  0.018878255           19 
 3023000   0.75737938   -7.4149297    706.16166   0.01946636  0.018871888           24 
 3024000   0.76154514   -7.4126146    705.54373  0.019442894  0.018865549           23 
 3025000   0.76360208   -7.3820882    706.24093  0.019455673  0.018859203           12 
 3026000   0.77745243   -7.4174776    707.04787  0.019471466  0.018852833           22 
 3027000   0.76316746   -7.4135166    706.51186  0.019450277  0.018846482            8 
 3028000   0.79140167   -7.3816802    706.64551  0.019447532  0.018840194           16 
 3029000   0.77216949   -7.4086991     706.4386  0.019435419   0.01883387           26 
 3030000   0.78183355   -7.3758313    708.22767  0.019478209  0.018827575           18 
 3031000   0.76535541    -7.395544    706.84896  0.019433877  0.018821301           18 
 3032000   0.78481532   -7.3570449    708.20734  0.019464801  0.018815019           12 
 3033000   0.74981244    -7.386572    707.70459  0.019444571  0.018808734           21 
 3034000   0.78419709   -7.4189692    707.53761  0.019433575   0.01880244           18 
 3035000   0.75726155   -7.3821607    709.55977  0.019482695  0.018796138           24 
 3036000   0.76233928   -7.4465996    705.70691  0.019370523  0.018789837           31 
 3037000   0.76209332    -7.416404    707.28103  0.019407338  0.018783493           16 
 3038000   0.76466167   -7.4239995    706.21007  0.019371573  0.018777191           15 
 3039000   0.77247386   -7.4096485    707.32942  0.019395893  0.018770891           30 
 3040000   0.75479453    -7.404118    707.29424  0.019388548  0.018764555           29 
 3041000   0.75083954   -7.4013402    709.13895  0.019432724  0.018758263           22 
 3042000   0.74846815    -7.405165    707.23604  0.019374207  0.018751987           17 
 3043000   0.77292629     -7.40407    710.13849  0.019447324  0.018745709           20 
 3044000   0.74021464   -7.4143983    705.90036  0.019324911  0.018739406           34 
 3045000    0.7678709    -7.423368    707.93209  0.019374168  0.018733109           13 
 3046000   0.75805925   -7.4051104    708.15513  0.019373909  0.018726835           12 
 3047000   0.76235826   -7.4374342    706.76881  0.019329636  0.018720529           20 
 3048000   0.76962361    -7.422016    708.30484   0.01936529  0.018714209           19 
 3049000   0.76442375   -7.4156382     707.2106  0.019329031  0.018707899           17 
 3050000   0.75931684   -7.4074875    704.72368  0.019254745  0.018701582           13 
 3051000   0.76065378   -7.4430058    707.59067  0.019326742  0.018695287           28 
 3052000   0.78410317   -7.4205954    706.87753  0.019300937  0.018688993           16 
 3053000   0.76841768   -7.3866944    708.10408  0.019328095  0.018682728           12 
 3054000   0.76862794   -7.4340516    708.68127  0.019337516   0.01867648           21 
 3055000   0.75873062   -7.4226274    708.16558  0.019317119  0.018670229           17 
 3056000    0.7730573   -7.4085942    708.07673  0.019308375   0.01866399           13 
 3057000   0.76234673   -7.4100251    708.29063   0.01930789  0.018657746            9 
 3058000   0.75263595   -7.3797523    707.76341  0.019287209  0.018651505           11 
 3059000   0.77329235   -7.3879483    707.35295  0.019269722  0.018645232           35 
 3060000   0.75965472   -7.3996631    708.41585  0.019292371   0.01863895           18 
 3061000   0.76466514    -7.411454    707.28899   0.01925539  0.018632661            8 
 3062000   0.75164753   -7.4041799    709.66938  0.019313885  0.018626383           10 
 3063000   0.77617934   -7.3952739    708.39162  0.019272816  0.018620143           31 
 3064000   0.76045358   -7.4163375    706.26248  0.019208618  0.018613881           44 
 3065000   0.76755239   -7.3862578    709.49137   0.01929014  0.018607623           30 
 3066000   0.75516684   -7.4173425    708.32796  0.019252228  0.018601389           18 
 3067000   0.77805644   -7.4129771    708.34602  0.019246441  0.018595116           14 
 3068000   0.75707077   -7.4143608      707.471  0.019216401  0.018588836           17 
 3069000   0.75917963   -7.4035076    706.73629  0.019190189  0.018582563           11 
 3070000   0.76712266   -7.4204361    707.90542  0.019215674  0.018576318           16 
 3071000   0.76720581   -7.4363311     709.7611  0.019259772  0.018570077           27 
 3072000   0.76393483   -7.4179588    708.65257  0.019223431  0.018563814           15 
 3073000   0.76953552   -7.4388251    706.53016   0.01915962  0.018557553           19 
 3074000   0.76480377   -7.4206538     708.9709  0.019219554  0.018551293           10 
 3075000   0.75699572   -7.4495358    709.45661  0.019226466  0.018545053           21 
 3076000   0.76532944   -7.3920223    709.37945  0.019218126  0.018538811           19 
 3077000   0.74928307   -7.3985571    708.86105   0.01919784  0.018532564           13 
 3078000   0.75196388   -7.4026911    708.07193  0.019170239  0.018526332           29 
 3079000   0.77336297   -7.4211844    708.64088  0.019179411   0.01852008           27 
 3080000    0.7687405   -7.4268752    706.62605   0.01911867  0.018513792           17 
 3081000   0.74760628   -7.4369668    708.83781  0.019172287  0.018507514           17 
 3082000   0.76849747   -7.4156322    708.24767   0.01915011  0.018501254           23 
 3083000   0.75800409   -7.4372852    707.23294   0.01911647  0.018495005           36 
 3084000   0.76236942   -7.4078943    708.75279   0.01915134  0.018488735           25 
 3085000   0.75139728   -7.4421612    708.40477  0.019135731   0.01848246           19 
 3086000   0.77163654   -7.4075477    708.18143    0.0191235    0.0184762           10 
 3087000   0.77840642    -7.447925     707.6056   0.01910176  0.018469932           14 
 3088000   0.76765352   -7.4282394    707.08362  0.019081488  0.018463672           23 
 3089000   0.76080172   -7.4484439    706.88959  0.019070076  0.018457384           51 
 3090000   0.76268885   -7.4438788    706.23454  0.019046239  0.018451101           51 
 3091000   0.76287906    -7.434969    708.73434  0.019107472  0.018444801           31 
 3092000   0.76679339   -7.4512683    706.11957  0.019030821   0.01843851           43 
 3093000    0.7554348    -7.441971    706.80767  0.019043207  0.018432204           33 
 3094000   0.75984926   -7.4711743    706.24685  0.019021947  0.018425934           42 
 3095000   0.74942477   -7.4496248    708.11366  0.019066065  0.018419629           76 
 3096000   0.76484543   -7.4450679    707.99141  0.019056616  0.018413362           54 
 3097000   0.75194657   -7.4703053    706.40711  0.019007833  0.018407072           33 
 3098000   0.76456133    -7.439824    707.63624   0.01903476  0.018400798           32 
 3099000   0.75889724   -7.4500456    708.43593  0.019050122  0.018394579           39 
 3100000   0.75918416   -7.4560099    707.84867   0.01902819  0.018388336           33 
 3101000    0.7538094    -7.434143    708.63344  0.019043143   0.01838209           63 
 3102000   0.76344403   -7.4420941    708.89332  0.019043986  0.018375852           40 
 3103000   0.75680401   -7.4714821    707.38654  0.018997383  0.018369578           41 
 3104000   0.76480763   -7.4735577    707.27998  0.018988401  0.018363325           43 
 3105000   0.76410995    -7.464818    707.08129  0.018976954   0.01835707           71 
 3106000   0.77898844   -7.4525117    708.61549  0.019012006  0.018350829           57 
 3107000   0.74014221   -7.4378252    707.69455  0.018981186  0.018344605           39 
 3108000    0.7461629   -7.4479588    707.74985  0.018976562  0.018338377           43 
 3109000   0.74982996   -7.4503631    708.12036  0.018980389  0.018332112           12 
 3110000   0.75249637   -7.4832715    705.89908  0.018914766  0.018325838           29 
 3111000   0.74238019   -7.4643237    706.88255   0.01893503  0.018319558           36 
 3112000   0.73858138     -7.46205    708.19368  0.018964055  0.018313283           25 
 3113000   0.74554439   -7.4421633    707.89623  0.018950001  0.018307036           30 
 3114000   0.75123523   -7.4588966    708.39562   0.01895728   0.01830079           30 
 3115000   0.75501676    -7.473576    705.95945  0.018886021  0.018294567           16 
 3116000    0.7524072   -7.4859731    707.97812  0.018933946  0.018288326           63 
 3117000   0.73948147   -7.4698764    707.61254  0.018918098  0.018282087           52 
 3118000    0.7663044   -7.4604201    707.74293  0.018915516  0.018275845           41 
 3119000   0.75129458   -7.4683872    708.58012  0.018931819  0.018269586           29 
 3120000   0.74554609   -7.4720331    708.46924  0.018922789  0.018263373           50 
 3121000   0.75480712   -7.4407347    707.92704  0.018902249  0.018257131           27 
 3122000   0.74621858   -7.4349345    709.40719  0.018935703  0.018250916           35 
 3123000   0.76107401   -7.4594155    709.16847   0.01892327  0.018244691           27 
 3124000     0.755222   -7.4551951     709.0211  0.018913282  0.018238506           30 
 3125000   0.76073734   -7.4442933    707.63168  0.018870178  0.018232309           29 
 3126000   0.75957494   -7.4481652    707.90966  0.018871552  0.018226108           44 
 3127000   0.74445474   -7.4616562    710.18864  0.018926251  0.018219898           50 
 3128000   0.75909201   -7.4481823    708.75681  0.018882055  0.018213686           34 
 3129000   0.74532675   -7.4344689    710.05608  0.018910623  0.018207475           48 
 3130000   0.74030477   -7.5377932     705.9071  0.018794119  0.018201209           35 
 3131000   0.76396257   -7.4656471    708.41172  0.018854778  0.018194947           43 
 3132000   0.74498374   -7.4688903    708.14894  0.018841766  0.018188721           33 
 3133000   0.73617216   -7.4854065    707.41881  0.018816332  0.018182511           37 
 3134000   0.75564505   -7.4474178    708.43796  0.018837427   0.01817631           37 
 3135000   0.75869625   -7.4769041    708.06002  0.018821372  0.018170115           29 
 3136000   0.74116274   -7.4537337    708.98425   0.01883993  0.018163924           51 
 3137000   0.72623659   -7.4472085    708.30043  0.018815759  0.018157722           37 
 3138000   0.74505814   -7.4577746    708.00519  0.018801923  0.018151521           41 
 3139000   0.74923805   -7.4520247    708.29764  0.018803696  0.018145318           47 
 3140000   0.75420013   -7.4488548    709.75249  0.018836319  0.018139142           79 
 3141000   0.75285179   -7.4628151    707.12315  0.018760563  0.018132953          106 
 3142000   0.76329517   -7.4787909    706.74058  0.018744446  0.018126753           91 
 3143000   0.75432088   -7.4850622    708.31369  0.018780191  0.018120545          117 
 3144000   0.76333707   -7.4949644    706.38987  0.018723226  0.018114302          155 
 3145000    0.7642911   -7.4694027    708.27482  0.018767218   0.01810806           83 
 3146000   0.75173089   -7.4689693    707.40642   0.01873825  0.018101808           89 
 3147000   0.74310114   -7.4782748    707.21055  0.018727109  0.018095537           68 
 3148000   0.74338411   -7.4983214    705.87309  0.018685755  0.018089268           44 
 3149000   0.75782068   -7.5057224    706.27383  0.018690426  0.018082998          105 
 3150000   0.73774563   -7.5076524    706.24853  0.018683823  0.018076718           68 
 3151000    0.7374036   -7.4697385      709.554  0.018765313  0.018070476           66 
 3152000   0.75361124   -7.5015611    706.11625  0.018668471   0.01806425           85 
 3153000    0.7484156   -7.4885546    705.29464  0.018640835  0.018058004           63 
 3154000   0.73769011   -7.4747742    708.54672   0.01872085  0.018051771           72 
 3155000   0.73103353   -7.4683727    709.58257  0.018742276  0.018045527           55 
 3156000   0.73520959   -7.4812672    706.74997  0.018661543  0.018039324           65 
 3157000   0.75060278    -7.492833    709.33435  0.018723851  0.018033094           51 
 3158000   0.75607568   -7.4738074    708.17085  0.018687219  0.018026891           89 
 3159000   0.75579851   -7.4772925     708.1521  0.018680809  0.018020702           70 
 3160000    0.7412037   -7.5007205    706.73446  0.018637512  0.018014534          100 
 3161000   0.74727077   -7.4585237    707.95976  0.018663918   0.01800835          125 
 3162000   0.73411286   -7.4802535    708.33862  0.018668001  0.018002159          105 
 3163000   0.75543921    -7.447712      707.774  0.018647223  0.017995976          127 
 3164000   0.74134402   -7.4593866    708.46546  0.018659541  0.017989802          108 
 3165000   0.74330359   -7.4732206    709.88822  0.018691106  0.017983636           83 
 3166000   0.75736897   -7.4759596    708.39134  0.018645803  0.017977456          145 
 3167000   0.73146689   -7.4996787    707.80472  0.018624479  0.017971277           91 
 3168000   0.74484424   -7.4716836    709.32535    0.0186586  0.017965087          116 
 3169000   0.74258826   -7.4727158    707.05444  0.018592996  0.017958891          123 
 3170000   0.74992351    -7.481535    707.08147  0.018587841  0.017952704           68 
 3171000   0.73270892   -7.4666723    707.75961  0.018599801   0.01794652          200 
 3172000   0.74195736   -7.4987545    707.53755  0.018588103  0.017940304          158 
 3173000   0.74790358    -7.488802    706.93923  0.018566531  0.017934102          118 
 3174000   0.75295119     -7.47972    708.19462  0.018593641  0.017927925           70 
 3175000   0.72912427   -7.4922486     709.2233  0.018614785  0.017921738           62 
 3176000   0.73616006   -7.4865928    707.76854  0.018570753  0.017915569          114 
 3177000   0.74032799   -7.4759774    707.91333  0.018568706  0.017909372          103 
 3178000   0.72994618    -7.451886    708.10729  0.018567949  0.017903193          109 
 3179000   0.74731641   -7.4845972     707.4987  0.018546154   0.01789703           74 
 3180000   0.74877937   -7.4723051    709.11538  0.018582688  0.017890882           47 
 3181000   0.74161076    -7.492397    707.97402  0.018546946  0.017884721           61 
 3182000   0.73739078   -7.4828625    708.51117  0.018555185  0.017878558           82 
 3183000   0.73931204   -7.5030327     708.3798  0.018545916  0.017872407           58 
 3184000   0.75060096   -7.5199508    707.10942  0.018506842   0.01786623           78 
 3185000   0.75193614   -7.4950912    709.89084  0.018573805  0.017860073           62 
 3186000   0.71877503   -7.4732992     709.7121    0.0185633  0.017853918           53 
 3187000   0.74371442   -7.4898277    707.18328  0.018491352  0.017847752           36 
 3188000   0.74555924   -7.5060048    707.05185  0.018482117  0.017841563           42 
 3189000   0.73420608   -7.5299918    708.20019  0.018506329  0.017835377           30 
 3190000    0.7385873   -7.5181545    708.87076  0.018518045  0.017829186           31 
 3191000   0.74353471    -7.518244    706.71825  0.018456029  0.017822984           53 
 3192000   0.73050254   -7.5027194    709.62153  0.018526042  0.017816818           37 
 3193000   0.74555357   -7.5277052    708.79037  0.018498548  0.017810659           46 
 3194000   0.73737927   -7.4782611     708.4624  0.018484199  0.017804491           45 
 3195000   0.75308737   -7.5012421    709.10265  0.018495113  0.017798355           50 
 3196000   0.75096022   -7.5183733    707.28172  0.018441847  0.017792199           44 
 3197000   0.74247502   -7.5084885    707.40259  0.018439229  0.017786054           49 
 3198000   0.74306377   -7.4863831    707.67036  0.018440441  0.017779914           16 
 3199000   0.74416139    -7.469872    709.58764  0.018484621  0.017773769           40 
 3200000   0.73480162   -7.4681236    709.41951  0.018474466   0.01776766           34 
 3201000    0.7184167   -7.4901875    708.71256   0.01845029  0.017761559           30 
 3202000   0.75591772   -7.5012296    707.64483   0.01841674  0.017755428           27 
 3203000   0.73217536   -7.4836815     708.6013  0.018435875  0.017749304           32 
 3204000   0.73149369   -7.5220678    707.31636  0.018396701  0.017743164           64 
 3205000   0.74564392   -7.4726898    709.08417  0.018436926  0.017737039           37 
 3206000   0.73102405   -7.4959801    707.87776  0.018399817  0.017730918           40 
 3207000   0.75312744   -7.4787756    708.37119  0.018406901   0.01772481           18 
 3208000   0.73856814   -7.5059152    708.39693  0.018401832   0.01771871           14 
 3209000   0.74409202   -7.4965899    709.01328  0.018412103  0.017712592           37 
 3210000   0.73183479   -7.5009601    708.75742  0.018399725  0.017706486           29 
 3211000   0.73315369   -7.5314857    708.14202  0.018378024  0.017700348           28 
 3212000   0.73417583   -7.4981738    708.67962   0.01838625  0.017694203           22 
 3213000   0.73626235   -7.5059019    708.59499  0.018378333  0.017688072           14 
 3214000   0.74258508     -7.52286    709.01766  0.018383573  0.017681941           20 
 3215000   0.73754093   -7.4658329    708.22706  0.018357363  0.017675803           18 
 3216000   0.74581854    -7.507575     707.7191  0.018338492  0.017669674           36 
 3217000   0.72261002   -7.5242838    707.82046  0.018335418  0.017663546           49 
 3218000   0.74517027   -7.5013473    707.61741  0.018324462  0.017657438           21 
 3219000   0.73675776   -7.4993927    707.67626  0.018320292   0.01765133           21 
 3220000   0.74469021   -7.4749437    709.72313  0.018367576   0.01764524           22 
 3221000   0.72856854   -7.5122875    707.53264  0.018305201  0.017639113           29 
 3222000   0.74277568    -7.473738    709.73682  0.018356529   0.01763299           46 
 3223000   0.74117962   -7.4759923    709.39283  0.018341939  0.017626868           96 
 3224000   0.73102274   -7.4830025    708.94566  0.018324691  0.017620758           78 
 3225000   0.74188886   -7.5089711    708.06582  0.018296274  0.017614643           24 
 3226000   0.73162544   -7.5015265    707.42451  0.018274037  0.017608514           53 
 3227000   0.74605785   -7.4580917    711.16134  0.018364873  0.017602419           65 
 3228000   0.75270296   -7.4756377    711.15761  0.018359087  0.017596343           13 
 3229000   0.72567117   -7.5002769     708.5519  0.018286154  0.017590294           25 
 3230000     0.748722   -7.4815266    709.03048   0.01829284  0.017584227           33 
 3231000   0.72521744   -7.5034367    709.99559   0.01831207  0.017578165           41 
 3232000   0.72095428   -7.4906638    709.83719   0.01830232  0.017572107           44 
 3233000   0.74206392   -7.4778917    709.93545  0.018299192  0.017566043           22 
 3234000   0.72576303   -7.5023233    708.38296  0.018253529  0.017559985           42 
 3235000   0.74249056   -7.4922625      708.836  0.018259557  0.017553909           18 
 3236000   0.75407996   -7.5129314    708.18633  0.018237184  0.017547831           12 
 3237000   0.73784732   -7.5129181    708.44831  0.018238295  0.017541766           27 
 3238000   0.73239969   -7.5271504    708.50767   0.01823419  0.017535687           14 
 3239000   0.72963445   -7.5228865    708.07854  0.018217519    0.0175296           32 
 3240000   0.73123313   -7.5292824    709.49861  0.018248421  0.017523512           30 
 3241000   0.74595755   -7.5274461    706.55178  0.018167021  0.017517384           27 
 3242000   0.73747804    -7.554532    706.16257  0.018151413  0.017511271           28 
 3243000   0.72343792   -7.5045253      708.913  0.018216492   0.01750517           51 
 3244000   0.72744092   -7.5059459    708.74499  0.018206561  0.017499109           41 
 3245000   0.71487292   -7.5215672    706.89564  0.018153458  0.017493009           23 
 3246000   0.72719013   -7.5398858    709.34043  0.018210629  0.017486944           40 
 3247000   0.75127051   -7.5034471      710.087  0.018224181  0.017480864           32 
 3248000   0.72785113   -7.5340343    706.59463  0.018128967   0.01747477           27 
 3249000   0.74305135   -7.5174059    708.59781  0.018174767  0.017468668           20 
 3250000   0.71510068   -7.5008411    707.73928  0.018147161  0.017462591           11 
 3251000   0.72150244   -7.5237689    709.68062  0.018191342  0.017456499           16 
 3252000   0.74313809   -7.5558852     709.1957  0.018173322  0.017450419           12 
 3253000   0.73898348   -7.5082515    708.03516  0.018138005  0.017444334           48 
 3254000   0.71766944   -7.5184499    707.13546   0.01810939   0.01743825           22 
 3255000   0.73640377   -7.5313152    709.33549  0.018160151  0.017432172           43 
 3256000   0.71139711   -7.5014813    708.42175  0.018131187  0.017426109           21 
 3257000   0.72017924   -7.5391629    708.63101  0.018130975  0.017420047           26 
 3258000   0.70455327   -7.5086804    708.84024  0.018130761  0.017413985           33 
 3259000     0.751018   -7.5053466    712.08634  0.018208201  0.017407933           41 
 3260000   0.73644787   -7.4805868    710.55962  0.018163589  0.017401898           35 
 3261000    0.7329367   -7.5118874    708.65614  0.018109377  0.017395871           61 
 3262000   0.72477326   -7.5062417    708.97786  0.018112044  0.017389837           30 
 3263000   0.71473949   -7.4912455    709.15982   0.01811114  0.017383825           37 
 3264000   0.71245278   -7.5220553     710.4642  0.018138894  0.017377815           49 
 3265000   0.73488124    -7.511747    709.58406  0.018110874  0.017371829           63 
 3266000   0.74545126   -7.4983192     710.6336  0.018132109  0.017365823           47 
 3267000   0.72840515   -7.5112215    709.90062  0.018107862  0.017359816           39 
 3268000   0.72497641   -7.5405325    709.94372   0.01810342  0.017353794           76 
 3269000   0.73906224   -7.5186399    708.56695  0.018062785  0.017347766           52 
 3270000   0.73202985   -7.5182225    709.06614  0.018069983  0.017341763           54 
 3271000   0.72883925   -7.5110346    709.10794  0.018065524  0.017335771           60 
 3272000   0.71198943   -7.5228815    709.63476   0.01807342  0.017329758           73 
 3273000   0.72544451   -7.5532888    708.54843  0.018040239  0.017323749           57 
 3274000   0.72257649   -7.5359439    709.21239  0.018051629  0.017317739           34 
 3275000   0.71757265   -7.5115779    707.84093   0.01801122  0.017311701           26 
 3276000   0.73555878   -7.5306629    707.83481  0.018005566  0.017305679           28 
 3277000   0.73125385   -7.5043133    709.29576  0.018037223  0.017299659           11 
 3278000   0.73115612   -7.5208923    711.21491  0.018080509  0.017293652           13 
 3279000   0.73190247   -7.5342193    708.45047  0.018004739  0.017287609           21 
 3280000   0.73887009    -7.532971    708.50649  0.018000673   0.01728158           14 
 3281000   0.72410052   -7.5275935    708.82498  0.018003276  0.017275539           28 
 3282000   0.72834417   -7.5284418    708.30436  0.017984571  0.017269496           36 
 3283000   0.73319724   -7.5561335    706.80706  0.017941087  0.017263443           26 
 3284000   0.71966353   -7.5379659    709.79505  0.018011446  0.017257401           32 
 3285000   0.70788866   -7.5418476    708.01983  0.017960929  0.017251368           25 
 3286000   0.72703954   -7.5246734    709.81892  0.018001088  0.017245347           11 
 3287000   0.74023517   -7.5320294    709.07365  0.017976718  0.017239338           10 
 3288000   0.73922746   -7.5149766    709.46799  0.017981245  0.017233339           12 
 3289000    0.7244222   -7.5208589    709.18115   0.01796851  0.017227325           15 
 3290000   0.71169373   -7.5394443    708.10506  0.017935792  0.017221281           75 
 3291000   0.71705487   -7.5564845    708.64762   0.01794408  0.017215248           23 
 3292000   0.72109312   -7.5352735    709.68942  0.017965001  0.017209225           25 
 3293000   0.72075798   -7.5423612    706.98215  0.017891035  0.017203198           53 
 3294000   0.74318083   -7.5428145    708.11877  0.017914359  0.017197172           31 
 3295000   0.70633736   -7.5695709    708.91591  0.017929082  0.017191148           40 
 3296000   0.73513348   -7.5359409    709.01433  0.017926131  0.017185133           23 
 3297000   0.70259193   -7.5399455    707.36591  0.017879029  0.017179101           50 
 3298000   0.70980669   -7.5573306    708.55818  0.017903734  0.017173069           36 
 3299000    0.7243362   -7.5276013    710.18221   0.01793933  0.017167041           19 
 3300000   0.72169514   -7.5288366    707.06246  0.017855113  0.017161034           41 
 3301000   0.72906772   -7.5372611    709.71953  0.017916781  0.017155023           25 
 3302000   0.72979969   -7.5529784    707.65643  0.017859288     0.017149           20 
 3303000   0.74184507   -7.5381992      709.318  0.017895802  0.017142984           34 
 3304000   0.72496216   -7.5468829    708.37617  0.017866631  0.017136977           28 
 3305000   0.72943026   -7.5328689    708.99775  0.017876897  0.017130962           43 
 3306000   0.72982352   -7.5264427    708.46854   0.01785815  0.017124953           19 
 3307000   0.72844037   -7.5099452    708.22002  0.017846488  0.017118953           80 
 3308000   0.73692674   -7.5393058    709.10502  0.017863387  0.017112971           21 
 3309000   0.72433466   -7.5300754    709.50211  0.017867989  0.017106984           45 
 3310000   0.71507617   -7.5133691    708.85029  0.017846181  0.017101001           29 
 3311000   0.71100861   -7.5469275    708.06137  0.017820935  0.017095027           25 
 3312000    0.7259741   -7.5367348    710.71046  0.017882208  0.017089065           21 
 3313000   0.73525724    -7.528296    709.77992  0.017853404  0.017083106           15 
 3314000   0.72907732   -7.5008022    709.50681  0.017841149  0.017077147           22 
 3315000   0.72556854   -7.5468698    708.91286  0.017820836  0.017071195           27 
 3316000   0.73115612   -7.4981119    709.64574   0.01783388   0.01706524           29 
 3317000   0.71469102   -7.5599957    708.35109  0.017795977  0.017059291           26 
 3318000    0.7270753   -7.5272811    708.64655  0.017798035  0.017053328           20 
 3319000   0.73521882   -7.5755606    709.07637  0.017803464  0.017047366           22 
 3320000   0.71544741     -7.54164    709.55731  0.017810173  0.017041395           27 
 3321000   0.72931766    -7.535259    708.04139  0.017766772  0.017035426           15 
 3322000   0.72127292   -7.5696576    707.44763  0.017746529   0.01702947           73 
 3323000   0.71108811   -7.5660566    709.10175   0.01778267  0.017023492           30 
 3324000   0.72846958   -7.5185804     710.8367  0.017820816   0.01701753           23 
 3325000   0.72242755   -7.5293951    709.34035  0.017777954  0.017011585           28 
 3326000     0.712848   -7.5428102     709.4617  0.017775649  0.017005644           46 
 3327000   0.70464402   -7.5525353     708.3562  0.017742616   0.01699971           67 
 3328000   0.71097682   -7.5470389    708.08626  0.017730525  0.016993739           89 
 3329000   0.72682429   -7.5605227    709.66953  0.017764832  0.016987789           37 
 3330000    0.7373655    -7.555504    708.81737  0.017738172  0.016981844           94 
 3331000   0.72316685   -7.5397695    708.02527  0.017713031  0.016975909           45 
 3332000   0.72369549   -7.5382943    709.47078  0.017743867  0.016969975           24 
 3333000   0.71845262   -7.5384639    707.75492  0.017695643  0.016964012           54 
 3334000   0.74219518   -7.5574719    709.61941  0.017736938  0.016958045           40 
 3335000   0.70214496   -7.5357653    709.31337  0.017723972  0.016952103           37 
 3336000   0.71852846   -7.5566066    707.58274  0.017675428  0.016946182           53 
 3337000   0.71037127   -7.5429386    709.35437  0.017714374   0.01694024           71 
 3338000   0.72088587   -7.5726385    708.07561  0.017677142  0.016934292          124 
 3339000   0.73296365   -7.5850425    708.50743  0.017682625  0.016928355           59 
 3340000   0.69554506    -7.521766    708.75348   0.01768347  0.016922412           30 
 3341000   0.71254616   -7.5355871    709.69961  0.017701776  0.016916506           63 
 3342000   0.72737409   -7.5494889    708.76195  0.017673099  0.016910582           70 
 3343000   0.73114521    -7.529053    710.41069  0.017708911  0.016904648           22 
 3344000   0.72357783   -7.5714869    709.33424   0.01767679  0.016898736           80 
 3345000   0.71463693   -7.5611344    708.32742  0.017646423  0.016892817           75 
 3346000   0.72344085   -7.5307105    709.04761  0.017659086  0.016886906           70 
 3347000   0.72605832   -7.5619231     708.5684  0.017641878  0.016881012           78 
 3348000   0.71389277   -7.5383532    710.65736  0.017688604  0.016875126          120 
 3349000   0.70983442   -7.5711715    708.61519  0.017632507  0.016869199           91 
 3350000   0.71961809   -7.5695157    707.74618  0.017605626  0.016863261           67 
 3351000   0.71582771   -7.5546321    708.45538  0.017618009  0.016857337           42 
 3352000   0.71018483   -7.5869083    707.91995  0.017599442  0.016851417           85 
 3353000   0.74404249   -7.5687088    709.03708  0.017621957  0.016845495           35 
 3354000   0.71719198   -7.5537431    710.11033  0.017643369  0.016839562           38 
 3355000   0.70149474   -7.5615866     707.7448  0.017579354  0.016833638           38 
 3356000   0.70871367   -7.5653678    709.48972  0.017617444  0.016827723           55 
 3357000   0.69775975   -7.5660134     708.3489  0.017583877   0.01682179           71 
 3358000   0.71888988   -7.5725634    709.33576  0.017603131  0.016815865           56 
 3359000   0.70187714   -7.5398112    709.17643  0.017593937  0.016809972           97 
 3360000   0.71661758   -7.5529007    709.89606  0.017606549  0.016804079           69 
 3361000    0.7236338   -7.5580931    708.36783  0.017563419  0.016798168           51 
 3362000   0.72463828   -7.5700633    708.50183  0.017561517  0.016792259           48 
 3363000   0.70932648   -7.5934569    707.98357  0.017543453  0.016786345          142 
 3364000   0.72258344   -7.5890772    708.86792  0.017560145  0.016780409           63 
 3365000   0.71933966   -7.5930247     707.3079  0.017516293   0.01677448           41 
 3366000   0.72523485   -7.5894142    707.77404  0.017522629  0.016768551           39 
 3367000   0.72427866    -7.602998    709.09976  0.017550236  0.016762643           39 
 3368000   0.71780093   -7.5686927    708.53322  0.017531008  0.016756729           56 
 3369000   0.71204105   -7.5669593    710.23178  0.017567819  0.016750824           38 
 3370000   0.69706198   -7.5616354    709.48499  0.017544139  0.016744933           43 
 3371000   0.73362139   -7.5809253     709.8035  0.017546809  0.016739051           74 
 3372000   0.70432291   -7.5769401    709.22024  0.017527191  0.016733166           43 
 3373000   0.71771421    -7.563974    710.06604  0.017542891  0.016727295           39 
 3374000   0.71612833   -7.5468243    708.84044   0.01750742  0.016721423           68 
 3375000   0.69647295   -7.5547796     709.3293  0.017514304  0.016715539           70 
 3376000    0.7147768   -7.5859275    706.73865  0.017445168  0.016709625           53 
 3377000   0.71217176   -7.6016718    708.64583  0.017487065  0.016703705           44 
 3378000   0.71232301   -7.6175799    707.27399  0.017448046   0.01669777          124 
 3379000   0.71504274   -7.6048796      709.614  0.017500592  0.016691835          121 
 3380000   0.71388619   -7.5821893    706.78028  0.017425549   0.01668589           58 
 3381000   0.71560075   -7.6224134    706.04963  0.017402387  0.016679946           66 
 3382000   0.71598097   -7.6174347    706.65832  0.017412239  0.016673979           49 
 3383000    0.7034251   -7.6247503     705.6554  0.017382388  0.016668022           75 
 3384000   0.71208673   -7.6007216    706.64105  0.017401523  0.016662075          117 
 3385000    0.7128774   -7.5820867    708.30947  0.017437456  0.016656135          133 
 3386000   0.72857879   -7.5908954    707.08832  0.017402253   0.01665019          119 
 3387000   0.71438777    -7.575815    707.53019  0.017407986  0.016644258           83 
 3388000    0.7196477   -7.6146787    708.45571  0.017425613  0.016638322           60 
 3389000   0.70372306   -7.5982409    707.66152  0.017400942  0.016632391          102 
 3390000   0.69509608   -7.6163946    706.53599  0.017368141  0.016626448           63 
 3391000   0.70825145   -7.6087229    707.89487  0.017396414  0.016620511           81 
 3392000     0.714704   -7.6139169    706.70737  0.017362111  0.016614595           99 
 3393000   0.70486449   -7.5923597    708.11408  0.017391543   0.01660868          101 
 3394000   0.71265789   -7.5983413    708.97349   0.01740752  0.016602802          123 
 3395000   0.69212953   -7.6009301    706.77407  0.017348406  0.016596912          123 
 3396000   0.71185145   -7.5865651    708.61438  0.017388456  0.016591013          103 
 3397000   0.70185805     -7.60486    708.29033  0.017375388  0.016585117          119 
 3398000   0.70511823   -7.6073486    707.64404  0.017354425  0.016579222          114 
 3399000   0.72185706   -7.6227506    705.38266  0.017293877  0.016573313          114 
 3400000   0.71928834   -7.6041555    706.99465    0.0173283  0.016567406           90 
 3401000   0.70532692   -7.5788961    708.48903  0.017359821  0.016561502          132 
 3402000   0.69591786   -7.6419863    706.12826   0.01729689  0.016555598          130 
 3403000   0.70773463   -7.6069556    708.44038  0.017348427  0.016549694          125 
 3404000     0.708599   -7.6174064    707.43355  0.017318683  0.016543799          171 
 3405000   0.69526743   -7.5983568    707.39335  0.017312613  0.016537907          136 
 3406000   0.70076276   -7.6378393    706.66689  0.017289756  0.016531995          149 
 3407000   0.70896186   -7.6158296    707.39643  0.017302525  0.016526098          229 
 3408000   0.71574148   -7.6268813    707.99803  0.017312158  0.016520212          164 
 3409000   0.72039879    -7.602119    706.71987  0.017275835  0.016514299          152 
 3410000   0.69086457   -7.5802336    707.35915  0.017286392   0.01650842          109 
 3411000   0.70081457    -7.596048    708.66752  0.017313288  0.016502541          204 
 3412000   0.73193701   -7.6134599    707.55059  0.017280935  0.016496663          131 
 3413000    0.6928452     -7.61459    707.34133  0.017270762   0.01649076           92 
 3414000   0.70724396   -7.6175698    707.31732  0.017265117  0.016484858          112 
 3415000   0.69915057     -7.62744     707.3364  0.017260527  0.016478959           97 
 3416000   0.71240647    -7.620951    707.82236  0.017267329  0.016473062          107 
 3417000   0.71618687   -7.6164303    707.93783  0.017265092  0.016467173           97 
 3418000   0.69713187   -7.6437049    706.75285   0.01723115  0.016461279          100 
 3419000   0.69121817   -7.6377043    706.12417  0.017210787  0.016455377          129 
 3420000   0.70568039   -7.6224023    707.19844  0.017231931  0.016449474          237 
 3421000   0.70282995    -7.634643     705.9097  0.017195501  0.016443589          120 
 3422000   0.70866877   -7.6329997    706.44666  0.017203552  0.016437692          120 
 3423000   0.70589952   -7.6261374    707.11298  0.017214748  0.016431796          113 
 3424000   0.70337867   -7.6256559    707.42798  0.017217387  0.016425905          100 
 3425000    0.7130702   -7.6171155    708.25553  0.017232495  0.016420023          147 
 3426000   0.71122296   -7.6040609     705.9221  0.017170707  0.016414152          225 
 3427000   0.69585096   -7.6580865    705.97637  0.017167016  0.016408267          148 
 3428000   0.71172451   -7.6378994    706.30942  0.017170104  0.016402372          177 
 3429000   0.70392376   -7.6282032    706.30919  0.017165092  0.016396487          138 
 3430000   0.68828873    -7.640562    705.90438  0.017150252  0.016390607          223 
 3431000   0.70603785   -7.6217907    705.55451  0.017136756   0.01638475          110 
 3432000   0.69527693    -7.674184    705.75775  0.017136697  0.016378883          143 
 3433000   0.71346107   -7.6257522    708.16007   0.01719002  0.016373004          148 
 3434000   0.69843599   -7.6081043    707.14194  0.017160307  0.016367137          153 
 3435000   0.69758867   -7.6437923    704.99232  0.017103162  0.016361275          161 
 3436000   0.70366123    -7.629714    706.69788  0.017139549  0.016355413          152 
 3437000   0.70055251   -7.6442113    706.79139  0.017136829  0.016349555          163 
 3438000   0.70279749   -7.6297778    705.90873   0.01711045  0.016343707          155 
 3439000   0.71070399   -7.6089479    706.46189  0.017118879  0.016337859          114 
 3440000   0.69424671   -7.6382224    705.20991  0.017083573  0.016332008          133 
 3441000   0.72155723   -7.6407728    706.65489  0.017113603  0.016326151          106 
 3442000   0.69307118   -7.6309768    706.43504  0.017103308  0.016320307          120 
 3443000    0.6953974    -7.634928     706.4723  0.017099242  0.016314438          151 
 3444000    0.6870271   -7.6429331    705.98209  0.017082416  0.016308578          168 
 3445000   0.69869624   -7.6407741    706.66476  0.017093971  0.016302736          111 
 3446000   0.69921603   -7.6558504    706.79816  0.017092236  0.016296891          145 
 3447000   0.69207881   -7.6418873    706.58378  0.017082095  0.016291032          155 
 3448000   0.69729131   -7.6558969    706.06515  0.017064606  0.016285199          117 
 3449000   0.70377269   -7.6207797    707.97078  0.017105702  0.016279356          182 
 3450000   0.69393449   -7.6583235     707.3046  0.017084652  0.016273511          171 
 3451000   0.68973817    -7.650958     706.3702  0.017057138  0.016267674          134 
 3452000   0.69449937   -7.6443448    706.14784  0.017046829  0.016261834          140 
 3453000   0.69028938   -7.6487576    706.07931  0.017040238  0.016255997          149 
 3454000   0.68436647   -7.6690236    706.07816  0.017035277  0.016250144          150 
 3455000   0.73259881   -7.6128694    707.03127  0.017053335  0.016244304          170 
 3456000   0.69516175   -7.6453646    706.52408  0.017036171   0.01623847          168 
 3457000   0.70384141   -7.6409804    707.56739  0.017056393  0.016232638          238 
 3458000   0.70130803   -7.6562582    705.13439  0.016992828  0.016226819          157 
 3459000   0.69451336   -7.6402922    705.45148  0.016995555   0.01622099          142 
 3460000   0.67916839   -7.6302586    706.03283  0.017004644  0.016215177          277 
 3461000   0.70777428   -7.6430097    707.31988   0.01703072  0.016209366          156 
 3462000   0.69140005   -7.6253863     707.7273  0.017035608  0.016203567          152 
 3463000   0.68970093   -7.6607474    707.55668  0.017026583  0.016197751          147 
 3464000   0.69997932   -7.6587395    707.19525  0.017012973  0.016191939          295 
 3465000   0.69209711   -7.6669708    705.09001  0.016957432  0.016186128          167 
 3466000   0.70174812   -7.6270465     707.8121  0.017017987  0.016180331          192 
 3467000   0.69663694   -7.6237297    707.97592  0.017017016   0.01617454          133 
 3468000   0.67743264   -7.6382413    706.79722  0.016983785   0.01616873          140 
 3469000   0.69734441   -7.6535874    705.96365  0.016958865  0.016162934          186 
 3470000   0.70702601   -7.6538894    707.47646  0.016990309  0.016157143          189 
 3471000   0.69644346   -7.6711847    707.27299  0.016980529  0.016151336          155 
 3472000   0.68875246    -7.625315    707.16469  0.016973039  0.016145536          207 
 3473000   0.70053666   -7.6704514    705.80336  0.016935487  0.016139741          183 
 3474000   0.70059149   -7.6713753    706.36925  0.016944187   0.01613395          138 
 3475000   0.70234316    -7.678805     706.7706  0.016948935  0.016128147          179 
 3476000   0.69728071   -7.6771199    705.98601   0.01692525  0.016122351          208 
 3477000   0.69506225   -7.6432905    708.45082  0.016979456  0.016116568          259 
 3478000   0.68912312   -7.6518345    706.37148  0.016924753  0.016110786          219 
 3479000   0.69739621    -7.640662    706.25053  0.016916991  0.016104997          251 
 3480000   0.68414766    -7.653489    706.89415  0.016927542   0.01609922          211 
 3481000    0.7015757   -7.6733193     704.3857  0.016862628  0.016093425          242 
 3482000   0.70404519   -7.6464163    705.55512  0.016885772  0.016087629          194 
 3483000   0.69869221   -7.6469926    706.82506  0.016911309  0.016081841          159 
 3484000   0.68816281   -7.6556567    707.50678  0.016922761  0.016076054          176 
 3485000   0.69723418   -7.6757286    705.95079  0.016880698  0.016070281          187 
 3486000   0.70602182    -7.657081    706.12624   0.01688005  0.016064492          247 
 3487000   0.68896666   -7.6537994    706.90901  0.016893916  0.016058706          258 
 3488000   0.67133947   -7.6797166    706.77523  0.016885876  0.016052919          274 
 3489000   0.69894258   -7.6552314    706.25562  0.016868626  0.016047138          325 
 3490000   0.67896459   -7.6550041    708.30145  0.016912642  0.016041361          222 
 3491000   0.69784094   -7.6603325    706.60044  0.016867193   0.01603558          254 
 3492000   0.69810955   -7.6553499    705.61856  0.016838931  0.016029804          429 
 3493000   0.69789639   -7.6578098    706.89525  0.016864568  0.016024024          358 
 3494000   0.70721781   -7.6566192    706.88737  0.016859554  0.016018242          417 
 3495000   0.67756104   -7.6850448    706.16285  0.016837455  0.016012476          273 
 3496000   0.69776952   -7.6528052    707.24273  0.016858379  0.016006719          212 
 3497000   0.69629912    -7.651635    705.54756  0.016813163  0.016000936          202 
 3498000   0.69037853   -7.6606949    708.05104  0.016867997  0.015995157          191 
 3499000   0.69081779   -7.6411589    705.59359  0.016804649  0.015989378          209 
 3500000   0.69095103   -7.6819436    706.45819  0.016820433   0.01598361          286 
 3501000   0.69117022   -7.6898506    705.27608  0.016787491   0.01597784          363 
 3502000   0.71478602   -7.6616123    706.65431  0.016815494  0.015972064          319 
 3503000   0.68630922   -7.6632546    705.24733  0.016777223  0.015966307          336 
 3504000   0.68039807   -7.6711949    706.30909  0.016797686  0.015960539          338 
 3505000   0.67146079   -7.6715545    705.72088  0.016778908  0.015954783          244 
 3506000   0.69598263   -7.6757774     704.7056   0.01674999  0.015949026          355 
 3507000   0.69388614   -7.6699977     705.8691  0.016772862  0.015943258          420 
 3508000   0.69143971   -7.7007371    705.14686  0.016750923  0.015937506          246 
 3509000   0.67795189   -7.6697634    705.91688  0.016764436  0.015931753          287 
 3510000   0.68509007   -7.6549877    706.28197  0.016768328  0.015926008          459 
 3511000   0.69552727   -7.6749316     706.3682  0.016765599  0.015920265          320 
 3512000   0.67855689   -7.6910771    705.28294  0.016735074  0.015914514          438 
 3513000   0.68942254   -7.6537051    707.27634  0.016777596  0.015908787          335 
 3514000   0.70185885   -7.6773118    706.14238   0.01674593  0.015903075          461 
 3515000   0.68071666   -7.6864755    706.70751  0.016754564  0.015897355          487 
 3516000   0.70489072    -7.674737    706.38358  0.016742121  0.015891627          415 
 3517000   0.68768873   -7.6518604    706.10387  0.016730733  0.015885909          428 
 3518000   0.70027894   -7.6941601    707.08217  0.016749151  0.015880193          354 
 3519000   0.67620576   -7.6650149    706.52548  0.016731209  0.015874475          342 
 3520000   0.70945775   -7.7138268    705.66097  0.016705989  0.015868769          367 
 3521000   0.68650181   -7.6882598    706.18414  0.016713626  0.015863048          345 
 3522000   0.69967429   -7.6998007    706.50261  0.016716416  0.015857318          582 
 3523000   0.68757686   -7.6771662    705.94398  0.016698457  0.015851583          375 
 3524000   0.69061266   -7.6968735    705.77665  0.016689762  0.015845859          315 
 3525000   0.68098699   -7.6876579     705.8858  0.016687608  0.015840126          460 
 3526000    0.6785688   -7.6919231    706.50936  0.016697612  0.015834391          581 
 3527000    0.6980658   -7.6923869    705.71916  0.016674208   0.01582867          547 
 3528000   0.69257312   -7.7103517    706.76461  0.016694175  0.015822931          704 
 3529000    0.6874564   -7.6878772    705.17732  0.016651963  0.015817196          575 
 3530000   0.68938077   -7.7132947    705.20347  0.016647863   0.01581145          562 
 3531000   0.68274462   -7.6957887    703.94997  0.016613565  0.015805717          584 
 3532000   0.68757816   -7.6817661    703.72357  0.016603519   0.01579998          343 
 3533000   0.67904421   -7.7200102    705.89557  0.016650051   0.01579423          537 
 3534000   0.69355309   -7.6842369    705.18824  0.016628661  0.015788496          466 
 3535000   0.70448949   -7.6915557     706.5053  0.016655005  0.015782779          551 
 3536000   0.69260859   -7.6756901    704.46894  0.016602303  0.015777059          290 
 3537000   0.67549469   -7.6936331    705.85959  0.016630374  0.015771342          526 
 3538000   0.69686245   -7.6701356    706.81501  0.016648177  0.015765611          523 
 3539000   0.67647616   -7.6962386     704.7072   0.01659384  0.015759875          586 
 3540000   0.67096457   -7.7079696    705.93375  0.016618026  0.015754147          564 
 3541000   0.69111791   -7.7216042    705.00132  0.016591389  0.015748413          396 
 3542000   0.67600158   -7.7350773    705.78237  0.016605081  0.015742694          510 
 3543000   0.68851045    -7.680225    704.61325  0.016572896  0.015736968          547 
 3544000   0.68659471   -7.7250899    704.84072  0.016573569  0.015731256          585 
 3545000   0.68147522   -7.6765482    704.23902  0.016554749  0.015725557          461 
 3546000   0.69081346   -7.6775201    705.08841  0.016570042  0.015719864          537 
 3547000   0.68437191   -7.7078316    704.06054  0.016541221  0.015714157          561 
 3548000   0.68754189   -7.7198323    705.03658  0.016559484  0.015708447          572 
 3549000    0.6804103   -7.7167778    704.48802  0.016541937   0.01570273          431 
 3550000   0.68489009   -7.6735248    704.77999  0.016544131  0.015697019          473 
 3551000    0.6964844   -7.7185486    704.50096  0.016532924  0.015691318          367 
 3552000   0.68124824    -7.715274    704.59594  0.016530498  0.015685627          589 
 3553000   0.68317164   -7.7050446    704.43884  0.016522161  0.015679929          473 
 3554000   0.66724295   -7.7035744    705.65095  0.016545933  0.015674247          507 
 3555000    0.6594937   -7.6882091    705.79524  0.016544661  0.015668555          505 
 3556000   0.68715946   -7.6783086    705.81987  0.016540586  0.015662875          402 
 3557000   0.67846291   -7.7278336    704.64049  0.016508305  0.015657186          577 
 3558000   0.67864917   -7.7053831    705.83039  0.016531534  0.015651496          402 
 3559000    0.6841916   -7.7045214    705.71425   0.01652417  0.015645813          540 
 3560000   0.67448761   -7.7043554    706.31652  0.016533626  0.015640131          569 
 3561000   0.70296012   -7.7051659    704.48247  0.016486064  0.015634455          671 
 3562000   0.68095075   -7.7221559    704.58479  0.016483829  0.015628762          644 
 3563000   0.67942262   -7.7076462    705.38756  0.016497978  0.015623079          517 
 3564000   0.67534688   -7.6955937    704.76864  0.016478878  0.015617408          483 
 3565000   0.69445933    -7.739966    703.39491  0.016442144  0.015611737          543 
 3566000   0.67983959   -7.6845445    705.26191  0.016481163  0.015606067          338 
 3567000   0.68129649   -7.7258037    705.88301  0.016491053  0.015600403          525 
 3568000   0.67832225   -7.7161506    703.53107  0.016431499  0.015594737          579 
 3569000    0.6826248   -7.7039888    704.69083  0.016453975  0.015589074          584 
 3570000   0.68404175   -7.7100095    703.67482  0.016425649  0.015583411          550 
 3571000   0.68609431   -7.7111779    704.66706  0.016444205  0.015577742          510 
 3572000   0.68599754    -7.718422    705.17482  0.016451447  0.015572077          485 
 3573000    0.6842885   -7.7105669    704.98462  0.016442406   0.01556642          721 
 3574000   0.68584029   -7.7132356    705.17877  0.016442333  0.015560768          451 
 3575000   0.67484858   -7.7096434    704.75368  0.016427825  0.015555122          665 
 3576000   0.67889661   -7.7302758    703.27065  0.016388671  0.015549474          592 
 3577000   0.66920625   -7.7215121    703.22229  0.016382963  0.015543813          618 
 3578000   0.66666335   -7.7078582    704.16464  0.016400332  0.015538153          662 
 3579000   0.67409872   -7.7150457    704.42619  0.016401839  0.015532513          520 
 3580000   0.66760678   -7.7055964    704.60326  0.016401379  0.015526856          629 
 3581000   0.68134662   -7.7244418    704.75557  0.016400344   0.01552121          478 
 3582000   0.67561987   -7.7131352    704.94586  0.016400192  0.015515562          477 
 3583000   0.68075422   -7.7013926    705.70413  0.016413251  0.015509928          703 
 3584000   0.69725671   -7.7212817     706.9931  0.016438642   0.01550429          749 
 3585000   0.66669397   -7.7337861    704.02625  0.016365092   0.01549865          663 
 3586000   0.68220067   -7.7144606    705.36146  0.016391556  0.015493007          443 
 3587000   0.68387764   -7.7369672    703.77213  0.016350063  0.015487364          682 
 3588000   0.66297154   -7.7384754    704.21744  0.016355849  0.015481714          680 
 3589000   0.67153346   -7.7328856    705.46931  0.016380359  0.015476075          714 
 3590000   0.66721178   -7.7248166    705.54208  0.016377486  0.015470445          717 
 3591000    0.6803947     -7.74104    704.91817  0.016358446  0.015464807          758 
 3592000   0.67760309   -7.7379521    703.58648  0.016322997  0.015459164          590 
 3593000   0.67862071   -7.7370127    702.51617   0.01629363  0.015453531          785 
 3594000   0.66792471   -7.7293295    705.50965  0.016358506  0.015447896          809 
 3595000   0.68624945    -7.730277    704.50128  0.016330581  0.015442261          511 
 3596000   0.67478688   -7.7504032    704.59891  0.016328303  0.015436611          872 
 3597000   0.67416853     -7.77687    705.22781  0.016338333  0.015430965          475 
 3598000    0.6615451   -7.7311727    703.65636  0.016297396  0.015425319          855 
 3599000   0.68199302   -7.7499666    705.41828  0.016333664  0.015419671          886 
 3600000   0.67434221   -7.7325038    702.33393   0.01625773   0.01541403          905 
 3601000   0.67386503   -7.7562735    704.26254  0.016297846  0.015408395          734 
 3602000   0.68694364   -7.7305675    704.28967  0.016293949  0.015402763          779 
 3603000   0.65556515   -7.7587046    703.02739  0.016260232  0.015397127          758 
 3604000   0.68171617   -7.7539935    704.01766  0.016278618  0.015391485          709 
 3605000   0.66468361   -7.7593368    703.64129  0.016265402  0.015385847          794 
 3606000   0.67951478   -7.7473523    702.79116  0.016241245  0.015380219          653 
 3607000   0.66780479   -7.7362676    704.00976  0.016264896  0.015374584          844 
 3608000   0.66474729   -7.7415229    703.77995   0.01625508   0.01536897          552 
 3609000   0.67989745    -7.743989    702.56238  0.016222462   0.01536335          792 
 3610000   0.67525902   -7.7407113    704.37489  0.016259808  0.015357733          861 
 3611000   0.67792377   -7.7420935    704.18811  0.016250995  0.015352117          847 
 3612000   0.65963428   -7.7315799    703.85832  0.016238887  0.015346498          819 
 3613000   0.67096212   -7.7563963    703.42058  0.016224296  0.015340881          864 
 3614000   0.66786572   -7.7648615    704.49084  0.016244485   0.01533527          877 
 3615000    0.6727093   -7.7577901    702.38178  0.016191374  0.015329663          672 
 3616000   0.66703523   -7.7523524    704.81651  0.016243006  0.015324054          591 
 3617000   0.67570585   -7.7502504    703.80305  0.016215166  0.015318441          885 
 3618000     0.675413     -7.74599    703.55467  0.016204963  0.015312842          907 
 3619000   0.67740747   -7.7675213    702.76034  0.016182194  0.015307227          857 
 3620000   0.67699029   -7.7712382    703.92096  0.016204442  0.015301614          929 
 3621000   0.67167449   -7.7605293    703.24786  0.016184476  0.015295994          817 
 3622000   0.67281566   -7.7545202    703.19222  0.016178728  0.015290385          848 
 3623000   0.66153282   -7.7489145    704.17838  0.016196945  0.015284784          836 
 3624000   0.66576242   -7.7533341    702.87941  0.016162606   0.01527918          820 
 3625000   0.66534363   -7.7602783    704.38721  0.016192809  0.015273586          871 
 3626000   0.67146468   -7.7510768    704.23663  0.016184883  0.015267998          789 
 3627000   0.67845307   -7.7324165    704.29233    0.0161817   0.01526242          833 
 3628000   0.68011992   -7.7377876    703.71022  0.016163869  0.015256843          855 
 3629000   0.66818348   -7.7580306    703.53566  0.016155407  0.015251268          836 
 3630000   0.67518202   -7.7576629    705.50214  0.016196101  0.015245682          781 
 3631000   0.67821029   -7.7485799    704.63066  0.016171639  0.015240097          758 
 3632000   0.68282525   -7.7563666     704.5908  0.016166272  0.015234501          780 
 3633000   0.66988434   -7.7844194    703.11415  0.016127951  0.015228911          827 
 3634000   0.67264872   -7.7736999    703.58467  0.016134303   0.01522331          627 
 3635000   0.66872725   -7.7593668     704.3443  0.016147279  0.015217731          845 
 3636000   0.67949268   -7.7779358    704.06968  0.016136544  0.015212149          904 
 3637000    0.6784511   -7.7666467     704.0172  0.016130905  0.015206567          907 
 3638000   0.68119133    -7.763164    703.08278  0.016105066  0.015200994          803 
 3639000   0.67257979   -7.7667807    702.57567  0.016089028   0.01519542          858 
 3640000   0.67510967    -7.771594    703.46135  0.016104884  0.015189841          900 
 3641000   0.66146497    -7.765911    703.10942  0.016092406  0.015184274          940 
 3642000   0.66494145   -7.7682759    702.92656  0.016083804  0.015178707          779 
 3643000    0.6705805   -7.7666353    702.75846  0.016075544  0.015173149          731 
 3644000   0.68994751   -7.7579945    703.51724  0.016088484  0.015167594          737 
 3645000   0.66256603   -7.7637924     703.0221   0.01607275  0.015162044          706 
 3646000    0.6697746   -7.7578201     702.7997  0.016063259  0.015156496          744 
 3647000   0.66819559   -7.7702723    704.51415  0.016098029  0.015150944          853 
 3648000   0.66253336   -7.7492429    703.17637  0.016063057  0.015145397          867 
 3649000   0.66766572   -7.7766231     702.8481  0.016051158  0.015139844          731 
 3650000   0.65202946   -7.7658739    703.11981  0.016052964  0.015134293          761 
 3651000   0.65105845   -7.7858639     702.1963  0.016027488  0.015128737          836 
 3652000   0.67911992   -7.7598177    703.82832   0.01606034  0.015123187          804 
 3653000   0.66366827   -7.7775587     703.9575   0.01605889   0.01511763          919 
 3654000   0.66546648   -7.7813883     702.8013  0.016028127  0.015112082          746 
 3655000   0.67631684   -7.7961937     702.3143  0.016012638   0.01510653          922 
 3656000   0.65336646   -7.7965753    702.82888  0.016019987  0.015100976          937 
 3657000   0.66883102   -7.7838265    702.55084  0.016009271  0.015095424          938 
 3658000   0.65967583   -7.7790773     701.9871  0.015992052  0.015089879          856 
 3659000   0.67776944   -7.7804159    702.66897   0.01600321  0.015084334          938 
 3660000   0.67083971   -7.7928826    703.83837  0.016025464  0.015078804          925 
 3661000   0.67504317    -7.784852    702.97513  0.016001437   0.01507327          928 
 3662000   0.68654262   -7.7948825    703.25561   0.01600345  0.015067722          918 
 3663000   0.65715539   -7.7838162    702.48251  0.015981493  0.015062177         1022 
 3664000   0.67763156   -7.7699499    702.50575   0.01597766  0.015056652          941 
 3665000   0.67083042   -7.7810932    702.56035  0.015974542  0.015051118         1005 
 3666000   0.66005591   -7.7988797    702.22726  0.015962613  0.015045577         1029 
 3667000   0.65497045   -7.8116188    703.36847  0.015984194  0.015040035          891 
 3668000   0.66911832   -7.8076275    700.30323  0.015910197  0.015034494          961 
 3669000   0.67399731   -7.7825136    704.22508  0.015994937  0.015028955          990 
 3670000   0.66642294   -7.7491965    703.57414  0.015975798  0.015023436          977 
 3671000   0.65568193   -7.7875611    702.88259  0.015955748  0.015017916         1006 
 3672000   0.67411649   -7.7733448    703.14488  0.015957355  0.015012397          989 
 3673000   0.67472846   -7.7843834    701.95784  0.015926079   0.01500687         1123 
 3674000   0.65649857    -7.781942    703.65276  0.015960188  0.015001337         1060 
 3675000   0.63499008   -7.7823683    702.75278  0.015935437  0.014995816         1045 
 3676000   0.66724297   -7.7963371    701.13622  0.015894455    0.0149903         1041 
 3677000   0.65876954   -7.7993968    702.15988  0.015913332  0.014984775         1130 
 3678000   0.66261261   -7.7716553    703.46691  0.015938619  0.014979261         1056 
 3679000   0.66123306   -7.7797176    701.99465  0.015900939  0.014973743          977 
 3680000   0.68214677   -7.7763878    703.13626   0.01592247  0.014968234         1039 
 3681000   0.66086524   -7.8020891    702.14828  0.015895777  0.014962732         1047 
 3682000   0.67801992   -7.8050858    700.29272  0.015849464  0.014957216         1152 
 3683000   0.67426969   -7.7894003    702.67847  0.015899142  0.014951699         1144 
 3684000   0.67253035   -7.7827499    702.31977  0.015886712  0.014946198         1217 
 3685000   0.66787516   -7.7807338    701.12692  0.015855426  0.014940697         1180 
 3686000   0.65821591   -7.8130672    702.10235  0.015873177  0.014935187         1144 
 3687000    0.6503552   -7.8010964    702.42171   0.01587609  0.014929667         1250 
 3688000    0.6621315   -7.7884814    703.03622   0.01588567  0.014924159         1272 
 3689000    0.6535992   -7.7981227    701.86562  0.015854921  0.014918649         1112 
 3690000   0.64886211   -7.8160166    702.10691  0.015856073  0.014913136         1203 
 3691000   0.65732998   -7.8031611    701.76645   0.01584409  0.014907624         1215 
 3692000   0.66828357   -7.7978072    701.50267  0.015833845  0.014902113         1150 
 3693000   0.65988383   -7.8228336    700.43868  0.015805548  0.014896586         1298 
 3694000   0.65958487   -7.8242685    698.84306  0.015765274  0.014891067         1289 
 3695000   0.65497363   -7.8138587    701.55737  0.015822223  0.014885554         1213 
 3696000   0.66352428    -7.802103    701.99267  0.015827757  0.014880047         1191 
 3697000   0.64939856    -7.816397    702.35028  0.015831536  0.014874541         1196 
 3698000   0.63937894   -7.8327711    699.38269  0.015760381  0.014869023         1189 
 3699000   0.66112388   -7.8031216    701.97552  0.015814534  0.014863515         1298 
 3700000   0.65839274   -7.8077048    701.44308  0.015798268  0.014858003         1245 
 3701000   0.66414136    -7.827944    702.32925  0.015813952  0.014852497         1239 
 3702000   0.65864781   -7.8288113    701.50509  0.015791128  0.014846996         1189 
 3703000   0.66369795   -7.8054833    700.52156   0.01576473  0.014841492         1326 
 3704000   0.66185927   -7.8289236    702.22649  0.015798832   0.01483599         1219 
 3705000   0.65711639   -7.8356381    699.99797  0.015744444  0.014830482         1230 
 3706000   0.65461021   -7.8209815    702.58367  0.015798338  0.014824974         1316 
 3707000   0.66110526   -7.8336424    701.04833  0.015759561  0.014819476         1351 
 3708000   0.65006638   -7.7999521    700.48871  0.015742734  0.014813972         1295 
 3709000   0.66289522   -7.8155905    700.72172  0.015743725  0.014808483         1159 
 3710000   0.66194769     -7.81045    701.56318  0.015758382  0.014802986         1270 
 3711000   0.65323708   -7.8253738    700.28869  0.015725516  0.014797503         1300 
 3712000   0.64775279   -7.8423481    701.76731  0.015754475  0.014792013         1291 
 3713000    0.6713448   -7.8404529    701.47787  0.015743735  0.014786525         1267 
 3714000   0.65154021   -7.8286452    702.50737  0.015762596  0.014781041         1299 
 3715000    0.6587186    -7.813329    702.02447  0.015747521  0.014775562         1303 
 3716000    0.6674976   -7.8379956    700.43535  0.015707646  0.014770084         1352 
 3717000   0.65788759   -7.8191616    699.27355  0.015677373  0.014764599         1402 
 3718000   0.67003797   -7.8414316     700.3842   0.01569805  0.014759105         1351 
 3719000   0.66532091   -7.8558863    699.11483  0.015665386  0.014753636         1275 
 3720000   0.64690378    -7.844214     699.0339  0.015659362  0.014748151         1319 
 3721000   0.66542132   -7.8173226    702.14082  0.015724734   0.01474268         1353 
 3722000   0.66475934   -7.8408974    701.23024  0.015700122  0.014737203         1370 
 3723000   0.65631787   -7.8304153    699.71917  0.015662082   0.01473172         1293 
 3724000   0.65673669   -7.8343716     699.7374  0.015658284  0.014726244         1378 
 3725000   0.65737061   -7.8370527    699.38053  0.015646097  0.014720765         1273 
 3726000   0.65780074   -7.8276526    702.31097  0.015707438  0.014715293         1305 
 3727000   0.64161071   -7.8271081    700.69156  0.015667014  0.014709831         1326 
 3728000   0.65693532   -7.8389822    700.07697  0.015649074  0.014704368         1260 
 3729000   0.64327084   -7.8330483    700.55224  0.015655498  0.014698911         1249 
 3730000   0.64724656   -7.8313757    700.66904  0.015653911   0.01469345         1273 
 3731000   0.66757893   -7.8351155    700.08445  0.015636658  0.014687997         1334 
 3732000   0.63764597   -7.8280758    699.98192  0.015630179  0.014682539         1341 
 3733000    0.6538411   -7.8277876    700.58195  0.015639386  0.014677078         1344 
 3734000   0.64727371   -7.8423716    700.32492  0.015629462  0.014671628         1436 
 3735000   0.65851816   -7.8374285    700.80118  0.015635903  0.014666173         1302 
 3736000   0.66674141   -7.8469036    698.79344  0.015586934  0.014660719         1386 
 3737000    0.6488111   -7.8293164    700.38918  0.015618348  0.014655266         1334 
 3738000   0.64414246   -7.8563993    702.11134  0.015652562  0.014649813         1336 
 3739000   0.64772415   -7.8379694    700.66634  0.015616171  0.014644367         1374 
 3740000   0.65299054   -7.8529046     700.9721  0.015618808  0.014638919         1458 
 3741000   0.64270719   -7.8287993    700.41089  0.015602132  0.014633479         1422 
 3742000    0.6497085   -7.8039103    700.41013  0.015597945  0.014628036         1357 
 3743000   0.65273437   -7.8493879    699.17938  0.015566377  0.014622593         1352 
 3744000   0.65595717   -7.8521985     699.0459  0.015559248  0.014617153         1445 
 3745000   0.64185886   -7.8423131    699.19981  0.015558518  0.014611714         1424 
 3746000   0.64806099   -7.8544222    700.71208  0.015588007  0.014606262         1420 
 3747000   0.65081359   -7.8598341    698.99405  0.015545638  0.014600828         1384 
 3748000   0.66404618   -7.8526402    700.04144  0.015564778  0.014595397         1406 
 3749000   0.65008862   -7.8431839    698.67912  0.015530344  0.014589962         1399 
 3750000   0.65266788    -7.822616    701.39418  0.015586537   0.01458454         1406 
 3751000   0.63496521   -7.8345628    699.82713  0.015547568  0.014579108         1446 
 3752000   0.64245127   -7.8327919    699.78086  0.015542397  0.014573684         1454 
 3753000    0.6553499   -7.8483536    700.81713  0.015561265  0.014568265         1454 
 3754000   0.65522466   -7.8318589    700.09309  0.015541047  0.014562847         1438 
 3755000   0.65953895   -7.8270941    699.76363  0.015529597  0.014557431         1428 
 3756000   0.64847525   -7.8487069     701.0372  0.015553718  0.014552016         1393 
 3757000   0.65303658   -7.8346702    701.28642  0.015555107  0.014546598         1416 
 3758000   0.64665111   -7.8478599    699.62869  0.015514207  0.014541186         1419 
 3759000   0.65122543   -7.8454758    699.89748  0.015516039  0.014535771         1432 
 3760000    0.6556452   -7.8472289    699.61571  0.015505667  0.014530369         1476 
 3761000   0.65003723   -7.8456623    700.73801  0.015526412   0.01452497         1520 
 3762000   0.64335242   -7.8415578    698.82065  0.015479812  0.014519564         1575 
 3763000   0.65207073   -7.8497001    699.17264  0.015483494  0.014514163         1436 
 3764000   0.65941817   -7.8459191    699.02469  0.015476104  0.014508756         1455 
 3765000    0.6393468   -7.8522606    699.14012  0.015474549  0.014503348         1489 
 3766000   0.66065956   -7.8374837    700.72866  0.015505591  0.014497945         1500 
 3767000   0.63162042   -7.8564388    700.79577  0.015502959  0.014492546         1551 
 3768000   0.64939286   -7.8440575     699.6711  0.015473972  0.014487154         1498 
 3769000   0.63833369   -7.8621088    699.19591  0.015459359  0.014481759         1488 
 3770000    0.6406066    -7.848821    700.51662  0.015484452  0.014476364         1620 
 3771000   0.64279031   -7.8434211    700.11055  0.015471373  0.014470979         1594 
 3772000   0.65340805   -7.8326477     700.7237  0.015480817  0.014465594         1480 
 3773000   0.64947756   -7.8524489    699.62151   0.01545237  0.014460215         1528 
 3774000   0.64591208   -7.8303169    701.18545  0.015482809  0.014454834         1481 
 3775000   0.63905741   -7.8412376    700.19816  0.015456913   0.01444945         1543 
 3776000   0.65126479   -7.8454506    699.80427  0.015444127  0.014444072         1519 
 3777000   0.64410722   -7.8584898    700.17217  0.015448155  0.014438692         1634 
 3778000   0.65944198   -7.8569678    699.31878  0.015425242   0.01443331         1531 
 3779000    0.6381217   -7.8611376    699.57416  0.015426792  0.014427934         1550 
 3780000   0.65174475     -7.85819    699.55562  0.015422302  0.014422556         1584 
 3781000   0.63906752    -7.847856    700.13932  0.015431088  0.014417183         1667 
 3782000   0.64011756   -7.8339283    701.32099  0.015453045  0.014411806         1576 
 3783000   0.64442624   -7.8661633    700.29653  0.015426393   0.01440643         1633 
 3784000   0.64858634   -7.8497603    700.19837  0.015420154  0.014401063         1563 
 3785000   0.64979253   -7.8464743    699.78698  0.015407023    0.0143957         1554 
 3786000   0.63727617   -7.8728251    697.79485  0.015359105  0.014390322         1604 
 3787000   0.64110413   -7.8615475     698.5983  0.015372729  0.014384942         1698 
 3788000   0.63316111   -7.8743117    699.01853  0.015377916  0.014379566         1653 
 3789000   0.65664862   -7.8649969    699.73249  0.015389559  0.014374186         1603 
 3790000   0.63618877   -7.8876102    697.97602  0.015346878  0.014368811         1693 
 3791000   0.64996146   -7.9066143    697.76061  0.015338095   0.01436343         1746 
 3792000   0.65660995   -7.9034569    698.30386  0.015345988  0.014358052         1693 
 3793000   0.66183285   -7.8617884    699.05329  0.015358408  0.014352685         1677 
 3794000   0.64975498   -7.8730585    699.02151  0.015353662  0.014347315         1616 
 3795000   0.65328746   -7.8715029    699.35213  0.015356876  0.014341955         1676 
 3796000   0.65142062   -7.8553009    699.11674  0.015347663  0.014336603         1668 
 3797000   0.65352674   -7.8823996    698.71996  0.015334913  0.014331247         1789 
 3798000   0.64235333   -7.8685773    699.17065  0.015340764  0.014325893         1686 
 3799000   0.64425693    -7.870509     698.3692  0.015319145  0.014320538         1786 
 3800000   0.64361334   -7.8774102    698.64338  0.015321127  0.014315183         1775 
 3801000   0.63148897   -7.8775728    697.84502  0.015299593  0.014309839         1651 
 3802000   0.64876523   -7.8828361    698.44282  0.015308671  0.014304487         1745 
 3803000   0.64619413   -7.8680892    699.13403  0.015319792  0.014299144         1775 
 3804000   0.64075916   -7.8861813    698.79977  0.015308442  0.014293802         1801 
 3805000   0.64176852   -7.8734962    698.55815  0.015299127   0.01428846         1803 
 3806000   0.64467735   -7.8692971    697.56479  0.015273358  0.014283126         1880 
 3807000   0.61410765   -7.8652308     699.2754   0.01530679  0.014277785         1868 
 3808000   0.63479459   -7.8711751    699.14146  0.015299839   0.01427245         1827 
 3809000   0.62841525   -7.8801931    698.15703  0.015274285  0.014267113         1858 
 3810000   0.64390428    -7.864535    700.25168  0.015316091  0.014261775         1891 
 3811000   0.63757486   -7.8947596    699.37277  0.015292853  0.014256444         1885 
 3812000   0.64859233    -7.896364    698.91633  0.015278863   0.01425111         1759 
 3813000   0.65099809   -7.8886596     701.2887  0.015326705  0.014245782         1899 
 3814000   0.63993492   -7.9150086    697.28691   0.01523525  0.014240457         1869 
 3815000   0.64858676   -7.8933537    700.59236  0.015303459  0.014235132         1921 
 3816000   0.63587949   -7.8896012    697.67745  0.015235793  0.014229805         1901 
 3817000   0.65209219   -7.8780661    699.18116  0.015264631  0.014224482         1919 
 3818000   0.63801667    -7.908151    698.19751  0.015239163  0.014219168         1824 
 3819000   0.64866936   -7.8919639    697.15488  0.015212422  0.014213843         1830 
 3820000   0.63918445   -7.8716589     698.9247  0.015247048  0.014208524         1873 
 3821000   0.63955616   -7.8943889    696.95117  0.015200017  0.014203207         1771 
 3822000   0.63748166   -7.8793246    697.96711  0.015218191  0.014197888         1829 
 3823000    0.6411221   -7.8788794    699.00486  0.015236831  0.014192572         1809 
 3824000   0.63916964   -7.8922533    698.75658  0.015227436  0.014187263         1791 
 3825000   0.65037193   -7.8896971    697.97863  0.015206506   0.01418195         1830 
 3826000    0.6326221   -7.8972583     698.3156  0.015209871  0.014176643         1864 
 3827000   0.63094329   -7.8993241    698.33235  0.015206262  0.014171338         1887 
 3828000   0.65311481   -7.9021211    698.03359  0.015195785  0.014166028         1912 
 3829000   0.63700062   -7.9088358    698.44114  0.015200687  0.014160718         1852 
 3830000   0.63398383   -7.9066897    697.63785   0.01517924   0.01415541         1799 
 3831000   0.63932002   -7.8890403    698.71133  0.015198628  0.014150104         1756 
 3832000   0.63684687   -7.9234613    697.85994  0.015176147  0.014144793         1839 
 3833000   0.63807936   -7.8791881     699.3068  0.015203644  0.014139494         1859 
 3834000    0.6304774   -7.8849229    696.88276  0.015146991  0.014134202         1800 
 3835000   0.62678519    -7.892706    697.44504  0.015155259  0.014128914         1821 
 3836000   0.63563522   -7.8801457    698.24713  0.015168733  0.014123619         1899 
 3837000    0.6338511   -7.8753364    698.27441  0.015165373  0.014118327         1798 
 3838000   0.64482485   -7.9089353    696.97667  0.015133244  0.014113037         1838 
 3839000   0.64284578   -7.8936335    697.20182  0.015134189  0.014107754         1841 
 3840000   0.64087356   -7.9066072    697.89663  0.015145326  0.014102467         1810 
 3841000   0.66704808   -7.9024533    698.72317  0.015159316  0.014097185         1825 
 3842000   0.64399816   -7.9089446    698.25954  0.015145314  0.014091907         1820 
 3843000   0.64211514   -7.8931803     697.8964  0.015133498  0.014086624         1793 
 3844000   0.63884195   -7.8802063    698.07362  0.015133403   0.01408135         1832 
 3845000   0.64026421   -7.8877612    698.59998  0.015140875  0.014076079         1807 
 3846000    0.6337421   -7.9237624     697.6892  0.015117204    0.0140708         1915 
 3847000   0.64278499   -7.9203373    697.74169  0.015114412  0.014065522         1900 
 3848000   0.62942146   -7.9031372    697.43348  0.015103809  0.014060252         1867 
 3849000    0.6504686   -7.9072234     698.6283  0.015125753  0.014054981         1893 
 3850000   0.63562484   -7.9197171    697.65135  0.015100679  0.014049711         1887 
 3851000   0.63469053   -7.8909459    697.12575  0.015085384  0.014044447         1817 
 3852000   0.64544357   -7.8758643    699.75071  0.015138255  0.014039195         1864 
 3853000   0.63168671   -7.9201427    698.51723  0.015107648  0.014033945         1873 
 3854000   0.63882808   -7.9029754    698.27045  0.015098392   0.01402869         1910 
 3855000   0.63574861   -7.9120478    698.36626  0.015096547  0.014023447         1941 
 3856000   0.64742162   -7.9084768    697.81769  0.015080776  0.014018199         1954 
 3857000   0.63448363   -7.9102191    698.27086  0.015086658   0.01401295         1907 
 3858000   0.62260181   -7.9000832    699.10705  0.015100809  0.014007706         1870 
 3859000    0.6210812   -7.8904632    696.79253  0.015046915  0.014002461         1878 
 3860000   0.61651007   -7.9041399    698.09294  0.015071091  0.013997222         1908 
 3861000   0.64268654   -7.9060619    698.74829  0.015081332  0.013991982         1885 
 3862000   0.62664233   -7.9179507    696.78167  0.015034992  0.013986742         1871 
 3863000   0.65333279   -7.8965381    699.16065   0.01508242  0.013981507         1908 
 3864000   0.63906429   -7.9130787    698.59828  0.015066388  0.013976273         1939 
 3865000    0.6317774    -7.892336    696.69146  0.015021377   0.01397103         1914 
 3866000   0.64692532   -7.9274897    697.12602  0.015026859  0.013965787         1992 
 3867000   0.62957954   -7.9220056    697.29361  0.015026584  0.013960541         2004 
 3868000   0.63348378   -7.9330421    697.05887  0.015017642  0.013955308         1993 
 3869000   0.62828364   -7.9073207    697.56511  0.015024664  0.013950064         1965 
 3870000   0.62226238   -7.9147753    697.66621  0.015022959  0.013944835         1977 
 3871000     0.627769   -7.9274177    696.64352  0.014997062  0.013939601         2089 
 3872000   0.62192352    -7.947566    696.88161  0.014998313   0.01393437         2011 
 3873000   0.61323933   -7.9228458    696.45878  0.014985343  0.013929135         2115 
 3874000     0.637508   -7.9424616    696.09084   0.01497356   0.01392389         2094 
 3875000   0.62488518   -7.9441222    696.76727  0.014984242  0.013918662         2017 
 3876000   0.64252765   -7.9296273    697.05674    0.0149866  0.013913431         2082 
 3877000   0.62721511   -7.9468932    697.03617  0.014982292  0.013908204         2069 
 3878000    0.6436346   -7.9257883    695.65599  0.014948771  0.013902992         1993 
 3879000   0.62516521   -7.9227741    696.86011  0.014970785  0.013897782         2021 
 3880000   0.63766704   -7.9282019    696.62195  0.014961812  0.013892571         2023 
 3881000   0.64376961   -7.9138894    697.60039  0.014978966  0.013887359         2080 
 3882000   0.63406795   -7.9252225     696.4297  0.014949976  0.013882147         1955 
 3883000   0.62660706   -7.9250624    697.55176  0.014970207  0.013876925         1967 
 3884000   0.62053763   -7.9411519    697.54424  0.014966191   0.01387172         1967 
 3885000   0.64411507   -7.9103946     697.1618  0.014954136  0.013866519         1897 
 3886000   0.63731588   -7.9318182    696.64127  0.014939125  0.013861318         1926 
 3887000   0.63749394   -7.9359448    696.77833   0.01493822  0.013856108         1973 
 3888000   0.62117052   -7.9159965    696.95153   0.01493809  0.013850898         1978 
 3889000   0.62644899    -7.919787    696.27933  0.014919845  0.013845691         2011 
 3890000   0.63148883   -7.9299541    697.14392  0.014934531  0.013840496         1960 
 3891000   0.61648698   -7.9269569    695.89978  0.014904047  0.013835291         1965 
 3892000   0.63153195   -7.9169274    697.52214  0.014934955  0.013830094         2021 
 3893000   0.62415257   -7.9149754    697.39092   0.01492831  0.013824901         1976 
 3894000   0.62799671   -7.9256135    696.15889   0.01489811  0.013819701         1988 
 3895000   0.62070677   -7.9274529    697.83736  0.014930196  0.013814509         2089 
 3896000   0.62040201   -7.9323253    697.41798  0.014917393  0.013809316         2037 
 3897000   0.61408299   -7.9278711    696.07566  0.014884861  0.013804127         2007 
 3898000   0.62543739   -7.9372908    696.78882  0.014896289  0.013798941         1966 
 3899000   0.63486053   -7.9479769    696.68372  0.014890222  0.013793751         2082 
 3900000   0.63107098   -7.9531149    696.87646  0.014890523  0.013788572         2039 
 3901000    0.6263681   -7.9663326    696.34899  0.014875438  0.013783391         1962 
 3902000   0.63432972   -7.9281776    697.47168  0.014895602   0.01377821         2088 
 3903000   0.63287045   -7.9399783    696.97943  0.014881276  0.013773028         2064 
 3904000   0.61984687   -7.9364558    696.99638  0.014877826  0.013767851         1899 
 3905000   0.60443093   -7.9265747    696.70288  0.014867752   0.01376267         2119 
 3906000   0.61293851   -7.9674256    695.36915  0.014835491  0.013757489         2090 
 3907000   0.62695905   -7.9118778    695.62228  0.014837093  0.013752319         2126 
 3908000   0.63544796   -7.9475127    697.06905  0.014864147  0.013747155         2104 
 3909000   0.64050362   -7.9517021    695.99723  0.014837495  0.013741989         2083 
 3910000   0.63217605   -7.9486608    695.90465  0.014831727  0.013736825         2098 
 3911000   0.62175384   -7.9453515    696.39859   0.01483846   0.01373167         2083 
 3912000   0.63055159   -7.9401683    695.31924  0.014811674  0.013726517         2149 
 3913000   0.62183137   -7.9439082    696.37198  0.014830309  0.013721365         2104 
 3914000   0.61162562   -7.9410955    695.55041  0.014809028  0.013716214         2133 
 3915000   0.63020993   -7.9279638    696.46856  0.014824788   0.01371107         2108 
 3916000   0.60689713   -7.9471882    696.20538  0.014815402  0.013705916         2129 
 3917000   0.62559266   -7.9461555    697.56529  0.014840552  0.013700769         2099 
 3918000    0.6309005   -7.9549619    695.55357  0.014793976  0.013695626         2209 
 3919000   0.62823744   -7.9265392    697.14136  0.014823964  0.013690491         2146 
 3920000    0.6167625   -7.9440952     697.3111   0.01482379  0.013685348         2207 
 3921000   0.63383583   -7.9423252     696.1913  0.014796211  0.013680205         2234 
 3922000   0.62737346   -7.9385556    695.59941  0.014779862  0.013675066         2231 
 3923000   0.62690997   -7.9478492    694.71171  0.014757237  0.013669934         2322 
 3924000   0.61481557   -7.9446695    697.00596  0.014802199  0.013664795         2096 
 3925000   0.60616179   -7.9379204    697.14383  0.014801355  0.013659663         2266 
 3926000   0.62592807   -7.9722436    694.98769  0.014751819  0.013654527         2199 
 3927000   0.61739532    -7.952161    695.78503  0.014764982  0.013649399         2132 
 3928000   0.60861308   -7.9566187    695.03809  0.014745377  0.013644266         2206 
 3929000   0.61604115   -7.9501742    696.00572  0.014762147  0.013639138         2257 
 3930000   0.61872468   -7.9549451    695.17863  0.014740853  0.013634015         2144 
 3931000     0.613373   -7.9734061    694.44227  0.014721493  0.013628889         2202 
 3932000    0.6210453   -7.9414524    695.68833  0.014744158  0.013623765         2157 
 3933000   0.64207123   -7.9454273    696.62165  0.014760184  0.013618646         2194 
 3934000   0.61745592   -7.9494223    697.47504  0.014774509  0.013613535         2145 
 3935000   0.62601873   -7.9451636    696.23011   0.01474439  0.013608425         2238 
 3936000   0.61314816   -7.9677326    694.75868  0.014709491  0.013603307         2126 
 3937000   0.63743461   -7.9521985    696.11192  0.014734398  0.013598204         2142 
 3938000    0.6269504   -7.9763703    694.83864  0.014703713  0.013593098         2189 
 3939000   0.63030197   -7.9475638    695.63894  0.014716911  0.013587985         2224 
 3940000    0.6297663   -7.9655735    695.37586  0.014707611  0.013582877         2229 
 3941000   0.62490307   -7.9726551     695.6388  0.014709439  0.013577773         2242 
 3942000   0.61890878   -7.9697627    694.34624  0.014678383  0.013572664         2208 
 3943000   0.62058604    -7.974143    695.37175  0.014696334  0.013567561         2193 
 3944000   0.63584049   -7.9678533    694.91415  0.014682939  0.013562457         2275 
 3945000   0.62128327    -7.943356    695.52552  0.014692132  0.013557367         2097 
 3946000   0.61357582     -7.95903    696.54509   0.01470994  0.013552266         2237 
 3947000   0.62623122    -7.965338    695.17872  0.014677365  0.013547173         2180 
 3948000    0.6317867   -7.9649075    695.65296  0.014683657  0.013542069         2164 
 3949000   0.61777427   -7.9701885    695.51669  0.014677064  0.013536979         2254 
 3950000   0.61990661   -7.9639645    695.13478  0.014665291  0.013531887         2123 
 3951000   0.61846895   -7.9748173    694.57029  0.014649673  0.013526812         2213 
 3952000   0.62344054   -7.9657518    695.64377  0.014668602  0.013521732         2151 
 3953000   0.63098103   -7.9595641    695.29118  0.014657458  0.013516657         2174 
 3954000   0.62176053   -7.9657612    694.83736  0.014644186  0.013511583         2266 
 3955000   0.61488979   -7.9452697    694.64645  0.014636461   0.01350651         2225 
 3956000   0.61954836   -7.9476449     695.8115  0.014657303  0.013501445         2182 
 3957000   0.62418468    -7.965142    694.82011  0.014632721  0.013496369         2239 
 3958000   0.61979903   -7.9788621    695.55176  0.014644428  0.013491306         2170 
 3959000   0.62699865   -7.9634172     694.9654  0.014628387  0.013486238         2306 
 3960000   0.63372488   -7.9850322     695.7286  0.014640753  0.013481165         2271 
 3961000   0.61009088   -7.9704538    695.20261  0.014625991  0.013476093         2341 
 3962000   0.61999518   -7.9644293    695.16479  0.014621504  0.013471039         2214 
 3963000   0.61695761   -7.9739284    695.76444  0.014630424  0.013465979         2186 
 3964000   0.62064111   -7.9585671    694.30884  0.014596133  0.013460929         2277 
 3965000   0.62078617   -7.9673195    695.15468  0.014610229   0.01345587         2205 
 3966000   0.62507432   -7.9485306    696.35648  0.014631797  0.013450825         2134 
 3967000   0.62476147    -7.956984    695.40918  0.014608209  0.013445782         2121 
 3968000   0.62085653   -7.9505019     696.3895  0.014625115  0.013440737         2141 
 3969000   0.60573562     -7.96466    695.35598  0.014599731   0.01343569         2183 
 3970000    0.6285708   -7.9668878    695.66872  0.014602618  0.013430644         2165 
 3971000   0.62833038   -7.9658804    695.10632  0.014587138  0.013425606         2249 
 3972000   0.62061443   -7.9855969    695.46125  0.014590912  0.013420556         2200 
 3973000   0.62057637   -7.9742407    696.13452  0.014601362  0.013415514         2289 
 3974000   0.61706071   -7.9757873    693.98033  0.014552515  0.013410481         2216 
 3975000   0.60833952   -7.9750306    694.43298  0.014558343  0.013405447         2135 
 3976000   0.60352138    -7.971208    695.59275   0.01457899  0.013400421         2166 
 3977000   0.61826351    -7.979394    695.28075  0.014568786  0.013395396         2174 
 3978000   0.60699899   -7.9756968    696.09309  0.014582141  0.013390374         2175 
 3979000   0.61573183   -7.9702011    694.12376  0.014537232  0.013385349         2186 
 3980000   0.61346197   -7.9657068     695.0229  0.014552406  0.013380335         2149 
 3981000   0.61433404   -7.9497439    695.08431  0.014550036  0.013375314         2122 
 3982000   0.60638847   -7.9806304    694.58687  0.014535972    0.0133703         2196 
 3983000   0.61681011   -7.9690446    695.74681  0.014556591  0.013365281         2199 
 3984000   0.61198263    -7.957131    696.63255  0.014571464  0.013360265         2139 
 3985000   0.60754314   -7.9770688     695.0116  0.014533911  0.013355258         2159 
 3986000   0.61624188   -7.9397327     695.2419  0.014535079  0.013350249         2226 
 3987000    0.6154507     -7.99426    693.45678  0.014494122  0.013345244         2167 
 3988000    0.6115991   -7.9770035    694.86035  0.014519817  0.013340234         2209 
 3989000   0.60846174   -7.9887149    694.52598  0.014509191   0.01333523         2242 
 3990000   0.61992896   -7.9786608     694.2195  0.014499154  0.013330222         2286 
 3991000   0.60911188   -7.9727777    695.66629  0.014525731  0.013325228         2271 
 3992000   0.61132744   -7.9783503    695.77242  0.014524307  0.013320238         2189 
 3993000    0.6099288   -7.9679749    693.80777  0.014479668  0.013315242         2182 
 3994000   0.62454649   -7.9549042    696.50343  0.014532286  0.013310244         2210 
 3995000    0.6194041   -7.9813428    694.76407  0.014492367   0.01330526         2250 
 3996000   0.61457074   -7.9717557    695.93202  0.014513097  0.013300267         2185 
 3997000   0.61919042     -7.96887     695.0628  0.014491343  0.013295283         2290 
 3998000   0.61487569    -7.986531    694.65546  0.014479228  0.013290304         2181 
 3999000   0.60288271    -7.972334    695.66823  0.014496712  0.013285323         2156 
 4000000   0.61282019   -7.9873364     695.2962  0.014485338  0.013280353         2216 
 4001000   0.60637328   -7.9744031    695.40237  0.014483928  0.013275376         2141 
 4002000   0.61093726   -7.9633571     695.6123  0.014484681  0.013270396         2238 
 4003000   0.61344138   -7.9823293    692.44462  0.014415118  0.013265422         2206 
 4004000   0.61806835   -7.9661942    695.52266   0.01447558  0.013260456         2293 
 4005000   0.61491954     -7.96355    694.83293  0.014457614  0.013255487         2323 
 4006000   0.61416854   -7.9798732    694.86493  0.014454671  0.013250518         2365 
 4007000   0.61773702   -7.9830543    695.84363  0.014471417  0.013245551         2332 
 4008000   0.61029791   -8.0098887    693.34522   0.01441586  0.013240586         2379 
 4009000   0.60130795   -7.9912091    695.58608  0.014458844  0.013235622         2369 
 4010000    0.6043015   -7.9991337    695.20696   0.01444736  0.013230669         2196 
 4011000   0.61742414   -7.9861958     693.9155  0.014416926  0.013225716         2303 
 4012000   0.60024854   -7.9927578    695.02337  0.014436345  0.013220759         2322 
 4013000   0.60849767   -7.9924873    694.88647  0.014429904  0.013215805         2278 
 4014000    0.6048021    -7.988374    694.44814  0.014417209  0.013210851         2312 
 4015000   0.60418731   -7.9797687    695.31972  0.014431709  0.013205893         2299 
 4016000   0.61398757   -7.9695762    694.64201  0.014414052  0.013200938         2309 
 4017000   0.60930225   -7.9949667    695.13168  0.014420622  0.013195988         2359 
 4018000    0.6104868   -7.9780819     695.2164   0.01441879  0.013191035         2249 
 4019000   0.60124933   -7.9953084    695.33235  0.014417607  0.013186086         2325 
 4020000    0.6091455   -7.9831789    694.74952  0.014401939  0.013181136         2373 
 4021000   0.62226765   -7.9964761    693.80307  0.014378742  0.013176196         2290 
 4022000   0.61743238   -7.9944183    694.44499  0.014388467  0.013171251         2349 
 4023000   0.61223417   -7.9855788    694.79611  0.014392164  0.013166315         2322 
 4024000   0.61786483   -7.9996114    694.04076  0.014372945  0.013161388         2355 
 4025000   0.61131466   -8.0053264    694.31619  0.014375076  0.013156451         2298 
 4026000   0.60791784   -8.0063508    693.58405  0.014356351  0.013151515         2315 
 4027000   0.61281134   -7.9837577    693.80692  0.014357398  0.013146578         2306 
 4028000   0.61608215   -7.9866482    695.42182  0.014387244  0.013141649         2368 
 4029000   0.59705002   -7.9982116    694.43214  0.014363203  0.013136721         2291 
 4030000   0.60486011   -7.9747928    694.47858  0.014360599  0.013131798         2342 
 4031000   0.61395819   -8.0069129    693.03941  0.014327285  0.013126874         2221 
 4032000   0.60133762   -7.9964319    694.33551  0.014350519  0.013121955         2207 
 4033000   0.61765473    -8.018526    692.84587  0.014316181  0.013117031         2264 
 4034000   0.61229625   -7.9857776    693.99123  0.014336292  0.013112115         2202 
 4035000   0.60095806    -7.982575    695.09725  0.014355581  0.013107204         2228 
 4036000   0.60808129   -7.9910218    693.60311  0.014321174  0.013102298         2267 
 4037000    0.6179916   -8.0030604     694.1661  0.014329248  0.013097395         2250 
 4038000   0.59992557   -7.9932331    694.35311  0.014329559  0.013092487         2255 
 4039000   0.61434824   -8.0021145    695.24059  0.014344322  0.013087584         2266 
 4040000   0.60818639   -8.0216242     693.8286  0.014311646  0.013082678         2292 
 4041000   0.61036803   -7.9782011    694.50987  0.014322154  0.013077776         2355 
 4042000   0.61852377   -8.0236643    693.85592  0.014305128  0.013072872         2343 
 4043000   0.59298832   -8.0036401    694.54695  0.014315833  0.013067972         2318 
 4044000   0.60299443   -7.9937328    695.00313  0.014321693  0.013063077         2285 
 4045000   0.59549865   -8.0083089    694.95499  0.014317161  0.013058177         2345 
 4046000   0.60550973   -7.9988818    693.83927  0.014290642  0.013053286         2382 
 4047000   0.60687053    -7.996561     692.8885  0.014267534  0.013048394         2332 
 4048000   0.61134666   -8.0008996    693.20422  0.014270508  0.013043506         2315 
 4049000    0.6021035   -7.9903312    694.39027  0.014291394  0.013038613         2337 
 4050000   0.62025262   -8.0027339    693.22331  0.014263854  0.013033728         2351 
 4051000   0.59818506   -8.0023311    694.13553  0.014279098  0.013028836         2375 
 4052000   0.60661527   -8.0120176    694.52315  0.014283546  0.013023955         2379 
 4053000   0.60844581   -8.0133924    693.59788  0.014260998   0.01301907         2311 
 4054000   0.60948201   -7.9928446    694.07077  0.014267201  0.013014194         2326 
 4055000   0.58242301   -8.0042291    695.38797  0.014290751  0.013009317         2324 
 4056000   0.59474912   -8.0088134    693.66512  0.014251831  0.013004437         2368 
 4057000   0.60873164   -7.9768242     693.6442  0.014247888   0.01299957         2260 
 4058000    0.6015454   -8.0068746    693.41979  0.014239769  0.012994699         2390 
 4059000   0.59753324   -7.9939591    695.78388  0.014284797  0.012989832         2362 
 4060000   0.59319102     -8.00092    693.77069  0.014239957  0.012984971         2361 
 4061000   0.59879865   -7.9882733    694.29188  0.014247145  0.012980117         2345 
 4062000   0.61447361   -8.0118465    694.72977  0.014252621  0.012975258         2320 
 4063000   0.61223603   -8.0105618    693.90334  0.014232163  0.012970406         2332 
 4064000   0.59875219   -8.0216301    692.84165  0.014206891  0.012965549         2386 
 4065000   0.60398766   -8.0077032    692.62478   0.01419895  0.012960693         2376 
 4066000     0.591583   -7.9977424    693.78154  0.014219166  0.012955845         2455 
 4067000   0.58313198   -8.0035235    694.10006  0.014222196  0.012950996         2329 
 4068000   0.60300834   -8.0281543    693.62009  0.014208868  0.012946153         2370 
 4069000   0.60740648   -8.0015026    694.36001  0.014220529   0.01294131         2357 
 4070000   0.59546271   -8.0075935    694.11777  0.014212076   0.01293647         2333 
 4071000   0.60467026   -8.0098773    694.11253  0.014208477  0.012931632         2361 
 4072000   0.59333759       -8.005    694.26811  0.014208172  0.012926797         2381 
 4073000   0.59231783   -8.0060326    693.34388  0.014185774  0.012921959         2404 
 4074000    0.6103859   -8.0061815    694.25905  0.014201011  0.012917126         2351 
 4075000   0.60834062   -8.0081868    693.12298  0.014174294  0.012912298         2458 
 4076000   0.60939023   -7.9837001    693.71334  0.014182886  0.012907475         2337 
 4077000   0.60089727   -8.0091367    693.25398  0.014170018  0.012902654         2302 
 4078000   0.59550611   -8.0020936     694.2136  0.014186153   0.01289784         2340 
 4079000   0.61784436    -8.004607     693.2115  0.014162203  0.012893016         2430 
 4080000   0.60244651   -7.9916028    693.73289  0.014169381  0.012888197         2387 
 4081000   0.59392832   -7.9903394    694.08581  0.014173115  0.012883387         2402 
 4082000   0.60035188   -7.9973599    695.12149  0.014190787  0.012878576         2302 
 4083000   0.58915909    -8.010406    693.44502  0.014153094  0.012873761         2408 
 4084000   0.60225208   -8.0072069    693.45452  0.014149823  0.012868949         2399 
 4085000   0.59795589   -8.0148737    693.89456  0.014155336   0.01286414         2358 
 4086000   0.59551433   -7.9921482     692.5234  0.014123907  0.012859332         2424 
 4087000   0.59995221   -8.0142316    693.16145  0.014133461  0.012854527         2400 
 4088000   0.61001262   -8.0042322    694.59872  0.014159302  0.012849724         2346 
 4089000   0.60916999   -8.0069505    693.43153  0.014132052  0.012844926         2363 
 4090000   0.60355201    -8.021311    692.82559  0.014116251  0.012840129         2336 
 4091000   0.59527816   -8.0155882    692.85696  0.014113439  0.012835331         2319 
 4092000   0.59388551   -7.9991208    693.91166  0.014131469  0.012830536         2298 
 4093000   0.58506435   -8.0171579    693.92862  0.014128362  0.012825747         2347 
 4094000   0.60188353   -8.0226755    693.83102  0.014122924  0.012820954         2293 
 4095000   0.59487609    -8.019576    693.62054  0.014115192  0.012816162         2311 
 4096000   0.58799145   -8.0186835    692.82227  0.014095505  0.012811373         2351 
 4097000   0.59054873   -8.0298639      692.929  0.014094236  0.012806585         2368 
 4098000   0.58985679   -8.0142081    693.37507  0.014099867  0.012801808         2335 
 4099000    0.5930711   -8.0146023    693.72714  0.014103585  0.012797028         2355 
 4100000   0.57592497   -8.0128098    692.87102  0.014082744  0.012792245         2307 
 4101000   0.59700016    -8.003719    694.09669  0.014104216  0.012787465         2274 
 4102000   0.59181367   -8.0040655    694.77975  0.014114654  0.012782689         2281 
 4103000   0.58979442   -8.0223957    693.64208  0.014088108  0.012777918         2379 
 4104000   0.59238736   -8.0151293    694.02031  0.014092355  0.012773147         2352 
 4105000   0.59160723   -8.0167693    693.94229  0.014087338  0.012768377         2320 
 4106000   0.58838731   -8.0074566    693.23584   0.01406957  0.012763616         2251 
 4107000   0.59422784   -8.0099564    693.59854  0.014073503  0.012758857         2364 
 4108000   0.60359599    -8.001096    694.69911  0.014092403  0.012754099         2304 
 4109000   0.59932236   -8.0097601    692.85852  0.014051645  0.012749345         2340 
 4110000   0.60646902   -7.9980703    694.06382  0.014072665  0.012744597         2290 
 4111000   0.60471769   -8.0266909    693.62592  0.014060365   0.01273985         2271 
 4112000   0.59470387   -8.0185062    693.88824  0.014062262  0.012735102         2320 
 4113000   0.58359946   -8.0241315    693.55892   0.01405217  0.012730359         2346 
 4114000    0.5964486   -8.0409641    693.81554  0.014053953  0.012725609         2321 
 4115000   0.58051505   -8.0231137    693.22544  0.014038587  0.012720859         2404 
 4116000   0.59258472   -8.0212741    694.46428  0.014060258   0.01271612         2365 
 4117000   0.60403066   -8.0262722    693.91547  0.014045735  0.012711377         2323 
 4118000   0.58141952    -8.027709    693.61353  0.014036213   0.01270663         2449 
 4119000    0.5959687   -8.0331804     692.4754   0.01400978  0.012701889         2382 
 4120000   0.57577208   -8.0111404     693.7146  0.014031444   0.01269715         2305 
 4121000   0.58490981   -8.0319309    694.64564  0.014046867  0.012692417         2416 
 4122000   0.58097759   -8.0194089    691.93807   0.01398872  0.012687684         2346 
 4123000   0.58161244   -8.0176264    693.86247  0.014024223  0.012682954         2412 
 4124000   0.59846926   -7.9975301    693.41239  0.014011728  0.012678229         2318 
 4125000   0.57040357    -8.044438    692.72034   0.01399435   0.01267351         2392 
 4126000   0.59484597   -8.0036228     692.6862  0.013990269  0.012668788         2452 
 4127000   0.59443381   -8.0340152    693.04917  0.013994208  0.012664069         2346 
 4128000   0.58973514   -8.0058932    693.48744  0.013999666  0.012659353         2306 
 4129000   0.57598278   -8.0064056    695.70835  0.014041099  0.012654637         2336 
 4130000   0.57371656   -8.0265041    693.11428  0.013985357  0.012649923         2420 
 4131000   0.59655741   -8.0268669    693.30461  0.013985811  0.012645212         2345 
 4132000    0.5882563    -8.021341     695.1773  0.014020194  0.012640501         2362 
 4133000   0.58695709   -8.0381002     693.5565  0.013984122  0.012635794         2376 
 4134000   0.58453308   -8.0148911      692.903  0.013967566  0.012631089         2315 
 4135000   0.59421253   -8.0300935    694.57246  0.013997833  0.012626385         2398 
 4136000   0.58137933   -8.0321301    692.44344  0.013951552  0.012621679         2373 
 4137000   0.58334611   -8.0452409    691.81764  0.013935574   0.01261697         2373 
 4138000   0.58550743   -8.0303117    694.28156  0.013981826  0.012612265         2438 
 4139000   0.57618341   -8.0226289    692.27495  0.013938048  0.012607569         2374 
 4140000   0.58567507   -8.0282033    693.20097  0.013953321  0.012602878         2366 
 4141000   0.59356815   -8.0352062    692.75614  0.013940999  0.012598188         2309 
 4142000   0.59781724   -8.0165362    692.78565  0.013938227  0.012593499         2415 
 4143000   0.58375558   -8.0082654    694.73353  0.013974043  0.012588814         2365 
 4144000   0.57887524   -8.0300306    693.24501  0.013940738  0.012584128         2399 
 4145000   0.60334729   -8.0319065    693.40616  0.013940614  0.012579444         2363 
 4146000   0.60264453   -8.0329991    692.43433  0.013917718  0.012574762         2321 
 4147000   0.58083371   -8.0426858    692.85408  0.013922797   0.01257008         2339 
 4148000   0.59753569   -8.0281883    693.00276  0.013922428  0.012565404         2383 
 4149000   0.58142605   -8.0411857    692.06664   0.01390027  0.012560731         2329 
 4150000   0.58795982   -8.0238015    692.72538  0.013910148  0.012556061         2380 
 4151000   0.58906638   -8.0062016    693.87769   0.01392993  0.012551397         2371 
 4152000   0.58731853   -8.0412448    693.05177  0.013909999  0.012546728         2408 
 4153000   0.59376589   -8.0374255    692.90049  0.013903614   0.01254206         2335 
 4154000   0.58236604   -8.0174523    691.86199  0.013879433  0.012537391         2379 
 4155000   0.59915521   -8.0252216    692.86348  0.013896179   0.01253273         2363 
 4156000   0.58859771   -8.0471189    691.62769  0.013868056  0.012528067         2383 
 4157000   0.57943916   -8.0439552    692.08894  0.013873966  0.012523398         2409 
 4158000   0.59122537   -8.0339919    694.49321  0.013918815  0.012518742         2345 
 4159000   0.58261819   -8.0368515    691.86955  0.013862899  0.012514081         2291 
 4160000   0.58365029   -8.0369341    692.94398  0.013881089  0.012509423         2390 
 4161000   0.58453655   -8.0298046    692.91162  0.013877105  0.012504773         2280 
 4162000   0.58046524   -8.0544324     691.6568  0.013848647  0.012500124         2444 
 4163000   0.57662848   -8.0304879    693.36065  0.013879427  0.012495472         2433 
 4164000   0.58856663   -8.0332699    692.86821  0.013866238  0.012490826         2376 
 4165000   0.58350603   -8.0041884     693.2911  0.013871371  0.012486179         2454 
 4166000   0.58697998    -8.021439    692.53525  0.013852921  0.012481539         2334 
 4167000   0.59374731   -8.0236531    692.91676  0.013857227  0.012476901         2409 
 4168000    0.5813457   -8.0456308    692.95519   0.01385467  0.012472258         2399 
 4169000   0.58201892   -8.0441422     692.0428  0.013833109  0.012467621         2316 
 4170000   0.58908562   -8.0513147     692.0192  0.013829321  0.012462984         2368 
 4171000   0.58772566   -8.0446176    693.23495  0.013850295   0.01245835         2384 
 4172000   0.58218766   -8.0398458    693.35124  0.013849298  0.012453716         2393 
 4173000   0.60140886   -8.0258791    693.42977  0.013847547  0.012449084         2416 
 4174000   0.57456796   -8.0593925    691.49553  0.013805613  0.012444451         2371 
 4175000   0.58153245   -8.0354717    693.35934  0.013839508  0.012439826         2385 
 4176000   0.58290202   -8.0578064    690.97356  0.013788585  0.012435198         2393 
 4177000   0.57939984   -8.0363088    691.88055  0.013803379  0.012430573         2423 
 4178000   0.57319804   -8.0257025    691.76346  0.013797739  0.012425954         2333 
 4179000   0.58255408   -8.0429237    692.69918  0.013813097  0.012421338         2360 
 4180000   0.60383065   -8.0353066      692.596  0.013807735  0.012416721         2344 
 4181000   0.57033568   -8.0600446    692.74304  0.013807363  0.012412101         2382 
 4182000   0.58123337   -8.0504504    691.18583  0.013773032  0.012407491         2367 
 4183000   0.57085184    -8.050806     693.2509  0.013810879  0.012402881         2354 
 4184000   0.57546286   -8.0332358    692.44355  0.013791498  0.012398269         2407 
 4185000   0.58521499   -8.0435715     692.0919  0.013781201  0.012393657         2381 
 4186000     0.589001   -8.0330673    692.54398  0.013786908   0.01238905         2333 
 4187000   0.59163849   -8.0484129     691.3859  0.013760567  0.012384452         2409 
 4188000   0.57785662   -8.0659892    691.70667  0.013763664  0.012379845         2404 
 4189000    0.5928547   -8.0391297    692.80225  0.013782173  0.012375249         2400 
 4190000   0.58972092     -8.02868    691.57405  0.013754456  0.012370657         2415 
 4191000   0.58637585   -8.0548093     692.5344   0.01377027  0.012366067         2426 
 4192000   0.56013122   -8.0645693    691.26791  0.013741808  0.012361477         2385 
 4193000   0.58584196   -8.0482415    692.23955  0.013757842  0.012356885         2386 
 4194000   0.58956251   -8.0499047    692.42157  0.013758178  0.012352301         2334 
 4195000   0.57923134   -8.0435995    692.74541  0.013761331  0.012347715         2378 
 4196000   0.57435844   -8.0407026    693.47148  0.013772471  0.012343137         2452 
 4197000   0.58205354   -8.0509475    692.52944  0.013750485  0.012338556         2337 
 4198000   0.58178677   -8.0440252    692.04475  0.013737588  0.012333974         2334 
 4199000   0.58761107     -8.04168    691.54695  0.013724437  0.012329398         2307 
 4200000     0.574442    -8.063696    691.17353   0.01371376   0.01232482         2429 
 4201000   0.57801472   -8.0415319     692.0788  0.013728454   0.01232025         2389 
 4202000   0.57510841   -8.0386147    692.52208  0.013733978  0.012315676         2416 
 4203000   0.58028893   -8.0529912    693.13661  0.013742894  0.012311101         2433 
 4204000   0.58786607   -8.0538445     690.2078  0.013681569  0.012306526         2437 
 4205000   0.58711279   -8.0706607    691.17648  0.013697513  0.012301965         2435 
 4206000   0.58486027   -8.0625352    691.81584  0.013706923  0.012297393         2400 
 4207000   0.56940845   -8.0284967    692.54032  0.013718016  0.012292838         2404 
 4208000   0.57973073   -8.0615222    693.20458  0.013727911  0.012288282         2424 
 4209000   0.58006558    -8.037969    692.89088  0.013718438  0.012283729         2390 
 4210000   0.56953597   -8.0386575    691.53029  0.013688248   0.01227918         2375 
 4211000   0.57516675   -8.0484383     692.5692  0.013705557  0.012274621         2460 
 4212000   0.58395299   -8.0591381    692.42418  0.013699434  0.012270067         2504 
 4213000    0.5807371   -8.0566272    692.01427  0.013688074  0.012265521         2450 
 4214000   0.56983949   -8.0527193    692.90826  0.013702505   0.01226097         2472 
 4215000   0.57803759   -8.0696614    691.12027  0.013663904   0.01225642         2563 
 4216000   0.57632787   -8.0504576     691.4604  0.013667386  0.012251874         2558 
 4217000   0.56526437   -8.0573457     693.1136  0.013696815   0.01224733         2539 
 4218000   0.57982262   -8.0769427    691.86356  0.013668871  0.012242786         2478 
 4219000   0.57859768   -8.0399771     691.7547  0.013663481  0.012238244         2518 
 4220000   0.57183889   -8.0539213    691.02798  0.013645892  0.012233708         2560 
 4221000   0.57319635   -8.0441932    692.47058   0.01367114   0.01222917         2501 
 4222000   0.56956032   -8.0529574    692.48814  0.013668248  0.012224629         2536 
 4223000   0.58522512     -8.05574    692.20697  0.013659463  0.012220095         2530 
 4224000   0.56537778   -8.0466228    692.03873  0.013652911  0.012215566         2565 
 4225000     0.590413   -8.0487596    693.81366  0.013684688  0.012211037         2460 
 4226000    0.5782665   -8.0540092    692.66718  0.013658842  0.012206509         2504 
 4227000   0.58062157   -8.0488813     691.6021  0.013634613  0.012201988         2500 
 4228000   0.58061249   -8.0576136    691.33061  0.013626037  0.012197463         2534 
 4229000   0.57749649   -8.0521327      691.934  0.013634705  0.012192941         2494 
 4230000   0.57613232   -8.0551822    692.26907  0.013638083  0.012188422         2435 
 4231000   0.57362672   -8.0479469    691.78698  0.013625364  0.012183905         2510 
 4232000   0.59732398   -8.0450632    692.35039  0.013633239    0.0121794         2452 
 4233000   0.56720107   -8.0680628    690.89727  0.013601411  0.012174887         2517 
 4234000   0.56762763    -8.061165    691.42472   0.01360858   0.01217038         2470 
 4235000   0.57496566   -8.0804169    690.88177  0.013594683  0.012165873         2565 
 4236000   0.56547594   -8.0650365    692.13504  0.013616128  0.012161368         2445 
 4237000   0.57055121   -8.0501891    690.90783  0.013588778   0.01215686         2366 
 4238000   0.58055358    -8.046576    692.43345   0.01361557  0.012152357         2452 
 4239000   0.58304187   -8.0524513    693.17482  0.013626933  0.012147859         2455 
 4240000   0.57968718   -8.0585358    692.16143  0.013603802  0.012143365         2462 
 4241000   0.56681262   -8.0688645    691.67321  0.013591001  0.012138874         2554 
 4242000   0.57583218   -8.0640596    691.36292  0.013581701  0.012134388         2527 
 4243000   0.56673676   -8.0476164     692.1158  0.013593287  0.012129898         2518 
 4244000    0.5886402   -8.0636898    690.29289   0.01355429  0.012125411         2589 
 4245000   0.56455754   -8.0572944    691.88521  0.013582356  0.012120928         2478 
 4246000   0.56854671   -8.0736113    692.06883  0.013582761   0.01211645         2506 
 4247000   0.57569791    -8.062356    691.09697  0.013560493  0.012111969         2482 
 4248000   0.57401555    -8.069572     692.9627  0.013593901  0.012107488         2445 
 4249000   0.59464995    -8.050379    692.23537  0.013576437  0.012103014         2489 
 4250000   0.58106929   -8.0587599    691.52067  0.013559229  0.012098539         2441 
 4251000   0.56226284   -8.0675603    691.48155  0.013555272   0.01209407         2535 
 4252000    0.5692492   -8.0749264    691.86054  0.013559512  0.012089597         2484 
 4253000   0.57277112   -8.0577124    691.99078  0.013558876  0.012085128         2535 
 4254000   0.57431922   -8.0656186     691.3292  0.013542728  0.012080656         2474 
 4255000   0.57163743    -8.069159    690.78484  0.013528884  0.012076192         2506 
 4256000    0.5689957   -8.0535808    691.25885  0.013534987  0.012071723         2551 
 4257000   0.58478406   -8.0696287    691.15741  0.013529822  0.012067254         2556 
 4258000   0.58386446   -8.0775456    690.52464   0.01351426  0.012062789         2544 
 4259000   0.55995135   -8.0694344    690.93425  0.013519102  0.012058336         2487 
 4260000   0.57446666   -8.0862871    692.77713  0.013551978  0.012053879         2539 
 4261000     0.584324   -8.0595778    691.43729  0.013522594  0.012049426         2539 
 4262000   0.56305116   -8.0739579    690.93369  0.013509575   0.01204497         2535 
 4263000   0.57342431   -8.0540524    691.61544  0.013519732  0.012040521         2441 
 4264000   0.56765887   -8.0532107    692.92692  0.013542193  0.012036077         2510 
 4265000   0.57896262   -8.0873974    690.80042  0.013497468  0.012031628         2528 
 4266000   0.55945912   -8.0721608    690.71966  0.013492727  0.012027183         2442 
 4267000   0.56335583   -8.0842871    689.95799  0.013474689  0.012022739         2546 
 4268000   0.56399881   -8.0707746     691.3965  0.013499619  0.012018296         2465 
 4269000   0.56083291   -8.0551811    692.31792  0.013514444  0.012013862         2605 
 4270000   0.56223391   -8.0570357    690.70921  0.013479883   0.01200943         2525 
 4271000    0.5636836   -8.0713712    691.81248  0.013498253  0.012004993         2604 
 4272000   0.56283508   -8.0724069    690.66095  0.013472631  0.012000562         2484 
 4273000   0.56706168   -8.0700528    691.79821  0.013491657  0.011996132         2570 
 4274000   0.57319122   -8.0707127    692.84372  0.013508886  0.011991704         2488 
 4275000   0.55537935    -8.074043    691.37065  0.013477011   0.01198728         2554 
 4276000   0.55348709   -8.0585237    692.64004  0.013498598  0.011982859         2514 
 4277000   0.57155192   -8.0679573    690.72377  0.013458105  0.011978437         2593 
 4278000   0.57282966     -8.07672    691.28166  0.013465826  0.011974017         2586 
 4279000   0.57926195    -8.094008    690.24081  0.013442409    0.0119696         2599 
 4280000   0.56378398   -8.0717177    691.27134  0.013459333  0.011965184         2577 
 4281000   0.55710826   -8.0702562    690.86352   0.01344825  0.011960771         2623 
 4282000   0.56594837   -8.0890391    691.63397  0.013460104  0.011956362         2515 
 4283000   0.58319175   -8.0525395    690.73162  0.013439404  0.011951953         2490 
 4284000   0.55789665   -8.0854769    690.67519  0.013435169  0.011947544         2588 
 4285000   0.55105873   -8.0661957     692.1655  0.013461017  0.011943135         2547 
 4286000   0.56968683    -8.067986    691.42107  0.013443402  0.011938732         2549 
 4287000   0.57397309   -8.0565582    691.44233   0.01344068  0.011934327         2548 
 4288000   0.54890611   -8.0678158     692.0844  0.013450023  0.011929925         2486 
 4289000   0.57191589   -8.0764981    691.14755  0.013428685  0.011925525         2560 
 4290000   0.57792165    -8.081182    691.64756  0.013435267  0.011921127         2503 
 4291000   0.57572176   -8.0760285    690.02804  0.013400684  0.011916732         2510 
 4292000   0.56448434   -8.0956753    691.36882  0.013423595  0.011912339         2608 
 4293000    0.5576264   -8.0751435     690.9998  0.013413305   0.01190795         2558 
 4294000   0.58307751   -8.0692713    691.05832  0.013411317   0.01190356         2529 
 4295000   0.57242129   -8.0726525    691.29129  0.013412714  0.011899173         2548 
 4296000   0.56283732   -8.0908766    690.99906  0.013403923  0.011894789         2548 
 4297000    0.5674195    -8.080611    690.86069  0.013398121  0.011890404         2577 
 4298000    0.5756548   -8.0698841    692.16506  0.013420294  0.011886026         2602 
 4299000   0.55912314    -8.060802    692.15529  0.013416982  0.011881645         2491 
 4300000   0.56796393   -8.0626485     691.6913   0.01340487  0.011877272         2590 
 4301000   0.57340229   -8.0767471    691.01307  0.013388613    0.0118729         2513 
 4302000   0.56214438   -8.0673008    691.33049  0.013391649   0.01186853         2580 
 4303000    0.5698701   -8.0744503    691.04818   0.01338307  0.011864161         2521 
 4304000   0.56292795   -8.0688285    691.17993  0.013382511   0.01185979         2499 
 4305000    0.5759004   -8.0779468    692.12798  0.013397754  0.011855422         2513 
 4306000   0.56748283   -8.0599765    690.39026  0.013361013  0.011851059         2566 
 4307000    0.5681821   -8.0888575    691.35573  0.013376591  0.011846693         2634 
 4308000   0.54812167   -8.0749061    692.42871  0.013394242  0.011842327         2552 
 4309000   0.54992342   -8.0697711    690.90278  0.013361623  0.011837971         2593 
 4310000   0.55380251   -8.0600323    691.38564  0.013367858  0.011833613         2532 
 4311000   0.55523742   -8.0833382    691.83708  0.013373484  0.011829259         2590 
 4312000   0.56876676   -8.0860897    690.78189   0.01334999  0.011824903         2607 
 4313000   0.55476341   -8.0844629     690.6067   0.01334351  0.011820552         2620 
 4314000   0.56265521   -8.0762197    691.08838  0.013349721    0.0118162         2581 
 4315000   0.55732486   -8.0834159    691.49067  0.013354397  0.011811851         2648 
 4316000   0.55397474   -8.0789153    690.48931  0.013331968  0.011807504         2629 
 4317000   0.56827451   -8.0914699    691.36778  0.013345838   0.01180316         2596 
 4318000    0.5731108    -8.078125     690.8896  0.013333519   0.01179882         2599 
 4319000   0.56082872   -8.0872843    691.18887  0.013336206  0.011794477         2549 
 4320000   0.56502729   -8.0878744    691.17708  0.013332891   0.01179014         2665 
 4321000    0.5648507   -8.0980339    691.76122  0.013341071  0.011785803         2681 
 4322000   0.55460438   -8.0677169    690.45394  0.013312778  0.011781468         2561 
 4323000   0.56912983   -8.0855592    690.53587  0.013311278  0.011777134         2667 
 4324000   0.56278716   -8.0691386    692.43926  0.013344882  0.011772805         2598 
 4325000   0.55539802   -8.0764078    690.97128  0.013313512  0.011768477         2645 
 4326000   0.56128133   -8.0956468    690.73941  0.013305968  0.011764146         2637 
 4327000    0.5648675   -8.0779102    691.26581  0.013313031   0.01175982         2632 
 4328000   0.55908691   -8.0816092    691.89413  0.013322053    0.0117555         2606 
 4329000   0.55445473   -8.0954606    690.53871  0.013292883  0.011751183         2625 
 4330000   0.55225733     -8.07594    690.83339  0.013295485  0.011746865         2617 
 4331000    0.5560259   -8.0859665    690.90798   0.01329385   0.01174255         2641 
 4332000    0.5565617   -8.0894017    690.73552  0.013287464   0.01173823         2619 
 4333000   0.54113742   -8.0900366    690.58903   0.01328158  0.011733915         2665 
 4334000   0.56410329   -8.0977785    691.15463  0.013289391  0.011729609         2614 
 4335000   0.55655567   -8.0845611    690.75109  0.013278568  0.011725298         2711 
 4336000   0.56065008   -8.0929601    690.32443  0.013267305  0.011720989         2617 
 4337000   0.55761593   -8.0770268    690.44743   0.01326661  0.011716681         2577 
 4338000     0.551473   -8.0848714    690.62762  0.013267013  0.011712378         2667 
 4339000   0.56452033   -8.0942518    689.60351  0.013244287  0.011708073         2703 
 4340000   0.56133778   -8.0769677    690.71588  0.013262594  0.011703775         2579 
 4341000   0.54530964   -8.0961519    691.22425  0.013269298  0.011699473         2561 
 4342000   0.54606181   -8.0961435    691.97754  0.013280699  0.011695178         2633 
 4343000   0.55469725    -8.108018    690.38224   0.01324703  0.011690882         2647 
 4344000   0.57103846   -8.1083295    689.72496  0.013231372  0.011686592         2660 
 4345000   0.56258849   -8.1123697    690.98856  0.013252562    0.0116823         2748 
 4346000   0.55191928   -8.0901915    689.74979  0.013225759  0.011678013         2679 
 4347000   0.54849214   -8.0916432    691.23002  0.013251093  0.011673729         2602 
 4348000   0.56122918   -8.0995874    690.25811  0.013229418  0.011669444         2649 
 4349000   0.56589639   -8.0777826    690.73027  0.013235423  0.011665166         2615 
 4350000   0.53843284   -8.1003395    691.30145  0.013243323  0.011660885         2610 
 4351000   0.55420599    -8.080041    689.89181  0.013213281  0.011656603         2709 
 4352000   0.55775706   -8.0988183     690.0976  0.013214185  0.011652327         2640 
 4353000   0.54162498   -8.1080562    691.27365  0.013233664  0.011648048         2683 
 4354000   0.55281169   -8.0896181    690.50522  0.013215917  0.011643775         2689 
 4355000   0.55327222   -8.0908193    690.51137     0.013213  0.011639507         2618 
 4356000   0.54973936   -8.0760506    690.82197  0.013215908  0.011635239         2611 
 4357000   0.56148259   -8.1092999    690.47337  0.013206208  0.011630972         2677 
 4358000   0.56208402   -8.0848806    690.79913  0.013209407  0.011626708         2611 
 4359000   0.55005494   -8.0939958    691.23742  0.013214755  0.011622449         2630 
 4360000   0.55666257   -8.0952499    690.34671    0.0131947  0.011618186         2653 
 4361000   0.55076062   -8.1026178       690.87  0.013201674  0.011613928         2640 
 4362000    0.5474454   -8.0965667    690.34222  0.013188564  0.011609666         2643 
 4363000   0.55279871   -8.0991358    689.86885    0.0131765  0.011605408         2602 
 4364000    0.5502271   -8.1034612    689.78441  0.013171868  0.011601154         2602 
 4365000   0.55752873   -8.1048905    690.93152  0.013190751  0.011596902         2594 
 4366000   0.54209227   -8.1090177    690.72656  0.013183817  0.011592653         2669 
 4367000   0.54473898   -8.0964685    690.61067  0.013178587  0.011588404         2661 
 4368000   0.54592206   -8.1075892    689.41829  0.013152821  0.011584159         2607 
 4369000   0.53293741   -8.1153773    689.79334  0.013156965  0.011579909         2692 
 4370000   0.55431088   -8.0984582    690.82497  0.013173626  0.011575662         2684 
 4371000   0.54918647   -8.0761192    691.25711  0.013178851  0.011571423         2600 
 4372000   0.55574968   -8.1193697    690.76197  0.013166399  0.011567184         2663 
 4373000   0.54425969   -8.0922681    690.82245  0.013164541  0.011562941         2678 
 4374000   0.55522369   -8.1031384    690.49829  0.013155355  0.011558706         2653 
 4375000   0.55647588   -8.0922265    690.42063  0.013150869  0.011554472         2565 
 4376000   0.55384835   -8.0974601    690.28107  0.013145206  0.011550242         2619 
 4377000   0.56175158   -8.0843136    691.06719   0.01315717  0.011546017         2661 
 4378000   0.55381325   -8.0921186    691.81574  0.013168413  0.011541789         2615 
 4379000   0.55664097   -8.0906167    689.97079  0.013130296  0.011537561         2605 
 4380000   0.54033737   -8.0937399    691.78161  0.013161751  0.011533338         2606 
 4381000   0.56603227   -8.1075898    690.90948  0.013142157  0.011529117         2606 
 4382000   0.54465538   -8.0967546    689.44723   0.01311135  0.011524899         2615 
 4383000   0.54482238   -8.1032395    690.01265  0.013119109  0.011520682         2660 
 4384000   0.54214261   -8.0947429    690.16167  0.013118949  0.011516463         2669 
 4385000   0.55723992   -8.1067159    691.38127  0.013139135  0.011512253         2620 
 4386000   0.55586291    -8.102522    690.67486  0.013122717  0.011508044         2588 
 4387000   0.55096444   -8.0900404    690.96491  0.013125236  0.011503839         2687 
 4388000   0.55625649   -8.1165736    690.68802  0.013116986  0.011499635         2680 
 4389000   0.56004459   -8.0901104    690.32164  0.013107041  0.011495427         2605 
 4390000   0.55412723   -8.0905829    690.11377   0.01310011  0.011491224         2565 
 4391000    0.5562376   -8.1104859    691.11898  0.013116203  0.011487028         2609 
 4392000   0.54626504   -8.0991094    691.68758  0.013124005  0.011482831         2577 
 4393000   0.54635944   -8.1006717    690.31517  0.013094984  0.011478638         2625 
 4394000   0.53953473   -8.1081922    689.98667  0.013085774  0.011474445         2645 
 4395000   0.53841114   -8.1143524    689.89949  0.013081143  0.011470253         2592 
 4396000   0.54510575   -8.1073192    690.78382  0.013094931  0.011466063         2632 
 4397000   0.54299214   -8.1021281    690.77048    0.0130917  0.011461872         2662 
 4398000   0.54402627   -8.1032001    690.24948  0.013078852  0.011457685         2586 
 4399000   0.53540549   -8.0966486    691.32384  0.013096231  0.011453496         2597 
 4400000   0.54036106   -8.1189774    689.17023  0.013052466  0.011449312         2606 
 4401000   0.53595879   -8.1092969    689.76727  0.013060806   0.01144513         2698 
 4402000   0.54417971   -8.1005099    689.50878  0.013052945  0.011440951         2655 
 4403000   0.55950388   -8.1236244    690.56926  0.013070052  0.011436769         2702 
 4404000   0.54899131   -8.1024966    690.10298  0.013058261  0.011432591         2583 
 4405000   0.54402293   -8.1118709    689.75187  0.013048654  0.011428415         2638 
 4406000   0.54659328   -8.1216817    689.53779  0.013041644  0.011424239         2697 
 4407000   0.54212783   -8.1082306    689.80597  0.013043756  0.011420073         2573 
 4408000   0.55155647   -8.1167765    689.83318  0.013041311  0.011415903         2608 
 4409000   0.53279827   -8.1070233    689.86607  0.013038975  0.011411736         2596 
 4410000      0.56003   -8.1117194    691.58615  0.013068521  0.011407572         2620 
 4411000   0.54082478   -8.1268615    690.45452   0.01304418  0.011403409         2665 
 4412000   0.54443982   -8.1101655    688.35271  0.013001524  0.011399251         2663 
 4413000   0.53329834   -8.1103843    689.69509  0.013023927  0.011395089         2655 
 4414000   0.55759404   -8.1110836    689.24572  0.013012493   0.01139093         2623 
 4415000   0.54318617   -8.1081478    689.87195  0.013021366  0.011386771         2622 
 4416000   0.54760069   -8.1256479    689.20682  0.013005865  0.011382614         2661 
 4417000   0.55236764    -8.128814    688.73267  0.012993975  0.011378461         2640 
 4418000   0.54958701    -8.111252    689.91039  0.013013249  0.011374312         2682 
 4419000    0.5382892   -8.1081009    691.04189  0.013031642  0.011370163         2620 
 4420000   0.52320872   -8.1240268    690.62307  0.013020797  0.011366015         2683 
 4421000   0.54393271   -8.1013261    689.48216  0.012996346  0.011361868         2590 
 4422000     0.546862   -8.1158575    689.79482  0.012999299  0.011357724         2653 
 4423000   0.55295313   -8.1134756    690.87108  0.013016638  0.011353586         2639 
 4424000   0.54747383    -8.115852    690.04921  0.012998214   0.01134945         2659 
 4425000   0.53726457   -8.0950668    688.87761  0.012973213  0.011345312         2603 
 4426000   0.54071343   -8.1128209    689.54444  0.012982837  0.011341177         2554 
 4427000   0.54588504   -8.1136094    689.27844  0.012974897  0.011337043         2648 
 4428000   0.53571304   -8.1163631    689.94354  0.012984484  0.011332913         2646 
 4429000   0.53830577   -8.1173857    690.49961  0.012992015  0.011328782         2641 
 4430000   0.54323924    -8.116291    689.59159  0.012972001  0.011324653         2646 
 4431000   0.53841333   -8.1259397    690.83665  0.012992489  0.011320526         2676 
 4432000   0.54316504   -8.1359452    689.41945  0.012962911    0.0113164         2649 
 4433000     0.542363   -8.1150043    689.11967  0.012954351  0.011312273         2673 
 4434000   0.53469818   -8.1335238    689.58013  0.012960084  0.011308148         2625 
 4435000   0.53558007   -8.1186308    690.00376  0.012965121   0.01130403         2633 
 4436000   0.54748999   -8.1221845    688.67435  0.012937225  0.011299909         2650 
 4437000   0.54320142   -8.1294209    689.75911  0.012954682  0.011295795         2696 
 4438000   0.54523499    -8.111177    689.89356  0.012954288  0.011291677         2598 
 4439000   0.53035397   -8.1344578    689.48439  0.012943688  0.011287563         2682 
 4440000   0.53693764   -8.1258784    689.80491  0.012946789  0.011283452         2616 
 4441000   0.54076346    -8.142918    689.66463  0.012941241  0.011279342         2685 
 4442000   0.54389621     -8.11754    689.38148  0.012933016  0.011275239         2673 
 4443000   0.53390103   -8.1267442    689.71385  0.012936339  0.011271136         2734 
 4444000   0.54150876   -8.1444092     689.5765  0.012930852  0.011267032         2720 
 4445000   0.54787704   -8.1167081    688.83884  0.012914114  0.011262929         2757 
 4446000   0.53253534    -8.124934    689.96316  0.012932283  0.011258832         2648 
 4447000   0.54042926    -8.124154    690.38914  0.012937357  0.011254736         2688 
 4448000   0.54219558   -8.1291019    689.65124  0.012920624   0.01125064         2624 
 4449000   0.54444882   -8.1241548    688.11298  0.012888907  0.011246545         2664 
 4450000   0.52881721   -8.1210892    688.89972  0.012900744  0.011242449         2702 
 4451000   0.53942242   -8.1309356      689.245   0.01290431  0.011238358         2656 
 4452000   0.52644002   -8.1292311    689.54857  0.012907094  0.011234268         2722 
 4453000   0.54170666   -8.1042228    690.23683  0.012917075  0.011230182         2627 
 4454000   0.53915285   -8.1104038    689.29111  0.012896481  0.011226097         2680 
 4455000   0.53788022   -8.1334715    688.66783  0.012881927  0.011222015         2750 
 4456000   0.54642026   -8.1122577    689.50642  0.012894719  0.011217937         2656 
 4457000    0.5456911   -8.1176826    690.33511   0.01290732  0.011213858         2692 
 4458000    0.5447293   -8.1284281    688.63041  0.012872559  0.011209779         2677 
 4459000   0.53621204   -8.1262953    689.81629  0.012891835  0.011205703         2603 
 4460000   0.53135292   -8.1230771    688.53127  0.012864934  0.011201627         2678 
 4461000   0.54531899   -8.1304002    688.11413  0.012854258  0.011197555         2650 
 4462000   0.54548748   -8.1106564     690.4078  0.012894214  0.011193486         2557 
 4463000   0.52423783   -8.1235417    688.99351  0.012864917  0.011189416         2719 
 4464000   0.53547107   -8.1362204    688.43096  0.012851534  0.011185348         2663 
 4465000   0.52621684   -8.1414338    689.40648  0.012866862   0.01118128         2683 
 4466000   0.53541788   -8.1340124    689.42244  0.012864279  0.011177216         2656 
 4467000   0.53192782   -8.1062729    689.73115  0.012867158  0.011173154         2619 
 4468000   0.53504121   -8.1259429     690.2577  0.012874099  0.011169096         2660 
 4469000   0.53841035    -8.136697    689.33416  0.012853997  0.011165037         2667 
 4470000   0.53625648   -8.1207867    689.61727  0.012856399  0.011160979         2597 
 4471000   0.54617687   -8.1431926    688.18843  0.012826892  0.011156924         2655 
 4472000   0.54398939   -8.1344373     689.3511   0.01284569   0.01115287         2676 
 4473000   0.54233551   -8.1341431    687.69723  0.012812006  0.011148817         2637 
 4474000   0.54014707    -8.129242    689.36927  0.012840286  0.011144769         2710 
 4475000   0.54063253    -8.140147     690.5709  0.012859793  0.011140727         2636 
 4476000   0.54245529   -8.1212196     687.6642  0.012802804  0.011136681         2657 
 4477000    0.5434943   -8.1255904    689.10386  0.012826742  0.011132639         2583 
 4478000   0.53097685    -8.137049     689.0918  0.012823653  0.011128602         2643 
 4479000   0.53866446    -8.122262    688.86145  0.012816504  0.011124562         2642 
 4480000   0.53294744   -8.1182732    688.57409  0.012808298  0.011120525         2620 
 4481000   0.53776039   -8.1206941    689.23038  0.012817644  0.011116486         2598 
 4482000   0.53112808   -8.1321887    689.91986  0.012827604  0.011112453         2572 
 4483000   0.54278364   -8.1374772    688.42692  0.012796991  0.011108416         2618 
 4484000    0.5428814   -8.1447076    688.87409  0.012802447  0.011104385         2672 
 4485000   0.53051463   -8.1407702    690.14641  0.012823233  0.011100355         2614 
 4486000   0.54086752   -8.1372213    689.68053   0.01281172  0.011096326         2667 
 4487000   0.52372144   -8.1491659    688.49296  0.012786809  0.011092304         2689 
 4488000   0.51802807   -8.1439676    687.08737  0.012757861  0.011088283         2655 
 4489000    0.5459297    -8.129479    688.71394  0.012785215  0.011084256         2610 
 4490000   0.53194606   -8.1360638    689.96421  0.012805572  0.011080234         2635 
 4491000   0.53804863    -8.134783    689.30567  0.012790501  0.011076214         2677 
 4492000    0.5291181   -8.1314226    688.40412  0.012770928  0.011072196         2587 
 4493000   0.52657721   -8.1485334    689.43122  0.012787136  0.011068181         2665 
 4494000   0.53245042   -8.1413214    691.08963  0.012815043  0.011064169         2617 
 4495000   0.52553926   -8.1358688    690.03324  0.012792607  0.011060158         2678 
 4496000   0.53759652   -8.1246063     688.5655  0.012762557   0.01105615         2651 
 4497000   0.53040064   -8.1247728    689.62431   0.01277934  0.011052144         2579 
 4498000   0.53229736   -8.1318653    689.66998  0.012777345  0.011048136         2629 
 4499000   0.53785949   -8.1349565    688.63933  0.012755415  0.011044131         2654 
 4500000   0.52880242   -8.1378722     689.3445  0.012765639  0.011040128         2583 
 4501000   0.52866016   -8.1599067    687.84207  0.012734986  0.011036124         2608 
 4502000   0.53240337   -8.1417309    689.34062  0.012759896  0.011032122         2640 
 4503000    0.5282066   -8.1547288     688.2423  0.012736737  0.011028119         2613 
 4504000    0.5265356   -8.1578981     688.6601  0.012741639  0.011024121         2637 
 4505000   0.53152522   -8.1289005      689.411  0.012752701  0.011020123         2605 
 4506000   0.53615281   -8.1504338    686.98635  0.012705029  0.011016127         2709 
 4507000   0.52753545   -8.1327721    688.31407   0.01272676  0.011012138         2665 
 4508000    0.5373207   -8.1504442    689.52083  0.012746244  0.011008143         2634 
 4509000   0.53025523   -8.1421281     689.1373  0.012736329   0.01100415         2648 
 4510000    0.5268079   -8.1399798     688.4678  0.012721134  0.011000166         2677 
 4511000   0.53224315   -8.1374161    688.57459  0.012720287   0.01099618         2641 
 4512000   0.52649898    -8.138563    689.56689  0.012735795  0.010992195         2661 
 4513000   0.53038093   -8.1560665    688.11071  0.012706084  0.010988212         2703 
 4514000   0.53084439   -8.1434999    687.26352   0.01268763  0.010984231         2677 
 4515000   0.52727692   -8.1541326    688.14981  0.012701178  0.010980254         2684 
 4516000   0.53587318   -8.1545592    689.64544  0.012725964   0.01097628         2719 
 4517000   0.53409678   -8.1460041     689.1649  0.012714281  0.010972303         2678 
 4518000    0.5321003   -8.1512284    688.54009  0.012699943  0.010968333         2614 
 4519000   0.51870553    -8.156585    687.82971  0.012684032  0.010964361         2646 
 4520000   0.52994664   -8.1367157    688.11464  0.012686479  0.010960392         2674 
 4521000   0.52628808   -8.1299741    688.47227  0.012690265  0.010956425         2656 
 4522000   0.53239029   -8.1554189    687.92376  0.012677351   0.01095246         2672 
 4523000   0.52588954   -8.1436179    689.51374  0.012703842  0.010948498         2719 
 4524000   0.52305968   -8.1372009     689.0044  0.012691652  0.010944538         2659 
 4525000   0.52670578   -8.1414228    688.55782  0.012680623  0.010940577         2686 
 4526000   0.53334956   -8.1304745    689.41036  0.012693518  0.010936619         2666 
 4527000   0.52340691   -8.1434267    687.44856  0.012654601  0.010932664         2739 
 4528000   0.53166154   -8.1431793    689.01147   0.01268057  0.010928707         2584 
 4529000   0.53150378   -8.1374865    688.92302  0.012676143  0.010924752         2581 
 4530000   0.53534715   -8.1446131    687.62916  0.012649543  0.010920803         2715 
 4531000   0.52608546   -8.1604381    689.06437  0.012673147  0.010916855         2682 
 4532000   0.51707091   -8.1504324     687.8064   0.01264722  0.010912907         2652 
 4533000   0.51802908   -8.1276794     688.8804  0.012664174  0.010908961         2708 
 4534000   0.53420368   -8.1484205    687.30224  0.012632375  0.010905014         2697 
 4535000   0.53077047   -8.1308058    688.46817  0.012651014  0.010901071         2618 
 4536000   0.52633405   -8.1464801    688.83877  0.012655033   0.01089713         2640 
 4537000   0.53415287   -8.1471987    688.31879  0.012642693   0.01089319         2658 
 4538000   0.52918276   -8.1395474     687.9059  0.012632325  0.010889252         2651 
 4539000   0.52564371   -8.1532888    689.50636  0.012658926  0.010885321         2648 
 4540000   0.52641904    -8.136705    688.77818  0.012642771  0.010881387         2683 
 4541000   0.51760783   -8.1440013    687.12049  0.012609566  0.010877453         2691 
 4542000   0.53002823   -8.1587047    688.63614  0.012634598  0.010873523         2679 
 4543000   0.52281155   -8.1230154    688.40972  0.012627664  0.010869597         2678 
 4544000   0.53843779   -8.1338854    687.82165    0.0126141  0.010865668         2616 
 4545000   0.51670025    -8.148989    687.85179  0.012611877  0.010861745         2732 
 4546000   0.51624933   -8.1528113    687.33693  0.012599665   0.01085782         2669 
 4547000   0.53492333   -8.1609763    688.70978  0.012622054  0.010853894         2746 
 4548000   0.52552859   -8.1487749    688.54253  0.012616215  0.010849974         2636 
 4549000   0.51982951    -8.141131    689.16104  0.012624772  0.010846052         2672 
 4550000   0.51988955   -8.1622082    688.18427  0.012604107  0.010842132         2637 
 4551000   0.52351451   -8.1594042    688.23917  0.012602343  0.010838214         2673 
 4552000   0.51990923   -8.1750764    687.69898  0.012589686  0.010834298         2753 
 4553000   0.51966339   -8.1553176    687.48229  0.012582954  0.010830382         2703 
 4554000   0.52104626   -8.1353433    687.63932  0.012583065   0.01082647         2697 
 4555000    0.5275153   -8.1471819    686.83138  0.012565521  0.010822563         2615 
 4556000   0.51584011   -8.1507879    689.31983  0.012608279  0.010818658         2589 
 4557000   0.51451772   -8.1385565    687.98598   0.01258112  0.010814757         2707 
 4558000   0.50856393   -8.1489587    687.67588  0.012572691  0.010810852         2667 
 4559000   0.53836342   -8.1540855    687.82951  0.012572741   0.01080695         2676 
 4560000   0.52158105   -8.1690313    688.25316  0.012577726  0.010803048         2694 
 4561000   0.52438484    -8.149635    688.49469  0.012579381  0.010799147         2656 
 4562000   0.51825555   -8.1644017    687.61527  0.012560559  0.010795251         2672 
 4563000   0.51004305   -8.1699726    688.77501  0.012578987  0.010791357         2698 
 4564000   0.51422538   -8.1468957    688.62468  0.012573486  0.010787467         2685 
 4565000   0.52164391   -8.1579736     688.6554  0.012571292  0.010783576         2651 
 4566000   0.53537109   -8.1666784    688.02405  0.012557017  0.010779681         2678 
 4567000   0.52766403   -8.1485021    688.18648  0.012557231  0.010775792         2652 
 4568000   0.51751261   -8.1519685    689.22041  0.012573344  0.010771907         2635 
 4569000   0.50921673   -8.1584937    687.99018  0.012548154  0.010768021         2644 
 4570000   0.51297538   -8.1600778    688.14398  0.012548213  0.010764135         2647 
 4571000   0.52303553   -8.1589464      687.748  0.012538248  0.010760253         2741 
 4572000   0.51724835   -8.1672126     688.3029   0.01254562  0.010756369         2671 
 4573000   0.53077613   -8.1586279    687.13442  0.012521584   0.01075249         2709 
 4574000    0.5152865   -8.1752397     687.7438  0.012529948  0.010748608         2664 
 4575000   0.53451769    -8.158036    688.29867  0.012537316  0.010744735         2722 
 4576000    0.5187256   -8.1461048    688.82245  0.012544115  0.010740864         2683 
 4577000    0.5144915   -8.1587281    686.94137  0.012507126  0.010736991         2621 
 4578000   0.51469564   -8.1604344    687.99224  0.012523523  0.010733121         2668 
 4579000   0.52292347   -8.1674854    687.80955  0.012517463  0.010729256         2690 
 4580000   0.52153733   -8.1742381    686.89942   0.01249817  0.010725385         2677 
 4581000   0.53489212   -8.1586955    687.91811  0.012513973   0.01072152         2718 
 4582000   0.50483441   -8.1538538     687.4689  0.012503072  0.010717657         2634 
 4583000   0.51904828   -8.1664737    686.60049  0.012484553  0.010713796         2758 
 4584000   0.51049684   -8.1616003    687.82475  0.012504086  0.010709939         2683 
 4585000   0.51902625   -8.1515687    687.64784  0.012498143  0.010706081         2698 
 4586000   0.51552827   -8.1744519    686.88307  0.012481521  0.010702219         2691 
 4587000   0.51295074   -8.1574482    686.61943   0.01247401  0.010698361         2699 
 4588000   0.52342686   -8.1653454     688.4944  0.012505347  0.010694508         2675 
 4589000   0.51356265   -8.1681853    688.35194  0.012500035  0.010690654         2701 
 4590000   0.51535697   -8.1516306    688.86025   0.01250654  0.010686806         2703 
 4591000   0.50984064   -8.1586374     686.9722  0.012469546   0.01068296         2709 
 4592000   0.51805963   -8.1742873    686.46055  0.012457545  0.010679111         2732 
 4593000   0.52287256   -8.1820023    687.02966  0.012465158  0.010675268         2690 
 4594000   0.50930992   -8.1393408    688.65412  0.012491912  0.010671427         2706 
 4595000   0.52142299   -8.1795134    687.15794  0.012462059  0.010667581         2708 
 4596000   0.51395307   -8.1666857    687.78361  0.012470692  0.010663741         2660 
 4597000   0.51666866    -8.181134    687.05906  0.012454845  0.010659901         2663 
 4598000   0.51583929   -8.1875361    686.83504  0.012448076  0.010656064         2689 
 4599000   0.51768574   -8.1761207    688.86073  0.012482075  0.010652227         2687 
 4600000   0.52669925    -8.167124     687.6666  0.012457728  0.010648395         2622 
 4601000   0.50881334    -8.155515    689.03509  0.012479807  0.010644565         2663 
 4602000   0.51565506   -8.1723056    687.72487  0.012453369  0.010640735         2643 
 4603000   0.50519593   -8.1781978    686.29338  0.012424748  0.010636906         2704 
 4604000   0.51578002   -8.1707486     686.4765  0.012425364   0.01063308         2723 
 4605000   0.50667158   -8.1654862    688.87673  0.012466101  0.010629256         2631 
 4606000   0.51447982   -8.1618268    687.73232  0.012442689   0.01062543         2714 
 4607000   0.49982762   -8.1675042    687.49971  0.012435781   0.01062161         2738 
 4608000   0.51263346   -8.1618901    689.31098  0.012465838  0.010617791         2680 
 4609000   0.50575405   -8.1510527    688.42958  0.012447197  0.010613975         2619 
 4610000   0.50991796   -8.1783436    688.08092  0.012438195   0.01061016         2666 
 4611000   0.51115542   -8.1905713    687.64386  0.012427598  0.010606342         2701 
 4612000   0.50826452   -8.1751576    688.02929  0.012431868  0.010602529         2678 
 4613000   0.50971395   -8.1733843    688.12335  0.012430872  0.010598718         2587 
 4614000   0.51506474   -8.1663546    688.02414  0.012426386  0.010594912         2712 
 4615000   0.52004369   -8.1802409     687.3097  0.012410793  0.010591104         2712 
 4616000   0.51311696   -8.1810872    685.84439  0.012381651  0.010587298         2712 
 4617000   0.51128366   -8.1687399    687.22767  0.012403936  0.010583496         2698 
 4618000   0.51840713   -8.1750798    687.66403  0.012409124  0.010579694         2665 
 4619000   0.51731736   -8.1759223    686.72965   0.01238958  0.010575899         2705 
 4620000   0.51600813   -8.1755914    688.13762  0.012412295  0.010572103         2715 
 4621000   0.50681447   -8.1659932    686.89446   0.01238719  0.010568307         2722 
 4622000   0.51762449    -8.179273    686.64993  0.012380101  0.010564512         2707 
 4623000   0.50898807   -8.1883188    686.85437  0.012381108  0.010560714         2710 
 4624000   0.50990138   -8.1550426    687.44883  0.012389144  0.010556921         2713 
 4625000   0.50047949   -8.1837534    686.82022  0.012375139  0.010553129         2672 
 4626000   0.50331959   -8.1968549    686.44901  0.012365777  0.010549339         2765 
 4627000   0.51098938   -8.1676047    687.67489  0.012385183  0.010545552         2658 
 4628000   0.51530701   -8.1917382    687.22278  0.012374366  0.010541768         2698 
 4629000   0.51219744   -8.1919789    685.78295  0.012345772  0.010537988         2677 
 4630000    0.5083921   -8.1746177    686.23415  0.012351227  0.010534206         2684 
 4631000   0.51688696   -8.1720807    688.22106  0.012384313   0.01053043         2672 
 4632000   0.51666338     -8.19601    687.57304  0.012369981  0.010526651         2746 
 4633000   0.51628895   -8.1836503    687.22706  0.012361088  0.010522877         2660 
 4634000   0.51579783   -8.1701626    687.96858  0.012371755  0.010519105         2744 
 4635000    0.5108266   -8.1729669    687.36575  0.012358248  0.010515334         2656 
 4636000   0.51496525   -8.1874562    687.19229  0.012352464  0.010511562         2719 
 4637000   0.51513832   -8.1736152    687.17507  0.012349491  0.010507792         2657 
 4638000   0.50629103   -8.1812238    686.50067  0.012334711  0.010504025         2708 
 4639000   0.50836634   -8.1659273    687.01697  0.012341327  0.010500256         2630 
 4640000   0.50377831   -8.1868694    686.51465  0.012329645  0.010496489         2732 
 4641000   0.50978184   -8.1811348    687.49423  0.012344578  0.010492724         2690 
 4642000   0.50795476   -8.1803722    688.12486   0.01235324  0.010488965         2614 
 4643000   0.51655021   -8.1815113    687.03606  0.012331037  0.010485205         2733 
 4644000   0.51405668   -8.1858463    686.85011  0.012325045  0.010481446         2648 
 4645000   0.51839324   -8.1826344    688.55996  0.012353067  0.010477689         2693 
 4646000   0.50300243   -8.1673146    688.51198  0.012349548  0.010473936         2713 
 4647000   0.50353381   -8.1822762    686.71597  0.012314683  0.010470183         2702 
 4648000   0.50428808   -8.1921782    688.79087  0.012349234  0.010466433         2734 
 4649000   0.50645877   -8.1858972    688.27673  0.012337362  0.010462688         2682 
 4650000   0.49987336   -8.1944294    685.53122  0.012285506  0.010458937         2690 
 4651000   0.51029145   -8.1780375    687.28841  0.012314348  0.010455193         2703 
 4652000   0.49546049   -8.1831821    686.21024  0.012292387  0.010451451         2709 
 4653000   0.50935058   -8.2004302     687.0695  0.012305135  0.010447708         2708 
 4654000   0.51011136   -8.1727266    687.30185  0.012306651  0.010443967         2708 
 4655000   0.51348606   -8.1959376    686.80028  0.012295028  0.010440225         2789 
 4656000   0.51339523   -8.1959766    687.38175  0.012302795  0.010436492         2611 
 4657000   0.51822014   -8.1883621    686.24671  0.012279842  0.010432756         2662 
 4658000   0.51037726   -8.1884903    687.42115  0.012298217  0.010429023         2701 
 4659000   0.50150803   -8.1873769    686.02651  0.012270632  0.010425289         2750 
 4660000   0.49714391   -8.1776824    686.74964  0.012280931   0.01042156         2777 
 4661000   0.50185568   -8.1833125    686.99186  0.012282626  0.010417838         2723 
 4662000   0.51069115   -8.1866832    687.40666  0.012287406  0.010414116         2752 
 4663000   0.49557868   -8.1888863    686.12754  0.012261912  0.010410388         2671 
 4664000   0.50780656    -8.192111    686.70735  0.012269642  0.010406665         2703 
 4665000   0.50646577   -8.1715062    687.36175  0.012278702  0.010402946         2729 
 4666000    0.5014113    -8.169056     686.1898   0.01225514  0.010399229         2649 
 4667000   0.49792311   -8.1930014     686.2789  0.012254105  0.010395513         2770 
 4668000   0.49922258   -8.1932053    687.23168  0.012268489  0.010391799         2716 
 4669000    0.4996469   -8.2025995    685.87707  0.012241684  0.010388085         2771 
 4670000   0.49691891   -8.2046488    685.91122  0.012239672   0.01038437         2744 
 4671000   0.50048483   -8.1987319    686.02676  0.012239113  0.010380656         2750 
 4672000   0.50117318   -8.2045124    686.39514  0.012243064  0.010376944         2765 
 4673000   0.51219647   -8.1915327    685.94563  0.012232428  0.010373238         2735 
 4674000   0.51188181   -8.1924157    685.59455  0.012223551  0.010369533         2730 
 4675000   0.50523349   -8.1922881    686.91577  0.012244488  0.010365832         2747 
 4676000   0.49540567   -8.2064225    687.15941  0.012246211  0.010362132         2737 
 4677000   0.51537518    -8.189601    686.30368  0.012228346  0.010358432         2768 
 4678000   0.50051372   -8.2127463    686.98338   0.01223784  0.010354737         2760 
 4679000   0.49553118   -8.2024129    687.15175  0.012238223   0.01035104         2768 
 4680000   0.50768548   -8.1860644    687.77226  0.012246657  0.010347348         2721 
 4681000   0.49736042   -8.1972391      687.604  0.012241045  0.010343658         2770 
 4682000   0.50818314   -8.1886717    686.71512   0.01222261  0.010339968         2733 
 4683000   0.50219622   -8.1746222    686.46842   0.01221561   0.01033628         2749 
 4684000   0.49604405   -8.1924944    686.70634  0.012217235  0.010332593         2724 
 4685000   0.50460028   -8.2059992    685.95204   0.01220121  0.010328909         2707 
 4686000   0.51017532   -8.1695835    686.05993  0.012200525  0.010325223         2723 
 4687000   0.49720374   -8.1873279    688.10957  0.012234364   0.01032154         2715 
 4688000   0.50475078   -8.1783567    687.78766  0.012226032  0.010317858         2675 
 4689000   0.50398805   -8.1978634    686.91993  0.012208003  0.010314181         2691 
 4690000   0.49585147   -8.2026553    686.45772  0.012197188  0.010310504         2711 
 4691000   0.50876694   -8.1890636    686.37172   0.01219306  0.010306826         2750 
 4692000    0.4970835   -8.1930494    686.11935  0.012185979  0.010303151         2723 
 4693000   0.50005718   -8.2066041    687.61459  0.012209933   0.01029948         2767 
 4694000   0.50352427   -8.1849835     687.5993  0.012207061  0.010295809         2668 
 4695000   0.49345355   -8.2070427      686.516  0.012185232  0.010292141         2713 
 4696000   0.50253029   -8.2025364    687.02747  0.012191714  0.010288473         2704 
 4697000   0.50110168   -8.1857293    686.42175  0.012178372  0.010284806         2736 
 4698000   0.49843786   -8.1892855    686.67292  0.012180235  0.010281141         2672 
 4699000    0.4983283   -8.2054171    687.56818  0.012193519   0.01027748         2685 
 4700000   0.50510537   -8.1865331    686.89969  0.012179073  0.010273819         2673 
 4701000   0.52353751   -8.2066216    686.68195  0.012172622  0.010270162         2690 
 4702000   0.49648701   -8.1923959    686.55143   0.01216772  0.010266505         2676 
 4703000   0.49476925   -8.1943433    686.63784  0.012166664  0.010262849         2706 
 4704000   0.50119142   -8.2042244    686.47518  0.012161196  0.010259192         2738 
 4705000   0.50149113   -8.1938374     686.6272  0.012161304  0.010255539         2716 
 4706000   0.49429098   -8.1951861    686.54253   0.01215722  0.010251887         2771 
 4707000   0.50500396   -8.1920258    687.51651  0.012171881  0.010248238         2750 
 4708000   0.49799409   -8.1998068    686.04767  0.012143296  0.010244591         2712 
 4709000   0.49972635   -8.1972891    685.67067  0.012134046  0.010240941         2676 
 4710000   0.49943866   -8.1846743    686.86528  0.012152606  0.010237299         2777 
 4711000   0.48879487   -8.1744863    686.90686  0.012150762  0.010233659         2724 
 4712000   0.49424258    -8.191463     686.1598  0.012134971  0.010230019         2746 
 4713000   0.49036004    -8.180996    687.03405  0.012147854  0.010226382         2683 
 4714000   0.49449805     -8.21139    686.40964  0.012134239  0.010222744         2748 
 4715000   0.49065007   -8.1925842    685.67323   0.01211865  0.010219108         2712 
 4716000   0.48274574   -8.2143956    686.00785  0.012121993  0.010215477         2700 
 4717000   0.48680346   -8.1943114    686.51605  0.012128402  0.010211847         2648 
 4718000   0.50258641   -8.1972254    686.55202  0.012126466  0.010208216         2692 
 4719000   0.48619017   -8.2045312    686.35047  0.012120337  0.010204584         2733 
 4720000   0.48357704   -8.1890731    686.88264  0.012127165  0.010200958         2725 
 4721000   0.48456124   -8.1914711    685.58411  0.012101675  0.010197333         2649 
 4722000   0.48031062    -8.191236    685.70863   0.01210131  0.010193713         2693 
 4723000    0.4993729   -8.1841809    685.84419   0.01210114  0.010190089         2632 
 4724000   0.49231326   -8.1979059    686.32174  0.012107002   0.01018647         2665 
 4725000   0.49818843   -8.1876473    687.12328  0.012118576  0.010182852         2600 
 4726000   0.48399429   -8.1881658    686.83019  0.012110844  0.010179235         2691 
 4727000   0.48889412   -8.2064216    686.91696  0.012109812  0.010175618         2746 
 4728000   0.49655125   -8.2100681    686.82993  0.012105716  0.010172003         2723 
 4729000   0.50512986   -8.2083582    686.68795  0.012100655  0.010168391         2688 
 4730000   0.48625313    -8.197512    686.52885  0.012095293   0.01016478         2704 
 4731000   0.50046911   -8.2012917    685.67186  0.012077641  0.010161172         2735 
 4732000   0.48550137   -8.2053155    685.20858   0.01206693  0.010157564         2751 
 4733000    0.4943671   -8.1944488    686.29717  0.012083548  0.010153962         2652 
 4734000   0.48941109   -8.2165509    686.36703  0.012082225  0.010150359         2793 
 4735000   0.48803665   -8.1991083    685.30149   0.01206092   0.01014676         2778 
 4736000   0.49509105   -8.2089668    686.21629   0.01207447  0.010143162         2754 
 4737000   0.49655455    -8.203616    686.56904  0.012078127  0.010139559         2697 
 4738000   0.48907798   -8.2072898    686.18171  0.012068765  0.010135961         2729 
 4739000   0.48556832   -8.1954618    687.08415  0.012082087  0.010132365         2707 
 4740000    0.5011667   -8.2119613    686.17877  0.012063621  0.010128767         2795 
 4741000   0.49252561   -8.2197995    685.07476  0.012041671  0.010125175         2729 
 4742000   0.48270783   -8.2114206    686.11416  0.012057398  0.010121582         2734 
 4743000   0.48994845   -8.2110366    686.05878  0.012053883  0.010117991         2662 
 4744000   0.48700879    -8.221157    685.95489  0.012049517  0.010114403         2766 
 4745000   0.48747071   -8.2232312    686.24074  0.012051998  0.010110815         2738 
 4746000   0.50404427    -8.204356     684.8272  0.012024638   0.01010723         2745 
 4747000   0.49843253   -8.2022578    686.51197  0.012051681  0.010103648         2765 
 4748000   0.48532487   -8.2150338    685.86737  0.012037829  0.010100065         2665 
 4749000    0.4983843   -8.2114859    687.45424   0.01206314  0.010096486         2786 
 4750000   0.48001656   -8.2119684    686.60054  0.012045624  0.010092907         2752 
 4751000   0.49362038    -8.198888    686.60867  0.012043231  0.010089328         2702 
 4752000   0.49819006    -8.209623    685.06841  0.012013686  0.010085754         2712 
 4753000   0.48931396   -8.1967758    685.68871  0.012022034  0.010082182         2761 
 4754000    0.4935406   -8.2169195    685.08613  0.012008942  0.010078608         2765 
 4755000   0.48275801   -8.2235572    685.54685  0.012014491  0.010075039         2715 
 4756000   0.49593935   -8.1971283    686.89691   0.01203562  0.010071471         2702 
 4757000   0.48563899   -8.1990151    686.14216  0.012019868  0.010067905         2743 
 4758000   0.49294164   -8.2058671    686.36901  0.012021315  0.010064342         2724 
 4759000   0.47842527   -8.2016517    686.60695  0.012022956   0.01006078         2729 
 4760000   0.47987679   -8.2211145    685.22864    0.0119963  0.010057215         2736 
 4761000   0.48121139   -8.2091968    687.00619  0.012024893  0.010053655         2713 
 4762000   0.49371906   -8.2063614    686.86137  0.012019834  0.010050099         2694 
 4763000   0.49385872   -8.2138706    686.83538  0.012016855  0.010046541         2733 
 4764000   0.48566363   -8.2031683    686.77293   0.01201324  0.010042988         2684 
 4765000   0.48582851   -8.2110635    685.52564  0.011988906  0.010039436         2697 
 4766000   0.48842545   -8.2283359    686.37368  0.012001218  0.010035883         2721 
 4767000    0.5047705   -8.2073141    686.03357  0.011992755  0.010032331         2638 
 4768000   0.48457285   -8.2133795    686.46512  0.011997782   0.01002878         2710 
 4769000   0.48703335   -8.1950345    687.50325  0.012013407  0.010025233         2701 
 4770000   0.48203724    -8.227177    685.16565   0.01197005  0.010021685         2767 
 4771000   0.48950244   -8.2194004    685.72899  0.011977381  0.010018141         2691 
 4772000   0.48152056   -8.2049327    685.92671  0.011978323  0.010014594         2720 
 4773000    0.4867841   -8.2313773    686.29305   0.01198221  0.010011051         2711 
 4774000   0.48983082   -8.1996237    686.69671  0.011986746  0.010007509         2711 
 4775000   0.48676095   -8.2123287    686.52143  0.011981177   0.01000397         2731 
 4776000   0.48138173   -8.2040145    685.65085  0.011963478  0.010000432         2726 
 4777000    0.4899605   -8.2194465    686.56943  0.011976998 0.0099968974         2715 
 4778000   0.48268435   -8.2113299    686.87137  0.011979757 0.0099933627         2726 
 4779000    0.4950893   -8.2092716    687.12817  0.011981729 0.0099898267         2741 
 4780000   0.50173109   -8.2125985    685.41817   0.01194941 0.0099862955         2722 
 4781000   0.49689654   -8.2103942     685.8902  0.011955138 0.0099827632         2657 
 4782000   0.48700962   -8.2228599    686.84753  0.011969321 0.0099792356         2764 
 4783000   0.48656541   -8.2170039    687.11015  0.011971394   0.00997571         2711 
 4784000    0.4869223   -8.2069828    687.04956  0.011967837 0.0099721882         2720 
 4785000    0.4846504   -8.2128223    686.66832  0.011958696 0.0099686649         2758 
 4786000   0.49972477   -8.2161538    685.52341  0.011936262 0.0099651405         2772 
 4787000   0.47952995   -8.2330636    685.40713  0.011931744 0.0099616194         2736 
 4788000   0.48358126   -8.2272432    684.59553  0.011915127 0.0099581001         2741 
 4789000   0.47232214   -8.2187638    685.38063    0.0119263 0.0099545812         2740 
 4790000   0.47544735   -8.2139235    685.48053  0.011925549 0.0099510678         2772 
 4791000   0.48770245   -8.2217847    684.63894  0.011908421 0.0099475539         2728 
 4792000   0.47300011   -8.2130033    685.72448  0.011924814 0.0099440419         2724 
 4793000   0.47691121    -8.216531    686.28579  0.011932085 0.0099405311         2721 
 4794000    0.4869217   -8.2064548    686.42244  0.011931971 0.0099370234         2746 
 4795000   0.48264649   -8.2243795    685.23107  0.011908778 0.0099335156         2804 
 4796000   0.47694898   -8.2114862    685.65369  0.011913638 0.0099300124         2685 
 4797000   0.48797639   -8.2327338    686.04116  0.011917886 0.0099265112         2677 
 4798000   0.47659624   -8.2239812    686.33594  0.011920521  0.009923007         2716 
 4799000   0.49450201   -8.2130878    685.75546  0.011907958  0.009919507         2659 
 4800000   0.48872983   -8.2162983    685.22978   0.01189635 0.0099160088         2761 
 4801000    0.4836325    -8.200672    686.32224  0.011912835 0.0099125141         2692 
 4802000   0.48815967    -8.224148    686.06172  0.011905833  0.009909021         2751 
 4803000   0.48412679   -8.2155889    686.75488  0.011915381 0.0099055297         2755 
 4804000   0.47651496   -8.2311848    684.66515  0.011876651 0.0099020391         2748 
 4805000   0.48110851   -8.2225945    685.06344  0.011881086 0.0098985501         2719 
 4806000   0.48338458   -8.2327246    685.76015  0.011890695 0.0098950603         2717 
 4807000   0.48868807   -8.2244709    685.98048  0.011892041 0.0098915736         2702 
 4808000   0.48965948   -8.2190214    684.70977  0.011867543 0.0098880896         2706 
 4809000   0.47372124   -8.2105093    685.55846  0.011879782 0.0098846064         2754 
 4810000   0.47296233   -8.2113924    685.46042  0.011875614 0.0098811241         2694 
 4811000   0.48772002    -8.215334    685.91454  0.011881011  0.009877647         2720 
 4812000   0.48473239   -8.2307429    686.37939  0.011886592 0.0098741687         2725 
 4813000   0.48415578   -8.2355163    684.24167   0.01184711 0.0098706942         2722 
 4814000   0.48071298   -8.2086223    685.80869  0.011871775 0.0098672204         2750 
 4815000   0.47950374    -8.233223    687.01351  0.011890161 0.0098637451         2654 
 4816000   0.47678982    -8.227262    685.74471  0.011865738 0.0098602751         2665 
 4817000   0.48213291   -8.2160436    686.63149  0.011878615 0.0098568053         2669 
 4818000   0.48346289    -8.217618     686.0473  0.011866046 0.0098533356         2738 
 4819000   0.47865049   -8.2277913    685.54691   0.01185493 0.0098498664         2796 
 4820000   0.49484728   -8.2121303    686.61494  0.011870936 0.0098464027         2594 
 4821000    0.4756903   -8.2251239     684.7786  0.011836732 0.0098429386         2682 
 4822000   0.48702309   -8.2035614    685.67966  0.011849849 0.0098394736         2671 
 4823000   0.47341421   -8.2110987    685.37079  0.011842055 0.0098360129         2776 
 4824000   0.47594436   -8.2378423    685.75577  0.011846251 0.0098325546         2716 
 4825000   0.48023988   -8.2287464    686.27578  0.011852777 0.0098290958         2675 
 4826000   0.48200373   -8.2200115    685.61293  0.011838875 0.0098256388         2718 
 4827000   0.47510358   -8.2128227    686.45464  0.011850954 0.0098221818         2667 
 4828000   0.48425539   -8.2054501    685.19219  0.011826709 0.0098187262         2705 
 4829000   0.48284851   -8.2433793    685.11988  0.011823012 0.0098152742         2767 
 4830000   0.49050651   -8.2261969    685.09991  0.011820219 0.0098118195         2713 
 4831000   0.47293056   -8.2358675    685.01724  0.011816346   0.00980837         2723 
 4832000   0.47659171   -8.2222462    684.83365  0.011810735  0.009804924         2636 
 4833000   0.48366825   -8.2210288    684.73559    0.0118066  0.009801478         2719 
 4834000   0.48253409   -8.2336855    686.43676  0.011833484 0.0097980338         2704 
 4835000   0.47256278   -8.2079085     685.6736  0.011817884  0.009794591         2747 
 4836000   0.47242125   -8.2340091    684.50402  0.011795286 0.0097911506         2744 
 4837000   0.47763043   -8.2280854    686.44161  0.011826228 0.0097877129         2723 
 4838000   0.47425365    -8.222962    685.81003  0.011812905 0.0097842724         2715 
 4839000   0.46419502   -8.2170008      685.476  0.011804712 0.0097808336         2707 
 4840000    0.4693267   -8.2383824    686.01085  0.011811482 0.0097773971         2733 
 4841000   0.48373821   -8.2375148    685.63905  0.011802642 0.0097739623         2710 
 4842000   0.47915955   -8.2250331    686.83028  0.011820706 0.0097705294         2759 
 4843000   0.48725572   -8.2428416    685.13102  0.011789026 0.0097670969         2715 
 4844000   0.46412149    -8.230176      685.269  0.011788966 0.0097636703         2690 
 4845000   0.47616305   -8.2317764    685.84034   0.01179636 0.0097602409         2721 
 4846000   0.48547547   -8.2392893    685.07516  0.011780767 0.0097568151         2673 
 4847000   0.47346096    -8.227589    684.63849  0.011770829 0.0097533901         2732 
 4848000   0.48621369   -8.2186436    685.27288  0.011779306 0.0097499668         2768 
 4849000   0.47158951   -8.2235135    685.63016  0.011783016 0.0097465447         2759 
 4850000   0.48615951   -8.2434185    685.11729  0.011771775  0.009743125         2704 
 4851000   0.46232028   -8.2427036    684.93395  0.011766199 0.0097397061         2728 
 4852000    0.4749182   -8.2360945    685.63423  0.011775801 0.0097362898         2746 
 4853000     0.474905   -8.2290819    684.66312  0.011756699 0.0097328772         2706 
 4854000   0.46677521   -8.2116792    684.89703  0.011758293 0.0097294598         2723 
 4855000   0.47566212   -8.2382161     684.7466  0.011753289 0.0097260479         2727 
 4856000   0.46659507    -8.221982    685.11625  0.011757212 0.0097226393         2751 
 4857000   0.47441206   -8.2288693    685.11839  0.011754828 0.0097192297         2672 
 4858000   0.48004428   -8.2329796    686.10979  0.011769415 0.0097158213         2737 
 4859000   0.46278629   -8.2249168    685.30768  0.011753236  0.009712418         2735 
 4860000    0.4641147    -8.249421    685.03081   0.01174607 0.0097090124         2762 
 4861000   0.47855864   -8.2247641    685.03554  0.011743735 0.0097056073         2688 
 4862000   0.46825567   -8.2271282    686.24063  0.011761974 0.0097022072         2739 
 4863000   0.47170468    -8.235068    684.24843  0.011725417 0.0096988062         2759 
 4864000   0.46705695    -8.243076    685.56388  0.011745543 0.0096954071         2741 
 4865000    0.4687126   -8.2361884    685.18749  0.011736682 0.0096920084         2759 
 4866000   0.46563583   -8.2525778    685.49133  0.011739473 0.0096886146         2761 
 4867000   0.48031973    -8.223027    685.67135  0.011740144 0.0096852205         2732 
 4868000   0.46985058   -8.2291526    684.18563  0.011712298  0.009681829         2703 
 4869000   0.48039597   -8.2376599    685.45228  0.011731572 0.0096784375         2676 
 4870000   0.48326677    -8.233541    685.10532  0.011723226 0.0096750479         2703 
 4871000   0.47638171   -8.2497343     685.6284  0.011729768 0.0096716598         2710 
 4872000   0.46410599   -8.2438095    684.67101  0.011710985 0.0096682712         2699 
 4873000   0.46637566   -8.2382523    685.39104  0.011720895 0.0096648862         2778 
 4874000   0.47643823    -8.240226    684.86202  0.011709445  0.009661503         2739 
 4875000   0.47826968   -8.2370722    684.72708  0.011704736 0.0096581235         2692 
 4876000   0.46670685   -8.2497353     684.5869   0.01169994  0.009654745         2778 
 4877000   0.46847454     -8.23023    684.78933     0.011701 0.0096513669         2720 
 4878000   0.47652949   -8.2483581    684.18598  0.011688294 0.0096479876         2782 
 4879000   0.46897191   -8.2578135     685.1422  0.011702231 0.0096446116         2784 
 4880000   0.46344523   -8.2366987     685.4497  0.011705084 0.0096412367         2695 
 4881000   0.47987762   -8.2308633    684.48759  0.011686259 0.0096378638         2735 
 4882000   0.47487992   -8.2445126    684.30683   0.01168078 0.0096344928         2732 
 4883000   0.46483914   -8.2367531    685.09729  0.011691878 0.0096311216         2716 
 4884000   0.48226865   -8.2344768    684.98276   0.01168753 0.0096277549         2684 
 4885000   0.46816156    -8.242079    684.73971  0.011680991 0.0096243874         2709 
 4886000   0.46440481   -8.2322215    683.90468  0.011664359 0.0096210251         2781 
 4887000   0.45763974   -8.2322747    684.59941  0.011673818 0.0096176614         2774 
 4888000   0.47838062   -8.2347152    684.61473  0.011671691 0.0096142997         2829 
 4889000   0.46322987   -8.2376227    685.05548  0.011676817 0.0096109351         2679 
 4890000   0.46865525   -8.2321379     685.1544  0.011676115  0.009607575         2802 
 4891000   0.45685778   -8.2436064    685.39244  0.011677783 0.0096042192         2786 
 4892000   0.46479871   -8.2562576      684.583  0.011661607 0.0096008612         2769 
 4893000   0.46901132   -8.2543821    685.48965  0.011674665 0.0095975074         2765 
 4894000   0.46895462   -8.2506738    684.62763  0.011657602 0.0095941551         2685 
 4895000   0.47235451   -8.2391668    684.92214  0.011660234  0.009590807         2698 
 4896000    0.4611113   -8.2394924    684.72197  0.011654445  0.009587456         2703 
 4897000   0.46700897   -8.2285088    685.23379  0.011660775 0.0095841074         2731 
 4898000   0.47246227   -8.2442584    684.56961  0.011647094 0.0095807618         2769 
 4899000   0.46115597   -8.2514801    684.85303  0.011649538 0.0095774136         2736 
 4900000   0.46720918   -8.2611132    684.60853  0.011643002 0.0095740684         2757 
 4901000   0.47734174   -8.2488833    684.73562  0.011642788 0.0095707261         2722 
 4902000   0.47299293    -8.243764    685.04585  0.011645686 0.0095673874         2787 
 4903000   0.45826995   -8.2446059    684.33247  0.011631186 0.0095640488         2833 
 4904000   0.46181322   -8.2427572    684.95371  0.011639371 0.0095607108         2728 
 4905000   0.46660767    -8.238455    684.15815  0.011623482 0.0095573742         2696 
 4906000   0.46144603   -8.2420435    683.79059  0.011614869  0.009554039         2772 
 4907000    0.4657784   -8.2488163    685.10135  0.011634762 0.0095507065         2679 
 4908000   0.46987112   -8.2560964    684.27363  0.011618338  0.009547376         2757 
 4909000   0.46605925   -8.2423316    684.12991  0.011613531 0.0095440451         2726 
 4910000   0.46347849   -8.2500778    685.29885  0.011631006 0.0095407162         2738 
 4911000   0.46913016   -8.2443272    684.53146  0.011615616 0.0095373886         2728 
 4912000   0.46008508   -8.2538751    684.37345   0.01161057 0.0095340618         2814 
 4913000   0.46315576   -8.2431951    684.10866  0.011603716 0.0095307366         2757 
 4914000   0.47031989   -8.2299922    684.70738  0.011611508 0.0095274144         2728 
 4915000   0.46223494   -8.2359164    684.75993  0.011610036 0.0095240932         2802 
 4916000    0.4705644   -8.2318206    685.38836  0.011618327 0.0095207752         2662 
 4917000   0.46317164   -8.2360481    684.08859  0.011593936 0.0095174574         2739 
 4918000   0.46689722   -8.2552344    684.46636   0.01159798 0.0095141415         2740 
 4919000   0.46635079   -8.2547025    684.42168  0.011594865 0.0095108243         2790 
 4920000   0.46387117   -8.2370919     684.5505   0.01159469  0.009507513         2780 
 4921000    0.4615804   -8.2558425    684.79054  0.011596399 0.0095041999         2775 
 4922000    0.4623071   -8.2546393    684.49693  0.011589072 0.0095008902         2735 
 4923000   0.47372521   -8.2448514    684.48854  0.011586576 0.0094975805         2748 
 4924000   0.47597596   -8.2421215    684.95887  0.011592182 0.0094942743         2782 
 4925000   0.46311244   -8.2527112    685.49368  0.011598878 0.0094909702         2757 
 4926000   0.46227732   -8.2296844    684.96608  0.011587598 0.0094876667         2721 
 4927000   0.45840893   -8.2506792    685.92511  0.011601467 0.0094843622         2720 
 4928000   0.45775986   -8.2508297    684.79056  0.011579927 0.0094810634         2744 
 4929000   0.47163871   -8.2570138    684.26775  0.011568739 0.0094777674         2713 
 4930000   0.46792535   -8.2529078    684.84172  0.011576094 0.0094744699         2715 
 4931000   0.46255112   -8.2503204    685.90098  0.011591648 0.0094711724         2763 
 4932000   0.46465682   -8.2535213     684.1442  0.011559614  0.009467877         2759 
 4933000   0.46373693   -8.2451072    684.98043  0.011571397 0.0094645838         2772 
 4934000    0.4668638   -8.2624077    684.01888  0.011552812 0.0094612893         2752 
 4935000   0.46881595   -8.2357674    684.52415  0.011559003 0.0094579991         2755 
 4936000   0.46115973    -8.265571    684.37694  0.011554176 0.0094547099         2794 
 4937000   0.46228639   -8.2442768    684.01197  0.011545675 0.0094514218         2804 
 4938000   0.46555288   -8.2482511    684.52102  0.011551928 0.0094481345         2768 
 4939000   0.46462786   -8.2501323    685.46222  0.011565469 0.0094448499         2738 
 4940000   0.46810394   -8.2532507    683.34873  0.011527475 0.0094415668         2782 
 4941000   0.45609944   -8.2501556    683.54109  0.011528386 0.0094382824         2772 
 4942000   0.45645308   -8.2518252    683.42217  0.011524049 0.0094350037         2723 
 4943000   0.46490578   -8.2523519    684.49442  0.011539794 0.0094317218         2815 
 4944000   0.46117655   -8.2490805    684.09159   0.01153067 0.0094284418         2668 
 4945000   0.45722551   -8.2512081     683.7788  0.011523067 0.0094251646         2709 
 4946000   0.46009097   -8.2524519    684.44225  0.011531915 0.0094218921         2740 
 4947000    0.4593184   -8.2478018    685.02953  0.011539477 0.0094186169         2794 
 4948000   0.46503723   -8.2626583    686.44462  0.011560978 0.0094153445         2800 
 4949000   0.46177211   -8.2449713    684.94398  0.011533373 0.0094120746         2773 
 4950000   0.46123862   -8.2478875    683.02013  0.011498655 0.0094088053         2789 
 4951000   0.46656483    -8.254437    684.23043  0.011516704  0.009405542         2740 
 4952000   0.45650873   -8.2532893    683.94897  0.011509642 0.0094022756         2784 
 4953000   0.46152209   -8.2584173    683.92463  0.011506909 0.0093990115         2755 
 4954000   0.44678485   -8.2437296    685.14965  0.011525193 0.0093957485         2676 
 4955000   0.46373785   -8.2622132    683.77569  0.011499759  0.009392489         2742 
 4956000   0.46433481   -8.2564908    684.37348  0.011507491 0.0093892313         2710 
 4957000     0.472051   -8.2518159    683.91631  0.011497484 0.0093859724         2718 
 4958000    0.4533115   -8.2485783    684.39395  0.011503193 0.0093827183         2717 
 4959000   0.46555448   -8.2544226    683.79054  0.011490733 0.0093794624         2772 
 4960000   0.46219993   -8.2536752    683.75518  0.011487822 0.0093762079         2770 
 4961000   0.44939553   -8.2437347    683.78757  0.011486051 0.0093729569         2653 
 4962000   0.45595299   -8.2542307    684.21785  0.011490962 0.0093697051         2756 
 4963000   0.46117343   -8.2704295    683.91835  0.011483618 0.0093664544         2760 
 4964000   0.45607425   -8.2560543     684.6495  0.011493579 0.0093632095         2660 
 4965000    0.4593583   -8.2702271    684.64332   0.01149116 0.0093599628         2755 
 4966000   0.45799552   -8.2525874    684.89531  0.011493075 0.0093567179         2790 
 4967000   0.45104458   -8.2480338    683.33685  0.011464614 0.0093534738         2718 
 4968000   0.44953362    -8.255443    684.62568  0.011483925 0.0093502324         2750 
 4969000   0.47070761   -8.2509148    685.51388   0.01149651 0.0093469932         2783 
 4970000   0.46490149   -8.2461997    684.17881  0.011471811 0.0093437559         2811 
 4971000   0.45449517   -8.2634623    684.46904  0.011474369 0.0093405181         2785 
 4972000   0.45669176   -8.2613626    683.96072  0.011463541 0.0093372826         2768 
 4973000   0.46237552   -8.2487333    685.02736   0.01147911 0.0093340499         2751 
 4974000    0.4587713   -8.2687726    684.08075  0.011460943 0.0093308183         2775 
 4975000   0.45523699   -8.2615923    684.37896  0.011463634 0.0093275896         2684 
 4976000   0.44432987   -8.2599495    685.21704  0.011475366 0.0093243598         2693 
 4977000   0.46001194   -8.2668311    684.70937   0.01146456 0.0093211324         2812 
 4978000   0.45428391   -8.2494602    685.07217   0.01146833 0.0093179074         2733 
 4979000   0.44934608   -8.2503068    685.11509  0.011466745 0.0093146824         2806 
 4980000   0.45966614   -8.2511255    683.78757  0.011442228 0.0093114589         2732 
 4981000   0.45548485   -8.2655952    684.28229  0.011448208 0.0093082371         2786 
 4982000   0.45703502   -8.2678292    683.63149  0.011435024 0.0093050172         2757 
 4983000   0.45077798   -8.2632452    684.70911  0.011450751 0.0093017976         2752 
 4984000    0.4522941   -8.2682493     684.4142  0.011443523 0.0092985803         2827 
 4985000    0.4495225    -8.262638    684.16568  0.011437073 0.0092953647         2760 
 4986000   0.46060831   -8.2613285    682.98577  0.011415058 0.0092921505         2703 
 4987000   0.45356393   -8.2473544    683.59612  0.011422968 0.0092889374         2770 
 4988000   0.44800427   -8.2638324    684.04682  0.011428208 0.0092857285         2749 
 4989000   0.45764453   -8.2570135    684.57172  0.011434685 0.0092825159         2770 
 4990000   0.46234205   -8.2572264    684.40161  0.011429553 0.0092793079         2693 
 4991000   0.46116377   -8.2577544    684.57877   0.01143022 0.0092761016         2786 
 4992000   0.45980052   -8.2558757    684.85288  0.011432507 0.0092728955         2712 
 4993000    0.4531224   -8.2618362    684.07165  0.011417178 0.0092696894         2801 
 4994000   0.45556531   -8.2715727    685.35425  0.011436294 0.0092664841         2770 
 4995000   0.45934171   -8.2561789    684.34196  0.011417116 0.0092632832         2765 
 4996000   0.45826038   -8.2614285    683.95122  0.011408314 0.0092600824         2762 
 4997000   0.45405377   -8.2781752     685.0833   0.01142491 0.0092568825         2758 
 4998000   0.45189345   -8.2722472    684.26265  0.011408941 0.0092536846         2787 
 4999000    0.4518937   -8.2629367    684.03327  0.011402835 0.0092504861         2738 
 5000000   0.45888519   -8.2610494    683.91427  0.011398571   0.00924729         2724 
 5001000    0.4496458   -8.2629804    683.44213  0.011388424 0.0092440942         2707 
 5002000   0.45103082   -8.2680137    682.89901  0.011377099 0.0092409016         2812 
 5003000   0.44999384   -8.2572312    683.51916  0.011385155 0.0092377093         2707 
 5004000   0.45335955   -8.2730442    683.29456  0.011379139 0.0092345208         2755 
 5005000   0.44755617   -8.2675832    683.87643  0.011386554 0.0092313335         2794 
 5006000   0.44746577   -8.2641139     683.9529  0.011385552 0.0092281474         2734 
 5007000   0.45459561   -8.2778229    684.48841  0.011392191 0.0092249623         2832 
 5008000   0.45094219   -8.2650321    684.04809  0.011382589 0.0092217782         2769 
 5009000   0.45156573   -8.2785853    684.82563  0.011393253 0.0092185917         2775 
 5010000   0.45606227   -8.2625657    684.24431  0.011381309 0.0092154114         2797 
 5011000   0.45132182   -8.2634496    684.22059  0.011378643 0.0092122349         2719 
 5012000   0.45142339   -8.2697159    683.71379  0.011367947 0.0092090549         2791 
Loop time of 13240.2 on 48 procs for 5000000 steps with 4000 atoms

Performance: 65255.622 tau/day, 377.637 timesteps/s
99.4% CPU use with 48 MPI tasks x no OpenMP threads

MPI task timing breakdown:
Section |  min time  |  avg time  |  max time  |%varavg| %total
---------------------------------------------------------------
Pair    | 999.54     | 1083       | 1179.3     | 150.1 |  8.18
Neigh   | 92.117     | 96.021     | 99.326     |  20.5 |  0.73
Comm    | 835.2      | 936.75     | 1028.4     | 164.1 |  7.08
Output  | 17.608     | 17.614     | 17.722     |   0.4 |  0.13
Modify  | 10947      | 10985      | 11031      |  18.7 | 82.97
Other   |            | 121.3      |            |       |  0.92

Nlocal:        83.3333 ave          94 max          74 min
Histogram: 1 1 2 9 15 6 10 2 1 1
Nghost:        2451.02 ave        2464 max        2438 min
Histogram: 3 4 2 6 8 10 6 4 1 4
Neighs:        17050.5 ave       21145 max       14843 min
Histogram: 6 11 6 6 5 6 6 0 1 1
FullNghs:      34102.9 ave       38843 max       30190 min
Histogram: 2 1 6 11 9 9 7 2 0 1

Total # of neighbors = 1636938
Ave neighs/atom = 409.23450
Neighbor list builds = 266651
Dangerous builds = 0

#clear
#
#next RN
#
#jump SELF
Total wall time: 3:40:44
