
units lj                  # Use reduced LJ style units
atom_style atomic         # Uncharged point particles
atom_modify map hash      # Needed for indexing of clusters etc
                          # Used to be able to find where atoms are in relation to each other.

lattice fcc 1.0 spacing 1 1 1
Lattice spacing in x,y,z = 1.5874011 1.5874011 1.5874011
region box block 0 10 0 10 0 10 units lattice
create_box 2 box
Created orthogonal box = (0.0000000 0.0000000 0.0000000) to (15.874011 15.874011 15.874011)
  3 by 4 by 4 MPI processor grid
create_atoms 1 box
Created 4000 atoms
  using lattice units in orthogonal box = (0.0000000 0.0000000 0.0000000) to (15.874011 15.874011 15.874011)
  create_atoms CPU = 0.003 seconds
set type 1 type/fraction 2 0.1 78393
Setting atom values ...
  435 settings made for type/fraction
mass 1 1.0
mass 2 1.0
pair_style lj/cut  3.5
pair_modify tail  yes
pair_coeff 1  1  1.0  1.0   # Intearaction between 1 and 1 set with epsilon = 1 and sigma = 1
pair_coeff 1  2  1.5  0.8
pair_coeff 2  2  0.5  0.88

write_data data.0
System init for write_data ...
Neighbor list info ...
  update every 1 steps, delay 10 steps, check yes
  max neighbors/atom: 2000, page size: 100000
  master list distance cutoff = 3.8
  ghost atom cutoff = 3.8
  binsize = 1.9, bins = 9 9 9
  1 neighbor lists, perpetual/occasional/extra = 1 0 0
  (1) pair lj/cut, perpetual
      attributes: half, newton on
      pair build: half/bin/atomonly/newton
      stencil: half/bin/3d
      bin: standard
WARNING: Not all mixed pair coeffs generated from mixing. Use write_data with 'pair ij' option to store all pair coeffs. (../write_data.cpp:312)


#############################
#   M E L T   S Y S T E M   #
#############################

velocity all create 2.4 5833274 mom yes dist gaussian # Assign velocities
                                                    # Temperature 2.4, random number seed, zero linear momentum
                                                                                # Gaussian distribution

timestep 0.002   # simulation timestep
thermo 1000       # output thermodynamic data every 1000 steps bf 100

# Define a fix  in this case with index 1 applied to all
# particles in the simulation. This fix is for simulations
# in the anisotropic NPT ensemble. Note that we use the MTK
# correction.
fix 1 all npt temp 2.4 2.4 0.1 iso 5.68 5.68 0.5 mtk yes tchain 5 pchain 5 # Use NPT ensemble
                                                                         # Set temperature and pressure and damping
                                                                         # Numbers of thermostats in chain and in barostat
run 10000          # run for 10000 steps
Per MPI rank memory allocation (min/avg/max) = 3.642 | 3.644 | 3.648 Mbytes
Step Temp E_pair E_mol TotEng Press Volume 
       0          2.4   -7.6732445            0   -4.0741445   -3.0506691         4000 
    1000    2.4077406   -4.5728109            0  -0.96210291    5.7587485    4850.2556 
    2000    2.4244008   -4.6713099            0   -1.0356178    5.5165179    4816.9639 
    3000    2.4396337   -4.6040775            0   -0.9455418    5.7299254    4843.4435 
    4000     2.398304   -4.6108352            0   -1.0142786    5.6977735    4826.3389 
    5000    2.3483507   -4.5986125            0   -1.0769671    5.6271073     4836.652 
    6000    2.4088551   -4.5715343            0  -0.95915501    5.8459419    4825.8524 
    7000    2.4250711   -4.5996922            0  -0.96299493    5.8732968    4819.3386 
    8000    2.4070081   -4.6287922            0   -1.0191826    5.6677279    4818.4966 
    9000    2.3780863   -4.6548412            0   -1.0886035    5.4826807     4838.451 
   10000    2.3708289     -4.57954            0   -1.0241857    5.8721321    4819.0376 
Loop time of 2.21583 on 48 procs for 10000 steps with 4000 atoms

Performance: 779843.219 tau/day, 4512.982 timesteps/s
99.7% CPU use with 48 MPI tasks x no OpenMP threads

MPI task timing breakdown:
Section |  min time  |  avg time  |  max time  |%varavg| %total
---------------------------------------------------------------
Pair    | 0.88604    | 0.96276    | 1.1331     |   4.3 | 43.45
Neigh   | 0.18871    | 0.19852    | 0.22767    |   1.7 |  8.96
Comm    | 0.60156    | 0.78864    | 0.92125    |   6.6 | 35.59
Output  | 0.00023899 | 0.00024413 | 0.00030634 |   0.0 |  0.01
Modify  | 0.19269    | 0.25154    | 0.33724    |   7.4 | 11.35
Other   |            | 0.01413    |            |       |  0.64

Nlocal:        83.3333 ave          95 max          75 min
Histogram: 2 6 1 6 14 11 7 0 0 1
Nghost:        1447.12 ave        1463 max        1431 min
Histogram: 4 5 3 5 5 7 8 3 5 3
Neighs:        7906.31 ave        9509 max        6953 min
Histogram: 5 2 7 12 14 5 2 0 0 1

Total # of neighbors = 379503
Ave neighs/atom = 94.875750
Neighbor list builds = 908
Dangerous builds = 230

# Equilibrate just above the melting temperature to avoid step fn in T

fix 1 all npt temp 1.25 1.25 0.1 iso 5.68 5.68 0.5 mtk yes tchain 5 pchain 5
run 2000
Per MPI rank memory allocation (min/avg/max) = 3.642 | 3.644 | 3.648 Mbytes
Step Temp E_pair E_mol TotEng Press Volume 
   10000    2.3708289     -4.57954            0   -1.0241857    5.8721321    4819.0376 
   11000    1.2442646   -6.2179882            0   -4.3520579    5.5938435    3981.4526 
   12000    1.2528777   -6.1937075            0   -4.3148607    6.0917315    3955.6856 
Loop time of 0.476802 on 48 procs for 2000 steps with 4000 atoms

Performance: 724828.848 tau/day, 4194.611 timesteps/s
99.7% CPU use with 48 MPI tasks x no OpenMP threads

MPI task timing breakdown:
Section |  min time  |  avg time  |  max time  |%varavg| %total
---------------------------------------------------------------
Pair    | 0.20547    | 0.22332    | 0.26792    |   2.4 | 46.84
Neigh   | 0.030053   | 0.032867   | 0.038964   |   0.8 |  6.89
Comm    | 0.12398    | 0.16767    | 0.19083    |   3.3 | 35.17
Output  | 5.0064e-05 | 5.1718e-05 | 6.5689e-05 |   0.0 |  0.01
Modify  | 0.036383   | 0.048577   | 0.065636   |   3.4 | 10.19
Other   |            | 0.004315   |            |       |  0.91

Nlocal:        83.3333 ave          93 max          76 min
Histogram: 2 12 0 5 9 11 2 4 1 2
Nghost:        1649.98 ave        1671 max        1626 min
Histogram: 3 3 2 5 8 7 6 2 9 3
Neighs:        9644.44 ave       10749 max        8501 min
Histogram: 3 2 6 5 3 11 10 4 1 3

Total # of neighbors = 462933
Ave neighs/atom = 115.73325
Neighbor list builds = 142
Dangerous builds = 9

#############################
# L I N E A R  Q U E N C H  #
#############################

# Define solid atoms. This closely follows ten Wolde  Ruiz-Montero and Frenkel  Faraday Discuss  1996  104  93-110
# Compute components of the per-atom q6 vector
compute q6 all orientorder/atom degrees 1 6 components 6 nnn NULL cutoff 1.3 # compute the Q6 parameter.
                                                                             # Use all neighbours within 1.3 unit cell.

# get number of connections
compute coord_number all coord/atom orientorder q6 0.5

# An atom is solid if it has 8 or more connections (of a possible 14)
variable is_solid atom c_coord_number>=8
group solid dynamic all var is_solid    # Must be dynamic to update
dynamic group solid defined

# do clustering
compute cluster solid cluster/atom 1.3 # Create a cluster where all atoms within are solid and max 1.3 units from another member

# define chunks one chunk per cluster
compute clus_chunks solid chunk/atom c_cluster nchunk every compress yes  # Says which atoms are in which chunk

# count the size of each chunk
compute size_chunks solid property/chunk clus_chunks count


# Find the maximum entry in the vector of chunk sizes
variable max_n equal max(c_size_chunks)


# Thermo style which includes this variable
# thermo_style custom step temp pe vol v_max_n

thermo ${N}  # Print the thermo information every 100 steps
thermo 1000  

# Reset the npt fix at a lower temperature (below freezing)
fix 1  all npt temp  ${temp} ${temp}  0.1  iso  5.68  5.68  0.5  mtk yes tchain  5  pchain  5
fix 1  all npt temp  0.45 ${temp}  0.1  iso  5.68  5.68  0.5  mtk yes tchain  5  pchain  5
fix 1  all npt temp  0.45 0.45  0.1  iso  5.68  5.68  0.5  mtk yes tchain  5  pchain  5

dump dmp2 all dcd ${N} traj.dcd
dump dmp2 all dcd 1000 traj.dcd


compute msd all msd com yes
variable twopoint equal c_msd[4]/6/(step*dt+1.0e-6)
fix 9 all vector 10 c_msd[4]
variable fit equal slope(f_9)/6/(10*dt)
thermo_style custom step temp pe c_msd[4] v_twopoint v_fit v_max_n

fix 1 all npt temp 1.25 ${temp} 0.1 iso 5.68 5.68 0.5 mtk yes tchain 5 pchain 5
fix 1 all npt temp 1.25 0.45 0.1 iso 5.68 5.68 0.5 mtk yes tchain 5 pchain 5
run 5000000 # 5000000  # Run for this many steps
Neighbor list info ...
  update every 1 steps, delay 10 steps, check yes
  max neighbors/atom: 2000, page size: 100000
  master list distance cutoff = 3.8
  ghost atom cutoff = 3.8
  binsize = 1.9, bins = 9 9 9
  4 neighbor lists, perpetual/occasional/extra = 1 3 0
  (1) pair lj/cut, perpetual
      attributes: half, newton on
      pair build: half/bin/atomonly/newton
      stencil: half/bin/3d
      bin: standard
  (2) compute orientorder/atom, occasional
      attributes: full, newton on
      pair build: full/bin/atomonly
      stencil: full/bin/3d
      bin: standard
  (3) compute coord/atom, occasional
      attributes: full, newton on
      pair build: full/bin/atomonly
      stencil: full/bin/3d
      bin: standard
  (4) compute cluster/atom, occasional
      attributes: full, newton on
      pair build: full/bin/atomonly
      stencil: full/bin/3d
      bin: standard
Per MPI rank memory allocation (min/avg/max) = 9.751 | 9.757 | 9.762 Mbytes
Step Temp PotEng c_msd[4] v_twopoint v_fit v_max_n 
   12000    1.2528777   -6.1937075 1.4631398e-30 1.0160692e-32 8.3333333e+20            1 
   13000     1.239197   -6.2752878   0.55769761 0.0035749845   0.04540723            2 
   14000    1.2512438   -6.2301825    1.0868515 0.0064693537   0.04529568            3 
   15000    1.2425153   -6.2356091     1.607274 0.0089292996  0.043919439            2 
   16000    1.2598027   -6.2273769    2.1363421  0.011126782  0.043941868            2 
   17000    1.2466404   -6.2059572    2.7330753  0.013397427  0.044725296            2 
   18000    1.2725431   -6.2064198    3.3250281  0.015393648  0.045521387            4 
   19000    1.2494357   -6.2025179    3.9324314  0.017247506  0.046070866            2 
   20000    1.2484727   -6.2311175    4.5641847  0.019017436  0.046895318            1 
   21000    1.2252088   -6.2097451    5.1171098  0.020305991  0.047601402            3 
   22000    1.2503032    -6.232618    5.6290906  0.021322312  0.047524546            3 
   23000    1.2617795   -6.2377884    6.1891582  0.022424486   0.04740289            2 
   24000    1.2553128   -6.2455463    6.7134942  0.023310743  0.047293493            3 
   25000    1.2359651   -6.2242582    7.2642033   0.02421401   0.04716237            1 
   26000    1.2347558   -6.2080344    7.8470349  0.025150752  0.047084131            3 
   27000    1.2445496   -6.2628265    8.3882582  0.025889685  0.047048455            3 
   28000    1.2368201   -6.2382368    8.8332281  0.026289369  0.046854283            2 
   29000    1.2290011    -6.256053    9.3574288  0.026889163  0.046646231            3 
   30000    1.2447376   -6.2586109    9.9431959  0.027619988  0.046442316            2 
   31000    1.2491485   -6.1973793     10.46616  0.028134838  0.046321147            4 
   32000     1.238011   -6.2103009    11.051265  0.028779335  0.046199621            5 
   33000    1.2896027    -6.224141    11.610741  0.029320052  0.046139559            2 
   34000     1.266888   -6.2058048    12.107147  0.029674378    0.0460544            2 
   35000    1.2423383    -6.264479    12.505037  0.029773897  0.045915878            1 
   36000    1.2397335   -6.2450217    13.181769  0.030513353  0.045836906            3 
   37000    1.2354996   -6.2067436    13.808958  0.031101257  0.045829839            3 
   38000    1.2486096   -6.2324775    14.265695  0.031284419  0.045847561            3 
   39000    1.2450961   -6.2149301    14.788554  0.031599473  0.045783867            1 
   40000    1.2379095   -6.2145523    15.393772  0.032070358   0.04570755            2 
   41000    1.2576873   -6.2013891    16.033019  0.032587437  0.045732065            1 
   42000    1.2542313   -6.2186698    16.695169  0.033125334   0.04580529            2 
   43000    1.2663669   -6.1995206    17.415961  0.033751863  0.045930772            3 
   44000    1.2377919   -6.1856545    17.920701  0.033940722  0.046052014            3 
   45000    1.2498025   -6.2067656      18.5088  0.034275556   0.04612946            2 
   46000    1.2690795   -6.2424137    18.927215  0.034288432  0.046188826            2 
   47000    1.2697846   -6.2342877    19.373503  0.034350183  0.046167711            5 
   48000    1.2454159   -6.2325522    19.898532  0.034546062  0.046165489            5 
   49000     1.247126   -6.2837499    20.428649    0.0347426  0.046157733            3 
   50000    1.2415231   -6.2385822    21.223622  0.035372704  0.046170026            3 
   51000    1.2301819   -6.2152777    21.873451  0.035740932  0.046221169            1 
   52000    1.2409794   -6.2061812    22.269849  0.035688861  0.046269137            4 
   53000    1.2408635    -6.245113    22.683189  0.035665391   0.04626369            2 
   54000    1.2246971   -6.2476848    23.285069  0.035933749   0.04625095            3 
   55000    1.2353877    -6.209658    23.808328  0.036073224   0.04624381            1 
   56000    1.2379465   -6.2361364    24.180266  0.035982539  0.046223345            2 
   57000    1.2585477   -6.2532777    24.561291   0.03590832  0.046152443            3 
   58000     1.257293   -6.2437444    25.181393  0.036180162  0.046090788            3 
   59000    1.2509788   -6.2328236    25.626835  0.036196094  0.046020287            3 
   60000    1.2588033    -6.253587    25.999259  0.036110081  0.045931707            2 
   61000    1.2270479   -6.1999618    26.613616  0.036357399  0.045832985            6 
   62000    1.2510143   -6.2559269    27.130027   0.03646509  0.045740981            4 
   63000    1.2470287   -6.2381062     27.42784  0.036280212  0.045630363            2 
   64000    1.1997798   -6.2343918    27.997992  0.036455719  0.045502259            3 
   65000    1.2314177   -6.2134053    28.458504  0.036485261  0.045392839            9 
   66000    1.2615581   -6.2602693    28.989772  0.036603247  0.045303219            2 
   67000    1.2363236   -6.2359141    29.374857  0.036535891  0.045198213            4 
   68000     1.224304   -6.2246122    29.805074  0.036525826  0.045088454            2 
   69000    1.2519148   -6.2420767    30.480006  0.036811601  0.044983932            3 
   70000    1.2473146    -6.206975    31.008793   0.03691523  0.044914122            2 
   71000    1.2698681   -6.2721012    31.418014  0.036875603  0.044829254            3 
   72000    1.2461628   -6.2096313    32.011125  0.037049913  0.044753663            3 
   73000    1.2615137   -6.2345852     32.55549  0.037163801  0.044695158            1 
   74000    1.2509401   -6.2181054    33.189732  0.037375824  0.044638593            2 
   75000    1.2289648   -6.2457612    33.563386  0.037292651   0.04457411            1 
   76000    1.2411585   -6.2346168    34.100173  0.037390541  0.044518381            2 
   77000    1.2609681   -6.2388008    34.753577  0.037612096  0.044477096            3 
   78000    1.2162005   -6.2307531    35.323258  0.037738523   0.04444233            2 
   79000    1.2141461   -6.2197521    35.642839  0.037597931  0.044398803            1 
   80000    1.2597456   -6.2490531    35.884998  0.037380206  0.044327416            4 
   81000    1.2411892   -6.2380446    36.311172  0.037357173  0.044249908            2 
   82000    1.2484788   -6.3015319    36.739201  0.037336586  0.044180216            4 
   83000    1.2164638   -6.2484502    37.319063  0.037468938  0.044103161            3 
   84000    1.2458097   -6.2472671    37.840992  0.037540667  0.044039639            5 
   85000    1.2339161   -6.2464051    38.160552  0.037412306  0.043964667            3 
   86000    1.2081422   -6.2271518    38.548981  0.037353664  0.043892124            3 
   87000    1.2096478   -6.2346943    39.029431  0.037384512  0.043817149            3 
   88000    1.2487759   -6.1853422    39.752805  0.037644702  0.043742408            4 
   89000    1.2456782   -6.2301194    39.970302  0.037425376  0.043663762            1 
   90000     1.219967   -6.2183373      40.6382  0.037627963  0.043587585            2 
   91000    1.2340271   -6.2135079    40.792997  0.037356224  0.043507499            2 
   92000    1.2240596   -6.2430087        41.32  0.037427536  0.043423807            2 
   93000    1.2311026   -6.2231323    41.801692  0.037456713  0.043341749            4 
   94000    1.2362283   -6.2318735    42.281761   0.03748383  0.043266719           10 
   95000    1.2373624   -6.2653976    43.027329  0.037743271  0.043199348            4 
   96000    1.2230967   -6.2673207    43.702929   0.03793657   0.04314633            2 
   97000    1.2004089   -6.2377501    44.224464  0.037993526  0.043109448            1 
   98000    1.2256454    -6.265893    44.916028  0.038193901  0.043075151            1 
   99000    1.2446472   -6.2516792    45.327865  0.038154768  0.043052991            1 
  100000     1.233079    -6.241785    45.799249  0.038166041  0.043026813            3 
  101000    1.2250393   -6.2351859    46.299538  0.038200939  0.043000901            2 
  102000    1.2441599   -6.2610291    46.891468  0.038310023  0.042969979            2 
  103000    1.2272214   -6.2551922    47.280554  0.038252875  0.042941639            1 
  104000    1.2439173   -6.2099742    48.087205  0.038531414  0.042921921            1 
  105000    1.2139339   -6.2028475    48.802245   0.03873194  0.042917651            2 
  106000    1.2416295    -6.217027    49.094935  0.038596647   0.04291346            2 
  107000    1.2364212   -6.2179911    49.801796  0.038786445  0.042905771            4 
  108000    1.2489287   -6.2061002     50.31179  0.038820825  0.042904288            3 
  109000    1.2428429   -6.2699613     50.77864   0.03882159  0.042907445            2 
  110000    1.2498029   -6.2653502    51.329392  0.038885903  0.042910039            2 
  111000     1.246532   -6.2197355    51.861468  0.038935036  0.042905145            5 
  112000    1.2453545   -6.2551506    52.170754  0.038817525  0.042901401            3 
  113000     1.257692   -6.2421268    52.894286  0.039007585  0.042897122            2 
  114000    1.2441342   -6.2935786    53.253822  0.038928232  0.042896314            2 
  115000     1.224164   -6.2403941    54.045777  0.039163606  0.042903902            1 
  116000    1.2183369   -6.2192037    54.459327  0.039123079  0.042910592            1 
  117000    1.2472702   -6.2177794    55.109432  0.039251732  0.042920872            2 
  118000    1.2429765   -6.2256117     55.51904  0.039208362  0.042925927            3 
  119000    1.2304946   -6.2592266    56.009472  0.039222319  0.042927261            2 
  120000    1.2306819   -6.2339081    56.477615  0.039220566  0.042928662            3 
  121000     1.231869    -6.273762    57.051181  0.039291447  0.042929139            5 
  122000    1.2441858   -6.2333486    57.626951  0.039362671  0.042934746            2 
  123000    1.2476711   -6.2569993    58.163554  0.039406202  0.042936992            2 
  124000    1.2354087   -6.2668889    58.647203  0.039413443  0.042942278            2 
  125000    1.2478598   -6.2344863    59.159669  0.039439779  0.042943019            2 
  126000    1.2197102    -6.266383    59.264266  0.039195943  0.042938331            3 
  127000    1.2166357   -6.2844792    59.657222  0.039145158   0.04292666            4 
  128000    1.2260399   -6.2325626    60.427959  0.039341119  0.042918153            5 
  129000    1.2239756   -6.2368695    60.901219  0.039341872  0.042911225            4 
  130000    1.2104786   -6.2031272    61.178931  0.039217263  0.042900433            2 
  131000    1.2284921   -6.2708852    61.731681  0.039269517   0.04288904            3 
  132000    1.2443492   -6.2698992    62.219907  0.039280244  0.042878632            3 
  133000    1.2153413   -6.3163251    62.783573  0.039338078   0.04286912            3 
  134000    1.2542232   -6.2294453    63.631626  0.039571906  0.042863779            2 
  135000    1.2315056    -6.234087    64.013429  0.039514463  0.042857161            1 
  136000    1.2077888   -6.2585568    64.654693  0.039616846  0.042850711            6 
  137000    1.2549545   -6.2688794    64.941578  0.039502176  0.042845817            2 
  138000    1.2353597   -6.2718953    65.584865  0.039604387  0.042840722            2 
  139000    1.2142976   -6.2901176    66.139239  0.039651822  0.042843782            2 
  140000    1.2204585    -6.250815    66.530172  0.039601293  0.042843187            4 
  141000    1.2063161    -6.269454    67.270071  0.039757725  0.042842119            3 
  142000    1.2358297    -6.246887    67.726856  0.039745808  0.042844163            2 
  143000      1.24241   -6.2047737    68.835824  0.040114116  0.042848122            2 
  144000    1.2398183   -6.2690637    69.118666  0.039999228  0.042858998            1 
  145000    1.2230839   -6.2620018    69.668288  0.040039246  0.042872073            4 
  146000    1.2278509   -6.2333739    70.680965  0.040343017   0.04288798            5 
  147000    1.2722656   -6.2556428    71.430863  0.040493686   0.04291003            5 
  148000     1.208577   -6.2987418    71.756143  0.040403234  0.042932536            2 
  149000    1.2249394   -6.3060609    72.175134  0.040366406  0.042955543            3 
  150000    1.2418525    -6.257045    72.742256  0.040412365  0.042978496            2 
  151000    1.2109824    -6.264132    73.221078  0.040408984   0.04299323            2 
  152000    1.2497736   -6.2825722     73.43428  0.040260022  0.043005962            4 
  153000    1.2089804   -6.2397648    73.758919  0.040173703  0.043012803            3 
  154000    1.2043592   -6.2694214    74.195928  0.040149312  0.043013734            2 
  155000    1.2387455   -6.2528785    74.868175  0.040251707  0.043016315            2 
  156000    1.1959535   -6.2530623    75.329777  0.040240265  0.043020199            2 
  157000    1.2582453   -6.2728151    75.717437  0.040189722   0.04302477            1 
  158000     1.256201   -6.2663993    76.172173  0.040175196  0.043027908            5 
  159000    1.2369786    -6.284284    76.762816  0.040232084  0.043032037            2 
  160000    1.2307422    -6.255105    77.675538  0.040456009  0.043038357            2 
  161000    1.2298514   -6.2278035     78.03455  0.040390554  0.043046716            5 
  162000    1.2175779   -6.2465008    78.792831  0.040531291  0.043056032            2 
  163000    1.1936956    -6.266801    78.828638  0.040300939  0.043061235            3 
  164000    1.2280202   -6.2314184    79.751009  0.040523887  0.043066924            3 
  165000    1.2304399   -6.2802187    80.138591  0.040474036  0.043070129            2 
  166000    1.2060717   -6.2392688    80.839568  0.040582112  0.043078349            2 
  167000    1.2573635   -6.2251668    81.429721  0.040633593  0.043091384            3 
  168000    1.2407611   -6.2851474    81.769043  0.040560041  0.043102799            3 
  169000    1.2059732   -6.2295897    82.380558  0.040621577  0.043113364            2 
  170000      1.22254   -6.2608683    83.012363  0.040692335   0.04312356            2 
  171000     1.245797   -6.2732262    83.459416   0.04067223  0.043131573            2 
  172000    1.2103373   -6.2636827    84.036569  0.040715392  0.043139628            2 
  173000    1.2183929   -6.2535968    84.607775   0.04075519  0.043153057            2 
  174000    1.2180305   -6.2303836     85.43614  0.040917691   0.04316635            1 
  175000    1.2228126   -6.2690388    86.080467  0.040990698  0.043182008            2 
  176000    1.2355825   -6.2492675    86.489683  0.040951554  0.043197536            6 
  177000    1.2436529   -6.2593223    86.919857   0.04092272  0.043210604            6 
  178000    1.2237484   -6.2386326     87.26629  0.040855005  0.043222332            1 
  179000    1.2321671    -6.266221    88.088397  0.041009496   0.04323139            2 
  180000    1.2233881   -6.3170447    88.469137  0.040957934  0.043243174            2 
  181000    1.2166208   -6.2652423    88.998286   0.04097527  0.043254499            3 
  182000    1.2488053   -6.2787872    89.545627  0.041000745  0.043268055            4 
  183000    1.2369925   -6.2522993    90.275925  0.041109255  0.043281565            1 
  184000    1.2888817   -6.2338651    91.285634  0.041343131  0.043300304            2 
  185000     1.189619   -6.2822814    91.490347  0.041211868  0.043318068            1 
  186000    1.2329053   -6.2385832     91.99003  0.041214171  0.043331904            3 
  187000    1.2014529    -6.240304    92.176842  0.041077024  0.043344266            2 
  188000    1.2159616   -6.2717251    93.051217  0.041246107   0.04335746            2 
  189000    1.2388698   -6.2846206    93.205666  0.041095973   0.04337065            2 
  190000    1.2071309   -6.2916414    94.080372  0.041263321  0.043381343            3 
  191000    1.2051198   -6.2910132     94.11262  0.041061353  0.043386085            3 
  192000    1.2240923   -6.2750231    94.002666  0.040799768  0.043386888            4 
  193000    1.2350553   -6.2720915    94.471144  0.040790649  0.043385614            4 
  194000    1.2147368   -6.2463214    94.888764  0.040759778  0.043383515            3 
  195000    1.1796555   -6.3182657    95.651025  0.040876506  0.043381032            2 
  196000    1.2252518   -6.2834769    95.945264  0.040793054  0.043376989            7 
  197000    1.2595252   -6.2663269    96.541363   0.04083814  0.043373148            5 
  198000    1.2124506   -6.2984528    96.785019  0.040734436  0.043370589            3 
  199000    1.2562543   -6.2839696    97.498926  0.040828696  0.043367584            4 
  200000    1.2315494   -6.2744123    98.202788  0.040917828  0.043364069            4 
  201000    1.2477265   -6.2717806    99.019874  0.041053015  0.043361169            3 
  202000    1.2243735   -6.3198757     99.27065  0.040953238  0.043360778            4 
  203000    1.2138618   -6.3018601    99.721287  0.040936489  0.043358533            2 
  204000    1.2344875   -6.2607522    100.15395  0.040912559  0.043356001            2 
  205000    1.2411871   -6.2688583    100.57802  0.040885374  0.043352161            2 
  206000    1.2396342   -6.2602023    101.17966  0.040930284  0.043346014            6 
  207000    1.2174723   -6.2555333      101.912  0.041027373  0.043343911            2 
  208000    1.2180554   -6.2687116    102.79874  0.041185391   0.04334599            3 
  209000    1.1941909   -6.2867116    103.05039  0.041088673  0.043347427            2 
  210000    1.2236486   -6.2715339    103.83615   0.04120482  0.043347863            4 
  211000    1.2272556   -6.2805666    104.33287  0.041205715  0.043350714            6 
  212000    1.2170366   -6.2943823    104.97591  0.041264117  0.043351429            3 
  213000    1.2312396   -6.2966381    105.12982  0.041130601  0.043351709            2 
  214000    1.2210908   -6.2849279    105.56946  0.041109603  0.043349967            2 
  215000    1.1878829   -6.2642641    105.81958  0.041015339  0.043345935            3 
  216000    1.2052674   -6.3119472    105.89692  0.040855292   0.04334229            3 
  217000    1.2333652   -6.2484933    106.75747  0.040997491  0.043335406            1 
  218000    1.2095221   -6.3169502     106.9914  0.040898853  0.043328134            2 
  219000    1.1950741   -6.2864643    107.16887  0.040779629  0.043317001            3 
  220000    1.2089594   -6.2553505    107.80955  0.040836952  0.043304428            3 
  221000    1.2268206   -6.2241515    108.37769  0.040866397  0.043294149            2 
  222000    1.1945228   -6.2823575    108.69405  0.040801069  0.043286369            2 
  223000    1.2120982   -6.2646313    109.27217  0.040834143  0.043276938            2 
  224000    1.2321405   -6.2778228     110.5113  0.041112834  0.043269892            1 
  225000    1.2193783   -6.3120628    110.31257  0.040856508  0.043262281            3 
  226000    1.2058852   -6.2771646    111.20069  0.041003204   0.04325622            2 
  227000    1.2091927   -6.2517129    111.55846  0.040953912   0.04324769            4 
  228000    1.2256381   -6.2721927    112.06283  0.040958637  0.043240603            2 
  229000    1.1814291   -6.2827918    112.46967  0.040927827  0.043233341            3 
  230000    1.2221184   -6.2907033     113.2198  0.041021668  0.043224392            4 
  231000     1.198559   -6.2734513     113.2478  0.040854184  0.043214791            3 
  232000    1.1987892   -6.2830185    113.84679  0.040893242  0.043205786            5 
  233000     1.192321   -6.2529128    114.86427  0.041081641  0.043197639            2 
  234000    1.2183984   -6.2740074    114.55869  0.040797254  0.043189109            3 
  235000    1.2052551   -6.2914671    115.24674  0.040867637  0.043179997            2 
  236000     1.223879   -6.2738116    115.75341  0.040873379  0.043169033            4 
  237000    1.2189628   -6.2673804    115.56737  0.040635503   0.04315689            3 
  238000    1.2116949   -6.2596233    116.41207  0.040760529  0.043143407            4 
  239000    1.2069581   -6.3091892     116.8629  0.040747176  0.043131122            1 
  240000     1.213688   -6.3034463    117.29952  0.040728999  0.043118479            4 
  241000    1.2183775   -6.3052164    117.94356  0.040782698  0.043105693            6 
  242000    1.2126172   -6.3104986    118.42195  0.040778908  0.043092186            2 
  243000    1.1867645   -6.2930086    118.58973  0.040668631  0.043079545            3 
  244000    1.2156426   -6.2853334    119.49823  0.040812238  0.043066035            4 
  245000    1.1834908   -6.2886205    119.58842  0.040676332  0.043052878            2 
  246000    1.2092169   -6.3250266    119.75023  0.040565795  0.043038376            3 
  247000    1.1891721   -6.2880076    120.70853  0.040724874  0.043024145            2 
  248000    1.2223911   -6.2564589    121.54566  0.040841956  0.043012446            4 
  249000    1.2030618   -6.2589798    122.29047  0.040927199  0.043001681            3 
  250000    1.2011754   -6.2938044     122.7203  0.040906766  0.042992905            5 
  251000    1.1892445   -6.2793422    123.12117  0.040876882  0.042985083            2 
  252000    1.2196425   -6.2586967    124.03317  0.041016259  0.042978318            3 
  253000    1.2084211   -6.2929844    124.80156  0.041107233  0.042972742            2 
  254000    1.2318109    -6.286632    124.88194  0.040971763  0.042968182            4 
  255000    1.2288944    -6.303731    125.62812  0.041054941   0.04296352            3 
  256000    1.1880634   -6.2735526    126.18656  0.041076354   0.04295843            3 
  257000    1.1821311   -6.2750718    126.43117   0.04099584   0.04295165            2 
  258000    1.1923844   -6.3027633    126.59668    0.0408904  0.042944057            2 
  259000    1.2074978   -6.2746904    127.45426  0.041008449  0.042937285            2 
  260000    1.2298371   -6.3263536    127.75972  0.040948629  0.042932108            3 
  261000    1.2031373   -6.2715274    129.21563  0.041256587  0.042927708            1 
  262000    1.2284755   -6.3179771    129.75085  0.041269355  0.042927633            5 
  263000    1.2201413   -6.3130207    130.44392  0.041332039  0.042928249            2 
  264000    1.1910668   -6.2848971    131.23029  0.041423703  0.042931051            2 
  265000     1.216554   -6.3216654     131.5081  0.041354747  0.042934257            4 
  266000    1.2151831   -6.2656622    132.21817  0.041421731  0.042936904            4 
  267000    1.1925964    -6.319437    132.51738  0.041359981  0.042938557            2 
  268000     1.209749   -6.2649169    133.02642  0.041363936  0.042941045            1 
  269000    1.1861161   -6.2858346    133.65054  0.041403513  0.042943441            6 
  270000    1.2402768    -6.286982    133.68291  0.041260157   0.04294415            2 
  271000    1.2164931   -6.2452608    134.60454  0.041391309  0.042942983            4 
  272000    1.2295276   -6.2899928    134.92767  0.041338133  0.042941761            4 
  273000    1.2078221   -6.2610594    135.17915  0.041263476   0.04293925            3 
  274000    1.1680303   -6.3028469    135.33922  0.041161565  0.042936168            3 
  275000    1.2177805   -6.2635026    136.50537  0.041365264  0.042933597            4 
  276000    1.1989142   -6.3100837    136.31485  0.041157865  0.042931661            3 
  277000    1.2108085   -6.2668547    136.83142  0.041164687  0.042925372            1 
  278000    1.1760806   -6.2470282    136.87369  0.041029284  0.042917445            4 
  279000    1.2032171   -6.2773166    137.06928  0.040940646  0.042909343            2 
  280000     1.217194   -6.2873999    138.27537  0.041153384  0.042901628            2 
  281000    1.1895303   -6.2780585    138.18083  0.040978895  0.042893873            2 
  282000    1.2102852   -6.2716036    138.56439  0.040946925  0.042885447            6 
  283000    1.2056244   -6.2907998    139.32106  0.041025047  0.042877312            5 
  284000    1.1656372   -6.2971974    139.46257  0.040922114  0.042868485            4 
  285000    1.2303195   -6.3208211    139.64514  0.040831911  0.042858795            3 
  286000    1.1912071   -6.3101861    140.86185  0.041043663  0.042850414            3 
  287000    1.2039046   -6.3097122    141.09061  0.040967075   0.04284092            3 
  288000     1.216307   -6.2814731    141.72586   0.04100864  0.042831765            2 
  289000    1.2038957    -6.297946    141.86657  0.040907314  0.042822646            3 
  290000    1.2187467   -6.3315619    142.03688  0.040815194  0.042812574            2 
  291000    1.2114123   -6.2907023    142.74848  0.040878717  0.042801619            4 
  292000    1.1858745   -6.2674406    143.07756  0.040832636  0.042790553            2 
  293000    1.1904089   -6.3596722     143.2462  0.040741241  0.042779734            5 
  294000    1.2169193   -6.2939317    144.18588  0.040869014  0.042768021            5 
  295000    1.2238455   -6.3047263    144.43989  0.040802228  0.042757497            3 
  296000    1.2212066   -6.3277027    144.92351  0.040800537  0.042746988            2 
  297000     1.207549   -6.2992801    145.49756  0.040824232  0.042735625            7 
  298000    1.2143941   -6.2902502    146.17835  0.040877615  0.042724925            4 
  299000    1.1897512   -6.3363675    145.89988  0.040663288  0.042712057            2 
  300000    1.1796703   -6.2814217    147.18058  0.040883495  0.042700427            4 
  301000     1.205609   -6.3004616    147.24502  0.040765511  0.042690103            4 
  302000     1.222523   -6.3334227    147.60273   0.04072923  0.042679407            3 
  303000    1.2209231   -6.2822515    148.85518  0.040939267  0.042668774            2 
  304000    1.2110406   -6.2845093    149.18602  0.040895291   0.04265947            4 
  305000    1.1960112   -6.3080436    150.10923   0.04101345  0.042651437            3 
  306000    1.2140058   -6.3381548    150.07631  0.040870454  0.042642216            8 
  307000    1.2289082   -6.2997059    150.72543  0.040913525  0.042634229            3 
  308000     1.198129    -6.320841    151.42073  0.040968813  0.042626205            3 
  309000    1.1868663   -6.2685603    151.70477   0.04091283  0.042617183            4 
  310000     1.190262   -6.3013013    152.42101   0.04097339   0.04260692            1 
  311000    1.2173303   -6.2747867    152.40687  0.040837853  0.042597782            7 
  312000     1.195915     -6.31135    152.28668  0.040674861  0.042587934            2 
  313000    1.1730352   -6.2890297    153.14978  0.040774701  0.042576868            4 
  314000    1.1808508   -6.3056456    153.14769   0.04064429  0.042564702            4 
  315000    1.2097182   -6.2784303    153.52485  0.040615038  0.042551704            3 
  316000    1.2037505   -6.2764126    154.04143  0.040622741  0.042538439            3 
  317000    1.2154399   -6.3512649     153.8424  0.040442271  0.042524441            2 
  318000     1.193005   -6.3294208    155.61297  0.040779081  0.042511667            2 
  319000    1.1974916   -6.3162632    155.58183  0.040643111  0.042498165            3 
  320000    1.2067732   -6.2873932     155.6149  0.040524713  0.042484899            3 
  321000     1.184362   -6.3341212    156.19172  0.040548213  0.042471233            2 
  322000    1.2092709   -6.3163212    156.57135  0.040520537  0.042456111            2 
  323000    1.2227697   -6.2996245    157.25159  0.040570585  0.042441819            2 
  324000    1.1923847   -6.2813364    157.35984  0.040473209  0.042427122            2 
  325000    1.2167257   -6.2741586    157.66397  0.040426659   0.04241204            3 
  326000    1.2246373    -6.336976    158.35093  0.040478253  0.042396782            3 
  327000    1.1953569   -6.2861514    158.84429  0.040480196  0.042380571            2 
  328000    1.1812959   -6.3019664     159.5261  0.040530006  0.042366255            4 
  329000    1.2104931   -6.3224718     159.2937  0.040347948  0.042350532            4 
  330000     1.183166   -6.3158316     159.9882  0.040401061  0.042335371            4 
  331000    1.2529895   -6.2936324    160.90934  0.040510911   0.04232142            4 
  332000    1.2348121   -6.3395256     161.1767  0.040455998  0.042307914            1 
  333000    1.1937249   -6.2663075    162.15868  0.040580251  0.042294888            4 
  334000    1.1708432   -6.2774596    162.22911  0.040476326  0.042281882            5 
  335000    1.1756153   -6.3426314    162.50838  0.040424971   0.04226821            4 
  336000    1.2268986   -6.3197853    163.39545  0.040524665  0.042254082            4 
  337000    1.1919452   -6.2910263    163.45157  0.040418291  0.042240278            2 
  338000    1.1948991   -6.2903283    163.51164  0.040313521  0.042227578            4 
  339000    1.1706752   -6.2954569    164.90557  0.040537258  0.042215041            2 
  340000    1.1887974   -6.2949449     164.2856  0.040266079  0.042200362            2 
  341000    1.2044751   -6.3092945    164.32565  0.040157782   0.04218501            2 
  342000     1.197154   -6.3596299    164.61123   0.04010995  0.042168746            4 
  343000    1.2059045   -6.3113016    166.16229  0.040369847  0.042152144            6 
  344000    1.1721922   -6.3173698    165.99669  0.040212375  0.042135602            2 
  345000    1.2055796   -6.3068662     166.0082  0.040098599  0.042118742            1 
  346000    1.2199671   -6.3463031    166.80148  0.040173766  0.042101227            2 
  347000    1.1850929   -6.3257611    166.62716  0.040016129  0.042082366            5 
  348000    1.1860769   -6.2729854    167.29377  0.040060768  0.042062883            3 
  349000    1.2077852   -6.3001036    167.71459  0.040046464  0.042043763            8 
  350000    1.1827848   -6.3125654    168.59268  0.040141115  0.042024186            6 
  351000    1.2090801   -6.3121874    168.72662  0.040058552  0.042004781            2 
  352000    1.1837213   -6.2971831    169.04978  0.040021255  0.041986207            2 
  353000    1.2078114   -6.3089965    169.88211   0.04010437  0.041967367            3 
  354000    1.1799233   -6.3508785    169.37966  0.039872802  0.041947931            3 
  355000    1.2141021   -6.3292677    170.01854  0.039910457  0.041928293            2 
  356000     1.195844   -6.3001638    171.08625   0.04004828  0.041909605            1 
  357000    1.1853014   -6.3525102    171.00714  0.039917633  0.041890748            4 
  358000    1.2269728   -6.3038618    171.52891  0.039927587  0.041871509            4 
  359000    1.1957857   -6.3004864    171.86722  0.039894897  0.041852243            4 
  360000    1.1903688   -6.2900699    173.36734  0.040131328  0.041833109            3 
  361000    1.2158319   -6.3180847    173.04895  0.039946664  0.041815745            2 
  362000     1.246794   -6.3135171    173.42898  0.039923799  0.041798056            3 
  363000    1.1910641   -6.3356924    173.84554  0.039909444  0.041779378            6 
  364000    1.1932235    -6.305404    174.89703  0.040040528   0.04176189            3 
  365000    1.1913035     -6.32712     174.7178  0.039889909  0.041745828            5 
  366000    1.2278847   -6.3172153    175.17736  0.039885555  0.041729656            1 
  367000    1.1846114   -6.3466143     175.8436  0.039928157  0.041712938            4 
  368000    1.2213799   -6.3342668     176.9569  0.040071762  0.041697682            2 
  369000    1.1973208    -6.317529    177.30504  0.040041789  0.041681699            4 
  370000    1.1973864   -6.2915351    177.60565  0.040001273  0.041664327            2 
  371000    1.1697945   -6.3333621    177.68035   0.03991023  0.041647568            2 
  372000    1.1830639   -6.3132993    177.67866  0.039802567  0.041630446            2 
  373000    1.1686323    -6.301189     179.2677  0.040050872  0.041614568            3 
  374000    1.1992884    -6.328278    179.37325  0.039967301  0.041600425            2 
  375000    1.2114049   -6.3196022    179.87173  0.039971496  0.041585481            1 
  376000    1.1716441   -6.3128816    180.74933  0.040059692  0.041570191            4 
  377000    1.1640199   -6.3793367    180.63016  0.039927092  0.041555684            3 
  378000    1.1794663   -6.3613015    180.72457  0.039842277  0.041541012            2 
  379000    1.1666348   -6.3250178    181.27526  0.039858236   0.04152645            2 
  380000    1.2125154   -6.3181658    182.82554  0.040093319  0.041512294            4 
  381000    1.1674132   -6.3272368    182.67646  0.039955481  0.041497953            3 
  382000     1.186444    -6.324581    183.03685  0.039929505  0.041483813            2 
  383000    1.1849605   -6.2825921    184.16398  0.040070491  0.041470137            3 
  384000    1.1778641   -6.2814636    184.64976  0.040071563  0.041457619            2 
  385000    1.1819383   -6.3264024    185.11186  0.040067501  0.041445833            2 
  386000    1.1886031   -6.2703255    185.13891  0.039969541  0.041433663            6 
  387000    1.1746504   -6.3378297    185.56338  0.039957662  0.041420587            3 
  388000     1.185725    -6.308478    186.12786  0.039975914   0.04140809            3 
  389000    1.1677198   -6.3570393    186.93271  0.040045568  0.041395873            1 
  390000    1.1817573   -6.3232736    187.60386  0.040086295  0.041384099            2 
  391000    1.1997282    -6.327259    188.16395  0.040103143  0.041371434            4 
  392000    1.1538547   -6.3717252    187.07837  0.039770062  0.041358809            3 
  393000    1.1766957   -6.3277975    188.35107  0.039938734  0.041345826            1 
  394000    1.2064149   -6.3560719    188.61741  0.039893698  0.041333957            3 
  395000    1.1789422   -6.3151783    189.64829  0.040010187  0.041321882            2 
  396000    1.1675709   -6.2909727    190.71031  0.040132641  0.041310414            4 
  397000    1.1956417   -6.3374841    189.72032  0.039823744  0.041298463            2 
  398000    1.1845433   -6.3129311    190.82392  0.039954757  0.041287173            2 
  399000     1.190846   -6.3290299    191.60915   0.04001862  0.041275905            4 
  400000    1.1956977   -6.3257532    191.17144  0.039827383  0.041264177            3 
  401000    1.1792522   -6.3075376    191.77861  0.039854242  0.041252149            4 
  402000      1.19033   -6.3278977    192.14033  0.039830084  0.041239944            2 
  403000    1.1807623   -6.3087588    192.55671   0.03981735  0.041227343            3 
  404000    1.2110333   -6.3102513    192.82736   0.03977462  0.041213797            2 
  405000    1.2023764   -6.3233906    193.14639  0.039742055  0.041200616            4 
  406000     1.183823   -6.2759037    194.31402   0.03988383   0.04118768            1 
  407000    1.1632761   -6.3753279    193.17144  0.039551892  0.041172407            2 
  408000    1.1736769   -6.3289238    194.31522  0.039688566  0.041157209            6 
  409000    1.1898037   -6.3577949    194.16485   0.03956089   0.04114207            3 
  410000    1.1798557   -6.3570901    195.24132  0.039683194  0.041126724            3 
  411000    1.2201753   -6.2970926    196.08308  0.039757316   0.04111217            4 
  412000    1.2022893   -6.3560519     196.1325  0.039670813  0.041097707            5 
  413000    1.2034314   -6.3427274    196.72454  0.039694217  0.041083014            2 
  414000    1.1594316   -6.3361469    197.70971   0.03979664  0.041069428            4 
  415000    1.1638166   -6.3303957    197.68784  0.039696354  0.041056497            2 
  416000    1.1504056   -6.3158048    199.01176  0.039866137  0.041043486            2 
  417000    1.1783995   -6.3278328    198.33088  0.039634468  0.041030603            4 
  418000    1.1878279   -6.3431661    199.35663  0.039744145   0.04101801            6 
  419000    1.1817438   -6.3463088    200.10435     0.039798  0.041006567            5 
  420000    1.1712045    -6.371727    200.33953  0.039749906  0.040994116            3 
  421000    1.1792202   -6.3050527     200.5338  0.039693944   0.04098163            5 
  422000    1.1712662   -6.3147347    200.86203  0.039664699  0.040969358            3 
  423000    1.2045663   -6.3349292    201.33777  0.039664652  0.040956688            2 
  424000    1.1809124   -6.3498555    202.54792  0.039808947  0.040944763            2 
  425000    1.1674562   -6.3333341    203.05109   0.03981394  0.040934293            2 
  426000    1.1720552   -6.3412754    203.22552  0.039754601  0.040923138            2 
  427000     1.184727   -6.3417813    202.51071  0.039521995  0.040911656            2 
  428000    1.2022102   -6.3391578    203.54509  0.039631054  0.040899047            3 
  429000    1.1905129   -6.3036511    204.26556  0.039678624  0.040887462            4 
  430000    1.1724939   -6.3155751     205.0966  0.039747403  0.040876968            2 
  431000    1.1752128   -6.3477842    205.52466  0.039737946  0.040866568            2 
  432000    1.1940942    -6.319842    205.64389   0.03966896  0.040855537            4 
  433000    1.1953167   -6.3447629    206.02705  0.039651087  0.040844596            3 
  434000    1.1864792   -6.3007423    206.56553  0.039663121  0.040834463            4 
  435000    1.1726115   -6.3444602    207.01852  0.039658721  0.040824138            4 
  436000    1.1683656   -6.3381928    207.94297  0.039744452  0.040813872            4 
  437000    1.1713053   -6.3480939    208.56752  0.039772601  0.040803459            1 
  438000    1.1758452   -6.3492259    208.50565  0.039670025  0.040793169            3 
  439000    1.2069729   -6.3324583    209.17564  0.039706841  0.040783039            2 
  440000    1.1980835   -6.3603038    208.97793  0.039579154  0.040772857            5 
  441000    1.2099481   -6.3328273    209.92192  0.039667786  0.040763154            3 
  442000    1.2098848   -6.3407135    210.08729  0.039609218  0.040753711            3 
  443000    1.1690237   -6.3374748    210.78801   0.03965162  0.040743387            5 
  444000    1.1866303   -6.3103368    211.44801  0.039686187  0.040732174            1 
  445000    1.1691708   -6.3704484    211.61305  0.039627913  0.040721318            5 
  446000    1.2110839   -6.3696563    212.66069  0.039734808  0.040710116            5 
  447000    1.1934514   -6.3352195    213.10767  0.039729244  0.040699536            5 
  448000    1.2160353   -6.3387003    213.63078  0.039737868  0.040689478            1 
  449000    1.1638881   -6.3477266    213.24245  0.039577292  0.040679711            2 
  450000     1.218919   -6.3151397    215.22429  0.039856349  0.040670293            2 
  451000    1.1634767   -6.3139589    214.62348  0.039656962  0.040661912            3 
  452000    1.1655309   -6.3029807    215.40146  0.039712659  0.040653204            4 
  453000    1.1653198   -6.3812598    215.16906   0.03958224  0.040643858            2 
  454000    1.1726855   -6.3389893    215.98742  0.039645269  0.040634218            2 
  455000    1.1705036   -6.3382521    216.28396  0.039612447  0.040624221            2 
  456000    1.1928628    -6.322825    216.27769  0.039524432  0.040614458            2 
  457000    1.1873002   -6.3257811    218.20824  0.039789977  0.040604928            5 
  458000    1.1889249   -6.3609053     217.4198  0.039559643  0.040595481            3 
  459000    1.1800444   -6.3160659    219.11819  0.039781807  0.040586419            2 
  460000    1.1779624   -6.3413779    219.28892  0.039726254  0.040579059            1 
  461000    1.2002674   -6.3351074    219.87488  0.039746002  0.040571328            1 
  462000    1.1742715   -6.3541566    220.30109   0.03973685  0.040563385            4 
  463000    1.1806196   -6.3370128    220.80015  0.039740848  0.040555349            2 
  464000     1.170742   -6.3834292    220.73208  0.039642973  0.040547999            2 
  465000    1.2083661   -6.3364112    222.03674   0.03979153  0.040541653            7 
  466000     1.176654   -6.3177072    223.00946  0.039880089  0.040534872            3 
  467000    1.1750735   -6.3161225    222.58413  0.039718796  0.040528191            1 
  468000    1.1588597   -6.3428662     223.0721  0.039720815  0.040521405            1 
  469000    1.1789333   -6.3329037    223.13146   0.03964667  0.040514504            2 
  470000    1.1869992   -6.3399518    224.81989  0.039861682  0.040507248            2 
  471000    1.1606361    -6.365326    224.68634  0.039753422  0.040500347            1 
  472000     1.167331   -6.3599761    225.17863  0.039756114  0.040494339            1 
  473000    1.1703612   -6.3622204    224.77981  0.039601799  0.040487654            7 
  474000    1.1948641   -6.3723722    225.64774  0.039670841  0.040480929            2 
  475000    1.1986199   -6.3432672    226.71449  0.039774471  0.040473642            5 
  476000    1.1860195   -6.3400675    226.70859   0.03968988  0.040466507            2 
  477000     1.175449   -6.3005946    227.40639   0.03972858    0.0404587            4 
  478000    1.1890067   -6.3673485    227.07575  0.039587823  0.040451413            2 
  479000    1.1731131   -6.3590137    227.70003  0.039613783  0.040444176            3 
  480000    1.1756553   -6.3702383    228.46074  0.039663323  0.040436526            3 
  481000    1.1884478   -6.3827487    228.41104  0.039572251  0.040428881            2 
  482000    1.2162116   -6.3530345    229.31477  0.039646398  0.040421132            3 
  483000    1.1671283   -6.3299852    229.37792  0.039575211  0.040414026            3 
  484000    1.1789946   -6.3194771    229.75147  0.039557759  0.040406529            1 
  485000    1.1868116   -6.3548214     230.1129  0.039538298  0.040398498            5 
  486000    1.1937895   -6.3580981    230.47365  0.039518802  0.040390307            4 
  487000    1.1863512   -6.3727983    229.68897  0.039303383  0.040381408            3 
  488000    1.1886717   -6.3727221    230.15834  0.039302995  0.040371869            2 
  489000    1.1498147   -6.3537098    231.42765  0.039438931  0.040362219            3 
  490000    1.1642222   -6.3928126     231.9773  0.039451922  0.040353155            3 
  491000    1.1692358   -6.3705791    232.62974  0.039482304  0.040344584            3 
  492000    1.1751956   -6.3422686    233.03811  0.039471225  0.040336387            3 
  493000    1.1802597   -6.3717812    234.04749   0.03956178  0.040328487            6 
  494000    1.1776031   -6.3486023    234.83396  0.039614365  0.040320611            1 
  495000    1.1763252   -6.3325805    235.35799  0.039622558  0.040312826            1 
  496000     1.168189   -6.3764409    234.94544   0.03947336  0.040304574            8 
  497000     1.187991   -6.3740149    235.17237  0.039431987  0.040296033            2 
  498000     1.160012   -6.3276961    235.84559   0.03946546  0.040287617            3 
  499000    1.1585763   -6.3339962     236.5335  0.039501252  0.040279174            3 
  500000    1.1821728   -6.3460792    237.36149  0.039560248  0.040270819            2 
  501000     1.171883   -6.3655455    236.81679  0.039390683  0.040263345            3 
  502000    1.1599028   -6.3992373    237.15386  0.039368171  0.040255334            2 
  503000     1.154128    -6.339179    239.40704  0.039663194  0.040248255            3 
  504000    1.1757089   -6.3468688    239.32939  0.039571659  0.040241428            3 
  505000    1.1851334   -6.3815335    239.93823  0.039593768   0.04023425            2 
  506000    1.1710846   -6.3630218    239.41728  0.039429722  0.040227332            3 
  507000    1.1607102   -6.3583543    240.46388  0.039523977  0.040220507            2 
  508000    1.1466445   -6.3761811    239.98647  0.039367859  0.040213369            4 
  509000    1.1537214   -6.3524996    241.19804  0.039488874  0.040206132            3 
  510000    1.2056801   -6.3915144    240.68907   0.03932828  0.040198168            5 
  511000    1.1836035   -6.3681379    241.33456  0.039356581  0.040190794            4 
  512000    1.1702321   -6.3441043    242.70441  0.039502672  0.040182951            3 
  513000    1.1499242   -6.3649812     242.4523  0.039384714  0.040175482            3 
  514000    1.1575278   -6.3814773    242.74706  0.039355878  0.040167801            2 
  515000    1.1793427   -6.3984612    243.76155  0.039443617  0.040160275            2 
  516000    1.1669767   -6.3917471    244.30679   0.03945523  0.040153143            3 
  517000    1.1588479   -6.3756957    245.43093  0.039560111  0.040146157            3 
  518000    1.1693259   -6.3018028    245.72176  0.039530527  0.040138734            3 
  519000    1.1777131   -6.3190285    245.81725  0.039469693  0.040132026            2 
  520000    1.1827501   -6.3440479    246.68943  0.039533562  0.040124753            4 
  521000    1.1495775   -6.3548949    246.45917  0.039420852  0.040117773            4 
  522000    1.1866183   -6.3711342    248.00894  0.039592743  0.040110708            1 
  523000    1.1790399   -6.3603811     247.1212  0.039375589  0.040103944            3 
  524000    1.1504715   -6.3686914    248.57463  0.039531588  0.040097196            3 
  525000    1.1672339   -6.3549536    249.50277  0.039603615  0.040091424            2 
  526000    1.1631369   -6.3326716    250.23767  0.039644752  0.040085761            5 
  527000    1.1821792   -6.3309952    249.30661  0.039422297   0.04008032            2 
  528000     1.137633   -6.3509357    249.93958  0.039447535  0.040074181            3 
  529000    1.1631441   -6.3582826    250.39632  0.039444915  0.040067688            4 
  530000    1.1665243   -6.4035065    250.95495  0.039458325  0.040061979            2 
  531000    1.1368262    -6.390264    250.58029  0.039325218  0.040055425            3 
  532000    1.1489599   -6.4110373    250.77827   0.03928231  0.040048429            2 
  533000    1.1633455   -6.3597188    251.53936  0.039327604  0.040041284            2 
  534000    1.1641157   -6.3554976    253.36724  0.039539207  0.040034521            4 
  535000    1.1761059   -6.3270452      252.983  0.039405452  0.040028272            2 
  536000    1.1909708    -6.382013      253.344  0.039388059   0.04002155            4 
  537000    1.1749285   -6.4109863    253.35693  0.039316717  0.040014764            2 
  538000     1.166547    -6.343976    253.48422  0.039263356  0.040007389            2 
  539000     1.166525   -6.3853656    253.79037  0.039237844  0.039999925            2 
  540000    1.1386976   -6.3842735    253.66424  0.039145716  0.039991887            3 
  541000    1.1504814   -6.3993703    255.06006  0.039288363  0.039983529            2 
  542000    1.1629519   -6.3881591    254.88644  0.039189181  0.039975294            2 
  543000    1.1858012   -6.3516992    254.79718  0.039103311  0.039966092            2 
  544000    1.1436833   -6.3632489      256.261  0.039255667  0.039957647            2 
  545000     1.188975   -6.3968826     256.5306  0.039224862   0.03994933            3 
  546000    1.1426757   -6.3456344    257.78115  0.039343887  0.039941344            7 
  547000    1.1803711   -6.3395665     257.8277  0.039279053  0.039933972            7 
  548000    1.1726378   -6.3789482    257.70467  0.039188666  0.039926231            2 
  549000    1.2009613   -6.3941632    257.69566  0.039115917  0.039917873            2 
  550000    1.1813561   -6.3893455    258.31173   0.03913814  0.039909265            3 
  551000    1.1626599   -6.3816024    258.81082  0.039142592  0.039900525            4 
  552000    1.1581929    -6.355106    259.59505  0.039190075  0.039892401            5 
  553000    1.1896031   -6.3751442    259.33572  0.039080126  0.039884097            2 
  554000    1.1601904   -6.3506625    259.94735  0.039101587  0.039875786            2 
  555000    1.1742456   -6.3995309     260.1082  0.039055286  0.039866606            2 
  556000    1.1457676   -6.3939796    260.65456  0.039066931  0.039857758            2 
  557000    1.1848755   -6.3557295    261.72905  0.039157548  0.039849439            3 
  558000    1.1761689   -6.3517013    261.84794  0.039105128  0.039841378            2 
  559000     1.175857   -6.3999185    261.52966  0.038987726  0.039832926            2 
  560000     1.156992   -6.3754414    261.68005  0.038940483  0.039823546            3 
  561000    1.1697735   -6.3736723    263.23658  0.039102285  0.039813846            3 
  562000    1.1562761    -6.401845    262.79949  0.038967896  0.039804458            3 
  563000    1.1444354   -6.3784031    262.69145   0.03888269  0.039794636            2 
  564000    1.1477729   -6.3610522     263.6597  0.038956811  0.039785312            6 
  565000    1.1694883   -6.3574897     263.9132   0.03892525  0.039775804            5 
  566000    1.1513101    -6.361837     264.1394  0.038889782  0.039766173            4 
  567000    1.1546644   -6.3331941    264.64093  0.038894905  0.039757428            2 
  568000    1.1682206    -6.375295    265.29984  0.038923098  0.039748737            3 
  569000    1.1303138   -6.3646748     266.2777  0.038997906  0.039739665            1 
  570000    1.1515895   -6.3498851    266.53641  0.038967311  0.039731438            4 
  571000    1.1528167   -6.3744446    267.69837  0.039068646  0.039722766            4 
  572000    1.1460065   -6.3722658    267.70599  0.039001456  0.039715146            2 
  573000    1.1453391    -6.366864    269.09588  0.039135526  0.039707901            2 
  574000    1.1425258   -6.4151146     268.9786  0.039050319  0.039700467            3 
  575000    1.1681179   -6.3570512    269.11388  0.039002011  0.039692866            4 
  576000    1.1760897   -6.4156876    269.88481  0.039045835  0.039685291            3 
  577000    1.1619294   -6.3539158    270.90186  0.039125052   0.03967785            2 
  578000    1.1740647     -6.36821    270.70805  0.039029418  0.039671125            2 
  579000    1.1308105   -6.3864771    271.25692  0.039041008   0.03966394            2 
  580000    1.1747013   -6.3979416    271.55761  0.039016898   0.03965668            3 
  581000    1.1820839   -6.3395866    273.07534  0.039167432  0.039648773            4 
  582000    1.1619575   -6.3630822     273.6671  0.039184865  0.039642379            3 
  583000    1.1460978   -6.3795582    273.60231  0.039108392  0.039635933            4 
  584000    1.1468693    -6.408355    273.96029  0.039092507  0.039629209            1 
  585000    1.1737885   -6.3685226    275.35216  0.039223955  0.039623123            5 
  586000    1.1456422   -6.3916932    275.13029  0.039125468  0.039617426            1 
  587000    1.1536441   -6.3790585    275.92363  0.039171441   0.03961184            2 
  588000    1.1659099   -6.3743242     275.7106  0.039074631  0.039606197            2 
  589000    1.1501232   -6.3597577    276.77401  0.039158745  0.039600327            2 
  590000    1.1344269   -6.3506262    277.58666  0.039207156  0.039595072            2 
  591000      1.19082   -6.4284764    277.22145  0.039089318  0.039589349            2 
  592000    1.1437267   -6.3970065    278.23518  0.039165989  0.039583832            2 
  593000    1.1608998     -6.40956    279.23865  0.039240957  0.039578449            6 
  594000    1.1597688   -6.3477922    279.98626  0.039279778  0.039573687            3 
  595000    1.1530677   -6.3603342    279.77337  0.039183945  0.039569205            2 
  596000     1.162293   -6.4250077    281.04196  0.039295576  0.039564658            3 
  597000    1.1628208   -6.4167093    281.20832  0.039252976  0.039560785            2 
  598000    1.1551555   -6.3866935    281.99894  0.039297511  0.039556918            7 
  599000    1.1644623   -6.3851601    281.61287  0.039178195  0.039553095            2 
  600000    1.1566373   -6.3188893    284.34205  0.039491951   0.03954998            1 
  601000    1.1669949   -6.3811497    282.88414   0.03922409  0.039546086            2 
  602000    1.1510376   -6.3708302    283.61413  0.039259985  0.039542087            3 
  603000    1.1564394   -6.3864542    283.76632  0.039215909  0.039537498            4 
  604000    1.1677175   -6.3630182     284.4149  0.039240467  0.039533139            3 
  605000    1.1554658   -6.3660541    284.82059  0.039231487  0.039528633            2 
  606000    1.1339119   -6.3738848    283.74379  0.039018673  0.039523942            8 
  607000    1.1593224    -6.381352    285.65776  0.039217156  0.039518876            2 
  608000    1.1852544   -6.3852104    285.74277  0.039164305  0.039513559            3 
  609000    1.1566346   -6.3772469    285.54863   0.03907343  0.039508687            4 
  610000    1.1693002   -6.3819019    286.67934  0.039163844  0.039503588            4 
  611000    1.1559241   -6.3575195    287.13252  0.039161555  0.039498949            4 
  612000    1.1585787   -6.3998681    286.47878  0.039008549  0.039493866            2 
  613000    1.1663054   -6.4385734    286.67021  0.038970937  0.039488252            3 
  614000     1.137312    -6.343403    287.97168  0.039084104  0.039482476            2 
  615000    1.1595692   -6.3467047    288.44518  0.039084713  0.039477104            4 
  616000    1.1611666    -6.400499    289.29434  0.039136139  0.039472279            5 
  617000    1.1586653   -6.3730618    291.22605   0.03933361  0.039467606            2 
  618000    1.1678588   -6.3554953    291.16042  0.039261114  0.039463782            7 
  619000    1.1737024   -6.3531128    291.33801  0.039221596  0.039460028            2 
  620000    1.1476746   -6.3782146    292.49219  0.039313466  0.039456563            3 
  621000    1.1361478   -6.4259896    292.63418  0.039269214  0.039453244            2 
  622000    1.1413932   -6.3818271    293.39816  0.039308435  0.039450372            3 
  623000    1.1578377   -6.3747177    293.23408  0.039223392  0.039447157            3 
  624000    1.1662487   -6.4175424    292.98492  0.039127259  0.039443565            2 
  625000    1.1863673   -6.3545258    293.91274  0.039188366  0.039439949            2 
  626000    1.1462179   -6.4299477    294.29766  0.039177004  0.039436419            3 
  627000    1.1351685   -6.4170548    295.03217  0.039212143  0.039432382            3 
  628000    1.1709818   -6.3937761    295.38727  0.039196825  0.039428193            3 
  629000    1.1388328   -6.4074877     296.0122  0.039217303  0.039424071            2 
  630000    1.1370377    -6.401713    296.30029  0.039193159  0.039420303            6 
  631000     1.165401   -6.3825703      296.723  0.039186873  0.039416584            2 
  632000    1.1364373   -6.4029431    297.26736  0.039196646  0.039412952            2 
  633000    1.1510828   -6.3767137     296.9941   0.03909875  0.039409112            2 
  634000    1.1718264   -6.4264786    297.86854  0.039152017  0.039404795            4 
  635000    1.1543044   -6.4114324    297.52593  0.039045397  0.039400194            4 
  636000    1.1624099   -6.4082979    298.28271  0.039083164   0.03939595            3 
  637000    1.1549964   -6.3905227    298.78992  0.039088164   0.03939167            6 
  638000    1.1454342   -6.3781016    298.76952  0.039024232  0.039387178            4 
  639000    1.1572313   -6.4065249    299.60912  0.039072655  0.039382843            2 
  640000    1.1882549   -6.3768557    300.21922  0.039091044  0.039378302            5 
  641000    1.1457127   -6.3938211     300.2671  0.039036284  0.039373943            4 
  642000     1.144318   -6.4011077    301.60801  0.039149534  0.039369727            4 
  643000    1.1370186   -6.3880401    301.00605  0.039010634  0.039365171            6 
  644000    1.1682515   -6.4066174    300.60005  0.038897522  0.039360656            2 
  645000    1.1537456    -6.395546    301.77833  0.038989448  0.039355708            4 
  646000    1.1370605   -6.4112905    301.70937  0.038920198  0.039350739            6 
  647000    1.1657845    -6.384322    302.99997  0.039026271  0.039346195            2 
  648000    1.1544016   -6.3822318    303.59809  0.039042964  0.039341779            3 
  649000    1.1708855   -6.3964917    303.93006  0.039025432  0.039337303            2 
  650000    1.1342407   -6.3930932    302.99974  0.038846121  0.039332301            4 
  651000    1.1713584   -6.4493881    304.85425  0.039023842  0.039327672            6 
  652000    1.1196737   -6.3958457    306.27278  0.039145294  0.039322973            3 
  653000    1.1329588   -6.3981251    305.09558  0.038935118  0.039318626            2 
  654000    1.1265258    -6.399906    305.98307  0.038988668  0.039314035            5 
  655000    1.1372254   -6.4123741    306.70637  0.039021167  0.039309056            2 
  656000    1.1632843   -6.3536243    306.26339  0.038905411  0.039303927            2 
  657000    1.1396141    -6.411546    306.14086  0.038830653  0.039298606            5 
  658000    1.1259004   -6.4016564    306.44614  0.038810301  0.039293193            2 
  659000    1.1420999    -6.432663    306.57112  0.038767213  0.039287177            3 
  660000    1.1566412   -6.3744023    307.49011  0.038824509  0.039281466            3 
  661000    1.1543045   -6.3408351    308.59808  0.038905457  0.039275686            3 
  662000    1.1455408   -6.3730763    308.22175  0.038799314  0.039269696            6 
  663000    1.1367402   -6.4016765     308.6117  0.038789806  0.039263557            2 
  664000    1.1544799   -6.3937308    308.49272  0.038716456  0.039256884            3 
  665000    1.1539534   -6.3669502    309.26444  0.038754943  0.039250343            3 
  666000     1.154814   -6.3979612    309.29411  0.038700464  0.039243469            3 
  667000    1.1542357   -6.3984304    309.94658   0.03872396  0.039236569            2 
  668000    1.1474263     -6.41733     309.2036  0.038573304  0.039229425            2 
  669000     1.136403    -6.424483    309.28155  0.038525355  0.039221928            3 
  670000    1.1315368   -6.4106329    309.31433  0.038471932  0.039214309            5 
  671000    1.1473953    -6.401588    311.08186  0.038634111   0.03920657            3 
  672000    1.1494385   -6.4086193    310.71754  0.038531441  0.039198722            2 
  673000    1.1472955   -6.4415294    311.78335   0.03860616  0.039191189            3 
  674000    1.1739925   -6.3810864    312.42135  0.038627763  0.039183801            1 
  675000    1.1286864   -6.3913576    312.70424  0.038605462  0.039176792            3 
  676000    1.1615703   -6.3942873    313.67555   0.03866809  0.039169749            1 
  677000    1.1648264   -6.4291172    314.54214  0.038717644  0.039163241            4 
  678000    1.1447802   -6.3838694    316.27967  0.038874099  0.039157261            4 
  679000    1.1737966   -6.3829721    315.33511  0.038700922  0.039150947            1 
  680000    1.1455742   -6.4293386    315.30353  0.038640138  0.039145039            2 
  681000    1.1701889   -6.4279966    316.05296  0.038675105  0.039138987            3 
  682000    1.1361954   -6.4136916    316.28716  0.038647013  0.039132998            6 
  683000    1.1439634   -6.4059389    318.58327  0.038870579  0.039127539            5 
  684000    1.1674236    -6.412172      317.332  0.038661306  0.039121967            4 
  685000     1.163135   -6.4361922    317.99659  0.038685717  0.039116168            2 
  686000    1.1425734   -6.4370251    318.93269  0.038743038  0.039109891            4 
  687000     1.132134   -6.4074755    318.41533  0.038623887  0.039103181            4 
  688000    1.1453395   -6.3848563    318.89173  0.038625452  0.039096504            4 
  689000    1.1522825   -6.4309742    318.87933  0.038567892  0.039089526            4 
  690000    1.1489263   -6.4226249    318.91354  0.038516127  0.039083021            7 
  691000    1.1587196   -6.3790839    320.79704  0.038687535  0.039076006            3 
  692000    1.1421694   -6.3810137    320.93348  0.038648059   0.03906956            5 
  693000    1.1621527   -6.4125204    320.65791  0.038559152  0.039062848            3 
  694000    1.1481334   -6.4295017    320.92288  0.038535408  0.039056346            3 
  695000    1.1481406   -6.4051752    321.77291  0.038581883  0.039049585            4 
  696000    1.1277182    -6.467137    321.57999  0.038503351  0.039042806            3 
  697000    1.1272174   -6.3883269    323.39421  0.038665018  0.039036297            3 
  698000    1.1577078   -6.4220102    323.00575  0.038563246  0.039029887            3 
  699000    1.1221814   -6.4398734    322.69935  0.038471549  0.039022897            2 
  700000    1.1372704   -6.4527808    321.95518  0.038327998  0.039015755            3 
  701000     1.156004   -6.4264545    323.48806  0.038455547  0.039008834            3 
  702000     1.141429   -6.4257544    324.48068  0.038518599  0.039002266            2 
  703000    1.1249155   -6.4394258    325.53662  0.038588978  0.038996014            2 
  704000    1.1266495   -6.4376869    324.31143  0.038389137  0.038989654            3 
  705000     1.116668   -6.4018065    326.33262  0.038573596  0.038982637            2 
  706000    1.1570719   -6.4357182     326.0722  0.038488221  0.038976062            5 
  707000    1.1284517    -6.420488    327.48633  0.038600464  0.038969564            2 
  708000    1.1266336   -6.4418211    327.07999  0.038498116  0.038962877            2 
  709000     1.137211   -6.3939396    327.32784  0.038472948  0.038955341            3 
  710000     1.136087   -6.4183052    326.97272   0.03837708  0.038948201            1 
  711000    1.1304936   -6.4116697    327.51716  0.038386916  0.038940732            3 
  712000    1.1275621    -6.402636     328.0607  0.038396618  0.038933191            3 
  713000    1.1525686   -6.4123016    327.70504  0.038301197  0.038925619            3 
  714000    1.1394595   -6.4169922    328.50616  0.038341055  0.038918213            4 
  715000    1.1175025   -6.4064467    328.19293  0.038250924  0.038910517            3 
  716000    1.1188528   -6.4496255    329.30475  0.038326903  0.038903072            3 
  717000    1.1622195   -6.3948644    330.84257  0.038452182  0.038895776            7 
  718000    1.1471902   -6.3823463    329.78492  0.038275873  0.038887832            2 
  719000       1.1077   -6.4095011     330.3701  0.038290462  0.038879539            3 
  720000     1.134487   -6.4169143    329.31659  0.038115346  0.038871258            5 
  721000    1.1541633   -6.4196632    330.66477  0.038218305  0.038862916            2 
  722000    1.1528994    -6.407042    330.58832  0.038156547  0.038854943            3 
  723000    1.1240753   -6.4182878    331.85816  0.038250134  0.038846798            3 
  724000    1.1385502   -6.4160042    332.12651  0.038228189  0.038838895            2 
  725000    1.1290859   -6.4621214    332.02461  0.038163748  0.038830852            3 
  726000    1.1327736   -6.4559125    332.41354  0.038155825   0.03882288            2 
  727000    1.1112235   -6.4249277    333.01435  0.038172209  0.038815381            5 
  728000    1.1530719   -6.4441628    334.65711   0.03830782  0.038807545            2 
  729000    1.1272114   -6.4508235    335.25338  0.038323431   0.03880025            3 
  730000    1.1079196   -6.4308248    335.25769  0.038271426  0.038792743            4 
  731000    1.1068981   -6.4029032    335.20405  0.038212956  0.038785352            2 
  732000    1.1626025   -6.4114274    335.05327  0.038143587  0.038777869            5 
  733000    1.1282421   -6.4165418    336.44558  0.038249838  0.038770225            3 
  734000    1.1212623   -6.4536359    335.89636  0.038135372  0.038762882            2 
  735000    1.1457999   -6.4327117    336.96072  0.038204163  0.038755125            2 
  736000    1.1536543   -6.4364652    337.76448  0.038243261   0.03874768            5 
  737000    1.1233934    -6.422226      338.254  0.038246721  0.038740188            5 
  738000    1.1170968   -6.4265145    338.26265  0.038195873  0.038732682            5 
  739000    1.1107816   -6.3991166    339.10614  0.038239303  0.038725201            3 
  740000     1.136637   -6.4080873    339.43249  0.038224379  0.038717859            3 
  741000    1.1178585   -6.4336611     338.8305  0.038105095  0.038710686            2 
  742000    1.1484147   -6.3967867    340.13506  0.038200254  0.038703033            3 
  743000    1.1299412   -6.4052857    340.17477  0.038153294  0.038695639            5 
  744000    1.1563982   -6.3830233    340.83025  0.038175431  0.038688312            2 
  745000    1.1009325   -6.4516033    340.41145  0.038077344   0.03868109            2 
  746000    1.1139145    -6.427044    341.35619  0.038131836  0.038673342            2 
  747000    1.1405825   -6.4102291    341.63733  0.038112152  0.038665644            7 
  748000    1.1369167   -6.4471243     341.3207  0.038025924  0.038657668            2 
  749000    1.1362078   -6.4213135    340.66433  0.037902129  0.038649128            9 
  750000    1.1511047   -6.4232311    342.12972  0.038014414  0.038640989            3 
  751000    1.1066493   -6.4276159    342.21059  0.037972768  0.038632703            1 
  752000    1.1107653   -6.4126548    341.72063  0.037867977  0.038624437            4 
  753000    1.1309799   -6.4446359    342.61299  0.037916444  0.038616276            4 
  754000    1.1349512   -6.4092759    344.90311  0.038119265   0.03860865            2 
  755000    1.1426165   -6.4218429    344.63968  0.038039699  0.038600893            3 
  756000    1.1022327   -6.3805159    345.73264  0.038109858  0.038593191            4 
  757000    1.1151429   -6.4525443    344.94694  0.037973023   0.03858574            3 
  758000    1.1353075   -6.4052226    347.05209  0.038154364  0.038578307            2 
  759000    1.1463473   -6.4357897    346.34171  0.038026099   0.03857122            4 
  760000    1.1484537   -6.4272781    346.93173   0.03804076  0.038563678            2 
  761000    1.1552512   -6.4116535    347.22885  0.038023308  0.038556387            2 
  762000    1.1216817   -6.4187768    347.39806  0.037991913  0.038548749            3 
  763000    1.1431848    -6.432318    347.95821    0.0380033  0.038541017            1 
  764000    1.1157627   -6.3872594    349.46768  0.038118203  0.038533173            5 
  765000      1.12602   -6.4206954    349.57564  0.038080135  0.038525577            1 
  766000    1.1558545   -6.4833619    348.53881  0.037917626  0.038517888            5 
  767000     1.130053   -6.4869099    348.70064  0.037885772  0.038509827            8 
  768000    1.1411524   -6.4058223    350.42659  0.038023718  0.038502065            4 
  769000    1.1414287   -6.4129269    350.61614  0.037994813  0.038494932            2 
  770000    1.1365166   -6.4320509    350.44239  0.037926665  0.038487136            2 
  771000    1.1263261   -6.4110528    351.17523  0.037956683  0.038479714            2 
  772000    1.1434731   -6.4809921    351.29089  0.037920001  0.038472125            3 
  773000    1.1307073   -6.4715834    352.68908  0.038021677   0.03846498            2 
  774000    1.1076778   -6.4010079    352.51876  0.037954216  0.038458013            3 
  775000    1.1538116   -6.4119312    354.44134  0.038111972  0.038451129            3 
  776000    1.1426899   -6.4232851    353.50985  0.037962827  0.038444191            6 
  777000    1.1469028   -6.4491098    354.04664   0.03797154  0.038437026            4 
  778000    1.1408169   -6.3955395    355.16219  0.038042222  0.038429948            3 
  779000     1.128266   -6.4509788    354.81845  0.037956616  0.038423038            3 
  780000    1.1285722   -6.4232947    355.62987  0.037994644  0.038415773            3 
  781000    1.1216844   -6.4726218    355.25166   0.03790564  0.038409076            6 
  782000    1.1302459   -6.3787885    357.79088  0.038127758  0.038402143            1 
  783000     1.151585   -6.4494585    355.85623  0.037873162  0.038395193            6 
  784000    1.1279094   -6.4786429    355.24334  0.037759709  0.038387938            2 
  785000    1.1360222   -6.4493303    358.34621  0.038040999  0.038380876            2 
  786000    1.1376187   -6.4075743    358.29896  0.037987591  0.038373859            9 
  787000    1.1282802   -6.4168176    358.20739  0.037929626  0.038366761            2 
  788000    1.1045655   -6.4251046    358.32498  0.037893927   0.03835978            3 
  789000    1.1401387   -6.4461046    358.70193  0.037885713  0.038352762            1 
  790000    1.1200916   -6.4094098    360.11877  0.037987212  0.038345989            4 
  791000    1.1156732   -6.4315249    360.63046  0.037993095  0.038339033            3 
  792000     1.125825   -6.4553321    360.00664  0.037879487  0.038331935            2 
  793000    1.1078104   -6.4305063    361.01909  0.037938113  0.038324836            2 
  794000    1.1195041   -6.4443047    361.01685  0.037890098  0.038317947            2 
  795000    1.1329492   -6.4642525    362.07771  0.037953638  0.038311055            2 
  796000     1.083439   -6.4535645    361.84508  0.037881604   0.03830428            3 
  797000    1.1187766   -6.4375389    362.91064  0.037945487  0.038297779            3 
  798000    1.1099584   -6.4573999     363.4048   0.03794954  0.038291662            4 
  799000    1.1640878    -6.475021    364.28253  0.037993589  0.038285637            7 
  800000    1.1235512   -6.4704971    364.09969  0.037927051  0.038279168            5 
  801000    1.1306142   -6.4424854    365.34237  0.038008986  0.038272743            2 
  802000     1.124614   -6.4297011    363.79471  0.037800781  0.038266033            3 
  803000    1.1088489   -6.4690272    363.39333  0.037712052  0.038259439            2 
  804000     1.120736   -6.4494141    365.08126  0.037840097  0.038252644            3 
  805000    1.1282024   -6.4607051    365.10882  0.037795944  0.038245962            2 
  806000    1.1185228   -6.4266572    365.41679  0.037780892  0.038239365            5 
  807000    1.1210379   -6.4374173    365.96978  0.037791179  0.038232541            3 
  808000    1.1194068   -6.4481423    364.99787  0.037644169  0.038225595            7 
  809000    1.1142595    -6.423941    366.96641  0.037800413   0.03821841            1 
  810000    1.1148203   -6.4548959    366.66435   0.03772267  0.038211008            4 
  811000    1.1180876    -6.430276    366.65542  0.037675238  0.038203638            2 
  812000    1.1178732   -6.4711469    367.16376   0.03768101  0.038196134            3 
  813000     1.136126   -6.4647496    367.24938  0.037643437  0.038188388            1 
  814000    1.1301868   -6.4399195    366.73765  0.037544804   0.03818039            3 
  815000    1.1143334   -6.4335081    368.39762  0.037668468  0.038172572            3 
  816000    1.1120791   -6.4317837    368.10956  0.037592888  0.038164574            4 
  817000    1.1481357   -6.4543315    368.02928  0.037538686  0.038156197            6 
  818000    1.1333536   -6.4533866    368.93476  0.037585041  0.038147706            5 
  819000    1.1083497   -6.4206977    368.69551  0.037514805  0.038139039            4 
  820000    1.1293657   -6.4476781    369.54577  0.037555465  0.038130367            5 
  821000    1.1127671   -6.4104211    369.14049  0.037468584  0.038121616            3 
  822000    1.1666999   -6.4450263    370.22267  0.037532712  0.038112762            3 
  823000    1.1230933   -6.4861796    368.37016   0.03729953  0.038103773            3 
  824000    1.1131471   -6.4467101    370.15515  0.037434785  0.038094633            8 
  825000    1.1143146   -6.4711213    370.42443  0.037416609  0.038085647            3 
  826000    1.1295434   -6.4691683    370.50605  0.037379545  0.038076366            1 
  827000    1.1179227    -6.429699    370.83814   0.03736781  0.038067568            3 
  828000     1.143537   -6.4514025    372.53056  0.037493011  0.038058681            1 
  829000     1.130784   -6.4822774    370.64911  0.037258656  0.038049677            2 
  830000    1.1402345   -6.4561566     372.0763  0.037357058  0.038040594            2 
  831000    1.1365327   -6.4515593     373.5345  0.037458333  0.038031725            3 
  832000    1.1383486   -6.4171853    372.66642  0.037326364  0.038022849            2 
  833000    1.1077231    -6.451974    372.14985  0.037229877  0.038013789            3 
  834000    1.1286554    -6.458431    373.37517   0.03730767   0.03800484            2 
  835000    1.1315441   -6.4561785     374.3278  0.037358064  0.037995648            2 
  836000    1.1035188   -6.4319877    373.52093  0.037232947  0.037986536            3 
  837000    1.1091594   -6.4569556    375.71905  0.037407313  0.037977512            4 
  838000    1.1124579   -6.4992632    373.91913  0.037183685  0.037968591            5 
  839000    1.1392615   -6.4651128    375.55869  0.037302214  0.037959379            3 
  840000    1.1148042   -6.4784149    375.29366  0.037231513  0.037950301            5 
  841000    1.1196382   -6.4582071    375.77975  0.037235409  0.037941423            4 
  842000    1.1177174   -6.4406796    377.57073  0.037368442  0.037932918            6 
  843000    1.1284228   -6.4667315    378.19108  0.037385437  0.037924536            5 
  844000    1.1251815   -6.4626391    378.78851  0.037400129  0.037916291            4 
  845000    1.1095578   -6.4587065     378.0075  0.037278846   0.03790812            1 
  846000    1.1573128   -6.4337483    378.84112  0.037316895  0.037900047            6 
  847000    1.1047472   -6.4204793    379.95207   0.03738214  0.037891951            2 
  848000    1.0962704   -6.4594629    379.57788  0.037301285  0.037883768            2 
  849000    1.1510836   -6.4551556    380.54032  0.037351818  0.037875465            3 
  850000    1.0941857    -6.451943    381.29055  0.037381427   0.03786738            2 
  851000    1.1223759   -6.4323259    380.62752  0.037272574  0.037859405            2 
  852000    1.1006288   -6.4180591    382.07136  0.037370047   0.03785131            2 
  853000    1.1193344   -6.4497873    382.00374  0.037319631  0.037843058            5 
  854000    1.1378049   -6.4440514    381.89471  0.037265291  0.037835021            4 
  855000    1.1080916    -6.447177    382.21346  0.037252774  0.037826903            2 
  856000    1.1137928   -6.4761012    382.28361  0.037216084  0.037818965            3 
  857000    1.1215046   -6.4587593    383.17912  0.037259735  0.037810648            4 
  858000    1.0980058   -6.4690989    382.20147  0.037121355  0.037802296            2 
  859000    1.1283861   -6.4352847    383.70768  0.037224261  0.037793957            2 
  860000    1.1346548   -6.4766644    383.43955  0.037154995  0.037785369            3 
  861000    1.1103779   -6.4710968     384.5552  0.037219822  0.037776633            2 
  862000    1.1053423   -6.4771822    383.89458  0.037112778  0.037767653            7 
  863000    1.1096806   -6.4599084    385.73507  0.037247496    0.0377589            5 
  864000    1.1076713   -6.4832627    385.07294  0.037140523  0.037750476            5 
  865000    1.1265068   -6.4693922    385.76322  0.037164087  0.037741951            2 
  866000    1.0998877   -6.4617623    386.26112  0.037169084  0.037733424            5 
  867000    1.1202716   -6.4326745    385.75717  0.037077775  0.037724657            1 
  868000    1.1068485    -6.474422    385.47681  0.037008143  0.037715557            3 
  869000    1.1010155   -6.4570899    386.56981   0.03707037  0.037706602            3 
  870000    1.1119225   -6.4744244    385.90898  0.036964461   0.03769734            3 
  871000     1.108662   -6.4498747    385.89768  0.036920942   0.03768782            4 
  872000    1.1259576   -6.4558028    386.58466  0.036944253   0.03767865            3 
  873000    1.1241111   -6.4798994    387.28095  0.036968399  0.037669141            3 
  874000    1.0947278   -6.4478707    387.29859  0.036927783  0.037659781            2 
  875000    1.1308952   -6.4652755    387.55972   0.03691045  0.037650349            2 
  876000    1.1178293   -6.4327828    389.21878  0.037026139  0.037640821            2 
  877000    1.0874176    -6.477773    388.50423  0.036916024  0.037631427            3 
  878000    1.1096487   -6.4765163    388.32492  0.036856959  0.037622005            8 
  879000    1.1257218   -6.4557998    388.29526  0.036812217  0.037612479            3 
  880000    1.0911843   -6.4762557     389.2929  0.036864858  0.037603139            4 
  881000     1.099212   -6.4494227    390.08113  0.036897571   0.03759405            3 
  882000    1.1213539   -6.4507666    390.20485  0.036867427  0.037585072            2 
  883000    1.1190306   -6.4746529     391.0885  0.036909069  0.037575895            2 
  884000    1.1226173   -6.4623908    391.08466  0.036866955  0.037566648            5 
  885000     1.126975   -6.4752196    392.14168  0.036924829  0.037557322            1 
  886000    1.1114013   -6.4701068    393.14913   0.03697791  0.037548168            3 
  887000    1.1168884   -6.4598665    392.24549  0.036851324  0.037539042            2 
  888000    1.1009415   -6.4509786    393.90387  0.036965453   0.03752987            5 
  889000    1.1194706   -6.4733448    392.53304  0.036795373  0.037520593            2 
  890000    1.1064687   -6.5034443    392.49395   0.03675037   0.03751137            3 
  891000    1.1328379   -6.4391588    395.13431   0.03695607  0.037502411            2 
  892000    1.0969034   -6.4735136    394.98486  0.036900678  0.037493564            2 
  893000    1.0937899   -6.4797527    394.91134  0.036852495  0.037484762            3 
  894000    1.0850643   -6.4728897    394.58146  0.036780524  0.037476025            2 
  895000    1.0886478   -6.4609228    395.55739  0.036830297  0.037467084            4 
  896000    1.1186696   -6.4561789    394.90488  0.036728505  0.037458092            2 
  897000    1.1129927   -6.4489469    395.57507  0.036749821  0.037448648            7 
  898000    1.0730024   -6.4711303    396.17187  0.036764279  0.037439069            5 
  899000    1.0937736   -6.5076393    395.23263  0.036636321  0.037429201            7 
  900000    1.0874074   -6.4141045    397.89254  0.036841902  0.037419376            3 
  901000    1.1138229   -6.4497941    397.63057  0.036776782  0.037409768            3 
  902000    1.1357495   -6.4529293    396.24576  0.036608071  0.037400207            2 
  903000    1.1301502   -6.5152293    396.96206  0.036633634  0.037390384            3 
  904000    1.0725656   -6.4861549    396.63545  0.036563003  0.037380426            1 
  905000    1.1032947   -6.4623184    397.54488  0.036606343  0.037370663            2 
  906000    1.0985222   -6.4980621    398.02845  0.036610417   0.03736077            3 
  907000    1.1091439   -6.4754276    398.84641  0.036645204  0.037350841           11 
  908000    1.1146332   -6.4579765    398.40522  0.036564356  0.037341189            2 
  909000    1.1056927   -6.4701122    398.76641  0.036557243  0.037331665            3 
  910000    1.0846784   -6.4695696    399.77228  0.036609184   0.03732211            5 
  911000    1.0904195    -6.480548    400.47014  0.036632834  0.037312553            3 
  912000    1.1040982     -6.49834    401.00466  0.036641508  0.037302931            3 
  913000    1.1060934   -6.4650265    401.47178  0.036644011  0.037293435            3 
  914000    1.0798148   -6.4621993     402.4362  0.036691849  0.037283935            6 
  915000    1.1059193   -6.4553355     401.3513  0.036552942  0.037274588            4 
  916000    1.0879254   -6.4900687    402.51137  0.036618575  0.037265114            2 
  917000    1.0992382   -6.4721792    402.82009  0.036606696  0.037255866            2 
  918000    1.1180665   -6.4627147    403.59444  0.036637113  0.037246706            2 
  919000    1.1130762   -6.4434931    405.52996  0.036772756  0.037237918            2 
  920000    1.1270833   -6.5002852    405.07511  0.036691586  0.037229144            3 
  921000    1.1209331   -6.4754838    405.05947  0.036650332  0.037220408            3 
  922000    1.1026546   -6.4655396    406.65803  0.036755064  0.037212131            3 
  923000    1.0871682   -6.4873972    406.24719   0.03667815  0.037203758            1 
  924000    1.0855372    -6.465821    407.18137  0.036722707  0.037195659            1 
  925000    1.0952339   -6.4673117    407.67364  0.036727355  0.037187545            3 
  926000    1.1088035   -6.5078518    407.42908  0.036665684  0.037179292            2 
  927000    1.0977322   -6.4701743     408.3432  0.036708306  0.037170864            5 
  928000    1.1096974   -6.4885844    407.45934   0.03658938  0.037162433            5 
  929000    1.1012838   -6.4801096    407.93644  0.036592792  0.037153872            1 
  930000    1.0926851   -6.4734121    407.98206  0.036557533  0.037145023            3 
  931000    1.1141999   -6.4644057    409.64109  0.036666764  0.037136539            3 
  932000     1.099808   -6.5233743    408.82346  0.036554315   0.03712762            2 
  933000    1.0696961   -6.4967317    410.57791  0.036671839  0.037118562            5 
  934000    1.1222833   -6.4510181    410.42159  0.036618629  0.037109748            2 
  935000    1.0814241   -6.4995963    410.70387  0.036604623  0.037100943            5 
  936000    1.0998473   -6.4932946    410.04005  0.036506415  0.037092179            4 
  937000    1.1085534   -6.5261425    409.50687  0.036420035   0.03708324            2 
  938000    1.0987012   -6.4497951    410.59704  0.036478059  0.037074604            5 
  939000     1.084827   -6.5123508    411.85366  0.036550733  0.037065947            5 
  940000    1.0943625   -6.4666728    410.55481  0.036396703  0.037057204            4 
  941000    1.1037158   -6.4662412    412.11884  0.036496532  0.037048595            3 
  942000    1.0772534    -6.526516    411.76681  0.036426647  0.037039893            4 
  943000    1.1193567   -6.4537876    411.46297  0.036361167  0.037031003            3 
  944000    1.1001653   -6.5059178    412.19694  0.036387442  0.037022114            4 
  945000    1.1159181   -6.4524523    413.20849  0.036438138  0.037013327            2 
  946000    1.1134892   -6.4626459    413.61046   0.03643503  0.037004473            3 
  947000    1.0781318   -6.4991859    414.70348  0.036492739  0.036995189            1 
  948000    1.1144612    -6.483175    413.65742  0.036362291  0.036986041            2 
  949000    1.1093353   -6.5321814    414.86547  0.036430056  0.036977436            3 
  950000    1.1234539   -6.4578343    417.25179  0.036601035  0.036968901            7 
  951000    1.0998307   -6.4944067    416.30012  0.036479156  0.036960156            4 
  952000    1.1072582   -6.4919099    415.16417  0.036341401  0.036951377            5 
  953000    1.0849447   -6.4549532     416.1765  0.036391789  0.036942643            3 
  954000    1.1084314   -6.4584435    415.73159  0.036314779  0.036933705            3 
  955000    1.1062044   -6.4770267    417.89644  0.036465658  0.036924743            2 
  956000    1.1245899   -6.4564026    416.27588  0.036286252  0.036915705            3 
  957000    1.0960307   -6.4981705    418.01162   0.03639948  0.036906878            5 
  958000    1.1099262   -6.4826614    418.73097  0.036424058  0.036898143            1 
  959000    1.1042522   -6.5003003    418.26885   0.03634592  0.036889487            3 
  960000     1.090085   -6.4807213    419.19326  0.036388304  0.036880979            2 
  961000    1.0784901   -6.4684295    420.52577  0.036465988  0.036872366            1 
  962000    1.1126209   -6.4889475    419.04326  0.036299659  0.036863547            3 
  963000    1.1184786   -6.4765591    420.17057  0.036359517  0.036854472            6 
  964000    1.1001241   -6.5185256    420.02974  0.036309625  0.036845692            4 
  965000    1.1003805    -6.473047    420.18308   0.03628524  0.036836992            2 
  966000     1.118907   -6.4673361    421.84484  0.036391032  0.036828516            3 
  967000    1.0902614   -6.4907672    422.77396  0.036433468  0.036820343            3 
  968000    1.0917498   -6.5254635    422.89928  0.036406619  0.036812207            5 
  969000    1.0895927   -6.4831903    421.58942    0.0362564  0.036804054            3 
  970000     1.083001   -6.5308725    422.81924  0.036324677  0.036795959            3 
  971000    1.1129526   -6.5235314    423.65788  0.036359242  0.036787633            3 
  972000    1.0998975   -6.4534831    424.27054  0.036374361  0.036779278            4 
  973000    1.1013421   -6.5072283    423.50058  0.036271033  0.036770991            2 
  974000    1.1097768   -6.4789258    425.25728  0.036384093   0.03676263            3 
  975000    1.0810384   -6.5069868    424.46027  0.036278656  0.036754192            3 
  976000    1.0832606   -6.4890134    425.35214  0.036317635  0.036745994            4 
  977000     1.117892   -6.5316192    425.72549  0.036312307  0.036737819            2 
  978000    1.1081154   -6.5025329    425.90002  0.036290049  0.036729707            5 
  979000    1.0865681   -6.5151905     426.0108  0.036262411  0.036721456            4 
  980000    1.0934195   -6.5157355    424.95358  0.036135509   0.03671296            1 
  981000    1.0717228   -6.4728412    426.40299  0.036221797  0.036704541            3 
  982000    1.0934191   -6.5203746    426.32126  0.036177975  0.036695977            6 
  983000    1.1132927   -6.5049973    427.64848  0.036253686  0.036687681            4 
  984000    1.0980455   -6.4736862     429.0453  0.036335137  0.036679501            4 
  985000    1.0867113   -6.5117558    427.57683  0.036174013  0.036671104            4 
  986000    1.1058663   -6.4596874    430.38749  0.036374873  0.036662935            2 
  987000    1.0869736   -6.4988442    428.93519  0.036215399  0.036654998            2 
  988000     1.103948   -6.5072091    430.23975  0.036288778  0.036646831            3 
  989000    1.0932865   -6.5046157    429.83958  0.036218367  0.036638468            8 
  990000    1.1021661   -6.4809443    430.13097  0.036206311   0.03663017            4 
  991000    1.0951873   -6.5235583    429.70304  0.036133791  0.036621706            4 
  992000    1.0943683    -6.515075    430.87222  0.036195583  0.036613474            3 
  993000    1.1066628    -6.495601    431.80817  0.036237678  0.036605516            5 
  994000     1.083129   -6.5083164    430.45962  0.036088164  0.036597354            3 
  995000    1.0864613   -6.5103069    431.49901  0.036138945  0.036589349            3 
  996000    1.0951604   -6.5054412    433.18907  0.036244066  0.036581286            3 
  997000    1.0960569   -6.4845955     433.8569  0.036263532  0.036573257            3 
  998000     1.088697   -6.4854313     433.5386  0.036200618  0.036565187            6 
  999000    1.0898166   -6.5104186    431.85046  0.036023562  0.036556965            3 
 1000000    1.0848961   -6.5081753    431.91755  0.035993129  0.036548441            1 
 1001000    1.0885735   -6.4904305    433.86471  0.036119273  0.036539962            5 
 1002000    1.0771294   -6.5067645    432.69603   0.03598603  0.036531453            5 
 1003000    1.0869735   -6.5107948    433.55913  0.036021862  0.036522947            5 
 1004000    1.1202954   -6.4723524    434.47949  0.036062375  0.036514294            3 
 1005000    1.0831598   -6.5360608    434.04976  0.035990859  0.036505519            2 
 1006000    1.0877846    -6.494782    434.07901  0.035957505  0.036496778            7 
 1007000    1.0998267   -6.5259709     433.5634  0.035879129  0.036488334            4 
 1008000    1.0960226   -6.4924549     436.7586  0.036107689  0.036479537            4 
 1009000    1.0746746   -6.5253998    435.40411  0.035960035  0.036470813            5 
 1010000    1.1086318   -6.4891702    436.72866  0.036033718  0.036462035           10 
 1011000    1.0953364   -6.5283089    435.26073  0.035877079  0.036453495            3 
 1012000    1.0929257   -6.4743408    435.88264  0.035892839  0.036444902            6 
 1013000    1.0993013   -6.4978107    436.94098   0.03594447  0.036436241            2 
 1014000    1.0955999   -6.5162222    437.27871  0.035936778  0.036427427            7 
 1015000    1.0988898   -6.5169029    436.26662  0.035818278   0.03641871            3 
 1016000    1.1025398   -6.5342482    436.64182  0.035813798  0.036409958            2 
 1017000    1.0929315   -6.4727251     439.4947  0.036012348  0.036401089            3 
 1018000    1.0804827   -6.5237688    438.44549  0.035891085  0.036392377            4 
 1019000    1.1003413   -6.5194647    437.54888  0.035782539   0.03638343            2 
 1020000    1.0853484   -6.4998218    438.67205  0.035839219  0.036374543            4 
 1021000     1.071651   -6.4939187    439.27421  0.035853266  0.036365975            3 
 1022000    1.0804127   -6.4903079    439.70599  0.035853391  0.036357215            2 
 1023000    1.1013274   -6.4973325    440.51651  0.035884369  0.036348482            2 
 1024000    1.0954842   -6.4796257    439.98329  0.035805931   0.03633968            4 
 1025000    1.0651865   -6.5405109    439.85999  0.035760975  0.036330871            3 
 1026000    1.0807269   -6.4894724    440.04356   0.03574103  0.036322052            2 
 1027000    1.0831353   -6.5257294    441.28849  0.035807245   0.03631309            1 
 1028000    1.0919337   -6.4637019    441.45965  0.035786288   0.03630435            3 
 1029000    1.0843358   -6.4815832      441.803  0.035779316   0.03629578            4 
 1030000    1.0774049   -6.4924894    442.91468  0.035834521  0.036286987            2 
 1031000    1.0825505   -6.5130789    442.17781  0.035740205  0.036278419            5 
 1032000    1.0882509   -6.4807942    443.71853  0.035829984  0.036269771            2 
 1033000    1.0782615   -6.4658965    443.02594  0.035739427  0.036261178            2 
 1034000    1.0824279    -6.514761    444.08398  0.035790134  0.036252754            4 
 1035000    1.0651764    -6.522874    443.05268  0.035672518  0.036243942            4 
 1036000    1.0654402   -6.5256758    443.99651  0.035714005  0.036235086            5 
 1037000    1.0944901   -6.5130663    444.84957  0.035748117  0.036226562            2 
 1038000    1.1025102   -6.4963285    444.60528  0.035694065  0.036218075            2 
 1039000    1.1008302   -6.5262725    445.62024  0.035741116   0.03620929            4 
 1040000    1.0974571   -6.5221931    444.35098  0.035605046  0.036200328            2 
 1041000    1.0838485   -6.5203988    445.38371  0.035653515  0.036191635            5 
 1042000    1.0903508   -6.5073572    447.20678  0.035765098  0.036182629            2 
 1043000    1.0609583   -6.5050833    445.68443  0.035609175  0.036173879            6 
 1044000    1.0932528   -6.5257131    447.74785  0.035739771  0.036165001            7 
 1045000    1.0717881    -6.512193    446.52593  0.035608128   0.03615624            3 
 1046000    1.0740345   -6.5564128    447.63708   0.03566261  0.036147304            3 
 1047000     1.061166   -6.5207695     449.2259  0.035755006  0.036138724            8 
 1048000    1.0828394   -6.5359108    448.69602  0.035678755  0.036130243            7 
 1049000    1.0806819   -6.5329747    448.00465  0.035589819  0.036121279            6 
 1050000     1.100358   -6.5442301    448.26209  0.035576357  0.036112335            9 
 1051000    1.0661066   -6.5009781    449.77367  0.035662359  0.036103512            4 
 1052000    1.0667728   -6.5560642    448.27876  0.035510041  0.036094578            4 
 1053000    1.0950448   -6.4869804    449.62311  0.035582709  0.036085736            3 
 1054000    1.0671494   -6.5267436    450.26865  0.035599988   0.03607698            2 
 1055000    1.0789859   -6.5434642    449.17126  0.035479562  0.036067964            3 
 1056000    1.1007843    -6.509475    451.11926  0.035599689   0.03605914            3 
 1057000    1.1107903   -6.5435155    449.90479  0.035470261  0.036050345            5 
 1058000    1.0572811   -6.5258303    451.31551  0.035547851  0.036041718            3 
 1059000    1.1082335   -6.5296481    451.71544  0.035545754  0.036033312            4 
 1060000    1.0720911    -6.480349    452.52417    0.0355758  0.036025014            5 
 1061000    1.0763384   -6.5402687    453.07272  0.035585353  0.036016579            2 
 1062000    1.0924243   -6.5098138    453.86998  0.035614405  0.036008206            8 
 1063000    1.0857636   -6.5299711    452.79998  0.035497019  0.035999684            3 
 1064000    1.0888362   -6.5165622    454.45476  0.035593261  0.035990862            3 
 1065000    1.0549088   -6.5366177    453.64079  0.035496149  0.035982194            7 
 1066000    1.0858563   -6.5249988    454.63353  0.035540458   0.03597337            2 
 1067000    1.1031102   -6.5158448    454.90425  0.035528292  0.035964996            5 
 1068000    1.1100914   -6.4931992    454.37712  0.035453895  0.035956604            3 
 1069000    1.0948934    -6.523967    455.10271  0.035477293   0.03594795            5 
 1070000     1.078392   -6.5249412    454.85717  0.035425014  0.035939388            5 
 1071000    1.0820778   -6.5295719     454.8456  0.035391036  0.035930548            4 
 1072000      1.08659   -6.5160233    454.81159  0.035355378  0.035922068            5 
 1073000    1.0761701   -6.4807418    457.03157  0.035494841  0.035913509            2 
 1074000    1.0738748   -6.4931249    456.88439  0.035450372  0.035905069            2 
 1075000    1.0737361   -6.5080111     455.8622  0.035338155  0.035896501            3 
 1076000    1.0945373   -6.5435903    456.96845  0.035390989  0.035887955            7 
 1077000    1.0645684   -6.5762549    458.27073  0.035458893  0.035879195            4 
 1078000    1.0879208   -6.5246412    457.01251  0.035328735  0.035870387            5 
 1079000    1.0756697   -6.5184775    458.53353  0.035413464   0.03586183            3 
 1080000     1.064878   -6.5032393    459.64811  0.035466675  0.035853569            1 
 1081000    1.0942844   -6.5150162    459.81524   0.03544675  0.035845361           12 
 1082000    1.0767913   -6.5768366    459.75747   0.03540954  0.035837074            4 
 1083000    1.0761102   -6.5438743    460.98578  0.035471359  0.035829031            5 
 1084000    1.0939774   -6.5618986    460.32863  0.035388117  0.035821125            3 
 1085000    1.0643107   -6.5703749    462.51284   0.03552326   0.03581317            4 
 1086000    1.0987173   -6.5299029    462.28682  0.035473206  0.035805099            4 
 1087000     1.075835   -6.5251629    463.01331  0.035496267  0.035797232            2 
 1088000    1.0959672   -6.5178536    463.61951  0.035510073  0.035789274            3 
 1089000    1.0700976   -6.5035708    464.82654   0.03556983  0.035781563            3 
 1090000    1.0569912   -6.5227177    464.76006  0.035532115  0.035773838            4 
 1091000    1.0860603   -6.5149435    464.81039  0.035503391  0.035766297            2 
 1092000    1.0592621   -6.5346213    465.48082   0.03552204  0.035758727            4 
 1093000    1.0799315   -6.5362742    466.04987  0.035532927  0.035751127            2 
 1094000    1.0820252   -6.5196931    465.67017  0.035471525  0.035743345            4 
 1095000    1.0938837   -6.5480094     464.5256  0.035352024  0.035735542            4 
 1096000    1.0737112   -6.5406923    467.62373  0.035555332  0.035727779            3 
 1097000    1.0847069   -6.5155429    467.26415  0.035495606  0.035720112            2 
 1098000    1.0886562   -6.4965809     468.0331  0.035521638  0.035712532            4 
 1099000    1.0794753   -6.5473765    467.63353  0.035459018  0.035704972            4 
 1100000    1.0551119   -6.5482483     467.2757  0.035399675  0.035697226            8 
 1101000    1.0729544    -6.536876    467.97558  0.035420495  0.035689761            7 
 1102000    1.0801994    -6.568156    468.43013  0.035422726  0.035682236            2 
 1103000    1.0677751   -6.5589911    468.31841  0.035382171   0.03567471            2 
 1104000    1.0943988   -6.5575527    469.93386  0.035472061  0.035667211            6 
 1105000    1.0690296   -6.5260507    471.26936  0.035540676  0.035660069            4 
 1106000    1.0657275   -6.5535155    470.66237  0.035462807  0.035653066            3 
 1107000    1.0800659   -6.5726269    470.94654  0.035452164  0.035646033            2 
 1108000    1.0483151   -6.5704568    471.18372  0.035438005  0.035638764            5 
 1109000    1.0827216    -6.574266    470.81506  0.035378348  0.035631405            4 
 1110000    1.0726922   -6.5216731    471.27511  0.035381014   0.03562428            4 
 1111000    1.0568497   -6.5295495    471.80902  0.035389215  0.035617057            4 
 1112000      1.07024    -6.567172    471.85406  0.035360766  0.035609635            2 
 1113000    1.0651457   -6.5433735    472.10949   0.03534812  0.035602268            4 
 1114000    1.0608311   -6.5736854    474.00593  0.035458253  0.035594907            4 
 1115000     1.097488   -6.5359267    473.97825  0.035424384  0.035587558            3 
 1116000    1.0629965   -6.5506711    473.37669  0.035347722  0.035580331            5 
 1117000    1.0674599   -6.5770315    472.22612  0.035230238  0.035572845            3 
 1118000    1.0705818   -6.5477477    473.78296   0.03531477  0.035565474            2 
 1119000    1.0545827   -6.5636031    474.72055  0.035353035  0.035557896            2 
 1120000    1.0686544   -6.5592609    473.33337  0.035218257  0.035550514            3 
 1121000    1.0692725   -6.5911684    474.31757  0.035260004  0.035543013            6 
 1122000    1.0632127   -6.5061255    475.69338  0.035330762  0.035535671            7 
 1123000    1.0590506   -6.5144874    474.89339  0.035239937  0.035528238            2 
 1124000    1.0623662   -6.5641527    475.87807  0.035281589  0.035520872            3 
 1125000    1.0792191   -6.5674546    476.03637  0.035261954  0.035513414            3 
 1126000    1.0952217   -6.5274758    477.99913  0.035375897  0.035506047            3 
 1127000    1.0847873   -6.5489448    476.12705  0.035206082  0.035498438            4 
 1128000    1.0565283   -6.5567789    478.17938  0.035326491  0.035490784            4 
 1129000    1.0758621   -6.5366346    478.38108  0.035310088  0.035483434            6 
 1130000    1.0512976   -6.5522398    476.58567  0.035146436  0.035475915            5 
 1131000     1.058497   -6.5240174    478.13932  0.035229835  0.035468424            4 
 1132000    1.0611276   -6.5691642    478.99106  0.035261415  0.035460956            5 
 1133000    1.0754399   -6.5253324    479.09037  0.035237597  0.035453355            5 
 1134000     1.078576   -6.5356871    477.24485  0.035070903  0.035445597            3 
 1135000    1.0644322   -6.5581363    480.30272  0.035264517  0.035437958            3 
 1136000    1.0869773   -6.5522248    480.33707  0.035235994  0.035430431            2 
 1137000    1.0945032   -6.5194878    480.48245  0.035215659  0.035422971            3 
 1138000    1.0931495   -6.5388136    481.89268  0.035287982  0.035415642            2 
 1139000    1.0557007   -6.5587846    480.72375  0.035171477  0.035408013            3 
 1140000    1.0693624   -6.5921466    480.57924  0.035130061  0.035400429            4 
 1141000    1.0745018   -6.5390865     481.6451  0.035177118  0.035392696            5 
 1142000    1.0850241   -6.5088819    483.28644  0.035266086  0.035385268            4 
 1143000    1.0434778   -6.5153352    483.37378    0.0352416    0.0353779            5 
 1144000    1.0779783   -6.5394489    480.35617   0.03499098  0.035370323            5 
 1145000    1.0663829    -6.536933    482.93544  0.035148139  0.035362665            2 
 1146000    1.0546889   -6.5443033    483.56163  0.035163004   0.03535495            3 
 1147000    1.0724798   -6.5408626    482.45342  0.035051832  0.035347292            4 
 1148000    1.0626815   -6.5843481    482.46123  0.035021867  0.035339635            6 
 1149000    1.0901743   -6.5339613    483.62519  0.035075804  0.035331886            3 
 1150000    1.0589424   -6.5194016    483.93469  0.035067731  0.035324127            4 
 1151000    1.0650799   -6.5589316    483.71279  0.035021198  0.035316557            6 
 1152000    1.0741251   -6.5718447     484.4607    0.0350449  0.035308682            4 
 1153000    1.0554919   -6.5498238      486.142  0.035136022  0.035301053            6 
 1154000    1.0420276   -6.5700494    485.30438  0.035045088  0.035293426            3 
 1155000     1.044448   -6.5518668     486.4141  0.035094813  0.035286003            5 
 1156000     1.066185   -6.5198996    486.40327  0.035063673  0.035278632            3 
 1157000    1.0428712   -6.5287935    488.04358  0.035151511  0.035271403            3 
 1158000    1.0562372   -6.5303435     487.0925  0.035052713  0.035264319            3 
 1159000    1.0743047   -6.5558125    487.27855  0.035035847  0.035257048            3 
 1160000    1.0744073    -6.562774    488.29688  0.035078799  0.035249774            3 
 1161000    1.0673582   -6.5676198    488.18264  0.035040384  0.035242498            6 
 1162000     1.068065   -6.5741544    488.03362  0.034999542  0.035235233            6 
 1163000    1.0584701   -6.5453142    490.26296  0.035129189  0.035227993            3 
 1164000    1.0775042   -6.5278045    489.20224   0.03502307   0.03522111            3 
 1165000    1.0759209   -6.5580944    489.76231   0.03503307  0.035213967            3 
 1166000    1.0498483   -6.5534923    490.07646  0.035025476  0.035206565            4 
 1167000    1.0586059   -6.5177541    490.17983  0.035002844  0.035199207            2 
 1168000    1.0488507   -6.5334621    491.00012  0.035031401  0.035191927            3 
 1169000    1.0898014   -6.5501531    490.32499  0.034953307  0.035184384            5 
 1170000    1.0627628   -6.5471669    493.45873  0.035146633  0.035177206            4 
 1171000    1.0463831   -6.5528572    492.46677  0.035046027  0.035169957            2 
 1172000    1.0516244   -6.5432868    491.61956  0.034955885   0.03516277            3 
 1173000    1.0793721   -6.5650003    491.70834  0.034932391  0.035155622            3 
 1174000    1.0458247    -6.576343    492.29771  0.034944471  0.035148269            2 
 1175000    1.0552824   -6.5707144    491.87215   0.03488455  0.035140888            2 
 1176000    1.0600296   -6.5703691    491.53986  0.034831339  0.035133396            2 
 1177000    1.0967565    -6.577736      493.288  0.034925517  0.035125729            3 
 1178000    1.0446996   -6.5523114    494.13713  0.034955938  0.035118307            6 
 1179000    1.0924576   -6.5699709    494.15448  0.034927515  0.035110879            5 
 1180000    1.0601308   -6.5895453    493.71768  0.034867068  0.035103515            3 
 1181000    1.0446515   -6.5699543    493.85528  0.034847254  0.035095834            2 
 1182000    1.0604811   -6.5743444    493.50382  0.034792994    0.0350885            5 
 1183000     1.083003   -6.5810737    493.24813  0.034745572  0.035080998            4 
 1184000    1.0521551   -6.5506995    494.19217   0.03478267  0.035073563            5 
 1185000    1.0412318   -6.5867985    494.25383  0.034757653  0.035066052            4 
 1186000    1.0582342   -6.5658707    496.28781  0.034871263  0.035058381            5 
 1187000    1.0422225   -6.5593538    496.27739  0.034841154  0.035050952            3 
 1188000    1.0519954   -6.5785813    495.55714  0.034761303  0.035043421            3 
 1189000    1.0617054   -6.5896015    494.94107  0.034688889  0.035035753            2 
 1190000    1.0773198   -6.5825066    495.40183  0.034692005  0.035027928            3 
 1191000    1.0740128   -6.5450694    496.82153  0.034762212  0.035020368            5 
 1192000    1.0564491   -6.5519675    497.24801  0.034762864  0.035012657            6 
 1193000    1.0582865   -6.5441913    496.79047  0.034701765   0.03500516            5 
 1194000    1.0652485    -6.553865     499.7286  0.034877763  0.034997704            3 
 1195000    1.0596618    -6.548307    498.76911  0.034781668  0.034990034            2 
 1196000    1.0602108   -6.5684542    498.70205  0.034747913  0.034982598            3 
 1197000    1.0734974   -6.5519951    499.88921  0.034801532  0.034975022            2 
 1198000    1.0788798   -6.5647589     500.2592  0.034798219  0.034967532            2 
 1199000    1.0493452   -6.5990011    498.77781  0.034666236  0.034959952            4 
 1200000    1.0498736   -6.5357773    499.59466  0.034694074  0.034952433            1 
 1201000    1.0551223   -6.6077471    499.19551   0.03463749  0.034944804            5 
 1202000    1.0617323   -6.5344918    500.99608  0.034733505  0.034937238            4 
 1203000    1.0806863   -6.5646863    501.36705  0.034730331  0.034929982            4 
 1204000    1.0587302   -6.5555533    501.63558  0.034720071  0.034922612            2 
 1205000    1.0607793    -6.574795     501.7666  0.034700318   0.03491517            3 
 1206000    1.0666083   -6.5997601    501.94331  0.034683756  0.034907675           11 
 1207000    1.0639627   -6.5366524    502.79934  0.034714122  0.034900375            3 
 1208000    1.0467704   -6.5560497    502.91114  0.034693097  0.034892974            2 
 1209000    1.0390797   -6.5304508    504.85615  0.034798467  0.034885594            4 
 1210000    1.0663157   -6.5720981    503.05014  0.034645326  0.034878233            5 
 1211000     1.079021   -6.5962133    503.60867  0.034655152   0.03487077            3 
 1212000    1.0761783   -6.5837132    505.32577  0.034744621  0.034863574            4 
 1213000    1.0450379   -6.5854051     504.9351  0.034689139  0.034856368            5 
 1214000    1.0605714    -6.568532    505.01526  0.034666067  0.034849293            5 
 1215000    1.0668648   -6.5672029    505.65291   0.03468127  0.034842111            2 
 1216000    1.0588974   -6.5844534    506.18515  0.034689224  0.034834953            2 
 1217000    1.0646137   -6.5544786    507.69241  0.034763928  0.034828076            1 
 1218000    1.0421617    -6.570425     507.7183  0.034737158  0.034821262            2 
 1219000    1.0547328   -6.5810651    507.48394   0.03469264  0.034814483            7 
 1220000    1.0777057    -6.560048    508.30617  0.034720367  0.034807779            5 
 1221000    1.0745444    -6.582726    508.55289  0.034708769  0.034801055            4 
 1222000    1.0573018    -6.575806    509.81857  0.034766678  0.034794031            3 
 1223000    1.0614755   -6.5909124    509.51102  0.034717295  0.034787045            3 
 1224000    1.0457661   -6.5713939    511.17755  0.034802393  0.034780114            2 
 1225000    1.0377988   -6.5789095    510.24833   0.03471077  0.034773359            6 
 1226000    1.0406647   -6.5943153    509.84058  0.034654743  0.034766611            5 
 1227000    1.0613361   -6.5828368    511.50998  0.034739879  0.034759878            3 
 1228000    1.0404541   -6.5857876    509.85277  0.034599129  0.034753263            4 
 1229000    1.0509996     -6.55716     511.8626  0.034707255   0.03474645            2 
 1230000    1.0736574   -6.5725375    511.60079    0.0346613  0.034739526            4 
 1231000    1.0655812   -6.5741925    512.04179  0.034662997  0.034732888            3 
 1232000    1.0627945   -6.5671639    511.92044  0.034626653  0.034726428            3 
 1233000    1.0461841   -6.5589849    513.24033  0.034687776  0.034719657            6 
 1234000    1.0544193   -6.5971326    512.59933  0.034616378  0.034713107            4 
 1235000    1.0544136   -6.5924592    514.55468  0.034720289  0.034706188            3 
 1236000    1.0519448   -6.6004782    513.36068  0.034611696  0.034699419            3 
 1237000    1.0456841   -6.6136656      512.467  0.034523511   0.03469264            6 
 1238000    1.0295358   -6.5605789    515.67069  0.034711274  0.034685871            3 
 1239000    1.0406034   -6.6058749    514.17553  0.034582696  0.034678996            4 
 1240000     1.057802   -6.5949336    514.12864  0.034551656  0.034672122            4 
 1241000    1.0411253    -6.578487    515.40962  0.034609832  0.034665329            2 
 1242000    1.0458562   -6.6060954    515.22338   0.03456947  0.034658452            2 
 1243000    1.0345866   -6.5966617    514.96619  0.034524416  0.034651518            3 
 1244000     1.062559   -6.5825982    514.42182  0.034460197  0.034644656            4 
 1245000    1.0307592   -6.6277351    514.00871  0.034404867  0.034637579            4 
 1246000      1.07596   -6.5689801    515.87893  0.034502336  0.034630639            5 
 1247000    1.0453914   -6.5685276    518.59902  0.034656444  0.034623782            4 
 1248000    1.0288752   -6.5834508     516.6174  0.034496354  0.034616863            3 
 1249000    1.0502439   -6.5712675    516.91742  0.034488753   0.03460994            3 
 1250000    1.0282465   -6.6236949    517.33865  0.034489243  0.034602908            5 
 1251000    1.0600328   -6.6093536    517.80864  0.034492982  0.034595711            4 
 1252000    1.0836855   -6.5640093    518.66989  0.034522756   0.03458863            6 
 1253000    1.0669172   -6.5575412    519.47286  0.034548608  0.034581784            2 
 1254000    1.0705192   -6.6152576    517.96492  0.034420848  0.034574845            3 
 1255000      1.03209   -6.5876754    519.25228  0.034478903  0.034567958            4 
 1256000    1.0824471   -6.5474163    520.19001  0.034513669  0.034561138            4 
 1257000    1.0504282    -6.620458    519.36945  0.034431812  0.034554213            5 
 1258000    1.0535398   -6.5685596    519.91691  0.034440707  0.034547384            2 
 1259000    1.0403144   -6.6130352     520.5401    0.0344546  0.034540601            7 
 1260000    1.0777836   -6.6022519    521.82779   0.03451242  0.034533881            7 
 1261000    1.0266258   -6.6216374    521.53026  0.034465389  0.034527326            3 
 1262000    1.0694363    -6.613932     521.0102  0.034403737  0.034520616            4 
 1263000    1.0365783   -6.6035045    521.94854   0.03443841  0.034513879            4 
 1264000      1.03368   -6.5693248    523.35999  0.034504219  0.034507202            2 
 1265000    1.0389732   -6.5803096    523.37566  0.034477975  0.034500621            2 
 1266000    1.0541144   -6.5925666    522.89995  0.034419428  0.034493841            7 
 1267000    1.0854273    -6.570612    522.98346  0.034397754  0.034487114            2 
 1268000    1.0648611   -6.5792165     523.5364  0.034406967  0.034480477            4 
 1269000    1.0448434   -6.5641403    523.99631  0.034410054   0.03447378            6 
 1270000    1.0378731     -6.61358    524.53126  0.034418062  0.034467138            8 
 1271000    1.0398076   -6.5516631    525.58677  0.034460187  0.034460409            4 
 1272000    1.0703189   -6.5944993    525.47377  0.034425692   0.03445372            3 
 1273000    1.0273497   -6.5624998    526.41521  0.034460278  0.034447109            2 
 1274000    1.0460389   -6.5634641    525.14938   0.03435043  0.034440357            4 
 1275000    1.0597262   -6.5515249    526.70171  0.034424948  0.034433638            4 
 1276000    1.0202373   -6.5821133    527.58549  0.034455688  0.034427006            4 
 1277000    1.0399025   -6.5746961    526.50114  0.034357944  0.034420179            6 
 1278000    1.0586668   -6.6080078    525.73239  0.034280933  0.034413504            3 
 1279000    1.0464219   -6.6024149    525.81472  0.034259494  0.034406769            3 
 1280000     1.044525   -6.5837028    526.60366  0.034284092  0.034400181            2 
 1281000    1.0489988   -6.5894502    528.25734  0.034364906  0.034393458            4 
 1282000    1.0294971   -6.6455952    528.63613  0.034362723  0.034386837            4 
 1283000    1.0602621   -6.5791587    530.90323  0.034483192  0.034380353            6 
 1284000    1.0592351   -6.5976568     528.6023  0.034307003   0.03437393            4 
 1285000    1.0483261   -6.5909339     529.3531  0.034328995    0.0343673            4 
 1286000    1.0630196   -6.5739027    529.77167  0.034329424  0.034361023            3 
 1287000    1.0588178   -6.6091706    531.38611  0.034407285  0.034354616            3 
 1288000    1.0374407    -6.567509    531.51306  0.034388785   0.03434804            2 
 1289000    1.0441125   -6.5986493    530.62584  0.034304748  0.034341202            3 
 1290000    1.0385021   -6.5838856    530.12818  0.034246006  0.034334615            2 
 1291000    1.0286251    -6.630293    531.86015  0.034331277  0.034327863            4 
 1292000    1.0389832   -6.6251558    529.63088  0.034160918  0.034321105            3 
 1293000    1.0516779   -6.5715552    530.96666  0.034220589  0.034314349            3 
 1294000    1.0270621   -6.6291274    530.84961  0.034186606  0.034307705            4 
 1295000    1.0458498   -6.5947915    531.75642   0.03421856  0.034301016            5 
 1296000    1.0607904   -6.6023305    533.28971  0.034290748  0.034294187            6 
 1297000     1.049416   -6.6123788    533.77582  0.034295542  0.034287445            4 
 1298000     1.028995   -6.5902681    532.59322  0.034193196  0.034280829            3 
 1299000     1.037347   -6.5615003    534.49787   0.03428906  0.034274329            3 
 1300000    1.0329112   -6.5328674    534.25566  0.034247158  0.034267829            4 
 1301000    1.0461238   -6.6020926    533.61671  0.034179907  0.034261233            4 
 1302000    1.0425355   -6.5722718    533.59609  0.034152336  0.034254589            4 
 1303000    1.0381733   -6.5974779    535.19501  0.034228384  0.034248038            4 
 1304000    1.0409884   -6.6332608    533.88575  0.034118466  0.034241316            4 
 1305000    1.0553343   -6.6174214    534.59056  0.034137328  0.034234662            3 
 1306000    1.0393683   -6.6174956    536.43428  0.034228834  0.034227978            3 
 1307000    1.0538272   -6.5701311    535.58206  0.034148308  0.034221207            3 
 1308000    1.0288475   -6.5910156     536.0098  0.034149452  0.034214328            3 
 1309000    1.0517035   -6.6205045     535.5394  0.034093418  0.034207412            4 
 1310000    1.0579316   -6.5846074    534.88944  0.034026046  0.034200558            4 
 1311000    1.0282826    -6.586947    535.96869  0.034068694  0.034193732            2 
 1312000    1.0615735   -6.5649074    538.13228   0.03418015  0.034187117            9 
 1313000     1.038345   -6.6056753    537.03483  0.034084465  0.034180444            3 
 1314000    1.0519671    -6.602712    537.41237  0.034082469  0.034173744            3 
 1315000    1.0537222   -6.5833069    537.15426  0.034040194  0.034166926            2 
 1316000    1.0304207   -6.5681857    538.47238  0.034097795  0.034160101            9 
 1317000    1.0351959   -6.5896373     540.0936  0.034174487   0.03415338            7 
 1318000    1.0294906   -6.6112383    537.62978  0.033992778  0.034146736            9 
 1319000    1.0466395   -6.6131021    539.65098  0.034094705  0.034139936            3 
 1320000    1.0699302   -6.5864183    540.31507    0.0341108  0.034133285            3 
 1321000    1.0491596   -6.5970041    540.60919  0.034103532  0.034126473            4 
 1322000    1.0144836   -6.6029781    538.60217  0.033951221  0.034119512            3 
 1323000    1.0610981    -6.610503    539.82273  0.034002439  0.034112504            2 
 1324000    1.0393467   -6.5944036     541.2504  0.034066616  0.034105408            4 
 1325000    1.0487528   -6.5975733    540.40964  0.033988027  0.034098302            4 
 1326000    1.0280374   -6.6022088    540.88833  0.033992479  0.034091234           14 
 1327000    1.0301708   -6.6066907    539.65425  0.033889365  0.034084228            1 
 1328000    1.0500132   -6.5983259    541.23368  0.033962957  0.034077362            3 
 1329000    1.0456556   -6.5990121    542.04576  0.033988322  0.034070554            5 
 1330000    1.0471987   -6.6236981    541.28426  0.033915054  0.034063548            3 
 1331000    1.0301376   -6.5968306    542.30076  0.033953216  0.034056658            2 
 1332000    1.0460867   -6.5690592    544.21029   0.03404719  0.034050004            2 
 1333000    1.0656863     -6.55498    545.62326  0.034109981  0.034043227            5 
 1334000    1.0404704   -6.6363974    543.23058  0.033934944  0.034036447            4 
 1335000    1.0310576   -6.6087651    543.54599  0.033929213  0.034029567            3 
 1336000    1.0257444   -6.6321206    542.89327  0.033863103  0.034022626            3 
 1337000    1.0326259   -6.6112543    543.92904  0.033902334  0.034015553            4 
 1338000    1.0564292   -6.6211134    544.28232  0.033898998  0.034008518            2 
 1339000     1.025919   -6.6221849    545.17903  0.033929489  0.034001334            7 
 1340000    1.0337749   -6.6096324    544.08412  0.033836077  0.033994289            3 
 1341000    1.0283627    -6.566455    545.38535  0.033891707  0.033987218            7 
 1342000    1.0327718   -6.5840818    545.27045  0.033859317  0.033980008            6 
 1343000    1.0309034   -6.6247114    546.31316  0.033898806  0.033972803            3 
 1344000    1.0284266   -6.6251154    546.53762  0.033887502  0.033965444            4 
 1345000    1.0526841   -6.5974479    545.62826  0.033805964  0.033958145            5 
 1346000    1.0465236   -6.6187811    546.74219  0.033849814   0.03395099            3 
 1347000    1.0498266   -6.6123614    547.65144  0.033880935  0.033943853            2 
 1348000    1.0389304   -6.6318647     547.0719  0.033819974   0.03393664            3 
 1349000    1.0451037   -6.6468391    545.77646  0.033714879  0.033929349            4 
 1350000     1.014434   -6.5919927    546.65159  0.033743925   0.03392214            7 
 1351000    1.0322586   -6.6090232    548.58858  0.033838427  0.033915001            5 
 1352000    1.0400224    -6.596663     548.0337  0.033779197  0.033907877            4 
 1353000    1.0363817   -6.6185307    549.35945  0.033835887  0.033900803            2 
 1354000    1.0485817   -6.6255308    547.36024  0.033687853  0.033893704            4 
 1355000    1.0381033   -6.6446886    549.20421  0.033776397  0.033886489            6 
 1356000    1.0475142   -6.6756195     548.5631  0.033712088  0.033879174            2 
 1357000    1.0091154   -6.6323301    547.58531  0.033627199  0.033871954            7 
 1358000    1.0392352   -6.6138156    549.05133  0.033692399  0.033864513            5 
 1359000    1.0283454   -6.6142387    549.09068   0.03367002  0.033857211            5 
 1360000    1.0338552   -6.6418461    548.67191  0.033619602  0.033849846            6 
 1361000    1.0355721   -6.6056606    549.93228  0.033672072  0.033842495            5 
 1362000    1.0364854     -6.62086    550.47654   0.03368065  0.033835141            4 
 1363000    1.0566715   -6.6338329    548.58826   0.03354049  0.033827729            4 
 1364000    1.0203795   -6.6060233    551.02269  0.033664632  0.033820383            4 
 1365000     1.033121   -6.6569218    550.02599   0.03357912  0.033813074            3 
 1366000    1.0665015   -6.5735967     552.8457  0.033726556  0.033806049            6 
 1367000    1.0131327   -6.6162749     551.0671  0.033593459  0.033798952            3 
 1368000    1.0100718   -6.6154584    553.58149   0.03372207  0.033791754            3 
 1369000    1.0270332    -6.622063    552.34103  0.033621928  0.033784522            2 
 1370000    1.0439473   -6.5993976    553.38742  0.033661035  0.033777281            4 
 1371000    1.0318336   -6.5962591    553.25421  0.033628386  0.033770128            3 
 1372000    1.0656125   -6.5973362    552.77822  0.033574965  0.033762749            6 
 1373000     1.023959   -6.5689572    553.22538  0.033577651  0.033755274            4 
 1374000    1.0093797   -6.5965278    553.88019  0.033592927  0.033747867            1 
 1375000    1.0007513   -6.6095397    553.74087  0.033560052   0.03374044            3 
 1376000    1.0126397   -6.5670098    554.08755  0.033556659  0.033732885            3 
 1377000    1.0078953   -6.5865036    554.40845   0.03355171  0.033725132            2 
 1378000    1.0095976   -6.6349066    552.99573  0.033441929  0.033717484            6 
 1379000   0.99232263   -6.6341089    553.45423  0.033445385  0.033709736            4 
 1380000    1.0555208   -6.6026135    555.37374  0.033537062  0.033702253            6 
 1381000    1.0317062   -6.5992064    554.68664  0.033471316  0.033694903            5 
 1382000    1.0253343   -6.6278279    555.06064  0.033469648  0.033687285            3 
 1383000    1.0519527   -6.6342167    554.44284  0.033408221  0.033679635            4 
 1384000    1.0439393   -6.6021803    556.84709  0.033528847  0.033672092            5 
 1385000    1.0398195   -6.6270201    555.23844  0.033407848  0.033664596            5 
 1386000    1.0215148   -6.6376066    556.30636  0.033447953  0.033656911            5 
 1387000    1.0161948   -6.5827084    556.96853  0.033463622  0.033649314            6 
 1388000    1.0372697   -6.6058911    557.32124  0.033460689  0.033641825            5 
 1389000    1.0626814   -6.6327187    558.01617  0.033478292  0.033634319            2 
 1390000    1.0043976   -6.6331166    557.30606  0.033411634  0.033626942            2 
 1391000     1.040774   -6.6128802    559.61962  0.033526218   0.03361958            2 
 1392000    1.0096393   -6.6226998    557.79941  0.033393164  0.033612209            3 
 1393000     1.043725    -6.598051    560.46966  0.033528934  0.033604798            3 
 1394000    1.0371129    -6.629909    559.00341  0.033417229  0.033597355            3 
 1395000    1.0292716   -6.5973412    560.50934  0.033483234  0.033590013            6 
 1396000    1.0339662   -6.5941312    559.38437  0.033392095  0.033582634            2 
 1397000    1.0297096   -6.6154697    560.02155  0.033406201  0.033575314            3 
 1398000    1.0244591   -6.6153509    559.64197  0.033359679  0.033567866            9 
 1399000    1.0429497   -6.5914918    559.29768  0.033315325  0.033560423            3 
 1400000    1.0124191   -6.6314854    559.38825   0.03329692  0.033552867            4 
 1401000    1.0192059   -6.6244998    560.08521  0.033314609  0.033545437            3 
 1402000    1.0344869   -6.6119073    560.26313  0.033301423  0.033537904            2 
 1403000     1.018684     -6.62399    560.93212  0.033317422  0.033530278            3 
 1404000    1.0159907   -6.6140232    562.69505  0.033398329  0.033522853            5 
 1405000    1.0045322   -6.5943618    563.12702  0.033400179  0.033515363            3 
 1406000    1.0144088   -6.6329831    562.23471  0.033323537  0.033507845            5 
 1407000    1.0062737   -6.6142045    562.14131   0.03329432  0.033500467            2 
 1408000    1.0054384   -6.6447119    562.09292   0.03326781  0.033492984            3 
 1409000    1.0334408   -6.6158645    562.91721  0.033292951  0.033485605            3 
 1410000    1.0160123   -6.6248912    565.90667   0.03344602  0.033478345            4 
 1411000    1.0170686   -6.6277185    563.93485  0.033305861  0.033470991            3 
 1412000     1.040524   -6.6024017    565.36085  0.033366433  0.033463763            4 
 1413000    1.0444337   -6.6829862    564.64992  0.033300892  0.033456357            6 
 1414000    1.0349821   -6.6148694    563.56365  0.033213322  0.033449111            9 
 1415000    1.0283491   -6.6010519    564.75694  0.033260126  0.033441653            3 
 1416000      1.02683   -6.6349435    565.51926  0.033281501  0.033434235            3 
 1417000    1.0614372   -6.6252077    565.66402  0.033266527  0.033426915            5 
 1418000    1.0382107   -6.6048817    566.18911  0.033273925  0.033419639           10 
 1419000    1.0201093   -6.6596045    566.09355  0.033244865  0.033412405            2 
 1420000    1.0353464   -6.6219075    567.32626  0.033293795  0.033405141            3 
 1421000   0.99930958   -6.6432056    566.13974  0.033200782  0.033397881            5 
 1422000    1.0252717   -6.6284979    568.97965  0.033343861  0.033390584            2 
 1423000    1.0159742    -6.625596    566.75719  0.033190278  0.033383283            2 
 1424000    1.0114127   -6.6316771      567.055  0.033184399  0.033376024            5 
 1425000    1.0282023   -6.6244224    568.04932  0.033219258  0.033368818            5 
 1426000    1.0197383   -6.6149223    568.23628  0.033206889  0.033361598            5 
 1427000    1.0299321    -6.637082    569.02365  0.033229599  0.033354266            5 
 1428000    1.0227176   -6.6415893     567.9879  0.033145886  0.033346898            2 
 1429000    1.0198255   -6.6286694    570.48532   0.03326833   0.03333959            2 
 1430000    1.0325175   -6.6327709    568.21962  0.033113031  0.033332268            2 
 1431000    1.0070416   -6.6204017    569.90477  0.033188025     0.033325            5 
 1432000    1.0237461   -6.6943915     568.9686   0.03311037   0.03331769            2 
 1433000    1.0360199   -6.6484838    570.11674  0.033154032  0.033310354            3 
 1434000    1.0071513   -6.6470061    570.20131  0.033135827  0.033302971            4 
 1435000    1.0057748   -6.6185304    569.62168  0.033079075  0.033295656            4 
 1436000    1.0311467   -6.6178475    571.14723   0.03314457  0.033288458            2 
 1437000    1.0320105   -6.6222515      571.763  0.033157214  0.033281132            6 
 1438000    1.0039483   -6.6339635    571.67562  0.033129093  0.033273769            6 
 1439000     1.023946    -6.640323    571.46914  0.033094113  0.033266396            4 
 1440000     1.034739   -6.6302745    573.70955  0.033200784  0.033259221            6 
 1441000    0.9953092   -6.6409933      572.253  0.033093512  0.033251931            2 
 1442000    1.0422731   -6.6463774    571.14419  0.033006484  0.033244676           15 
 1443000    1.0277167   -6.5937342    574.97688  0.033204948  0.033237587            4 
 1444000    1.0324759    -6.646873    574.26196  0.033140695  0.033230481            6 
 1445000    1.0313505    -6.656012     575.4519  0.033186384  0.033223342            5 
 1446000     1.013997   -6.6466173     573.9928  0.033079345  0.033216368            2 
 1447000    1.0240408   -6.6158681     575.7782  0.033159306  0.033209283            3 
 1448000    1.0270631   -6.6301293    574.10934  0.033040363  0.033202259            5 
 1449000    1.0306626   -6.6331438    575.30097  0.033086092  0.033195252            3 
 1450000    1.0308058   -6.6312849    574.97187   0.03304436  0.033188064            4 
 1451000   0.99852832   -6.6429373    576.03266   0.03308251  0.033180732            6 
 1452000    1.0168249   -6.6492113    577.51727   0.03314493  0.033173577            4 
 1453000    1.0185829    -6.620431    576.63703  0.033071635  0.033166269            6 
 1454000    1.0252949   -6.6478264    576.51231  0.033041742  0.033158904            5 
 1455000    1.0323631   -6.6399168    577.07173  0.033051073  0.033151813            4 
 1456000    1.0209027   -6.6370199    576.84149  0.033015195  0.033144675            3 
 1457000    1.0264336   -6.5991211    578.17802  0.033068978  0.033137672            7 
 1458000    1.0349272   -6.6861706    578.10737  0.033042259  0.033130529            2 
 1459000    1.0274317   -6.6352618    578.05693  0.033016731  0.033123349           10 
 1460000    1.0222055   -6.6235562    578.79655  0.033036333  0.033116271            3 
 1461000    1.0126423   -6.6567323    579.64155  0.033061918  0.033109309            5 
 1462000     1.013924   -6.6139197    581.38185    0.0331385  0.033102424            8 
 1463000    1.0297728   -6.6267112    580.77073   0.03308104  0.033095526            5 
 1464000    1.0101138   -6.6544689    578.93079   0.03295371  0.033088552            3 
 1465000    1.0177024   -6.6126063    582.72288  0.033146922   0.03308172            4 
 1466000    1.0173802   -6.6533471    579.57925  0.032945614  0.033074842            3 
 1467000    1.0048603   -6.6592453    582.25523  0.033075167  0.033068011            9 
 1468000    1.0333531   -6.6543421    581.71766   0.03302212  0.033061143            5 
 1469000    1.0047502   -6.6259459    581.61044  0.032993558   0.03305437            2 
 1470000    1.0196446   -6.6451034     582.6511  0.033030108  0.033047739            3 
 1471000   0.99036122   -6.6378102    583.73945  0.033069309  0.033041125            3 
 1472000    1.0020737   -6.6366908    583.80285  0.033050433  0.033034405            2 
 1473000    1.0145975   -6.6584455    584.49808  0.033067328  0.033027745            2 
 1474000     1.008999   -6.6541356    584.47829  0.033043775  0.033021279            4 
 1475000    1.0125546   -6.6481555    586.16672  0.033116764  0.033014746            5 
 1476000    1.0170754   -6.6457537    583.82766  0.032962267  0.033008129            5 
 1477000    1.0069302    -6.630027    585.13172  0.033013525  0.033001611            4 
 1478000    1.0151364   -6.7035195    585.12596  0.032990864  0.032994785            3 
 1479000      1.01881   -6.6635608    586.48934  0.033045377  0.032988095            3 
 1480000    1.0017682   -6.6480076    585.06501   0.03294285  0.032981358            6 
 1481000    1.0244162   -6.6318787    585.71319  0.032957078  0.032974637            4 
 1482000    1.0101922    -6.663952    586.63568  0.032986711  0.032968068            1 
 1483000    1.0077782   -6.6582359    586.84888  0.032976449  0.032961385            3 
 1484000    1.0257766   -6.6363045    586.90613  0.032957442    0.0329547           11 
 1485000    1.0180675   -6.6418915    587.30245  0.032957489  0.032948173            5 
 1486000    1.0191625   -6.6694928    588.50154  0.033002554   0.03294161            3 
 1487000    1.0032627    -6.654164     587.8742  0.032945203  0.032935029            2 
 1488000    1.0148969   -6.6637492    588.67938  0.032968155  0.032928411            4 
 1489000    1.0200527   -6.6665258    586.71958  0.032836332    0.0329217            6 
 1490000    1.0039723   -6.6382262    588.26914  0.032900959   0.03291493            4 
 1491000    1.0369634   -6.6303953    587.86102  0.032856082   0.03290806            6 
 1492000    1.0067305   -6.6757716    587.04873  0.032788691  0.032901159            3 
 1493000    1.0000048   -6.6356574    588.49865  0.032847658   0.03289412            6 
 1494000   0.99608397    -6.637584    588.05046  0.032800672  0.032887104            2 
 1495000    1.0347256   -6.6319123    588.62552  0.032810787  0.032879941            2 
 1496000     1.007982   -6.7090834    587.71706   0.03273825  0.032872882            4 
 1497000    1.0099014    -6.646589     589.4465  0.032812653  0.032865706            4 
 1498000    1.0121001   -6.6355352    590.75903  0.032863764  0.032858591            2 
 1499000    1.0200811   -6.6564024    588.67008  0.032725711  0.032851559            6 
 1500000    1.0169203   -6.6596676    589.02688  0.032723715  0.032844327            2 
 1501000    1.0137544   -6.6431131    588.59292  0.032677821  0.032837004            2 
 1502000    1.0292566   -6.6680162    588.94646   0.03267568  0.032829531            7 
 1503000    1.0180522   -6.6919932    589.48558  0.032683831  0.032822327            4 
 1504000    1.0400692   -6.6497309     589.8965  0.032684868  0.032815118            7 
 1505000    1.0173731   -6.6570158    589.31623  0.032631021  0.032807919            2 
 1506000    1.0012117   -6.6623904    590.28228  0.032662809  0.032800652            8 
 1507000    0.9993389    -6.652127    590.33471  0.032644034  0.032793495            4 
 1508000    1.0246746   -6.6580731    592.51078  0.032742638  0.032786501            3 
 1509000   0.99481958   -6.6525227    588.60107  0.032505029  0.032779526            7 
 1510000    0.9997785   -6.6645189    592.99855  0.032726189  0.032772405            7 
 1511000   0.99269538   -6.6545625    592.05435  0.032652457  0.032765329           11 
 1512000    1.0179578   -6.6432371    593.42182  0.032706229  0.032758259            4 
 1513000    1.0014308   -6.6107065     593.7833  0.032704522  0.032751222            3 
 1514000    1.0207717   -6.6784634    592.99231  0.032639383  0.032744139            5 
 1515000     1.028597   -6.6700412    592.61013  0.032596817  0.032736917            3 
 1516000   0.99467741   -6.6755485    592.58925  0.032574167  0.032729768            7 
 1517000     1.021545   -6.6877787    593.06696  0.032578937  0.032722519            2 
 1518000    1.0146563   -6.6467021    591.84765  0.032490539  0.032715155            4 
 1519000   0.97659234   -6.6692519    592.60014  0.032510431  0.032707718            6 
 1520000    1.0188631   -6.6521486    593.99151  0.032565324   0.03270028            4 
 1521000    1.0195299   -6.6775927    592.43999  0.032458908  0.032692778            7 
 1522000    1.0098586   -6.6388149     593.6675  0.032504791   0.03268529            3 
 1523000    1.0066542    -6.694557    592.93525  0.032443382  0.032677734            3 
 1524000    1.0122342   -6.6764022    594.18314  0.032490329  0.032670184            5 
 1525000    1.0038863   -6.6641623    594.37177  0.032479332  0.032662713            3 
 1526000    1.0203498   -6.6502573    594.65941  0.032473755  0.032655257            3 
 1527000    1.0049126   -6.6751467    592.75374   0.03234849  0.032647754            3 
 1528000    1.0120254   -6.6420558    593.60288   0.03237363  0.032640168            2 
 1529000   0.98872348   -6.7144378    594.66027  0.032410087  0.032632605            4 
 1530000   0.99803279   -6.6630657    595.59077  0.032439584  0.032625107            6 
 1531000     1.003637   -6.6581057    595.94471  0.032437661  0.032617782            6 
 1532000    1.0365358   -6.6689793    595.38962  0.032386293  0.032610367            3 
 1533000   0.99359477   -6.6705211    594.95848  0.032341731  0.032603091            3 
 1534000    1.0091834   -6.6446758     597.8452  0.032477466   0.03259562            6 
 1535000    1.0125034   -6.6599844    598.09205   0.03246971  0.032588449            3 
 1536000   0.99460668   -6.6832419     598.2686  0.032458149  0.032581301            4 
 1537000    1.0104222   -6.6683438    599.30294  0.032493111  0.032573961            4 
 1538000    0.9855525   -6.6723714    598.41472  0.032423858  0.032566639            4 
 1539000    1.0015679   -6.7111567    598.15458  0.032388704  0.032559166            4 
 1540000    1.0148078   -6.6706647    597.58106  0.032336637  0.032551694            3 
 1541000   0.98351961   -6.6723718      597.295  0.032300184  0.032544266            2 
 1542000    1.0032728   -6.6619992    597.28411  0.032278648  0.032536752            4 
 1543000   0.99665122    -6.659873    597.64588  0.032277267  0.032529171            2 
 1544000    1.0115477   -6.6408143    598.57521   0.03230652  0.032521727            4 
 1545000     1.008198   -6.6678044    599.35213  0.032327515  0.032514252            7 
 1546000   0.99531105   -6.6451918    600.31759  0.032358645  0.032506812            4 
 1547000   0.99303647   -6.6900386    599.10601  0.032272463  0.032499526            4 
 1548000   0.99593831   -6.6665148     601.5958  0.032385648  0.032492155            3 
 1549000    0.9829153   -6.6660891    600.93014  0.032328929   0.03248488            4 
 1550000    1.0120058   -6.6463535    602.61968  0.032398908  0.032477676            3 
 1551000     1.004067    -6.657191    603.07724  0.032402603  0.032470551            3 
 1552000   0.98533864   -6.6695913    602.10226  0.032329374  0.032463416            3 
 1553000   0.98688282   -6.7164325    600.88539   0.03224326  0.032456224            3 
 1554000    1.0241999    -6.723001     602.6763  0.032318549  0.032448878            2 
 1555000    1.0042558   -6.6903961     603.6897  0.032352074  0.032441587            5 
 1556000    1.0080211   -6.6746768    604.06771  0.032351527   0.03243422            4 
 1557000    1.0064597   -6.6598553    603.63291  0.032307478  0.032427042            5 
 1558000   0.99980824   -6.6683204    604.15618   0.03231473  0.032419869            5 
 1559000    1.0220064   -6.6495942    605.12217  0.032345637  0.032412726            3 
 1560000    1.0126695     -6.66966    602.40771  0.032179899  0.032405493            7 
 1561000   0.99445293   -6.6651734    606.13709  0.032358375  0.032398093            3 
 1562000    1.0102096   -6.6829544    603.42001  0.032192702  0.032390762            3 
 1563000     1.004098   -6.6587949    605.98711  0.032308974  0.032383507            4 
 1564000    1.0296714   -6.6657962    605.26933  0.032250071  0.032376319            3 
 1565000    1.0040056   -6.6327655    605.77222  0.032256242  0.032369217            2 
 1566000    1.0251815   -6.6465736    605.28529  0.032209733  0.032362227            6 
 1567000   0.99043188   -6.6834143    608.42447   0.03235612  0.032355232            4 
 1568000    0.9942879   -6.7203796    605.21074  0.032164686  0.032348038            4 
 1569000   0.98778521   -6.6808175    607.43129  0.032262125  0.032340814            3 
 1570000   0.99079184   -6.6770343     607.4052  0.032240191  0.032333639            4 
 1571000   0.99742258   -6.6740386    607.83529  0.032242483   0.03232662            6 
 1572000    1.0126011   -6.6625976    607.88927  0.032224834  0.032319546            5 
 1573000    1.0251956   -6.6753977    608.86244  0.032255904  0.032312451            5 
 1574000    1.0037754   -6.7114431    606.58294  0.032114726  0.032305325            7 
 1575000   0.97370905    -6.675288     609.3087  0.032238556  0.032298369            5 
 1576000   0.99344826   -6.6521925    609.18859  0.032211749  0.032291341            4 
 1577000    1.0046033   -6.6694343    612.91765  0.032388377  0.032284452            4 
 1578000   0.99587696   -6.6874383    609.95296  0.032211288  0.032277532            6 
 1579000   0.98779007   -6.6841525    612.28307  0.032313863  0.032270546            2 
 1580000    1.0141618   -6.6851259    611.70569  0.032262958  0.032263601            4 
 1581000    1.0111215   -6.7120866    611.80571  0.032247824  0.032256656            6 
 1582000    1.0082115   -6.6715636    611.39609  0.032205862  0.032249794            2 
 1583000   0.99377855   -6.6730743     612.3404  0.032235229  0.032242914            5 
 1584000   0.99600458   -6.7025758     611.1269  0.032151037  0.032235925            4 
 1585000   0.99124781   -6.6559991    612.52587  0.032204304  0.032228908            9 
 1586000    1.0072879   -6.6914788    610.43839  0.032074316  0.032221909            3 
 1587000    1.0010235   -6.6880733    611.48851  0.032109247  0.032214852            3 
 1588000    1.0018051   -6.7223409    611.49947  0.032089603  0.032207803            3 
 1589000   0.98849326   -6.7095141     612.3983  0.032116546  0.032200737            9 
 1590000   0.99850455   -6.6631175    612.67381  0.032110787   0.03219363            3 
 1591000   0.98663581   -6.6748425    612.41056  0.032076815  0.032186503            5 
 1592000   0.98855261   -6.6552337    613.67763  0.032122992  0.032179469            7 
 1593000   0.98603437   -6.6512488    613.01221  0.032068017  0.032172446            3 
 1594000   0.97902997   -6.6764859    613.49675   0.03207323    0.0321655            3 
 1595000    1.0158466   -6.6493849    616.37393  0.032203445  0.032158567            4 
 1596000   0.98537612    -6.686615    613.92798  0.032055554  0.032151593            3 
 1597000    1.0092378   -6.7031624    615.16151  0.032099849  0.032144633            3 
 1598000   0.99602702   -6.6840384    614.38066  0.032039042  0.032137577            3 
 1599000   0.96027152   -6.6454025    615.34863  0.032069451  0.032130494            3 
 1600000   0.99743022   -6.6685045    616.20659  0.032094093  0.032123339           12 
 1601000    1.0075951   -6.6843612    613.76027  0.031946714  0.032116153            3 
 1602000    1.0077555   -6.6694818     616.0246  0.032044559  0.032109117            6 
 1603000    1.0073054   -6.6765543    616.83151  0.032066516  0.032101894            4 
 1604000    1.0171432   -6.6989863    615.56299  0.031980621  0.032094671            3 
 1605000    1.0132419   -6.6907288    615.85876  0.031976052  0.032087368            3 
 1606000    1.0074583   -6.6979685    616.03286  0.031965175   0.03208014            3 
 1607000   0.98382363   -6.6801979    616.39099  0.031963855  0.032072987            5 
 1608000    1.0186699    -6.691862    616.68579  0.031959255  0.032065765            5 
 1609000    1.0108671   -6.6863081     616.8738   0.03194913  0.032058446            6 
 1610000    1.0120509   -6.6745579    615.64702  0.031865788  0.032051282            2 
 1611000   0.98136553   -6.6786551    617.98551  0.031966972  0.032044081            5 
 1612000   0.99945239   -6.6855288    615.82644  0.031835528  0.032036778            6 
 1613000   0.98782304   -6.7052838    616.67299  0.031859526  0.032029353            5 
 1614000   0.99503969   -6.7293677    615.94759  0.031802333  0.032021941            5 
 1615000   0.98537549   -6.7043528    617.97504  0.031887257   0.03201456            4 
 1616000   0.98748288   -6.7227322    618.34953  0.031886836  0.032007241            6 
 1617000    1.0289445   -6.6732833    618.88116  0.031894515  0.031999837            3 
 1618000   0.98261313   -6.6924259    619.70343  0.031917152  0.031992579            6 
 1619000   0.98553432   -6.6562074    619.82512  0.031903702  0.031985179            4 
 1620000   0.97216648   -6.6752183    618.26581  0.031803797  0.031977896            5 
 1621000   0.94434701   -6.6636484    619.63306  0.031854465  0.031970601            5 
 1622000   0.99794965   -6.7065191    619.54415  0.031830259  0.031963225            3 
 1623000   0.97562964   -6.7210986    618.83333  0.031774149  0.031955755            7 
 1624000    1.0197529   -6.6795746      620.458  0.031837952  0.031948361            2 
 1625000   0.98326349   -6.6663035    621.24903  0.031858925  0.031940957            2 
 1626000   0.99780704   -6.7117788    618.69245  0.031708305  0.031933568            3 
 1627000   0.99201058   -6.6975845    621.53676  0.031834499  0.031926174            4 
 1628000   0.99775375   -6.6953519    621.90235  0.031833659  0.031918817            6 
 1629000   0.99846334   -6.7171523    619.85068  0.031709161  0.031911401            4 
 1630000   0.99484059   -6.6854688    621.49168  0.031773603  0.031904034            5 
 1631000   0.98858453   -6.6830773    622.90723  0.031826448  0.031896805           14 
 1632000   0.98130459   -6.6638352    620.93315  0.031706146  0.031889521            5 
 1633000     1.015812   -6.6884929    622.10821  0.031746694  0.031882114            6 
 1634000    1.0028735   -6.6887119    621.48317  0.031695388  0.031874681            9 
 1635000    1.0000179   -6.6948474    620.80769  0.031641575  0.031867242            5 
 1636000   0.99781913   -6.7122705    623.06681  0.031737307    0.0318598            2 
 1637000   0.97317056   -6.7059065    622.47739  0.031687914  0.031852424            2 
 1638000   0.97239672   -6.6988008    623.52088  0.031721656  0.031844948            3 
 1639000   0.98998233   -6.6991754     622.1243  0.031631295  0.031837537            5 
 1640000   0.98912243   -6.6784304    623.47031  0.031680402  0.031830138            7 
 1641000   0.99675152   -6.6837015    624.92537  0.031734987   0.03182288            4 
 1642000   0.98757559   -6.7027686    624.37894  0.031687928  0.031815514            5 
 1643000   0.99247864   -6.6861051    624.47987  0.031673761  0.031808189            3 
 1644000     1.001883   -6.7299757    625.23373  0.031692707  0.031800861            4 
 1645000    0.9676732   -6.7132712    625.52685   0.03168829  0.031793379            4 
 1646000   0.98994267   -6.6969601    624.67624  0.031625974  0.031785775            3 
 1647000   0.99226712    -6.672551    624.29902  0.031587685  0.031778174            3 
 1648000   0.99304079   -6.6999129    624.71006  0.031589303  0.031770629            4 
 1649000    1.0008958   -6.7177627    622.69004  0.031468063  0.031763033            7 
 1650000   0.97302492   -6.7284124    622.81993  0.031455552  0.031755309            4 
 1651000   0.97519115   -6.6941205    624.02376  0.031497262  0.031747565            3 
 1652000   0.99716572   -6.6877316    622.28436  0.031390454  0.031739893            6 
 1653000    1.0029032   -6.7137345    621.94628   0.03135442  0.031732178            2 
 1654000    0.9938829   -6.7189452    624.71501   0.03147496  0.031724292            3 
 1655000   0.96628248   -6.7231559    626.34181  0.031537855  0.031716379            4 
 1656000   0.98150016   -6.6922464    625.47099   0.03147499  0.031708626            5 
 1657000   0.97098501   -6.7570882    622.96434   0.03132993   0.03170081            9 
 1658000    1.0062636   -6.7007157    624.21792  0.031374041  0.031692903            4 
 1659000   0.97087141   -6.7021491    625.38245  0.031413625  0.031685007            2 
 1660000    1.0086497   -6.7283247    624.98614  0.031374806   0.03167714            4 
 1661000   0.97905501   -6.7326579    625.26817  0.031370067  0.031669195            2 
 1662000   0.98047444   -6.6872358    625.33001  0.031354292  0.031661294            7 
 1663000   0.99252063   -6.6998027    626.62643  0.031400402  0.031653484            7 
 1664000   0.96931957   -6.7034497    627.44855  0.031422704  0.031645729            7 
 1665000    0.9891161   -6.7166216    627.43686  0.031403246  0.031638067            5 
 1666000   0.97317486   -6.6950068    626.70721    0.0313479  0.031630403            2 
 1667000   0.98418375   -6.6982672     628.0999  0.031398715  0.031622758            3 
 1668000   0.97170291   -6.6855288    629.93489  0.031471567  0.031615171            4 
 1669000   0.98944263   -6.7050757    628.46279  0.031379209  0.031607643            3 
 1670000   0.99485622    -6.685584    628.10687  0.031342658  0.031600033            3 
 1671000   0.98652541    -6.732905    629.27862  0.031382337  0.031592401            6 
 1672000   0.99188438   -6.7065387    630.35291  0.031417111  0.031584738            1 
 1673000   0.96347828   -6.6828521    630.66191  0.031413723   0.03157711            4 
 1674000   0.99507272   -6.7263083    629.08761  0.031316588  0.031569455            2 
 1675000   0.98940877   -6.7243001    631.10411  0.031398215   0.03156185            3 
 1676000   0.97902913    -6.692026    630.74871  0.031361809  0.031554064            4 
 1677000   0.97224871   -6.7086705    629.92218  0.031302037  0.031546344            4 
 1678000   0.98264356     -6.72073     628.7163  0.031223495  0.031538635            2 
 1679000   0.97303193   -6.7195677    628.76729   0.03120743  0.031530864            5 
 1680000   0.99872879   -6.7388389    631.79434  0.031339005  0.031523048            5 
 1681000   0.98105132   -6.7035193    632.80251   0.03137034  0.031515362            4 
 1682000   0.97660823   -6.6881576    631.83651   0.03130383  0.031507698            3 
 1683000   0.98260711   -6.6865244    633.01719  0.031343691  0.031500143            3 
 1684000   0.97443411   -6.6940644    631.71291  0.031260536  0.031492487            4 
 1685000    0.9792112     -6.71036    633.33592  0.031322251    0.0314849            7 
 1686000   0.97232319   -6.7135194     634.0405  0.031338498  0.031477391            3 
 1687000   0.98409274   -6.6876762    634.32904  0.031334175  0.031469958            3 
 1688000    0.9805227   -6.7022886    632.29682  0.031215285  0.031462443            4 
 1689000   0.97457233   -6.7009224     633.1974  0.031241238  0.031454921            1 
 1690000   0.99855432   -6.7262411    632.67028  0.031196759  0.031447374            4 
 1691000   0.98881253   -6.7156077    634.26985  0.031257138  0.031439814            8 
 1692000    0.9970362   -6.7258279    632.46626  0.031149835  0.031432203            8 
 1693000    0.9584003   -6.7149334     633.9402  0.031203987  0.031424611            3 
 1694000   0.97884881   -6.7240952    634.03508  0.031190234  0.031416943            2 
 1695000   0.98272123    -6.682832    635.81486  0.031259334  0.031409367            3 
 1696000   0.97509056   -6.6754546     634.3561  0.031169226  0.031401729            3 
 1697000   0.99061654   -6.7040335    636.33289  0.031247932  0.031394198            5 
 1698000   0.97924882   -6.7317065    634.94369  0.031161351  0.031386566           10 
 1699000    0.9927572   -6.7086361    638.41534  0.031313289  0.031378949           15 
 1700000   0.98518077   -6.7189218    637.39501  0.031244853  0.031371437            5 
 1701000    1.0090287   -6.7609132    635.85881  0.031151225  0.031363855            4 
 1702000   0.97514431   -6.6892596    637.21086  0.031199122  0.031356348            3 
 1703000   0.98329551    -6.720158    634.87995  0.031066742  0.031348697            3 
 1704000   0.97880155   -6.7125014    636.70701  0.031137862  0.031341077            4 
 1705000   0.98544785   -6.7394801    637.32112  0.031149615  0.031333566            2 
 1706000   0.97390738    -6.744621    638.65238  0.031196384  0.031326035            3 
 1707000   0.97058709    -6.709933    638.22928  0.031157454  0.031318584            9 
 1708000   0.98961553   -6.6921003    638.38703  0.031146908  0.031311156            4 
 1709000   0.98593115   -6.6887495    636.53223   0.03103824  0.031303643            6 
 1710000   0.96556549   -6.7302316    638.02899  0.031093031  0.031295983            3 
 1711000   0.97627934   -6.7036679     636.7886  0.031014446  0.031288244            5 
 1712000   0.97447681    -6.703027    638.01284  0.031055921  0.031280466            5 
 1713000   0.96632033   -6.7660898    635.94578  0.030937234  0.031272698            5 
 1714000    0.9853969   -6.7255016    636.84652  0.030962977  0.031264951            4 
 1715000   0.98879763   -6.7674044    637.39622  0.030971634  0.031257258            6 
 1716000   0.96106506   -6.7173076    640.66664  0.031112405  0.031249561            3 
 1717000   0.96239248   -6.7321186    638.82276  0.031004793  0.031241813            4 
 1718000   0.98295217   -6.7291808    637.20711  0.030908377  0.031234099            4 
 1719000   0.96754967   -6.7274133    638.96863  0.030975792  0.031226276            8 
 1720000   0.97508165   -6.7230828    639.11944  0.030965089  0.031218446            6 
 1721000   0.96412512   -6.6959655     640.3359  0.031005999  0.031210551            8 
 1722000   0.99950289   -6.7287575    637.52092  0.030851767  0.031202815            4 
 1723000   0.99156698   -6.6965964    642.09466  0.031055072  0.031195144            2 
 1724000   0.96419407   -6.6836755    639.62284  0.030917577   0.03118743            6 
 1725000   0.95911542   -6.7147189    639.21027  0.030879723  0.031179771            4 
 1726000   0.97296835   -6.7453314    641.05898   0.03095109  0.031171903            3 
 1727000   0.97782606   -6.7274909    639.63084  0.030864256  0.031164139            5 
 1728000   0.98638461   -6.7129057    642.77585  0.030998064  0.031156447            3 
 1729000   0.97544249   -6.7384857    640.19476  0.030855733  0.031148721            5 
 1730000   0.96568423   -6.7417075      639.913  0.030824326  0.031140847            2 
 1731000   0.96892025   -6.7293356    641.00867  0.030859266  0.031132957            3 
 1732000    1.0043617   -6.7130318    641.02185  0.030842083  0.031125194            2 
 1733000    0.9689705   -6.7193482    643.03617  0.030921147  0.031117405            4 
 1734000   0.97102953   -6.7070485    641.84246  0.030845947  0.031109664            6 
 1735000   0.98280616   -6.7244916    642.48011  0.030858795  0.031102014            7 
 1736000   0.95559665   -6.7686363    640.97782  0.030768905  0.031094151            6 
 1737000   0.97019592   -6.7809773    641.21182  0.030762417  0.031086313            6 
 1738000   0.97451547   -6.7173762    641.64532  0.030765502  0.031078536            2 
 1739000   0.94117461   -6.7205883    643.11671   0.03081832  0.031070773            7 
 1740000   0.99771044   -6.7529891    642.94112  0.030792199  0.031062885            3 
 1741000   0.98363539   -6.7556592    641.92499  0.030725875  0.031054937            3 
 1742000   0.95994179    -6.748025    643.51097  0.030784107  0.031047098            5 
 1743000   0.97292841   -6.7183312    644.92265  0.030833938  0.031039206            3 
 1744000   0.96879414    -6.742708    644.83996  0.030812307  0.031031482            7 
 1745000    0.9793034   -6.7201757    643.98606  0.030753871  0.031023742            3 
 1746000   0.95753553   -6.7661612     645.5898  0.030812801  0.031016101            5 
 1747000   0.97573564   -6.7444318    644.80443    0.0307577  0.031008361            8 
 1748000   0.97158619   -6.8167969    643.75073  0.030689871  0.031000535            7 
 1749000   0.97839997   -6.7563685    645.03628  0.030733575  0.030992658            7 
 1750000   0.95853783   -6.7327755    645.96754  0.030760359  0.030984869            8 
 1751000   0.96995662   -6.7486174    644.59668   0.03067755   0.03097709            3 
 1752000   0.98941544    -6.715092    645.67389  0.030711277  0.030969295            8 
 1753000   0.95085929   -6.7535177    644.52728  0.030639251  0.030961534            3 
 1754000   0.95176799   -6.7499289    646.75291  0.030727523  0.030953777            4 
 1755000   0.97566584   -6.7320381    646.40697  0.030693588  0.030946063            9 
 1756000   0.96529611   -6.7200864    646.36114  0.030673934  0.030938439            5 
 1757000    0.9738834   -6.7058397    647.88482  0.030728743  0.030930617            4 
 1758000   0.97813867   -6.7250871     647.2485  0.030681101  0.030922792            2 
 1759000   0.98131507   -6.7490204    647.74306  0.030687088  0.030914936            4 
 1760000   0.97016636   -6.7813493    647.57772  0.030661824   0.03090723            6 
 1761000   0.97951671   -6.7366597    647.93208  0.030661181  0.030899503            4 
 1762000   0.96238046   -6.7535606    647.20166  0.030609235   0.03089174            5 
 1763000   0.95811067   -6.7566665    650.39516  0.030742823  0.030883987            3 
 1764000    1.0061296   -6.7629199    647.98796  0.030611676  0.030876176            8 
 1765000   0.97855416    -6.747216    647.93138  0.030591661  0.030868417            5 
 1766000   0.97943303   -6.7396782    650.55321  0.030698056  0.030860639            4 
 1767000   0.98555207   -6.7599605    648.27916  0.030573437  0.030852904            7 
 1768000    0.9622729   -6.7241699    651.17001  0.030692403  0.030845151            3 
 1769000   0.96700602   -6.7320331    650.02141  0.030620945  0.030837432            5 
 1770000   0.96112857   -6.7310642    651.28046  0.030662922  0.030829682            4 
 1771000   0.97550556   -6.7441148    650.03301   0.03058691  0.030821982            6 
 1772000   0.98753196   -6.7133325    650.44851  0.030589189  0.030814323            5 
 1773000   0.98084942   -6.7313988    651.77508  0.030634286  0.030806642            7 
 1774000   0.95951015   -6.7498447    649.42738  0.030506735   0.03079904            4 
 1775000   0.98652548   -6.7642001    650.92734  0.030559969  0.030791379            4 
 1776000   0.96194853   -6.7798546    650.90008  0.030541483  0.030783701            5 
 1777000   0.95837878   -6.7440921    651.64874  0.030559405  0.030775866            4 
 1778000   0.99115378   -6.7329859    651.05046  0.030514176  0.030768107            5 
 1779000   0.96872945   -6.7807152     650.4874  0.030470648  0.030760407            3 
 1780000   0.99994688   -6.7405929    651.84664  0.030517165  0.030752652            3 
 1781000   0.96868623   -6.7615643    653.77981  0.030590483  0.030745019            3 
 1782000   0.96699156   -6.7668581    652.95309  0.030534656  0.030737415            8 
 1783000   0.97402044   -6.7223778    653.23853  0.030530872  0.030729753            6 
 1784000    0.9800783   -6.7459451    653.10469  0.030507506  0.030722117           10 
 1785000   0.97038186    -6.783333    652.68709  0.030470919  0.030714478            2 
 1786000   0.96136627   -6.7357962    654.49699  0.030538307  0.030706814            6 
 1787000   0.95665124   -6.7409751    653.63058  0.030480814    0.0306992            4 
 1788000   0.95587083   -6.7523106    652.81943  0.030425962  0.030691548            3 
 1789000   0.98142454   -6.7784448    653.01532  0.030418079  0.030683821            5 
 1790000   0.97161443   -6.7650993    653.82326  0.030438699  0.030676082            6 
 1791000   0.95942958   -6.7386369    654.57324    0.0304566  0.030668376            4 
 1792000   0.97703117   -6.7648149    654.04316  0.030414953  0.030660692            6 
 1793000   0.97136404   -6.7611751    654.88116  0.030436938  0.030652869            3 
 1794000   0.96201184   -6.7624704    655.42244  0.030445115  0.030645152            4 
 1795000   0.94089529   -6.7621261    655.09266  0.030412844  0.030637438            5 
 1796000   0.96074477   -6.7238902    655.81767  0.030429551  0.030629726            4 
 1797000   0.97744363   -6.7536399     654.8793  0.030369101  0.030622033            2 
 1798000   0.96704419   -6.7593827    654.76064  0.030346711  0.030614258            5 
 1799000   0.96543622    -6.773494    655.73766    0.0303751  0.030606441            9 
 1800000   0.96112067   -6.7566134    656.54021   0.03039538  0.030598563            7 
 1801000   0.96672431   -6.7438547    656.10165  0.030358211  0.030590833            7 
 1802000   0.97199815   -6.7787194    654.66528  0.030274939  0.030583058            3 
 1803000   0.95561775   -6.7208164    658.89635  0.030453705   0.03057542            5 
 1804000   0.96085777   -6.7427268    657.34448  0.030365137    0.0305678            4 
 1805000   0.95582956   -6.7498247    656.13343  0.030292402  0.030560057            3 
 1806000   0.97441539   -6.7220136    657.55269  0.030341117  0.030552244            7 
 1807000    0.9655072   -6.7430072    656.71079    0.0302855  0.030544497            2 
 1808000   0.97739291   -6.7395624    658.18645  0.030336765  0.030536743            2 
 1809000   0.96034778   -6.7629199    657.99552    0.0303112  0.030529003            3 
 1810000   0.96132071   -6.7531987    657.68652  0.030280227  0.030521185            6 
 1811000   0.94997186   -6.7533308     657.0995  0.030236495  0.030513386            2 
 1812000   0.97058758   -6.7382274    658.14421  0.030267854  0.030505509            4 
 1813000   0.99204563   -6.7543524    657.17012  0.030206385  0.030497666            6 
 1814000   0.94627852   -6.7557702    658.21767  0.030237857  0.030489845            3 
 1815000    0.9844152   -6.7724158    658.35137  0.030227336   0.03048211            4 
 1816000   0.96629119   -6.7650417    656.30945   0.03011699   0.03047425            4 
 1817000   0.96186983   -6.7234911    660.51112  0.030293117  0.030466483           13 
 1818000   0.95623217   -6.7392072     661.0989  0.030303397  0.030458689            6 
 1819000   0.96509367   -6.7377035     659.3865  0.030208288  0.030450888            4 
 1820000   0.96411591   -6.7311698    660.13835  0.030226115  0.030443046            2 
 1821000   0.95972966   -6.7563776    658.47154  0.030133239  0.030435221            7 
 1822000   0.95217207   -6.7535805    661.08124  0.030236061  0.030427501            6 
 1823000   0.95740883   -6.7573913    658.91935   0.03012065  0.030419741           13 
 1824000   0.96463596     -6.77304    660.07741  0.030157045  0.030411912            4 
 1825000   0.96471749   -6.7311575    661.44591  0.030203009  0.030404107            5 
 1826000   0.95319658   -6.7778301    659.75463  0.030109284  0.030396378            5 
 1827000   0.96711759   -6.7530073    662.84872  0.030233932  0.030388562            4 
 1828000   0.96653045   -6.7727543    662.64264  0.030207998  0.030380778            5 
 1829000   0.95307028   -6.7768847     662.4558  0.030182969  0.030372989            4 
 1830000   0.96878239   -6.7448601    661.34768  0.030116015  0.030365216            5 
 1831000   0.96446937   -6.7698711    662.75855  0.030163779  0.030357453           10 
 1832000   0.94558078   -6.7546001    663.30285  0.030172073  0.030349647            4 
 1833000   0.94641248    -6.760152     662.6002  0.030123668  0.030341824            4 
 1834000   0.94464489   -6.7566391    664.03536  0.030172454  0.030334076            9 
 1835000   0.95421857   -6.7930135    661.35801  0.030034424  0.030326324           10 
 1836000   0.98364765   -6.7885783    662.20541  0.030056527   0.03031845            3 
 1837000    0.9461483   -6.7594803    662.43994  0.030050805   0.03031071            5 
 1838000   0.98286464   -6.7667839    662.74999  0.030048512  0.030302915            4 
 1839000   0.96617653   -6.7361926    663.75401   0.03007767  0.030295174            3 
 1840000   0.95593531   -6.7751525     664.3055    0.0300863  0.030287429            5 
 1841000    0.9552168   -6.7781187     663.7663  0.030045551   0.03027978            3 
 1842000   0.96001373   -6.7837174     664.4841  0.030061713  0.030272077            3 
 1843000   0.94078035   -6.7412365     665.5513  0.030093656  0.030264325            4 
 1844000   0.97092198   -6.7783444    663.59953  0.029989133  0.030256504            3 
 1845000   0.95586475   -6.7509279    665.53026  0.030060084   0.03024872            3 
 1846000   0.97159598   -6.8169298    665.58939  0.030046469  0.030240912            6 
 1847000   0.95840488   -6.7645946    667.40291  0.030112025  0.030233262            3 
 1848000   0.97784279   -6.7612131    665.07783  0.029990883  0.030225627            4 
 1849000   0.94740342   -6.7741795    666.68304  0.030047009   0.03021806            2 
 1850000   0.93891933   -6.7708927    665.18396  0.029963242  0.030210331            4 
 1851000   0.95764884   -6.8044336    666.76109  0.030018057   0.03020266            8 
 1852000   0.96400303   -6.7794573    667.58971  0.030039134  0.030194945            4 
 1853000   0.97029006   -6.7750176    665.86286  0.029945263  0.030187231            4 
 1854000    0.9637902   -6.7730589    667.43878  0.029999945  0.030179484           11 
 1855000     0.951361   -6.7767997    666.66394  0.029948964  0.030171719            6 
 1856000   0.95992888   -6.7957554    667.25881  0.029959537  0.030163904            6 
 1857000   0.96401206   -6.7803805    668.33716  0.029991795  0.030156099            7 
 1858000   0.96235019   -6.7553719    667.68961   0.02994661  0.030148418            4 
 1859000   0.97426479   -6.8014058    667.49738  0.029921883   0.03014064            5 
 1860000   0.93922116    -6.769523    670.27467  0.030030227  0.030132954            5 
 1861000   0.95145759   -6.7832471     666.3434  0.029838053  0.030125193            3 
 1862000   0.95605772   -6.7590054    665.82447  0.029798804  0.030117302            2 
 1863000   0.95033528    -6.770032    670.05508  0.029972047  0.030109524            5 
 1864000   0.96381969   -6.7648948    670.90057  0.029993767  0.030101791            8 
 1865000   0.94706002   -6.7730938    668.61315  0.029875476  0.030094006            8 
 1866000   0.94411476   -6.7926221    669.62795  0.029904785  0.030086192            3 
 1867000   0.95389857   -6.7833046    667.89879  0.029811587  0.030078414            4 
 1868000   0.92262023   -6.7256049    670.52657  0.029912855  0.030070677            8 
 1869000   0.95592047   -6.7800066    669.16173  0.029835997   0.03006296            7 
 1870000   0.94896731   -6.7441286    669.74442  0.029846008  0.030055219            8 
 1871000   0.95922405    -6.745064    670.90334  0.029881674  0.030047553            4 
 1872000   0.96093357   -6.7840575    670.89865  0.029865502  0.030039879            5 
 1873000   0.95894273   -6.7512233    670.80281  0.029845293  0.030032183            8 
 1874000   0.96886575    -6.795683    670.46404  0.029814303  0.030024526            3 
 1875000   0.93348079   -6.7538705    671.25407  0.029833514   0.03001691            7 
 1876000   0.95359625   -6.7591182    670.95753  0.029804439  0.030009302            2 
 1877000    0.9335206   -6.7928451    671.24578  0.029801358  0.030001628            5 
 1878000    0.9461189    -6.767825    671.02741  0.029775799  0.029993951            3 
 1879000   0.93557539   -6.7424641    672.29259  0.029816063  0.029986288            3 
 1880000   0.95159214   -6.7907577    671.15449  0.029749756  0.029978552            5 
 1881000   0.95154814   -6.7488151    671.90164  0.029767041  0.029970767            5 
 1882000   0.95341357    -6.787026    670.56717  0.029692135  0.029963097            7 
 1883000   0.93910083   -6.7748975    672.47195  0.029760664   0.02995543            4 
 1884000   0.96659407   -6.7861501    673.82146  0.029804559  0.029947715            3 
 1885000   0.94796176   -6.7950193    673.22011  0.029762162   0.02993997            6 
 1886000   0.93778931   -6.8087539    671.68081  0.029678367  0.029932237            3 
 1887000   0.95415221   -6.7651363    673.01835  0.029721708  0.029924429            5 
 1888000   0.92956018   -6.7759786    674.54825  0.029773493  0.029916669            3 
 1889000   0.95871189   -6.7672759    672.81834  0.029681416  0.029908848            3 
 1890000   0.95793377   -6.7887705    671.67182   0.02961516  0.029900995            8 
 1891000   0.96345121   -6.7390683    674.06674  0.029705039   0.02989322            5 
 1892000   0.95383761   -6.8007709    671.80597  0.029589763  0.029885438            6 
 1893000   0.94908624   -6.7940272    671.37987  0.029555374  0.029877457            5 
 1894000   0.95894955   -6.7995197    670.90303  0.029518789  0.029869491            5 
 1895000   0.95441282   -6.7821536     674.2962  0.029652428  0.029861529            6 
 1896000   0.96219736   -6.7713534    673.29976  0.029592992  0.029853549            4 
 1897000   0.94858256   -6.7809616     673.5669  0.029589127  0.029845584            5 
 1898000    0.9369269   -6.7888469    674.85414  0.029630055   0.02983761            3 
 1899000   0.96348384   -6.7715466    675.65619  0.029649648  0.029829761            4 
 1900000   0.96943704   -6.7925491    674.66835  0.029590717  0.029821888            5 
 1901000   0.96809101   -6.7845662     674.1696  0.029553288  0.029814037            5 
 1902000   0.92549643   -6.7757241    674.33603  0.029545042  0.029806188            1 
 1903000   0.97400814   -6.7671419    674.69786  0.029545361  0.029798311           10 
 1904000   0.93862659   -6.7601523    673.30008  0.029468666  0.029790482            4 
 1905000   0.92539599   -6.8240636    674.24288  0.029494439  0.029782579            5 
 1906000   0.95573691   -6.7820102    675.57231  0.029537089  0.029774682            7 
 1907000   0.92805846   -6.7692903    674.65059  0.029481323  0.029766846            8 
 1908000   0.93858566   -6.8330465    673.65275   0.02942229   0.02975891            4 
 1909000   0.93890391   -6.7935205     675.0496  0.029467854  0.029751003            5 
 1910000   0.95242683   -6.7700703    676.61486  0.029520718  0.029743201            7 
 1911000   0.96447899   -6.7814789    675.38054  0.029451445  0.029735344            5 
 1912000   0.94634758   -6.8083729    676.26605  0.029474636  0.029727404            4 
 1913000   0.93545477   -6.7858136    678.46916  0.029555199  0.029719671            4 
 1914000   0.93624885   -6.8057391     677.7209   0.02950718  0.029711903            4 
 1915000   0.97691232   -6.8146322    678.17881  0.029511697  0.029704181            6 
 1916000   0.94936373   -6.7561928    678.43603  0.029507482  0.029696457            4 
 1917000   0.98132397   -6.7995513    675.85367  0.029379833  0.029688692            8 
 1918000   0.94952966   -6.7632329    678.18247  0.029465696  0.029680977            7 
 1919000   0.94625032   -6.7600415    678.43277  0.029461211  0.029673231            3 
 1920000   0.94146146   -6.7851106     678.4364  0.029446024  0.029665531            5 
 1921000   0.93417305   -6.7927605    679.54741  0.029478892  0.029657775            8 
 1922000   0.93772192   -6.7975113    678.18446   0.02940446  0.029650082            8 
 1923000   0.95893649   -6.8156332     677.5068  0.029359802  0.029642307            6 
 1924000   0.95371801   -6.8086558    679.12132  0.029414472  0.029634552            5 
 1925000   0.93280244   -6.7964282    677.80707  0.029342297  0.029626863            9 
 1926000   0.93962784   -6.8188236    680.24894  0.029432716  0.029619171            3 
 1927000    0.9614833   -6.7948384      680.123  0.029411996  0.029611409            6 
 1928000   0.93606937   -6.7923899     679.6175  0.029374892  0.029603656            3 
 1929000   0.92370739   -6.8157478    679.21162   0.02934213  0.029595813            4 
 1930000   0.96584319   -6.7990894    679.61279  0.029344248  0.029587989            8 
 1931000   0.93988216   -6.7649448    680.35151  0.029360932  0.029580326            6 
 1932000   0.94831223   -6.7752653    680.80515  0.029365301  0.029572648            7 
 1933000    0.9563772   -6.7976499    681.22226  0.029368092  0.029564927            5 
 1934000   0.95962879   -6.8084409    681.13148  0.029348995  0.029557192            9 
 1935000   0.93063803    -6.771384    682.01902  0.029372051  0.029549512            4 
 1936000    0.9343625   -6.8227539    680.92949  0.029309982  0.029541781            6 
 1937000   0.93445526   -6.7934215    683.18318  0.029391808   0.02953404           10 
 1938000   0.93147808   -6.8291734    680.64807  0.029267633  0.029526336            3 
 1939000   0.93942753   -6.8096668    682.36324  0.029326253  0.029518513            6 
 1940000   0.94317864   -6.7764181    681.18855  0.029260677  0.029510754            5 
 1941000   0.94661634   -6.8327683    681.63481  0.029264761  0.029502932            9 
 1942000    0.9381134   -6.8189631    682.42418  0.029283564  0.029495133            4 
 1943000   0.95960198   -6.7998008    682.15069  0.029256763  0.029487262            5 
 1944000   0.93649675   -6.7948425    682.17978   0.02924296  0.029479564           11 
 1945000   0.94170118   -6.8322832    682.01946  0.029221056  0.029471791            9 
 1946000   0.95419771   -6.7751866    682.42012  0.029223198  0.029463981            3 
 1947000   0.93618552   -6.8143917    682.21277  0.029199314  0.029456174            5 
 1948000   0.93974785   -6.7829205    683.61798  0.029244438  0.029448337            5 
 1949000   0.94636132   -6.8218165    684.14747  0.029252072  0.029440468            5 
 1950000   0.94053771   -6.8208831    682.97384  0.029186916  0.029432561            6 
 1951000   0.94516595   -6.8140461    682.69167  0.029159904  0.029424712            3 
 1952000   0.92715168   -6.8190308    682.97578  0.029157094  0.029416922           13 
 1953000   0.95376694    -6.826099    683.25362   0.02915402  0.029409132            4 
 1954000   0.94625801   -6.8169202    684.49828  0.029192182  0.029401371            8 
 1955000    0.9751474   -6.8426956     684.2786  0.029167886  0.029393599            8 
 1956000   0.91957548   -6.7746425    686.62064  0.029252754  0.029385837            8 
 1957000   0.92261636   -6.7829885    686.96256  0.029252366  0.029378103            8 
 1958000   0.95671964   -6.8077094    687.73628  0.029270356  0.029370512            4 
 1959000   0.91775523   -6.8186498    685.94614  0.029179264  0.029362823            7 
 1960000   0.94452492   -6.8045252    686.53047  0.029189221  0.029355103           11 
 1961000   0.93477054   -6.8042265     686.9281  0.029191233  0.029347325            5 
 1962000   0.93756584   -6.8087697    684.55128  0.029075402  0.029339507            4 
 1963000   0.96170445   -6.8147523    684.78151  0.029070365  0.029331766            6 
 1964000    0.9131807   -6.8236904    685.89537  0.029102824  0.029324035            5 
 1965000   0.92339951   -6.8352041    686.68547  0.029121521  0.029316289           13 
 1966000   0.93871175   -6.7957636    687.73227   0.02915108  0.029308534            3 
 1967000   0.92898557   -6.8155842    685.59997  0.029045923  0.029300841            4 
 1968000   0.94076633   -6.8258013    687.74206  0.029121869  0.029293118           10 
 1969000   0.92800809   -6.8141745    687.40303   0.02909273  0.029285432            5 
 1970000   0.92374069    -6.795542    686.85794  0.029054904  0.029277753            3 
 1971000   0.93746771    -6.793723    688.53272  0.029110972  0.029270098            9 
 1972000   0.95827518   -6.7938803    689.73191  0.029146886  0.029262409            5 
 1973000    0.9354279   -6.7786258    689.33356  0.029115288  0.029254745            4 
 1974000   0.93996841   -6.7863982    689.33201  0.029100473  0.029247123            2 
 1975000   0.93908598   -6.8129134    689.32503  0.029085444  0.029239492            3 
 1976000   0.94276693   -6.8233053    687.32781  0.028986497  0.029231713            6 
 1977000    0.9215132   -6.8105923     688.7917   0.02903354  0.029223904            5 
 1978000   0.92719842   -6.8143418    687.85869  0.028979554   0.02921617            3 
 1979000   0.93680284   -6.7896148    689.75343  0.029044696    0.0292084            4 
 1980000   0.93533053   -6.8173739    689.62116   0.02902446  0.029200676            2 
 1981000    0.9473447   -6.8294563    690.27884  0.029037474  0.029192951            4 
 1982000   0.93216446   -6.8198565    688.99026  0.028968645  0.029185251            8 
 1983000   0.92729552   -6.8304028    690.87809  0.029033371  0.029177654            4 
 1984000   0.95551878   -6.8283769    688.23884  0.028907881  0.029169938            9 
 1985000    0.9440322   -6.8085513    690.58581  0.028991848  0.029162215            3 
 1986000   0.92917364   -6.8507173    689.64013  0.028937569  0.029154481            4 
 1987000    0.9166491   -6.8106053    689.39546  0.028912744  0.029146823            4 
 1988000   0.93928607    -6.827829    689.14545   0.02888772  0.029139128            3 
 1989000   0.94875261   -6.8127482    691.60766  0.028976356  0.029131455            3 
 1990000   0.92089173   -6.8231612    692.65067  0.029005472  0.029123842            4 
 1991000   0.91214544   -6.7867664    691.80578  0.028955541  0.029116237            5 
 1992000   0.93253695   -6.8046922    693.36235  0.029006122  0.029108593            6 
 1993000   0.94449741   -6.8480522    692.62667  0.028960808  0.029100985            8 
 1994000   0.95640235   -6.8026075    692.79539  0.028953335  0.029093418            6 
 1995000   0.92557064   -6.7940462    690.85259  0.028857669  0.029085852            6 
 1996000   0.94529977   -6.7994251    693.70063  0.028962117  0.029078239            6 
 1997000   0.92506634   -6.8474559    691.84074  0.028870002  0.029070617            4 
 1998000   0.95132302   -6.8228011     691.8171  0.028854567  0.029062958            3 
 1999000   0.93208256   -6.8409555     693.4939  0.028910034  0.029055335            3 
 2000000   0.93017118   -6.7829388    693.74183   0.02890591  0.029047828            4 
 2001000   0.92499004   -6.7882376    695.96452   0.02898403  0.029040384           10 
 2002000   0.92783361   -6.8333434    693.29306  0.028858352  0.029032867            7 
 2003000   0.93116858   -6.7820798    695.97311  0.028955447  0.029025378            6 
 2004000   0.93069514   -6.8133184    695.22233  0.028909778  0.029017869            3 
 2005000   0.94297012   -6.8170546    696.00687  0.028927966  0.029010278            3 
 2006000   0.93251378   -6.8181308    694.62542  0.028856157  0.029002709            3 
 2007000   0.94654337   -6.8150701    696.71305  0.028928461  0.028995176            2 
 2008000   0.93947411   -6.7802639    694.09113  0.028805243  0.028987635           17 
 2009000   0.96177946   -6.8010666    697.41864   0.02892893  0.028980119            5 
 2010000    0.9247428   -6.8359291    695.58847   0.02883866  0.028972667            5 
 2011000   0.92486472   -6.8119709    696.27865  0.028852919  0.028965148            4 
 2012000   0.93690015   -6.8094766    695.80314  0.028818884  0.028957678            8 
 2013000   0.91442224   -6.8413205    694.86381  0.028765682    0.0289501            6 
 2014000   0.93836797   -6.8275143     697.3292   0.02885341  0.028942589            8 
 2015000   0.91625414   -6.8368912    695.06183   0.02874532  0.028935002            6 
 2016000    0.9273589   -6.8268558    696.78696  0.028802371   0.02892748            3 
 2017000   0.92732384   -6.8150705    698.59315  0.028862715  0.028919978            4 
 2018000   0.91993496   -6.8306224    697.18026  0.028790067  0.028912444            4 
 2019000   0.92505919   -6.8010143    698.61266  0.028834929  0.028904951            3 
 2020000   0.93364896   -6.8229219    697.34106  0.028768195  0.028897481            2 
 2021000   0.93471068   -6.8362675    697.61586  0.028765292  0.028889973            4 
 2022000   0.92663833   -6.8406558    697.92599  0.028763847  0.028882476            4 
 2023000   0.91305122     -6.81674    696.29628  0.028682496  0.028874914            6 
 2024000   0.91518987   -6.8207874    697.42818  0.028714928  0.028867269            8 
 2025000   0.94243507   -6.8419242    698.61927  0.028749764  0.028859698            4 
 2026000   0.93766988   -6.8226287    698.14875   0.02871622  0.028852138            4 
 2027000   0.93022313   -6.8157017    697.42225  0.028672186  0.028844643            4 
 2028000   0.92299892    -6.835948     696.9023  0.028636682  0.028836992           11 
 2029000   0.91419985   -6.8166329    699.31078  0.028721488  0.028829413            2 
 2030000   0.92185622   -6.8222877    701.22732  0.028786015   0.02882187            3 
 2031000   0.92923949   -6.8368905    700.69237  0.028749892  0.028814334            8 
 2032000   0.92966552   -6.8176288    699.82251   0.02870007  0.028806744            9 
 2033000   0.93210781   -6.8453616    698.83587   0.02864551  0.028799203            7 
 2034000   0.92064465   -6.8489206    698.80458  0.028630145  0.028791557            4 
 2035000   0.92543611   -6.8311688    698.26234  0.028593871  0.028783957            4 
 2036000   0.92809373   -6.8137198    699.32588  0.028623358  0.028776298            4 
 2037000   0.93012687   -6.8342734    700.46997  0.028656111  0.028768652            8 
 2038000   0.92380306   -6.8271749    700.43184  0.028640491  0.028761069            6 
 2039000    0.9417382   -6.8386631     700.6716  0.028636243  0.028753503            6 
 2040000   0.93620432   -6.8337544    700.41925  0.028611897   0.02874593            6 
 2041000   0.92197907   -6.8396663    700.13217  0.028586158  0.028738366            4 
 2042000   0.92673145   -6.8061004    700.49961  0.028587154  0.028730774            4 
 2043000   0.94631765   -6.8765385     701.7514  0.028624221   0.02872316            6 
 2044000   0.91899549   -6.8418699    700.69891  0.028567307  0.028715569            5 
 2045000   0.93476901   -6.8402265    701.55432  0.028588196  0.028708018            3 
 2046000   0.92533668   -6.8081562    701.17499  0.028558773  0.028700463            6 
 2047000   0.92235151   -6.8229605    702.24927  0.028588555  0.028692991            7 
 2048000   0.92941696   -6.8180015    701.10399  0.028527994  0.028685458            3 
 2049000   0.92560208   -6.8292512    701.22142  0.028518847  0.028677893            3 
 2050000   0.91946805   -6.8130701    703.91724  0.028614522  0.028670332            4 
 2051000   0.93184591   -6.8277558    701.75029  0.028512526  0.028662748            6 
 2052000   0.94016293    -6.815927    704.35281  0.028604321  0.028655183           13 
 2053000   0.91971163   -6.8216653    703.56603  0.028558452   0.02864773            5 
 2054000   0.91241456   -6.8362874    704.82048  0.028595443  0.028640255            9 
 2055000   0.92952656   -6.8296003    705.62726  0.028614244  0.028632759            3 
 2056000   0.93144866   -6.8652667    702.70652  0.028481944   0.02862519            5 
 2057000   0.92479273   -6.8331017    704.18727  0.028528086  0.028617688            4 
 2058000    0.9435045    -6.828999    704.78771  0.028538537  0.028610177            4 
 2059000    0.9226751   -6.8354233    703.32796  0.028465597  0.028602645            4 
 2060000   0.91896091   -6.8770823    705.29922  0.028531522  0.028595101            2 
 2061000   0.91924061    -6.806558    703.86271  0.028459595  0.028587586            5 
 2062000   0.90856697   -6.8357477    704.39051  0.028467124  0.028580029            6 
 2063000   0.91714034   -6.8202411     706.2504  0.028528454  0.028572472            4 
 2064000   0.93392941   -6.8217591    706.33552  0.028518068  0.028564966            7 
 2065000   0.92513464   -6.8648606    703.92887  0.028407137  0.028557505            7 
 2066000   0.94449251   -6.8217203    706.68602  0.028504599   0.02854995            4 
 2067000   0.93285094   -6.8276806    704.36043   0.02839705  0.028542432            5 
 2068000   0.92780855   -6.8217713     706.3095  0.028461859  0.028534885            5 
 2069000   0.91111493   -6.8492716    704.16014  0.028361533  0.028527372            3 
 2070000   0.90044834   -6.7992159    706.92414  0.028459104   0.02851983           11 
 2071000   0.92540532   -6.8217767    705.68233  0.028395394  0.028512329            8 
 2072000   0.91063724   -6.8493423    704.84342   0.02834795  0.028504717            3 
 2073000   0.90791244   -6.8646778    706.07889   0.02838394  0.028497155            7 
 2074000   0.91932733   -6.8155812    707.52411  0.028428323  0.028489566            8 
 2075000   0.92327689   -6.8377768    704.87861  0.028308378  0.028482042            4 
 2076000   0.91534045   -6.8295555    706.38481  0.028355203  0.028474495            7 
 2077000   0.91762109   -6.8345921    706.48171  0.028345439  0.028466882            6 
 2078000   0.91680313   -6.8671024    707.26213  0.028363095  0.028459278            7 
 2079000   0.91391572   -6.8769151    705.33137  0.028272061   0.02845158            4 
 2080000    0.9200736     -6.82224     707.2236  0.028334279  0.028443948            4 
 2081000   0.92654352   -6.8611322     707.3324   0.02832502  0.028436337            7 
 2082000   0.91402939    -6.848018    705.93024  0.028255293  0.028428674            8 
 2083000    0.9366428   -6.8520828    705.25416  0.028214681  0.028420976            5 
 2084000   0.92845538   -6.8631554    706.93709  0.028268438  0.028413272            3 
 2085000   0.91288462    -6.823905      706.881  0.028252638  0.028405535            2 
 2086000    0.9078509   -6.8169987    707.98522  0.028283206  0.028397823           12 
 2087000   0.91338269   -6.8250063    706.82773  0.028223436  0.028390107            6 
 2088000   0.93104502   -6.8565257    705.80883  0.028169254  0.028382415            4 
 2089000   0.91761707   -6.8412194    708.71652  0.028271762  0.028374719            5 
 2090000   0.95414701   -6.8723473    707.47421    0.0282087  0.028367013            4 
 2091000   0.91292265    -6.882222    707.26613  0.028186918  0.028359318            3 
 2092000   0.92980828   -6.8191223    708.31042  0.028215042  0.028351677            3 
 2093000    0.9265884    -6.853225    707.91684  0.028185891    0.0283441            7 
 2094000   0.91453164   -6.8126601    709.81983  0.028248162  0.028336454            7 
 2095000   0.90174447   -6.8235777    709.82217  0.028234772  0.028328794            4 
 2096000   0.90345129   -6.8099228    708.79547  0.028180481  0.028321162            8 
 2097000   0.91258603   -6.8452261    710.52143  0.028235631  0.028313543            9 
 2098000   0.91185544   -6.8451023    708.22478  0.028130949  0.028305926            7 
 2099000   0.90851221   -6.8282502    709.39757  0.028164109  0.028298368            4 
 2100000   0.91425118   -6.8573581    710.12551  0.028179584  0.028290757           11 
 2101000    0.9223003    -6.838842    709.16787  0.028128188  0.028283153            4 
 2102000   0.91249378   -6.8502096    709.97934  0.028146977   0.02827562            6 
 2103000   0.91068959   -6.8578134     710.9393  0.028171632  0.028268056            9 
 2104000   0.91148827   -6.8424583    710.80781  0.028153034   0.02826048            3 
 2105000   0.91389702   -6.8391146    710.00208  0.028107763  0.028252941            7 
 2106000    0.9292223   -6.8511264    710.06313  0.028096832  0.028245396            8 
 2107000   0.92584484   -6.8382589    712.72738   0.02818887  0.028237865           14 
 2108000   0.89461374   -6.8268366    711.99989  0.028146738  0.028230345            4 
 2109000   0.90626926   -6.8554573    710.02829  0.028055488  0.028222838            5 
 2110000   0.91845371   -6.8609965    712.07156   0.02812289  0.028215315            9 
 2111000   0.91585925    -6.824603    712.02852  0.028107868  0.028207738            8 
 2112000   0.92768888   -6.8362481    710.84504  0.028047863  0.028200092            7 
 2113000   0.90201154    -6.848491    712.60482  0.028103992  0.028192532            7 
 2114000   0.92752196   -6.8746333      713.169  0.028112938  0.028185066            3 
 2115000   0.90350845   -6.8086833    712.36625  0.028068016  0.028177544            4 
 2116000   0.93902896     -6.84371    712.19652  0.028048067  0.028170059            6 
 2117000   0.89343518   -6.8667205    712.98868  0.028066001  0.028162525            7 
 2118000   0.92510049   -6.8763347     713.3417  0.028066639   0.02815496            5 
 2119000    0.9054288   -6.8528501    713.27512  0.028050776  0.028147418            3 
 2120000   0.90836749   -6.8797499    713.80916  0.028058536  0.028139833            5 
 2121000   0.90745293   -6.8468515    712.49733  0.027993766  0.028132353            3 
 2122000   0.90016566   -6.8316466    713.68198  0.028027096  0.028124798            3 
 2123000   0.92124925    -6.854112    714.93697  0.028063156  0.028117221            5 
 2124000   0.90335579    -6.856457     713.6817  0.028000694  0.028109712            4 
 2125000   0.90403231    -6.863897      713.373  0.027975412  0.028102158            3 
 2126000   0.91191533   -6.8404183    715.25841  0.028036156  0.028094652            4 
 2127000   0.91148038   -6.8620648    714.17449  0.027980508  0.028087189            3 
 2128000   0.91128279   -6.8572564    714.94041  0.027997353  0.028079735            5 
 2129000   0.91173696   -6.8423281    715.11263  0.027990944  0.028072264            4 
 2130000   0.93504076   -6.8393316    714.91001  0.027969875  0.028064793            6 
 2131000   0.89214374   -6.8667875    715.43576   0.02797731  0.028057342            4 
 2132000   0.90511733   -6.8306338    714.06893  0.027910762  0.028049846            7 
 2133000   0.90438133   -6.8259509    717.33155  0.028025143  0.028042344            7 
 2134000   0.89871001   -6.8672627    714.71539  0.027909848  0.028034852            5 
 2135000   0.91578143   -6.8547586    716.50698  0.027966705   0.02802738            3 
 2136000   0.91294422   -6.8551337    715.21754  0.027903306  0.028019925            7 
 2137000   0.93896886   -6.8615886    715.78282  0.027912292  0.028012452            7 
 2138000    0.9194179   -6.8002919    718.14988  0.027991498  0.028005013            6 
 2139000   0.90163033   -6.8923259    716.38207   0.02790954  0.027997614            6 
 2140000   0.90156495    -6.864455    718.55742  0.027981208   0.02799028            9 
 2141000   0.90809777   -6.8448704    717.39032  0.027922712   0.02798299            6 
 2142000   0.90763034    -6.884013    715.10386  0.027820723  0.027975635            9 
 2143000   0.91627421   -6.8951531     714.3791  0.027779558  0.027968201            8 
 2144000   0.91630341   -6.8760051     718.1653  0.027913763  0.027960785            4 
 2145000   0.93362227   -6.8825018    717.61433  0.027879344  0.027953256            6 
 2146000    0.9007179   -6.8785175    717.29029   0.02785377  0.027945711            4 
 2147000   0.89968048   -6.8583396    717.11761  0.027834094  0.027938184            4 
 2148000   0.91448748   -6.8820243    718.96464  0.027892793  0.027930663            6 
 2149000   0.90773582   -6.8939436    718.24395  0.027851867  0.027923131            3 
 2150000   0.89813044   -6.8513963    717.64696  0.027815774   0.02791559            5 
 2151000    0.8935511   -6.8400962     716.6675  0.027764896  0.027908071           12 
 2152000   0.90939443   -6.8551024    717.41825  0.027781066  0.027900508            8 
 2153000   0.88622108   -6.8423845     717.1489  0.027757737  0.027893027            7 
 2154000   0.91321003   -6.8688582    718.96697  0.027815188  0.027885598            8 
 2155000    0.9112375   -6.8638668    717.38633  0.027741157  0.027878079           10 
 2156000   0.89169599   -6.8643733    719.31802  0.027802954  0.027870628            4 
 2157000   0.90147265   -6.8634941    719.51937  0.027797843  0.027863168            7 
 2158000   0.89356841   -6.8696117    720.06625   0.02780608  0.027855649            5 
 2159000   0.92288021   -6.8821668    719.04245  0.027753684  0.027848199            5 
 2160000   0.91471665   -6.8706658    717.70288  0.027689154  0.027840687            5 
 2161000   0.89630304   -6.8425398    719.13129  0.027731424   0.02783321            5 
 2162000   0.91957143   -6.8590381    718.10554   0.02767906   0.02782567            5 
 2163000    0.9047115     -6.86964    719.29483  0.027712083  0.027818135            4 
 2164000   0.91519929   -6.8867899    718.35173  0.027662959  0.027810566            5 
 2165000   0.93527709   -6.8518776    720.43495  0.027730368  0.027803071           11 
 2166000   0.89049683   -6.8691265    721.19921  0.027746969  0.027795624            4 
 2167000   0.89008381   -6.8670604    719.93204  0.027685434  0.027788202            9 
 2168000   0.92964233   -6.8536321    719.45161  0.027654198  0.027780765            3 
 2169000   0.92867705   -6.8873512    722.55918  0.027760841  0.027773324            7 
 2170000   0.91152606   -6.8566948     721.8163   0.02771952  0.027765896           18 
 2171000   0.91085954   -6.9001732    721.58034  0.027697695  0.027758435            4 
 2172000   0.90383495   -6.8438523    721.31077    0.0276746  0.027750963            4 
 2173000   0.91939146   -6.8887922    720.84572   0.02764403  0.027743598            8 
 2174000   0.89231779   -6.8584771    721.14521  0.027642794  0.027736125            4 
 2175000   0.90709209   -6.8748787    721.91001  0.027659388  0.027728659            7 
 2176000    0.9032471    -6.883515    722.90809  0.027684899  0.027721169            6 
 2177000   0.90152999   -6.8814987    721.04426  0.027600837  0.027713758            6 
 2178000   0.90689554   -6.8725888    723.92339  0.027698324  0.027706378            5 
 2179000   0.88631224   -6.8756068    721.59256  0.027596472  0.027698966            6 
 2180000   0.91039612   -6.8443511    723.57643  0.027659649  0.027691598            3 
 2181000   0.91472772   -6.8741049    721.62952  0.027572578  0.027684138           12 
 2182000    0.8893454   -6.8826462    723.10056  0.027616123  0.027676671            4 
 2183000   0.92088645   -6.8346917    725.90477   0.02771052  0.027669256            5 
 2184000    0.9042801   -6.8723634    722.09882  0.027552611  0.027661852            7 
 2185000   0.89614288    -6.839562     725.0892  0.027654051   0.02765447            5 
 2186000   0.90565792   -6.8829537    722.50324   0.02754282  0.027647027            5 
 2187000   0.90981086   -6.8915099     724.1147  0.027591629  0.027639617            3 
 2188000   0.90199764   -6.8841292    725.23628  0.027621735  0.027632209            3 
 2189000   0.88990142   -6.8740054     722.4493  0.027503019  0.027624837           13 
 2190000   0.91259305   -6.8637616    724.40333  0.027564815  0.027617373            5 
 2191000   0.89339365   -6.8904926    723.41387    0.0275146  0.027609917            9 
 2192000   0.91565549   -6.8663326    724.52584  0.027544322  0.027602508            4 
 2193000   0.88893257   -6.8444332    725.12256  0.027554437  0.027595098            4 
 2194000   0.90401385    -6.854905     726.4189  0.027591116  0.027587742            5 
 2195000   0.91857441   -6.8694031    726.69809  0.027589145  0.027580381            4 
 2196000   0.89230878   -6.8711238    725.08842  0.027515499  0.027573007            5 
 2197000   0.88440592   -6.8382339    726.18687  0.027544639  0.027565711           16 
 2198000   0.92738454   -6.8916419    725.51915  0.027506792  0.027558395            6 
 2199000   0.89561402   -6.8786158    727.11319  0.027554691  0.027551044            6 
 2200000   0.92462844   -6.8657635     728.0254   0.02757672  0.027543699            5 
 2201000    0.9039035   -6.8859751    725.20575  0.027457434  0.027536317            6 
 2202000   0.90945118   -6.8754216    726.00364  0.027475161  0.027528842            8 
 2203000   0.87263474   -6.8625988    725.99492  0.027462359   0.02752143            4 
 2204000    0.8820955   -6.8973558    724.75177  0.027402895  0.027513992            6 
 2205000   0.89873552   -6.8508501    727.30354  0.027486906  0.027506639            4 
 2206000   0.90103156   -6.8851864    728.25745  0.027510481  0.027499231            4 
 2207000   0.91880657   -6.8541571    727.78057  0.027480009  0.027491855            5 
 2208000   0.88870811   -6.8810382    727.73127  0.027465703  0.027484534            6 
 2209000   0.89082306   -6.8668607    727.56819  0.027447118  0.027477199           15 
 2210000    0.8762859   -6.8732778    725.83393  0.027369304  0.027469865            6 
 2211000    0.9122639   -6.8360861    726.86618  0.027395831   0.02746251            5 
 2212000   0.89373036   -6.9168779    727.36143  0.027402103  0.027455218            3 
 2213000   0.89646817   -6.9056898    728.45164  0.027430774  0.027447863            6 
 2214000    0.8970165   -6.9232936     728.2988  0.027412632  0.027440547            6 
 2215000   0.88166559   -6.8528641    729.10151  0.027430456  0.027433247            4 
 2216000   0.89867498   -6.8521865    729.80049  0.027444363   0.02742597            4 
 2217000   0.88477612   -6.8694115    728.26108   0.02737412  0.027418696            3 
 2218000   0.91115778   -6.8718949    728.11067  0.027356127  0.027411394            6 
 2219000   0.91884933   -6.9092135    728.14081  0.027344931  0.027404038            5 
 2220000    0.8973583   -6.8600543    727.67383  0.027315084  0.027396607           12 
 2221000   0.90586333   -6.8946364    727.05311  0.027279495  0.027389204            6 
 2222000   0.88542794   -6.8418121    729.40871  0.027355562  0.027381791            3 
 2223000   0.90518494   -6.8657696    727.88117  0.027285994  0.027374436            4 
 2224000   0.88723628   -6.8940112    728.35829  0.027291603  0.027367044            2 
 2225000   0.88511258   -6.8692736    729.77021  0.027332218   0.02735966            5 
 2226000   0.90005385   -6.8421946    729.20448   0.02729876  0.027352311            6 
 2227000   0.89732469   -6.8836243    729.26076  0.027288608  0.027344881            3 
 2228000   0.91042555   -6.8954728    728.41333  0.027244664  0.027337463            4 
 2229000   0.89512203   -6.9360444    728.17801  0.027223643  0.027329967            3 
 2230000   0.88930206   -6.9222314    727.43485  0.027183664   0.02732248            9 
 2231000   0.89947077   -6.8679957    728.76459  0.027221149  0.027315008            5 
 2232000   0.90183243   -6.9153839    728.45811   0.02719751  0.027307509            8 
 2233000   0.90015372   -6.9144138    726.89722  0.027127079  0.027300012            5 
 2234000   0.88628383   -6.8951858    730.10813  0.027234711  0.027292526            3 
 2235000    0.8897225   -6.8992386    728.23453  0.027152667  0.027285022            6 
 2236000   0.87109095   -6.9184878    729.54431  0.027189338  0.027277534            4 
 2237000   0.88808475   -6.8902916    729.82505  0.027187641  0.027270037            6 
 2238000   0.88021896   -6.8520745    730.44184   0.02719846  0.027262468            5 
 2239000   0.91094041    -6.902689    730.80923  0.027199986  0.027255001            4 
 2240000   0.90152183   -6.8776454    729.74643  0.027148305  0.027247543            6 
 2241000   0.89113395    -6.860519    730.56657  0.027166688  0.027240092            5 
 2242000   0.88606822   -6.9144835    730.00502  0.027133698  0.027232566            3 
 2243000   0.89287431   -6.8776369    730.71588  0.027148012  0.027225043            4 
 2244000   0.90118505   -6.8839949    730.08401  0.027112448   0.02721759            3 
 2245000   0.90224452   -6.8618916    734.12862  0.027250505  0.027210195            5 
 2246000   0.88784368   -6.8841914    731.08576  0.027125473  0.027202806            3 
 2247000   0.89008804   -6.9298207    729.42537  0.027051824  0.027195284            9 
 2248000   0.86258963     -6.86244    730.87797  0.027093638  0.027187798            7 
 2249000    0.8844134   -6.8980778    730.84644  0.027080422  0.027180403            4 
 2250000   0.91580013   -6.8915215    730.93792  0.027071775  0.027172978            4 
 2251000   0.87590817   -6.8740441    734.49365  0.027191383  0.027165586           16 
 2252000   0.89306565   -6.9074305    732.64672  0.027110965  0.027158151            3 
 2253000   0.87961728   -6.9007959    731.57667  0.027059353   0.02715075            4 
 2254000   0.89474532   -6.8365797    734.32139  0.027148824  0.027143394            4 
 2255000   0.90279511   -6.9307165    733.98724  0.027124436  0.027136025            8 
 2256000   0.88413908   -6.9079121    734.44494   0.02712932   0.02712863            5 
 2257000   0.88622428   -6.8860282    732.96887    0.0270628  0.027121266            6 
 2258000   0.87085497   -6.9094114    734.14353  0.027094166  0.027113861            6 
 2259000   0.87462176   -6.8879745    733.29286  0.027050792  0.027106412            9 
 2260000   0.89672664   -6.9503331    735.01636  0.027102373  0.027099017            2 
 2261000   0.89076179    -6.868202    734.18749  0.027059837  0.027091695            8 
 2262000   0.87868677   -6.8676349    734.55444  0.027061393  0.027084443            3 
 2263000   0.90401157   -6.8841865    736.43383  0.027118642  0.027077171            2 
 2264000   0.89366022   -6.9050246    735.54698   0.02707402  0.027069938            6 
 2265000   0.89466918   -6.9300036    734.60244  0.027027316  0.027062652            8 
 2266000   0.87821599   -6.9310312     736.1334   0.02707169  0.027055321            5 
 2267000   0.89495776   -6.8824046    736.96706  0.027090393   0.02704801            9 
 2268000   0.86563164    -6.911172    736.57455  0.027064027  0.027040726            8 
 2269000   0.88074894    -6.912228    736.87068  0.027062975  0.027033487           10 
 2270000   0.88813215   -6.8990822      734.971  0.026981314  0.027026238            8 
 2271000   0.88775674   -6.9058113    735.77574  0.026998963  0.027018975            3 
 2272000   0.86607674   -6.9002949    735.55852  0.026979113  0.027011696            6 
 2273000   0.89235518   -6.8887081    738.32396   0.02706863  0.027004414            7 
 2274000   0.89485708   -6.9019595    736.06498  0.026973944  0.026997136            7 
 2275000   0.89404819    -6.907036    736.29209  0.026970406  0.026989854           13 
 2276000   0.88859483   -6.8993856    737.41528  0.026999681  0.026982569            5 
 2277000    0.8854173   -6.8821028    735.39044  0.026913718  0.026975265            4 
 2278000   0.89550664   -6.9016769    737.48006  0.026978346  0.026968063            6 
 2279000   0.89157547   -6.9076771    738.09291  0.026988917  0.026960885            3 
 2280000   0.88142589   -6.8828343    739.74203  0.027037355  0.026953703            5 
 2281000   0.90218112   -6.8903365    739.26297     0.027008  0.026946529            5 
 2282000   0.87696759   -6.8806432    738.80016  0.026979264  0.026939336            5 
 2283000   0.87727262   -6.9204025    737.56627  0.026922407  0.026932101            4 
 2284000   0.87701921   -6.9014291    738.02137  0.026927224  0.026924909            9 
 2285000   0.87996631   -6.9099524    739.07106  0.026953722  0.026917706            4 
 2286000   0.87942548   -6.9004177    736.28153  0.026840242  0.026910461           12 
 2287000   0.88270718    -6.914147     739.6408  0.026950911  0.026903268            3 
 2288000   0.91128037   -6.9477954    739.94639  0.026950262  0.026896095           11 
 2289000   0.87881431   -6.9284238    738.57008  0.026888382  0.026888907            7 
 2290000   0.89013067   -6.8925593    741.43187  0.026980781  0.026881765            5 
 2291000   0.89399174    -6.919647    737.64967   0.02683143  0.026874553            5 
 2292000   0.89776838   -6.9064418    741.18266  0.026948177  0.026867397            3 
 2293000   0.89455258    -6.867861    740.13561  0.026898372  0.026860253            5 
 2294000   0.89107459   -6.8579913    741.94081  0.026952224  0.026853113            4 
 2295000   0.87808378   -6.9053157    740.83194  0.026900216   0.02684597            9 
 2296000   0.89247385   -6.9350286    740.43193  0.026873981   0.02683881           10 
 2297000   0.87327537   -6.8816633      742.127  0.026923777  0.026831648            5 
 2298000   0.87785643    -6.929148    740.03424  0.026836171  0.026824486            5 
 2299000   0.87589006   -6.9414497    741.88995  0.026891763  0.026817354            6 
 2300000   0.88244841   -6.9182208    742.95675  0.026918723  0.026810212            8 
 2301000   0.89387654   -6.8893313    740.17281  0.026806201   0.02680307            5 
 2302000   0.88563876   -6.9104366    740.54434  0.026808005  0.026795854            7 
 2303000   0.86977003   -6.8778769    743.04623  0.026886895  0.026788714            6 
 2304000   0.88421926   -6.9331116    742.62453  0.026859973  0.026781626           14 
 2305000   0.88361975   -6.9121196    742.13115  0.026830483  0.026774471            2 
 2306000   0.86752716   -6.9450263    741.44009  0.026793874  0.026767252            2 
 2307000   0.85957851   -6.9022387    743.39354  0.026852823  0.026760018            4 
 2308000   0.85922696   -6.9284166    740.82638  0.026748497  0.026752798            5 
 2309000   0.87692067    -6.910678    741.91445  0.026776182  0.026745535            5 
 2310000   0.88986772   -6.9211349    742.84028   0.02679799   0.02673838            3 
 2311000   0.90599612   -6.9485138    742.66477  0.026780065  0.026731209            6 
 2312000   0.88969204   -6.9047497    742.94193  0.026778472  0.026724031            5 
 2313000   0.85907364   -6.9277014    742.72969  0.026759248  0.026716892            9 
 2314000   0.88566777   -6.9531943    739.61029  0.026635346  0.026709692            7 
 2315000   0.87434483   -6.9289975    742.12469  0.026714352  0.026702503            5 
 2316000   0.87931212   -6.9182896    743.68994  0.026759137  0.026695283            9 
 2317000   0.87075113   -6.9042393    741.49088  0.026668497  0.026688048            5 
 2318000    0.8780211   -6.9074605    742.96528  0.026709997   0.02668091            3 
 2319000   0.87188785   -6.9272722     743.5771  0.026720465  0.026673768            5 
 2320000   0.87893541   -6.9315587    744.77511   0.02675198    0.0266666            5 
 2321000   0.87218927   -6.9050326    743.19305  0.026683651  0.026659475            6 
 2322000   0.88025296   -6.9306886    745.35345  0.026749693  0.026652333            6 
 2323000   0.88917028   -6.8920171    744.57637  0.026710302  0.026645202            6 
 2324000   0.88114184   -6.9160868    743.14818  0.026647597  0.026638063            4 
 2325000   0.89391202   -6.9077134    744.89408  0.026698713   0.02663091            6 
 2326000   0.87389719   -6.9245536    743.67274  0.026643477  0.026623808            4 
 2327000   0.90238881   -6.9166698    743.93545  0.026641436  0.026616718            5 
 2328000   0.88918555   -6.9063746    744.66125  0.026655973  0.026609674            9 
 2329000   0.87441108   -6.9188305    744.13699  0.026625769  0.026602591            7 
 2330000   0.88914786   -6.9344454    746.36009  0.026693851  0.026595534            5 
 2331000   0.88497056   -6.9346099    744.84366  0.026628188  0.026588417            6 
 2332000   0.88906667   -6.9033352    746.71209  0.026683537  0.026581366            6 
 2333000   0.89411354   -6.9148876    745.85401  0.026641449  0.026574221            7 
 2334000   0.87123911   -6.9045551    747.74317  0.026697486  0.026567101            3 
 2335000   0.88066518   -6.9151885    745.40245  0.026602514  0.026560059            3 
 2336000   0.87806282   -6.9288071    745.75998  0.026603881  0.026552935            4 
 2337000   0.87418409   -6.9120636     746.8992  0.026633119  0.026545862            3 
 2338000   0.86057981   -6.9108004    746.84117   0.02661966  0.026538737            8 
 2339000   0.86503953   -6.9033441    747.48683  0.026631282  0.026531688            5 
 2340000   0.88991842   -6.9079972    746.98289  0.026601955  0.026524587            6 
 2341000   0.90648613   -6.9192303     746.6903  0.026580176  0.026517501           11 
 2342000   0.86881491   -6.9043532    749.85535  0.026681446  0.026510425            7 
 2343000   0.88520408   -6.9451348    748.32795  0.026615733  0.026503329            7 
 2344000   0.86177561   -6.9315603    747.07785  0.026559935  0.026496221            6 
 2345000   0.89875662   -6.9455892    747.44123  0.026561522  0.026489107            5 
 2346000   0.87492755   -6.9474976    747.00437  0.026534682  0.026481993            2 
 2347000   0.87703431   -6.9218591    746.62491  0.026509903  0.026474871            7 
 2348000   0.89322539   -6.9236926     747.4762  0.026528826  0.026467754            9 
 2349000   0.88276341   -6.9533928    748.11849  0.026540318  0.026460598           15 
 2350000   0.86196933   -6.9478784      748.166  0.026530709  0.026453478           15 
 2351000   0.86167487   -6.9408957     747.4168  0.026492868  0.026446367            4 
 2352000   0.86985816   -6.9051321    748.36032  0.026515034  0.026439259            5 
 2353000   0.86487161   -6.9273511    746.92262  0.026452848  0.026432181           16 
 2354000   0.86572939   -6.9088019     750.0253  0.026551448  0.026425167            9 
 2355000   0.86503779   -6.9341672     747.6344   0.02645557  0.026418098            6 
 2356000   0.90539753   -6.9262028    751.16063  0.026569066  0.026411141            7 
 2357000   0.85527043   -6.9269606    749.93577  0.026514488  0.026404168            3 
 2358000   0.88551392   -6.9418475    747.31909  0.026410768  0.026397221            9 
 2359000   0.87621157   -6.9012553    749.97915  0.026493541  0.026390236            7 
 2360000   0.87303162   -6.9218709    750.48232  0.026500082  0.026383289            8 
 2361000    0.8949852   -6.9177991    750.39157  0.026485655  0.026376319            8 
 2362000   0.86185526   -6.9318023    751.29907  0.026506459  0.026369338            9 
 2363000   0.88609291   -6.9528466    752.14944  0.026525231  0.026362376            8 
 2364000   0.86876051   -6.9571736    751.77053  0.026500653  0.026355363            7 
 2365000   0.89354511   -6.9280703    751.63288  0.026484598  0.026348349           13 
 2366000   0.88806722   -6.9214134    749.31281  0.026391688  0.026341368            5 
 2367000   0.86666314   -6.9548727    749.84433  0.026399251  0.026334418            6 
 2368000   0.87136038   -6.9320425    751.46577  0.026445164   0.02632744           12 
 2369000   0.86897593   -6.9147745    751.69727  0.026442144  0.026320518            5 
 2370000   0.86555196   -6.9323199    751.36153  0.026419182   0.02631354           10 
 2371000   0.88413068   -6.9321857    750.53435  0.026378966  0.026306582           12 
 2372000   0.88398355   -6.9265207    751.68102   0.02640813  0.026299625            5 
 2373000    0.8746582   -6.9181767     753.8428  0.026472917  0.026292666            5 
 2374000    0.8631738   -6.9362179     752.7247  0.026422518  0.026285738            5 
 2375000   0.85607693    -6.928852    752.75215  0.026412356   0.02627882            6 
 2376000   0.86998773   -6.9379029    752.43643  0.026390167   0.02627193            5 
 2377000   0.88013674   -6.9279005    751.86038  0.026358869  0.026264952            4 
 2378000   0.86419757   -6.9118188    754.01201  0.026423185  0.026257993            5 
 2379000   0.85895562   -6.9464057     752.3599  0.026354207  0.026251016            8 
 2380000   0.86125434   -6.9480496    751.55075  0.026314802  0.026243975            8 
 2381000   0.88784622   -6.9550993    750.88865  0.026280577  0.026236914            7 
 2382000   0.86708751   -6.9313811    751.69597  0.026297788  0.026229869            4 
 2383000   0.87001651     -6.91834     750.1502  0.026232697  0.026222849            7 
 2384000   0.87758624   -6.9431705    752.82676  0.026315253  0.026215787            6 
 2385000   0.87476684   -6.9531609    752.55618  0.026294765  0.026208718            5 
 2386000   0.87155932   -6.9457238    753.69269  0.026323439  0.026201629            6 
 2387000   0.88002912   -6.9296158    754.12689  0.026327569  0.026194641            7 
 2388000   0.86835716   -6.9163369    753.82236  0.026305917  0.026187656            5 
 2389000   0.84699456   -6.9370037    753.69654  0.026290517  0.026180619            5 
 2390000   0.87621262   -6.9107271    757.28545  0.026404653  0.026173613           12 
 2391000   0.87797121   -6.9204919    754.88123  0.026309816  0.026166723           11 
 2392000   0.87351718   -6.9164302    756.02675  0.026338725  0.026159782            7 
 2393000   0.84463705   -6.9169485    753.22682  0.026230214  0.026152843            6 
 2394000    0.8641648    -6.915752    754.60621  0.026267273  0.026145918            6 
 2395000   0.87651932   -6.9457055    755.55034  0.026289156   0.02613894           14 
 2396000   0.87450344   -6.9264769    754.33533  0.026235926   0.02613199            7 
 2397000   0.85928575   -6.9255083    754.85051  0.026242891  0.026125052            7 
 2398000    0.8643686   -6.9305662    755.45128  0.026252825  0.026118095            7 
 2399000   0.85738122   -6.9593853    754.18421  0.026197868  0.026111136            5 
 2400000   0.87501217   -6.9628036    756.44235  0.026265359  0.026104173            3 
 2401000   0.86972255   -6.9513817     756.0931  0.026242298  0.026097262            7 
 2402000   0.86190662   -6.9377816    757.24059  0.026271183  0.026090385            8 
 2403000   0.86965409   -6.9306419    756.80353  0.026245094  0.026083538            4 
 2404000   0.88391829   -6.9375905    756.48063  0.026222984  0.026076664           11 
 2405000   0.87141512   -6.9397703    756.71332  0.026220143  0.026069775            5 
 2406000   0.86454843   -6.9625851    754.98139  0.026149258   0.02606284            6 
 2407000   0.88044956   -6.9708869    756.02612  0.026174565  0.026055886            7 
 2408000   0.85243306    -6.933335    758.09519  0.026235299  0.026049039           12 
 2409000   0.86947076   -6.8939834    758.24589  0.026229621  0.026042197            6 
 2410000   0.87076676   -6.9267245    757.71976  0.026200545  0.026035396            8 
 2411000   0.88220318   -6.9521097    755.68776  0.026119444  0.026028616            9 
 2412000   0.88007285   -6.9289677    757.65847  0.026176702  0.026021805            5 
 2413000     0.872469   -6.9451024    759.98939  0.026246353  0.026014924            6 
 2414000   0.87231293   -6.9453787    758.78601  0.026193938  0.026008002            8 
 2415000   0.87399981   -6.9466487    757.32395  0.026132642  0.026001062            6 
 2416000   0.86946052   -6.9456465    757.96294  0.026143865  0.025994096            8 
 2417000    0.8667176   -6.9611267    756.03522  0.026066585  0.025987074           20 
 2418000   0.86268474   -6.9581335    757.48083  0.026105626  0.025980045            5 
 2419000   0.87186652   -6.9625469    756.54149  0.026062474  0.025973094            6 
 2420000   0.86688611   -6.9834657    758.39931  0.026115679   0.02596618            5 
 2421000   0.90255892   -6.9475261    760.52489  0.026178056   0.02595925           10 
 2422000   0.85225818   -6.9398942     758.5108  0.026097949  0.025952316            2 
 2423000   0.87311589   -6.9628779    758.15628  0.026074985  0.025945338            8 
 2424000   0.85628921   -6.9589269    759.01926  0.026093896  0.025938352            9 
 2425000   0.87526826   -6.9477614    759.42838  0.026097195  0.025931399           14 
 2426000   0.87935725   -6.9243815    760.74855  0.026131786  0.025924554            4 
 2427000    0.8715192    -6.929248    760.39988  0.026109047  0.025917728            5 
 2428000   0.87023647   -6.9814261    756.92892  0.025979164  0.025910829            5 
 2429000   0.86132462    -6.893019    759.71227  0.026063959  0.025903946            6 
 2430000   0.86666048   -6.9514281    757.91157   0.02599148  0.025897016            8 
 2431000   0.86452407   -6.9649045    759.19968  0.026024944  0.025890066            9 
 2432000   0.87335579   -6.9710628    758.28226  0.025982808   0.02588309            6 
 2433000   0.86835894   -6.9417258    757.60009  0.025948763  0.025876127            9 
 2434000   0.84740324   -6.9511505    759.48364   0.02600259  0.025869197            5 
 2435000   0.86393079   -6.9849009    759.61632  0.025996452  0.025862263            4 
 2436000   0.84550027   -6.9551045    758.57278  0.025950081  0.025855249            3 
 2437000      0.84653   -6.9699408    759.01714  0.025954628  0.025848247            5 
 2438000   0.84845913   -6.9170517    762.06298  0.026048092  0.025841349            8 
 2439000   0.86093405   -6.9100045     759.8141  0.025960575  0.025834442            8 
 2440000   0.84628786   -6.9826562    759.86489   0.02595167  0.025827592            8 
 2441000   0.85173812   -6.9396082     762.0166  0.026014495  0.025820683            8 
 2442000   0.86717953   -6.9728592     760.8337  0.025963476   0.02581378            6 
 2443000   0.87156084     -6.93881    761.19994  0.025965341  0.025806901            7 
 2444000   0.85975233   -6.9677263    759.60789  0.025900433  0.025800044            5 
 2445000   0.84989148   -6.9582936    759.98616  0.025902732  0.025793136           11 
 2446000   0.85248111   -6.9792194    761.45182  0.025942076  0.025786221           11 
 2447000   0.84398034   -6.9766544    760.38214  0.025895046  0.025779293            4 
 2448000   0.84319673   -6.9738512    760.92705  0.025903018  0.025772349            3 
 2449000   0.85292674   -6.9855102    761.36525  0.025907352  0.025765467           15 
 2450000   0.86653404   -6.9592388    760.46204  0.025866056  0.025758576            4 
 2451000   0.84998963   -6.9620594    761.32737  0.025884923  0.025751698            7 
 2452000   0.87184079   -6.9475341    760.52737  0.025847178  0.025744794            4 
 2453000   0.84611532   -6.9765868    762.18614  0.025892993  0.025737928           15 
 2454000   0.86667379   -6.9647816    762.11233  0.025879935  0.025731077           31 
 2455000   0.83923509   -6.9352399    762.15761   0.02587093  0.025724268            8 
 2456000   0.86768681   -6.9394171    763.48334  0.025905379   0.02571746           10 
 2457000   0.85222114    -6.956441    761.83104  0.025838795  0.025710642           10 
 2458000   0.86077243   -6.9786507     762.2257  0.025841663  0.025703798            4 
 2459000   0.83183258   -6.9218482    762.47989  0.025839769  0.025696932           11 
 2460000   0.86703664   -6.9539351    764.78658  0.025907405  0.025690068            5 
 2461000   0.84594613   -6.9857231    761.52448  0.025786417  0.025683183            3 
 2462000   0.83439196    -6.962879    761.97239  0.025791105    0.0256763           18 
 2463000   0.87592264   -6.9413124    764.72906  0.025873902  0.025669456            7 
 2464000   0.84930654   -6.9728726    762.13488  0.025775666   0.02566255           10 
 2465000   0.85440087   -6.9243265     762.6968  0.025784205  0.025655663            4 
 2466000   0.84928408   -6.9616952    763.62538  0.025805129  0.025648782            8 
 2467000   0.84364983   -6.9839969    762.62071  0.025760732  0.025641853            4 
 2468000   0.84809205   -6.9408435     763.6382   0.02578465  0.025634909            7 
 2469000   0.86594789   -6.9782171    763.45678  0.025768084  0.025628032            7 
 2470000   0.86087508   -6.9117348    764.29441  0.025785911  0.025621155            6 
 2471000   0.87077553   -6.9705931    762.91467  0.025728945  0.025614285            6 
 2472000   0.85300204   -6.9680932    764.91773  0.025786062  0.025607331            8 
 2473000   0.83403878   -6.9909999    764.47726  0.025760792  0.025600404            6 
 2474000   0.85797569   -6.9626773    764.99956  0.025767972  0.025593502           10 
 2475000   0.85343405   -6.9453798    764.13347    0.0257284  0.025586591           11 
 2476000   0.85295595   -6.9351577    765.24176   0.02575531  0.025579773            8 
 2477000   0.86086389   -6.9784665    764.33813  0.025714511    0.0255729            5 
 2478000   0.86613204   -6.9713331    765.59519  0.025746408  0.025566023           11 
 2479000   0.85401497   -6.9578947    766.16229  0.025755086   0.02555921            6 
 2480000   0.86972232   -6.9626462    764.33928  0.025683443  0.025552359            8 
 2481000   0.83619617   -6.9770175    766.63679  0.025750262  0.025545521            4 
 2482000   0.85995739   -6.9809145    766.11312  0.025722305  0.025538711            5 
 2483000   0.84442753   -6.9643207    764.97195  0.025673646  0.025531834            6 
 2484000   0.84536461   -6.9509052    765.94612  0.025695992  0.025525005            8 
 2485000   0.86749505   -6.9702034    766.02812  0.025688401   0.02551814            8 
 2486000   0.86661395   -6.9503583    765.88715  0.025673342  0.025511275            5 
 2487000   0.85812341   -6.9702535    765.10145  0.025636693  0.025504431            8 
 2488000     0.840843   -6.9701184    765.39531  0.025636231  0.025497545            7 
 2489000   0.86178496   -6.9610326    766.41167  0.025659959  0.025490683           15 
 2490000   0.86588578   -6.9678677    767.32673  0.025680279  0.025483835            6 
 2491000   0.85141168   -6.9544183    766.63123  0.025646703  0.025477007            8 
 2492000   0.86044814    -6.968587    765.97048  0.025614315  0.025470155            6 
 2493000   0.83960498   -7.0038082    767.73167  0.025662912  0.025463352            6 
 2494000   0.86700273   -6.9861093    767.32022  0.025638874  0.025456535           14 
 2495000   0.85671469    -6.953367    767.89163  0.025647683  0.025449701            8 
 2496000   0.85013564   -6.9848479    769.36618  0.025686638  0.025442929            3 
 2497000   0.84161754   -6.9686529    768.55105  0.025649147  0.025436167            6 
 2498000   0.83613786   -6.9779999    767.49693  0.025603714  0.025429353            3 
 2499000   0.85879768   -6.9573952    769.17064  0.025649281  0.025422538           18 
 2500000   0.85071224   -6.9857109    767.80106  0.025593369  0.025415737            9 
 2501000   0.84686738   -6.9841992    765.89543   0.02551964  0.025408928           14 
 2502000   0.84780722   -6.9667067    768.68351  0.025602302  0.025402084            7 
 2503000   0.84633277   -6.9915233    768.47017   0.02558497  0.025395206            5 
 2504000   0.85479394   -6.9902522    768.06526  0.025561277  0.025388393            8 
 2505000   0.84074758   -6.9886148     769.7208  0.025606148  0.025381564            5 
 2506000   0.83844566   -6.9701821    769.59519  0.025591753  0.025374819            9 
 2507000   0.86112261   -6.9430439    768.45211  0.025543548  0.025368095            8 
 2508000   0.86271051   -6.9951642    770.40683  0.025598313  0.025361402            4 
 2509000   0.84647975   -6.9783387    769.93194  0.025572338  0.025354674            9 
 2510000   0.86572431   -6.9831896    769.62527  0.025551968  0.025347935            9 
 2511000   0.85276003   -6.9732576    769.72105   0.02554497  0.025341209           10 
 2512000   0.84892574   -6.9450931    769.38152  0.025523538  0.025334504            8 
 2513000   0.85047681   -6.9430143    768.96135  0.025499448   0.02532783            4 
 2514000   0.85458825   -6.9849907     771.7245  0.025580897  0.025321165            9 
 2515000   0.84654899   -6.9868617    770.85223  0.025541823   0.02531448            6 
 2516000   0.84494381   -6.9772332    770.37517  0.025515871  0.025307818           10 
 2517000    0.8411003   -6.9905328    768.10375  0.025430531  0.025301159            5 
 2518000   0.84535685   -6.9815293    770.39866  0.025496381  0.025294483            5 
 2519000   0.85337699    -6.977004    770.50818  0.025489883  0.025287771            7 
 2520000   0.84767995   -6.9868861    770.74891  0.025487729  0.025281041            9 
 2521000   0.86841216   -6.9671375    771.04406  0.025487375  0.025274278            5 
 2522000   0.86618802   -6.9808302    769.94265  0.025440875  0.025267554           12 
 2523000   0.86503756   -6.9795146    771.51076  0.025482586  0.025260819            6 
 2524000   0.84175675   -7.0025913    773.32142  0.025532271  0.025254089            4 
 2525000   0.84516405   -6.9981901    769.68613  0.025402183   0.02524732            9 
 2526000   0.85021937   -7.0044087    770.55492  0.025420788  0.025240602            4 
 2527000   0.83075012   -6.9873157      771.822  0.025452513  0.025233836           17 
 2528000   0.83518136   -7.0072244    771.73305  0.025439512  0.025227099            4 
 2529000   0.83425217   -6.9708158    770.08385   0.02537511  0.025220389            7 
 2530000   0.83748971   -6.9956925    773.90983  0.025491101  0.025213701            6 
 2531000   0.83776014   -7.0081023    771.65536  0.025406801  0.025207035            7 
 2532000   0.84256947   -6.9837687    771.54229  0.025393045  0.025200359            8 
 2533000   0.84130399   -6.9579016    774.24357   0.02547189  0.025193682            3 
 2534000   0.83041499   -6.9898276    773.96553  0.025452694  0.025187064            9 
 2535000    0.8539533   -6.9993624    772.65177  0.025399467  0.025180398            7 
 2536000   0.84175857   -6.9758225    774.42059  0.025447574  0.025173692            9 
 2537000   0.84344855    -6.970008    775.34141   0.02546779  0.025167039            5 
 2538000   0.83800077   -6.9980528    772.45628  0.025363025  0.025160366            9 
 2539000   0.84643867   -7.0184491    774.50763  0.025420363  0.025153689            4 
 2540000   0.84010714   -6.9798615    771.74809  0.025319819  0.025146984            5 
 2541000   0.83765007   -7.0190379    772.96123   0.02534964  0.025140317           13 
 2542000   0.85510606   -6.9676311    774.70614   0.02539687  0.025133709           13 
 2543000   0.84697127   -6.9921053    773.76214  0.025355949  0.025127071            6 
 2544000   0.83427874   -6.9897276    774.31601  0.025364125  0.025120446            5 
 2545000   0.84476733    -6.985812    774.80187  0.025370068  0.025113817            6 
 2546000   0.84873564    -6.994672    774.76162  0.025358786   0.02510723           21 
 2547000   0.84535935   -6.9816396    776.21989  0.025396541  0.025100602            6 
 2548000   0.83792147   -7.0004941    776.08204  0.025382066  0.025093996           10 
 2549000   0.81288156   -7.0171077    772.82466  0.025265616  0.025087345            5 
 2550000   0.85063798   -6.9972689    775.01346  0.025327237  0.025080663            7 
 2551000   0.83825343    -6.980323    773.95081  0.025282595  0.025074007            8 
 2552000   0.82906438   -7.0192484    775.99311  0.025339378  0.025067385            3 
 2553000   0.83962714   -6.9863296    774.88667  0.025293337  0.025060746           10 
 2554000   0.83260602   -7.0044936    773.82175  0.025248687  0.025054149            6 
 2555000   0.86994272   -7.0077335    776.68492  0.025332189  0.025047561            9 
 2556000   0.85837631   -7.0026338    776.43335  0.025314076  0.025040927            9 
 2557000   0.84756502   -6.9798285    776.34692   0.02530136   0.02503431           10 
 2558000   0.82930539   -7.0217707      777.099  0.025315969  0.025027719            9 
 2559000   0.83113899   -6.9621963    775.78345  0.025263236  0.025021148           13 
 2560000     0.858718   -6.9879617    776.87574  0.025288924  0.025014537            5 
 2561000   0.84098227   -6.9830617      776.064  0.025252636  0.025007871            6 
 2562000   0.85421569   -7.0134515    776.38327  0.025253164  0.025001253            5 
 2563000   0.83909731   -7.0129903     774.7761  0.025191055  0.024994588            4 
 2564000   0.84922907   -6.9812184     776.6121  0.025240903  0.024987975            4 
 2565000   0.84041183   -6.9985057    776.83213  0.025238211  0.024981347            5 
 2566000   0.83191917   -7.0205352    774.74746  0.025160673  0.024974664            3 
 2567000   0.83174424   -7.0127483    772.98492  0.025093654  0.024967959            4 
 2568000   0.84794474   -7.0044108    776.70427  0.025204578  0.024961273            9 
 2569000   0.85488307   -7.0199083    776.25481  0.025180187  0.024954665            3 
 2570000   0.85075941   -7.0119507    776.29105  0.025171565   0.02494802            5 
 2571000   0.84585499   -7.0400339    775.89998  0.025149098  0.024941353           10 
 2572000   0.85106766   -6.9769907    778.47896   0.02522288  0.024934736            6 
 2573000   0.85991865   -6.9865052    777.28185  0.025174305  0.024928126            5 
 2574000   0.83407084   -7.0068272    778.41121  0.025201088  0.024921534            3 
 2575000   0.85967203   -6.9789203    778.60019  0.025197417  0.024914924           14 
 2576000   0.85309775    -6.979366    778.93597  0.025198498  0.024908388           11 
 2577000   0.84718345   -6.9776963    777.91931  0.025155844  0.024901811            8 
 2578000   0.85485288   -7.0035865    776.89595  0.025113006  0.024895208            4 
 2579000   0.83592018   -7.0099077    778.95948  0.025169946  0.024888627            7 
 2580000    0.8417275   -7.0126828    777.80582  0.025122927  0.024882078            6 
 2581000   0.83701276   -6.9863121    777.22002  0.025094279  0.024875476            6 
 2582000   0.84487244   -7.0485402    778.55457  0.025127633  0.024868853           13 
 2583000   0.85535532   -7.0091051    779.92971   0.02516227  0.024862225            8 
 2584000   0.84003458   -7.0014346    777.88272  0.025086517  0.024855617            8 
 2585000   0.83883655   -6.9963521    778.92005  0.025110253  0.024849022            7 
 2586000    0.8370427   -6.9926165     776.7059  0.025029192  0.024842421            8 
 2587000   0.83731508   -7.0071535    779.28034  0.025102446  0.024835823            9 
 2588000   0.83065317   -6.9735364    778.90195  0.025080563  0.024829276           12 
 2589000   0.82725941   -6.9873282    779.41078  0.025087253  0.024822741            7 
 2590000   0.84308464   -7.0049342    781.03804  0.025129924  0.024816185            6 
 2591000   0.83562958   -6.9581467    780.22135  0.025093958  0.024809663            5 
 2592000    0.8249091   -7.0009483    780.11849   0.02508097  0.024803133            6 
 2593000   0.84036836   -6.9731671    780.10097  0.025070734  0.024796572            6 
 2594000   0.83205508   -7.0145033    781.78416  0.025115142  0.024790029            3 
 2595000   0.85699579   -6.9817614    779.44529  0.025030356  0.024783517            4 
 2596000   0.82797938   -7.0017809    781.75016  0.025094702  0.024777006            7 
 2597000   0.82837007   -7.0218055    780.42346  0.025042467  0.024770421           13 
 2598000   0.83888428    -7.032826    780.34956  0.025030458  0.024763831           15 
 2599000   0.83444926   -7.0099367    781.01133  0.025042046  0.024757212            4 
 2600000     0.836951   -7.0259332    779.53337  0.024985044  0.024750563           13 
 2601000   0.81084097   -7.0064168    780.21222  0.024997188  0.024743965           10 
 2602000   0.84900411   -7.0022928    780.52348  0.024997549  0.024737401            7 
 2603000   0.83649939   -7.0133309    779.44322  0.024953362  0.024730789            4 
 2604000   0.84790593   -7.0024961    779.88566  0.024957938  0.024724196            8 
 2605000   0.83087557   -7.0455307    779.51238  0.024936417   0.02471757            7 
 2606000   0.83618795   -7.0129135    779.42488   0.02492405  0.024710885           12 
 2607000   0.84405667   -6.9959433    782.23402  0.025004284  0.024704238            5 
 2608000   0.83066665   -7.0191198    779.78449  0.024916427  0.024697603            8 
 2609000   0.82673016   -7.0230922    777.95497   0.02484844  0.024690966           11 
 2610000   0.83977931   -7.0336048    780.30499  0.024913952  0.024684309            5 
 2611000   0.85010899   -7.0162008    778.94977  0.024861157  0.024677592            8 
 2612000   0.83535908   -6.9669718    783.07871  0.024983369  0.024671017            5 
 2613000   0.80974923   -6.9699375    784.96258  0.025033887  0.024664492            7 
 2614000   0.82353254   -7.0117258    781.92965  0.024927622  0.024657952            7 
 2615000    0.8554015    -7.005894    781.61112  0.024907939  0.024651401            5 
 2616000   0.84255673   -6.9997983    782.85917  0.024938174  0.024644865           10 
 2617000   0.83656282   -7.0135566    781.23961  0.024877073  0.024638359           13 
 2618000   0.83979615    -7.023488    781.08004  0.024862492  0.024631792            6 
 2619000   0.83640551   -7.0365202    782.67952  0.024903892  0.024625253            5 
 2620000   0.82092352   -7.0197432    781.53895  0.024858109  0.024618701            6 
 2621000   0.82529857   -7.0282745    782.65398  0.024884077  0.024612125            7 
 2622000    0.8223431   -7.0459845    782.40233  0.024866588  0.024605555            8 
 2623000   0.82095073   -7.0138023    784.92717  0.024937323  0.024598972            8 
 2624000   0.83108893    -6.983796    784.03093  0.024899356  0.024592481           10 
 2625000   0.82872583   -7.0183393    784.12311  0.024892797  0.024586022            6 
 2626000   0.82633869   -7.0346998    784.15888  0.024884453  0.024579493            5 
 2627000   0.84969851   -7.0035974    785.89912  0.024930184  0.024572974           17 
 2628000   0.84822288   -7.0302905    785.17934  0.024897874  0.024566481            6 
 2629000   0.84490586   -7.0091955     782.3234  0.024797876  0.024559952           11 
 2630000   0.84777432   -7.0073791    786.24461  0.024912694  0.024553459            3 
 2631000   0.83418907   -7.0020863    785.91299  0.024892721  0.024547032            8 
 2632000   0.81011887   -7.0175517    787.50438  0.024933649  0.024540671            5 
 2633000   0.84373745   -6.9850514    787.18476  0.024914064  0.024534278            5 
 2634000   0.83180577   -7.0407167    784.76458  0.024828037   0.02452792            9 
 2635000   0.82396553   -7.0303182    786.51598  0.024874003   0.02452154            7 
 2636000   0.82326585   -7.0033114    785.79774  0.024841861  0.024515164           12 
 2637000    0.8148482   -7.0162933    786.65832  0.024859636    0.0245088            5 
 2638000   0.81859165   -7.0442077    786.29184  0.024838635  0.024502389            9 
 2639000   0.83049377   -7.0242378    785.62749  0.024808245  0.024495989            4 
 2640000   0.81145495   -6.9978756    789.39429  0.024917749  0.024489627            4 
 2641000   0.83202043   -7.0177497    787.29188  0.024841975  0.024483311            9 
 2642000   0.82505018   -7.0067006    787.17951  0.024829028   0.02447692            2 
 2643000   0.81300775    -7.020598    785.55302  0.024768351  0.024470536            6 
 2644000   0.82573042   -7.0253464    786.33834  0.024783735  0.024464106            8 
 2645000   0.82928183   -7.0093097    786.23992  0.024771264   0.02445766            8 
 2646000   0.82884717   -7.0226942    787.47848  0.024800909  0.024451228            8 
 2647000    0.8365468   -7.0285957    784.71058  0.024704401  0.024444795           10 
 2648000   0.80903743   -7.0310437    786.45406  0.024749939  0.024438384            6 
 2649000   0.84318777    -7.017132    786.94345  0.024755991  0.024431976            7 
 2650000   0.82773537   -7.0055701    786.38122  0.024728969  0.024425549            6 
 2651000    0.8363475   -7.0087523     786.4361  0.024721366  0.024419109           10 
 2652000    0.8267688   -7.0309893     785.9526  0.024696851  0.024412646            3 
 2653000   0.82533553   -7.0039799    787.12372  0.024724328  0.024406148            6 
 2654000   0.81893628   -7.0174848    786.84906  0.024706389  0.024399721            7 
 2655000   0.82216732   -6.9918289    788.01211  0.024733588  0.024393261            2 
 2656000   0.81607838    -7.009421    789.40078  0.024767846  0.024386824            8 
 2657000   0.81536664   -7.0356514    786.83247  0.024677972   0.02438036            5 
 2658000   0.84101401   -7.0235568    789.53985   0.02475357  0.024373906            6 
 2659000   0.83007538   -7.0296047      788.249  0.024703805  0.024367511            5 
 2660000   0.81188461   -7.0396118     788.6117   0.02470588  0.024361098            7 
 2661000   0.81796758   -7.0443277    787.74675  0.024669509  0.024354681            5 
 2662000   0.81956515   -7.0144993    788.27348   0.02467673  0.024348245            5 
 2663000   0.83129807   -7.0135263    788.44544  0.024672845  0.024341798            5 
 2664000   0.82897731   -7.0598588     788.7252  0.024672335  0.024335373            7 
 2665000   0.83098777   -7.0484956    787.18581  0.024614941  0.024328959           10 
 2666000   0.81361093   -7.0362345    787.83312  0.024625941  0.024322571            7 
 2667000   0.84187356   -7.0357417    787.92022  0.024619429  0.024316157            7 
 2668000   0.81563257   -7.0503763    788.12919  0.024616729  0.024309703            8 
 2669000   0.83286932   -7.0376111     788.5119  0.024619455  0.024303275            4 
 2670000   0.81382291   -7.0225799    789.38731  0.024637556  0.024296857            6 
 2671000   0.82829241    -7.068646    789.52519  0.024632634  0.024290467            9 
 2672000   0.83582528   -7.0237864    789.48201  0.024622069  0.024284081            6 
 2673000   0.83706087   -7.0259902    788.83778  0.024592773  0.024277692            6 
 2674000   0.80988042   -7.0356919    790.30699  0.024629363  0.024271319            4 
 2675000   0.80407622   -7.0615855    787.87449  0.024544377  0.024264912           12 
 2676000    0.8288046   -7.0548044    789.08881   0.02457302  0.024258533            9 
 2677000    0.8087669   -7.0369718    790.21027  0.024598751  0.024252134           24 
 2678000   0.81021754   -7.0553919    789.82471  0.024577567  0.024245744            6 
 2679000   0.82192934   -7.0518651    789.93452  0.024571809  0.024239304            6 
 2680000   0.80764061   -7.0375464    789.21329  0.024540214  0.024232925           11 
 2681000   0.81601687   -7.0189697    790.31551  0.024565321  0.024226547            5 
 2682000   0.83398286   -7.0493315    789.86384  0.024542128  0.024220162            7 
 2683000   0.81440574   -7.0691342    789.57665  0.024524061  0.024213768            7 
 2684000   0.81188712   -7.0511141    791.45642  0.024573287  0.024207384           11 
 2685000   0.82207991   -7.0029554    792.70894  0.024603009  0.024201097            7 
 2686000   0.81071305   -7.0466598    793.14452  0.024607363  0.024194787            7 
 2687000   0.80308317   -7.0378992    792.83338  0.024588556  0.024188499            3 
 2688000   0.81401116   -7.0228958    794.18581  0.024621336  0.024182267            6 
 2689000   0.81678899   -7.0328548    791.19194  0.024519398  0.024176017           14 
 2690000   0.80714649   -7.0271058    792.20453  0.024541652  0.024169735           10 
 2691000   0.81532539   -7.0459443    792.85693  0.024552735  0.024163411            8 
 2692000   0.81047687   -7.0250565    791.92303  0.024514705  0.024157073           15 
 2693000   0.82599288   -7.0565068    793.36188  0.024550126  0.024150747           11 
 2694000   0.84390535   -7.0606891    792.29549  0.024508027  0.024144433            9 
 2695000   0.81607363   -7.0378651    792.31646  0.024499581  0.024138119            5 
 2696000   0.81427532   -7.0341196    792.51818  0.024496729  0.024131785            8 
 2697000   0.82474631   -7.0561884    791.60748  0.024459507  0.024125479            8 
 2698000   0.82258148   -7.0580662    792.75902  0.024486009  0.024119142           10 
 2699000   0.83773977   -7.0561546    794.15847  0.024520145  0.024112836           12 
 2700000   0.82101338   -7.0552511    792.53787  0.024461045  0.024106487           14 
 2701000   0.81499271   -7.0598294    793.65018  0.024486307  0.024100154            6 
 2702000   0.83623964   -7.0045107    792.86238  0.024452948  0.024093846            5 
 2703000   0.81948685   -7.0484661    792.49505  0.024432577  0.024087511            9 
 2704000   0.81877468   -7.0313358    791.02442  0.024378218  0.024081183            9 
 2705000   0.81613452    -7.042431    794.14172  0.024465241   0.02407484            9 
 2706000   0.82180315   -7.0614271    791.91241  0.024387546   0.02406848            5 
 2707000   0.80727008   -7.0598293    794.01671  0.024443317  0.024062138           14 
 2708000   0.82761443   -7.0454577    793.22697  0.024409988  0.024055861            4 
 2709000   0.81679733   -7.0616563    794.14289  0.024429153   0.02404951           13 
 2710000   0.81648321   -7.0527741    794.28816  0.024424605  0.024043229           11 
 2711000   0.79896719   -7.0585623     793.5745  0.024393659  0.024036922            8 
 2712000   0.82278793   -7.0562021    794.56355  0.024415055  0.024030625           11 
 2713000   0.82542002   -7.0611235    794.56864  0.024406212  0.024024285            5 
 2714000   0.81842884   -7.0533422    795.69334  0.024431753  0.024017957            6 
 2715000   0.82597942   -7.0476489     794.3361  0.024381096  0.024011668            6 
 2716000    0.8092428    -7.047745    795.21249  0.024399009  0.024005371            8 
 2717000   0.82073875   -7.0582327    795.41824  0.024396339  0.023999099           13 
 2718000    0.8115876   -7.0555392     796.6962  0.024426545  0.023992849            8 
 2719000   0.81183012   -7.0676819    793.63983  0.024323888  0.023986587            8 
 2720000   0.81712824   -7.0303209    796.12593  0.024391113    0.0239803            6 
 2721000   0.81228007   -7.0296427    795.73057  0.024370041  0.023974068            8 
 2722000   0.81517937   -7.0371604    795.18116  0.024344268  0.023967819            4 
 2723000   0.80580944   -7.0647469    794.83462  0.024324722  0.023961561            5 
 2724000   0.81842402   -7.0366604    797.30432  0.024391346  0.023955295            7 
 2725000   0.81508608   -7.0632478     795.7096  0.024333627  0.023949012            9 
 2726000   0.82402104    -7.028442    794.59832  0.024290729  0.023942699           17 
 2727000   0.81607295   -7.0616191    795.15244  0.024298754  0.023936381           12 
 2728000   0.82602537   -7.0472491    796.62741  0.024334904  0.023930093           10 
 2729000   0.82379477   -7.0229211    795.64813  0.024296083  0.023923804           18 
 2730000   0.83206627   -7.0116841    795.79296  0.024291604  0.023917514           11 
 2731000   0.80522407   -7.0490446    795.53501  0.024274838  0.023911239           11 
 2732000    0.7905848   -7.0460791    795.42229  0.024262515  0.023905005           27 
 2733000   0.80768846   -7.0112221     798.0945  0.024335117  0.023898775            4 
 2734000   0.82042571   -7.0502455    797.41882  0.024305621  0.023892496            4 
 2735000   0.81781786   -7.0966018    795.85542  0.024249099  0.023886209            4 
 2736000   0.81824558   -7.0582583    798.50968  0.024321079  0.023879937            7 
 2737000   0.83214025   -7.0547546    796.32336  0.024245627  0.023873688            7 
 2738000   0.81005357    -7.045677    796.83129  0.024252231  0.023867431           21 
 2739000   0.82905552   -7.0810335    797.18694  0.024254197  0.023861216           23 
 2740000   0.79959731   -7.0653885    796.59093  0.024227218  0.023854962            9 
 2741000    0.8313511   -7.0670319    797.53965  0.024247223  0.023848673            9 
 2742000   0.81630603   -7.0365581     794.8671  0.024157157  0.023842408            7 
 2743000   0.81326874   -7.0967898    796.00247  0.024182843  0.023836173            6 
 2744000   0.83146769   -7.0584723    796.75449  0.024196868  0.023829908           11 
 2745000   0.82951419   -7.0673827    797.42298  0.024208348  0.023823625            5 
 2746000      0.81419   -7.0468767    798.29598  0.024226025   0.02381739            5 
 2747000   0.80893337   -7.0579405    798.16572  0.024213254   0.02381115           11 
 2748000    0.8297312   -7.0634992    796.53555  0.024155008  0.023804887           14 
 2749000   0.81272489    -7.051029    799.20396  0.024227112  0.023798646            8 
 2750000    0.8104072   -7.0566305    798.08764  0.024184474  0.023792468            8 
 2751000   0.82252309   -7.0501201    798.69404  0.024194052   0.02378628           18 
 2752000   0.80053151   -7.0502656    798.74772  0.024186886  0.023780088            3 
 2753000   0.81325178   -7.0535475    801.71693  0.024267978  0.023773925            4 
 2754000   0.81012698   -7.0650372    799.95925  0.024205981  0.023767722            7 
 2755000   0.78963761   -7.0599941    799.98718  0.024198039  0.023761533           11 
 2756000   0.80394916   -7.0305921    798.47772  0.024143617  0.023755318           15 
 2757000   0.80936574   -7.0490814    802.15725  0.024246078  0.023749152            4 
 2758000   0.80414153   -7.0625257    799.34711  0.024152378  0.023743019            8 
 2759000   0.82616901    -7.041334    801.56561  0.024210632  0.023736845            4 
 2760000   0.80779843   -7.0506622    800.20695  0.024160838  0.023730722            5 
 2761000   0.82865089    -7.033733    801.45763  0.024189835  0.023724647           11 
 2762000    0.7939597   -7.0445515    798.71946  0.024098463   0.02371854            4 
 2763000   0.80139939   -7.0144151    801.92487  0.024186418  0.023712396           15 
 2764000   0.81107761   -7.0939835    802.65117  0.024199565  0.023706239            9 
 2765000   0.81331544   -7.0618186    798.64099  0.024069951  0.023700083            8 
 2766000   0.79229239   -7.0585227    799.93555  0.024100251  0.023693909            4 
 2767000   0.80918514   -7.0367946    801.18759  0.024129249   0.02368774           19 
 2768000   0.82004821   -7.0543495    803.58811  0.024192802  0.023681572           10 
 2769000   0.81178621   -7.0624084    800.70934  0.024097428  0.023675423            4 
 2770000   0.81096039    -7.059955    800.04805  0.024068834  0.023669239            6 
 2771000   0.82230554    -7.065027    799.68461  0.024049218  0.023663044            4 
 2772000   0.79458663   -7.0611903    798.95459  0.024018596  0.023656839            7 
 2773000   0.81687927   -7.0688545    798.36516  0.023992221  0.023650605            8 
 2774000   0.80436876   -7.0544096    801.41238  0.024075114  0.023644386            6 
 2775000   0.81593719    -7.063621    801.59016  0.024071777  0.023638169            4 
 2776000   0.78983636   -7.0689549    800.61655  0.024033878  0.023631951            9 
 2777000   0.81216375   -7.0569434    800.46778  0.024020759  0.023625766            6 
 2778000   0.80758704   -7.0689469    800.91573   0.02402555  0.023619573            5 
 2779000      0.81121    -7.083806    800.35823  0.024000187  0.023613409            8 
 2780000   0.82591561    -7.094367    799.76327  0.023973719  0.023607217           10 
 2781000   0.82067078   -7.0850575    802.89528   0.02405895  0.023601025            8 
 2782000   0.82715776    -7.091773    804.27663   0.02409168  0.023594884           16 
 2783000    0.7924978   -7.0702298    803.70979   0.02406605  0.023588757           21 
 2784000   0.81189226   -7.0862212    802.88942  0.024032849  0.023582639            7 
 2785000   0.78265311   -7.1009101    802.53354  0.024013571   0.02357646            9 
 2786000   0.80799765   -7.0460757    806.06614  0.024110617  0.023570358            9 
 2787000   0.80119249   -7.0791405    804.10246   0.02404325  0.023564258            8 
 2788000   0.78891652   -7.0420405    804.64382  0.024050808  0.023558179            5 
 2789000   0.80826253   -7.0815038     802.8842  0.023989608  0.023552097            4 
 2790000   0.79297288   -7.0937641    803.30124  0.023993466  0.023546001           16 
 2791000   0.80431496   -7.0884857    803.59015  0.023993495  0.023539833           13 
 2792000   0.80323021   -7.0687911    803.55653  0.023983898  0.023533677            6 
 2793000   0.81806659   -7.0574362    803.08252  0.023961168  0.023527572            5 
 2794000   0.80178007   -7.0817388     803.5562   0.02396672  0.023521465            7 
 2795000   0.79961471   -7.0982653    804.23602  0.023978415  0.023515332            9 
 2796000   0.80320791   -7.0694602    804.77809  0.023985995  0.023509225            6 
 2797000   0.80506684   -7.0493396    803.94582  0.023952623  0.023503147            6 
 2798000   0.80028353   -7.0953363    803.94933  0.023944166  0.023497092           10 
 2799000   0.78031073   -7.0541462    804.62117  0.023955614  0.023491026            9 
 2800000   0.80272839   -7.0626564    806.69487  0.024008776  0.023484992            8 
 2801000   0.79012229   -7.0449835    805.78453   0.02397312  0.023478928            8 
 2802000   0.78854354     -7.06474    804.69979  0.023932304  0.023472887           10 
 2803000   0.78608234   -7.0382403    807.17848  0.023997458  0.023466836           10 
 2804000   0.79895623   -7.0492431     807.0587   0.02398534  0.023460772           11 
 2805000   0.80902385   -7.0893012    805.69091  0.023936153  0.023454716            9 
 2806000    0.8003379   -7.0768606    806.31089  0.023946035  0.023448659            9 
 2807000   0.81422828   -7.1012091    803.65376   0.02385862  0.023442597            8 
 2808000   0.79904408   -7.0596488    806.61418   0.02393798  0.023436539           17 
 2809000   0.79381944   -7.0569409    804.92672  0.023879397  0.023430513            6 
 2810000   0.80067402   -7.0616482    806.09731  0.023905614  0.023424475           10 
 2811000   0.79840482     -7.07465    805.25384  0.023872105  0.023418397           23 
 2812000   0.80487316   -7.0830815    806.92058  0.023913009  0.023412339           11 
 2813000   0.81407501   -7.0452453    807.45999  0.023920488  0.023406318            8 
 2814000   0.81323928   -7.0554903    805.54398  0.023855247  0.023400282            5 
 2815000   0.80659372   -7.0753311    807.04744   0.02389128  0.023394222            5 
 2816000   0.82481143   -7.0860831    805.38207  0.023833513   0.02338816            9 
 2817000   0.79254519   -7.1027779    804.93866  0.023811935  0.023382042            5 
 2818000   0.77650205   -7.0905386    804.66767  0.023795472  0.023375932            6 
 2819000   0.80793184   -7.0944403    806.59102  0.023843887  0.023369839            9 
 2820000   0.79380462   -7.0759166    803.84107  0.023754169  0.023363767           20 
 2821000   0.80396943   -7.0786214     804.9218  0.023777674  0.023357683           14 
 2822000   0.80651235   -7.0790979    807.17325  0.023835733   0.02335158           16 
 2823000   0.80986631    -7.066107    807.48201  0.023836404  0.023345521            7 
 2824000   0.79443561   -7.0827055    805.66324  0.023774293  0.023339449            8 
 2825000   0.78135939   -7.0627642    806.21763  0.023782231  0.023333353            8 
 2826000   0.80627485   -7.0859791     806.3477  0.023777651  0.023327276           10 
 2827000   0.79780096   -7.0778354    808.71499  0.023839022  0.023321206           16 
 2828000   0.79573583   -7.0762686    808.63692  0.023828292  0.023315132            9 
 2829000   0.80362845   -7.0641097    809.31452  0.023839829  0.023309096            4 
 2830000   0.80067153    -7.067592    804.92189  0.023702058  0.023303044            4 
 2831000   0.79411224   -7.0793269    806.65823  0.023744797  0.023296957            9 
 2832000   0.80040914   -7.0851461    806.99358   0.02374628  0.023290826           10 
 2833000   0.80860077   -7.0839765    809.10164  0.023799907  0.023284749            6 
 2834000   0.80631981   -7.0468185    808.07256  0.023761249  0.023278682            9 
 2835000   0.80608305   -7.0795894    806.82033  0.023716059  0.023272613           10 
 2836000   0.79075733    -7.087742    807.39449  0.023724568  0.023266512           10 
 2837000     0.795225   -7.0780239    807.84975  0.023729578  0.023260421            6 
 2838000   0.80808289   -7.0902375    806.50159   0.02368163  0.023254335           13 
 2839000   0.80817967   -7.1078514    807.46001  0.023701421  0.023248234           12 
 2840000   0.81111396   -7.0878437     809.8013  0.023761775  0.023242148            7 
 2841000   0.80026584   -7.0855694     808.3306  0.023710272  0.023236054            5 
 2842000   0.80625126   -7.1033533      806.313  0.023642769  0.023229966            8 
 2843000   0.81564432   -7.0993102     806.7156  0.023646254  0.023223864            7 
 2844000   0.78928193   -7.1001098     806.3382  0.023626881   0.02321775           15 
 2845000   0.78225959   -7.0907555    809.09218  0.023699244  0.023211643           21 
 2846000   0.77445368   -7.0863022    807.22381  0.023636209  0.023205556            6 
 2847000   0.79156231   -7.1093578      810.105  0.023712241  0.023199455            6 
 2848000    0.7977065   -7.1028127    807.88909  0.023639077   0.02319336           13 
 2849000   0.80646842   -7.1048577    806.55047  0.023591625  0.023187259            6 
 2850000   0.79624135   -7.0868073    809.32413  0.023664448  0.023181163            4 
 2851000   0.80322188   -7.0596164    807.96277  0.023616356  0.023175114            8 
 2852000   0.80318317   -7.1012537    808.52201  0.023624416  0.023169056            7 
 2853000   0.79838243   -7.0829797    808.49813  0.023615438  0.023162955           12 
 2854000   0.80671259    -7.087935    809.33857  0.023631703  0.023156906            7 
 2855000   0.80773606   -7.0943696    809.49389  0.023627959  0.023150854            9 
 2856000   0.78980658   -7.0660339      808.016  0.023576564  0.023144799            7 
 2857000    0.7826099   -7.0817732    808.19532  0.023573542  0.023138717            8 
 2858000   0.77388626   -7.0643283    810.75094   0.02363981  0.023132655            6 
 2859000   0.79536661   -7.0848511    809.42392  0.023592862  0.023126574           12 
 2860000   0.80676569   -7.0867595    809.48171  0.023586297  0.023120479            5 
 2861000   0.80300856   -7.1082004    811.26075  0.023629871  0.023114397            4 
 2862000   0.79998422   -7.0865013    810.04971  0.023586353  0.023108354            7 
 2863000   0.80134717   -7.0755555    808.51561  0.023533462  0.023102323            6 
 2864000   0.78811241   -7.0871179    811.39894   0.02360914  0.023096283            8 
 2865000   0.79497967   -7.1018759    810.55687  0.023576407  0.023090266            9 
 2866000   0.80141896   -7.0934511    810.52795   0.02356734  0.023084219            6 
 2867000    0.8016456   -7.0913266    811.11599  0.023576212  0.023078168            7 
 2868000   0.79741805   -7.0803029    808.27553  0.023485458  0.023072123           10 
 2869000   0.79521645   -7.0992624     809.3273  0.023507822  0.023066072           25 
 2870000   0.77026558   -7.0959313    810.70581  0.023539658  0.023060017           15 
 2871000   0.78840887   -7.0959609    810.82199  0.023534831  0.023053967            9 
 2872000   0.79065471   -7.0855957    810.86374  0.023527848  0.023047906            7 
 2873000   0.79738505   -7.0854759    811.96154  0.023551501  0.023041877            7 
 2874000   0.78376241   -7.0641832    813.35266  0.023583642  0.023035852            7 
 2875000   0.78470574   -7.0900739    810.80397  0.023501564  0.023029841            5 
 2876000    0.8003271   -7.0936158    809.71273  0.023461773  0.023023781            4 
 2877000   0.79319064   -7.0952456    809.72101  0.023453858  0.023017712            8 
 2878000   0.78850623   -7.0703717    812.03516  0.023512716  0.023011618           13 
 2879000   0.78921434   -7.1202666    809.91272  0.023443114  0.023005566            7 
 2880000   0.79005132   -7.1053033    810.54875  0.023453378  0.022999516            5 
 2881000   0.79666643   -7.1358195    811.08535  0.023460759  0.022993463           11 
 2882000   0.78472611   -7.0902054    810.68233  0.023440965  0.022987453            6 
 2883000   0.78742381   -7.1414581    809.86955  0.023409341  0.022981398           10 
 2884000   0.78782011   -7.0901549    810.77238  0.023427311  0.022975347            5 
 2885000   0.78155186   -7.1265956    812.66678  0.023473911  0.022969314            7 
 2886000   0.78055031   -7.0975817    812.17334  0.023451529  0.022963315           18 
 2887000   0.79257718   -7.1251829    813.88814  0.023492903  0.022957309           13 
 2888000   0.80968974   -7.0968055    812.88559   0.02345584  0.022951286            9 
 2889000   0.78733365   -7.0790881    813.14149  0.023455102  0.022945325            8 
 2890000   0.78619346   -7.0940724    812.25515  0.023421429  0.022939356            9 
 2891000   0.78146513   -7.1070275    812.25283   0.02341326  0.022933368            6 
 2892000    0.8060499   -7.1033158     812.9631  0.023425631  0.022927385           12 
 2893000   0.80190514   -7.0890116    813.66933  0.023437877  0.022921428            9 
 2894000   0.77634735   -7.0984688     812.6728  0.023401083  0.022915418           17 
 2895000   0.78940138   -7.1189804    812.43315  0.023386101  0.022909413            3 
 2896000   0.79628578   -7.1237949    814.36895  0.023433729  0.022903397            8 
 2897000   0.79105269   -7.1211501    812.28339  0.023365648  0.022897361           16 
 2898000   0.78186167   -7.1115282    811.77151  0.023342866  0.022891323           21 
 2899000   0.79951492   -7.1041029    812.34481  0.023351294  0.022885305            6 
 2900000   0.80543862   -7.1178979    812.33405  0.023342932  0.022879282            4 
 2901000   0.78421781   -7.1075472    812.12338  0.023328834  0.022873258           12 
 2902000   0.76702482   -7.1062408    813.00934  0.023346237  0.022867247            7 
 2903000   0.78975079   -7.1172229    813.10767  0.023341017  0.022861216            8 
 2904000   0.77719333   -7.0709929    814.57574  0.023375107  0.022855203            9 
 2905000   0.78264544   -7.1188304    813.67862  0.023341326  0.022849203            8 
 2906000   0.76887913   -7.1322707    814.77794  0.023364818  0.022843187            9 
 2907000   0.76701734   -7.1183426    812.42926  0.023289452  0.022837153            8 
 2908000    0.7844947   -7.1574906    812.69487  0.023289055  0.022831124            6 
 2909000   0.77619672   -7.0872768    813.50598  0.023304285  0.022825072            9 
 2910000    0.7940421   -7.1370393    814.42917  0.023322714  0.022819031           25 
 2911000   0.79513031   -7.1257186    813.92534  0.023300279  0.022813019           11 
 2912000   0.78130521   -7.1181566     811.3916  0.023219769  0.022806977           12 
 2913000    0.7852716   -7.1246173    812.86931  0.023254071  0.022800923           10 
 2914000    0.7742441   -7.1536576    812.91359  0.023247357  0.022794849            8 
 2915000   0.78133301   -7.1421774     813.3548  0.023251996  0.022788789            5 
 2916000   0.78269543   -7.1277128    813.86399  0.023258573  0.022782717            5 
 2917000   0.78255549   -7.1458857    813.49432  0.023240039  0.022776657            6 
 2918000   0.78199447   -7.1327013    812.93609  0.023216132  0.022770586           11 
 2919000   0.78280712   -7.1001298    812.56927  0.023197707  0.022764521           10 
 2920000   0.77775102   -7.1229167    814.13068  0.023234323  0.022758473            5 
 2921000   0.79504438   -7.1343834    813.48619  0.023207982  0.022752419            8 
 2922000    0.7835643   -7.1288044    812.08504   0.02316008  0.022746348            5 
 2923000   0.77708347    -7.128768    812.73613  0.023170719  0.022740275            8 
 2924000   0.77387864   -7.1352779    813.12781  0.023173957  0.022734226           10 
 2925000   0.78751635   -7.1035562    815.02227  0.023220008  0.022728209            6 
 2926000   0.77557208   -7.0945854    814.08481  0.023185373  0.022722227            7 
 2927000   0.78402665   -7.1094915    815.97913  0.023231384  0.022716213           10 
 2928000   0.77723796   -7.1385172    813.62356  0.023156408  0.022710192            7 
 2929000   0.76767133   -7.1308241    814.86214  0.023183741  0.022704147            6 
 2930000   0.76920192   -7.1215391    814.44067  0.023163842  0.022698127            6 
 2931000   0.78042233   -7.0986879    815.12954  0.023175524   0.02269212            6 
 2932000   0.78056962   -7.1088664    813.91519  0.023133106  0.022686123           16 
 2933000   0.77426703   -7.1135584    815.59509  0.023172948  0.022680117           11 
 2934000   0.77853768   -7.1213922    816.73339  0.023197381  0.022674099            8 
 2935000   0.79087184   -7.1327301     816.1156  0.023171936  0.022668135           11 
 2936000   0.77874018   -7.1305166      815.713  0.023152617  0.022662148            3 
 2937000   0.76555611   -7.1118748    814.88625  0.023121276  0.022656164            6 
 2938000   0.77615323   -7.1065696    814.81445   0.02311137   0.02265014           13 
 2939000   0.77714916   -7.1108554    815.01533  0.023109202   0.02264411           10 
 2940000   0.77033105   -7.1188028    814.84953  0.023096642  0.022638066           18 
 2941000   0.77408038   -7.1325926    813.97892   0.02306412  0.022632041            6 
 2942000   0.77708443   -7.1098372    816.19974  0.023119186  0.022626029            9 
 2943000   0.80644166   -7.1254966    814.97941  0.023076776  0.022620027           14 
 2944000   0.75406664   -7.1370182    816.36483  0.023108153   0.02261403            9 
 2945000    0.7820601   -7.1147067    816.89849  0.023115407  0.022608081            6 
 2946000   0.79307822   -7.1273094    817.01983  0.023110993   0.02260211            6 
 2947000   0.79959843   -7.1249007    816.19284  0.023079766   0.02259614            8 
 2948000   0.80755176    -7.129725     817.6745   0.02311382  0.022590171            7 
 2949000   0.76907053   -7.1233799    817.57935  0.023103293  0.022584219           15 
 2950000   0.78013131   -7.1455755    815.65338  0.023041056   0.02257825           12 
 2951000   0.78005682   -7.1315431    817.87859  0.023096086   0.02257227            5 
 2952000   0.78557871   -7.1401264    816.31981  0.023044258  0.022566275           10 
 2953000   0.77255003   -7.1034363    817.40316  0.023067027  0.022560296            5 
 2954000   0.77890088   -7.0685011    818.08673  0.023078502  0.022554362            6 
 2955000   0.78223058    -7.103745    816.61019  0.023029052  0.022548419           12 
 2956000   0.78485717   -7.1175299    817.71381  0.023052374  0.022542423            9 
 2957000   0.76400647   -7.1450249    817.27478  0.023032205  0.022536451            6 
 2958000   0.77133205    -7.145342    816.45748  0.023001394  0.022530421            8 
 2959000   0.78256319   -7.1238512    817.76202   0.02303036   0.02252442           10 
 2960000   0.76600396   -7.1263411    816.26817  0.022980523  0.022518422            7 
 2961000   0.78403351   -7.1425733    816.41747  0.022976964  0.022512422            7 
 2962000   0.77664946   -7.1385032    816.35091  0.022967334  0.022506427           19 
 2963000   0.76489978   -7.1410655    816.66567  0.022968435  0.022500401           10 
 2964000   0.78649254   -7.1254902    817.42369  0.022981997  0.022494368            5 
 2965000   0.76460535   -7.1263004    815.48361  0.022919719  0.022488363           20 
 2966000   0.76769672   -7.1129611    819.01128  0.023011106  0.022482347           14 
 2967000   0.77968812   -7.1163353    818.88614  0.022999835  0.022476356            9 
 2968000    0.7723784   -7.1239743    820.14273  0.023027368  0.022470355            5 
 2969000   0.79224323    -7.103879    818.38989  0.022970413  0.022464324            7 
 2970000   0.77688119   -7.1548355     815.0556  0.022869125   0.02245829           11 
 2971000   0.76621341   -7.1257543     817.8057  0.022938564  0.022452226            9 
 2972000   0.78212816   -7.1405768    818.95213  0.022962991  0.022446197            5 
 2973000   0.78130086   -7.1345267    816.98626  0.022900164  0.022440187            7 
 2974000   0.79081772   -7.1662889    817.00973  0.022893122  0.022434162            9 
 2975000   0.77571024   -7.1356209     817.6118  0.022902291  0.022428125            5 
 2976000   0.80097143   -7.1579971    817.19297  0.022882868  0.022422071           13 
 2977000   0.77504703   -7.1536887    816.53609  0.022856794  0.022416016            6 
 2978000   0.76164451   -7.1659967    816.32474  0.022843204  0.022409969            6 
 2979000   0.79951542   -7.1169127    816.48742  0.022840087  0.022403923            5 
 2980000   0.77412656   -7.1524609    816.72404  0.022839039  0.022397892            7 
 2981000   0.78038294    -7.138641    818.38929   0.02287793  0.022391851           13 
 2982000   0.76474606   -7.1094706    820.33215  0.022924551  0.022385844            5 
 2983000   0.77211011   -7.1171024    818.61488  0.022868893  0.022379835            5 
 2984000   0.78657607   -7.1215251    817.72228  0.022836302  0.022373843            8 
 2985000   0.79638065   -7.1130124    818.19432  0.022841829  0.022367835            6 
 2986000   0.77032169   -7.1351433    818.02349  0.022829412   0.02236184           16 
 2987000   0.78766209   -7.1422686    818.77018  0.022842601  0.022355816           10 
 2988000   0.77166397   -7.1342545    817.07254   0.02278761  0.022349789            9 
 2989000   0.76113103   -7.1377416    818.61958  0.022823118  0.022343767            9 
 2990000   0.75808519   -7.1378721    818.62562  0.022815653  0.022337739           12 
 2991000   0.76850349   -7.1564498    816.80874  0.022757404  0.022331677           12 
 2992000   0.77702415   -7.1485728    816.73147  0.022747646  0.022325617           15 
 2993000   0.78901521   -7.1686584    817.25052  0.022754497  0.022319556           19 
 2994000   0.76358456   -7.1581134    817.08614  0.022742322  0.022313465           12 
 2995000   0.77502171   -7.1304362    818.93888  0.022786279  0.022307437           16 
 2996000   0.76696618   -7.1565339    819.78999  0.022802347  0.022301379            9 
 2997000   0.76856404   -7.1663833    817.92151  0.022742785  0.022295346           11 
 2998000   0.77349768   -7.1506985    819.89452  0.022790041  0.022289314           21 
 2999000   0.76774477   -7.1311319    818.24323  0.022736558  0.022283276            6 
 3000000   0.76811724   -7.1490857    818.85709   0.02274603  0.022277224           10 
 3001000   0.76116592   -7.1495584    818.36839   0.02272488  0.022271185            5 
 3002000     0.784331   -7.1487676    820.42292  0.022774343  0.022265178            9 
 3003000   0.76683706   -7.1296923    820.22396  0.022761238  0.022259203            8 
 3004000   0.76948085   -7.1320134    819.42286  0.022731438   0.02225322            8 
 3005000   0.77068708   -7.1254889    820.15732  0.022744241  0.022247268           12 
 3006000   0.78032202   -7.1148522    819.06012  0.022706258  0.022241282           19 
 3007000   0.76557153   -7.1579665    818.72956  0.022689546  0.022235291            9 
 3008000   0.76187563   -7.1222247    819.40533  0.022700724  0.022229279           13 
 3009000   0.76228751   -7.1543293    821.65831  0.022755575  0.022223278            8 
 3010000   0.77047762   -7.1385215    820.24232  0.022708813  0.022217303           10 
 3011000   0.77524493   -7.1535443    819.37449  0.022677253  0.022211337           13 
 3012000   0.76783968   -7.1614309    818.41732  0.022643241  0.022205349            8 
 3013000   0.76835366    -7.157717    820.13048  0.022683109  0.022199359            9 
 3014000   0.75594874   -7.1695552    819.00254  0.022644397  0.022193362            5 
 3015000   0.76293086   -7.1384868    821.79192  0.022713984  0.022187369           11 
 3016000   0.76880101   -7.1574193    820.35696  0.022666804  0.022181391           17 
 3017000   0.76486859   -7.1278749    818.73146  0.022614392  0.022175419           10 
 3018000   0.77045969   -7.1741089     819.5835  0.022630426  0.022169413           14 
 3019000   0.76096593    -7.154583    820.82476  0.022657192    0.0221634           16 
 3020000   0.77203941   -7.1530359    818.79113  0.022593574  0.022157389           12 
 3021000    0.7770735   -7.1739029    820.48083  0.022632705  0.022151402           24 
 3022000   0.76684155   -7.1465546    821.59275  0.022655878  0.022145435           15 
 3023000   0.76851525   -7.1443489    820.61067  0.022621311  0.022139451           13 
 3024000   0.77889765    -7.150396    821.14502  0.022628555  0.022133439           11 
 3025000   0.77196246   -7.1689726    820.33691  0.022598813   0.02212746            4 
 3026000   0.77039576   -7.1555021    821.75147    0.0226303  0.022121449            8 
 3027000   0.75186803   -7.1502784    819.04835  0.022548407   0.02211544            4 
 3028000   0.75325714   -7.1445594    821.57736  0.022610561  0.022109453           12 
 3029000   0.74882585   -7.1280327    820.25231  0.022566642  0.022103485           15 
 3030000   0.75729223   -7.1531749    820.38974  0.022562974  0.022097516           10 
 3031000   0.77026105   -7.1691735    819.65754  0.022535399  0.022091537            8 
 3032000   0.77145021   -7.1277303     821.3562  0.022574654  0.022085582           10 
 3033000   0.76630663   -7.1314179    821.96917  0.022584052  0.022079619            7 
 3034000   0.77112618   -7.1493729     822.1326  0.022581098   0.02207367           23 
 3035000   0.76031978   -7.1770904    820.33009  0.022524165  0.022067711            9 
 3036000   0.75716837    -7.175619     821.4041  0.022546226  0.022061728           10 
 3037000   0.77135335   -7.1448878    821.35196  0.022537371  0.022055729           14 
 3038000   0.76507852   -7.1624306    822.02191   0.02254833  0.022049733            6 
 3039000   0.77714957   -7.1330347    820.02066  0.022486033  0.022043741           10 
 3040000   0.77212532   -7.1432051    822.59742  0.022549271  0.022037769            5 
 3041000   0.76140057   -7.1532878    821.60487  0.022514657  0.022031798           10 
 3042000   0.77683886   -7.1600509    822.05417  0.022519564  0.022025806           15 
 3043000   0.77979157   -7.1906844    820.94656  0.022481831  0.022019815            6 
 3044000   0.77038238   -7.1473888    820.62719  0.022465703  0.022013814            6 
 3045000   0.78404353   -7.1677825    820.62553  0.022458279  0.022007825            5 
 3046000   0.75804669   -7.1434677    820.45304  0.022446187  0.022001848            6 
 3047000   0.77078429   -7.1397274    823.08366  0.022510766  0.021995872            8 
 3048000   0.76498335   -7.1404718    821.18454  0.022451458  0.021989896            8 
 3049000   0.77464221     -7.17493    821.33621   0.02244824  0.021983883            8 
 3050000   0.76282277   -7.1939351    821.44651  0.022443894   0.02197785           11 
 3051000   0.76233459   -7.1448853    822.68376  0.022470331  0.021971857            9 
 3052000   0.75307919   -7.1824923    822.05167   0.02244571  0.021965837            8 
 3053000   0.76096358   -7.1564444    820.09145  0.022384852  0.021959806            7 
 3054000   0.75910644   -7.1892744    821.54137  0.022417086   0.02195378            8 
 3055000   0.75401437   -7.1901464    820.96699  0.022394081  0.021947762           11 
 3056000    0.7435287   -7.1468575    822.80294  0.022436817  0.021941728            7 
 3057000   0.74746534   -7.1534956    824.03866  0.022463163  0.021935743            8 
 3058000   0.76471379   -7.1468956     821.6228  0.022389983  0.021929766            5 
 3059000   0.76920001   -7.1446496    826.56307  0.022517246  0.021923832           12 
 3060000   0.74967845   -7.1808877    822.12556   0.02238904  0.021917855           12 
 3061000   0.75376329   -7.1946319    821.40822  0.022362197  0.021911839            8 
 3062000   0.77053419   -7.1856879    821.31478  0.022352351  0.021905819            6 
 3063000   0.77256142   -7.1978109    820.03299   0.02231018  0.021899769           10 
 3064000   0.75924783   -7.1859401    821.93717  0.022354688  0.021893756           11 
 3065000   0.77138293   -7.1851432    820.40357  0.022305698  0.021887712            6 
 3066000   0.77639909   -7.1862501    820.63889  0.022304819  0.021881682            6 
 3067000   0.75562602   -7.1944553    821.52705  0.022321678   0.02187563           10 
 3068000   0.76583355   -7.1717609    821.71378  0.022319475  0.021869584            9 
 3069000   0.75514568   -7.1852961    822.58932  0.022335976   0.02186354            3 
 3070000   0.78094138   -7.1907605    819.42683  0.022242856  0.021857479           12 
 3071000    0.7695903   -7.1687027    823.67589  0.022350914  0.021851443           13 
 3072000   0.76741968   -7.1788154    821.05878  0.022272645  0.021845409            8 
 3073000   0.78626789      -7.1447    823.60917  0.022334558  0.021839386           13 
 3074000   0.76810659   -7.1852286    823.00819  0.022311001  0.021833369            5 
 3075000   0.76988456   -7.1954178     822.5529  0.022291406  0.021827306            7 
 3076000   0.75036217   -7.1624985    823.51675  0.022310272  0.021821288           11 
 3077000   0.77412776   -7.1624373    823.90582  0.022313558  0.021815297            9 
 3078000   0.76761749   -7.1708813    822.24126  0.022261243  0.021809286           12 
 3079000    0.7495382   -7.1668734    823.41622  0.022285813  0.021803292           11 
 3080000   0.76837449   -7.2003324    823.31254  0.022275772  0.021797309            9 
 3081000   0.75712136   -7.1505976    823.31128  0.022268508  0.021791315            7 
 3082000   0.75373561   -7.1561087    823.10928  0.022255821  0.021785349            7 
 3083000   0.76042108   -7.1804018    821.82376  0.022213855  0.021779344           10 
 3084000   0.78281015   -7.1663272     822.4493  0.022223554  0.021773378           15 
 3085000   0.75004312    -7.167824    822.94983  0.022229871   0.02176743            6 
 3086000   0.75759003   -7.1586889    824.30239  0.022259192  0.021761453            8 
 3087000   0.75167305     -7.16567    822.50394  0.022203432  0.021755472           10 
 3088000   0.75358096     -7.17061    823.22258  0.022215635  0.021749468           15 
 3089000   0.75394823   -7.1576158    824.82179  0.022251586  0.021743477           16 
 3090000   0.75752594   -7.1649184    823.60475  0.022211563  0.021737508            7 
 3091000   0.76376873   -7.1559368    823.55858  0.022203132  0.021731553            6 
 3092000   0.75460234   -7.1617348    824.63591  0.022224987  0.021725579            8 
 3093000   0.75581126   -7.1995392    823.35513  0.022183294  0.021719613            6 
 3094000   0.74956033    -7.155685    823.23635  0.022172925  0.021713638            5 
 3095000   0.75570471   -7.1611231    822.98722  0.022159053  0.021707665            6 
 3096000   0.75064141   -7.1798435     823.7504  0.022172437    0.0217017            9 
 3097000   0.74740661   -7.1755536    823.94668   0.02217056  0.021695707            5 
 3098000   0.76511883   -7.1667921    823.66091  0.022155716  0.021689695            7 
 3099000    0.7588865   -7.2115173    821.55018  0.022091809  0.021683663           15 
 3100000   0.76434357   -7.1930566    821.95834  0.022095654  0.021677616            9 
 3101000   0.74029036   -7.1712434    824.27685  0.022150835  0.021671576           14 
 3102000   0.76363467    -7.181617    823.16184  0.022113739  0.021665571           15 
 3103000   0.74954333   -7.1813989    821.81141  0.022070346  0.021659577            9 
 3104000   0.76324395   -7.1894762    822.93622  0.022093434  0.021653584            5 
 3105000    0.7567748   -7.1805621    825.50677  0.022155308  0.021647583           10 
 3106000   0.75429556   -7.1810663    824.05417  0.022109202  0.021641606            7 
 3107000   0.76394368    -7.172739    824.85571  0.022123584  0.021635642            6 
 3108000   0.73158855   -7.1820555    825.18126  0.022125195  0.021629632            8 
 3109000    0.7591358   -7.1769257    823.74246  0.022079513  0.021623635            5 
 3110000   0.74190674    -7.146158    824.59656  0.022095299   0.02161765            5 
 3111000    0.7468115   -7.1702632    823.80666  0.022067038  0.021611662            9 
 3112000   0.76123015   -7.1857412    824.06464  0.022066855  0.021605666           12 
 3113000   0.73665641   -7.1692982    821.74648  0.021997711  0.021599653            8 
 3114000   0.75053169   -7.1906731    823.81818  0.022046087  0.021593649           13 
 3115000   0.75863644   -7.1600768    825.14583  0.022074527  0.021587662            5 
 3116000   0.74777813   -7.1759438    824.27654  0.022044195  0.021581668            8 
 3117000   0.75502556   -7.2137646     824.2321  0.022035935  0.021575689            8 
 3118000   0.75834767   -7.1735615    824.25591  0.022029504  0.021569696           15 
 3119000   0.75790554   -7.1905973    823.92951   0.02201372  0.021563704           11 
 3120000   0.75565524   -7.1796987    824.23893  0.022014929  0.021557695            8 
 3121000    0.7681928   -7.1797366    824.63913  0.022018561  0.021551704           19 
 3122000   0.74693755   -7.1864803    824.55799  0.022009342  0.021545693           29 
 3123000   0.75838344   -7.1854893    825.16148  0.022018398  0.021539699            6 
 3124000   0.75999792   -7.1925923    825.67251  0.022024981  0.021533712           13 
 3125000   0.75236038   -7.1889948    824.24733  0.021979929  0.021527709           10 
 3126000   0.74668219   -7.1553884    825.72815  0.022012373  0.021521716           12 
 3127000   0.75027711   -7.1882323    824.34507  0.021968475  0.021515743           11 
 3128000    0.7787341   -7.1935834    824.73866  0.021971938  0.021509775           10 
 3129000   0.75194053   -7.2088154    825.15548  0.021976017  0.021503788           15 
 3130000    0.7387351   -7.1903879     825.4309  0.021976329  0.021497822           17 
 3131000   0.76210143   -7.1868544    825.84635  0.021980367  0.021491871           15 
 3132000   0.75582974   -7.1527178    827.32358  0.022012654  0.021485949            4 
 3133000   0.76475155   -7.1852352    824.36892  0.021927038  0.021480022           11 
 3134000   0.74378032   -7.1818588    826.86871  0.021986511   0.02147407            8 
 3135000   0.76053096   -7.1623301    826.06076  0.021958021  0.021468111           15 
 3136000   0.75259684   -7.1921481    825.38113  0.021932959  0.021462141           16 
 3137000   0.74163332   -7.1811005    826.56194  0.021957336  0.021456166           10 
 3138000   0.75565015   -7.1605088    824.40836  0.021893147  0.021450211            8 
 3139000   0.73915714   -7.1958288    826.07667  0.021930463  0.021444256            9 
 3140000    0.7463117   -7.1671482    825.98003  0.021920914  0.021438293           12 
 3141000   0.75269347   -7.1956032    826.89923  0.021938322  0.021432366            7 
 3142000    0.7597574   -7.1902665    827.67678  0.021951962  0.021426406           12 
 3143000   0.74824921   -7.1718609    826.41893  0.021911627   0.02142045           15 
 3144000   0.74052549   -7.2181622    825.24659  0.021873584  0.021414484           12 
 3145000   0.74284383    -7.177856    826.23996  0.021892951  0.021408522            9 
 3146000   0.76294918   -7.1809711    826.94855  0.021904761  0.021402577            5 
 3147000   0.74988188   -7.1844024    824.74944  0.021839568  0.021396612           12 
 3148000   0.74968653   -7.1623099    825.44203  0.021850964  0.021390668           18 
 3149000    0.7599671   -7.1560009    828.28808  0.021919341  0.021384739            8 
 3150000   0.74557536   -7.2116387    826.37982    0.0218619  0.021378788           10 
 3151000   0.75024399   -7.1791018    826.82679  0.021866783  0.021372837            6 
 3152000   0.74795763   -7.1762109    826.56181   0.02185284  0.021366924            7 
 3153000   0.74536229   -7.1540948    826.19059  0.021836098  0.021360988            6 
 3154000   0.73815554   -7.1777024    825.90642  0.021821666  0.021355017            5 
 3155000    0.7571807   -7.1784286    826.85815  0.021839888  0.021349043            6 
 3156000   0.75427748   -7.1879257    825.47568  0.021796464  0.021343077            5 
 3157000   0.74193573   -7.1956468    826.85133  0.021825872  0.021337106            4 
 3158000   0.74520607   -7.1809297    825.62846  0.021786692   0.02133116            9 
 3159000   0.74053718   -7.1901523    826.85734  0.021812212  0.021325219            8 
 3160000   0.77837673   -7.1896917    827.48482  0.021821857  0.021319284           11 
 3161000   0.73941711   -7.2047605    826.09793  0.021778391  0.021313343           11 
 3162000   0.74808157   -7.1965755    825.24051  0.021748906   0.02130738           13 
 3163000   0.74606385   -7.1909422    828.52193  0.021828484  0.021301426            7 
 3164000    0.7419192    -7.207676    826.11563  0.021758208  0.021295471           14 
 3165000   0.76064911   -7.2103943    825.90766  0.021745857   0.02128951           13 
 3166000   0.75529394   -7.2073927    826.58995  0.021756947  0.021283535           31 
 3167000   0.74093502   -7.2042111    827.05862   0.02176241  0.021277555           26 
 3168000   0.74047069   -7.2030896    826.14075  0.021731396  0.021271584            8 
 3169000   0.75173192   -7.1997072    827.76259  0.021767187  0.021265614           19 
 3170000   0.75797195   -7.2122463    824.95831  0.021686601  0.021259643           10 
 3171000   0.74761994   -7.1914408    826.62263    0.0217235  0.021253663            8 
 3172000   0.75240379   -7.2094193    825.43927  0.021685563  0.021247683           10 
 3173000    0.7481021   -7.1865392    827.12677  0.021723048  0.021241716            8 
 3174000   0.74070561   -7.2090406    826.98427  0.021712462  0.021235741           10 
 3175000    0.7446722   -7.1995723    826.87171   0.02170267  0.021229741            7 
 3176000   0.72288376   -7.2085383       827.01  0.021699465   0.02122376           16 
 3177000   0.75037018   -7.2096829    826.84288  0.021688251  0.021217754           17 
 3178000   0.74960035   -7.1886744    827.79803  0.021706472  0.021211769           20 
 3179000   0.74477014   -7.2037029    827.55886  0.021693375   0.02120579            9 
 3180000   0.76845282   -7.1954481    827.17084  0.021676385  0.021199824           16 
 3181000   0.73026725   -7.1951346    827.38594  0.021675205  0.021193836           16 
 3182000   0.73664418   -7.2055075    826.45702  0.021644066  0.021187839           11 
 3183000   0.73947399   -7.2113719    825.71795  0.021617917  0.021181818           14 
 3184000   0.75288015   -7.2138717    825.21342  0.021597922  0.021175807           13 
 3185000   0.72714831   -7.1909843    824.35866  0.021568777  0.021169781           18 
 3186000   0.73905379   -7.2051471    826.85248  0.021627236  0.021163769           23 
 3187000    0.7361254   -7.2094248    827.36105  0.021633748  0.021157754           17 
 3188000   0.76339796   -7.2041084    826.72745    0.0216104  0.021151763           10 
 3189000    0.7461288   -7.2247192    826.27795  0.021591877  0.021145758            6 
 3190000   0.74157771   -7.2098767    825.83131  0.021573441  0.021139728            6 
 3191000   0.75224568   -7.2272754     824.8984  0.021542317   0.02113371           22 
 3192000   0.74846052   -7.1967652    825.07929  0.021540291  0.021127684           12 
 3193000   0.75352108   -7.2281635    825.88658  0.021554614  0.021121639            5 
 3194000   0.74612631   -7.2119017    826.35059  0.021559972  0.021115585           15 
 3195000    0.7251947   -7.1818659    826.66785  0.021561498  0.021109585            7 
 3196000   0.75312466   -7.2024556    829.25672  0.021622255   0.02110358           11 
 3197000   0.75711297   -7.2030771    827.53009  0.021570485  0.021097567            7 
 3198000   0.72952597   -7.1947229     825.6568  0.021514926  0.021091557           11 
 3199000   0.73841776   -7.1927861     825.8812  0.021514046  0.021085535            7 
 3200000   0.74229028   -7.1997725    825.30626  0.021492351  0.021079523           17 
 3201000   0.75057403   -7.1957643    826.71602  0.021522337  0.021073523           12 
 3202000   0.72716644   -7.1981877    827.78506  0.021543438  0.021067526           22 
 3203000   0.75876733    -7.237129    825.23372  0.021470333  0.021061504           19 
 3204000    0.7360961   -7.2026119    827.37263  0.021519263  0.021055468            7 
 3205000   0.74271237   -7.1955689      826.277  0.021484061  0.021049442            9 
 3206000    0.7487862   -7.1960922    825.70784  0.021462566   0.02104343           11 
 3207000   0.73386082   -7.2192733    824.66095   0.02142867   0.02103742           23 
 3208000   0.72702323   -7.2017968    828.35851  0.021518041  0.021031394           12 
 3209000   0.74135925   -7.2088494     825.5878  0.021439384  0.021025374           10 
 3210000   0.74598396   -7.2124377     826.9446  0.021467928   0.02101935           17 
 3211000   0.72457178   -7.1964561    826.35799  0.021446019  0.021013339           18 
 3212000   0.75078143   -7.2013299    825.73948  0.021423295  0.021007364            9 
 3213000   0.73027234   -7.2286638    825.49962  0.021410406  0.021001353           10 
 3214000   0.71726828   -7.2267096    825.69886   0.02140891  0.020995331            4 
 3215000   0.73683796   -7.2190074     827.0718  0.021437838  0.020989303            5 
 3216000   0.74277414    -7.201976     827.7011  0.021447479   0.02098332            9 
 3217000   0.73688238   -7.2219215    827.52991  0.021436377  0.020977314            3 
 3218000   0.75486294   -7.2543379    828.04794  0.021443131  0.020971299           11 
 3219000   0.74983238   -7.2048984    827.07785  0.021411356  0.020965287            7 
 3220000   0.75502364   -7.2333996    825.45696  0.021362758  0.020959278            8 
 3221000   0.75440732   -7.2235793    829.11837  0.021450853  0.020953293           14 
 3222000   0.73180566   -7.2014246    828.89801  0.021438496  0.020947313            7 
 3223000   0.72364377   -7.2152229     826.5485  0.021371096  0.020941323           14 
 3224000   0.73724447   -7.2391601    827.51901  0.021389553  0.020935325           29 
 3225000   0.73112286   -7.2517918     825.9063  0.021341248  0.020929324           18 
 3226000   0.73338957   -7.2349235    827.27238  0.021369921  0.020923338           20 
 3227000   0.72750032   -7.2232869    828.62255  0.021398165  0.020917351           14 
 3228000   0.74796773   -7.2314516    827.21219  0.021355127  0.020911364           15 
 3229000   0.74518506   -7.2380124    827.07965  0.021345093   0.02090537           22 
 3230000   0.74421817   -7.2693004    827.58597  0.021351547  0.020899344           20 
 3231000   0.73407811   -7.2258123    828.73327   0.02137453   0.02089334           22 
 3232000   0.73449345   -7.2335687    826.96193  0.021322244  0.020887335           16 
 3233000   0.73062997   -7.2084906    827.11495  0.021319594   0.02088135           11 
 3234000    0.7232969   -7.2169001     827.3385  0.021318761  0.020875363            4 
 3235000   0.73870922   -7.2258794    828.75874  0.021348757  0.020869386           14 
 3236000   0.74961064   -7.2249748    827.57814  0.021311757  0.020863404           11 
 3237000   0.73128709   -7.2116212    827.82817   0.02131161  0.020857423           11 
 3238000   0.73492873   -7.2285135    827.47853   0.02129603  0.020851449           16 
 3239000   0.74289964   -7.2341008    827.08667  0.021279373  0.020845443           13 
 3240000   0.73930935   -7.2370758    827.99651  0.021296206  0.020839417            6 
 3241000   0.73977601    -7.241142    827.64092  0.021280493  0.020833398           11 
 3242000   0.72616618   -7.1863629    828.30569  0.021291016  0.020827397            9 
 3243000   0.72674287   -7.2295001    828.13107  0.021279964  0.020821411           13 
 3244000   0.73771026   -7.2008091    828.20261  0.021275242  0.020815423           10 
 3245000   0.73519699   -7.2070094    826.06417  0.021213769  0.020809439            6 
 3246000   0.73032898    -7.216653    827.32547  0.021239615  0.020803447           11 
 3247000   0.75872967   -7.2072053    827.87646  0.021247214  0.020797443           37 
 3248000   0.71702774   -7.2288727    827.32641   0.02122656  0.020791439           10 
 3249000   0.73674978   -7.2411779    824.99755  0.021160294   0.02078542           11 
 3250000   0.73992755   -7.2173037    826.78451  0.021199603  0.020779395           13 
 3251000   0.73180536   -7.2259956    829.28887  0.021257276  0.020773395           10 
 3252000   0.74590792   -7.2287897    829.35904  0.021252538  0.020767379           20 
 3253000   0.73011767   -7.2473567    828.30594  0.021219027  0.020761396           16 
 3254000   0.72831914   -7.2343646    827.84951  0.021200817  0.020755411           16 
 3255000   0.73549043   -7.2508668    828.91403  0.021221557  0.020749415            6 
 3256000    0.7328497    -7.267972    827.32604  0.021174397  0.020743418           11 
 3257000   0.74102885   -7.2467696    828.07627  0.021187091   0.02073742            7 
 3258000   0.71293389   -7.2513905    826.21604  0.021133007  0.020731401            9 
 3259000   0.72877672   -7.2309359    828.07604  0.021174083  0.020725405            6 
 3260000   0.71239773   -7.2343362     828.8634  0.021187715  0.020719414            8 
 3261000   0.72929878    -7.243423    828.32065  0.021167348  0.020713434           15 
 3262000   0.71698242   -7.2360566    829.45174  0.021189754  0.020707475            8 
 3263000   0.73973532    -7.225847    829.24923  0.021178088  0.020701522            8 
 3264000   0.72946594   -7.2421866    830.13387  0.021194186  0.020695559            8 
 3265000   0.72873291   -7.2437382    828.82723  0.021154345  0.020689604           28 
 3266000    0.7339617   -7.2542712    829.57027  0.021166827   0.02068366           25 
 3267000   0.72672227   -7.2388966    829.11107  0.021148635  0.020677694            7 
 3268000   0.70552779    -7.233358    826.93465  0.021086665  0.020671732            6 
 3269000   0.72167179   -7.2150534    829.52457  0.021146237  0.020665774            8 
 3270000   0.73801093   -7.2379208    830.01344  0.021152228  0.020659844            8 
 3271000   0.72367337   -7.2153978    831.41082  0.021181362  0.020653936           10 
 3272000   0.73379536    -7.232021    831.19486  0.021169388  0.020648011            6 
 3273000   0.72795736   -7.2396702    828.00457  0.021081693  0.020642077            6 
 3274000   0.73782583     -7.21895    828.92852  0.021098771  0.020636132            4 
 3275000   0.72591145   -7.2400121    830.40892  0.021129998  0.020630202            4 
 3276000   0.71279345   -7.2528872    828.39773  0.021072388  0.020624237           15 
 3277000    0.7141381   -7.2297877    827.03345  0.021031265  0.020618284           13 
 3278000   0.72807886     -7.23604     829.2346  0.021080806  0.020612329           10 
 3279000   0.70723771   -7.2234058    827.74966  0.021036639  0.020606384           14 
 3280000   0.71635797   -7.2491507     829.2002  0.021067078  0.020600438           15 
 3281000   0.74204048   -7.2188041    829.58195  0.021070353  0.020594504           16 
 3282000   0.72337636   -7.2228918    831.14629  0.021103653  0.020588579           11 
 3283000   0.72195238   -7.2121902    830.83701  0.021089375  0.020582648           19 
 3284000   0.72060899   -7.2187717    829.73851  0.021055078  0.020576728           13 
 3285000   0.70313944   -7.2447863    828.49737  0.021017183  0.020570796           10 
 3286000   0.73160649   -7.2259551    829.19737   0.02102854  0.020564857           14 
 3287000   0.72782489   -7.2328238    828.17078  0.020996116   0.02055889           13 
 3288000   0.73690897    -7.241161    829.89005  0.021033304  0.020552944            8 
 3289000   0.73565686   -7.2413639    829.44533  0.021015641  0.020547029            9 
 3290000   0.71684876   -7.2345909    830.35957  0.021032411  0.020541091           10 
 3291000   0.72906711   -7.2211648    830.19343  0.021021813  0.020535166            7 
 3292000   0.71608449   -7.2326345    828.20292  0.020965039  0.020529227           10 
 3293000   0.72328249   -7.2522494    828.80489  0.020973906  0.020523288           10 
 3294000    0.7263505   -7.2575057    829.00611   0.02097263  0.020517337           17 
 3295000   0.71977231   -7.2410815    828.60815    0.0209562  0.020511401            5 
 3296000   0.71466028   -7.2462436    829.83334  0.020980819  0.020505466            6 
 3297000    0.7319118   -7.2672988    829.38326  0.020963079  0.020499516           25 
 3298000   0.71461737   -7.2388206    829.40323  0.020957227  0.020493573            4 
 3299000    0.7176788   -7.2272681    828.77553  0.020935019   0.02048763            5 
 3300000   0.72353754   -7.2644212    830.18923  0.020964375  0.020481694            7 
 3301000   0.72008149   -7.2495462    829.24688  0.020934234  0.020475761           14 
 3302000   0.71631736   -7.2421617    829.28161  0.020928771  0.020469832           14 
 3303000   0.72228827   -7.2469082    829.18284  0.020919942  0.020463889            7 
 3304000    0.7190304   -7.2681137    828.83948  0.020904951  0.020457933           12 
 3305000   0.72105266   -7.2525853    830.24788  0.020934137  0.020451971            6 
 3306000   0.71267678   -7.2514529    830.73219  0.020940013   0.02044601           10 
 3307000   0.73134946   -7.2488557    827.37529   0.02084909  0.020440048           15 
 3308000   0.72602749   -7.2430977    829.26315  0.020890345  0.020434101           11 
 3309000   0.72024595   -7.2540627      828.678  0.020869296  0.020428145           10 
 3310000    0.7160338   -7.2858591    829.80262  0.020891305  0.020422199            7 
 3311000   0.74783559   -7.2515963    830.54799  0.020903755  0.020416259           13 
 3312000   0.71333417   -7.2374086    829.79752  0.020878561  0.020410314            8 
 3313000   0.72766767   -7.2386967    830.65294  0.020893776   0.02040437            4 
 3314000    0.7168567   -7.2167258    830.39225  0.020880915  0.020398442           12 
 3315000   0.70986077   -7.2478231    830.18595  0.020869431  0.020392519           14 
 3316000   0.70546906   -7.2799291    830.43939  0.020869506  0.020386572           11 
 3317000   0.72525904   -7.2470925    829.37792  0.020836547  0.020380614           13 
 3318000   0.72133893   -7.2393882    829.23979  0.020826798  0.020374667           16 
 3319000   0.72943998   -7.2586887    830.98337  0.020864301   0.02036871            8 
 3320000   0.73508989   -7.2595266    831.30092  0.020865987  0.020362769            7 
 3321000   0.71205618   -7.2452044    830.34747  0.020835779  0.020356815           12 
 3322000   0.72075068   -7.2611944     831.2455  0.020852034  0.020350864           10 
 3323000   0.73263466   -7.2485857    829.58532  0.020804126  0.020344917            6 
 3324000   0.71578686   -7.2387923    828.93803  0.020781639  0.020338995           13 
 3325000   0.70830765   -7.2507711     831.0057  0.020827211   0.02033307           12 
 3326000   0.73344307   -7.2308373      832.243  0.020851949  0.020327167           13 
 3327000    0.7230756    -7.252795    830.82154  0.020810078  0.020321265           21 
 3328000   0.72917018   -7.2529702    829.60733  0.020773421  0.020315353           11 
 3329000   0.72544932   -7.2590255    829.53383  0.020765341  0.020309454           17 
 3330000     0.707459   -7.2447964    830.68867  0.020788005  0.020303543           12 
 3331000   0.71546918   -7.2482279    829.04258  0.020740583  0.020297631            7 
 3332000   0.71398836   -7.2412565    829.97709   0.02075773  0.020291711           23 
 3333000    0.7207531   -7.2144695    831.56738  0.020791264  0.020285812           11 
 3334000   0.69695869   -7.2533876    831.07555  0.020772734   0.02027991           10 
 3335000   0.71547026   -7.2505464    830.89257  0.020761933  0.020274004           18 
 3336000   0.72804551   -7.2402016    832.92962  0.020806595  0.020268106           14 
 3337000   0.71826695   -7.2502831    831.99156  0.020776934  0.020262209            8 
 3338000   0.73778334    -7.218536    833.45587  0.020807266  0.020256329           10 
 3339000   0.70680032   -7.2658005    830.07698  0.020716706  0.020250425            9 
 3340000   0.71164815   -7.2777464    829.98325  0.020708165  0.020244498           22 
 3341000   0.71001164   -7.2884521    830.62602  0.020717999  0.020238554           11 
 3342000   0.72384474   -7.2387537    831.39354  0.020730938  0.020232622            9 
 3343000   0.72072729   -7.2446057    830.35826   0.02069893  0.020226704           14 
 3344000   0.70634664   -7.2606416    830.60647  0.020698925  0.020220761           13 
 3345000   0.71866196   -7.2587739    832.13137  0.020730727  0.020214839           13 
 3346000   0.71598573   -7.2487774    830.79972  0.020691366  0.020208913           12 
 3347000   0.71969853   -7.2385881     830.9109  0.020687952  0.020203016           18 
 3348000   0.69352329   -7.2465389    830.75025  0.020677774  0.020197105           14 
 3349000   0.71467488      -7.2478    831.33721  0.020686205  0.020191184           15 
 3350000   0.71342707   -7.2423182    830.99441  0.020671503  0.020185274           12 
 3351000   0.70991994   -7.2807487    830.01722  0.020641033  0.020179352           14 
 3352000   0.69998026   -7.2732997    830.76534  0.020653474  0.020173411           17 
 3353000    0.7203366   -7.2710826    830.67756  0.020645133   0.02016748           11 
 3354000   0.70809615   -7.2686869    830.53776  0.020635504  0.020161529           19 
 3355000   0.71551919   -7.2720579    830.00693  0.020616168  0.020155588           16 
 3356000   0.72197194   -7.2616565      829.216  0.020590385  0.020149652           11 
 3357000   0.72762462   -7.2882147    830.41727  0.020614072  0.020143745            9 
 3358000   0.69501964   -7.2376664    831.57158  0.020636579  0.020137852           26 
 3359000   0.71524971   -7.2721579    832.25867  0.020647481  0.020131987            6 
 3360000   0.71433773   -7.2674983    831.42882  0.020620755   0.02012612           13 
 3361000   0.71716409   -7.2765721    831.29086  0.020611198  0.020120247           19 
 3362000   0.72870543   -7.2478874    832.67893  0.020639474  0.020114415           18 
 3363000   0.71526663   -7.2655689    832.85566  0.020637716  0.020108582           24 
 3364000   0.71757003   -7.2536532    830.36626  0.020569913  0.020102726           11 
 3365000   0.71665802   -7.2678993    831.55935  0.020593347  0.020096855            7 
 3366000   0.70865571   -7.2762018    833.33442  0.020631175  0.020090984           17 
 3367000    0.7178448    -7.242057    831.70822  0.020584799   0.02008512           14 
 3368000   0.72123897   -7.2428187    832.21635   0.02059126  0.020079263           12 
 3369000    0.7000705   -7.2772059    830.39418  0.020540076  0.020073403           18 
 3370000   0.71067231   -7.2651968     831.1514  0.020552705  0.020067528           11 
 3371000   0.70364868   -7.2892137     831.6645  0.020559292  0.020061655           21 
 3372000   0.71591279   -7.2649844    833.61759  0.020601463  0.020055799           13 
 3373000   0.70904984   -7.2622916    833.09738  0.020582503  0.020049954           22 
 3374000   0.70670407   -7.2652788    833.00879  0.020574214  0.020044084           21 
 3375000   0.68280003   -7.2655024    833.19492  0.020572714  0.020038214           24 
 3376000   0.72541032   -7.2708789    833.48372  0.020573749  0.020032357           19 
 3377000   0.71896253   -7.2682904    833.51362  0.020568394   0.02002653           28 
 3378000   0.72582136   -7.2658134    831.50459  0.020512744  0.020020693           18 
 3379000   0.73768713   -7.2968792    832.19815  0.020523778   0.02001483            7 
 3380000   0.70688185   -7.2777533    832.99931  0.020537458  0.020008959           20 
 3381000   0.70431554   -7.2633921    832.90868   0.02052915   0.02000311           14 
 3382000   0.71868604   -7.2715491    832.25028  0.020506857  0.019997249           15 
 3383000   0.71354263   -7.2726188     834.1762  0.020548236  0.019991404            8 
 3384000   0.71125625   -7.2533511    833.29438  0.020520449  0.019985557           15 
 3385000   0.70455315   -7.2607975    831.90286   0.02048013  0.019979716           13 
 3386000   0.73285327   -7.2790714    831.32203  0.020459786  0.019973882           18 
 3387000   0.71929187   -7.2850146    832.28482  0.020477434  0.019968042           18 
 3388000   0.69223021    -7.261068    832.18861  0.020469023  0.019962194           10 
 3389000   0.71125249   -7.2454531    832.91412  0.020480823  0.019956361           10 
 3390000   0.72423157   -7.2677317    831.67994  0.020444443  0.019950504           14 
 3391000   0.70681359   -7.2635783      830.577  0.020411309  0.019944658           13 
 3392000   0.71442181   -7.2851615    831.79642   0.02043525   0.01993877           14 
 3393000   0.70985334   -7.3005415    830.99942  0.020409653   0.01993287           11 
 3394000   0.71818125   -7.2705186    832.44339  0.020439093  0.019926986           13 
 3395000   0.70371588   -7.3087069     831.4868  0.020409593  0.019921095           12 
 3396000   0.70680874   -7.2557161    831.70755     0.020409  0.019915188            7 
 3397000    0.7101592   -7.2997412    831.48642  0.020397567  0.019909317           13 
 3398000   0.71121404   -7.2660018    833.54251  0.020441988  0.019903443           10 
 3399000   0.71389137   -7.3138027    834.75585  0.020465721  0.019897554           21 
 3400000   0.70602308   -7.2979745    831.92647  0.020390355  0.019891682           13 
 3401000    0.6929552   -7.2885556    831.04239  0.020362697  0.019885783           28 
 3402000   0.70445073   -7.2815688    831.59055  0.020370139  0.019879898           14 
 3403000   0.70131104   -7.2696051    831.28539   0.02035668  0.019874025           12 
 3404000   0.71778269   -7.2815341    833.08774  0.020394823  0.019868141           11 
 3405000   0.70135501   -7.2822821    832.69477  0.020379216  0.019862262           11 
 3406000   0.70650305   -7.2809676    830.72729  0.020325095  0.019856376           21 
 3407000   0.70056491   -7.2674368    832.39815  0.020359998  0.019850486           16 
 3408000    0.7194712   -7.2983882    831.41745  0.020330043   0.01984459           16 
 3409000   0.69504956   -7.2745353    832.02905   0.02033903  0.019838699           15 
 3410000   0.69792333   -7.2970043    832.56607  0.020346189   0.01983282           13 
 3411000   0.69606071   -7.2683261    832.77085  0.020345227   0.01982696            7 
 3412000   0.71855313   -7.2729256    830.26386  0.020278035  0.019821104            8 
 3413000   0.70920418   -7.2853041    832.17409  0.020318735  0.019815242           15 
 3414000   0.69553463   -7.2825219    830.78261  0.020278818  0.019809386           12 
 3415000   0.70228917   -7.2962774    831.81584  0.020298093  0.019803522           13 
 3416000   0.70333922   -7.2806198    832.52082  0.020309349  0.019797665           11 
 3417000   0.70024843   -7.2644129    832.92401  0.020313238  0.019791822           18 
 3418000   0.72292762   -7.2920784     833.2897  0.020316211  0.019785984           12 
 3419000   0.69179421    -7.264368    833.09749  0.020305584  0.019780133            7 
 3420000   0.71371211   -7.2769909    832.63488  0.020288374  0.019774296           17 
 3421000   0.70859214   -7.2760304    833.13283  0.020294573  0.019768451           14 
 3422000    0.7046405   -7.3111864    831.60937  0.020251543  0.019762593           14 
 3423000   0.68981974   -7.3070739    832.82534   0.02027523  0.019756728           14 
 3424000   0.70527539   -7.2696593    832.41223  0.020259254   0.01975088            7 
 3425000   0.68860989    -7.280305    832.03727  0.020244216  0.019745056            9 
 3426000   0.71465628   -7.2604896     832.2894   0.02024444  0.019739223           14 
 3427000   0.71412119   -7.2602821    834.38924  0.020289593  0.019733415           14 
 3428000   0.68501938   -7.2754969    833.35651  0.020258569  0.019727604           21 
 3429000   0.70497919   -7.2955653    831.04897  0.020196582  0.019721776           18 
 3430000   0.70441546   -7.2837948    831.66396  0.020205635  0.019715945           23 
 3431000    0.6950016   -7.2949175    830.87334  0.020180543  0.019710111           24 
 3432000   0.69923209   -7.3326788    831.87008  0.020198865  0.019704261           23 
 3433000   0.70507931   -7.3140042    832.12393  0.020199144  0.019698408           23 
 3434000   0.71122148   -7.3080239    832.34442  0.020198612  0.019692563           16 
 3435000   0.69997084   -7.2831889    832.16917  0.020188481  0.019686711           20 
 3436000   0.72025073   -7.3101889    831.48559  0.020166026  0.019680865           14 
 3437000   0.70760667   -7.2974642    830.96862  0.020147624  0.019675012           11 
 3438000   0.70078369   -7.3105047    830.71779  0.020135684  0.019669139           14 
 3439000   0.71429469   -7.3061828    832.51478  0.020173374  0.019663286           17 
 3440000   0.70429182   -7.2998742    832.35363  0.020163605  0.019657416           19 
 3441000   0.71055162   -7.3058516    833.54369  0.020186566  0.019651551           18 
 3442000   0.70119683   -7.2893624    832.64259  0.020158885  0.019645725           15 
 3443000   0.69821474   -7.3105174    830.95931  0.020112289  0.019639887           21 
 3444000   0.69646234   -7.2931139    830.95741  0.020106403   0.01963403           21 
 3445000   0.70661926   -7.3016985    832.69905  0.020142696  0.019628182           11 
 3446000   0.70485167   -7.2773441    832.56788  0.020133679   0.01962234           19 
 3447000   0.70296494   -7.2889826    834.77667  0.020181237  0.019616496           12 
 3448000   0.69856779   -7.3275645    832.71676  0.020125598  0.019610654           30 
 3449000   0.69195872   -7.3181769    831.02497  0.020078887  0.019604785            9 
 3450000   0.72445926   -7.3085405    832.41232  0.020106578  0.019598926           14 
 3451000   0.68790355   -7.3031159    833.74087  0.020132833   0.01959307            8 
 3452000   0.69722067   -7.3063266    831.48971  0.020072656  0.019587215            7 
 3453000    0.6901575   -7.3040788    832.98626   0.02010296   0.01958136           13 
 3454000   0.71039428   -7.2843459    833.27178  0.020104029  0.019575535            5 
 3455000   0.69091228   -7.2857437    833.91897   0.02011382  0.019569712           10 
 3456000   0.69195702   -7.2607783     834.2845  0.020116814  0.019563907           13 
 3457000    0.7088655   -7.3022871    832.70506  0.020072921  0.019558094           26 
 3458000   0.70538516   -7.3125851    832.87764  0.020071275  0.019552262           13 
 3459000   0.69529587   -7.3051779    832.93999  0.020066975   0.01954643           20 
 3460000   0.71098528   -7.2709099    831.74663  0.020032433  0.019540604           29 
 3461000   0.70809743   -7.2760041    832.73153  0.020050359  0.019534794           34 
 3462000   0.68289116   -7.2794405     833.6232  0.020066031  0.019528993           26 
 3463000   0.69068681   -7.2838835    832.50316  0.020033284  0.019523192           27 
 3464000   0.68584038   -7.2936476    832.02724  0.020016052  0.019517374           35 
 3465000   0.70020579   -7.3213271    832.41531  0.020019608  0.019511541           19 
 3466000   0.69658801   -7.3094531    833.83724   0.02004802  0.019505719           12 
 3467000   0.71098087   -7.3092171     832.8592  0.020018729  0.019499898           19 
 3468000   0.71691041   -7.3320758    831.05275  0.019969549  0.019494074           16 
 3469000   0.69643832   -7.3079634    832.45737  0.019997535  0.019488259           30 
 3470000   0.68930281   -7.3150581    831.29444  0.019963843  0.019482449           21 
 3471000   0.70971661   -7.3043045    831.52268  0.019963572  0.019476642           25 
 3472000   0.69955967   -7.2859428    832.79126  0.019988269  0.019470847           18 
 3473000   0.70829015   -7.3191525    834.13974   0.02001487  0.019465049           36 
 3474000   0.69566821   -7.3045548    834.48098  0.020017295  0.019459243           12 
 3475000   0.70052571   -7.3487486    833.17674  0.019980258  0.019453436           30 
 3476000   0.69469489   -7.2819913    834.89094  0.020015606  0.019447651            7 
 3477000   0.68813613   -7.3173376     833.6802  0.019980831   0.01944188            7 
 3478000    0.6982662   -7.3030579    831.99174  0.019934631  0.019436079           16 
 3479000   0.69406752   -7.3280851     833.9885  0.019976729  0.019430285            9 
 3480000   0.69367428   -7.3073714    834.98062  0.019994747  0.019424491           16 
 3481000    0.6915123   -7.2944052    834.31995  0.019973187  0.019418719           19 
 3482000   0.68927721   -7.3237632    833.99235   0.01995961  0.019412952           16 
 3483000   0.68964984   -7.3170008    832.15187  0.019909845  0.019407188           14 
 3484000   0.70465524   -7.2938375    833.85926  0.019944969  0.019401408           15 
 3485000   0.69087417   -7.3192444    835.57463  0.019980264  0.019395648            9 
 3486000    0.6885782   -7.3246603    831.80742  0.019884476  0.019389869            7 
 3487000   0.69508648   -7.3225542    835.31009  0.019962482  0.019384112           11 
 3488000   0.69770604   -7.3068704    834.75451  0.019943485  0.019378364           23 
 3489000   0.69150785   -7.3313129    833.35838  0.019904423  0.019372607           13 
 3490000   0.67701667   -7.3111117      836.052  0.019963037   0.01936686            9 
 3491000   0.71526808   -7.3011414    836.29699  0.019963167  0.019361126           18 
 3492000   0.68856684   -7.3319012    835.69186  0.019943009  0.019355393           17 
 3493000   0.68780849   -7.3246643    835.24736  0.019926695  0.019349657            9 
 3494000   0.68654918    -7.319623    833.84961  0.019887655  0.019343914           14 
 3495000   0.69197055   -7.3187741    836.88724  0.019954393  0.019338164           14 
 3496000   0.70610885   -7.3048953    835.31014  0.019911092  0.019332406           10 
 3497000   0.69262505   -7.3281587    833.23848  0.019856031  0.019326666           14 
 3498000   0.69304084   -7.3274848      835.289  0.019899204  0.019320925           14 
 3499000   0.69096147   -7.3492172    833.43635  0.019849394  0.019315159           12 
 3500000   0.69188723   -7.3180491    833.44175  0.019843851  0.019309398           10 
 3501000   0.70867576   -7.2999923    833.38739  0.019836889  0.019303646           15 
 3502000   0.69169574   -7.3230028      834.584  0.019859699  0.019297901           20 
 3503000   0.67784484    -7.301593    833.21196   0.01982139  0.019292147           16 
 3504000   0.68519598   -7.3036405    835.16388  0.019862155   0.01928639           13 
 3505000   0.69501314   -7.3113017    831.10812   0.01976006  0.019280646           18 
 3506000   0.67465082   -7.3075006    833.46119  0.019810353  0.019274883           27 
 3507000   0.66714227   -7.3102172    834.78263  0.019836105  0.019269125           29 
 3508000    0.6905252   -7.3110354    833.36645  0.019796808  0.019263381           33 
 3509000   0.69038432   -7.3255711    835.61855  0.019844651  0.019257615           28 
 3510000   0.68332955   -7.3063498    834.17203  0.019804654  0.019251864           16 
 3511000   0.68572817   -7.3267466    833.04344  0.019772226  0.019246103           20 
 3512000   0.68223288   -7.3497747    835.11225  0.019815686  0.019240335           14 
 3513000   0.69280945    -7.315024    834.31784    0.0197912  0.019234578            5 
 3514000   0.68171816   -7.3169774    832.96294  0.019753437  0.019228837           24 
 3515000    0.6974682   -7.3106269    831.65326  0.019716768  0.019223118           11 
 3516000   0.68435274   -7.3136406    834.47456  0.019778028  0.019217391           12 
 3517000   0.67733645     -7.31559    835.60058  0.019799085  0.019211665           12 
 3518000   0.68349494   -7.2947113    834.58654  0.019769437  0.019205958           10 
 3519000   0.68855863   -7.3053211    835.49221  0.019785266  0.019200242           11 
 3520000   0.69252117   -7.3101452    835.81854  0.019787371  0.019194521           18 
 3521000   0.69006574   -7.3254153     836.6695  0.019801891  0.019188802           46 
 3522000   0.70074953   -7.3419408    835.70236  0.019773385  0.019183095           18 
 3523000    0.6918956   -7.3053989    835.62519  0.019765947  0.019177404           15 
 3524000   0.67862432   -7.3361435    834.69169  0.019738264   0.01917169           16 
 3525000   0.68086279   -7.2965335    835.38357   0.01974902  0.019165987           16 
 3526000   0.69286396   -7.3075414     834.2621  0.019716915   0.01916027           12 
 3527000   0.68778407    -7.315555    834.94556  0.019727473  0.019154564           16 
 3528000   0.70732077   -7.3096757    835.30978  0.019730484  0.019148837           10 
 3529000   0.68462408   -7.3348977    834.21171  0.019698964  0.019143122           14 
 3530000   0.69358912   -7.3217292     835.0652  0.019713532  0.019137406            7 
 3531000   0.67885557   -7.3156782    834.35307  0.019691142  0.019131691           11 
 3532000   0.68897415   -7.3064267     834.9123  0.019698761  0.019125984           40 
 3533000   0.69596756   -7.3099678    834.79506   0.01969042  0.019120289           11 
 3534000    0.6945001   -7.3166524    836.12735  0.019716265  0.019114605           15 
 3535000   0.68900594   -7.3045503    836.37929  0.019716626   0.01910893            8 
 3536000   0.69754033   -7.3164589     836.6364   0.01971711   0.01910326           11 
 3537000   0.68781293   -7.3138458    838.19922  0.019748356  0.019097591            9 
 3538000   0.69221922   -7.3135016     836.3321  0.019698796  0.019091943           15 
 3539000   0.68493643   -7.3215975    838.30276  0.019739634  0.019086315            7 
 3540000   0.68280576   -7.3146437    836.54175  0.019692602   0.01908067            7 
 3541000   0.68714202   -7.3095938    837.86141  0.019718098   0.01907502            7 
 3542000   0.68257773   -7.3018851    837.25352  0.019698229  0.019069359            7 
 3543000   0.68418436   -7.3365541    835.81489  0.019658832  0.019063687            5 
 3544000   0.70354031   -7.3395842    836.15509  0.019661284   0.01905801            9 
 3545000   0.68977171   -7.3167019    836.36161  0.019660593  0.019052334            6 
 3546000   0.68366462   -7.3174954    836.19815  0.019651207  0.019046664           12 
 3547000   0.68388687    -7.323967    835.58187  0.019631188  0.019040994           12 
 3548000   0.67558678   -7.3319178    835.31165  0.019619308  0.019035326            9 
 3549000   0.67772448   -7.3434205    835.23199  0.019611909  0.019029642            7 
 3550000   0.67796391   -7.3246792    835.45818  0.019611694  0.019023939           19 
 3551000    0.6807295   -7.3659902    833.61497  0.019562916  0.019018237           25 
 3552000   0.68774322   -7.3382146    835.50792  0.019601819  0.019012547            6 
 3553000   0.67801379   -7.3210279    835.41399  0.019594099  0.019006874           10 
 3554000   0.66665871   -7.3260895    833.45366   0.01954262  0.019001202            8 
 3555000   0.68749616   -7.3386585    836.95498  0.019619198   0.01899552           10 
 3556000    0.6874428     -7.32543    835.79247  0.019586438  0.018989832           63 
 3557000   0.68872381   -7.3337442    834.12176   0.01954179  0.018984142           47 
 3558000   0.68325963   -7.3193699    835.51064  0.019568827  0.018978452           41 
 3559000   0.68104801   -7.3493524    836.15239  0.019578355  0.018972771           28 
 3560000    0.6839078    -7.352363    835.20075  0.019550579  0.018967092           24 
 3561000   0.66953008   -7.3452713    836.29009  0.019570581  0.018961398           38 
 3562000   0.68446112   -7.3684097    833.96382  0.019510664  0.018955703           40 
 3563000   0.67246604   -7.3716276     835.0434  0.019530438  0.018949998           19 
 3564000   0.68259341   -7.3494801    835.08394  0.019525906  0.018944297           34 
 3565000   0.67722885   -7.3413204    835.59494  0.019532373  0.018938596           29 
 3566000    0.6792121    -7.361279    836.62744  0.019551024    0.0189329           29 
 3567000   0.68889945   -7.3661527    835.64147  0.019522509  0.018927193           18 
 3568000   0.67004687   -7.3452522    833.97697  0.019478162  0.018921489           44 
 3569000   0.69513347    -7.376182    835.20615  0.019501404  0.018915777           43 
 3570000   0.66534464   -7.3576886     832.3907  0.019430222  0.018910068           52 
 3571000   0.68543778   -7.3258507    836.34773  0.019517122   0.01890437           50 
 3572000     0.682118   -7.3276611    834.64932  0.019472035  0.018898688           35 
 3573000   0.67813015   -7.3643987    836.12282  0.019500952  0.018892993           44 
 3574000   0.66057656   -7.3562395     834.0186  0.019446433  0.018887287           46 
 3575000   0.68830211   -7.3565878    835.70358   0.01948027  0.018881621           42 
 3576000   0.67581745   -7.3365061    834.89253  0.019455922  0.018875959           40 
 3577000   0.66033711   -7.3490908    835.68562  0.019468959  0.018870271           16 
 3578000   0.67409895   -7.3266284    835.56636  0.019460741  0.018864589           18 
 3579000   0.67352864   -7.3618345    835.00119  0.019442144  0.018858908           43 
 3580000   0.67879476   -7.3805219     833.7704  0.019408063  0.018853215           78 
 3581000   0.69619887   -7.3678991    835.50582  0.019443029  0.018847525           51 
 3582000   0.67446681   -7.3398232    833.61394  0.019393587  0.018841841           57 
 3583000   0.66935737   -7.3404664    835.06394  0.019421898  0.018836168           67 
 3584000   0.68584194   -7.3665423    834.98968  0.019414753  0.018830493           43 
 3585000   0.68016391   -7.3542648    835.97751  0.019432299  0.018824806           33 
 3586000   0.69563428   -7.3537368    835.10376  0.019406576  0.018819142           16 
 3587000   0.68359109   -7.3665575     833.9093  0.019373415  0.018813475           58 
 3588000   0.67850161   -7.3487405    834.44217  0.019380392  0.018807809           19 
 3589000   0.68080242   -7.3128169    836.58541  0.019424756  0.018802155           33 
 3590000   0.66402832   -7.3336772    837.26609  0.019435146  0.018796507           22 
 3591000   0.68728416   -7.3266954    837.28352  0.019430138  0.018790858           23 
 3592000    0.6892804   -7.3565077     834.5073  0.019360322  0.018785203           18 
 3593000    0.6867601   -7.3498719    834.78998   0.01936149  0.018779548           13 
 3594000   0.67904355   -7.3416264    833.75136   0.01933202  0.018773872            7 
 3595000   0.65797273    -7.335901    835.53699  0.019368034  0.018768202           22 
 3596000   0.69218773   -7.3202945    834.05299  0.019328258  0.018762534           14 
 3597000   0.68516995   -7.3314965    835.75528  0.019362322  0.018756881           10 
 3598000    0.6653756   -7.3350723    836.87785  0.019382941  0.018751229           10 
 3599000   0.66085116   -7.3156484    834.23899  0.019316453  0.018745572           45 
 3600000   0.67380898   -7.3437307    834.76525   0.01932327  0.018739922           35 
 3601000    0.6855828   -7.3505806     836.5165  0.019358431  0.018734273           29 
 3602000   0.69046991    -7.352572    836.67953  0.019356828  0.018728626            7 
 3603000   0.67183926   -7.3345641    838.19983  0.019386618  0.018722992            9 
 3604000   0.67516408   -7.3326793    835.80319  0.019325823  0.018717351           14 
 3605000   0.67498397   -7.3271641    835.08574  0.019303877  0.018711704           12 
 3606000   0.68146758   -7.3453715    833.96691  0.019272668  0.018706069           17 
 3607000   0.67749052   -7.3398383    835.12571  0.019294097  0.018700438           11 
 3608000   0.68298036   -7.3365509    835.90119  0.019306661  0.018694786           12 
 3609000   0.67518423   -7.3401182    835.26343  0.019286585  0.018689137           12 
 3610000   0.66801512   -7.3476397    833.57594  0.019242289  0.018683486           15 
 3611000   0.66359738   -7.3350819    836.65816   0.01930809  0.018677845            9 
 3612000   0.66549286   -7.3561294    835.84761  0.019284044  0.018672206            9 
 3613000   0.67252724   -7.3536409    837.59506  0.019319011  0.018666574           13 
 3614000   0.66546845   -7.3666486    836.98119  0.019299511   0.01866094           29 
 3615000   0.68215683   -7.3569633     834.5842  0.019238917  0.018655303           21 
 3616000   0.66742531   -7.3617949    835.01602  0.019243548  0.018649655           25 
 3617000   0.68211305   -7.3679809    834.85014  0.019234406  0.018644007           42 
 3618000   0.67829546   -7.3568851    834.98588  0.019232216  0.018638364           17 
 3619000   0.68165137   -7.3568134    835.89286  0.019247786  0.018632716           27 
 3620000   0.67762933   -7.3716855    833.87813   0.01919609  0.018627061           15 
 3621000   0.66222044   -7.3761066    834.82136  0.019212496   0.01862141           23 
 3622000   0.67987391    -7.360791    834.62528   0.01920268  0.018615771           22 
 3623000   0.66881243   -7.3613428    835.84038  0.019225329  0.018610129           16 
 3624000   0.68424839   -7.3646625      835.097  0.019202929  0.018604495           12 
 3625000   0.65990117   -7.3453426    834.39234  0.019181433  0.018598846           44 
 3626000   0.67428458   -7.3521723     833.3023  0.019151092  0.018593204           28 
 3627000   0.68067345   -7.3721788    834.62479  0.019176197  0.018587556           14 
 3628000   0.66348945   -7.3539347    834.58109  0.019169908  0.018581912           12 
 3629000   0.67139367    -7.370505    836.09765   0.01919945  0.018576273           17 
 3630000   0.67670762   -7.3602373    834.36186  0.019154313  0.018570612           30 
 3631000   0.66213426   -7.3773298    834.54653  0.019153276  0.018564973           17 
 3632000   0.66961697    -7.375754    834.30058  0.019142359  0.018559318           38 
 3633000    0.6600309   -7.3543377    834.33427  0.019137863  0.018553658           35 
 3634000    0.6741779    -7.375753    834.07634  0.019126682  0.018547999           33 
 3635000   0.65707992    -7.387594     834.0231  0.019120199  0.018542337           22 
 3636000   0.67057702   -7.3704927    834.37079  0.019122909   0.01853666           20 
 3637000   0.68104079   -7.3789796    833.62844  0.019100643  0.018530999           24 
 3638000   0.66985417    -7.390715    835.28659  0.019133374  0.018525316           19 
 3639000   0.68738703    -7.374974    834.41252    0.0191081  0.018519649           20 
 3640000   0.66843925   -7.3832111    831.85801  0.019044368  0.018513967           13 
 3641000   0.67547135   -7.3841489    834.55856  0.019100947  0.018508304           18 
 3642000   0.65352837   -7.3783255    834.54994  0.019095505  0.018502651           13 
 3643000   0.67984479   -7.3598663    834.98872    0.0191003  0.018496994           18 
 3644000    0.6645198   -7.3760856    834.62233   0.01908668  0.018491354           32 
 3645000   0.68479426   -7.3738908    833.88273  0.019064534   0.01848571           12 
 3646000   0.66184761   -7.3808264    834.26916  0.019068138  0.018480065           19 
 3647000   0.67653602   -7.4065776    832.41308  0.019020498  0.018474412           35 
 3648000   0.66990687    -7.350935    835.47229  0.019085167  0.018468766           19 
 3649000   0.67374338   -7.3711981    834.06108  0.019047709  0.018463128           29 
 3650000   0.67039474   -7.3603435    834.29874  0.019047916  0.018457492           24 
 3651000   0.68767605   -7.3991622    833.76245  0.019030458  0.018451855           34 
 3652000   0.66771981   -7.3756263    835.06192    0.0190549  0.018446217           21 
 3653000   0.66832575   -7.3741479    834.50363  0.019036947  0.018440599           11 
 3654000    0.6688471   -7.3855765    835.37387  0.019051584  0.018434986           14 
 3655000   0.66699041   -7.3544678    833.90631  0.019012912  0.018429374           14 
 3656000   0.65618094   -7.3787596    834.72952  0.019026475  0.018423768           15 
 3657000   0.67207156   -7.3525976    834.66533   0.01901981  0.018418168           12 
 3658000   0.67224763   -7.3514026    834.53359  0.019011609  0.018412562           14 
 3659000   0.67380663   -7.3493085    834.78583  0.019012158   0.01840695           16 
 3660000   0.66045146   -7.3471253    834.14536  0.018992381  0.018401356           16 
 3661000   0.66014635   -7.3685632    835.55044  0.019019176  0.018395757           29 
 3662000   0.66678211   -7.3653913    837.48894  0.019058095  0.018390142           49 
 3663000   0.67245637   -7.3875718    835.75335  0.019013408   0.01838452           28 
 3664000    0.6757927   -7.3899218    835.09734  0.018993298  0.018378902           15 
 3665000   0.66347618   -7.3600147     835.3542  0.018993956  0.018373285           22 
 3666000   0.67090819   -7.3663546    835.09036  0.018982778  0.018367664           49 
 3667000   0.65754498   -7.3791189    836.19502  0.019002705  0.018362039           33 
 3668000    0.6531816   -7.3634858    834.87184  0.018967463  0.018356416           16 
 3669000   0.67088037   -7.3677905    834.26633   0.01894854  0.018350788           44 
 3670000   0.65373343   -7.3544219    835.44091  0.018970048  0.018345164           17 
 3671000   0.65308167   -7.3848801    833.14817  0.018912834  0.018339527           32 
 3672000   0.67158306   -7.3362308    834.81042  0.018945407  0.018333909           36 
 3673000   0.67071097   -7.3795439    834.31675  0.018929049  0.018328291           21 
 3674000   0.66847487   -7.3872687    833.49948  0.018905359  0.018322655           22 
 3675000    0.6612028   -7.3952973    834.20279  0.018916163  0.018317016           21 
 3676000   0.67158708   -7.3768111    836.36564  0.018960048  0.018311397           17 
 3677000   0.66126207   -7.3550502    834.66222  0.018916286  0.018305775           12 
 3678000   0.63990756   -7.3477351    834.23619  0.018901491  0.018300168           22 
 3679000    0.6574654   -7.3488566    834.93497  0.018912181  0.018294577           20 
 3680000   0.65906387    -7.375112    835.56044  0.018921206  0.018288992           12 
 3681000   0.67540006   -7.3687747    835.00402  0.018903469  0.018283422           12 
 3682000   0.66609728   -7.3628918    837.38704  0.018952269  0.018277857           25 
 3683000   0.66690911   -7.3528972    835.92927  0.018914139  0.018272296           36 
 3684000   0.66373317   -7.3573078    835.82837  0.018906722  0.018266721           31 
 3685000   0.65329777    -7.385709    835.45206  0.018893081  0.018261143           39 
 3686000   0.65441578   -7.3717063    835.27177   0.01888388   0.01825557           27 
 3687000   0.66580377   -7.3568667    834.77642  0.018867562  0.018250002           45 
 3688000   0.66798483   -7.3670983    836.18537  0.018894283  0.018244436           21 
 3689000   0.66003317    -7.379068    835.56095  0.018875055  0.018238862           11 
 3690000   0.65661058   -7.3740405    834.88552  0.018854687  0.018233288           14 
 3691000   0.66618237   -7.4015424    834.79954  0.018847637  0.018227711           24 
 3692000   0.66685473   -7.3932576    836.12616  0.018872476  0.018222135           33 
 3693000   0.66903579   -7.3887283    836.65437  0.018879284  0.018216559           15 
 3694000   0.66594059   -7.3859684    835.10764  0.018839281  0.018210992           37 
 3695000   0.66750337   -7.3362884    835.13606  0.018834823  0.018205444           19 
 3696000   0.65782167   -7.3709931    834.55817  0.018816698  0.018199884           21 
 3697000   0.66195425   -7.3790488    836.48382  0.018855014  0.018194317           13 
 3698000   0.66402914   -7.3628519    836.00111  0.018839037  0.018188768           18 
 3699000   0.65149077    -7.355495    834.80647  0.018807031   0.01818322           23 
 3700000   0.66340457   -7.3804045    835.18794  0.018810539  0.018177677           37 
 3701000   0.66096952   -7.3541534    835.65853  0.018816053   0.01817212           26 
 3702000   0.66463921    -7.367111    835.76269  0.018813315   0.01816657           38 
 3703000   0.66271909   -7.3599452    834.19677  0.018772994  0.018161019           18 
 3704000   0.65637872   -7.3561739    835.65814  0.018800804   0.01815547           21 
 3705000   0.65793611   -7.3757003    835.44277  0.018790886  0.018149918           12 
 3706000   0.66194729   -7.3554528    834.17102  0.018757218  0.018144358           22 
 3707000   0.65686329   -7.4012482    835.86994   0.01879035  0.018138778           26 
 3708000   0.66420168   -7.3850411    834.34175  0.018750938  0.018133213           21 
 3709000    0.6569698   -7.3860553    835.30374  0.018767497  0.018127639           30 
 3710000   0.65479413   -7.3651979    835.23065  0.018760796  0.018122086           11 
 3711000    0.6674125   -7.3453067    836.78961  0.018790748  0.018116534           21 
 3712000   0.64670048   -7.3644946    835.05643  0.018746777  0.018110983            9 
 3713000   0.65676989   -7.3863238    833.22114  0.018700537  0.018105426           16 
 3714000   0.65743264   -7.3780973     834.7811  0.018730504  0.018099877            5 
 3715000   0.64719799   -7.3828746    834.99878  0.018730345  0.018094323           10 
 3716000   0.64316147   -7.3921125    833.79966  0.018698414  0.018088762           18 
 3717000   0.66745905   -7.4029724    833.71419  0.018691467  0.018083215           17 
 3718000   0.66306647   -7.3783391    835.76397  0.018732382  0.018077663           25 
 3719000    0.6542563   -7.4068098    834.60392  0.018701352  0.018072116           35 
 3720000   0.64661116   -7.3906253    835.30757  0.018712087  0.018066577           12 
 3721000   0.66343869   -7.3702907    834.23167  0.018682963  0.018061033           16 
 3722000   0.66402861   -7.3968952    836.71785  0.018733608  0.018055486           15 
 3723000   0.66070049    -7.388658     835.0621  0.018691514  0.018049959            8 
 3724000   0.65339319   -7.3924719     836.0836  0.018709354  0.018044428            9 
 3725000   0.66126144   -7.3755636    833.99964   0.01865771  0.018038898           16 
 3726000     0.657761   -7.4009607      836.218  0.018702317  0.018033377           22 
 3727000   0.69087819   -7.3735778    835.61585  0.018683835  0.018027861           18 
 3728000   0.64379964   -7.3963411    835.22496  0.018670086  0.018022352           15 
 3729000   0.65310046   -7.3738573    835.04101  0.018660968  0.018016824            9 
 3730000   0.64821408   -7.4078012    836.40294  0.018686393  0.018011294           18 
 3731000   0.65685701   -7.3911488    837.14389  0.018697934  0.018005754           23 
 3732000   0.65713016   -7.4068518    834.22889  0.018627833  0.018000212           18 
 3733000   0.65770607   -7.4183601    834.80017  0.018635596  0.017994655           51 
 3734000   0.66302942   -7.4020768    834.99184  0.018634883    0.0179891           13 
 3735000    0.6535622   -7.4068028    834.39868  0.018616659  0.017983543           11 
 3736000   0.65170456   -7.3977152    834.36129  0.018610842  0.017977987           28 
 3737000    0.6342631   -7.4131892    834.23101  0.018602957  0.017972439           54 
 3738000   0.66174286   -7.4147522    834.76521   0.01860989  0.017966898           87 
 3739000   0.65339524   -7.4401643    834.55664  0.018600264  0.017961344           26 
 3740000   0.65865747   -7.3947998     834.3824  0.018591408  0.017955786           47 
 3741000   0.63285376   -7.4116071    833.61828  0.018569417  0.017950226           45 
 3742000    0.6511166   -7.4173746    832.55874  0.018540859  0.017944668           26 
 3743000   0.66083443    -7.430176    834.39053  0.018576688   0.01793912           47 
 3744000   0.64084049   -7.4180194    834.91698  0.018583444  0.017933567           20 
 3745000    0.6498173   -7.4285875    834.78629  0.018575574  0.017928032           26 
 3746000    0.6473484   -7.4013042    834.37572  0.018561481  0.017922486           28 
 3747000   0.65233521   -7.4296378    834.57033  0.018560856  0.017916948           29 
 3748000   0.66190088   -7.4106029    836.07558  0.018589372  0.017911411           26 
 3749000   0.66850871   -7.3970979    835.00591  0.018560636  0.017905876           19 
 3750000   0.64533686   -7.3848275     834.0523  0.018534496  0.017900343           15 
 3751000   0.65034636   -7.3971557    833.92448  0.018526715  0.017894807           22 
 3752000   0.64667536   -7.4097978    834.46006  0.018533672  0.017889275           17 
 3753000   0.64436472   -7.3845246    834.20676   0.01852311  0.017883747           18 
 3754000   0.64633911   -7.4043351    835.00886  0.018535981  0.017878222           15 
 3755000   0.65416426   -7.4208002    834.26529  0.018514543  0.017872695           23 
 3756000   0.64958913   -7.4386062    835.82078  0.018544124  0.017867177           25 
 3757000    0.6559923   -7.4255699    834.37147  0.018507042  0.017861668           21 
 3758000   0.63849889   -7.4023596    833.91197  0.018491928   0.01785616           21 
 3759000   0.65088622    -7.404243    834.90495  0.018509022  0.017850664           21 
 3760000   0.66082324   -7.4207551    834.48638  0.018494822  0.017845171           27 
 3761000   0.64869086   -7.4250539    834.75837  0.018495931  0.017839678           23 
 3762000    0.6662722   -7.3986453    833.85446  0.018470992  0.017834192           27 
 3763000   0.64234855   -7.4168565     834.8167  0.018487393  0.017828702           41 
 3764000    0.6471058   -7.4049284    836.46218  0.018518911  0.017823227           37 
 3765000   0.65241674   -7.3907511     835.2258  0.018486627  0.017817753           21 
 3766000   0.64521295   -7.3927321    836.72589  0.018514912  0.017812297           20 
 3767000   0.64649303   -7.3971825    836.85797  0.018512919  0.017806851           12 
 3768000   0.66426475   -7.3841924    836.13634  0.018492046  0.017801395           15 
 3769000   0.66428814   -7.4128688    836.32869  0.018491392  0.017795957           13 
 3770000   0.66244636   -7.3807312    836.37595  0.018487532  0.017790512           20 
 3771000   0.64355197   -7.3864595    835.20107  0.018456666  0.017785068           12 
 3772000   0.65358025   -7.4168132    835.20525  0.018451866  0.017779619           21 
 3773000   0.65489013   -7.3971774    835.28355  0.018448705  0.017774169           26 
 3774000   0.64558052   -7.4419729    835.76362  0.018454417  0.017768721           20 
 3775000   0.64905455   -7.4382404    834.95548  0.018431688  0.017763263           15 
 3776000   0.63602422     -7.40906    836.83792  0.018468351  0.017757795           18 
 3777000   0.67191454   -7.4254525    837.01019  0.018467262   0.01775234           21 
 3778000   0.66287066   -7.4207249    837.43784  0.018471807    0.0177469           33 
 3779000   0.63240233   -7.4154711    837.53512  0.018469064  0.017741467           20 
 3780000   0.65944943   -7.4191426    837.68318  0.018467442  0.017736032           19 
 3781000   0.65216071   -7.4252949    834.77189  0.018398393  0.017730596           24 
 3782000     0.642589   -7.4300323    834.39849  0.018385301  0.017725161           17 
 3783000   0.65570614   -7.4417899    834.19816  0.018376028  0.017719725           27 
 3784000   0.65202125   -7.4199911    835.00546   0.01838895  0.017714286           22 
 3785000   0.63625602   -7.4216511    836.89882  0.018425778   0.01770884           19 
 3786000   0.64814461   -7.4199699     835.3248  0.018386265  0.017703401           41 
 3787000   0.63489064   -7.4268902    836.56331  0.018408664   0.01769796           35 
 3788000   0.63680419   -7.3935056    836.40423  0.018400304  0.017692525           16 
 3789000   0.66125589   -7.4262882    836.81138  0.018404403    0.0176871           16 
 3790000    0.6382536   -7.4439939    836.34054  0.018389194  0.017681671           24 
 3791000    0.6399771   -7.4418018    835.73182  0.018370962  0.017676226           39 
 3792000   0.65334509   -7.4349049     836.5201  0.018383441  0.017670781           23 
 3793000   0.64851064   -7.4148722    835.86676   0.01836424  0.017665352           31 
 3794000   0.63553545    -7.440663    835.10964   0.01834277  0.017659912           16 
 3795000   0.65549159   -7.4232762    835.26468  0.018341341   0.01765448           45 
 3796000   0.65084389   -7.4181408    836.00739  0.018352814  0.017649063           45 
 3797000    0.6314798   -7.4299644    837.20385   0.01837424   0.01764365           12 
 3798000   0.65972955   -7.4303138    835.95459  0.018341991  0.017638222           16 
 3799000   0.65801085   -7.4247764    835.64621  0.018330399  0.017632795           21 
 3800000   0.63947588   -7.4178799    836.38644  0.018341808  0.017627383           22 
 3801000   0.64156375     -7.43787     834.7739  0.018301629  0.017621964           51 
 3802000   0.64537762   -7.4647916    837.07364  0.018347222  0.017616541           33 
 3803000   0.64230937   -7.4401323    833.97966    0.0182746  0.017611121           31 
 3804000   0.64577585   -7.4129862    835.86285  0.018311051  0.017605705           44 
 3805000   0.65233523   -7.4317387    837.83325  0.018349392   0.01760031           67 
 3806000   0.62521351   -7.4396092    836.38195  0.018312794  0.017594895           42 
 3807000   0.64678991   -7.4208503     834.5347  0.018267549  0.017589473           20 
 3808000   0.64944111   -7.4284478    836.82637  0.018312902  0.017584071           36 
 3809000   0.65424185   -7.4121066    835.96012  0.018289142  0.017578676           44 
 3810000   0.63952645   -7.4336512    836.08628  0.018287101  0.017573287           21 
 3811000   0.64259019   -7.3887387    836.94482  0.018301076  0.017567896           40 
 3812000   0.63791325   -7.4070215    837.05623  0.018298711  0.017562514           57 
 3813000   0.61834036    -7.437168    836.92206   0.01829098  0.017557122           66 
 3814000    0.6227868   -7.4432247    835.71486  0.018259807  0.017551722           25 
 3815000    0.6460449   -7.4518771    835.99374  0.018261113  0.017546326           36 
 3816000   0.63303716   -7.4353415    835.48701  0.018245261  0.017540918           45 
 3817000   0.63900726   -7.4323292    836.66048  0.018266101  0.017535521           74 
 3818000    0.6383881   -7.4262959    837.11274  0.018271188  0.017530122          104 
 3819000   0.63968369   -7.4330629    835.30372  0.018226929  0.017524718           82 
 3820000   0.63772727   -7.4234441     835.6347  0.018229378   0.01751933           63 
 3821000   0.64598188    -7.407182     835.3079   0.01821748  0.017513947           41 
 3822000   0.63477856   -7.4284653    835.69427  0.018221138  0.017508584           77 
 3823000   0.64159428   -7.4432522    836.16363  0.018226603  0.017503203           73 
 3824000   0.63820678   -7.4198275    836.45419  0.018228168  0.017497844           69 
 3825000    0.6523367   -7.4232268    837.06157  0.018236636  0.017492479           91 
 3826000   0.64263778   -7.4157541    837.85457  0.018249141  0.017487119           49 
 3827000    0.6295048   -7.4291604    837.48033  0.018236224  0.017481766           14 
 3828000   0.64388596   -7.3814038    837.43111  0.018230388  0.017476414           17 
 3829000   0.63669263   -7.4403455    838.06739  0.018239475  0.017471075           20 
 3830000    0.6339602   -7.4267728    836.87601   0.01820879  0.017465738           25 
 3831000   0.64315733   -7.4474852    837.20451  0.018211183  0.017460404           26 
 3832000   0.65067405   -7.4112984    835.84899  0.018176953  0.017455063           28 
 3833000    0.6315455   -7.4478434    834.97138   0.01815313  0.017449704           51 
 3834000    0.6340117   -7.4325437    838.29072  0.018220542   0.01744436           20 
 3835000   0.63962587   -7.4409158    837.20722  0.018192247  0.017439011           30 
 3836000   0.63809928   -7.4291945    836.21595   0.01816597  0.017433673           23 
 3837000   0.63896157   -7.4278727    837.84854  0.018196693  0.017428322           52 
 3838000   0.63254262   -7.4276092    837.40648  0.018182354   0.01742299           25 
 3839000   0.62512522   -7.4335273    836.57817  0.018159637  0.017417656           26 
 3840000   0.63123799   -7.4414823    838.07439  0.018187378  0.017412325           23 
 3841000   0.62679698   -7.4314399     837.5745  0.018171798  0.017407001           60 
 3842000   0.63324301   -7.4309298    836.79755  0.018150216  0.017401674           27 
 3843000   0.62610947   -7.4346648    836.40809  0.018137048  0.017396353           23 
 3844000   0.63655459   -7.4542844    836.44425  0.018133113  0.017391021           33 
 3845000   0.62324763   -7.4213351    837.95276  0.018161091  0.017385691           51 
 3846000   0.64469166   -7.4433997    836.83944  0.018132247  0.017380366           38 
 3847000   0.62200327   -7.4162585    836.25432  0.018114858  0.017375043           19 
 3848000   0.64452105   -7.4191089    836.02746  0.018105238  0.017369721           29 
 3849000   0.63309274   -7.4232153    836.99904  0.018121569  0.017364407           29 
 3850000   0.62605111   -7.4040392     837.0617  0.018118219  0.017359097           28 
 3851000   0.63339426   -7.4224075    837.83215  0.018130186  0.017353804           35 
 3852000   0.64032726   -7.4316703    837.05806  0.018108733  0.017348511           28 
 3853000   0.63211684   -7.4316447     836.4826  0.018091587  0.017343215           42 
 3854000   0.62313149   -7.4425695    838.44181  0.018129255  0.017337907           59 
 3855000   0.62994023   -7.4482074     836.9661  0.018092652  0.017332597           28 
 3856000   0.62320321   -7.4342132    837.60769  0.018101826  0.017327303           30 
 3857000   0.65498571   -7.4362256    837.85808  0.018102542  0.017321995           17 
 3858000   0.62358076   -7.4528292    838.54095  0.018112601  0.017316697           13 
 3859000   0.63430092   -7.4284476    837.73194  0.018090437  0.017311404           15 
 3860000   0.62940798   -7.4437127    838.56569   0.01810375  0.017306113           11 
 3861000   0.62345418   -7.4462873     838.4266  0.018096059  0.017300827           12 
 3862000   0.64451389   -7.4325157    836.14869  0.018042221  0.017295533           17 
 3863000   0.63758704   -7.4514627    837.33376  0.018063115  0.017290238           20 
 3864000   0.62735506   -7.4488856    837.91709  0.018071021  0.017284932           21 
 3865000     0.627667   -7.4484628    836.84592   0.01804325   0.01727962           22 
 3866000   0.64233663   -7.4548624    836.02076  0.018020796  0.017274299           22 
 3867000   0.62805663   -7.4380348    836.58923  0.018028386   0.01726898           16 
 3868000    0.6321353   -7.4391769    835.62226  0.018002893  0.017263658           21 
 3869000   0.63148557   -7.4397299    837.27798  0.018033901  0.017258345           27 
 3870000   0.62846685   -7.4459045    836.34237  0.018009095  0.017253045           60 
 3871000   0.63049266   -7.4209004    836.81839   0.01801469  0.017247751           28 
 3872000   0.63637171   -7.4307082    836.58731  0.018005064  0.017242453           15 
 3873000   0.62485443   -7.4455439    837.28884   0.01801551  0.017237151           14 
 3874000   0.62522301   -7.4446038      836.924  0.018003012  0.017231847           26 
 3875000   0.62101514   -7.4512619    835.76072  0.017973349  0.017226538           12 
 3876000   0.63393532   -7.4365051    837.32001  0.018002236  0.017221235           12 
 3877000   0.63977828   -7.4360754    837.62173  0.018004078  0.017215942           23 
 3878000   0.62988326   -7.4442359    836.51323  0.017975615   0.01721064           22 
 3879000   0.62259834   -7.4439503    836.47671  0.017970197  0.017205351           27 
 3880000   0.63802347    -7.450136    835.11902  0.017936405   0.01720006           46 
 3881000   0.64416132   -7.4397967    836.44149   0.01796018  0.017194768           24 
 3882000   0.62853572   -7.4414648    834.71798  0.017918555   0.01718948           29 
 3883000   0.63162732   -7.4439254    837.28456  0.017969022  0.017184193           34 
 3884000   0.63723799   -7.4606223    838.13324  0.017982605  0.017178914           29 
 3885000   0.63476142   -7.4544228    837.73199  0.017969369  0.017173625           31 
 3886000   0.63344833    -7.458195    836.26946  0.017933382  0.017168348           27 
 3887000   0.63939571    -7.444652    835.87765  0.017920368  0.017163069           27 
 3888000   0.64438105   -7.4764295    836.07264  0.017919938  0.017157779           28 
 3889000   0.64433528   -7.4427187    837.04058  0.017936071  0.017152494           40 
 3890000   0.62003763   -7.4340695    838.39588  0.017960495  0.017147225           23 
 3891000   0.63070198   -7.4472981    836.23675  0.017909637  0.017141972           31 
 3892000   0.62469217   -7.4600706    837.72303  0.017936858  0.017136707           29 
 3893000   0.63027336   -7.4679716    837.66851  0.017931084  0.017131438           28 
 3894000   0.64094472   -7.4601584    835.82248  0.017886973  0.017126171           35 
 3895000   0.62798842   -7.4473956    837.23582  0.017912619  0.017120908           22 
 3896000   0.63679179   -7.4674169    837.63026  0.017916458  0.017115641           31 
 3897000   0.64610584   -7.4389016    837.34888  0.017905844  0.017110381           35 
 3898000   0.62236917    -7.441206    838.55103   0.01792695  0.017105118           29 
 3899000   0.61414545   -7.4646444    836.54354  0.017879446  0.017099861           30 
 3900000   0.61840302   -7.4742081    835.27937   0.01784785  0.017094608           31 
 3901000   0.63136026   -7.4488696    836.34207  0.017865976  0.017089341           21 
 3902000   0.62647544   -7.4526048    836.07288  0.017855648  0.017084077           18 
 3903000   0.62764236   -7.4666118    838.27344  0.017898058  0.017078828           19 
 3904000   0.62325663   -7.4443835    838.19592  0.017891819  0.017073576           16 
 3905000   0.63113612   -7.4629711    837.19873  0.017865957   0.01706834           22 
 3906000   0.62028772   -7.4500404    837.55793  0.017869046  0.017063099           37 
 3907000   0.63745239   -7.4593613    838.64315  0.017887619  0.017057852           27 
 3908000   0.62244599    -7.455899    836.02475  0.017827208  0.017052601           24 
 3909000   0.62789766    -7.472767     837.4896  0.017853876  0.017047337           22 
 3910000   0.63684518   -7.4589728    837.00384  0.017838957  0.017042076           23 
 3911000   0.61899512   -7.4800417    835.22736  0.017796543  0.017036806           30 
 3912000   0.62719925   -7.4788061    836.16835  0.017812039  0.017031536           19 
 3913000   0.62190456   -7.4699623    836.37663  0.017811923  0.017026259           32 
 3914000   0.62349538   -7.4746689    837.84049  0.017838539     0.017021           22 
 3915000   0.63567648   -7.4695634    835.94479  0.017793631  0.017015732           36 
 3916000   0.61990909   -7.4765587    835.97658  0.017789764   0.01701046           29 
 3917000   0.61332065   -7.4725496    835.38082  0.017772548  0.017005195           24 
 3918000   0.62852846    -7.485471    835.98595  0.017780882  0.016999942           46 
 3919000    0.6296997   -7.4688687    836.85297  0.017794781  0.016994689           36 
 3920000   0.63274272   -7.4766229     836.7882  0.017788865  0.016989435           13 
 3921000   0.62765891   -7.4768115    836.16647  0.017771114  0.016984175           15 
 3922000   0.63092435   -7.4746484    837.28618  0.017790374  0.016978923           31 
 3923000   0.61393721   -7.4566518    837.14949  0.017782936   0.01697368           24 
 3924000    0.6260041   -7.4441482     837.2889  0.017781365   0.01696844           39 
 3925000   0.62305178   -7.4446889    837.72564  0.017786107  0.016963204           17 
 3926000   0.62827093    -7.471975    836.59442  0.017757565  0.016957973           31 
 3927000   0.62985448   -7.4548847    836.43791  0.017749722  0.016952739           38 
 3928000   0.63056257   -7.4624878    837.28598  0.017763195  0.016947508           13 
 3929000   0.62069823   -7.4371908    837.19198  0.017756681  0.016942272           20 
 3930000   0.60047089   -7.4470261    836.96779  0.017747409  0.016937047           37 
 3931000   0.60638315   -7.4675851    836.50099  0.017732998  0.016931815           13 
 3932000   0.60150226    -7.459954    837.01496  0.017739381  0.016926577           16 
 3933000   0.62329727   -7.4622153    837.70371  0.017749464  0.016921342           17 
 3934000   0.62137134   -7.4662868    836.92024  0.017728356  0.016916105           10 
 3935000   0.62728486   -7.4740607    837.18281  0.017729411  0.016910878           33 
 3936000   0.61918055   -7.4945333    836.50399  0.017710535  0.016905655           19 
 3937000   0.62534136   -7.4843282    837.36509  0.017724263  0.016900421           47 
 3938000   0.61224781   -7.4687215    836.55555  0.017702631  0.016895187           68 
 3939000   0.62929266   -7.4503856    836.75376   0.01770233  0.016889958           27 
 3940000   0.62652117   -7.4706594    836.36834  0.017689686  0.016884737           26 
 3941000    0.6169233    -7.461157    836.92289  0.017696923  0.016879514           30 
 3942000   0.61695508   -7.4578229    835.33375   0.01765884  0.016874299           77 
 3943000   0.61012778   -7.4579038    836.89764  0.017687413  0.016869096           30 
 3944000   0.62196533   -7.4746669    836.24732  0.017669188  0.016863886           29 
 3945000   0.62268832   -7.4763022    837.48915  0.017690941  0.016858679           30 
 3946000   0.59670327   -7.4646833     836.6814  0.017669399  0.016853468           22 
 3947000   0.61472149   -7.4729703    835.52872  0.017640586   0.01684825           36 
 3948000   0.62142805   -7.4709362    836.27755  0.017651924  0.016843042           23 
 3949000   0.60625087   -7.4844933    836.25555   0.01764699  0.016837839           18 
 3950000   0.62012337   -7.4616373     837.6126  0.017671152  0.016832636           42 
 3951000   0.61423645   -7.4728822    838.05339  0.017675976   0.01682744           28 
 3952000   0.62440183   -7.4537322     836.1897  0.017632205  0.016822229           44 
 3953000   0.61933713   -7.4572432    836.49078  0.017634092  0.016817022           32 
 3954000   0.62059396   -7.4756208    836.94103  0.017639121   0.01681181           16 
 3955000   0.61485037   -7.4790996    837.75279  0.017651766  0.016806593           32 
 3956000    0.6296622   -7.4675007    835.66683  0.017603363  0.016801379           42 
 3957000   0.61137592   -7.4906589    835.83413  0.017602437  0.016796171           70 
 3958000   0.60434619   -7.4901859    837.22492  0.017627272  0.016790965           65 
 3959000   0.61474778   -7.4978883    836.48303  0.017607204  0.016785761           22 
 3960000   0.62408466   -7.4604382     836.4302  0.017601646   0.01678055           46 
 3961000   0.63195661   -7.4722317    837.98167  0.017629842  0.016775357           40 
 3962000   0.61808737   -7.4873873    836.65086  0.017597402  0.016770151           34 
 3963000   0.62506286   -7.4776751    837.85335  0.017618247  0.016764953           64 
 3964000   0.61723884   -7.4685945    836.35945  0.017582397  0.016759758           51 
 3965000   0.61790904   -7.4715253    835.63221  0.017562678  0.016754564           67 
 3966000   0.62362504   -7.4846828     835.5864  0.017557287  0.016749365           31 
 3967000   0.61107259   -7.4938128    835.94099   0.01756031  0.016744163           33 
 3968000    0.6193348   -7.4875694    834.79898  0.017531901  0.016738956           28 
 3969000   0.62698863   -7.4962356    834.88532  0.017529296  0.016733748           32 
 3970000   0.62334944   -7.4967432    836.17741  0.017552003  0.016728541           34 
 3971000   0.62386207   -7.4790724    836.14978  0.017547003  0.016723339           37 
 3972000   0.62055586   -7.4937974    835.73417  0.017533866  0.016718141           43 
 3973000   0.61193582   -7.4906375    836.79363  0.017551674  0.016712952           23 
 3974000   0.61540859   -7.4723468    836.94485  0.017550429  0.016707763           41 
 3975000    0.6167277    -7.489457    838.09768  0.017570182   0.01670257           24 
 3976000   0.62113742   -7.4931981     836.8257  0.017539103  0.016697375           28 
 3977000   0.61004822   -7.4833692     837.0758  0.017539934  0.016692201           44 
 3978000   0.61377962   -7.4810012    834.40844  0.017479647  0.016687013           17 
 3979000   0.62819444   -7.4946853    835.76929  0.017503755  0.016681829           38 
 3980000   0.62597583   -7.4859211    836.43199  0.017513233  0.016676656           33 
 3981000   0.61943589   -7.4898315    836.47872  0.017509812  0.016671484           21 
 3982000   0.61557512    -7.489789    836.15132  0.017498563  0.016666303           47 
 3983000   0.60414675   -7.5013944    836.86961  0.017509198  0.016661124           29 
 3984000   0.62679923   -7.4850508    837.14432  0.017510549  0.016655948           53 
 3985000    0.6019413   -7.4898702    834.45317  0.017449878  0.016650773           44 
 3986000   0.62541696   -7.4976026    835.68584  0.017471271  0.016645595           30 
 3987000   0.61735909   -7.4977404    837.57165  0.017506305  0.016640428           32 
 3988000   0.61536233   -7.4947946    835.50831    0.0174588  0.016635267           48 
 3989000   0.61157269   -7.4856908    835.93081  0.017463249  0.016630108           22 
 3990000   0.61640906   -7.4849507    837.32488  0.017487988  0.016624943           42 
 3991000    0.6045714   -7.4933062    836.52804  0.017466968  0.016619779           37 
 3992000   0.61934806   -7.4905604     835.2329  0.017435557  0.016614617           49 
 3993000   0.60952093   -7.4922506    834.42012  0.017414227   0.01660946           42 
 3994000    0.6203402   -7.5183271    836.22708  0.017447569  0.016604304           32 
 3995000   0.62440507   -7.4832394    834.99533  0.017417508  0.016599144           29 
 3996000   0.60161295   -7.4878749    835.32044  0.017419929   0.01659399           40 
 3997000   0.61240806   -7.4752732    836.59298  0.017442102  0.016588843           51 
 3998000   0.61719414    -7.497082    835.79636  0.017421135  0.016583688           28 
 3999000   0.62549014   -7.4943172    837.13134  0.017444597  0.016578534           25 
 4000000   0.60103699   -7.4684284    837.65804  0.017451209  0.016573388           19 
 4001000   0.60368336    -7.510886    836.06724  0.017413714  0.016568233           26 
 4002000   0.60150364   -7.4872176    835.48117  0.017397159  0.016563085           23 
 4003000   0.60905279   -7.5039676    836.34603  0.017410817  0.016557945           27 
 4004000   0.60991644   -7.4855952    834.95563  0.017377531  0.016552795           47 
 4005000   0.61459363   -7.5033588    836.15031  0.017398051  0.016547657           27 
 4006000   0.62557281   -7.4869398    835.49264  0.017380027   0.01654252           25 
 4007000   0.60903779   -7.4770292    837.57499  0.017418996  0.016537376           31 
 4008000   0.59437909    -7.507708    836.29707  0.017388079  0.016532241           41 
 4009000   0.61369326   -7.4932029      836.609  0.017390226  0.016527103           16 
 4010000   0.61048006   -7.5084674    838.00938  0.017414991   0.01652197           21 
 4011000    0.5908761   -7.4907883    835.51246  0.017358773  0.016516843           27 
 4012000   0.60855254   -7.4935601    836.28217  0.017370434  0.016511712           44 
 4013000   0.60590699   -7.4829762    836.18754   0.01736414  0.016506597           40 
 4014000    0.6176135   -7.5025027    837.02447   0.01737719  0.016501481           37 
 4015000   0.59967919   -7.4885947    835.95144   0.01735059  0.016496365           38 
 4016000   0.60425611   -7.4908454    836.64576  0.017360677  0.016491235           45 
 4017000    0.5944731    -7.509522    835.01366  0.017322497  0.016486099           30 
 4018000   0.61208102   -7.5123371     837.5316  0.017370408  0.016480972           24 
 4019000   0.61467364   -7.4979587    836.00067  0.017334342  0.016475842           22 
 4020000   0.61152235   -7.5247545    835.66171  0.017323004  0.016470708           24 
 4021000   0.61870539     -7.48056    834.40527  0.017292657   0.01646557           17 
 4022000    0.6194527   -7.5222069     834.8101  0.017296745  0.016460431           15 
 4023000   0.60547385   -7.5054349    834.84318  0.017293131  0.016455291           19 
 4024000   0.61301101   -7.5063878    835.27282  0.017297731  0.016450166           32 
 4025000   0.61312201   -7.5157655    835.31271  0.017294259  0.016445039           28 
 4026000   0.60886759   -7.5097168    835.69635  0.017297904  0.016439912           16 
 4027000   0.60711074   -7.4944701    833.96252  0.017257729  0.016434783           26 
 4028000   0.60245411   -7.4963274    835.94797  0.017294521  0.016429664           19 
 4029000   0.61782333   -7.5098973    836.89418  0.017309799  0.016424543           15 
 4030000   0.61056338    -7.509508     835.7856  0.017282581  0.016419427           36 
 4031000   0.62457439   -7.5020647     836.2274  0.017287427  0.016414316           20 
 4032000   0.60804875   -7.5180121    833.44285  0.017225588  0.016409197           19 
 4033000   0.60482078   -7.5384781    834.99498  0.017253388  0.016404073           27 
 4034000   0.61496204   -7.5236863    834.61973  0.017241359  0.016398944           17 
 4035000   0.59540332   -7.5198285    834.08993  0.017226145  0.016393818           15 
 4036000    0.6152643   -7.5189135    835.98539  0.017261013  0.016388684           27 
 4037000   0.61090136   -7.5194415    834.79426   0.01723215  0.016383552           60 
 4038000   0.61329661   -7.5128948    836.28181  0.017258581  0.016378438           24 
 4039000   0.62505007   -7.5024916    834.56096  0.017218803  0.016373311           26 
 4040000   0.59711975   -7.5153533    834.28339  0.017208816  0.016368182           24 
 4041000   0.61832089   -7.5307625    835.72963  0.017234382  0.016363058           26 
 4042000   0.59939613   -7.5298253    835.32779  0.017221833   0.01635793           24 
 4043000   0.60120301   -7.5088435     833.9504  0.017189183  0.016352808           19 
 4044000    0.6180759   -7.5115813    834.52872   0.01719685  0.016347691           15 
 4045000   0.61900621   -7.5236998    834.95641  0.017201409  0.016342573           20 
 4046000   0.61303785   -7.5123983    834.98123  0.017197669   0.01633746           24 
 4047000   0.59722898   -7.5013624    834.20033   0.01717734  0.016332343           28 
 4048000   0.60258317    -7.518807    835.02594  0.017190093   0.01632723           13 
 4049000   0.61096056   -7.5197244    833.71191  0.017158803  0.016322117           17 
 4050000   0.60539044   -7.5241095    833.15631  0.017143134  0.016317001           15 
 4051000   0.59234918     -7.51411    834.05487  0.017157386  0.016311889           31 
 4052000    0.6048673   -7.4984664    833.84353  0.017148806   0.01630677           25 
 4053000   0.61009182   -7.5207286    835.84075  0.017185639   0.01630166           31 
 4054000   0.60617954   -7.5095585    835.38138  0.017171957  0.016296542           32 
 4055000   0.60375747   -7.5176185    834.57117  0.017151072  0.016291439           24 
 4056000   0.61095954   -7.5337171    834.54907   0.01714639  0.016286335           40 
 4057000   0.60880615   -7.5175926    833.19706  0.017114392  0.016281236           24 
 4058000   0.60276728   -7.5070731    835.66671   0.01716089  0.016276131           44 
 4059000   0.61450365   -7.5134799    833.76602   0.01711764  0.016271027           33 
 4060000   0.59666922   -7.4958676    834.49099  0.017128304  0.016265931           57 
 4061000     0.606651   -7.5047358    833.71466  0.017108156  0.016260838           45 
 4062000   0.61604859     -7.51521    835.40182  0.017138557  0.016255743           72 
 4063000   0.60181828   -7.5099536    834.77254  0.017121432  0.016250645           40 
 4064000   0.60887306   -7.5234248    835.97957   0.01714197   0.01624554           38 
 4065000   0.59772245   -7.5282262    835.71231  0.017132274  0.016240439           25 
 4066000   0.60803375   -7.5518822     835.3191  0.017120001  0.016235337           37 
 4067000   0.60400659   -7.5326437    834.68727  0.017102845  0.016230235           67 
 4068000   0.59612766   -7.5316647    833.64484  0.017077287  0.016225132           27 
 4069000   0.59760648   -7.5324902    833.80252  0.017076319  0.016220035           46 
 4070000   0.59883137   -7.5150115     835.2178  0.017101102  0.016214943           49 
 4071000   0.60165629   -7.5390704    834.65943  0.017085471  0.016209855           43 
 4072000   0.61430008   -7.5374781     833.5346  0.017058256  0.016204763           43 
 4073000   0.62016884    -7.525289    833.39296   0.01705117  0.016199676           48 
 4074000   0.61020058   -7.5300986    833.75066  0.017054301   0.01619459           36 
 4075000   0.60343081   -7.5167844    835.36492  0.017083127  0.016189509           39 
 4076000   0.58954534   -7.5185701    833.55251  0.017041882  0.016184432           49 
 4077000   0.58522618   -7.5269945    834.00181  0.017046885  0.016179357           44 
 4078000   0.60850226    -7.543635    835.07525  0.017064641  0.016174276           72 
 4079000   0.58917947   -7.5163209    835.63323  0.017071856  0.016169198           37 
 4080000   0.60504575   -7.5265731    835.35404   0.01706197  0.016164122           58 
 4081000   0.59965922   -7.5252475     834.1761  0.017033736  0.016159051           73 
 4082000   0.59643917   -7.5390544    837.12029  0.017089668  0.016153984           82 
 4083000   0.59474719   -7.5286374    833.42144  0.017009989  0.016148907           55 
 4084000   0.59948754   -7.5262123    834.61552  0.017030189  0.016143836           40 
 4085000   0.59993037   -7.5319551    834.59174  0.017025535  0.016138767           56 
 4086000   0.60849774   -7.5391382    834.94378  0.017028548  0.016133705           48 
 4087000   0.59044937   -7.5228059    835.17567   0.01702911  0.016128633           39 
 4088000   0.59109381   -7.5432423    834.33585  0.017007825   0.01612357           43 
 4089000   0.58856699   -7.5323481    834.74148  0.017011932  0.016118508           75 
 4090000   0.59870609   -7.5374494    834.57951  0.017004473  0.016113446           53 
 4091000   0.60065864   -7.5360897    834.29279  0.016994475  0.016108384           84 
 4092000   0.59072102   -7.5252222    834.63309  0.016997252  0.016103332           97 
 4093000   0.60084521    -7.517457    834.30321  0.016986383  0.016098281           73 
 4094000   0.59652062    -7.533857    834.34813  0.016983149  0.016093227           68 
 4095000   0.60411342   -7.5328114     833.0509  0.016952603  0.016088184           70 
 4096000   0.59360022   -7.5190054    835.55162  0.016999341  0.016083131           36 
 4097000   0.60463804   -7.5364596    834.11432  0.016965957  0.016078085           36 
 4098000   0.60140781   -7.5380858    833.68617  0.016953111  0.016073033           31 
 4099000   0.59695008   -7.5507734    834.04509  0.016956272  0.016067992           86 
 4100000    0.5943769   -7.5436705    834.61606  0.016963741  0.016062938           43 
 4101000   0.60668341   -7.5362285    834.61935  0.016959671  0.016057891           41 
 4102000   0.59381823   -7.5239186    833.84131  0.016939731  0.016052851          105 
 4103000   0.58452113   -7.5144913    834.11377  0.016941136  0.016047817           45 
 4104000    0.5910067   -7.5378018    835.69953  0.016969207  0.016042794           51 
 4105000   0.59873733   -7.5433115    835.27331  0.016956421  0.016037769           58 
 4106000   0.59670815   -7.5366102    835.02946  0.016947343  0.016032748           31 
 4107000   0.59221986   -7.5476091    835.35264  0.016949774  0.016027733           35 
 4108000   0.59896835   -7.5530008    834.34892  0.016925286  0.016022707           22 
 4109000   0.58931089   -7.5145305    834.38522  0.016921903  0.016017682           62 
 4110000   0.59653376   -7.5287793    834.48581  0.016919826  0.016012661           31 
 4111000   0.60395902   -7.5251885     834.4436  0.016914854   0.01600764           51 
 4112000   0.59751953   -7.5320169    834.26497  0.016907121  0.016002632           30 
 4113000   0.59123572   -7.5192844    834.03528  0.016898356  0.015997625           33 
 4114000   0.61184984   -7.5310488    834.88099   0.01691138  0.015992616           39 
 4115000   0.59709497   -7.5620315    835.50687  0.016919945  0.015987596           61 
 4116000   0.59547709   -7.5384131    834.41755  0.016893779  0.015982573           29 
 4117000   0.58573062   -7.5429794    835.89361  0.016919553  0.015977564           23 
 4118000   0.58675201   -7.5152206    834.70153  0.016891321  0.015972552           20 
 4119000   0.59504318   -7.5222215    834.66352  0.016886451  0.015967548           27 
 4120000     0.587008   -7.5395807    835.07958  0.016890768  0.015962544           25 
 4121000   0.59229328   -7.5278692    835.07448  0.016886566  0.015957538           31 
 4122000   0.59983714   -7.5239466    835.70016  0.016895119  0.015952539           22 
 4123000     0.595793   -7.5409773    834.59734  0.016868731  0.015947536           29 
 4124000   0.58000326   -7.5355531    835.13581  0.016875521  0.015942526           44 
 4125000   0.57957666   -7.5646627    833.92156    0.0168469   0.01593753           32 
 4126000   0.59087857    -7.528789     833.9277  0.016842941  0.015932522           55 
 4127000   0.60049378   -7.5413272    833.53613  0.016830953  0.015927509           39 
 4128000   0.59105709    -7.539181     834.0438  0.016837124  0.015922514           53 
 4129000   0.58848844   -7.5298254    832.51282  0.016802148  0.015917508           52 
 4130000   0.59748468   -7.5491548    834.48773  0.016837928  0.015912515           37 
 4131000    0.5857678   -7.5223767    835.49067  0.016854084  0.015907525           27 
 4132000   0.59155824   -7.5346469    835.11349  0.016842398  0.015902547           35 
 4133000   0.59184616   -7.5538727    834.22168  0.016820342  0.015897561           58 
 4134000    0.5893206   -7.5487319    835.90918   0.01685029  0.015892577           40 
 4135000    0.5978182   -7.5588009    834.18102  0.016811387   0.01588759           30 
 4136000    0.5881082   -7.5430722    834.43776  0.016812495  0.015882612           34 
 4137000   0.59209466   -7.5385927    834.80636  0.016815856  0.015877633           38 
 4138000   0.59356215   -7.5370275    835.66017  0.016828987  0.015872656           28 
 4139000   0.58958576   -7.5507323    834.16072  0.016794732  0.015867684           22 
 4140000    0.5966994   -7.5463749    833.78563  0.016783125  0.015862704           38 
 4141000   0.59591479   -7.5423262    834.90055  0.016801508  0.015857731           28 
 4142000   0.59106066   -7.5312824    834.69637  0.016793344  0.015852751           57 
 4143000   0.58846128   -7.5425207    834.61352  0.016787624  0.015847777           20 
 4144000    0.5925601    -7.563632    833.72652  0.016765736  0.015842805           34 
 4145000   0.58728304   -7.5457448    835.53536  0.016798057  0.015837837           48 
 4146000   0.58823778   -7.5504452    835.83512  0.016800031  0.015832866           35 
 4147000   0.59219422   -7.5491053    835.81447  0.016795564  0.015827898           45 
 4148000   0.57672901   -7.5541247    833.38506  0.016742708  0.015822922           48 
 4149000   0.58792715   -7.5281104    834.61379  0.016763352  0.015817948           34 
 4150000   0.59273806   -7.5511396     834.5942   0.01675892  0.015812984           51 
 4151000   0.60214092   -7.5721825    834.74665  0.016757943  0.015808015           32 
 4152000   0.58531085   -7.5430652    833.67877  0.016732474  0.015803057           44 
 4153000   0.56928301   -7.5584315    833.78984  0.016730673  0.015798092           47 
 4154000   0.58393633   -7.5441446     834.6582  0.016744066  0.015793128           56 
 4155000   0.58701076   -7.5424901    834.32645  0.016733382  0.015788164           64 
 4156000    0.5845845   -7.5331258    834.52526  0.016733342  0.015783212           64 
 4157000   0.58790454   -7.5339654    834.61882  0.016731193  0.015778271           67 
 4158000   0.59834276   -7.5393321    833.70556  0.016708866  0.015773326           76 
 4159000    0.5860919   -7.5398878    832.44409  0.016679572  0.015768379           62 
 4160000   0.59117784   -7.5495532    835.17325  0.016730233  0.015763432           65 
 4161000   0.57960328   -7.5561709     834.0565  0.016703847   0.01575848           76 
 4162000   0.59427894   -7.5477335    833.73221  0.016693341  0.015753532           59 
 4163000   0.58608425   -7.5395421      834.327  0.016701237  0.015748589          107 
 4164000   0.58873353   -7.5446733    834.66902  0.016704071  0.015743649           66 
 4165000   0.59658382   -7.5387606    834.30853  0.016692848  0.015738714           67 
 4166000   0.57615497   -7.5495179    835.01926  0.016703058  0.015733781           94 
 4167000   0.58190557   -7.5262559    834.49154  0.016688496  0.015728847           87 
 4168000   0.59481046   -7.5419282    834.22412  0.016679145  0.015723914           52 
 4169000   0.57736144   -7.5390621    833.77945  0.016666256  0.015718981           77 
 4170000   0.58273817   -7.5286318    836.69768  0.016720577  0.015714048           42 
 4171000   0.58811348   -7.5641134    833.86773  0.016660028  0.015709113           97 
 4172000   0.58608472   -7.5388663    835.29253  0.016684494  0.015704178           83 
 4173000   0.58535104   -7.5428534    834.20791  0.016658837  0.015699245           48 
 4174000   0.58486937   -7.5353119    834.90375  0.016668738  0.015694314           89 
 4175000   0.57124467   -7.5617545    833.34541  0.016633641   0.01568938           87 
 4176000   0.58054038   -7.5616985    833.48025  0.016632348  0.015684442          117 
 4177000   0.58646095   -7.5529596    833.77941  0.016634335  0.015679506           72 
 4178000   0.58296086   -7.5587118     832.6884  0.016608593   0.01567457           85 
 4179000   0.57046605   -7.5473363    834.71788  0.016645088  0.015669634          106 
 4180000    0.5927525   -7.5690678    833.56983  0.016618218  0.015664699           86 
 4181000   0.58311633    -7.558967    835.06284  0.016644002  0.015659771           96 
 4182000   0.60000829    -7.574484    833.50063  0.016608892  0.015654848          103 
 4183000   0.57749251   -7.5574607    834.19484  0.016618751  0.015649925          136 
 4184000   0.57879783   -7.5521082    834.47774  0.016620414  0.015645006          126 
 4185000   0.59004819   -7.5508049     833.4483  0.016595944  0.015640086          118 
 4186000   0.58517909   -7.5505501    832.46129   0.01657233  0.015635163           89 
 4187000   0.58670599   -7.5665564    832.87235  0.016576553  0.015630238          133 
 4188000   0.58791526    -7.568264    833.42973  0.016583686  0.015625312          132 
 4189000   0.59255574   -7.5310551    833.35932  0.016578327    0.0156204          116 
 4190000   0.57722182   -7.5552342    833.48186  0.016576807  0.015615485          107 
 4191000   0.58515275   -7.5609613    832.83496  0.016559989  0.015610565          150 
 4192000   0.58092735   -7.5479391    833.21627  0.016563619  0.015605651          133 
 4193000   0.55675995   -7.5692664    835.84957  0.016612004  0.015600743          143 
 4194000   0.58587741   -7.5575828    834.11597  0.016573597  0.015595827          119 
 4195000   0.59168172   -7.5628318     835.0898  0.016588991  0.015590919          137 
 4196000   0.58728781   -7.5517589    833.62172  0.016555881  0.015586015           94 
 4197000     0.592625   -7.5438607    833.67066  0.016552908   0.01558112          116 
 4198000   0.56939068   -7.5650637    833.92178   0.01655395  0.015576217          139 
 4199000   0.57603422   -7.5620793    834.14311    0.0165544  0.015571317          117 
 4200000   0.57517173    -7.557975    832.98563  0.016527493  0.015566416          142 
 4201000   0.58821781   -7.5807781    833.20338  0.016527878  0.015561516          123 
 4202000   0.57710557   -7.5709906    834.63357  0.016552308  0.015556618           64 
 4203000   0.57299592   -7.5469926      835.088   0.01655738  0.015551724          141 
 4204000   0.57395642    -7.548512    835.21495  0.016555958  0.015546831          106 
 4205000   0.57960663   -7.5647786    833.63219  0.016520654  0.015541937          101 
 4206000   0.57736594   -7.5776169    832.86454  0.016501517  0.015537046          131 
 4207000   0.57570162   -7.5545343     834.4555  0.016529108  0.015532153          151 
 4208000   0.55890749   -7.5508787    833.13542  0.016499038  0.015527262          101 
 4209000   0.57448751   -7.5486575    833.76825  0.016507647  0.015522374          130 
 4210000   0.58018564   -7.5705255    833.96183  0.016507558  0.015517487          135 
 4211000   0.56547135   -7.5753031    834.90987  0.016522399  0.015512596          119 
 4212000   0.58028003   -7.5676238    832.78197  0.016476377  0.015507711          135 
 4213000   0.57733389   -7.5678685    834.03635  0.016497277   0.01550283          126 
 4214000   0.58649827   -7.5583261    834.75177   0.01650751  0.015497959          127 
 4215000   0.57245163   -7.5636176    832.22025  0.016453544   0.01549308          124 
 4216000   0.57188757   -7.5568306    833.04135  0.016465871  0.015488202          117 
 4217000   0.57941197   -7.5747818    833.72029  0.016475383  0.015483325          149 
 4218000   0.57437108   -7.5760877     833.9321  0.016475662  0.015478453          108 
 4219000   0.57316555   -7.5916465    833.00993  0.016453542  0.015473586          157 
 4220000   0.57801944   -7.5778084    834.06465  0.016470471  0.015468714          133 
 4221000   0.57971114   -7.5606833    834.15021  0.016468258  0.015463851           96 
 4222000   0.57645843   -7.5821953    831.85244  0.016419004  0.015458984          148 
 4223000   0.57926693   -7.5523475    833.79825  0.016453514  0.015454121           90 
 4224000   0.56423287   -7.5686061    832.73261  0.016428595  0.015449258          205 
 4225000   0.57116857   -7.5656019    833.61494  0.016442109  0.015444399          143 
 4226000   0.58149971   -7.5844232    833.23604  0.016430747  0.015439531          171 
 4227000     0.593126   -7.5771082    834.44273  0.016450649  0.015434663          118 
 4228000   0.57378405   -7.5904464    834.73382  0.016452496  0.015429795          150 
 4229000   0.58250086   -7.5921201    833.40525  0.016422426   0.01542493          123 
 4230000   0.57461843   -7.5717267    832.80732  0.016406764   0.01542007          156 
 4231000   0.57898727   -7.5879408    834.62917  0.016438769   0.01541522          136 
 4232000   0.58982703   -7.5779273    833.80176  0.016418592  0.015410372          159 
 4233000   0.57820461   -7.5911259     833.3091  0.016405014  0.015405512          139 
 4234000   0.57821748   -7.5651959    832.14002   0.01637813  0.015400665          151 
 4235000   0.58402257   -7.5811136    832.57184   0.01638276  0.015395818          127 
 4236000   0.57770098   -7.5759155    832.11087  0.016369824  0.015390971          113 
 4237000   0.57085064   -7.5713822    832.67595  0.016377074  0.015386115          132 
 4238000   0.57193506   -7.5798856    834.33884  0.016405908  0.015381264          137 
 4239000   0.58404976   -7.5906432    832.95455  0.016374824  0.015376409          165 
 4240000    0.5748714   -7.5902886    833.84468  0.016388457  0.015371564          148 
 4241000   0.57860002   -7.5814239    834.01696  0.016387978  0.015366707          161 
 4242000   0.57474152   -7.5692878    832.50887  0.016354488  0.015361862          143 
 4243000    0.5775498   -7.5822962    831.90317  0.016338738  0.015357019          101 
 4244000   0.56941892   -7.5863111    833.89192  0.016373938  0.015352179          132 
 4245000   0.57534353    -7.595064    832.94412  0.016351475  0.015347339          136 
 4246000   0.57635432   -7.5916559    834.26874  0.016373621  0.015342512          145 
 4247000   0.57432623   -7.5993856    833.63229  0.016357278  0.015337685          157 
 4248000   0.57455805    -7.580965    833.75413  0.016355817  0.015332855          148 
 4249000   0.57378408   -7.5658942    834.04727  0.016357717  0.015328026          114 
 4250000    0.5759453   -7.5805414    832.74443  0.016328322    0.0153232          132 
 4251000    0.5871179   -7.5559248    833.95278  0.016348169  0.015318377          216 
 4252000   0.58513346   -7.5667338    832.82543  0.016322229  0.015313558          154 
 4253000   0.56877606   -7.5998672     835.2638  0.016366169  0.015308742          128 
 4254000   0.57722399   -7.5828063    833.79361  0.016333521  0.015303926          145 
 4255000    0.5736571    -7.590385    831.54423  0.016285629  0.015299111          150 
 4256000   0.58882841   -7.5838691    832.15756  0.016293812  0.015294297          153 
 4257000   0.56957808   -7.5915664    834.36968  0.016333288  0.015289483          137 
 4258000   0.57588156   -7.5777478    833.69397  0.016316228   0.01528467          121 
 4259000   0.58163326   -7.5872961    833.09453  0.016300668  0.015279855          129 
 4260000   0.57467958   -7.5835021    833.89936  0.016312585  0.015275039          119 
 4261000   0.58163055   -7.5740941    833.22864   0.01629564   0.01527023          136 
 4262000   0.57040356   -7.5575189    833.76883  0.016302378   0.01526543          133 
 4263000   0.57386963   -7.5865872    833.50873   0.01629347   0.01526064          155 
 4264000   0.57216734   -7.5771054     832.3999  0.016267978  0.015255845          141 
 4265000    0.5783804   -7.6037346    833.67355  0.016289049   0.01525105          140 
 4266000   0.57405501   -7.5867563    832.90494  0.016270217  0.015246256          118 
 4267000   0.56243348   -7.5847041    832.96277  0.016267533   0.01524147          195 
 4268000   0.55435034   -7.6028008    834.22011  0.016288271  0.015236682          141 
 4269000   0.56685066   -7.5831187    833.86665  0.016277556  0.015231893          103 
 4270000   0.54761936   -7.5809871    833.00246  0.016256879  0.015227108          122 
 4271000   0.56277194   -7.5832383    833.99632  0.016272464  0.015222326          135 
 4272000   0.58070058   -7.5765321     833.5525  0.016259997  0.015217543          159 
 4273000     0.574872    -7.605379    832.77039  0.016240939  0.015212758          136 
 4274000   0.57893298   -7.5910867    832.35591  0.016229058  0.015207974          164 
 4275000   0.56517999   -7.5673172    832.51532  0.016228369  0.015203189          192 
 4276000   0.56703467   -7.5811457    833.90178  0.016251594  0.015198408          131 
 4277000   0.56142359   -7.5714024    833.61334  0.016242174  0.015193633          131 
 4278000   0.56248044    -7.591717    834.34278  0.016252587  0.015188852          148 
 4279000   0.57154573   -7.5873837    833.20745  0.016226678  0.015184073          128 
 4280000   0.57108902   -7.6011249     833.1369  0.016221513  0.015179295          126 
 4281000    0.5717243   -7.5946579    831.89762    0.0161936  0.015174516           94 
 4282000   0.55892017   -7.6057161    833.63895  0.016223707  0.015169739          135 
 4283000   0.56804063   -7.5962612    834.48316  0.016236345  0.015164966          105 
 4284000   0.56758364    -7.580979    833.97847  0.016222737  0.015160197           94 
 4285000    0.5688184     -7.58345    833.17672  0.016203359  0.015155426          116 
 4286000   0.56398355   -7.5994156    832.11597  0.016178954  0.015150652          125 
 4287000   0.56502591   -7.6016705    833.06551  0.016193638  0.015145877          123 
 4288000   0.57013193   -7.5999267    832.45376  0.016177973  0.015141104          134 
 4289000   0.54763527   -7.6031462    832.24329  0.016170111  0.015136341          161 
 4290000   0.56944572   -7.6165935    832.91376  0.016179366  0.015131568          148 
 4291000   0.57537653    -7.611182      834.107  0.016198769    0.0151268          119 
 4292000    0.5632761     -7.60624    833.18034  0.016177003  0.015122032          119 
 4293000    0.5602257    -7.596672     832.5787  0.016161556  0.015117267          129 
 4294000   0.57100059   -7.6019939    832.98705  0.016165717  0.015112508          129 
 4295000   0.55340531   -7.6008748    833.97668  0.016181154  0.015107746          120 
 4296000    0.5703069   -7.5985702    833.98635  0.016177575  0.015102982           98 
 4297000    0.5606619   -7.5923564     832.5266  0.016145501  0.015098221          123 
 4298000   0.56304824   -7.6094986    831.97529  0.016131055  0.015093468          151 
 4299000   0.55781302   -7.5906822    833.42496  0.016155404  0.015088715          178 
 4300000   0.55961979   -7.6124224    833.29153  0.016149061  0.015083955           97 
 4301000   0.56256371   -7.5925568    833.71128  0.016153439   0.01507921          149 
 4302000   0.57048009   -7.6213758    833.91274  0.016153586  0.015074469          175 
 4303000   0.56467032   -7.5926592    832.91211  0.016130454  0.015069733          181 
 4304000   0.55837096   -7.5968216    832.51761  0.016119068  0.015064998          169 
 4305000   0.55937175   -7.6076172    833.02862  0.016125215  0.015060256          186 
 4306000   0.55816381   -7.6060631    832.71251  0.016115353   0.01505552          159 
 4307000   0.55875186   -7.6054756      833.633  0.016129421  0.015050795          153 
 4308000   0.54480325    -7.596679    832.83828  0.016110304  0.015046066          172 
 4309000   0.56424028   -7.5946025     834.5226  0.016139139   0.01504134          126 
 4310000   0.55399306    -7.607342    832.32631   0.01609293  0.015036613          174 
 4311000   0.56214738   -7.6091719    832.21417  0.016087029  0.015031885          152 
 4312000   0.56086356   -7.5907982    831.31319  0.016065886  0.015027156          194 
 4313000   0.56925599   -7.6256172    833.53765   0.01610514  0.015022427          137 
 4314000     0.560731   -7.5974367    833.76974  0.016105891  0.015017697          187 
 4315000   0.56395837   -7.5866307    833.19757  0.016091108  0.015012979          167 
 4316000    0.5782803   -7.6009716    832.99942  0.016083554  0.015008255          140 
 4317000      0.55571   -7.5938233    832.82262  0.016076415  0.015003534          230 
 4318000   0.55692935    -7.595172    832.02391  0.016057278  0.014998817           83 
 4319000   0.55886686   -7.5977903    833.10304  0.016074381  0.014994097          132 
 4320000   0.54731768   -7.5954906    833.10615  0.016070721  0.014989383          157 
 4321000    0.5687529   -7.6052472    833.41002  0.016072862  0.014984662          189 
 4322000   0.56078802   -7.5871251    832.63762   0.01605425  0.014979947          153 
 4323000   0.55498736   -7.5871361    833.41789  0.016065577  0.014975234          146 
 4324000   0.57235655   -7.5946834    832.72335  0.016048477  0.014970523          131 
 4325000   0.55314768   -7.5904571    832.53813  0.016041197  0.014965813          199 
 4326000   0.55284505   -7.5962333    831.71165  0.016021568  0.014961098          228 
 4327000   0.56877847   -7.5964053    832.40874  0.016031291  0.014956398          203 
 4328000   0.55900873   -7.5862418     833.5781  0.016050102  0.014951703          209 
 4329000   0.56592211   -7.5837732    834.15731  0.016057544  0.014947016          164 
 4330000   0.56009666   -7.5942824    833.96091  0.016050056  0.014942331          187 
 4331000   0.57378345   -7.5903549    832.68211  0.016021745  0.014937645          146 
 4332000   0.55782065   -7.5813687    832.90523  0.016022338  0.014932959          156 
 4333000   0.56041217   -7.5786135    834.27862  0.016045054  0.014928273          191 
 4334000   0.55716962   -7.6167544    831.98077  0.015997169  0.014923582          189 
 4335000   0.54837559   -7.5951158    833.52977  0.016023256  0.014918893          161 
 4336000   0.56005806   -7.5848439    832.63421  0.016002349  0.014914207          163 
 4337000   0.54875065   -7.5883099    834.99823  0.016044083  0.014909522          148 
 4338000   0.55516084   -7.6060494    832.56015  0.015993548  0.014904835          160 
 4339000   0.56005376   -7.6065591    832.48434  0.015988406  0.014900151          138 
 4340000   0.55250529   -7.6225981    833.12289  0.015996983  0.014895461          137 
 4341000   0.55125936   -7.6036628    831.59495  0.015963967   0.01489077          164 
 4342000   0.54776253   -7.5963644    832.25869  0.015973029  0.014886082          200 
 4343000     0.555006   -7.6188379    832.68647  0.015977559  0.014881395          187 
 4344000   0.56314651   -7.6096912    833.25976  0.015984879  0.014876708          118 
 4345000   0.57009512   -7.6093762    831.88172   0.01595477  0.014872021          155 
 4346000   0.56077621   -7.6067834    832.95357  0.015971652  0.014867341          252 
 4347000    0.5555845   -7.6136388    833.30855  0.015974782  0.014862658          153 
 4348000   0.55219626   -7.5792756    831.77055  0.015941631  0.014857981          198 
 4349000   0.54490868   -7.6217805    832.83724  0.015958405  0.014853301          283 
 4350000   0.56191608   -7.6074237    830.74383  0.015914633  0.014848617          231 
 4351000   0.54353786   -7.6061196    833.07698  0.015955661  0.014843942          248 
 4352000   0.55004489   -7.6119711    832.56144  0.015942123  0.014839275          249 
 4353000   0.56033449   -7.6270979    833.80943  0.015962352  0.014834605          204 
 4354000   0.54887084   -7.6015817    832.99816  0.015943159  0.014829939          259 
 4355000   0.55321249   -7.6038715    833.51721   0.01594943  0.014825274          255 
 4356000   0.54391738   -7.6031965      834.009  0.015955177  0.014820611          251 
 4357000   0.56283514    -7.595657    833.95098  0.015950405  0.014815954          184 
 4358000   0.55089282   -7.6018385     831.8794  0.015907132  0.014811298          248 
 4359000   0.55769747   -7.6050624    834.50082  0.015953598  0.014806639          170 
 4360000   0.55083699    -7.616078    833.07421  0.015922672  0.014801981          190 
 4361000   0.55354352   -7.6144454    833.94787  0.015935716  0.014797328          225 
 4362000   0.56288116   -7.6133255    831.24026  0.015880335  0.014792676          222 
 4363000    0.5511853   -7.5978868    833.63751  0.015922483  0.014788022          256 
 4364000   0.54695965   -7.6130418    834.66614  0.015938477  0.014783375          156 
 4365000   0.54791177   -7.6083338     833.3438   0.01590958  0.014778731          176 
 4366000   0.55302652   -7.6181153     832.0187  0.015880644  0.014774079          206 
 4367000    0.5598622   -7.6201439    832.99277  0.015895595  0.014769435          155 
 4368000    0.5426926   -7.6059769    830.35015   0.01584154  0.014764788          202 
 4369000   0.55159311   -7.5879985     832.2103  0.015873394  0.014760146          222 
 4370000    0.5447269   -7.6134667     832.1349  0.015868324   0.01475551          175 
 4371000   0.55097431   -7.5965662     832.8641  0.015878596   0.01475086          172 
 4372000   0.54458403   -7.6245189    831.95653  0.015857665  0.014746219          222 
 4373000   0.55450059   -7.6126672    833.53935  0.015884201   0.01474158          214 
 4374000   0.54905441   -7.5957568    832.60881  0.015862841  0.014736947          122 
 4375000   0.54898659   -7.6159233    832.25268  0.015852432  0.014732313          196 
 4376000   0.55335606   -7.5931361    832.44882  0.015852545  0.014727681          228 
 4377000   0.54980579   -7.6088141     832.8812  0.015857155  0.014723047          122 
 4378000   0.54368411   -7.6098633    833.40201  0.015863446  0.014718415          152 
 4379000     0.551449   -7.6134915    831.33868  0.015820558  0.014713779          228 
 4380000   0.54872637   -7.6345415    832.76251  0.015844036  0.014709153          137 
 4381000   0.54308933   -7.6108998    831.73369  0.015820849  0.014704521          260 
 4382000   0.54717176   -7.6180073    832.34149  0.015828797   0.01469989          215 
 4383000   0.54849624   -7.5929643    831.08126  0.015801225  0.014695271          281 
 4384000   0.55296093   -7.6169768    831.77817  0.015810869  0.014690648          243 
 4385000   0.55971591   -7.6174503     832.9244  0.015829046  0.014686022          305 
 4386000   0.55897946   -7.6276549    831.73868  0.015802909  0.014681401          147 
 4387000   0.55014629   -7.6194597    830.31032  0.015772174  0.014676775          185 
 4388000   0.55018351   -7.6330859    833.38263  0.015826926  0.014672152          289 
 4389000    0.5598432   -7.6209058    832.57832  0.015808049  0.014667538          235 
 4390000   0.55611082   -7.6119296    832.46184  0.015802237  0.014662924          150 
 4391000    0.5526447   -7.6134624    831.69419   0.01578407  0.014658312          237 
 4392000   0.53917695   -7.6113153    834.04652  0.015825108  0.014653698          241 
 4393000   0.55110978   -7.6205396    832.40414  0.015790351  0.014649093          293 
 4394000   0.55729583   -7.6172601    831.65509  0.015772551  0.014644491          203 
 4395000     0.567822   -7.6161586    834.10165  0.015815352  0.014639882          301 
 4396000   0.54949129   -7.6082216    833.34442    0.0157974   0.01463528          149 
 4397000   0.56659232   -7.6297723    832.12803  0.015770753  0.014630678          303 
 4398000   0.54222388   -7.6141119    832.29703   0.01577037  0.014626073          172 
 4399000   0.56887225   -7.6214053    830.91599  0.015740623   0.01462147          170 
 4400000   0.55002396   -7.6279508    831.48904  0.015747898  0.014616873          261 
 4401000   0.54422502   -7.6182587    831.85606   0.01575127  0.014612272          210 
 4402000   0.54501646   -7.6218201    831.25505  0.015736314  0.014607674          213 
 4403000   0.55149763   -7.6314391    831.81513   0.01574334  0.014603074          165 
 4404000   0.53663802   -7.6174284    832.25686  0.015748124  0.014598483          206 
 4405000   0.54023622   -7.6317278    831.93657   0.01573849  0.014593888          263 
 4406000   0.55474388   -7.6306711    830.27851  0.015703558  0.014589299          287 
 4407000   0.54919989   -7.6280365    832.28656  0.015737965  0.014584709          205 
 4408000   0.54008274   -7.6382921    832.95928  0.015747113  0.014580121          164 
 4409000    0.5605384   -7.6250995    833.33337  0.015750612  0.014575536          208 
 4410000   0.55846461   -7.6218514    833.25943  0.015745643  0.014570955          245 
 4411000   0.53276914   -7.6211755    832.61448  0.015729889  0.014566377          208 
 4412000   0.54442439    -7.627011    831.94229  0.015713627  0.014561795          196 
 4413000   0.54813252   -7.6410953    831.33701  0.015698637  0.014557211          198 
 4414000     0.545169   -7.6231242    833.56853   0.01573721   0.01455263          270 
 4415000   0.54187442   -7.6263573    831.73317  0.015699003  0.014548043          185 
 4416000   0.54544882   -7.6559784    831.90428  0.015698677   0.01454346          245 
 4417000   0.54507736   -7.6193792    832.46606  0.015705722  0.014538876          206 
 4418000   0.54301541   -7.6202036    831.39083  0.015681885  0.014534296          266 
 4419000   0.54185776   -7.6213869    830.60165  0.015663454  0.014529716          256 
 4420000   0.54507967    -7.617215    831.77144  0.015681965  0.014525139          195 
 4421000   0.54925724   -7.6596277    831.60042  0.015675195  0.014520564          178 
 4422000   0.54513203   -7.6351155    832.34514  0.015685684  0.014515992          262 
 4423000   0.53651404   -7.6357519    832.05517  0.015676674  0.014511419          259 
 4424000   0.53604835   -7.6448104    832.35145  0.015678712  0.014506852          205 
 4425000   0.53928073   -7.6419351    831.69537  0.015662813  0.014502286          189 
 4426000   0.54305634   -7.6379397    832.26632  0.015670024  0.014497731          191 
 4427000   0.54165348   -7.6365314    832.03309  0.015662094  0.014493165          277 
 4428000   0.54237811   -7.6329319    832.47789  0.015666928  0.014488606          186 
 4429000   0.53828964   -7.6305212    832.97949  0.015672828  0.014484051          200 
 4430000   0.54328603   -7.6396136    831.85884   0.01564821    0.0144795          206 
 4431000   0.54622941   -7.6439017    831.76157  0.015642849  0.014474952          220 
 4432000   0.55080447   -7.6432969    832.10999  0.015645871  0.014470393          279 
 4433000   0.54329735   -7.6444588     833.3989  0.015666571  0.014465841          216 
 4434000   0.53331983   -7.6436212    832.11353   0.01563888  0.014461285          200 
 4435000   0.54201912   -7.6248103    830.58185  0.015606574  0.014456725          196 
 4436000    0.5477608   -7.6525734    831.58353  0.015621873  0.014452177          231 
 4437000    0.5441305   -7.6456178    831.46888  0.015616199  0.014447624          249 
 4438000   0.54672878   -7.6515591    831.89626  0.015620705  0.014443071          223 
 4439000   0.54790144   -7.6484325    831.19664  0.015604052  0.014438525          226 
 4440000   0.53829901   -7.6509705     831.3093  0.015602652  0.014433969          191 
 4441000   0.54600611   -7.6520687    831.06227  0.015594503   0.01442942          273 
 4442000   0.52966512   -7.6623763    831.54348   0.01560002  0.014424866          246 
 4443000   0.53332369   -7.6410823    830.81737   0.01558289  0.014420318          222 
 4444000   0.55232104   -7.6600559    831.68439  0.015595642  0.014415774          251 
 4445000   0.54315936   -7.6442819    832.16048  0.015601059  0.014411231          243 
 4446000   0.53949266   -7.6116635    831.94438  0.015593499  0.014406687          361 
 4447000   0.53740194   -7.6543318    831.61449  0.015583811  0.014402152          233 
 4448000   0.54872215   -7.6521273     831.7999  0.015583781  0.014397615          253 
 4449000   0.55142216   -7.6441524    831.10218  0.015567209  0.014393079          293 
 4450000    0.5469355   -7.6483798    830.45508  0.015551593  0.014388541          435 
 4451000   0.54903528   -7.6497014    832.39607  0.015584439  0.014384005          278 
 4452000   0.54877754   -7.6477399    831.08513    0.0155564  0.014379474          209 
 4453000   0.52756451   -7.6459614    830.13034  0.015535039  0.014374948          235 
 4454000    0.5301711   -7.6428654    831.06422  0.015549024  0.014370415          274 
 4455000   0.53805573   -7.6595316    831.23176  0.015548667  0.014365893          295 
 4456000   0.53569989   -7.6423077    831.00572  0.015540951  0.014361366          243 
 4457000   0.53672436   -7.6446637    830.68006  0.015531375  0.014356841          347 
 4458000   0.53718552   -7.6554472    830.08529  0.015516773  0.014352318          279 
 4459000   0.54063634   -7.6522075    831.95598  0.015548254  0.014347797          337 
 4460000   0.53124252    -7.643144    831.58716  0.015537877  0.014343278          416 
 4461000   0.53288642   -7.6280092    831.64705  0.015535512  0.014338763          309 
 4462000   0.52778928   -7.6446955    830.99638  0.015519879  0.014334244          269 
 4463000   0.55262874   -7.6224001    830.51034  0.015507326  0.014329727          338 
 4464000   0.53792984   -7.6625154    831.45607  0.015521507  0.014325213          331 
 4465000   0.52985411   -7.6563068    830.48416  0.015499891  0.014320702          270 
 4466000   0.53922384    -7.658094    831.41093  0.015513713   0.01431619          239 
 4467000   0.53828385    -7.653285    830.50081  0.015493262  0.014311679          388 
 4468000    0.5441735   -7.6591087    830.89885  0.015497218  0.014307172          289 
 4469000   0.53741795   -7.6595506    830.09338  0.015478731  0.014302665          291 
 4470000   0.53555054   -7.6525777    830.37282  0.015480478  0.014298159          315 
 4471000   0.53910651   -7.6365715    830.12884  0.015472468  0.014293658          239 
 4472000   0.54138422   -7.6470001    831.28858  0.015490619  0.014289155          334 
 4473000   0.53352412   -7.6502007     830.5442  0.015473288  0.014284652          365 
 4474000   0.53554654   -7.6548468    829.83726  0.015456662  0.014280152          261 
 4475000    0.5351808   -7.6461275    830.92295  0.015473426  0.014275652          392 
 4476000   0.52802401    -7.650309    830.69559  0.015465736  0.014271152          304 
 4477000   0.54176635   -7.6648766    830.65406  0.015461508  0.014266656          392 
 4478000   0.54132901   -7.6505934    830.79657  0.015460707  0.014262157          345 
 4479000   0.53458425    -7.676084     831.3085   0.01546678  0.014257662          436 
 4480000   0.53495091   -7.6707977    830.49512  0.015448198  0.014253165          410 
 4481000    0.5299137   -7.6667094    828.96964  0.015416381  0.014248667          369 
 4482000   0.54400807   -7.6641911    829.89015  0.015430056  0.014244172          327 
 4483000   0.52967809   -7.6532216    830.78372  0.015443225  0.014239679          398 
 4484000   0.53499194   -7.6691826    829.54431  0.015416747  0.014235187          487 
 4485000   0.53074943   -7.6538783    831.73777  0.015454065  0.014230697          329 
 4486000   0.52567495   -7.6530287    831.66506  0.015449269  0.014226208          368 
 4487000   0.53414905   -7.6701574     830.5851  0.015425769  0.014221724          427 
 4488000    0.5284022   -7.6720176    831.81549  0.015445178   0.01421724          308 
 4489000    0.5259942   -7.6788393    829.87675  0.015405747  0.014212752          396 
 4490000   0.53694963   -7.6428179    830.77242  0.015418939  0.014208265          395 
 4491000   0.52683818   -7.6455158    830.49022  0.015410269  0.014203778          424 
 4492000   0.53251791   -7.6512017     830.1036  0.015399666  0.014199297          315 
 4493000   0.54073062    -7.661766    832.43857  0.015439546  0.014194822          385 
 4494000   0.53297693   -7.6592546    830.86369  0.015406907  0.014190345          347 
 4495000   0.52975301    -7.660658    830.69383  0.015400331  0.014185868          349 
 4496000    0.5348473   -7.6479056    831.08278  0.015404114  0.014181397          329 
 4497000    0.5293453   -7.6635515    831.17595  0.015402416  0.014176923          355 
 4498000   0.54352102   -7.6634766    830.46789  0.015385873  0.014172452          264 
 4499000    0.5467924   -7.6579762    831.84473  0.015407956  0.014167982          323 
 4500000   0.52750949   -7.6607886    830.67311  0.015382835  0.014163514          380 
 4501000   0.52361445   -7.6541109    831.05997   0.01538658  0.014159046          371 
 4502000   0.53012309   -7.6636911    830.66076  0.015375773   0.01415458          355 
 4503000   0.53464955   -7.6648344    828.63273  0.015334827  0.014150115          393 
 4504000   0.53497526   -7.6668966    829.94172  0.015355642  0.014145653          352 
 4505000   0.52622903   -7.6706655    830.78409  0.015367815  0.014141195          330 
 4506000   0.53375855    -7.666151    830.86047  0.015365817  0.014136734          329 
 4507000   0.53753314   -7.6613922    832.23436  0.015387811  0.014132276          448 
 4508000   0.53768613   -7.6648825    830.65065  0.015355122  0.014127823          448 
 4509000   0.52136646   -7.6464068    830.58682  0.015350536  0.014123366          407 
 4510000   0.53144193   -7.6622278    830.50221  0.015345569  0.014118906          392 
 4511000   0.52550237   -7.6454693    829.24103  0.015318869   0.01411445          428 
 4512000   0.52606505   -7.6706036      830.349  0.015335937  0.014109998          404 
 4513000   0.53430775   -7.6742319    830.24191  0.015330562  0.014105542          412 
 4514000   0.53826659   -7.6710858    829.56678  0.015314702  0.014101086          423 
 4515000   0.52877097    -7.670235    829.71749  0.015314092  0.014096633          443 
 4516000   0.53294641   -7.6798382    830.18179  0.015319268  0.014092185          363 
 4517000   0.52576003   -7.6575463    831.17386  0.015334179  0.014087739          241 
 4518000   0.51335348   -7.6773456     831.4105   0.01533515  0.014083298          366 
 4519000   0.53755275    -7.673742    831.07313  0.015325535  0.014078855          451 
 4520000   0.53141481   -7.6751498    828.55116  0.015275648  0.014074417          348 
 4521000    0.5329205   -7.6729343    830.19531  0.015302575  0.014069977          335 
 4522000    0.5279911   -7.6690795    830.29772  0.015301078  0.014065539          351 
 4523000   0.53131617   -7.6882565    830.75912  0.015306196  0.014061098          389 
 4524000   0.52338444   -7.6883344    829.20052  0.015274103  0.014056659          383 
 4525000   0.53234825   -7.6661854    828.29291  0.015254013  0.014052227          352 
 4526000   0.53727412   -7.6603355    829.51048  0.015273061  0.014047796          370 
 4527000   0.52315753   -7.6662364     829.5923  0.015271193  0.014043371          386 
 4528000   0.53496849   -7.6687756    829.99865  0.015275299  0.014038938          394 
 4529000   0.53089916   -7.6525047    830.29484  0.015277376  0.014034511          413 
 4530000   0.52597469   -7.6504833    830.19874  0.015272236  0.014030084          404 
 4531000   0.53388895    -7.671934    829.29435  0.015252232  0.014025662          311 
 4532000   0.52494388   -7.6767477     829.8765  0.015259571  0.014021242          353 
 4533000   0.52068756   -7.6815397    831.35429  0.015283372  0.014016823          379 
 4534000   0.52234249   -7.6677609    829.62011  0.015248127  0.014012408          353 
 4535000   0.52122163   -7.6665687     829.4743  0.015242086  0.014007991          337 
 4536000   0.52815866    -7.680342    829.09029   0.01523167  0.014003574          374 
 4537000   0.52393533   -7.6814546    829.94028  0.015243925  0.013999158          398 
 4538000   0.52145538   -7.6766134     829.8847  0.015239546  0.013994739          389 
 4539000   0.52915876   -7.6853762    830.66392  0.015250494  0.013990324          424 
 4540000    0.5274169   -7.6813117    829.81825  0.015231612  0.013985907          402 
 4541000   0.51265303    -7.670364    829.39586  0.015220507  0.013981493          445 
 4542000   0.52097416   -7.6792754    828.98682  0.015209651  0.013977085          395 
 4543000   0.51024297   -7.6638385    829.74162  0.015220148  0.013972675          421 
 4544000   0.53333951   -7.6825457     830.4712  0.015230179  0.013968269          386 
 4545000   0.51938804   -7.6531256    830.62356  0.015229622  0.013963868          338 
 4546000   0.52786437   -7.6664953      830.352  0.015221293  0.013959468          396 
 4547000   0.53285614   -7.6721557    831.33607  0.015235981   0.01395507          361 
 4548000   0.52215225     -7.67595    830.81945  0.015223165  0.013950673          375 
 4549000   0.51794147   -7.6880035    830.02229  0.015205215  0.013946276          357 
 4550000   0.51747648   -7.6643929    829.46661  0.015191696  0.013941882          296 
 4551000   0.52092561   -7.6861095    831.04532  0.015217266  0.013937486          373 
 4552000   0.53443829   -7.6785367    830.44726  0.015202974  0.013933096          359 
 4553000   0.52815786   -7.6875672    829.52028  0.015182669  0.013928709          353 
 4554000   0.52585311    -7.670394    829.71631  0.015182922  0.013924322          374 
 4555000   0.52880834   -7.6824724    830.02214  0.015185184  0.013919942          337 
 4556000   0.52430005   -7.6853169    829.87636  0.015179184  0.013915558          336 
 4557000   0.51792518   -7.6760709    830.05879  0.015179189  0.013911179          341 
 4558000   0.52363004   -7.6795369    829.42544   0.01516428  0.013906801          308 
 4559000   0.52219568    -7.697985    830.41489  0.015179039  0.013902417          275 
 4560000   0.51870848   -7.6696625    829.39595   0.01515709  0.013898036          322 
 4561000   0.51650147   -7.6752571    830.87705  0.015180828  0.013893654          349 
 4562000   0.53001965    -7.689551    829.98487  0.015161203  0.013889279          304 
 4563000   0.51625177   -7.6687732    828.25707  0.015126325  0.013884908          369 
 4564000      0.52986   -7.6565241    830.13402  0.015157282  0.013880536          297 
 4565000   0.53883352   -7.6833457    829.51404  0.015142644  0.013876169          375 
 4566000   0.52672704   -7.6647892    830.01241  0.015148423  0.013871806          384 
 4567000   0.53293509   -7.6904321     830.4564  0.015153208  0.013867445          349 
 4568000   0.52886483   -7.6977209    828.10583  0.015107009  0.013863083          340 
 4569000   0.51385812   -7.6816081    829.76847  0.015134028  0.013858722          366 
 4570000   0.51988149   -7.6962649    828.39034  0.015105586  0.013854362          366 
 4571000   0.51504901   -7.6932657    829.50198  0.015122548  0.013849999          323 
 4572000    0.5159463   -7.6785412    829.30971  0.015115735  0.013845636          354 
 4573000   0.52203377   -7.7004522    828.12272    0.0150908  0.013841278          416 
 4574000   0.51508832   -7.6861353    830.08403  0.015123233   0.01383692          357 
 4575000   0.52456506   -7.6972367    829.71812  0.015113263  0.013832562          352 
 4576000   0.51563699   -7.6931974    829.91952  0.015113628  0.013828209          363 
 4577000   0.52790796   -7.6868247    829.60345  0.015104571  0.013823856          375 
 4578000   0.51695494   -7.6695975    830.52497  0.015118046  0.013819501          284 
 4579000   0.53970191   -7.6812237    829.38749  0.015094043  0.013815154          361 
 4580000   0.52845994   -7.6878423     829.2563  0.015088361  0.013810805          383 
 4581000   0.51787822   -7.6776807    828.96738  0.015079811   0.01380646          289 
 4582000    0.5108114    -7.699764    829.25989   0.01508184  0.013802115          263 
 4583000   0.52300593   -7.7037118    829.38492  0.015080823  0.013797772          251 
 4584000   0.51640717   -7.7048096    829.29436  0.015075886  0.013793429          362 
 4585000     0.505908   -7.6937073    829.99573  0.015085346  0.013789085          272 
 4586000   0.53090953   -7.6875807    830.07875  0.015083565  0.013784748          331 
 4587000   0.51708528    -7.685659    829.97921  0.015078468  0.013780411          246 
 4588000   0.51721434   -7.6821142    828.09841   0.01504102  0.013776073          339 
 4589000   0.52239404   -7.7025202    829.77388  0.015068168  0.013771744          272 
 4590000   0.52780963   -7.6874862    829.65989  0.015062816   0.01376741          293 
 4591000   0.51150532   -7.6932225    829.50969  0.015056808  0.013763079          339 
 4592000   0.50933735   -7.6738005    828.90584  0.015042571  0.013758753          299 
 4593000   0.51844111   -7.6794326    829.97534  0.015058701  0.013754427          356 
 4594000   0.51955496   -7.6968168    829.47462   0.01504634  0.013750102          267 
 4595000   0.51097694   -7.6940775     829.6599  0.015046426  0.013745777          299 
 4596000   0.51515602   -7.6981632    829.85599  0.015046707  0.013741454          318 
 4597000   0.51308773   -7.6936716    830.18162  0.015049337  0.013737129          284 
 4598000   0.51972038   -7.6955169    828.39463  0.015013677  0.013732814          309 
 4599000   0.51346618   -7.6760785    828.37001  0.015009966  0.013728497          284 
 4600000    0.5185228   -7.6975733    829.48613  0.015026923  0.013724181          246 
 4601000   0.51326209   -7.6937585    828.88638  0.015012794  0.013719863          352 
 4602000   0.51938611   -7.6832701    830.02032  0.015030065   0.01371555          362 
 4603000   0.52043573    -7.679794     828.7142  0.015003154  0.013711238          315 
 4604000   0.51260205   -7.6792676    829.43354  0.015012915  0.013706931          279 
 4605000   0.51085998   -7.6879515    829.28195  0.015006912   0.01370262          345 
 4606000   0.51361544   -7.6886391    829.26822  0.015003405  0.013698313          267 
 4607000   0.51179971   -7.6901312    828.32114  0.014983018  0.013694009          299 
 4608000   0.53029665   -7.6758886    829.45047  0.015000189  0.013689699          256 
 4609000   0.51756616   -7.6907082    829.29398  0.014994105   0.01368539          263 
 4610000    0.5092929   -7.6830084    828.51436   0.01497676   0.01368109          244 
 4611000   0.51340614   -7.6883596    830.03171  0.015000934  0.013676786          283 
 4612000   0.51913712   -7.6828986    828.67973  0.014973253  0.013672485          295 
 4613000   0.50738828   -7.7010747     829.0319  0.014976369  0.013668188          280 
 4614000   0.51837246   -7.7029753    828.80874  0.014969093  0.013663891          359 
 4615000   0.51344014   -7.6936722    828.97815  0.014968909  0.013659595          346 
 4616000   0.50549267   -7.7086036    828.55919  0.014958102  0.013655299          364 
 4617000   0.52147341   -7.6866209    829.16844  0.014965859  0.013651007          323 
 4618000    0.5098683   -7.7012503    828.72865  0.014954682  0.013646716          331 
 4619000   0.50601757   -7.6963683    827.42441  0.014927914  0.013642424          289 
 4620000   0.51515145   -7.6991276    829.47458  0.014961663  0.013638137          321 
 4621000   0.51869322   -7.7072251    830.57597  0.014978287  0.013633849          279 
 4622000   0.51454036   -7.6995798    829.61724  0.014957761  0.013629567          332 
 4623000   0.51931319   -7.6982334    829.08227  0.014944882  0.013625281          313 
 4624000   0.51651703   -7.7023226    830.35725  0.014964627  0.013620996          319 
 4625000   0.51424307   -7.6951361    830.28772  0.014960139  0.013616717          352 
 4626000    0.5163574    -7.684489    827.68792  0.014910072  0.013612431          274 
 4627000   0.51111454   -7.6899597    829.01281  0.014930711   0.01360815          298 
 4628000   0.50711788   -7.7050979    829.70674   0.01493998  0.013603873          328 
 4629000   0.50490242   -7.6950202    829.31998   0.01492979   0.01359959          336 
 4630000   0.52020499   -7.7001308    829.04949  0.014921697  0.013595309          376 
 4631000   0.52106275    -7.702443    828.26008   0.01490427  0.013591029          308 
 4632000   0.51650428   -7.6970027    828.06597   0.01489756  0.013586754          278 
 4633000   0.50654515   -7.7026639    828.98282  0.014910836  0.013582474          293 
 4634000   0.49476033   -7.7077518    828.23186  0.014894113  0.013578196          328 
 4635000   0.51781868   -7.7167115    829.33008  0.014910645  0.013573918          319 
 4636000   0.51255966   -7.7161328    828.67952  0.014895735  0.013569641          379 
 4637000    0.5184712   -7.6997016    828.56593  0.014890481  0.013565369          338 
 4638000   0.50856902   -7.7026572    829.36076  0.014901552  0.013561095          333 
 4639000   0.51231041   -7.7060793    828.58487  0.014884402  0.013556821          330 
 4640000     0.501048   -7.7128873    828.33975  0.014876792  0.013552556          333 
 4641000   0.50628462   -7.7181867    828.66654  0.014879454  0.013548286          311 
 4642000      0.51645   -7.6964099    827.90009  0.014862489  0.013544025          257 
 4643000   0.51107985   -7.6999711     829.4522  0.014887145  0.013539764          377 
 4644000   0.51083616   -7.7109614    828.82093  0.014872612  0.013535509          347 
 4645000   0.51194792   -7.7022834    827.28999  0.014841944   0.01353125          319 
 4646000   0.52016391   -7.7207001    828.69279  0.014863911  0.013526995          355 
 4647000    0.5060761   -7.7118588    827.84442  0.014845499  0.013522739          394 
 4648000   0.51094706   -7.7046011    828.86435  0.014860592  0.013518486          299 
 4649000   0.50866785   -7.7156683    828.61636   0.01485295  0.013514231          375 
 4650000   0.51584001   -7.7027034     829.6365  0.014868038  0.013509979          292 
 4651000   0.51864473   -7.7108443    828.92318   0.01485206  0.013505728          349 
 4652000   0.50332594    -7.699407     827.6045  0.014825245  0.013501479          352 
 4653000   0.50572175   -7.6784985    830.09778  0.014866713  0.013497233          312 
 4654000   0.50631082   -7.7165958    827.86518  0.014823542  0.013492983          379 
 4655000   0.49892861   -7.7140517    828.98402  0.014840387  0.013488736          351 
 4656000   0.51133264   -7.7012731     828.1325  0.014821959  0.013484496          422 
 4657000   0.51136455   -7.7195472    827.54789  0.014808315  0.013480253          384 
 4658000   0.50595662   -7.7107963    828.52818  0.014822674  0.013476017          378 
 4659000   0.51956761   -7.7202328     828.5989  0.014820757  0.013471779          370 
 4660000   0.51006492    -7.712333     828.6809  0.014819043  0.013467542          360 
 4661000   0.49950115   -7.7073253    828.93992  0.014820495  0.013463311          366 
 4662000    0.5002256   -7.7035639    828.84453  0.014815611  0.013459083          332 
 4663000   0.51075713   -7.6955629    828.93572  0.014814063  0.013454859          330 
 4664000   0.50744833    -7.695896    828.43882  0.014802009   0.01345063          350 
 4665000   0.51020148   -7.6948348    828.53353  0.014800527  0.013446405          304 
 4666000   0.52170907   -7.7195232    829.14084  0.014808202  0.013442185          270 
 4667000    0.5093581   -7.7328604    829.85307  0.014817746  0.013437965          348 
 4668000   0.51231547   -7.7014894    829.08525  0.014800865  0.013433744          400 
 4669000   0.50515464   -7.7173544    828.65818  0.014790072  0.013429523          368 
 4670000   0.50436484   -7.7114973    829.31263  0.014798584  0.013425306          318 
 4671000   0.51561616   -7.7004911    827.86733  0.014769631  0.013421087          346 
 4672000   0.50108349   -7.7224157    827.45994  0.014759203  0.013416866          356 
 4673000     0.501905   -7.7176401    828.74487  0.014778958  0.013412649          308 
 4674000   0.50613405   -7.7105975    826.95073  0.014743808  0.013408431          316 
 4675000   0.49702024    -7.715962    828.14303  0.014761908  0.013404216          372 
 4676000   0.49555576    -7.708198    829.42716  0.014781636  0.013400003          332 
 4677000   0.50395481   -7.7063434    827.44848   0.01474322  0.013395789          330 
 4678000   0.51113067   -7.7127363    828.69114  0.014762205  0.013391578          285 
 4679000   0.50870764   -7.7204397    827.27372  0.014733806  0.013387368          387 
 4680000   0.49970215   -7.7043601    827.99723  0.014743541   0.01338316          297 
 4681000   0.50686662   -7.7093527    827.26131   0.01472729  0.013378954          323 
 4682000   0.50620508   -7.7219666    829.49598  0.014763918  0.013374749          401 
 4683000   0.50150439   -7.7217861    827.47572  0.014724815  0.013370545          361 
 4684000   0.49705403   -7.7053862     828.1125  0.014733001  0.013366342          351 
 4685000   0.50426902   -7.7063979    828.00326  0.014727913  0.013362141          415 
 4686000   0.50254604   -7.7245695    828.19067  0.014728103  0.013357942          343 
 4687000   0.50437411   -7.7251535    828.25453  0.014726096  0.013353743          402 
 4688000   0.49333561   -7.7288179    828.53897  0.014728011  0.013349543          325 
 4689000   0.49521924    -7.726375    827.33264  0.014703431  0.013345343          356 
 4690000   0.50654766    -7.709589    829.01678   0.01473022  0.013341149          385 
 4691000   0.50437128   -7.7188084    828.69251  0.014721319  0.013336954          333 
 4692000   0.49491642    -7.722569    828.28508  0.014710946  0.013332766          362 
 4693000   0.49466015   -7.7373156    827.68538  0.014697162  0.013328576          338 
 4694000   0.50104355   -7.7214024    828.72276  0.014712448  0.013324391          326 
 4695000   0.49968232   -7.7439117    828.55548  0.014706345  0.013320201          331 
 4696000   0.50915063   -7.6957768    827.33689  0.014681589  0.013316017          337 
 4697000   0.51045173   -7.7270584    828.57981  0.014700515  0.013311839          372 
 4698000   0.49196273   -7.7379383    828.38606  0.014693949  0.013307656          342 
 4699000   0.49997979   -7.7126991    827.80814  0.014680573  0.013303474          369 
 4700000   0.50730336   -7.7162371    829.64811  0.014710073  0.013299301          372 
 4701000   0.50423201   -7.7062616     827.3099  0.014665495  0.013295127          387 
 4702000   0.50537099   -7.7243522    827.74044  0.014670006  0.013290951          402 
 4703000   0.50366605   -7.7302934    827.77525  0.014667504  0.013286775          307 
 4704000   0.49032491   -7.7115496    827.12458  0.014652859  0.013282598          347 
 4705000   0.49247808   -7.7313709    828.16179  0.014668115  0.013278428          385 
 4706000   0.50071318   -7.7205093    827.58431  0.014654773  0.013274259          387 
 4707000   0.49856788   -7.7271234    826.74092  0.014636728   0.01327009          346 
 4708000   0.49815179    -7.714774    828.57376  0.014666061  0.013265922          374 
 4709000   0.49605623   -7.7245776    828.78937  0.014666762   0.01326176          345 
 4710000   0.49984132   -7.7267039    827.55467  0.014641802  0.013257595          356 
 4711000   0.48888248   -7.7252131    826.94032  0.014627827   0.01325343          345 
 4712000   0.50521674   -7.7224776    827.73129  0.014638711  0.013249268          405 
 4713000   0.50725661   -7.7297819    828.11022  0.014642305  0.013245107          419 
 4714000   0.49367527   -7.7177263    827.85206  0.014634635  0.013240948          379 
 4715000    0.5099244   -7.7242817    826.86672  0.014614117  0.013236792          329 
 4716000   0.49049908   -7.7055258    827.35953  0.014619726  0.013232637          375 
 4717000   0.48043429   -7.7128731     828.1658  0.014630871  0.013228483          399 
 4718000    0.5008783   -7.7172707    827.78969  0.014621126  0.013224334          359 
 4719000   0.49511909   -7.7319815    827.25684  0.014608618   0.01322018          349 
 4720000   0.50145145   -7.7333003    827.45347  0.014608995  0.013216028          318 
 4721000     0.501208   -7.7187955    827.32403  0.014603616  0.013211877          376 
 4722000   0.49833324   -7.7377903    828.35171  0.014618659  0.013207731          370 
 4723000   0.49708713    -7.732126    827.88987  0.014607415   0.01320359          431 
 4724000   0.49898976    -7.700069    827.57329  0.014598739  0.013199446          355 
 4725000   0.50186649   -7.7102125    827.84778   0.01460049   0.01319531          310 
 4726000   0.48599671    -7.736824    828.91035  0.014616137  0.013191175          346 
 4727000   0.49104964   -7.7297176    827.46363   0.01458754  0.013187037          381 
 4728000   0.49407992   -7.7263513    828.00979  0.014594081  0.013182905          298 
 4729000    0.4884182   -7.7395372     827.3083  0.014578634  0.013178772          392 
 4730000   0.50492124   -7.7284536    827.75657  0.014583449  0.013174641          404 
 4731000   0.49678039   -7.7224423    828.60622  0.014595333  0.013170514          373 
 4732000   0.49494431   -7.7288751    827.71521  0.014576557  0.013166385          350 
 4733000   0.49855063   -7.7290361     829.2261  0.014600079  0.013162261          329 
 4734000   0.48894714   -7.7244026    827.71644   0.01457042  0.013158133          361 
 4735000   0.50377428   -7.7365907    828.02385  0.014572754  0.013154009          388 
 4736000   0.49164937   -7.7345712     827.6543  0.014563174  0.013149888          328 
 4737000   0.49599067   -7.7406048    828.24675  0.014570522  0.013145774          356 
 4738000   0.48713734   -7.7246406    828.57829  0.014573278  0.013141655          369 
 4739000   0.48617074    -7.739133    827.74058  0.014555472  0.013137538          380 
 4740000   0.48473807   -7.7254448    827.91412  0.014555452  0.013133421          369 
 4741000   0.49302146    -7.722529    827.75715  0.014549623  0.013129302          331 
 4742000   0.48708663   -7.7346106    827.16338   0.01453612  0.013125185          344 
 4743000   0.48461673   -7.7152315     828.4247  0.014555216  0.013121074          329 
 4744000   0.49699045   -7.7356738    827.57348  0.014537196  0.013116963          346 
 4745000   0.49425542   -7.7191234    827.48803  0.014532631  0.013112855          317 
 4746000   0.49086229   -7.7465229    827.45179  0.014528933  0.013108746          407 
 4747000    0.4952214   -7.7314121    826.63445  0.014511524  0.013104637          309 
 4748000   0.49757777   -7.7299353    827.78663   0.01452869  0.013100534          371 
 4749000   0.49786482   -7.7254892    827.74999  0.014524988  0.013096428          365 
 4750000    0.4939864   -7.7180219    828.08127  0.014527742  0.013092324          340 
 4751000   0.49335673   -7.7280135    827.90077  0.014521518  0.013088223          369 
 4752000   0.48802087   -7.7316009    828.84484  0.014535017  0.013084122          310 
 4753000   0.48548124   -7.7373632    827.22314  0.014503527  0.013080023          349 
 4754000   0.48388792   -7.7232343     827.5535  0.014506267  0.013075926          374 
 4755000   0.48189306   -7.7259345    828.45424  0.014519002  0.013071838          333 
 4756000   0.48747284   -7.7245676    827.73795  0.014503398  0.013067743          361 
 4757000   0.49639297    -7.751801    827.54524  0.014496974  0.013063646          394 
 4758000   0.48661024   -7.7413626    826.86691  0.014482046  0.013059554          348 
 4759000   0.49009345   -7.7257349    828.08465  0.014500327  0.013055463          344 
 4760000    0.4900115   -7.7336245    827.69535  0.014490465  0.013051376          356 
 4761000   0.48997315   -7.7350972    827.72139  0.014487877   0.01304729          322 
 4762000   0.48666036    -7.731469    827.21386  0.014475953  0.013043208          405 
 4763000   0.48436706   -7.7173377    827.13666  0.014471563  0.013039128          366 
 4764000   0.49089975   -7.7396398    827.53536    0.0144755   0.01303505          363 
 4765000   0.47770741   -7.7407365    827.52848  0.014472341  0.013030971          337 
 4766000   0.47946351   -7.7178463    825.67826  0.014436954  0.013026897          326 
 4767000   0.48343908   -7.7134556    826.28991  0.014444618  0.013022825          387 
 4768000   0.48573149   -7.7303386     827.8573  0.014468982  0.013018748          359 
 4769000    0.4899696   -7.7307118    826.33603  0.014439366  0.013014674          377 
 4770000   0.49099383   -7.7587501    827.98279  0.014465108  0.013010603          372 
 4771000   0.48011972    -7.728533    827.54506  0.014454431  0.013006529          383 
 4772000   0.48435676   -7.7444246    827.72902  0.014454614  0.013002457          313 
 4773000   0.48528081    -7.745279    826.98771  0.014438643  0.012998389          365 
 4774000   0.48409501   -7.7457396    827.33674  0.014441711   0.01299432          334 
 4775000   0.49238663   -7.7436553     827.0922  0.014434419  0.012990253          356 
 4776000    0.4877636   -7.7320847    827.74795  0.014442838  0.012986189          330 
 4777000   0.49363276   -7.7378824    828.39429   0.01445109  0.012982126          376 
 4778000   0.48353744   -7.7431419    827.27782  0.014428593  0.012978064          337 
 4779000   0.47493467   -7.7418944     827.9913  0.014438015  0.012974002          330 
 4780000   0.49607026   -7.7368078    827.22931   0.01442171  0.012969945          346 
 4781000   0.49062366   -7.7284091    827.26044  0.014419237  0.012965889          317 
 4782000   0.49450728   -7.7287894    827.84237  0.014426362  0.012961832          384 
 4783000   0.48696163    -7.739824    828.06146  0.014427163  0.012957778          372 
 4784000   0.48270623    -7.746076    827.94617  0.014422139  0.012953727          343 
 4785000   0.48537066   -7.7463998    826.23976  0.014389407   0.01294968          352 
 4786000   0.49116596   -7.7372389    826.63522  0.014393286  0.012945625          398 
 4787000   0.48090609   -7.7413862    826.19806  0.014382669  0.012941579          415 
 4788000   0.47995318   -7.7458736    825.54549  0.014368308  0.012937529          422 
 4789000   0.48604013   -7.7451116    826.62166  0.014384034  0.012933485          324 
 4790000   0.48085335   -7.7342769    826.43476  0.014377779  0.012929441          373 
 4791000   0.48719037   -7.7399134     827.2393  0.014388772  0.012925399          337 
 4792000   0.48696229   -7.7495322    827.42616  0.014389019  0.012921362          335 
 4793000   0.48635404   -7.7422925    827.06341   0.01437971  0.012917324          316 
 4794000   0.47970107   -7.7349766    826.41121  0.014365374  0.012913287          345 
 4795000   0.49073536   -7.7477833    826.66035  0.014366708  0.012909254          387 
 4796000   0.49224983   -7.7487537    827.90543  0.014385346  0.012905216          347 
 4797000   0.48274353    -7.733081    826.15147  0.014351877  0.012901181          365 
 4798000   0.48242625   -7.7368955    826.80425  0.014360224   0.01289715          312 
 4799000   0.48952878    -7.750281    827.26668  0.014365262  0.012893117          355 
 4800000   0.48034056   -7.7327624    827.85983  0.014372567  0.012889092          369 
 4801000   0.48269306   -7.7583648    827.37326  0.014361127  0.012885065          350 
 4802000   0.47441185   -7.7399009     826.8959  0.014349852  0.012881037          364 
 4803000   0.48269825   -7.7367513    827.97355  0.014365562   0.01287701          349 
 4804000   0.47385857   -7.7436076    827.29172  0.014350745  0.012872987          385 
 4805000   0.50304215   -7.7466724    827.49816  0.014351338  0.012868965          327 
 4806000   0.48293301   -7.7305197    827.67766  0.014351464  0.012864945          334 
 4807000   0.48131488   -7.7383236    826.19884  0.014322842  0.012860926          401 
 4808000   0.47774435   -7.7544394    828.58536  0.014361227  0.012856908          348 
 4809000    0.4743856   -7.7554821    826.94955  0.014329895  0.012852892          356 
 4810000   0.48150902   -7.7432605    826.18338  0.014313641  0.012848875          338 
 4811000   0.48933241   -7.7524952    826.76621  0.014320762  0.012844853          367 
 4812000   0.48095024   -7.7425704    826.78877  0.014318176  0.012840838          400 
 4813000   0.47940164   -7.7285389    825.52724  0.014293359  0.012836823          348 
 4814000   0.49301014    -7.754383    826.49779  0.014307191  0.012832814          356 
 4815000   0.48078284   -7.7430825    826.80999  0.014309623  0.012828802          378 
 4816000   0.49371335    -7.741374    826.37707   0.01429916  0.012824795          380 
 4817000   0.48009438   -7.7445478    825.65739  0.014283741  0.012820786          295 
 4818000   0.48018003   -7.7653089    827.19909  0.014307442  0.012816782          402 
 4819000   0.48254725   -7.7461343    825.89068  0.014281848   0.01281278          356 
 4820000   0.46743624   -7.7780088    827.12443  0.014300215  0.012808775          414 
 4821000   0.48961129   -7.7535292     827.0251  0.014295532  0.012804775          382 
 4822000   0.48633118   -7.7393563    827.93516  0.014308295  0.012800776          362 
 4823000   0.48219681   -7.7407598    825.93968  0.014270849  0.012796778          336 
 4824000    0.4784426   -7.7590244    825.88253  0.014266904   0.01279278          381 
 4825000   0.48365576   -7.7516009    826.18329  0.014269141  0.012788783          408 
 4826000   0.47981903   -7.7429664    825.80307  0.014259619   0.01278479          381 
 4827000   0.47726818    -7.738469    828.45104   0.01430238    0.0127808          340 
 4828000   0.46372581   -7.7606304    825.75891   0.01425295   0.01277681          385 
 4829000   0.48997578   -7.7443095    825.53941  0.014246211  0.012772819          366 
 4830000   0.48316986   -7.7450372     826.9534  0.014267657  0.012768832          401 
 4831000   0.47424048   -7.7397664    826.68956  0.014260153  0.012764847          366 
 4832000   0.47947581   -7.7512834     827.5682  0.014272354   0.01276086          356 
 4833000   0.48165399   -7.7513507    827.38253    0.0142662  0.012756876          385 
 4834000   0.48169674   -7.7590129     827.7528  0.014269632  0.012752894          397 
 4835000   0.48693707   -7.7646769    826.69175  0.014248393  0.012748917          378 
 4836000   0.48530489   -7.7615048    825.81421  0.014230325   0.01274494          368 
 4837000   0.47247108    -7.754201    826.09656  0.014232247   0.01274096          399 
 4838000   0.48512674   -7.7520682    826.44207  0.014235257  0.012736984          392 
 4839000   0.47943711   -7.7596242    827.48622  0.014250297  0.012733011          409 
 4840000   0.46550438   -7.7459761    826.52408  0.014230786  0.012729039          319 
 4841000   0.47644167   -7.7499106    826.94046  0.014235014  0.012725067          384 
 4842000   0.46866679   -7.7544219    826.57082  0.014225713  0.012721098          369 
 4843000   0.47449152    -7.743178    825.27521  0.014200482  0.012717131          399 
 4844000   0.47830088   -7.7645787    826.51296  0.014218844  0.012713161          371 
 4845000   0.47783764   -7.7468554    825.96246  0.014206441  0.012709193          351 
 4846000   0.47654513    -7.760573    827.08654  0.014222839  0.012705227          389 
 4847000    0.4692343   -7.7689099    826.71598  0.014213534  0.012701263          376 
 4848000   0.47079038   -7.7429228    825.31288  0.014186484    0.0126973          361 
 4849000   0.48732482   -7.7532243    827.33382  0.014218289   0.01269334          407 
 4850000   0.48464788   -7.7680812    826.94637  0.014208701  0.012689378          404 
 4851000   0.45391124   -7.7587993    826.56307  0.014199187  0.012685422          412 
 4852000   0.48331646   -7.7681929    826.15476  0.014189248  0.012681463          419 
 4853000   0.47467664   -7.7498759    825.99993  0.014183665  0.012677506          442 
 4854000   0.47297135    -7.759134    826.15689  0.014183438  0.012673552          415 
 4855000   0.46902674   -7.7593742    825.37242  0.014167052  0.012669594          439 
 4856000   0.47553745   -7.7480864    827.77022  0.014205283  0.012665642          383 
 4857000   0.47135407   -7.7549967    826.93263  0.014187987  0.012661695          429 
 4858000   0.47162892    -7.764161     826.4756  0.014177227  0.012657746          424 
 4859000   0.46997561   -7.7504508    826.10029  0.014167872  0.012653801          401 
 4860000   0.47009314   -7.7454674    826.49089  0.014171654  0.012649857          454 
 4861000   0.48139423   -7.7558432    826.80824  0.014174179  0.012645912          418 
 4862000    0.4759564   -7.7693617    825.84282  0.014154717  0.012641971          363 
 4863000   0.48411047   -7.7597519    826.93161  0.014170464  0.012638032          392 
 4864000   0.46627444   -7.7508427    825.72946  0.014146955  0.012634092          371 
 4865000   0.47561779   -7.7599634    826.50932  0.014157405  0.012630154          350 
 4866000   0.46600047   -7.7560774    826.06961  0.014146966  0.012626221          368 
 4867000   0.46617076   -7.7539716    826.11683  0.014144867  0.012622288          383 
 4868000   0.47757802   -7.7713603    827.21135  0.014160698  0.012618352          395 
 4869000   0.46939591   -7.7597439    825.97074  0.014136557  0.012614424          363 
 4870000   0.46963254   -7.7678973    826.63395  0.014145003  0.012610494          358 
 4871000   0.46506035    -7.750559    826.06868  0.014132428  0.012606565          309 
 4872000   0.48169594   -7.7672015    825.78418  0.014124661  0.012602638          400 
 4873000   0.46220415   -7.7476203    828.19106  0.014162923  0.012598715          361 
 4874000   0.46954852   -7.7618871    827.55639  0.014149165  0.012594791          381 
 4875000   0.46656844   -7.7571944    826.33309  0.014125352  0.012590869          375 
 4876000   0.47927114   -7.7849315    826.72505  0.014129154  0.012586949          350 
 4877000   0.46833629   -7.7631081     825.4306  0.014104138  0.012583032          394 
 4878000    0.4774152   -7.7677845    825.67299  0.014105388  0.012579116          390 
 4879000    0.4615497    -7.744141    825.82828  0.014105149    0.0125752          391 
 4880000   0.47636015    -7.765939    825.79465  0.014101685  0.012571285          333 
 4881000   0.47670032   -7.7565229    825.86981  0.014100079  0.012567371          406 
 4882000   0.47248308   -7.7579828    826.87021  0.014114267   0.01256346          365 
 4883000   0.46842395   -7.7761355    827.12051  0.014115648  0.012559553          366 
 4884000   0.46468038   -7.7659442    824.99765  0.014076536  0.012555645          372 
 4885000   0.48010976   -7.7609546    826.79577  0.014104329  0.012551736          402 
 4886000   0.47517339    -7.761854    826.37395  0.014094248   0.01254783          383 
 4887000   0.47033597   -7.7557899    825.87617  0.014082876  0.012543929          381 
 4888000   0.45928086    -7.775449    825.57896  0.014074928  0.012540025          373 
 4889000   0.46643657   -7.7639582    827.33362  0.014101957  0.012536123          355 
 4890000   0.47064474   -7.7603772    826.16812  0.014079211  0.012532227          374 
 4891000   0.46562725   -7.7691629    826.30023  0.014078584  0.012528331          336 
 4892000   0.47503472   -7.7591336    826.38642  0.014077174  0.012524433          346 
 4893000   0.46550386    -7.762415    827.66144  0.014096012  0.012520537          393 
 4894000   0.46385366   -7.7679864    827.14983   0.01408442  0.012516643          391 
 4895000   0.46016301   -7.7539894    826.69031   0.01407372  0.012512753          352 
 4896000   0.46305274   -7.7583343    826.74471  0.014071771  0.012508861          347 
 4897000   0.47383658   -7.7640736    826.35202  0.014062215   0.01250497          314 
 4898000    0.4702618   -7.7768526    827.08846  0.014071874  0.012501082          381 
 4899000   0.47649513   -7.7486858    825.44984  0.014041128  0.012497195          365 
 4900000     0.470366   -7.7746795    827.13037  0.014066843  0.012493311          377 
 4901000   0.46772426   -7.7639748    825.86894  0.014042524  0.012489423          349 
 4902000   0.47959903   -7.7677152    825.88545   0.01403994  0.012485538          389 
 4903000   0.46445822   -7.7481712    825.77206   0.01403515  0.012481658          419 
 4904000   0.46805293   -7.7680466     825.7272  0.014031525  0.012477779          354 
 4905000   0.47000932   -7.7640164    826.61026  0.014043667    0.0124739          388 
 4906000   0.46202693   -7.7745045    825.96177  0.014029789  0.012470023          378 
 4907000   0.46631822    -7.760561    826.47829  0.014035702  0.012466147          401 
 4908000   0.47891467   -7.7780172    826.21593  0.014028388  0.012462272          392 
 4909000   0.47055974   -7.7610849    827.16746  0.014041683  0.012458402          365 
 4910000   0.46559379   -7.7511369    826.28083  0.014023775  0.012454533          405 
 4911000    0.4724411   -7.7476521     825.9489  0.014015287  0.012450663          387 
 4912000   0.45511553   -7.7595193    827.08666  0.014031736  0.012446797          405 
 4913000   0.46914369    -7.769691    825.86374  0.014008137  0.012442931          397 
 4914000   0.45931184   -7.7549791    827.81088  0.014038307  0.012439065          394 
 4915000   0.46384265   -7.7598492    825.23205  0.013991727  0.012435203          393 
 4916000   0.46367904   -7.7522253    826.55183  0.014011253  0.012431341          376 
 4917000    0.4690617   -7.7494162    825.51338  0.013990804  0.012427485          371 
 4918000   0.46835112   -7.7664849    826.89276  0.014011332  0.012423626          393 
 4919000   0.46189999   -7.7628596    825.97523   0.01399294  0.012419769          426 
 4920000   0.47032738   -7.7614377    826.72194  0.014002743  0.012415912          417 
 4921000    0.4598381   -7.7582246    826.35726  0.013993722  0.012412053          433 
 4922000   0.46441086   -7.7564651    824.89099  0.013966054  0.012408199          396 
 4923000   0.46969182   -7.7679644    826.23719  0.013986004  0.012404347          401 
 4924000   0.46820519   -7.7865621    824.78514   0.01395859  0.012400496          369 
 4925000    0.4654012   -7.7613745    826.24436  0.013980446  0.012396643          354 
 4926000   0.46491461   -7.7735015    825.79915  0.013970076  0.012392793          398 
 4927000   0.46555835   -7.7779526    825.85815  0.013968239  0.012388945          386 
 4928000   0.46260104   -7.7808895    826.41338  0.013974793  0.012385104          373 
 4929000   0.47639321   -7.7573322    825.25851  0.013952433  0.012381259          365 
 4930000   0.46150212   -7.7722413    825.65617  0.013956325  0.012377417          389 
 4931000   0.46455563   -7.7601669    825.59284  0.013952424  0.012373576          338 
 4932000   0.47358902   -7.7625379    826.35492  0.013962472  0.012369734          358 
 4933000   0.45669156   -7.7618523    824.85943  0.013934378  0.012365894          354 
 4934000   0.45549348    -7.765728    826.91902  0.013966339  0.012362058          364 
 4935000   0.45289709   -7.7583322    824.99465  0.013931014  0.012358221          348 
 4936000   0.46015937   -7.7604521    826.11241  0.013947063  0.012354385          397 
 4937000   0.46842609   -7.7615675    826.02686  0.013942794  0.012350555          398 
 4938000   0.45279953   -7.7630313    826.72685  0.013951783   0.01234672          380 
 4939000   0.45492202   -7.7599925    825.00008  0.013919823  0.012342888          366 
 4940000   0.46305959   -7.7803082    825.92084  0.013932538  0.012339056          366 
 4941000   0.47032402   -7.7742751     824.4716  0.013905276  0.012335228          385 
 4942000   0.46391578   -7.7654953    824.48718  0.013902725  0.012331399          368 
 4943000   0.45813161   -7.7788642    825.68303  0.013920073   0.01232757          393 
 4944000   0.45796249   -7.7811988    825.20524  0.013909204  0.012323748          377 
 4945000   0.46243598    -7.781039    824.70865  0.013898022  0.012319924          397 
 4946000   0.45853047   -7.7708238    824.44554   0.01389078  0.012316103          365 
 4947000   0.46735742   -7.7837041    825.17514  0.013900262  0.012312282          344 
 4948000   0.45455955   -7.7803722    825.17614  0.013897469  0.012308463          383 
 4949000   0.45519318   -7.7705769    824.68101  0.013886324  0.012304644          396 
 4950000   0.45336035    -7.765765    826.09242   0.01390728  0.012300828          398 
 4951000   0.45537271   -7.7752778    825.31439  0.013891375  0.012297013          387 
 4952000   0.46640271   -7.7635748     825.1661  0.013886075    0.0122932          394 
 4953000   0.46521424   -7.7893626    825.96645  0.013896737  0.012289388          340 
 4954000   0.46120866   -7.7921348     825.8026  0.013891175  0.012285577          391 
 4955000   0.46178232    -7.762672    824.47197  0.013865993  0.012281766          357 
 4956000    0.4622667   -7.7943374    825.45598  0.013879741  0.012277957          366 
 4957000   0.46223318   -7.7810488     825.9409  0.013885093  0.012274148          387 
 4958000   0.45616112   -7.7796885    825.11522  0.013868415  0.012270341          335 
 4959000   0.46438193   -7.7853063     826.7165  0.013892527  0.012266537          356 
 4960000   0.45600378   -7.7917114    825.01533  0.013861145  0.012262734          396 
 4961000   0.46747769   -7.7920617     825.6044  0.013868246  0.012258931          398 
 4962000    0.4615265   -7.7784212    825.11555  0.013857241   0.01225513          416 
 4963000   0.44412811   -7.7777704    825.13351   0.01385475  0.012251333          357 
 4964000   0.46856129   -7.7693402    825.25092   0.01385393  0.012247537          389 
 4965000   0.46301479   -7.7778509    824.87958  0.013844907  0.012243741          339 
 4966000   0.46368529   -7.7855328    825.30605  0.013849276  0.012239948          343 
 4967000   0.46017578   -7.7910129     825.4108  0.013848245  0.012236152          362 
 4968000   0.44953812    -7.770057    825.08971  0.013840072   0.01223236          362 
 4969000   0.45063049   -7.7675709    826.05252  0.013853433  0.012228568          385 
 4970000   0.46095076   -7.7788831    826.04853  0.013850579  0.012224779          369 
 4971000   0.46301012   -7.7696393    825.66692  0.013841396  0.012220993          342 
 4972000   0.46112553   -7.7608995    825.07934  0.013828763  0.012217209          346 
 4973000   0.45949331   -7.7706471    824.00502   0.01380798  0.012213424          358 
 4974000   0.45062581   -7.7846593    824.27204  0.013809678  0.012209642          380 
 4975000   0.45403954   -7.7905042    825.33767  0.013824752  0.012205862          375 
 4976000   0.45050611   -7.7831658     825.4227  0.013823397  0.012202082          401 
 4977000   0.46627433   -7.7804974    825.83207  0.013827474  0.012198304          392 
 4978000   0.45188256    -7.763299    823.64963  0.013788162  0.012194527          401 
 4979000   0.46053863   -7.7889905    826.46679  0.013832543  0.012190755          334 
 4980000   0.46218233   -7.7785696    825.14614  0.013807666  0.012186978          396 
 4981000    0.4523869   -7.7946558    825.78254  0.013815541  0.012183204          372 
 4982000    0.4455364   -7.7886026    824.93353  0.013798567  0.012179432          367 
 4983000   0.45322531   -7.7926225    824.75488   0.01379281  0.012175661          392 
 4984000   0.45723815   -7.7773249    824.23599  0.013781367  0.012171891          371 
 4985000   0.45728728   -7.7683359    824.22514  0.013778421  0.012168122          345 
 4986000   0.46077477   -7.7876792    825.06618  0.013789714  0.012164356          370 
 4987000   0.44335938   -7.7820663    825.34373  0.013791587  0.012160593          375 
 4988000   0.44728575   -7.7821209     825.3132  0.013788312  0.012156831          388 
 4989000   0.44957685   -7.7921816    824.92228  0.013779018  0.012153069          356 
 4990000    0.4558028   -7.7598521    824.98201  0.013777255  0.012149309          378 
 4991000   0.44842491   -7.7633479     825.0406  0.013775472   0.01214555          344 
 4992000   0.44182008   -7.7804428    824.75597  0.013767962  0.012141791          343 
 4993000   0.45129212   -7.7716659    824.32734   0.01375805  0.012138032          366 
 4994000   0.45555037   -7.7961218    825.84454  0.013780612  0.012134273          368 
 4995000     0.453626     -7.78836    824.53835  0.013756062  0.012130518          343 
 4996000   0.45345345   -7.7673647    825.24409   0.01376508  0.012126764          336 
 4997000    0.4522699   -7.7945205    824.16873  0.013744392  0.012123016          337 
 4998000   0.45270378   -7.7865659    824.99903  0.013755486  0.012119266          347 
 4999000   0.45235801   -7.7977442    825.39469   0.01375933  0.012115515          351 
 5000000   0.45504913   -7.7689803     825.4343  0.013757238  0.012111768          354 
 5001000    0.4518648   -7.8071688    825.20323  0.013750637  0.012108022          349 
 5002000   0.45566908   -7.7842584    823.71279  0.013723057  0.012104277          378 
 5003000   0.44538777   -7.7904682    824.35829  0.013731066  0.012100532          393 
 5004000   0.44739174   -7.7881892    825.02773  0.013739471  0.012096788          378 
 5005000   0.45416666   -7.7830056    825.00776  0.013736393  0.012093045          365 
 5006000   0.44972097   -7.7865128    824.61404  0.013727095  0.012089303          357 
 5007000   0.44225219   -7.7888718    824.54589  0.013723219  0.012085566          361 
 5008000   0.45073255   -7.7835296    824.21855  0.013715032  0.012081827          376 
 5009000    0.4487558   -7.7929041    824.10337  0.013710377  0.012078089          386 
 5010000   0.45257167   -7.7837136    825.61722  0.013732821  0.012074355          374 
 5011000   0.45012244   -7.7640116     823.6633  0.013697587  0.012070626          319 
 5012000   0.44819582   -7.7878034    823.93431   0.01369936  0.012066894          386 
Loop time of 10928.3 on 48 procs for 5000000 steps with 4000 atoms

Performance: 79060.436 tau/day, 457.526 timesteps/s
99.4% CPU use with 48 MPI tasks x no OpenMP threads

MPI task timing breakdown:
Section |  min time  |  avg time  |  max time  |%varavg| %total
---------------------------------------------------------------
Pair    | 719.52     | 756.67     | 796.54     |  67.4 |  6.92
Neigh   | 68.486     | 70.033     | 71.464     |   8.1 |  0.64
Comm    | 613.31     | 654.56     | 703.13     |  81.2 |  5.99
Output  | 14.249     | 14.254     | 14.357     |   0.4 |  0.13
Modify  | 9272.3     | 9309.6     | 9354.1     |  22.3 | 85.19
Other   |            | 123.3      |            |       |  1.13

Nlocal:        83.3333 ave          91 max          77 min
Histogram: 5 2 6 3 10 9 7 3 1 2
Nghost:        1820.02 ave        1845 max        1799 min
Histogram: 5 5 2 7 6 8 8 4 1 2
Neighs:        11214.1 ave       12278 max       10070 min
Histogram: 3 3 4 3 7 12 7 2 5 2
FullNghs:      22428.8 ave       24842 max       20350 min
Histogram: 4 3 3 6 15 3 7 4 1 2

Total # of neighbors = 1076583
Ave neighs/atom = 269.14575
Neighbor list builds = 269482
Dangerous builds = 1

#clear
#
#next RN
#
#jump SELF
Total wall time: 3:02:11
