
units lj                  # Use reduced LJ style units
atom_style atomic         # Uncharged point particles
atom_modify map hash      # Needed for indexing of clusters etc
                          # Used to be able to find where atoms are in relation to each other.

lattice fcc 1.0 spacing 1 1 1
Lattice spacing in x,y,z = 1.5874011 1.5874011 1.5874011
region box block 0 10 0 10 0 10 units lattice
create_box 2 box
Created orthogonal box = (0.0000000 0.0000000 0.0000000) to (15.874011 15.874011 15.874011)
  3 by 4 by 4 MPI processor grid
create_atoms 1 box
Created 4000 atoms
  using lattice units in orthogonal box = (0.0000000 0.0000000 0.0000000) to (15.874011 15.874011 15.874011)
  create_atoms CPU = 0.002 seconds
set type 1 type/fraction 2 0.35 78393
Setting atom values ...
  1418 settings made for type/fraction
mass 1 1.0
mass 2 1.0
pair_style lj/cut  3.5
pair_modify tail  yes
pair_coeff 1  1  1.0  1.0   # Intearaction between 1 and 1 set with epsilon = 1 and sigma = 1
pair_coeff 1  2  1.5  0.8
pair_coeff 2  2  0.5  0.88

write_data data.0
System init for write_data ...
Neighbor list info ...
  update every 1 steps, delay 10 steps, check yes
  max neighbors/atom: 2000, page size: 100000
  master list distance cutoff = 3.8
  ghost atom cutoff = 3.8
  binsize = 1.9, bins = 9 9 9
  1 neighbor lists, perpetual/occasional/extra = 1 0 0
  (1) pair lj/cut, perpetual
      attributes: half, newton on
      pair build: half/bin/atomonly/newton
      stencil: half/bin/3d
      bin: standard
WARNING: Not all mixed pair coeffs generated from mixing. Use write_data with 'pair ij' option to store all pair coeffs. (../write_data.cpp:312)


#############################
#   M E L T   S Y S T E M   #
#############################

velocity all create 2.4 2750902 mom yes dist gaussian # Assign velocities
                                                    # Temperature 2.4, random number seed, zero linear momentum
                                                                                # Gaussian distribution

timestep 0.002   # simulation timestep
thermo 1000       # output thermodynamic data every 1000 steps bf 100

# Define a fix  in this case with index 1 applied to all
# particles in the simulation. This fix is for simulations
# in the anisotropic NPT ensemble. Note that we use the MTK
# correction.
fix 1 all npt temp 2.4 2.4 0.1 iso 5.68 5.68 0.5 mtk yes tchain 5 pchain 5 # Use NPT ensemble
                                                                         # Set temperature and pressure and damping
                                                                         # Numbers of thermostats in chain and in barostat
run 10000          # run for 10000 steps
Per MPI rank memory allocation (min/avg/max) = 3.642 | 3.644 | 3.648 Mbytes
Step Temp E_pair E_mol TotEng Press Volume 
       0          2.4   -6.1483103            0   -2.5492103   -4.0910289         4000 
    1000    2.3881369   -4.9694972            0   -1.3881875     5.603083    4039.1731 
    2000     2.380764   -4.9793394            0   -1.4090862    5.7070229    4039.3017 
    3000    2.4324104    -5.037623            0   -1.3899196     5.815064     4001.925 
    4000    2.3716471   -5.0155074            0   -1.4589262    5.7700125    4013.6211 
    5000    2.3490146   -5.0094097            0   -1.4867686    5.2788474    4055.3001 
    6000    2.4052811   -5.0391362            0   -1.4321165    5.8803806    3991.9084 
    7000    2.4059057   -4.9962947            0   -1.3883384    5.4621429    4054.8104 
    8000    2.3974293   -4.9791533            0   -1.3839083    5.7730559    4038.1296 
    9000    2.4083065   -5.0298925            0   -1.4183358     5.797736    4004.2062 
   10000    2.3671429   -5.0308606            0    -1.481034    5.5348296    4015.4159 
Loop time of 2.45586 on 48 procs for 10000 steps with 4000 atoms

Performance: 703621.820 tau/day, 4071.886 timesteps/s
99.6% CPU use with 48 MPI tasks x no OpenMP threads

MPI task timing breakdown:
Section |  min time  |  avg time  |  max time  |%varavg| %total
---------------------------------------------------------------
Pair    | 1.0889     | 1.1471     | 1.2346     |   3.2 | 46.71
Neigh   | 0.20487    | 0.21353    | 0.2236     |   1.0 |  8.69
Comm    | 0.75649    | 0.83254    | 0.89203    |   3.5 | 33.90
Output  | 0.00026036 | 0.00026449 | 0.00033636 |   0.0 |  0.01
Modify  | 0.20813    | 0.24718    | 0.27597    |   3.7 | 10.06
Other   |            | 0.01524    |            |       |  0.62

Nlocal:        83.3333 ave          92 max          76 min
Histogram: 3 7 2 9 3 12 2 5 4 1
Nghost:        1637.71 ave        1660 max        1625 min
Histogram: 2 9 9 8 9 3 4 2 0 2
Neighs:        9502.88 ave       10581 max        8585 min
Histogram: 4 5 6 6 9 8 0 2 3 5

Total # of neighbors = 456138
Ave neighs/atom = 114.03450
Neighbor list builds = 905
Dangerous builds = 203

# Equilibrate just above the melting temperature to avoid step fn in T

fix 1 all npt temp 1.25 1.25 0.1 iso 5.68 5.68 0.5 mtk yes tchain 5 pchain 5
run 2000
Per MPI rank memory allocation (min/avg/max) = 3.643 | 3.645 | 3.649 Mbytes
Step Temp E_pair E_mol TotEng Press Volume 
   10000    2.3671429   -5.0308606            0    -1.481034    5.5348296    4015.4159 
   11000    1.2396947   -6.9624952            0   -5.1034181    5.4630376    3214.8669 
   12000    1.2490634   -7.0465444            0   -5.1734176    5.1819613    3206.9217 
Loop time of 0.587895 on 48 procs for 2000 steps with 4000 atoms

Performance: 587859.894 tau/day, 3401.967 timesteps/s
99.6% CPU use with 48 MPI tasks x no OpenMP threads

MPI task timing breakdown:
Section |  min time  |  avg time  |  max time  |%varavg| %total
---------------------------------------------------------------
Pair    | 0.26166    | 0.28336    | 0.3167     |   2.0 | 48.20
Neigh   | 0.038679   | 0.04082    | 0.046452   |   0.6 |  6.94
Comm    | 0.17519    | 0.21471    | 0.23999    |   2.7 | 36.52
Output  | 5.2155e-05 | 5.3653e-05 | 6.863e-05  |   0.0 |  0.01
Modify  | 0.04133    | 0.044158   | 0.047516   |   0.8 |  7.51
Other   |            | 0.004796   |            |       |  0.82

Nlocal:        83.3333 ave          91 max          77 min
Histogram: 3 3 9 6 8 6 4 3 4 2
Nghost:        1907.73 ave        1927 max        1864 min
Histogram: 1 0 0 3 2 4 17 3 11 7
Neighs:        11920.6 ave       13487 max       10338 min
Histogram: 1 4 1 7 13 7 9 0 4 2

Total # of neighbors = 572188
Ave neighs/atom = 143.04700
Neighbor list builds = 143
Dangerous builds = 10

#############################
# L I N E A R  Q U E N C H  #
#############################

# Define solid atoms. This closely follows ten Wolde  Ruiz-Montero and Frenkel  Faraday Discuss  1996  104  93-110
# Compute components of the per-atom q6 vector
compute q6 all orientorder/atom degrees 1 6 components 6 nnn NULL cutoff 1.3 # compute the Q6 parameter.
                                                                             # Use all neighbours within 1.3 unit cell.

# get number of connections
compute coord_number all coord/atom orientorder q6 0.5

# An atom is solid if it has 8 or more connections (of a possible 14)
variable is_solid atom c_coord_number>=8
group solid dynamic all var is_solid    # Must be dynamic to update
dynamic group solid defined

# do clustering
compute cluster solid cluster/atom 1.3 # Create a cluster where all atoms within are solid and max 1.3 units from another member

# define chunks one chunk per cluster
compute clus_chunks solid chunk/atom c_cluster nchunk every compress yes  # Says which atoms are in which chunk

# count the size of each chunk
compute size_chunks solid property/chunk clus_chunks count


# Find the maximum entry in the vector of chunk sizes
variable max_n equal max(c_size_chunks)


# Thermo style which includes this variable
# thermo_style custom step temp pe vol v_max_n

thermo ${N}  # Print the thermo information every 100 steps
thermo 1000  

# Reset the npt fix at a lower temperature (below freezing)
fix 1  all npt temp  ${temp} ${temp}  0.1  iso  5.68  5.68  0.5  mtk yes tchain  5  pchain  5
fix 1  all npt temp  0.45 ${temp}  0.1  iso  5.68  5.68  0.5  mtk yes tchain  5  pchain  5
fix 1  all npt temp  0.45 0.45  0.1  iso  5.68  5.68  0.5  mtk yes tchain  5  pchain  5

dump dmp2 all dcd ${N} traj.dcd
dump dmp2 all dcd 1000 traj.dcd


compute msd all msd com yes
variable twopoint equal c_msd[4]/6/(step*dt+1.0e-6)
fix 9 all vector 10 c_msd[4]
variable fit equal slope(f_9)/6/(10*dt)
thermo_style custom step temp pe c_msd[4] v_twopoint v_fit v_max_n

fix 1 all npt temp 1.25 ${temp} 0.1 iso 5.68 5.68 0.5 mtk yes tchain 5 pchain 5
fix 1 all npt temp 1.25 0.45 0.1 iso 5.68 5.68 0.5 mtk yes tchain 5 pchain 5
run 5000000 # 5000000  # Run for this many steps
Neighbor list info ...
  update every 1 steps, delay 10 steps, check yes
  max neighbors/atom: 2000, page size: 100000
  master list distance cutoff = 3.8
  ghost atom cutoff = 3.8
  binsize = 1.9, bins = 8 8 8
  4 neighbor lists, perpetual/occasional/extra = 1 3 0
  (1) pair lj/cut, perpetual
      attributes: half, newton on
      pair build: half/bin/atomonly/newton
      stencil: half/bin/3d
      bin: standard
  (2) compute orientorder/atom, occasional
      attributes: full, newton on
      pair build: full/bin/atomonly
      stencil: full/bin/3d
      bin: standard
  (3) compute coord/atom, occasional
      attributes: full, newton on
      pair build: full/bin/atomonly
      stencil: full/bin/3d
      bin: standard
  (4) compute cluster/atom, occasional
      attributes: full, newton on
      pair build: full/bin/atomonly
      stencil: full/bin/3d
      bin: standard
Per MPI rank memory allocation (min/avg/max) = 9.816 | 9.822 | 9.826 Mbytes
Step Temp PotEng c_msd[4] v_twopoint v_fit v_max_n 
   12000    1.2490634   -7.0465444            0            0 8.3333333e+20            2 
   13000    1.2237512   -7.0027505   0.49019434 0.0031422713  0.039742962            2 
   14000    1.2639879   -7.0053645   0.93113465 0.0055424679  0.038300785            1 
   15000    1.2343325   -7.0585696    1.3838478 0.0076880432  0.037707868            1 
   16000    1.2463994   -7.0130899    1.8149371  0.009452797  0.037306772            1 
   17000    1.2500653   -6.9575187    2.2860715  0.011206233  0.037417134            1 
   18000    1.2142427   -7.0048471    2.6919322  0.012462649  0.037246052            2 
   19000    1.2448765   -7.0350889    3.0835182  0.013524202  0.036824701            1 
   20000    1.2687793   -7.0332238    3.4919006  0.014549585   0.03626434            1 
   21000    1.2454469   -6.9878764    3.9578542   0.01570577  0.036013355            3 
   22000    1.2384506   -6.9961922    4.3614854  0.016520778  0.035924594            2 
   23000      1.24821   -7.0093334    4.8040773  0.017406077  0.035824945            1 
   24000    1.2531652   -7.0177922    5.2027299  0.018065034  0.035746183            2 
   25000      1.24182   -7.0519517    5.6020291   0.01867343  0.035624976            2 
   26000    1.2426593   -7.0198895    6.0787977  0.019483326  0.035581381            1 
   27000     1.248942    -7.024126    6.4844024  0.020013587   0.03557154            1 
   28000     1.242435   -6.9818609    6.9347115  0.020639022  0.035573575            1 
   29000    1.2197279   -6.9593779    7.4559672  0.021425193  0.035650123            1 
   30000    1.2609298   -6.9812131    7.9670734  0.022130759  0.035829044            2 
   31000    1.2452405   -6.9631328    8.4345833  0.022673611  0.036060851            1 
   32000    1.2242732   -7.0539414     8.881707  0.023129445  0.036228845            2 
   33000    1.2674686   -7.0053447    9.2924186  0.023465703  0.036342731            1 
   34000    1.2449764   -6.9957748    9.7881268  0.023990506  0.036448204            2 
   35000    1.2633721   -6.9814593    10.265122  0.024440767  0.036584632            2 
   36000    1.2355273   -7.0363658    10.679007  0.024719922  0.036688691            3 
   37000    1.2643084   -7.0422326    11.030945   0.02484447  0.036730855            2 
   38000     1.256664   -7.0219193     11.41568  0.025034386  0.036719617            3 
   39000     1.233511   -7.0411064    11.783513  0.025178446  0.036691062            1 
   40000    1.2351526   -7.0423529    12.240399  0.025500831   0.03662375            1 
   41000     1.220113   -6.9925292    12.616387  0.025643062  0.036551088            1 
   42000    1.2391975    -7.006372    12.955512  0.025705381  0.036470071            1 
   43000    1.2374222   -6.9925158     13.35178  0.025875542  0.036363919            3 
   44000    1.2183485   -6.9933716    13.856235  0.026242868  0.036273931            1 
   45000    1.2417572   -7.0268995    14.249003  0.026387042  0.036195718            4 
   46000    1.2454608   -7.0645908    14.685517  0.026604197  0.036150183            1 
   47000    1.2380788   -7.0050761    15.067222  0.026714932  0.036085201            1 
   48000    1.2619557   -7.0373193    15.489465  0.026891432  0.035999615            1 
   49000    1.2579193   -7.0451946    16.006502  0.027221942   0.03596741            1 
   50000    1.2256818    -6.994654    16.379047  0.027298412  0.035945363            1 
   51000    1.2474981   -6.9928616     16.72815  0.027333577  0.035914287            1 
   52000    1.2455974   -6.9996576    17.159342  0.027498945  0.035850739            1 
   53000     1.242297   -7.0215587    17.686964  0.027809692  0.035799194            1 
   54000    1.2225336   -7.0497882    18.039675  0.027839005  0.035782131            3 
   55000    1.2298532    -7.027295      18.6354  0.028235455  0.035763564            2 
   56000    1.2295587    -7.023378    19.064589  0.028369924   0.03576226            2 
   57000    1.2382362   -6.9673688    19.617629  0.028680744  0.035788848            2 
   58000    1.2260236   -7.0211218    20.047275  0.028803556  0.035823018            1 
   59000    1.2585865   -7.0037967    20.473259  0.028917032  0.035840186            1 
   60000    1.2515667   -7.0678536    20.772124  0.028850172  0.035858104            1 
   61000    1.2501289   -7.0102457    21.403358  0.029239559  0.035878878            1 
   62000    1.2539605   -7.0246012    21.851065  0.029369711  0.035913486            2 
   63000    1.2417178    -7.063146    22.248492  0.029429221  0.035949361            1 
   64000     1.220006    -7.000412    22.697922  0.029554586  0.035982115            1 
   65000    1.2492139   -7.0296274     23.29273  0.029862475  0.036026563            3 
   66000    1.2282026   -7.0245818    23.696023   0.02991922  0.036068355            1 
   67000    1.2135396   -6.9869061    24.067073   0.02993417  0.036097611            1 
   68000    1.2690536   -7.0237345     24.26328  0.029734412  0.036102102            1 
   69000    1.2605509   -7.0203517    24.628993  0.029745161  0.036082063            3 
   70000     1.233542   -7.0423523    25.273291  0.030087251  0.036087637            1 
   71000    1.2582646   -7.0238315    25.552544  0.029991249  0.036094298            2 
   72000     1.238314   -7.0059243    26.054181  0.030155302  0.036095951            1 
   73000    1.2455818   -7.0193046    26.565541   0.03032596  0.036096749            2 
   74000    1.2571036   -7.0030665    27.068917  0.030483014  0.036105014            1 
   75000    1.2113558   -7.0100449    27.493006  0.030547784  0.036114281            2 
   76000    1.2355672    -7.002475    27.806762   0.03048987  0.036120281            1 
   77000    1.2469097   -7.0468191    28.103807  0.030415376  0.036120072            2 
   78000    1.2378161   -7.0014893    28.891071  0.030866528  0.036119227            1 
   79000    1.2461166   -7.0511498    29.041675  0.030634678  0.036125712            4 
   80000    1.2582216   -6.9956277    29.581913  0.030814493  0.036124997            3 
   81000    1.2357033   -7.0211046    30.128982  0.030996895  0.036136571            2 
   82000    1.2483782   -7.0440263    30.483356   0.03097902  0.036146513            2 
   83000    1.2446854   -6.9922221    30.961787  0.031086131   0.03615136            1 
   84000    1.2528966   -7.0423436    31.549445  0.031299052  0.036160436            4 
   85000    1.2524369   -7.0502421    31.915202  0.031289413   0.03618351            1 
   86000    1.2428967   -7.0079058    32.331986  0.031329443  0.036201262            2 
   87000    1.2466897   -7.0069958    32.839297  0.031455265  0.036210847            2 
   88000    1.2395247   -7.0240245     33.37651  0.031606543  0.036232998            3 
   89000    1.2434858   -7.0284854     33.84652  0.031691498  0.036255206            1 
   90000    1.2426981   -7.0531919    34.231198  0.031695553  0.036277096            3 
   91000    1.2337189   -7.0380217    34.536221  0.031626576  0.036286685            1 
   92000    1.2480632   -6.9657104    34.919659  0.031630126  0.036289085            3 
   93000    1.2361068   -7.0434123    35.383099  0.031705286  0.036294234            1 
   94000    1.2559394   -7.0045952    35.976357  0.031893933  0.036305147            1 
   95000    1.2235759   -7.0356183    36.241775  0.031791031  0.036313986            1 
   96000    1.2390512   -7.0371269    36.729071  0.031882874  0.036321672            2 
   97000    1.2519124   -7.0370151    37.374033  0.032108276  0.036338218            3 
   98000    1.2478634   -7.0221207    37.769406  0.032116841  0.036355356            1 
   99000    1.2196146   -7.0302227    38.192302  0.032148402  0.036372495            1 
  100000    1.2481758   -7.0414081    38.602612  0.032168844   0.03638832            1 
  101000    1.2305045   -7.0092858    39.055792  0.032224251  0.036396993            1 
  102000    1.2575679   -6.9824792     39.34196  0.032142124  0.036401742            2 
  103000    1.2457932   -7.0834091    39.557303   0.03200429  0.036393833            2 
  104000    1.2528254   -7.0641709    39.772389  0.031868901   0.03637854            1 
  105000    1.2191704   -7.0508974    40.133728  0.031852165  0.036360063            1 
  106000    1.2477913   -7.0045502    40.740227   0.03202848   0.03634208            2 
  107000    1.2220942   -6.9984503    41.366629  0.032217001  0.036332936            2 
  108000    1.2033701   -7.0214907    41.722886  0.032193584  0.036326993            1 
  109000    1.2357768   -7.0553386    42.266527  0.032313859  0.036321209            1 
  110000    1.2569778   -7.0379175    42.852669  0.032464143  0.036328065            3 
  111000    1.2466301   -7.0586585    43.336828  0.032535156  0.036335629            3 
  112000    1.2467796   -7.0207969    43.751264  0.032553023  0.036341616            2 
  113000    1.2029591    -6.998832     44.22347  0.032613179  0.036343092            2 
  114000    1.2409387   -7.0295452    44.371905  0.032435603  0.036345579            2 
  115000    1.2285819    -7.054988    44.904405  0.032539424  0.036341702            2 
  116000    1.2526295   -7.0359582    45.193307  0.032466456  0.036341605            2 
  117000    1.2204438   -7.0107142    45.778244  0.032605586  0.036338803            1 
  118000    1.2268614   -7.0312451    46.131829  0.032578975  0.036338494            1 
  119000    1.2454074   -7.0374395    46.540439  0.032591344  0.036334544            1 
  120000    1.2300374   -7.0051669     47.06096  0.032681222  0.036332487            2 
  121000    1.2725577   -7.0851281    47.299167  0.032575184  0.036327024            1 
  122000    1.1940128   -6.9986066    47.835562  0.032674564  0.036318834            1 
  123000    1.2432946    -7.049195    48.121417  0.032602586  0.036309566            1 
  124000    1.2137795   -6.9593663    48.845161  0.032826049   0.03630084            1 
  125000    1.2131119   -7.0195573    49.033977  0.032689318  0.036295116            1 
  126000    1.2345832   -7.0425257    49.434254  0.032694613  0.036291245            2 
  127000    1.2152252   -7.0558013    49.912035  0.032750679  0.036288815            4 
  128000    1.2229886   -7.0016037    50.484021  0.032867201  0.036282383            1 
  129000    1.2155961   -7.0622195    50.714507   0.03276131  0.036278355            2 
  130000    1.2134273    -7.058444    51.112809  0.032764621  0.036271088            5 
  131000    1.2178894   -7.0436384    51.598654  0.032823571  0.036261781            1 
  132000    1.2031692    -7.017275    51.926013  0.032781574  0.036250746            1 
  133000    1.2465915   -7.0454445    52.217358  0.032717643  0.036236608            2 
  134000    1.2398322   -7.0662359    52.451898  0.032619339   0.03621665            1 
  135000     1.243824   -7.0653079    52.929382  0.032672458  0.036197613            2 
  136000     1.233608    -7.043667    53.484088  0.032772113  0.036181612            3 
  137000    1.2146683   -7.0047001    53.842812  0.032751102  0.036170015            1 
  138000    1.2355308   -7.0484118    54.140154   0.03269333  0.036152713            2 
  139000    1.2070059   -7.0478753    54.596535  0.032731735   0.03613771            3 
  140000    1.2408755   -7.0351426    55.519886  0.033047551  0.036128155            1 
  141000    1.2146644   -7.0426037    55.866886  0.033018254  0.036120696            4 
  142000    1.2454675   -7.0556158    56.329278  0.033057088  0.036117996            1 
  143000    1.2353005   -7.0411083    57.077405  0.033261891  0.036119525            1 
  144000    1.2322978   -7.0405345    57.400437  0.033217845  0.036122084            1 
  145000    1.2149151   -7.0138572    57.832243  0.033236921  0.036123763            1 
  146000    1.2210148   -7.0708404     58.21224  0.033226164  0.036123437            1 
  147000    1.2319512   -7.0894019    58.353121  0.033080001   0.03612107            1 
  148000    1.2476493   -7.0603036    58.730663  0.033069067    0.0361134            1 
  149000    1.2255102    -7.042078    58.925853  0.032956294  0.036100407            1 
  150000    1.2233175   -7.0391687    59.312587  0.032951437  0.036085761            4 
  151000    1.2194319   -7.0753408    59.641863  0.032914935  0.036072555            1 
  152000    1.2507902   -7.0138604    59.978539  0.032882971  0.036053594            2 
  153000    1.2062997   -7.0256676    60.466081  0.032933595  0.036034787            1 
  154000     1.236003   -7.0276393    60.904928  0.032957212  0.036016872            2 
  155000    1.2085703   -7.0694277     61.32807  0.032972081  0.035999957            3 
  156000    1.2333006   -7.0676481    61.642981  0.032928943  0.035984656            2 
  157000    1.2352361   -7.0689303    61.607248  0.032700238   0.03596366            1 
  158000     1.251534   -7.0136025    62.549274  0.032990123  0.035942972            1 
  159000    1.2112766   -7.0553174    62.671522   0.03284671  0.035924392            2 
  160000     1.253172   -7.0504264    63.136003  0.032883335  0.035906957            1 
  161000    1.2097823   -7.0455358    63.663739  0.032952246  0.035887347            5 
  162000    1.1900061   -7.1002291    64.027501  0.032935957  0.035868464            1 
  163000    1.2533314   -7.0855332    64.694137  0.033074712  0.035852789            1 
  164000    1.2401804   -7.0608805    65.126161  0.033092561  0.035841091            1 
  165000    1.2053794   -7.0351018    65.795596  0.033230099   0.03583639            2 
  166000    1.2322861   -7.0441937    66.397714  0.033332186  0.035831365            1 
  167000    1.2482875   -7.0546531    66.975697  0.033421006  0.035827554            2 
  168000    1.2435207   -7.0683811    67.412278   0.03343863  0.035827316            2 
  169000    1.2174419   -7.0433574    67.680433  0.033372995  0.035825104            2 
  170000    1.2014911   -7.0185055    68.144032  0.033403937  0.035820889            2 
  171000    1.1971497   -7.0830383    67.861912  0.033071107  0.035811103            1 
  172000    1.2245439    -7.066915    68.426242  0.033152249  0.035798263            2 
  173000    1.2309172   -7.0161824     68.99099  0.033232654  0.035787338            1 
  174000    1.2341995   -7.0337118    69.496268  0.033283653  0.035776653            4 
  175000    1.2387781   -7.0577883     70.02916  0.033347219  0.035769887            1 
  176000    1.2406812   -7.0209907    70.665045  0.033458828  0.035764866            1 
  177000    1.2435703   -7.0309293    70.902927  0.033381792  0.035761683            2 
  178000    1.2220386   -7.0527764    71.055813   0.03326583  0.035756127            2 
  179000    1.2142211   -7.0247676    71.652963   0.03335799  0.035746228            2 
  180000    1.2272117   -7.0876448    71.604835  0.033150386  0.035733998            1 
  181000    1.2140159   -7.0839003    72.079971   0.03318599  0.035723511            2 
  182000    1.2151872   -7.0891837    72.828769  0.033346506  0.035715145            3 
  183000    1.2074841   -7.0509174    73.169426  0.033319411  0.035709847            1 
  184000    1.2479104   -7.0343436    73.712419  0.033384248  0.035704915            2 
  185000    1.2316847   -7.0389212    74.139486  0.033396165  0.035699506            1 
  186000    1.2108852   -7.0544603    74.276925  0.033278192  0.035692423            1 
  187000    1.2488994   -7.0676371    74.468766  0.033185724  0.035683851            2 
  188000     1.250109   -7.0587451    75.120065  0.033297901  0.035672472            1 
  189000    1.2312318   -7.0549631    75.544289   0.03330877   0.03566384            3 
  190000    1.2312018   -7.0855884    75.715074  0.033208366  0.035656892            1 
  191000    1.2334465    -7.088728    76.210389  0.033250606  0.035649908            2 
  192000    1.2327091   -7.0573263    77.023897  0.033430511  0.035643893            2 
  193000    1.2250824    -7.065166     77.46759  0.033448873  0.035639426            2 
  194000    1.2365012   -7.0297276    77.693153  0.033373348  0.035633754            1 
  195000    1.2399187   -7.0977036    78.093204  0.033373164  0.035628515            2 
  196000    1.2242153   -7.1020846    78.673775  0.033449734  0.035625047            1 
  197000    1.2113946   -7.0991418    78.731672   0.03330443  0.035621175            2 
  198000    1.2403509   -7.0613124    79.716991  0.033550922  0.035614431            1 
  199000    1.2303735   -7.1621017    79.412637  0.033254873  0.035606237            2 
  200000    1.2043631   -7.0613942    80.002333  0.033334305  0.035596377            2 
  201000    1.1997631   -7.1102773    80.651953  0.033437791   0.03558784            1 
  202000    1.1995373   -7.0995286    81.069359  0.033444455  0.035578289            2 
  203000    1.1951756   -7.0296575    81.893537  0.033618037  0.035573633            1 
  204000    1.2429511   -7.0451964    81.986723  0.033491308  0.035568691            2 
  205000    1.2216211   -7.0684451    82.411291  0.033500525  0.035562459            2 
  206000    1.2015509   -7.0815696    82.783265  0.033488376  0.035558153            3 
  207000    1.2237731   -7.0712584    83.052375  0.033434934  0.035551438            3 
  208000    1.2201189   -7.0500237    83.672527  0.033522647  0.035544325            2 
  209000     1.238715   -7.0392664    83.990657  0.033489098  0.035537926            1 
  210000     1.241213   -7.1005156    84.288178   0.03344769  0.035530627            2 
  211000    1.1966187   -7.0418104    84.927717  0.033541752  0.035524623            2 
  212000    1.2286667   -7.0911025    85.274735  0.033519943  0.035518763            2 
  213000     1.222225   -7.0707015    85.577358  0.033480969  0.035513024            1 
  214000    1.2230657   -7.0866211    86.002322  0.033490001  0.035505679            3 
  215000    1.2381167   -7.0554424    86.437082  0.033502745  0.035497052            2 
  216000    1.2164599   -7.0784879    86.516365  0.033378227  0.035487577            1 
  217000     1.196979   -7.0944164    86.936334  0.033385689  0.035477085            1 
  218000    1.2185836   -7.0703335     87.49656  0.033446697  0.035467268            4 
  219000    1.2176491   -7.1115756    87.767072  0.033396907  0.035456755            2 
  220000     1.220109   -7.0611977    88.199642  0.033408955  0.035447293            1 
  221000    1.1958893   -7.0011743    88.622268  0.033417145  0.035436354            2 
  222000     1.247828   -7.1052745    88.813207  0.033338291  0.035425419            1 
  223000    1.2354611   -7.0984965    88.920618   0.03322893  0.035412579            1 
  224000    1.2201354   -7.1159315    89.124428  0.033156409  0.035396336            3 
  225000    1.2326179   -7.0476894    90.197463  0.033406468  0.035383297            1 
  226000    1.2100153   -7.0689524    90.521794  0.033378243  0.035371833            2 
  227000    1.1856165   -7.0930374     90.25809  0.033134394  0.035359199            2 
  228000    1.2234668   -7.0473299    91.338302  0.033383882  0.035346255            1 
  229000    1.2129731   -7.1007532    91.554143  0.033316646  0.035335216            2 
  230000    1.1978181   -7.0758519    92.058248  0.033354438  0.035327081            2 
  231000     1.237049   -7.0928924    92.465664  0.033357022  0.035316791            1 
  232000    1.1945525   -7.1463795    92.600699  0.033261745  0.035304144            2 
  233000    1.2483279   -7.1196469    92.763362  0.033177168  0.035292063            1 
  234000    1.2359551   -7.0608678    93.726713  0.033378459  0.035282126            2 
  235000    1.2010303   -7.1245532    93.590761  0.033188213  0.035270837            3 
  236000    1.1786246   -7.0569223    94.165869   0.03325066   0.03525748            3 
  237000    1.1767278   -7.1012097    94.251679  0.033140534   0.03524274            1 
  238000    1.1962781   -7.0681688    94.715557   0.03316371  0.035226875            1 
  239000     1.198791   -7.0569153    94.824998  0.033063109  0.035210757            3 
  240000    1.2330181   -7.0812168    95.307428  0.033092857  0.035194275            1 
  241000    1.2231452   -7.0922725    95.863807  0.033147928  0.035178812            1 
  242000    1.2056035   -7.0693638    96.462922   0.03321726  0.035164551            1 
  243000    1.2183782   -7.0987491    96.809853  0.033199538   0.03515084            1 
  244000    1.2064006   -7.0969294    97.193686  0.033194565  0.035137904            1 
  245000    1.2271046    -7.107879     97.27415  0.033086446  0.035125884            1 
  246000    1.2150462   -7.0877816    98.344887  0.033314664  0.035113665            2 
  247000    1.2145302    -7.076761    98.544297  0.033247064  0.035102117            2 
  248000    1.2130045   -7.0681641    99.069629  0.033289526  0.035090728            2 
  249000    1.2208072   -7.0943927    99.241641    0.0332134  0.035077457            1 
  250000    1.2123246   -7.0746187    99.510169  0.033170056  0.035063457            1 
  251000    1.2402335   -7.0901942    100.43725  0.033345702   0.03504982            1 
  252000    1.1941893   -7.0759319    100.62092  0.033274115  0.035038856            1 
  253000    1.2169328   -7.1439017     100.6554  0.033153954  0.035026406            1 
  254000    1.2233935   -7.0830861    101.65819  0.033352425  0.035015113            2 
  255000    1.2143713   -7.1243923    101.13114  0.033049393  0.035001192            3 
  256000    1.2138936   -7.1038185    102.19124  0.033265377  0.034988822            1 
  257000    1.1971861   -7.1045582    102.26087  0.033158517  0.034977833            1 
  258000    1.2131599   -7.1343407    102.39311  0.033072709  0.034964391            2 
  259000    1.1922967   -7.0689614    103.25537  0.033222448  0.034950947            1 
  260000    1.1935614   -7.0935441    103.36175  0.033128765  0.034936331            2 
  261000    1.1987084   -7.1131488    103.58131  0.033071938  0.034923082            1 
  262000    1.2046135   -7.0786169    104.14303  0.033124375  0.034909819            1 
  263000     1.205171   -7.0992094    104.64204  0.033156538   0.03489744            2 
  264000    1.2116253   -7.0666393    105.54369  0.033315558  0.034887267            2 
  265000    1.2124562   -7.1200845    105.75125  0.033255109  0.034878012            1 
  266000    1.2137328   -7.1297379    105.76923  0.033135725  0.034867491            1 
  267000    1.2154942   -7.0868621    106.54965  0.033255196  0.034859483            1 
  268000    1.2069391   -7.0977819    107.19674  0.033332319   0.03485145            2 
  269000    1.1986707   -7.0760646    107.70701  0.033366484  0.034846224            1 
  270000    1.2248588   -7.1063887    108.46621  0.033477227  0.034841966            1 
  271000    1.1990703   -7.0967036    108.88976  0.033483936  0.034839284            2 
  272000    1.2221623   -7.1321277    109.28636  0.033482341  0.034835839            2 
  273000    1.2107085   -7.1063274    109.77509   0.03350888  0.034831985            2 
  274000    1.2406069   -7.0984842     110.0137  0.033459155  0.034827953            2 
  275000      1.18969   -7.0789424    110.59127  0.033512506  0.034824192            1 
  276000    1.1978212   -7.1374103     110.4788  0.033357126  0.034819686            1 
  277000    1.2133602   -7.1479761    110.98461  0.033388873  0.034815128            2 
  278000    1.2010308   -7.0692744    112.05143  0.033588559  0.034810164            3 
  279000    1.1962973   -7.0928065    111.90768  0.033425233  0.034806224            3 
  280000    1.2323594   -7.0824327    112.75058   0.03355672  0.034802738            1 
  281000     1.222573   -7.1161252    113.05877  0.033528699  0.034800618            3 
  282000    1.1886144   -7.1030699    113.10784  0.033424301  0.034797618            1 
  283000    1.1751703   -7.1069589    113.75802  0.033497651  0.034792972            2 
  284000    1.2052334   -7.1217345    114.08964  0.033477007  0.034790069            2 
  285000    1.2327972   -7.0901575    114.60492  0.033510212  0.034786815            1 
  286000    1.2048532   -7.0717382    115.17155  0.033558145  0.034783103            1 
  287000    1.2152528   -7.0701182     115.5037  0.033537661  0.034779583            5 
  288000     1.195487   -7.1013463    115.94005  0.033547469  0.034774856            2 
  289000     1.195936   -7.1050375    115.87921  0.033413844  0.034770003            2 
  290000    1.2151246   -7.0675622    116.69806  0.033533926  0.034764535            2 
  291000    1.2226648    -7.089882    116.88059   0.03347096  0.034759217            1 
  292000    1.2168288   -7.0753335    117.35889  0.033492833  0.034754748            2 
  293000    1.1863837   -7.1298587    117.30652  0.033363628  0.034749145            2 
  294000     1.167104   -7.0555191    118.46472  0.033578435  0.034743897            1 
  295000    1.2227166   -7.1042503    118.76327  0.033548945  0.034741047            2 
  296000    1.1961077   -7.0815011    119.29867  0.033586339  0.034737927            1 
  297000    1.2107632   -7.0623157    119.96304  0.033659662  0.034735685            1 
  298000    1.1844472   -7.0664054    120.46505  0.033687096  0.034733741            3 
  299000    1.2072699   -7.1361466    120.73683  0.033650175  0.034732942            3 
  300000    1.2357984   -7.0738199     120.9771  0.033604751  0.034732204            1 
  301000    1.1940207   -7.1054516    121.38668  0.033606501  0.034731127            2 
  302000     1.184139   -7.0892198    121.75025  0.033595543  0.034729555            1 
  303000    1.2215956   -7.0974243    122.38042  0.033657981  0.034728218            2 
  304000    1.2125001   -7.1094374    122.57226  0.033599852  0.034726439            1 
  305000     1.213788   -7.1330109    122.97781  0.033600495   0.03472436            1 
  306000    1.1998172   -7.0972758    123.52772  0.033640446   0.03472327            1 
  307000    1.1901256   -7.0568524    123.94326  0.033643665  0.034721401            1 
  308000    1.2067092   -7.1464714    124.13287  0.033585734  0.034718932            2 
  309000    1.1918765   -7.1043692    124.50916  0.033578522  0.034716653            2 
  310000    1.1832897   -7.1367513    124.94377  0.033587036  0.034714613            1 
  311000    1.2089231   -7.1120373     125.2252  0.033554447  0.034712857            1 
  312000    1.2014184    -7.058875    125.98538   0.03364994  0.034711156            2 
  313000    1.1890576   -7.1081665    126.84755  0.033771978  0.034710596            4 
  314000    1.2246313   -7.1218161    126.32049  0.033524547   0.03470983            1 
  315000    1.1870523   -7.1415906    127.11796  0.033629091  0.034709301            2 
  316000    1.1757591   -7.1362091    127.53142  0.033631703  0.034707683            3 
  317000    1.1903352   -7.1032335    128.21201  0.033704524  0.034707306            1 
  318000    1.1833844   -7.1066472    128.51616  0.033678239  0.034707648            1 
  319000    1.2147076   -7.0931342    130.11233  0.033989636  0.034708213            2 
  320000     1.196484   -7.1910996    128.94427  0.033579237   0.03470824            3 
  321000    1.2029974   -7.1424944    129.95908  0.033738079  0.034708106            2 
  322000    1.1912406   -7.1375634    129.86121  0.033607973  0.034707723            1 
  323000     1.199519   -7.1624039    130.22142  0.033596856  0.034706878            1 
  324000     1.206456   -7.1135705    130.98778  0.033690273  0.034705466            2 
  325000    1.1931481   -7.0670019    131.14949  0.033628075  0.034703921            2 
  326000    1.1994626   -7.1143504     131.5403  0.033624822  0.034702438            4 
  327000    1.1981681   -7.1238946    132.26266   0.03370608  0.034700311            2 
  328000    1.2351736   -7.1223169    132.35566  0.033626946  0.034697875            3 
  329000    1.2098971   -7.0929327    132.92368  0.033668613  0.034694978            3 
  330000    1.2082195   -7.1049026    133.08484  0.033607284  0.034692227            2 
  331000    1.2206507    -7.087888    133.48172   0.03360567   0.03468969            2 
  332000    1.2065047   -7.1217619    133.81257  0.033587492  0.034686714            3 
  333000    1.1880331    -7.132606    134.08698  0.033555301  0.034682674            2 
  334000    1.1880751   -7.1508083    134.57306  0.033576113  0.034680317            1 
  335000    1.2017601   -7.1328477    135.18687  0.033628574  0.034678087            1 
  336000    1.2057994   -7.0898585    135.85817  0.033694981  0.034676705            1 
  337000    1.1841093   -7.1297833    136.15661  0.033668795  0.034675335            3 
  338000    1.2041656   -7.1530591    136.34426  0.033615449   0.03467341            1 
  339000    1.2138671   -7.1088046    137.41259  0.033778906   0.03467193            1 
  340000    1.2240501   -7.1271362    137.15006   0.03361521  0.034670585            1 
  341000     1.195897   -7.1470499    137.32178  0.033558598  0.034667208            4 
  342000    1.1808404   -7.1322016    138.11834  0.033654567  0.034664635            1 
  343000     1.181715    -7.142938    138.83149  0.033729711  0.034662921            2 
  344000    1.2016579   -7.1070618    139.09831  0.033696295  0.034660586            2 
  345000    1.2001723   -7.0980177    139.01751  0.033579109   0.03465695            1 
  346000    1.2239563   -7.1146877    139.44231  0.033584372  0.034652671            3 
  347000    1.2068454   -7.1394869    139.33288  0.033461307  0.034648567            1 
  348000    1.2101601   -7.0952363    139.89176  0.033498985  0.034644546            1 
  349000    1.1987627   -7.0906074    140.21915  0.033481173  0.034640017            2 
  350000    1.1881776    -7.121297    140.69123  0.033497911  0.034634365            2 
  351000     1.212269     -7.10503    141.64879  0.033629818  0.034629591       -1e+20 
  352000    1.2086665   -7.1113697    141.31259  0.033454686  0.034624987            1 
  353000     1.178644   -7.1232012    141.87089  0.033491712  0.034620142       -1e+20 
  354000    1.2028131   -7.0945228    142.01618  0.033431305   0.03461389       -1e+20 
  355000    1.1877208   -7.1552238    141.80011  0.033286411  0.034606889            3 
  356000    1.1914485   -7.1355643    142.38206  0.033329133  0.034599977            4 
  357000    1.2001507   -7.1065889    142.59108  0.033284565  0.034592961            1 
  358000    1.1916324   -7.1595761    142.98594  0.033283505  0.034587169            2 
  359000    1.2123648   -7.1166102    144.22733  0.033478952   0.03458177            1 
  360000    1.1846668   -7.1370118    144.29487  0.033401591  0.034576171            1 
  361000    1.1947728   -7.1444393    144.82767  0.033432057   0.03457072            1 
  362000    1.1983789   -7.1455128    145.54511   0.03350486  0.034565706            1 
  363000    1.1965645   -7.1144811    145.80507  0.033472238  0.034560591            1 
  364000    1.2067414   -7.1489616    145.80825   0.03338101  0.034554703            1 
  365000    1.1762824   -7.1353782    146.13454  0.033364049  0.034548089            1 
  366000    1.2159878   -7.1326368    146.93256   0.03345459  0.034541957            2 
  367000    1.1853257   -7.0939443    147.60642  0.033516444  0.034536869            2 
  368000    1.2030303   -7.1019612     147.6349  0.033431817   0.03453159            1 
  369000    1.2078744   -7.1025178    147.87265  0.033394908  0.034526229            2 
  370000    1.2042973   -7.1714236    148.21337   0.03338139   0.03452062            1 
  371000    1.1804442   -7.0889123    148.98667  0.033465109  0.034514869            3 
  372000    1.1707434   -7.0973221    149.54048  0.033499212  0.034509352            2 
  373000    1.2020679   -7.1506168    149.94908  0.033500688  0.034503892            1 
  374000    1.2015343   -7.1073841    150.10584  0.033446043  0.034498217            1 
  375000    1.1757476   -7.1279498    149.80995    0.0332911  0.034492981            1 
  376000    1.2076541   -7.1315832    150.33801  0.033319594  0.034487894            1 
  377000    1.1886121   -7.1330435    151.35414  0.033455822  0.034482399            1 
  378000    1.2163705   -7.1031082    151.62545  0.033427127  0.034477473            4 
  379000    1.1950096   -7.1148949    152.06312  0.033435163  0.034472654            1 
  380000    1.1629142   -7.1122952    152.43087  0.033427822  0.034467242            3 
  381000    1.1665025   -7.1130672    152.51486  0.033358456  0.034461317            1 
  382000    1.2055889   -7.1113041    153.50789   0.03348776  0.034455361            2 
  383000    1.1767537   -7.1397053    153.15957  0.033324537  0.034450489            2 
  384000    1.1557479   -7.1443563    153.62747  0.033339296  0.034444647            1 
  385000    1.2041759   -7.1037059    154.85282  0.033517926  0.034439929            1 
  386000    1.1847323   -7.1411842    155.45734  0.033561602   0.03443614            1 
  387000    1.1927456   -7.1595575    155.13347  0.033405141   0.03443301            1 
  388000    1.2152394   -7.1841409    155.32854  0.033360941  0.034428847            3 
  389000    1.1842125   -7.1318801    156.33094  0.033489918  0.034424647            1 
  390000    1.1899659   -7.1126542    157.04799  0.033557263  0.034420409            2 
  391000    1.1951738   -7.1106907     157.4524   0.03355763  0.034416246            1 
  392000    1.1970354   -7.1205949    157.41256  0.033463554  0.034412635            1 
  393000    1.1843812   -7.1599313    157.88033  0.033477593  0.034408966            1 
  394000    1.2176313   -7.1528399    158.27353  0.033475789  0.034406329            1 
  395000    1.1816028   -7.1776373    158.69333  0.033479606  0.034403224            3 
  396000    1.1856003   -7.1361077    159.53421  0.033572014       0.0344            1 
  397000    1.2028918   -7.1437904    159.23406  0.033424445   0.03439648            2 
  398000    1.1804324   -7.1399905    160.27135  0.033557654  0.034392812            1 
  399000    1.1880327   -7.1566753     159.9981  0.033416479  0.034389498            1 
  400000    1.2088718   -7.1381276    160.66101  0.033471043  0.034386127            2 
  401000    1.1883777   -7.1372466    160.89294  0.033435772  0.034382625            2 
  402000    1.2079483   -7.1171993    161.13925  0.033403658  0.034377975            1 
  403000    1.1851114   -7.1593746     160.9115  0.033273677  0.034372813            2 
  404000    1.1955552   -7.1530861    161.98021   0.03341176   0.03436736            1 
  405000     1.187801   -7.1843281    162.11476  0.033356946  0.034362863            1 
  406000    1.1883668   -7.1655612    162.67856  0.033390509  0.034357688            1 
  407000    1.1935394   -7.1877582    163.17268   0.03340964  0.034352933            2 
  408000    1.1940056    -7.138424    163.64835  0.033424909  0.034348767            1 
  409000    1.1810227   -7.1095303    164.57239  0.033531456  0.034345457            1 
  410000    1.1795134   -7.1350492    164.88307  0.033512818  0.034342118            3 
  411000    1.1842477   -7.1910542    164.68422  0.033390961  0.034338501            3 
  412000    1.1787737   -7.1556974    165.67268  0.033509846  0.034333967            3 
  413000     1.171297   -7.1271661    165.24102   0.03334161  0.034329573            4 
  414000    1.1932729   -7.0958008    166.44421  0.033503263   0.03432493            2 
  415000    1.1714485   -7.1313725    166.19298  0.033372084  0.034320353            2 
  416000    1.1909041    -7.133142    166.16247  0.033285751  0.034315033            1 
  417000    1.1735288   -7.1575229    166.52225  0.033277827  0.034308305            2 
  418000     1.184286   -7.1670348    166.52217  0.033198199  0.034301353            2 
  419000    1.1931938   -7.1607357    166.87577  0.033189293   0.03429428            1 
  420000    1.2177427   -7.1429391    167.39635  0.033213561  0.034287455            1 
  421000    1.1927846   -7.1725071    168.06172  0.033266374  0.034279889            2 
  422000    1.1644514    -7.153297    168.17428  0.033209771  0.034272486            2 
  423000    1.2050177   -7.1371008    168.31604  0.033159189  0.034264763            2 
  424000    1.1637994   -7.1341464     168.7571  0.033167668  0.034257072            2 
  425000    1.1766206      -7.1328    169.29084  0.033194282  0.034250071            3 
  426000    1.1714572   -7.1652382    169.53548  0.033164218  0.034243166            3 
  427000    1.1809918   -7.1389618    169.98177  0.033173648  0.034236606            2 
  428000    1.1716163   -7.1355701    170.56108  0.033208934  0.034230583            2 
  429000    1.1670348   -7.1519884    170.97094  0.033211138  0.034223842            3 
  430000    1.1715692   -7.1718337    170.91353  0.033122778   0.03421638            2 
  431000    1.1820077   -7.1673027    171.08024  0.033078159  0.034209228            2 
  432000    1.2115097   -7.1634327    171.71222  0.033123499   0.03420219            4 
  433000    1.1859762   -7.1514929    172.89486  0.033274606  0.034195771            1 
  434000    1.1775955   -7.1181509    172.86474  0.033192155  0.034188733            1 
  435000    1.1853495   -7.1168537    173.62689  0.033261856  0.034183277            1 
  436000    1.1890263   -7.1586529    173.61633   0.03318355  0.034177469            2 
  437000    1.1901935   -7.1761747    173.59661  0.033103853   0.03417076            1 
  438000    1.1600915   -7.1574694    174.04883  0.033114314  0.034164566            1 
  439000    1.1730764   -7.1452411    174.94632  0.033209248  0.034158803            2 
  440000    1.1823865   -7.1492745    175.92879  0.033319847  0.034153263            2 
  441000    1.1608786   -7.1439236    175.93167  0.033244836  0.034147741            2 
  442000    1.1720885   -7.1570196    176.46272  0.033269743   0.03414232            1 
  443000    1.1838912   -7.1886018    176.95306   0.03328688  0.034137876            2 
  444000    1.1877086    -7.173531    177.30717  0.033278372   0.03413356            1 
  445000    1.1891053   -7.1546021    177.18567  0.033180837  0.034128444            1 
  446000    1.2189457   -7.1339215    178.01294  0.033261013  0.034123285            1 
  447000    1.1755148   -7.1333053    178.68241  0.033311412  0.034117836            1 
  448000     1.166237   -7.1904849     178.7962  0.033258222  0.034112822            2 
  449000    1.1924357    -7.155815    178.89502  0.033202491  0.034107728            1 
  450000    1.1955336   -7.1948292    178.68464  0.033089748  0.034101594            2 
  451000    1.1695348   -7.0886889    179.90167  0.033241255  0.034095758            1 
  452000    1.1776816   -7.1105236    180.68408  0.033311962  0.034089934            1 
  453000    1.1805442   -7.1265064    180.32536  0.033172436  0.034083749            1 
  454000    1.1413137   -7.1710504    180.53503  0.033137854  0.034076816            1 
  455000    1.1609282   -7.1309076    180.71727    0.0330984   0.03407021            1 
  456000    1.1664804   -7.1506763    181.37321   0.03314569  0.034064157            2 
  457000    1.1723257   -7.1894414    181.43188  0.033083858  0.034057928            1 
  458000    1.1670124     -7.13674    182.79574  0.033259778  0.034051943            2 
  459000    1.2034422   -7.1631599     182.4319  0.033121261  0.034046032            1 
  460000    1.2118901   -7.1525774    183.17986  0.033184757  0.034040613            2 
  461000    1.1875577   -7.1680277    182.72918  0.033031305  0.034033835            1 
  462000    1.1944369   -7.1499437     183.7736  0.033148197  0.034026926            1 
  463000    1.1844686   -7.1913305    182.89366  0.032918225  0.034019957            2 
  464000    1.1631857   -7.1746184    184.31275  0.033102147  0.034012203            1 
  465000    1.2098615   -7.1667271    184.61036  0.033084293   0.03400542            2 
  466000    1.1916712   -7.1835657    184.57061  0.033006189  0.033998683            1 
  467000    1.1731261   -7.1149037    185.50766  0.033102723  0.033992211            3 
  468000    1.1635702   -7.1669162    185.45722  0.033023009  0.033985328            1 
  469000    1.2028385     -7.16772    185.78945   0.03301163  0.033978442            1 
  470000    1.1814977   -7.1706412    185.88801  0.032958867   0.03397124            4 
  471000    1.1845224    -7.185021    185.99746  0.032908256  0.033963728            2 
  472000    1.1495144   -7.1621621    186.89811  0.032997548  0.033955841            3 
  473000     1.164244   -7.1682073     186.7945  0.032909531  0.033947966            1 
  474000    1.1714411    -7.175974    186.67194  0.032818555  0.033940287            1 
  475000    1.1682486   -7.1700501     187.8156  0.032950105  0.033932881            2 
  476000    1.1679521   -7.1580431    188.56182  0.033011523  0.033926094            2 
  477000    1.1700634   -7.1592162    189.17624  0.033049658  0.033919306            2 
  478000     1.180922   -7.1408893    189.68396   0.03306903  0.033912589            2 
  479000      1.16226   -7.1433275    190.17611  0.033085614  0.033906737            2 
  480000    1.1793447   -7.1544524    190.23064  0.033026153  0.033899763            2 
  481000    1.1796133    -7.157601    190.29528   0.03296869  0.033893283            1 
  482000    1.1561989   -7.1839525     190.9553  0.033014403  0.033886974            2 
  483000      1.18516   -7.1937208    191.38133  0.033019553  0.033881194            1 
  484000    1.1861544   -7.1536994    192.25787   0.03310225  0.033875434            4 
  485000    1.1894458   -7.1912761    192.33652  0.033047512  0.033869691            3 
  486000    1.1599273    -7.165314    192.57515  0.033020431  0.033863666            3 
  487000    1.1854281   -7.2041235    193.12472  0.033046667  0.033857523            1 
  488000    1.1564771   -7.1653879    193.55284  0.033052055  0.033851725            3 
  489000    1.2004475   -7.1711138    193.02824  0.032895065  0.033845336            2 
  490000    1.1462564   -7.1565019    194.29404  0.033043205  0.033839766            1 
  491000    1.1660251   -7.1521675    194.85302  0.033070777  0.033834438            1 
  492000    1.1937917   -7.1886339    194.95081  0.033020123  0.033829205            1 
  493000    1.1720519   -7.1722244    195.52565  0.033050313  0.033823077            1 
  494000    1.1770926   -7.1993112    195.67429  0.033008484  0.033817396            1 
  495000    1.1984902   -7.1948696    196.48028  0.033077488  0.033812077            2 
  496000    1.1952611   -7.1789063    196.56593  0.033025189  0.033806876            3 
  497000    1.1663081   -7.1567053    197.00994  0.033033189  0.033801175            3 
  498000    1.1713663   -7.1586468    196.81991  0.032935059  0.033795569            3 
  499000    1.2004834   -7.1837346    196.86584  0.032876727  0.033789584            1 
  500000    1.1535836    -7.182466    197.10547  0.032850912  0.033783788            1 
  501000    1.1771557   -7.1512066     197.7685  0.032895625  0.033777307            2 
  502000    1.1567421   -7.2207645    197.53891  0.032791983  0.033771027            2 
  503000    1.2001583   -7.2109568    198.53137  0.032891214  0.033763828            1 
  504000    1.1873397   -7.1512767     199.6815  0.033016121  0.033757216            1 
  505000     1.173444   -7.1832092    199.52856  0.032925505  0.033751411            2 
  506000    1.1839051   -7.1201041    200.20952  0.032972583  0.033745433            1 
  507000    1.1626234   -7.1737484    200.06777  0.032884249  0.033739433            2 
  508000    1.1636514   -7.2341518    199.71813   0.03276216  0.033733125            2 
  509000    1.1748233   -7.1970956     200.7802  0.032871676  0.033726808            1 
  510000    1.1621221   -7.1682909    200.92683  0.032831181  0.033720744            3 
  511000    1.1554839   -7.1721863    201.95742  0.032935001  0.033714267            2 
  512000    1.1728674   -7.1618052    201.84269     0.032852  0.033707119            2 
  513000    1.1752281   -7.2126263    202.27737  0.032858573   0.03370001            6 
  514000    1.1889121   -7.1117203    202.01215  0.032751645  0.033693547            2 
  515000    1.1695142   -7.2229119    202.01372  0.032688304  0.033687298            3 
  516000    1.1644405   -7.2020925    203.28942  0.032830979  0.033681002            1 
  517000    1.1770208   -7.1758447    204.63361  0.032984141  0.033675403            2 
  518000    1.1690239    -7.183466    204.34276  0.032873674  0.033669372            1 
  519000    1.1534057   -7.2243452    204.29954  0.032803395  0.033662933            2 
  520000    1.1685666   -7.1547572    205.31591   0.03290319  0.033657007            1 
  521000    1.1562978   -7.2304275    205.66421  0.032895746  0.033650493            1 
  522000    1.1595308   -7.1787948    205.24224  0.032765364  0.033644158            1 
  523000    1.1673738   -7.1660597    206.27602  0.032867435  0.033638012            1 
  524000     1.151153   -7.1803146    206.15734  0.032785837  0.033631737            2 
  525000    1.1780095   -7.1727301    205.95544   0.03269134  0.033624506            2 
  526000    1.1659773    -7.175205    207.78327  0.032918769  0.033617815            1 
  527000    1.1753256   -7.2033081    207.22125  0.032767434  0.033611186            2 
  528000    1.1698952   -7.1895181    207.37527  0.032729683  0.033604242            1 
  529000    1.1700147   -7.1939913    207.74845  0.032726599  0.033597405            3 
  530000    1.1727241   -7.1994525    208.67838  0.032811066  0.033590761            1 
  531000    1.1626372   -7.1594612    209.54173  0.032884766  0.033584072            1 
  532000    1.1672683    -7.163644    209.74357   0.03285457  0.033577584            1 
  533000    1.1602109   -7.2339074    209.00309  0.032677156  0.033570681            2 
  534000     1.147208    -7.221566    208.96486  0.032609997   0.03356289            1 
  535000    1.1858468   -7.1744772    210.54463  0.032795114  0.033555706            3 
  536000    1.1344832   -7.2299183    210.06672  0.032659627  0.033548653            4 
  537000    1.1839759   -7.2203285    210.32213  0.032638443  0.033541219            2 
  538000    1.1739894   -7.1985869    210.99817  0.032682493  0.033534018            2 
  539000    1.1639156   -7.1851093    210.71561   0.03257817  0.033526438            1 
  540000    1.1824578   -7.1753203    211.88209  0.032697853  0.033519151            2 
  541000    1.1627477   -7.1839541    211.38143  0.032560294  0.033511737            2 
  542000    1.1568716   -7.2169671    212.28124  0.032638568  0.033504107            2 
  543000    1.1692119   -7.2056308    212.19686   0.03256551  0.033496712            1 
  544000     1.160171   -7.1705474    212.53729  0.032557796  0.033488281            1 
  545000    1.1293487    -7.225261    212.97666  0.032565239  0.033479921            1 
  546000    1.1843524   -7.1829521    213.05963  0.032518258  0.033471346            2 
  547000    1.1836893   -7.1998679    213.06433  0.032459527  0.033462484            1 
  548000       1.1628   -7.2086302    213.86192  0.032521581  0.033453579            2 
  549000    1.1561511   -7.1680366    214.07309  0.032494397  0.033444305            1 
  550000    1.1413007   -7.1840002    214.03633  0.032429746  0.033434851            1 
  551000     1.167222   -7.2223256    214.23433  0.032400837  0.033425682            2 
  552000    1.1462227   -7.1963034    214.50614  0.032383174  0.033416153            1 
  553000     1.147143   -7.2048032    215.12295  0.032417563  0.033406722            2 
  554000    1.1672301   -7.2123655    214.77427  0.032306599  0.033397199            3 
  555000     1.169326   -7.2128443    215.61578  0.032374742  0.033387415            1 
  556000    1.1401997   -7.2054564    215.70582  0.032330009  0.033377807            2 
  557000       1.1511    -7.183948    216.78409  0.032433287  0.033368278            2 
  558000    1.1675759   -7.2210501    216.38881  0.032316131  0.033359495            2 
  559000    1.1686653   -7.2019712    217.31216  0.032395969  0.033350966            2 
  560000    1.1665681   -7.2264248    218.27758  0.032481782  0.033341996            1 
  561000    1.1583439   -7.2318663    218.45006  0.032449504  0.033333648            2 
  562000    1.1530612   -7.1902347    218.61139  0.032415686  0.033325397            2 
  563000     1.153295   -7.2225122     218.9366  0.032406247  0.033317347            2 
  564000    1.1357574   -7.2270506    219.35986  0.032411327  0.033309338            1 
  565000    1.1606222   -7.2002657    219.52945  0.032378975  0.033301058            2 
  566000    1.1602524   -7.1963471    220.26241  0.032429683  0.033293044            2 
  567000    1.1622684   -7.2593523    220.06467  0.032343426  0.033284974            2 
  568000    1.1417661   -7.2085339    220.95124  0.032416555  0.033276902            1 
  569000    1.1527871   -7.2107686    220.94029   0.03235798   0.03326872            2 
  570000    1.1518055   -7.1962912    221.68344  0.032409859   0.03326069            1 
  571000    1.1665792   -7.1778814    221.94078  0.032390656  0.033252161            1 
  572000    1.1522874   -7.2215886     221.6296  0.032288694  0.033243163            1 
  573000    1.1802389   -7.2343182    221.88032  0.032268808  0.033234044            2 
  574000    1.1226136    -7.168773     222.3244  0.032277061  0.033224477            4 
  575000    1.1656469   -7.1814564     222.5242  0.032249883  0.033215641            1 
  576000    1.1432335   -7.1874719    222.85731  0.032242087  0.033206882            2 
  577000    1.1616761   -7.2186063    222.54613  0.032141267  0.033198065            1 
  578000    1.1654849   -7.2187237    224.27277  0.032334598  0.033188528            2 
  579000    1.1232308   -7.1941708    223.30551  0.032139539  0.033179343            1 
  580000    1.1441693   -7.2131734    223.77501  0.032151582  0.033169752            1 
  581000    1.1370498   -7.2209324    224.38227  0.032183343  0.033160329            1 
  582000    1.1510318   -7.2409656     224.5785  0.032156142  0.033151342            1 
  583000    1.1649006   -7.2149585    225.38592  0.032216398  0.033142807            3 
  584000     1.165381   -7.2041957    225.98836  0.032247198  0.033134222            2 
  585000    1.1503048   -7.2481247    225.54924  0.032129521  0.033125153            3 
  586000    1.1813834   -7.1963269    227.24457   0.03231578  0.033116024            1 
  587000    1.1628228    -7.190643    227.15277  0.032247695  0.033107559            1 
  588000     1.186126   -7.1725295    228.13956  0.032332704  0.033098908            3 
  589000    1.1645803   -7.2102355    227.97295  0.032254237  0.033090271            3 
  590000    1.1510528   -7.1946103    227.78688  0.032173288  0.033081558            1 
  591000     1.147229   -7.2199365    228.52099  0.032222362  0.033073433            3 
  592000     1.172378   -7.2045353    228.63426  0.032183876  0.033065006            1 
  593000    1.1629883   -7.2110573    229.17089  0.032205016  0.033056168            1 
  594000     1.151172   -7.2087023    229.27707  0.032165694  0.033047574            2 
  595000    1.1301701   -7.2052608     229.9305  0.032203152  0.033038621            2 
  596000    1.1257598    -7.206819    229.40911  0.032076217  0.033029857            1 
  597000    1.1696853   -7.2423009    229.31431  0.032009256  0.033020536            4 
  598000    1.1695111   -7.2475116    230.00895  0.032052529  0.033011913            1 
  599000     1.159646   -7.1947387    231.42333  0.032195789  0.033003774            2 
  600000     1.145767   -7.2610543    231.13457  0.032102023  0.032995517            2 
  601000     1.153229   -7.2021676    232.18921  0.032194843  0.032987436            1 
  602000    1.1519629   -7.2137716     232.6087  0.032199432  0.032979346            2 
  603000    1.1562449   -7.2535948    232.68713  0.032156873  0.032971156            2 
  604000    1.1470898    -7.240996     232.6579    0.0320996  0.032962781            2 
  605000    1.1473707   -7.2246168    233.25201  0.032128376  0.032954113            1 
  606000    1.1791238   -7.2000877    233.58382  0.032120987  0.032945558            2 
  607000    1.1442745   -7.2166388    234.08257  0.032136542  0.032937154            3 
  608000    1.1603593   -7.1928327    234.66853  0.032163998  0.032928661            4 
  609000    1.1551795   -7.1847936    235.07474  0.032166767  0.032920934            1 
  610000    1.1804299   -7.2050841    234.63977  0.032054613  0.032912694            1 
  611000    1.1448898   -7.2400351    235.13823  0.032070135  0.032904851            2 
  612000    1.1542046   -7.1912592    236.66563  0.032225712  0.032897185            1 
  613000    1.1368247   -7.1873501    235.80112  0.032055617  0.032889225            2 
  614000     1.161373   -7.1846127    236.91232  0.032154224   0.03288196            1 
  615000    1.1946011   -7.2450176    236.68933  0.032071725  0.032874557            1 
  616000    1.1544007   -7.2107653    237.28872  0.032100747  0.032867003            1 
  617000    1.1643747   -7.2334196    238.08485  0.032156246  0.032859281            2 
  618000    1.1467868   -7.2616502    238.79285  0.032199684  0.032852099            2 
  619000    1.1796857   -7.2708945    237.89393  0.032026646   0.03284495            1 
  620000    1.1376527   -7.2040615    239.32445  0.032167265  0.032837817            1 
  621000     1.165402   -7.2336646    238.49392  0.032004015  0.032830459            3 
  622000     1.153463   -7.2440038    239.37701  0.032070875  0.032823153            2 
  623000    1.1509673   -7.2544089    239.72585  0.032066058  0.032815601            2 
  624000    1.1516937   -7.2026023    239.02885  0.031921588  0.032808309            1 
  625000    1.1485511   -7.2048813    240.95678  0.032127571  0.032800894            2 
  626000    1.1510098   -7.1966793    241.23462  0.032113234  0.032793939            1 
  627000    1.1562997   -7.2501483    241.80931  0.032138399  0.032787436            1 
  628000    1.1645386   -7.2470536     241.5957  0.032058878   0.03278068            1 
  629000    1.1644096   -7.2104729    242.40188  0.032114717  0.032773812            3 
  630000    1.1914235   -7.1829157    243.45738  0.032203358  0.032766637            2 
  631000    1.1431581    -7.199105    244.02644  0.032227475  0.032760215            1 
  632000    1.1340107   -7.2302473    243.77551  0.032143395  0.032753715            1 
  633000     1.147044   -7.2121191    245.04472  0.032259705  0.032747662            2 
  634000    1.1925387   -7.2155437    245.12567  0.032219462  0.032742045            1 
  635000    1.1572871   -7.2269951    245.05863  0.032159925  0.032736221            3 
  636000    1.1487248   -7.1846889    246.13722  0.032250684  0.032730525            6 
  637000     1.145704   -7.2195553    245.71485  0.032144799  0.032724643            2 
  638000    1.1363526   -7.2275839    246.49501  0.032196317  0.032718684            1 
  639000    1.1528051   -7.2124345     247.0614  0.032219797  0.032713356            3 
  640000    1.1130651   -7.2139273    247.38856  0.032212052  0.032707945            1 
  641000    1.1445837   -7.2281507    247.03119  0.032115339  0.032702555            4 
  642000    1.1398707   -7.2332967    248.63184  0.032273085  0.032697635            1 
  643000    1.1303291   -7.2464024    248.45618  0.032200127  0.032692584            3 
  644000    1.1527775   -7.2553981    248.42871  0.032146572  0.032687287            2 
  645000    1.1481543   -7.2621586    248.61676  0.032121029  0.032681668            2 
  646000    1.1627723   -7.2064689    249.89973  0.032236807  0.032675974            2 
  647000    1.1521189   -7.2115935    251.11503  0.032343512  0.032670929            1 
  648000    1.1356264   -7.2069459    250.80914  0.032254261   0.03266605            2 
  649000    1.1606006   -7.2357464    250.80777  0.032204388   0.03266114            1 
  650000     1.141407   -7.2033288     251.3339  0.032222295  0.032655966            1 
  651000    1.1168917   -7.2383456    251.02551  0.032133322  0.032650536            1 
  652000    1.1480715   -7.2787149      250.897  0.032067612  0.032644639            1 
  653000    1.1545517   -7.2237232    252.26022  0.032192473  0.032639045            1 
  654000    1.1358369   -7.2615396    251.61241  0.032060705  0.032633775            1 
  655000    1.1444459   -7.2225491    253.28729  0.032224847  0.032628535            1 
  656000    1.1615426   -7.2141861    253.81051  0.032242188  0.032623695            2 
  657000    1.1562209   -7.2543035    253.43048  0.032144911  0.032619023            2 
  658000    1.1508682   -7.2017605    254.73339  0.032261067  0.032614458            1 
  659000    1.1596896   -7.2632108    254.36339  0.032165325  0.032609985            2 
  660000    1.1356051    -7.232251    254.35644  0.032115712  0.032604845            1 
  661000    1.1283706   -7.2096755     255.3627  0.032193987  0.032599737            1 
  662000    1.1165182   -7.2344627    254.74486   0.03206758  0.032594554            2 
  663000    1.1337769   -7.2383059    255.30154  0.032089183  0.032589175            2 
  664000    1.1405828   -7.2017896    256.63663  0.032208413  0.032583732            1 
  665000    1.1342091   -7.2534403    255.92502  0.032070805  0.032577872            2 
  666000    1.1400438   -7.2546615    256.15793  0.032051793  0.032572349            1 
  667000    1.1583239    -7.230441    257.10725  0.032122345  0.032566735            1 
  668000    1.1513737   -7.2566201    256.94152  0.032053583  0.032561162       -1e+20 
  669000    1.1500512   -7.2141348    257.72086  0.032102747  0.032555752            2 
  670000    1.1411966   -7.2172783    257.20381  0.031990523  0.032550159            1 
  671000     1.101687   -7.2486616    257.53805  0.031984357    0.0325445            2 
  672000    1.1395596   -7.2473174    257.79025  0.031968036  0.032538384            3 
  673000    1.1592638   -7.2725923    258.50449  0.032008976  0.032532191            1 
  674000    1.1451552   -7.2837046    258.47573  0.031957929  0.032525859            2 
  675000    1.1322766    -7.237698    259.32368  0.032015269  0.032519735            1 
  676000    1.1315663   -7.2796812    258.67312  0.031887712  0.032513399            2 
  677000    1.1423692   -7.2749466     258.9583  0.031875714  0.032507475            1 
  678000    1.1535489   -7.2798906    260.68214  0.032040578  0.032501605            2 
  679000    1.1540322   -7.2104925    260.33551  0.031950848  0.032495994            2 
  680000    1.1470872   -7.2144152    260.25178  0.031893601  0.032490103            2 
  681000    1.1369182   -7.3078096    260.74448  0.031907058  0.032484157            2 
  682000    1.1700508   -7.2183609     261.5963  0.031964357  0.032478242            1 
  683000     1.136353   -7.2278791    261.83175  0.031946285  0.032472522            2 
  684000    1.1549927    -7.270749    261.78491  0.031893873  0.032466352            1 
  685000    1.1449077   -7.2201986    261.92761  0.031864672  0.032459944            1 
  686000     1.122936   -7.2370977     262.8347  0.031928414  0.032453481            2 
  687000     1.144908   -7.2174262    263.20355   0.03192668  0.032447139            2 
  688000    1.1493594   -7.2346216      263.726  0.031943556   0.03244103            1 
  689000    1.1585341   -7.2508396    263.94099  0.031923196  0.032434975            1 
  690000    1.1300536   -7.2397871    263.44888  0.031817497  0.032428881            2 
  691000    1.1425947   -7.2524325    264.64025  0.031915129  0.032422644            1 
  692000    1.1005349   -7.2429213    265.48279  0.031970471  0.032416829            3 
  693000    1.1671876   -7.2616536    264.65274  0.031824524  0.032411175            1 
  694000    1.1620772   -7.2231979    265.77008  0.031912834  0.032405224            3 
  695000    1.1558271   -7.2820798    266.13016  0.031910091  0.032399183            2 
  696000    1.1223985    -7.246935    266.07943  0.031858169  0.032392956            2 
  697000     1.140105   -7.2436713    266.08107  0.031812658  0.032386751            2 
  698000    1.1292005   -7.2889617    266.38204  0.031803013   0.03238031            1 
  699000    1.1473597   -7.2442563    266.52982  0.031775134   0.03237371            1 
  700000    1.1468491   -7.2509976    267.49963  0.031845193  0.032367684            1 
  701000     1.124638    -7.259613    268.44328  0.031911944  0.032361992            1 
  702000    1.1690106   -7.2300842    268.56314  0.031880714  0.032356553            1 
  703000    1.1583819   -7.2877803    267.40549  0.031698138  0.032350407            2 
  704000    1.1482804   -7.2561393     268.6104  0.031795739  0.032344287            1 
  705000    1.1461772   -7.2233318    268.61573  0.031751268  0.032337652            1 
  706000     1.129937   -7.2336954    268.98889  0.031750341  0.032331478            1 
  707000    1.1442946   -7.2382406    269.69346  0.031788479  0.032325455            2 
  708000    1.1467873   -7.2203076     270.3463  0.031820422  0.032318739            2 
  709000    1.1354668   -7.2657216    269.73779  0.031704018  0.032312513            3 
  710000    1.1327923   -7.2517456    270.16336  0.031709314  0.032305719            1 
  711000    1.1672779   -7.2490523    271.01521  0.031764558  0.032298904            2 
  712000    1.1442183    -7.256474    270.89386  0.031705742   0.03229258            2 
  713000    1.1294372   -7.2569125    271.68582  0.031753836  0.032286435            2 
  714000    1.1092788   -7.2372496    271.79111  0.031721651  0.032280197            1 
  715000    1.1259448   -7.2396573    273.28006  0.031850823  0.032274497            1 
  716000    1.1121017   -7.2830517    272.30836  0.031693245  0.032268251            3 
  717000     1.126324   -7.2563626    273.10051   0.03174111  0.032262079            1 
  718000    1.1303193   -7.2665407    273.68313  0.031764523  0.032256103            1 
  719000    1.1162516   -7.2530613    274.85966  0.031856707   0.03225046            1 
  720000    1.1172988   -7.2460255    274.52834  0.031774114   0.03224499            3 
  721000    1.1338008   -7.2526792    275.96091   0.03189562  0.032239502            1 
  722000    1.1004709   -7.2476866    275.23331  0.031767464  0.032234076            2 
  723000    1.0982155    -7.270992    275.53335  0.031758109  0.032228416            1 
  724000    1.1319161   -7.2663753    275.79105  0.031743905   0.03222288            4 
  725000    1.1291943   -7.2813711    276.21351  0.031748679  0.032217429            3 
  726000    1.0963237   -7.2622099    276.93024  0.031787218  0.032211808            1 
  727000    1.1224033   -7.2587593    276.37937   0.03168035   0.03220615            2 
  728000    1.1336075   -7.2719911    277.37317  0.031750592  0.032200588            1 
  729000    1.1294958   -7.2536167    278.02625  0.031781692  0.032194853            2 
  730000     1.142274   -7.2778312    277.40094  0.031666774  0.032189337            1 
  731000    1.1198836   -7.2538731    278.79899  0.031782831  0.032183866            2 
  732000    1.1336988   -7.2747619    279.14638   0.03177896  0.032178245            1 
  733000    1.1480519   -7.2355399    279.53294  0.031779552  0.032172741            2 
  734000    1.0973663   -7.2585375     280.3479   0.03182878  0.032167248            2 
  735000    1.1491711   -7.2852185     279.3788  0.031675601  0.032161685            1 
  736000    1.1671578   -7.2651315     280.0753  0.031711425  0.032156056            2 
  737000      1.12353   -7.2681245    279.65336  0.031620687  0.032150543            1 
  738000    1.1305852   -7.2414199     280.7585  0.031702631  0.032144987            3 
  739000    1.1421023   -7.2590133    280.88421  0.031673907  0.032139289            1 
  740000    1.1303705   -7.2100681     281.8512      0.03174  0.032133357            1 
  741000    1.1530262   -7.2854555    281.54032  0.031662204  0.032127752            1 
  742000    1.1304652   -7.2688838    282.01159  0.031672461  0.032121962            2 
  743000    1.1018604   -7.2529575    282.45212  0.031679242  0.032116429            2 
  744000    1.1357048   -7.2441795    283.02457   0.03170078  0.032110988            1 
  745000    1.1388992   -7.2719931    283.47461  0.031708569  0.032105822            1 
  746000    1.1254131   -7.2691442    284.33004  0.031761622  0.032100918            1 
  747000    1.1286812   -7.2791179    284.83777  0.031775744  0.032096184            2 
  748000    1.1197276   -7.2106813    286.15634  0.031880162  0.032092099            1 
  749000    1.1182378   -7.2967673    285.79794  0.031797724  0.032087791            2 
  750000    1.1256327   -7.2577281    286.39788  0.031821987  0.032083606            1 
  751000    1.1050622   -7.2360683    287.22822  0.031871751  0.032079267            3 
  752000    1.1115235   -7.2894178    287.35018  0.031842883  0.032075347            1 
  753000    1.1195031   -7.2210941     288.9618  0.031978951  0.032071382            1 
  754000    1.1257217   -7.2276597    288.18932  0.031851163  0.032067476            4 
  755000    1.1241307   -7.2726897    287.90725  0.031777842  0.032062988            1 
  756000    1.1367608   -7.2977983    288.41882  0.031792198  0.032058691            1 
  757000    1.1629226   -7.2467327    288.99764  0.031813918  0.032054333            1 
  758000    1.1349336   -7.2903475    288.72349  0.031741808  0.032049944            1 
  759000    1.1324278    -7.277945    289.03241  0.031733905  0.032045178            2 
  760000    1.1297826   -7.2988207     289.2005  0.031710581  0.032040447            2 
  761000    1.1397493   -7.3018971    289.30881  0.031680772   0.03203533            2 
  762000    1.1451756    -7.244405    290.17322  0.031733729  0.032030492            3 
  763000    1.1078167    -7.319013    289.06016  0.031570573  0.032025409            2 
  764000    1.1386899   -7.3282572    289.57497  0.031585402   0.03202029            1 
  765000    1.1124866   -7.2604732    291.25582  0.031727213  0.032015363            2 
  766000    1.1127991   -7.2663191    291.17948  0.031677489  0.032010587            1 
  767000    1.1165995    -7.275463     291.3095  0.031650315  0.032005586            2 
  768000    1.1298466   -7.3006521    291.78465  0.031660661  0.032000795            1 
  769000    1.1103482   -7.2570521    292.07734  0.031651207  0.031995786            1 
  770000    1.1398447     -7.30168    292.01634    0.0316035  0.031990885            1 
  771000    1.1047344    -7.291855    293.05249  0.031674502  0.031985985            4 
  772000    1.1389559   -7.2367973    293.80915   0.03171515  0.031981276            2 
  773000    1.1171188   -7.2899183    293.05574    0.0315929  0.031976326            1 
  774000    1.1268545   -7.2492679       294.04  0.031658054  0.031971289            1 
  775000    1.1423884   -7.2718551    294.76689  0.031695365  0.031966544            1 
  776000    1.1595871   -7.2850999    294.08724  0.031581534  0.031961555            2 
  777000    1.1147091   -7.2287687    295.79171  0.031723692  0.031956994            2 
  778000    1.1181273   -7.2796342    295.66625  0.031669478  0.031952737            1 
  779000    1.1469652   -7.3171218    294.78164  0.031534193  0.031947876            3 
  780000    1.1095121   -7.2472489    296.91247  0.031721417  0.031942873            1 
  781000    1.0882888   -7.2820271    296.42462  0.031628747  0.031938023            2 
  782000    1.1150494   -7.2511377     296.7209  0.031619874  0.031933011            1 
  783000    1.1380379   -7.3082778    296.32262  0.031537103  0.031927813            2 
  784000    1.1478434    -7.261909     296.5755  0.031523756   0.03192279            3 
  785000     1.140523   -7.3031577    297.53787  0.031585761    0.0319176            3 
  786000    1.1221575    -7.235731    297.53414   0.03154518  0.031912295            1 
  787000    1.1165683   -7.2631526    298.50417  0.031607811  0.031906867            3 
  788000    1.1035699    -7.277562    297.88909  0.031502653  0.031901456            1 
  789000    1.1276745   -7.2634332    299.52865  0.031635895  0.031896256            1 
  790000    1.1366948   -7.2611231     299.5087  0.031593745  0.031891052            5 
  791000    1.1218958   -7.2343965    299.01137  0.031501408  0.031886138            4 
  792000    1.1088552   -7.2782166    299.91076  0.031556267  0.031881077            3 
  793000    1.1165561   -7.2438209    300.91038  0.031621519  0.031876135            2 
  794000    1.1404706   -7.2554005    300.66008  0.031555424  0.031871162            1 
  795000    1.1210166   -7.3220143    299.94287  0.031440552  0.031866056            2 
  796000    1.1074349   -7.2850487    300.98125  0.031509763  0.031860636            1 
  797000    1.1108482   -7.2886811    300.55435  0.031425591  0.031855112            4 
  798000    1.1162703   -7.2552838    301.18405  0.031451968  0.031849711            1 
  799000    1.1257089   -7.2997405     300.6038  0.031352086  0.031844532            2 
  800000    1.1207501   -7.2953066    301.56717  0.031413247  0.031839196            2 
  801000    1.0986417   -7.3063808    301.76048  0.031394141  0.031833602            5 
  802000     1.133778   -7.2758685    302.37636  0.031418989  0.031828294            2 
  803000    1.1340839   -7.2628742    303.86939  0.031534806  0.031823004            2 
  804000    1.1455763   -7.2847431    303.86854  0.031495495  0.031818131            2 
  805000    1.1171902   -7.2771417    303.37181   0.03140495  0.031813072            1 
  806000    1.1110429   -7.2873646    304.36119  0.031468279   0.03180788            1 
  807000     1.096615   -7.2459336     304.4351  0.031436917  0.031802629            2 
  808000    1.1068103   -7.2895596    305.07796  0.031464311  0.031797622            3 
  809000    1.1229573   -7.3124644    304.98196  0.031415529  0.031792291            1 
  810000     1.130778   -7.2949982    304.66613  0.031344252  0.031786753            1 
  811000    1.1215381   -7.2574134    307.31644  0.031577933   0.03178127            2 
  812000    1.1347098   -7.3212568    305.96652  0.031400505  0.031776063            2 
  813000    1.1321213   -7.2970097    305.96168  0.031361386  0.031770788            1 
  814000    1.1221512   -7.2860227    307.37653  0.031467703  0.031765639            1 
  815000    1.1376072   -7.3133795    307.18381  0.031409388  0.031760555            1 
  816000    1.1170667    -7.272745    308.28589  0.031483444  0.031755854            1 
  817000    1.1229142   -7.2945417    307.71753  0.031386937  0.031751001            2 
  818000    1.1243001   -7.3140435    307.59032  0.031335607  0.031745882            1 
  819000    1.1349675   -7.2522322    309.16718  0.031457792  0.031740784            3 
  820000    1.1585451   -7.2827377    308.75511  0.031377552  0.031735755            2 
  821000    1.1560373   -7.2732488    307.76186  0.031238516  0.031730397            2 
  822000    1.1258251    -7.273747    309.11896  0.031338095  0.031724801            1 
  823000    1.1220902   -7.3174126    309.11311  0.031299424  0.031719135            2 
  824000    1.1275193   -7.3065956    310.55025  0.031406781  0.031713004            3 
  825000    1.1122536   -7.3053097    309.73275  0.031286137  0.031707303            1 
  826000    1.1082344   -7.2817036    309.98087  0.031273292  0.031701611            2 
  827000    1.1140613   -7.2405684    309.95983  0.031233357  0.031695811            4 
  828000    1.1149937   -7.3190505    310.35212  0.031235117  0.031689929            2 
  829000    1.0973765   -7.3463178    310.81557  0.031244026  0.031683832            1 
  830000    1.1401646   -7.2823308    310.79826  0.031204645  0.031677915            1 
  831000    1.1183812   -7.3196787    311.53877  0.031241353  0.031672412            3 
  832000    1.1299912   -7.2976818     312.5419  0.031304277  0.031666476            1 
  833000    1.1229064    -7.256921     312.4963  0.031262135  0.031660644            1 
  834000     1.127107   -7.3414071    312.36237  0.031211268  0.031654912            2 
  835000    1.1075815   -7.2694188     312.4238   0.03118002  0.031648529            1 
  836000    1.1309422   -7.3029944    312.28787  0.031129174  0.031642212            1 
  837000     1.108629   -7.2977231    312.37739  0.031100895  0.031635634            1 
  838000    1.1241462    -7.305497    312.68859  0.031094728  0.031629155            1 
  839000    1.1277325   -7.2629156    314.08287  0.031196153  0.031623088       -1e+20 
  840000    1.1338042   -7.3143943    313.76702   0.03112768  0.031616883            1 
  841000    1.1063727   -7.2706092    314.85005  0.031197984  0.031610806            2 
  842000    1.1449512   -7.2756289    315.02269  0.031178017  0.031604505            1 
  843000    1.1337679    -7.284498    314.15413  0.031055173  0.031598127            1 
  844000    1.1228009     -7.31255    314.96384  0.031098325  0.031591825            2 
  845000    1.1101881   -7.2921128    314.97577  0.031062699  0.031585042            1 
  846000     1.094316   -7.3059216    314.11391  0.030941086  0.031577749            1 
  847000     1.119959   -7.2874971    315.01169  0.030992886  0.031570398            2 
  848000    1.1233938   -7.3291056    315.21973  0.030976781  0.031563019            1 
  849000    1.1128687   -7.2927118    315.59746  0.030977372  0.031555905            1 
  850000    1.1222027    -7.295152     315.5485  0.030936127  0.031548817            1 
  851000    1.1052752   -7.3087409    315.87394  0.030931643  0.031542202            2 
  852000    1.1293067   -7.2649083    316.80086     0.030986  0.031535366            1 
  853000    1.1188951   -7.2753217    317.69157  0.031036691  0.031528564            1 
  854000    1.1453582   -7.2729605    317.53497  0.030985067  0.031521647            1 
  855000    1.1080344   -7.3529929    316.33808  0.030832171   0.03151426            3 
  856000    1.1209397   -7.2900681    317.43367  0.030902811  0.031506885            1 
  857000    1.1274643   -7.3192336    315.98227  0.030725619  0.031499385            2 
  858000    1.1085063   -7.3154413    317.95188  0.030881107  0.031491947            2 
  859000    1.1100354   -7.3224772    317.41211  0.030792793  0.031484651            4 
  860000    1.1025421   -7.3445264    317.85906  0.030800297  0.031476901            3 
  861000    1.1070287   -7.2980354    319.02172  0.030877054  0.031469255            1 
  862000    1.1010067   -7.3084292    318.88174  0.030827701  0.031461659            1 
  863000     1.116545    -7.284571     319.4152  0.030843492  0.031453732            1 
  864000    1.1222679   -7.2840263    319.60716  0.030826308  0.031446395            2 
  865000    1.1204853   -7.3599101    318.89556  0.030722115  0.031439076            1 
  866000    1.1149526    -7.316248    319.55233   0.03074984  0.031431409            1 
  867000     1.134952   -7.3241817    319.74576  0.030732964  0.031423861            3 
  868000    1.1176025   -7.3433028    320.21189  0.030742309  0.031416517            2 
  869000    1.1131076   -7.3188409    320.29215  0.030714628  0.031408839            1 
  870000    1.1255922   -7.2767536    321.78543  0.030822359  0.031401359            2 
  871000    1.1226627   -7.2708168     322.4761  0.030853052  0.031394174            3 
  872000    1.1340855   -7.3010211    322.24763  0.030795836  0.031386908            2 
  873000    1.1105904   -7.3039584    323.97275  0.030925234  0.031379802            1 
  874000    1.1253942   -7.3459893    322.67918  0.030766512  0.031372902            4 
  875000    1.1323042   -7.3468216    323.24792  0.030785516  0.031365742            3 
  876000    1.1438323   -7.3353706    324.86603  0.030904303  0.031358519            2 
  877000    1.1142622    -7.334061    323.36224  0.030726172  0.031351454            1 
  878000    1.1286901   -7.3429706    324.18456  0.030769226  0.031344292            2 
  879000    1.1075155   -7.3376389    324.48239  0.030762456  0.031337248            2 
  880000     1.117998   -7.3352645    323.93485  0.030675648  0.031329943            1 
  881000    1.1058552   -7.3265897    324.33233  0.030678427  0.031322553            1 
  882000    1.1107241   -7.2654554    326.06015  0.030806893  0.031315533            1 
  883000    1.1000861   -7.3500778     325.8969  0.030756597  0.031308562            1 
  884000     1.110877   -7.3325081    326.58408  0.030786584  0.031301482            1 
  885000    1.1123894   -7.3225358    326.57031    0.0307505  0.031294678            2 
  886000    1.1120067   -7.2907476    327.00041  0.030756246   0.03128794            3 
  887000    1.1224579   -7.2918428    327.24068  0.030744145  0.031281177            4 
  888000    1.1356973   -7.2914736    327.21706  0.030707307  0.031274316            2 
  889000    1.0948058   -7.3082788    328.95402  0.030835584  0.031267581            1 
  890000    1.1226461   -7.3187415    327.66582   0.03068032  0.031260573            2 
  891000    1.1370096   -7.3723899     327.1634  0.030598897  0.031253289            1 
  892000    1.1191343   -7.2981291    328.93598  0.030730192  0.031246231            1 
  893000    1.1211848   -7.3060611    330.07399  0.030801977  0.031239433            1 
  894000    1.1069634   -7.3464488    328.59926  0.030630058  0.031232442            2 
  895000    1.1179383   -7.3153008    329.37352  0.030667926  0.031225725            2 
  896000    1.0970803   -7.3292309    329.68251  0.030662436   0.03121906            2 
  897000    1.1045704   -7.3406229    330.82057  0.030733981  0.031212372            1 
  898000    1.1040157   -7.3035159    331.22299    0.0307371  0.031205628            1 
  899000    1.1038932   -7.3110074    332.09415  0.030783662  0.031198705            1 
  900000    1.1262062   -7.3279521    332.04809  0.030745194  0.031192154            3 
  901000    1.1060001    -7.345888    331.14607  0.030627642   0.03118554            3 
  902000    1.1039927   -7.3025915    332.57696  0.030725884  0.031178808            3 
  903000    1.1253847   -7.3194578    332.54333  0.030688753  0.031172372            1 
  904000    1.0918268   -7.3088227    333.00983  0.030697809  0.031165871            1 
  905000    1.0886933   -7.3356784    332.46332  0.030613565  0.031159306            3 
  906000    1.1068093   -7.3086459    335.11406  0.030823589  0.031152783            1 
  907000    1.1019702   -7.3137346    333.57932  0.030648596   0.03114606            2 
  908000    1.1070418   -7.3176422    334.46086  0.030695747  0.031139443            1 
  909000    1.0838276   -7.3159609    334.47665  0.030663426   0.03113272            1 
  910000    1.1028573   -7.3441471    334.38757  0.030621572   0.03112588            2 
  911000    1.0910623   -7.3549546    334.30361  0.030580279  0.031119023            2 
  912000    1.1036655   -7.3277705    334.85456   0.03059709  0.031112333            3 
  913000    1.1121682   -7.3303292    336.90794  0.030750999  0.031105529            1 
  914000     1.098541   -7.3385532    336.17075  0.030650141  0.031098953            3 
  915000     1.126646   -7.3324575    335.98167  0.030599423  0.031092097            1 
  916000    1.1175859   -7.3192718    336.90964   0.03065044  0.031085428            1 
  917000    1.0868054   -7.3433115    336.87072  0.030613479  0.031078784            2 
  918000     1.099263   -7.2892265    336.63293  0.030558545  0.031072339            2 
  919000    1.1053735   -7.2971949    338.12307  0.030660417  0.031065737            4 
  920000    1.0963219   -7.3076966    338.10768  0.030625696  0.031058872            1 
  921000    1.1005472   -7.3669985    337.65602  0.030551576    0.0310521            1 
  922000     1.089139   -7.3173497    337.53575   0.03050757  0.031045313            2 
  923000    1.0879511   -7.2863177    339.25676  0.030629899  0.031038757            2 
  924000    1.1423935   -7.3678944    337.17845  0.030409312  0.031031833            2 
  925000     1.095604   -7.3493169    337.80253  0.030432661   0.03102437            2 
  926000    1.1040929   -7.2919151    338.25281  0.030440318  0.031016874            1 
  927000    1.0588445   -7.3061287    338.06914  0.030390969  0.031009913            2 
  928000     1.108891   -7.2665947    339.82041  0.030515482  0.031002853            2 
  929000    1.1127703   -7.3723503    338.52607   0.03036653  0.030995473            1 
  930000    1.0809498   -7.3199847    340.19411  0.030483343  0.030988378            1 
  931000    1.0816607   -7.3064859    341.18676  0.030539452   0.03098124            3 
  932000    1.1341584   -7.3476552    340.80299   0.03047237  0.030974224            4 
  933000    1.0946754   -7.3104637    342.09766  0.030555346  0.030967274            1 
  934000    1.1030693   -7.2842271    341.72586  0.030489459  0.030960357            2 
  935000    1.1146868   -7.3334264    340.97409  0.030389848  0.030953018            1 
  936000    1.1114339    -7.305368    341.75696  0.030427079  0.030945786            1 
  937000    1.0881254   -7.3376354    341.29396  0.030353429  0.030938552            2 
  938000    1.0994516    -7.365263    340.79794  0.030277002  0.030930754            1 
  939000    1.0881981   -7.3510759    341.62661    0.0303183  0.030923216            2 
  940000    1.0846906   -7.3052562    342.86084  0.030395465  0.030915711            2 
  941000    1.0944413   -7.3739202    342.32085  0.030315343  0.030908579            2 
  942000    1.1048401   -7.3388346    342.78273  0.030324021  0.030901108            2 
  943000    1.0955774   -7.3299953    344.10208  0.030408455  0.030893958            1 
  944000    1.0933903    -7.310676    343.69922   0.03034068  0.030886859            2 
  945000    1.1226563   -7.3303159    343.53244  0.030293866  0.030879714            2 
  946000     1.085623    -7.398664    343.84972  0.030289792  0.030872532            1 
  947000    1.0867852   -7.3644201    342.44186  0.030133919  0.030865135            3 
  948000    1.0968747   -7.3383794    343.88346  0.030228855  0.030857642            2 
  949000    1.0711926   -7.3388438    344.76091  0.030274052  0.030850233            1 
  950000    1.0806212   -7.3373767    345.00391  0.030263501   0.03084255            2 
  951000    1.1085666   -7.3324521      345.551  0.030279618   0.03083494            2 
  952000    1.1138743   -7.3778217     344.8691  0.030188121  0.030827346            3 
  953000    1.0958383   -7.3399699    346.65506  0.030312615  0.030820206            1 
  954000    1.1048712   -7.3451506    346.28882  0.030248849   0.03081307            1 
  955000    1.0988416   -7.3344139    347.88026  0.030356044  0.030806036            1 
  956000    1.1134385   -7.3311798    348.66281  0.030392504  0.030798997            1 
  957000    1.1065983   -7.3382205    348.54589  0.030350565   0.03079212            2 
  958000    1.0848438   -7.3562336    347.66711  0.030242441   0.03078503            1 
  959000    1.0890808   -7.3321994    348.41663  0.030276037  0.030777913            1 
  960000     1.080964   -7.3508526    349.77228  0.030362177  0.030770896            1 
  961000    1.1167781   -7.3200128    349.50871  0.030307727  0.030763862            1 
  962000    1.1295552   -7.3654375    349.86413   0.03030701  0.030756918            1 
  963000    1.0995166   -7.3515473    348.88904  0.030191159  0.030749883            1 
  964000    1.0894162   -7.3303164    350.79301  0.030324431  0.030742904            1 
  965000     1.087085   -7.3917147    349.82253  0.030209199  0.030735901            1 
  966000    1.0925493    -7.326603    350.72578  0.030255847  0.030728926            3 
  967000    1.0953614     -7.36508    350.47788  0.030203196  0.030721995            4 
  968000    1.0956124   -7.3307351    351.77742  0.030283869  0.030715203            4 
  969000    1.0765462    -7.343643    352.01044  0.030272656  0.030708665            2 
  970000    1.0657774    -7.320422    352.30225  0.030266516  0.030702031            1 
  971000    1.1198321   -7.3075365     353.0898  0.030302935  0.030695487       -1e+20 
  972000     1.096208   -7.3485335    353.27636  0.030287754  0.030689334            3 
  973000    1.0697658   -7.3637723    353.91263   0.03031112  0.030682723            2 
  974000    1.1151784   -7.3480266    353.48928  0.030243779  0.030676017            2 
  975000    1.0765646   -7.3578637    353.64942  0.030226446  0.030669476            4 
  976000    1.1021489   -7.3785292    353.41811  0.030175727  0.030662626            1 
  977000     1.089199   -7.3654646    353.73382  0.030171769  0.030655865            1 
  978000    1.0777515   -7.3510055    354.20921  0.030181425  0.030649122            2 
  979000    1.0992783   -7.3604391     354.6147  0.030185113  0.030642483            1 
  980000     1.094886   -7.3086743    356.08667  0.030279479  0.030635722            2 
  981000    1.0941293   -7.3471174    355.08227  0.030163292  0.030629049            3 
  982000    1.1037555   -7.3308612    355.82502  0.030195606  0.030622436            1 
  983000    1.0865172   -7.3317321    355.70446  0.030154668  0.030615666            1 
  984000    1.1145129   -7.3485132    356.22699  0.030168275  0.030608854            2 
  985000    1.0856901   -7.3513929    356.80984  0.030186958  0.030602134            1 
  986000    1.1122699   -7.3420296    356.47719  0.030128228  0.030595339            1 
  987000    1.1007639   -7.3396795     357.5162  0.030185428  0.030588361            1 
  988000    1.0927071   -7.3573481    358.81063  0.030264055  0.030581695            1 
  989000    1.1130599   -7.3601683    357.59243  0.030130808  0.030575184            5 
  990000    1.0968029   -7.3419022    357.91279  0.030127339  0.030568667            2 
  991000    1.0700428   -7.3481672    359.25368  0.030209694  0.030562028            5 
  992000    1.0813075   -7.3315743    358.57148  0.030121932  0.030555149            2 
  993000    1.0969967    -7.369465    359.05058  0.030131804  0.030548262            3 
  994000    1.0634715   -7.3503851    358.48707  0.030054248  0.030541438            1 
  995000    1.0932845   -7.3624007    357.76314  0.029963412  0.030534618            4 
  996000    1.0742264   -7.3205567    360.78307     0.030186  0.030527639            1 
  997000    1.0954049   -7.3537985    359.83646  0.030076602  0.030520945            1 
  998000    1.1023492   -7.3359807    360.08872  0.030067528  0.030514037            1 
  999000     1.070031   -7.3363665    360.91499  0.030106356  0.030507085            1 
 1000000    1.0937007   -7.3408884    360.69422  0.030057851  0.030500309            1 
 1001000    1.1009855   -7.3533216    360.68624  0.030027159  0.030493303            2 
 1002000    1.0792954   -7.3520001    360.91574  0.030016279  0.030486416            1 
 1003000    1.1031444   -7.3697193    361.45773  0.030031383  0.030479741            3 
 1004000    1.0949594   -7.3403828    363.39641  0.030162384  0.030473108            2 
 1005000     1.086406   -7.3341476    363.27406  0.030122227  0.030466708            1 
 1006000    1.1003827   -7.3344721    363.81287  0.030136917  0.030460213            1 
 1007000     1.119652   -7.3905302    362.75391  0.030019357  0.030453788            1 
 1008000    1.1006354   -7.3831593    364.31844  0.030118919  0.030447606            1 
 1009000    1.0910262   -7.3480813    364.79981  0.030128825  0.030441525            2 
 1010000    1.0847178   -7.3769957     363.6597  0.030004926  0.030435301            3 
 1011000    1.0738642    -7.360529    364.87739  0.030075617  0.030429014            1 
 1012000    1.0921811   -7.3777536    365.05416  0.030060455  0.030422524            1 
 1013000    1.1000711   -7.3782273     363.8629  0.029932782  0.030415885            2 
 1014000    1.0992373   -7.4110484    364.33506  0.029942066  0.030409344            1 
 1015000    1.0827996   -7.3515907    365.59135   0.03001571  0.030402935            3 
 1016000     1.104452   -7.3820497    365.46403  0.029975724   0.03039656            1 
 1017000    1.1014096   -7.3580478    367.69768  0.030129275  0.030390357            2 
 1018000    1.0940319   -7.3311488    367.48242  0.030082058   0.03038412            2 
 1019000    1.0947719   -7.3784243    366.25208   0.02995192  0.030378018            1 
 1020000    1.0901326   -7.3665607    366.93367  0.029978241  0.030371763            1 
 1021000    1.0688081   -7.3901023    368.04637  0.030039697  0.030365624            2 
 1022000    1.0921648    -7.345351    369.23163   0.03010695  0.030359323            2 
 1023000    1.1190488   -7.3761258    368.13339  0.029988057  0.030352863            3 
 1024000    1.1008987   -7.3954527    368.05419  0.029952327  0.030346279            1 
 1025000    1.0683861   -7.3232645    368.66328  0.029972624  0.030339612            3 
 1026000    1.0918071   -7.3788522     369.0018  0.029970906  0.030333078            2 
 1027000    1.0855111   -7.3714156    368.23855  0.029879791  0.030326653            1 
 1028000    1.0861472   -7.3443079    369.64028  0.029964355  0.030320216            1 
 1029000    1.0974189    -7.344132    370.56711  0.030010294  0.030313648            2 
 1030000    1.1002051   -7.3637777    370.47322  0.029973562   0.03030733            1 
 1031000    1.0892005   -7.3656749    370.09965  0.029914295  0.030301102            1 
 1032000    1.0684802   -7.3989628    369.68516  0.029851838  0.030294731            3 
 1033000     1.095435   -7.3954106     370.6965  0.029904526  0.030288267            3 
 1034000     1.077651   -7.3820184    371.09581  0.029907786  0.030281805            1 
 1035000    1.0775969   -7.3725402    371.73055  0.029929996  0.030275203            2 
 1036000    1.0866014   -7.4104912    372.28511  0.029945713  0.030268757            1 
 1037000    1.1156251   -7.4054869    371.34048  0.029840926  0.030262232            1 
 1038000    1.0884366   -7.3777747    372.54473  0.029908857  0.030255936            2 
 1039000    1.0648793   -7.3923565    372.11875  0.029845906   0.03024961            2 
 1040000     1.080235   -7.3676431    373.95365  0.029964235  0.030243296            1 
 1041000    1.1019185   -7.4066844     372.9117  0.029852041   0.03023696            3 
 1042000    1.1044754   -7.3833948    373.49214  0.029869813   0.03023055            4 
 1043000    1.0587816   -7.3833275    374.32139   0.02990743  0.030224516            1 
 1044000    1.0690229   -7.4013757    373.36615  0.029802534  0.030218122            4 
 1045000    1.0686806   -7.3360016    376.64083  0.030035154  0.030211883            1 
 1046000    1.0689654   -7.4162873      375.106  0.029884162  0.030205593            1 
 1047000    1.0588266    -7.361166    375.04137  0.029850475  0.030199395            2 
 1048000    1.0716322   -7.3903608    374.82482  0.029804772  0.030193193            1 
 1049000    1.0710547   -7.3603794    375.45299  0.029826263  0.030186791            2 
 1050000    1.0778194   -7.3968146     375.7719  0.029823167  0.030180268            1 
 1051000    1.0943108   -7.3319146    377.50161  0.029931939  0.030173886            6 
 1052000    1.0746807   -7.3841631    376.07774  0.029790695  0.030167381            1 
 1053000    1.0992432   -7.3299315    377.50624  0.029875454  0.030161105            1 
 1054000    1.0897274   -7.4047849      375.817  0.029713552  0.030154619            3 
 1055000    1.0730773   -7.3805185    378.61664  0.029906527  0.030148193            1 
 1056000    1.1026469    -7.396845    376.49734  0.029710964  0.030141927            2 
 1057000    1.0875724   -7.3826893    376.86359  0.029711731  0.030135427            2 
 1058000    1.1116621   -7.3459717    379.78607  0.029913837  0.030129195            1 
 1059000    1.0987326   -7.3848332    378.27524  0.029766702  0.030123038            5 
 1060000    1.0757364   -7.4116442    377.76699  0.029698663  0.030116576            1 
 1061000    1.1001851   -7.3887051    378.56804  0.029733588  0.030109968            1 
 1062000    1.0618523   -7.3415141    379.08917  0.029746482  0.030103608            3 
 1063000    1.1052834   -7.3937862    378.92091  0.029705308   0.03009726            1 
 1064000    1.0877156   -7.3619892    379.03382  0.029686233  0.030090734            1 
 1065000    1.0926374   -7.3918121    378.53069   0.02961899  0.030084227            3 
 1066000    1.0714512   -7.3833901    379.63337  0.029677406  0.030077719            1 
 1067000    1.0569853   -7.3822066    380.57084  0.029722808  0.030071305            2 
 1068000    1.0704234   -7.4010867    379.85398  0.029639043  0.030064905            1 
 1069000    1.0711309   -7.3620003     380.0917  0.029629848  0.030058225            2 
 1070000    1.0864267   -7.3894918    380.66318  0.029646665  0.030051632            1 
 1071000    1.0605709   -7.3693725     381.5375  0.029687014  0.030044948            1 
 1072000    1.0723221   -7.3690853    380.52959  0.029580969   0.03003818            2 
 1073000    1.1054066   -7.3718601    381.49506  0.029628383  0.030031237            3 
 1074000    1.0692623   -7.3376186    382.64865  0.029690305  0.030024508            1 
 1075000    1.0791128    -7.379781    380.46771  0.029493621  0.030017651            3 
 1076000    1.0782261   -7.3937387    382.80914  0.029647548  0.030010469            2 
 1077000    1.1109208   -7.3914145    381.76137  0.029538949  0.030003318            2 
 1078000    1.0957723   -7.3753593    382.53749  0.029571544    0.0299962            1 
 1079000    1.0653383   -7.3783124    381.91826  0.029496313  0.029989126            4 
 1080000    1.0866994   -7.3856721    383.03633  0.029555273  0.029982061            2 
 1081000    1.0833915   -7.3921308     382.7134  0.029503037  0.029974878            2 
 1082000    1.0693499   -7.3714418    383.67877  0.029550121  0.029967972            1 
 1083000    1.0962928   -7.4084171     382.6317  0.029442267  0.029960906            1 
 1084000    1.0786748   -7.3886772    384.24476  0.029539111  0.029953772            3 
 1085000    1.0871857   -7.3818671    384.40691  0.029524341  0.029946575            4 
 1086000    1.0833568   -7.3763923    384.96861  0.029540256  0.029939466            1 
 1087000    1.0856253    -7.359658    385.36518  0.029543482  0.029932439            4 
 1088000    1.0502591   -7.4210671     384.5443  0.029453454  0.029925499            3 
 1089000    1.0797529   -7.3692328     385.8348  0.029525161   0.02991822            1 
 1090000    1.0497728   -7.4045319    384.74504  0.029414758  0.029911171            5 
 1091000    1.1113327   -7.4165019    384.99391  0.029406806  0.029904116            1 
 1092000     1.082823   -7.4390587     385.5959  0.029425817  0.029896847            2 
 1093000    1.0662388   -7.3876152    386.71758  0.029484415  0.029889877            2 
 1094000    1.0800064   -7.3865657    386.87644  0.029469564  0.029882897            1 
 1095000    1.0853404   -7.3823209    388.41941  0.029560077  0.029876103            2 
 1096000     1.116904   -7.3320533    388.56889  0.029544472  0.029869463            1 
 1097000    1.0644012    -7.396033    387.84282  0.029462384  0.029862958            2 
 1098000    1.0982237   -7.3971016     389.1005  0.029531003  0.029856448            1 
 1099000    1.0721566   -7.4167699    388.58213  0.029464826  0.029849929            4 
 1100000    1.0643718    -7.390178    388.47525  0.029429943  0.029842977            2 
 1101000    1.0972409   -7.3965904    388.33267  0.029392421  0.029836355            2 
 1102000    1.0762263   -7.3983582    390.48413  0.029528443  0.029829855            2 
 1103000    1.0573005   -7.3978431    390.16825  0.029477807  0.029823295            3 
 1104000    1.0609599   -7.3682877    390.40396  0.029468898  0.029816654            1 
 1105000    1.0667219   -7.3725417    390.21852  0.029428245  0.029809811            2 
 1106000    1.0818577   -7.3711214    391.94035  0.029531371  0.029803194            3 
 1107000     1.062733   -7.3265538     392.4469  0.029542826  0.029796771            3 
 1108000    1.0669574   -7.4062282    390.31253  0.029355635  0.029790273            2 
 1109000    1.0979111   -7.4263722    390.13988  0.029316192  0.029783518            1 
 1110000    1.0773799   -7.4118058    392.39257  0.029458901  0.029776839            2 
 1111000      1.07476   -7.3929246    390.93895  0.029323353  0.029769878            2 
 1112000    1.0676215   -7.3896678    390.68424  0.029277896  0.029763134            2 
 1113000    1.0752702   -7.3744547     392.9343  0.029420058   0.02975624            2 
 1114000    1.0647824   -7.3700685    391.48182  0.029284995  0.029749392            3 
 1115000    1.0722042   -7.4042839    391.25378  0.029241688  0.029742316            1 
 1116000    1.0548062   -7.4140019    392.39092  0.029300397  0.029735068            2 
 1117000    1.0504014   -7.3817206    392.85145  0.029308523   0.02972794            2 
 1118000    1.0644837    -7.441382     390.3105  0.029092911   0.02972086            1 
 1119000    1.0678853   -7.3396299    394.15131  0.029352942    0.0297138            1 
 1120000    1.0960152   -7.4246368    393.19009  0.029255215  0.029706715            2 
 1121000    1.0984521   -7.4327628    392.59842  0.029185133  0.029699276            2 
 1122000    1.0766498   -7.3760512    392.49567  0.029151491  0.029691934            1 
 1123000     1.075482   -7.3792794    393.46269  0.029197291  0.029684452            3 
 1124000    1.0728422   -7.3827443    394.33108  0.029235697  0.029676847            3 
 1125000    1.0687881    -7.425982     392.9239  0.029105474  0.029669377            1 
 1126000    1.0943935   -7.4349138    393.57794   0.02912803   0.02966171            3 
 1127000    1.0841295   -7.4153699    394.96034  0.029204402   0.02965417            1 
 1128000    1.0608383   -7.4124636    394.82537  0.029168541  0.029646757            1 
 1129000    1.0953203   -7.4183177    394.40844  0.029111931  0.029639365            2 
 1130000    1.0890721   -7.4228653    394.73488  0.029110242  0.029631856            1 
 1131000      1.08537   -7.3647843    395.38994  0.029132769  0.029624444            1 
 1132000    1.0845333   -7.3797685     394.7541  0.029060225  0.029617032            1 
 1133000    1.0804589   -7.3990935    395.38813   0.02908121  0.029609731            2 
 1134000    1.0645051   -7.4098912    395.04134  0.029030081  0.029602203            2 
 1135000    1.1085935   -7.4259355    395.47275  0.029036178  0.029594502            1 
 1136000    1.0747483   -7.3842485    395.88997  0.029041224  0.029586839            2 
 1137000    1.0478903   -7.4303939    396.61215  0.029068612  0.029579368            4 
 1138000    1.0507192   -7.3923507    397.03396  0.029073957   0.02957172            3 
 1139000    1.0614446   -7.4248507    395.82158   0.02895973  0.029564116            1 
 1140000    1.0626976   -7.4419726    396.79795  0.029005698   0.02955644            2 
 1141000    1.0802157   -7.4093764    396.96664  0.028992597  0.029548674            3 
 1142000    1.0646996   -7.3822712    397.47707  0.029004456  0.029540978            2 
 1143000    1.0762987    -7.424509    398.97727  0.029088457  0.029533286            4 
 1144000    1.0377488   -7.3624988    397.57999  0.028961246  0.029525481            1 
 1145000    1.0576261   -7.4158859    397.87764  0.028957616  0.029517897            2 
 1146000    1.0550912   -7.4391215    397.14788  0.028879281   0.02950968            2 
 1147000    1.0465542   -7.4027898    398.34878  0.028941352  0.029501653            2 
 1148000    1.0907195   -7.3869213    399.51307  0.029000658  0.029493986            1 
 1149000    1.0604367   -7.3850513    400.13049  0.029020198  0.029486455            3 
 1150000    1.0536708   -7.4393489    399.60108    0.0289566  0.029478909            2 
 1151000    1.0666295   -7.4191238    400.25857  0.028979045  0.029471228            1 
 1152000    1.0565267   -7.3585555    399.61014  0.028906983  0.029463636            2 
 1153000    1.0592166   -7.4014391    399.67888   0.02888688  0.029456048            2 
 1154000    1.0550077   -7.4554507    399.90674  0.028878303  0.029448305            4 
 1155000     1.074851   -7.4098511    401.46978  0.028966074   0.02944105            1 
 1156000    1.0834527   -7.4332294     401.5783  0.028948839  0.029433536            2 
 1157000    1.0481546   -7.4673875    400.47437  0.028844308  0.029425869            3 
 1158000    1.0817889   -7.4349196    402.61586  0.028973508  0.029418328            3 
 1159000     1.083507   -7.4466836    402.88413  0.028967798  0.029410818            2 
 1160000    1.0672824   -7.4127493    402.50214  0.028915383  0.029403486            1 
 1161000    1.0729576   -7.3966148    402.19739  0.028868604  0.029396017            1 
 1162000    1.0521001   -7.4303537     401.5422  0.028796773  0.029388489            3 
 1163000    1.0543362   -7.4292364     403.2375  0.028893487  0.029381077            2 
 1164000      1.06854   -7.4252577    404.36706  0.028949532  0.029373719            5 
 1165000      1.04293   -7.4323651    403.88486   0.02889019  0.029366193            4 
 1166000    1.0611757   -7.4502679    403.50609  0.028838342  0.029358731            1 
 1167000     1.056758    -7.397028     405.0215  0.028921844  0.029351359            4 
 1168000    1.0709287    -7.419248    405.03481  0.028898032  0.029343929            2 
 1169000    1.0550048    -7.402545    404.81886  0.028857917  0.029336716            1 
 1170000    1.0616251   -7.3989813     406.4165  0.028947044  0.029329785            1 
 1171000     1.068005   -7.4417637    405.70517  0.028871703   0.02932255            2 
 1172000    1.0565708   -7.4129933    405.27106  0.028816202  0.029315227            2 
 1173000     1.056961   -7.3465668    407.06486  0.028919072  0.029308051            1 
 1174000    1.0677136   -7.4179357    405.28793  0.028768308  0.029300886            2 
 1175000    1.0407789   -7.4610452    407.26644  0.028884145  0.029293623            2 
 1176000    1.0742636   -7.4212732    406.93972  0.028836432  0.029286554            1 
 1177000     1.078144   -7.4324126    407.84603    0.0288761  0.029279468            2 
 1178000    1.0677294   -7.4467852    407.68893  0.028840474   0.02927228            1 
 1179000    1.0616382   -7.4339222    407.73093   0.02881898  0.029265073            3 
 1180000    1.0549627   -7.4459586    408.44654  0.028845094  0.029257841            1 
 1181000    1.0509231   -7.4280033    408.62639  0.028833361  0.029250612            1 
 1182000    1.0828958   -7.4314474    407.06245  0.028698706    0.0292434            2 
 1183000    1.0884351   -7.4297884    409.02054   0.02881238  0.029236101            2 
 1184000    1.0814115   -7.4501716    409.15057  0.028797197  0.029228879            2 
 1185000    1.0608813   -7.4480463    410.16819  0.028844458  0.029221849            2 
 1186000     1.047303    -7.427452    409.38023  0.028764771  0.029214658            2 
 1187000    1.0882016   -7.3913691    410.26903  0.028802936  0.029207445            1 
 1188000    1.0533486   -7.4479195    410.71067  0.028809671  0.029200348            1 
 1189000    1.0674937   -7.4152129    411.96995    0.0288737  0.029193303            2 
 1190000    1.0605277   -7.4696683    410.05418  0.028715279  0.029186322            2 
 1191000    1.0603118   -7.3891514     412.1966  0.028841072  0.029179324            2 
 1192000    1.0440235   -7.3887088    411.97334  0.028801268  0.029172221            3 
 1193000    1.0927392   -7.4544809    411.28241  0.028728863  0.029165105            2 
 1194000    1.0387821   -7.4158998     411.2738  0.028704202  0.029157898            2 
 1195000    1.0540715   -7.4148638    412.82079  0.028788061  0.029150595            2 
 1196000     1.069516   -7.4266195    411.27518  0.028656298  0.029143259            2 
 1197000    1.0645807   -7.4233128     412.4983  0.028717509  0.029135891            5 
 1198000    1.0638876   -7.4459317    410.95457  0.028586155  0.029128562            1 
 1199000    1.0481453   -7.4477874    411.95338  0.028631733  0.029121204            2 
 1200000    1.0619911   -7.4326367    412.96271  0.028677966  0.029113826            2 
 1201000    1.0791782   -7.4437614    413.33377  0.028679834  0.029106343            2 
 1202000    1.0540209    -7.470518    412.49317  0.028597696  0.029098797            4 
 1203000    1.0675664   -7.3911258    413.31184  0.028630634  0.029091246            2 
 1204000    1.0571482   -7.3870797    415.31104  0.028745227  0.029084058            1 
 1205000    1.0434731   -7.3794219    415.14222  0.028709697  0.029076912            1 
 1206000    1.0621302   -7.4031515    416.35244  0.028769517  0.029069794            3 
 1207000    1.0643962   -7.4225716    414.42241  0.028612428  0.029062527            2 
 1208000    1.0570641   -7.4347612    416.01324  0.028698485  0.029055147            2 
 1209000    1.0488387   -7.4498056    415.16465  0.028616256  0.029047701            3 
 1210000    1.0553832   -7.4550777    414.95893  0.028578439  0.029040432            2 
 1211000    1.0632951   -7.4395246     416.7117  0.028675454   0.02903323            2 
 1212000    1.0434023   -7.4298106    415.54591  0.028571639  0.029026024            2 
 1213000    1.0444476   -7.4570405    416.10237  0.028586313  0.029018798            1 
 1214000    1.0631001   -7.4395475    416.92217  0.028619039  0.029011632            1 
 1215000    1.0614987   -7.4437689    417.43849  0.028630898  0.029004497            3 
 1216000    1.0750881   -7.4734962    416.75877  0.028560771  0.028997453            1 
 1217000    1.0567877    -7.414341    417.11051  0.028561388   0.02899043            1 
 1218000    1.0514759   -7.4200783    417.64916  0.028574792  0.028983405            2 
 1219000    1.0745742   -7.4582652    417.73524  0.028557236  0.028976276            1 
 1220000    1.0384949   -7.4370158     418.7415  0.028602561  0.028969132            3 
 1221000    1.0332047   -7.4396838    418.72082  0.028577724  0.028961954            1 
 1222000    1.0368549    -7.417314    418.55569  0.028543078  0.028954973            2 
 1223000    1.0570188   -7.4299058    419.16059  0.028560956  0.028947964            1 
 1224000    1.0568963   -7.4211837    418.92518  0.028521595  0.028940939            2 
 1225000    1.0596687   -7.4118815    419.51328  0.028538318  0.028933992            4 
 1226000    1.0511582   -7.4179728    420.65829  0.028592869  0.028926998            3 
 1227000     1.057314   -7.4634153    419.83034  0.028513335  0.028920116            1 
 1228000    1.0314112    -7.429495    420.96253  0.028566947  0.028912979            1 
 1229000    1.0540111   -7.4429831    422.13605  0.028623275   0.02890611            2 
 1230000    1.0449742    -7.472627    420.34466  0.028478636  0.028899075            1 
 1231000    1.0452752   -7.4349293    422.78835  0.028620928  0.028892135            2 
 1232000    1.0645482   -7.4023084    422.23127  0.028560016  0.028885332            2 
 1233000    1.0444222   -7.4690772    421.89162  0.028513897  0.028878404            1 
 1234000    1.0550754   -7.4362835    420.95536  0.028427564  0.028871421            1 
 1235000     1.042206   -7.4666866    422.83523  0.028531392  0.028864464            1 
 1236000    1.0497486   -7.4368028    422.69649  0.028498955  0.028857511            2 
 1237000    1.0530118   -7.4408824    422.31095  0.028449943  0.028850233            2 
 1238000    1.0678315   -7.4650418    421.87838  0.028397845  0.028843115            1 
 1239000    1.0687565   -7.4749631    422.51382  0.028417663  0.028835987            3 
 1240000    1.0740815   -7.4567983    423.99168  0.028494064  0.028828954            2 
 1241000    1.0514942   -7.4395579    424.24628    0.0284882  0.028821913            1 
 1242000    1.0472107   -7.4286614    423.93997  0.028444711  0.028814776            6 
 1243000    1.0501037   -7.4683284    424.00882  0.028426443  0.028807847            2 
 1244000    1.0766129   -7.4638715    423.63443  0.028378512  0.028800654            1 
 1245000    1.0473723   -7.4495683    425.13484  0.028456147  0.028793524            3 
 1246000    1.0365329    -7.409468     425.2035  0.028437901  0.028786435            3 
 1247000    1.0417463    -7.459834    424.08148  0.028340115   0.02877937            1 
 1248000    1.0762051   -7.4257193    426.91887  0.028506869  0.028772297            2 
 1249000    1.0248784   -7.4063145    427.07537  0.028494487  0.028765459            1 
 1250000    1.0176753   -7.4363982    425.93635  0.028395757  0.028758539            1 
 1251000    1.0290817   -7.4384185    427.41373  0.028471472  0.028751626            1 
 1252000     1.082954    -7.441155      426.803  0.028408081  0.028744841            2 
 1253000    1.0542049   -7.4413644    427.04252  0.028401338  0.028737757            1 
 1254000     1.050896   -7.4893685    425.12573  0.028251311  0.028730377            1 
 1255000    1.0227136   -7.4627218     426.7811  0.028338718  0.028723311            4 
 1256000    1.0509944   -7.4707669    426.89697  0.028323844  0.028716157            2 
 1257000    1.0678456   -7.4577669    426.47703  0.028273471  0.028709027            1 
 1258000    1.0504918   -7.4206528    427.80085  0.028338689  0.028701793            2 
 1259000    1.0412275   -7.4318633    428.17872  0.028341191  0.028694671            1 
 1260000    1.0424741   -7.4704784    427.93694  0.028302708  0.028687576            5 
 1261000    1.0539248   -7.4597179    429.06482  0.028354799  0.028680443            2 
 1262000     1.028819    -7.457052    427.83733  0.028251277  0.028673059            1 
 1263000    1.0715492    -7.465051    428.73844  0.028288364  0.028665835            2 
 1264000    1.0553173   -7.4610461     428.9074  0.028277123  0.028658693            2 
 1265000    1.0667735   -7.4555666    429.13436  0.028269721  0.028651718            3 
 1266000     1.067263   -7.4827628    429.06571  0.028242872  0.028644634            1 
 1267000     1.048614   -7.4649282    429.78072  0.028267609  0.028637524            2 
 1268000    1.0618527   -7.4619282    430.44814  0.028289178  0.028630475            1 
 1269000    1.0603326   -7.4446472    430.48972  0.028269616  0.028623496       -1e+20 
 1270000    1.0466015   -7.4233396     432.2453  0.028362552  0.028616445            1 
 1271000    1.0508161   -7.4467881    430.83538  0.028247796  0.028609407            3 
 1272000    1.0185657    -7.513169    429.98192  0.028169675  0.028602198            1 
 1273000     1.049833   -7.4673307    432.53229  0.028314499  0.028595168            2 
 1274000    1.0533734   -7.4843671    432.02202  0.028258897  0.028588092            4 
 1275000    1.0382388   -7.4655957    432.89726  0.028293938  0.028581175            2 
 1276000    1.0462223   -7.4601018    432.83228  0.028267521  0.028574284            2 
 1277000    1.0429107   -7.4783837    432.88443  0.028248788  0.028567365            1 
 1278000    1.0503463   -7.4424366    431.97284  0.028167243  0.028560396            1 
 1279000    1.0682324   -7.4640235    433.32052  0.028233028  0.028553397            2 
 1280000     1.030041   -7.4543808    434.11572  0.028262742  0.028546619            1 
 1281000    1.0381561   -7.4711655    433.50727  0.028201098  0.028539734            2 
 1282000    1.0431149   -7.5035196    433.60423  0.028185402  0.028532877            2 
 1283000    1.0294543   -7.4537822    434.56144  0.028225607   0.02852601            1 
 1284000    1.0587398   -7.4956649    433.49093  0.028134147  0.028519153            2 
 1285000    1.0602085   -7.4236366    434.30395  0.028164977  0.028512264            2 
 1286000    1.0236847   -7.4634518    434.61234   0.02816306  0.028505365            2 
 1287000    1.0465051   -7.4465659    435.78418  0.028217054  0.028498665            2 
 1288000    1.0544957   -7.4308468    435.45917  0.028174118  0.028491732            1 
 1289000    1.0575218   -7.5094587    435.01603  0.028123612  0.028484855            4 
 1290000    1.0422997   -7.4896879    435.76527  0.028150211  0.028477941            1 
 1291000    1.0449369   -7.4301127    435.93889  0.028139613  0.028470967            3 
 1292000    1.0615325   -7.4915711    436.62948  0.028162376  0.028463946            1 
 1293000    1.0643612   -7.4804323    436.29461  0.028119013  0.028456904            2 
 1294000    1.0463212   -7.4775656    436.95711  0.028139948  0.028449918            2 
 1295000    1.0356287   -7.4555252    435.76802    0.0280417  0.028442742            1 
 1296000    1.0546691   -7.4599645    437.06823  0.028103667  0.028435633            2 
 1297000    1.0637452   -7.4656075    437.00159  0.028077717  0.028428496            3 
 1298000    1.0267148   -7.4548466    437.66153  0.028098455  0.028421408            6 
 1299000    1.0572378   -7.4661433    437.99524  0.028098232  0.028414331            1 
 1300000    1.0376645    -7.477988    436.76673  0.027997867  0.028407357            1 
 1301000    1.0369598   -7.4891402    437.93954  0.028051469   0.02840031            2 
 1302000     1.064589   -7.4893405    437.52627  0.028003474  0.028393474            1 
 1303000    1.0458795   -7.4810306    438.16294    0.0280227  0.028386458            1 
 1304000    1.0414945   -7.4934218    437.99823  0.027990684   0.02837936            2 
 1305000    1.0376288   -7.5247454    439.50407  0.028065394  0.028372378            2 
 1306000    1.0374308   -7.4402966    439.74755   0.02805944  0.028365406            2 
 1307000    1.0518838     -7.45179    439.51879  0.028023386  0.028358604            1 
 1308000    1.0252142   -7.4756734    439.10517   0.02797561  0.028351689            1 
 1309000     1.023866   -7.4898822    439.72384  0.027993624  0.028344769            2 
 1310000    1.0374354   -7.4842073     440.3838  0.028014237  0.028337874            1 
 1311000     1.049948   -7.4743165    440.82306  0.028020789  0.028331053            2 
 1312000      1.02984   -7.4809175     439.8894   0.02794013  0.028324033            2 
 1313000    1.0500951   -7.4570189    441.33839  0.028010814  0.028316845            2 
 1314000    1.0430603   -7.5036597    438.14438  0.027786934  0.028309707            1 
 1315000    1.0115038   -7.4781395    441.75108  0.027994365  0.028302461            2 
 1316000    1.0522787   -7.4346005    441.38311  0.027949792  0.028295575            4 
 1317000     1.051485   -7.4496805    443.62947  0.028070708  0.028288553            1 
 1318000    1.0385012   -7.4675548     441.7213  0.027928762  0.028281616            2 
 1319000    1.0354051   -7.4542866    443.35921   0.02801107  0.028274615            2 
 1320000    1.0319978   -7.4340122    441.87387  0.027896078  0.028267609            1 
 1321000    1.0543376   -7.4448209    443.18184  0.027957472  0.028260493            1 
 1322000    1.0479006   -7.4507591    442.46478  0.027891123  0.028253321            1 
 1323000     1.020726   -7.4707115    442.70241  0.027885009  0.028246168            2 
 1324000    1.0814096    -7.490752     442.0421  0.027822388  0.028239083            2 
 1325000    1.0309551   -7.4679625    443.58317  0.027898313  0.028232195            2 
 1326000    1.0300591   -7.4629946    443.61578  0.027879322  0.028225109            2 
 1327000    1.0380972   -7.4500223    443.22526  0.027833789  0.028217766            2 
 1328000    1.0212155   -7.4820607    443.11231  0.027805742  0.028210412            3 
 1329000    1.0310419   -7.4485358    444.43039  0.027867469  0.028203193            3 
 1330000     1.036533   -7.4677704    444.54886  0.027853939  0.028196049            4 
 1331000    1.0398629   -7.5101629    443.01861  0.027737203  0.028188777            1 
 1332000    1.0151748   -7.4912132    444.76463  0.027825615  0.028181498            4 
 1333000    1.0306593   -7.5223865    443.05635  0.027697946  0.028174059            1 
 1334000    1.0229993   -7.4895937    443.93126  0.027731838  0.028166562            1 
 1335000    1.0500174   -7.4458215    445.89754  0.027833804  0.028159356            2 
 1336000    1.0491857   -7.5016992    444.48076  0.027724599  0.028152055            1 
 1337000    1.0346403   -7.4905631    444.72779  0.027719259  0.028144791            3 
 1338000    1.0369479     -7.52107    442.97972  0.027589669  0.028137389            1 
 1339000    1.0368528   -7.4849637    445.80067  0.027744627  0.028129938            2 
 1340000    1.0691177   -7.4730158    445.62901  0.027713247  0.028122654            1 
 1341000     1.020075   -7.5223731     445.8436  0.027705916  0.028115433            1 
 1342000    1.0416109   -7.4760058    446.90224  0.027751008  0.028108217            3 
 1343000    1.0464037   -7.4989441    447.86421  0.027790036  0.028101125            2 
 1344000    1.0385571   -7.4917013    447.78348  0.027764353  0.028093915            3 
 1345000    1.0088572   -7.4506514      446.084  0.027638414  0.028086707            2 
 1346000     1.043558   -7.4519622    448.09242  0.027742225  0.028079602            1 
 1347000    1.0357107   -7.4428941    448.85965  0.027769095  0.028072603            3 
 1348000    1.0460715   -7.4846098    447.91558  0.027690132  0.028065455            1 
 1349000     1.039285   -7.4953592    448.60303  0.027712072    0.0280584            2 
 1350000    1.0322311   -7.5094589    449.25096  0.027731541  0.028051384            2 
 1351000    1.0418364   -7.4751908     450.3386  0.027778103  0.028044549            1 
 1352000    1.0237721   -7.4810138    449.54835  0.027708848  0.028037661            2 
 1353000    1.0425172   -7.4823756    450.16579  0.027726397  0.028030727            1 
 1354000    1.0143325   -7.4708091    451.31075  0.027776388  0.028023769            2 
 1355000    1.0197825   -7.4943152    449.79963  0.027662954  0.028016873            2 
 1356000    1.0051848   -7.4718333    451.32599  0.027736357  0.028010093            1 
 1357000    1.0480881   -7.4783298     450.9342  0.027691857  0.028003194            4 
 1358000    1.0429951   -7.5093711    451.66743   0.02771646  0.027996356            2 
 1359000    1.0142118   -7.5033539    451.77992  0.027702963  0.027989494            3 
 1360000    1.0372252   -7.4976557    450.78699  0.027621752  0.027982711            1 
 1361000    1.0529176   -7.4750372    453.30994  0.027755936  0.027975981            1 
 1362000    1.0172612   -7.4703208    453.09065   0.02772214  0.027969315            3 
 1363000    1.0421177   -7.4698931    452.93667  0.027692386  0.027962713            2 
 1364000     1.034947    -7.493617    453.32923  0.027696067  0.027955865            3 
 1365000    1.0454024   -7.5017746    452.31318  0.027613747  0.027948878            2 
 1366000    1.0584093   -7.4913002     451.6572  0.027553514  0.027941802            2 
 1367000    1.0419775    -7.518043    452.70863  0.027597454  0.027934696            2 
 1368000    1.0301366   -7.5049173    453.19353  0.027606818  0.027927644            1 
 1369000    1.0531476   -7.4763609    452.72145  0.027557916  0.027920505            4 
 1370000    1.0301395   -7.4559984    454.41498  0.027640814  0.027913448            2 
 1371000    1.0315143    -7.456614    452.82243  0.027523853   0.02790643            2 
 1372000    1.0386885   -7.4869388    453.67221  0.027555406  0.027899202            1 
 1373000    1.0305773   -7.5028935    452.04618  0.027436646  0.027891954            3 
 1374000    1.0232473   -7.5129818    451.99006  0.027413274  0.027884523            2 
 1375000    1.0260677   -7.4992598    454.15854   0.02752476  0.027877049            1 
 1376000    1.0459647   -7.5327521    452.46185  0.027402002  0.027869729            1 
 1377000    1.0191908   -7.5151564    453.95074  0.027472206   0.02786226            4 
 1378000    1.0379734   -7.4942548    454.59678  0.027491339  0.027854874            3 
 1379000    1.0383551   -7.4674537    455.50744  0.027526435  0.027847643            2 
 1380000     1.014209   -7.4997547    454.50446  0.027445921  0.027840378            3 
 1381000    1.0227873   -7.5237538    453.79305  0.027383119  0.027833113            1 
 1382000     1.033943   -7.4947742    454.79204  0.027423543  0.027825849            3 
 1383000    1.0118195   -7.4867661    456.10072  0.027482569  0.027818438            2 
 1384000    1.0395014   -7.4964511    455.36165  0.027418211  0.027811067            1 
 1385000    1.0126951   -7.5013996    455.71468  0.027419656  0.027803717            2 
 1386000    1.0507739   -7.5025689     455.6157  0.027393921   0.02779641            2 
 1387000     1.038378   -7.4846057    455.14731  0.027346029   0.02778904            2 
 1388000    1.0436004    -7.512847    455.46862  0.027345618  0.027781664       -1e+20 
 1389000    1.0135152   -7.5326804    456.07334  0.027362211  0.027774247            2 
 1390000    1.0295295   -7.5162373    457.48281  0.027427027  0.027766769            2 
 1391000    1.0235848   -7.5004256    455.45546  0.027285853    0.0277592            2 
 1392000    1.0318056    -7.519679    456.40869  0.027323317  0.027751642            2 
 1393000    1.0364473   -7.5093922    455.91732  0.027274307  0.027744101            1 
 1394000    1.0269628   -7.4930063      456.088  0.027264945  0.027736456            3 
 1395000    1.0029769   -7.4669714     457.0343  0.027301929   0.02772887            2 
 1396000    1.0403136   -7.4916793    457.21894  0.027293394   0.02772117            2 
 1397000    1.0426757   -7.5107486    456.91998  0.027256024  0.027713636            2 
 1398000     1.051893   -7.5379021    455.70836  0.027164304  0.027706093            1 
 1399000    1.0235636   -7.5109353    457.08962  0.027227163  0.027698617            4 
 1400000     1.025341   -7.5171443    458.15488  0.027271124  0.027691068            3 
 1401000    1.0258614   -7.4991917    458.24829  0.027257215  0.027683617            1 
 1402000    1.0349316   -7.5109888    458.38469   0.02724588   0.02767609            3 
 1403000    1.0238494   -7.4551204    459.34498  0.027283498  0.027668676            2 
 1404000    1.0407727   -7.5022344    458.76767    0.0272298  0.027661326            2 
 1405000    1.0265289   -7.4870701    461.12306  0.027350122  0.027653955            3 
 1406000     1.016503   -7.5096057      459.024  0.027206259  0.027646443            3 
 1407000    1.0067621    -7.502236    459.28901  0.027202619  0.027639011            2 
 1408000    1.0292537   -7.5106134    459.84404  0.027216148  0.027631583            2 
 1409000    1.0388356    -7.508841    461.32092   0.02728418  0.027624131            2 
 1410000    1.0060515    -7.506408    461.06515  0.027249713  0.027616747            1 
 1411000    1.0287973   -7.5072844    460.70813  0.027209315  0.027609309            1 
 1412000    1.0432672    -7.514433    460.28628  0.027165149  0.027601893            2 
 1413000    1.0318157   -7.5060389    460.52578  0.027160048  0.027594509            2 
 1414000    1.0368326   -7.4921649    461.11937  0.027175823  0.027587092            2 
 1415000    1.0213773   -7.4998548    460.55122  0.027123158  0.027579699            1 
 1416000    1.0521255   -7.4911154    460.84195  0.027121113   0.02757218            1 
 1417000    1.0301413   -7.4924297    460.97777  0.027109961  0.027564629            3 
 1418000    1.0070045   -7.5277071    461.59991  0.027127404  0.027557085            2 
 1419000    1.0150032   -7.4969805    461.17245  0.027083184  0.027549454            3 
 1420000    1.0110088   -7.4923476    462.26124  0.027128007  0.027541948            2 
 1421000    1.0388333     -7.49158    462.07239  0.027097842   0.02753439            2 
 1422000    1.0432926   -7.5181001    461.94199  0.027071143  0.027526831            1 
 1423000    1.0482235   -7.4875612    461.31249  0.027015255  0.027519269            1 
 1424000     1.027513   -7.4954451    462.49497  0.027065483  0.027511655            2 
 1425000    1.0176976   -7.5269119    461.68289  0.026998999  0.027504049            3 
 1426000    1.0238939   -7.5302453    463.05133  0.027060036   0.02749641            2 
 1427000    1.0589187   -7.4906944     463.6999  0.027078948  0.027488688            3 
 1428000    1.0178578   -7.5681048    461.94062  0.026957319  0.027480925            1 
 1429000    1.0150405   -7.5615688    463.54207  0.027031844  0.027473156            2 
 1430000    1.0219552    -7.514333    463.46494  0.027008447  0.027465325            2 
 1431000    1.0115582   -7.5280641    463.61027  0.026998036  0.027457517            1 
 1432000   0.99880742   -7.5240945    464.36749  0.027023248  0.027449639            2 
 1433000    1.0339785   -7.5277688    462.95162  0.026922053  0.027441763            7 
 1434000    0.9918838   -7.5596893    462.54878  0.026879869  0.027433855            2 
 1435000    1.0207959   -7.5288367    464.24196  0.026959463  0.027425893            2 
 1436000    1.0344834   -7.5532707    463.54996  0.026900532  0.027418107            2 
 1437000    1.0152729    -7.500363    465.09171   0.02697122  0.027410263            1 
 1438000    1.0099173   -7.5003865     464.6519  0.026926976  0.027402417            5 
 1439000    1.0503639   -7.5556917     463.6332  0.026849271  0.027394554            1 
 1440000    1.0385083   -7.5368181    463.22153  0.026806802  0.027386644            3 
 1441000    1.0064073   -7.5378136    465.40675   0.02691457  0.027378746            3 
 1442000    1.0280099   -7.5162254     464.5355  0.026845556  0.027370713            2 
 1443000    1.0324421   -7.5304358     465.2796  0.026869924  0.027362686            1 
 1444000    1.0346973   -7.5042604    464.49301  0.026805921  0.027354582            4 
 1445000   0.99565385   -7.5206672    465.64824  0.026853993  0.027346489            1 
 1446000    1.0213209   -7.5191019    464.81627  0.026787475  0.027338382            2 
 1447000    1.0365881    -7.522256    465.65857  0.026817471   0.02733033            2 
 1448000    1.0272931   -7.5127446    465.38595  0.026783261  0.027322356            1 
 1449000    1.0215588   -7.5143802    466.30731  0.026817766  0.027314418            2 
 1450000    1.0279114   -7.5509429    465.79909  0.026770063  0.027306295            3 
 1451000    1.0272277   -7.4851562    466.57285  0.026796051   0.02729817            2 
 1452000    1.0391136   -7.5490639    464.69073  0.026669578  0.027290013            1 
 1453000     1.020888   -7.4844747    467.13925  0.026791652  0.027281858            2 
 1454000    1.0344752   -7.4886593    466.88492   0.02675865  0.027273709            3 
 1455000     1.020385   -7.4904712    466.02633  0.026691084  0.027265512            4 
 1456000   0.99866429   -7.5347913    465.30236  0.026631317  0.027257319            2 
 1457000    1.0100574   -7.5583715    464.89957  0.026590001  0.027248897            1 
 1458000   0.98649497   -7.5419138    465.91075  0.026629558  0.027240609            1 
 1459000    1.0127742   -7.5122887    466.77431   0.02666063  0.027232357            2 
 1460000    1.0342525   -7.5390846    467.25488  0.026669799  0.027224073            1 
 1461000    1.0278886   -7.5225002    467.71449   0.02667776  0.027215877            2 
 1462000    1.0170936   -7.5441193    467.79458  0.026664078   0.02720768            2 
 1463000    1.0153333   -7.5273506    467.00399   0.02660082  0.027199465            2 
 1464000    1.0157891   -7.5401799    468.73232  0.026681029  0.027191283            1 
 1465000     1.017316   -7.5193657    468.05842  0.026624484   0.02718311            6 
 1466000    1.0125782    -7.513992    469.32178  0.026678137  0.027174922            1 
 1467000    1.0134703   -7.5373046    469.00966  0.026642221  0.027166839            3 
 1468000    1.0065005   -7.5190757    470.56394  0.026712304  0.027158792            3 
 1469000    1.0238382   -7.5672292    467.87849   0.02654178  0.027150552            3 
 1470000    1.0113923   -7.5208779    469.00311  0.026587478  0.027142419            3 
 1471000   0.99849565   -7.5953187    469.16795  0.026578742  0.027134183            2 
 1472000    1.0120152   -7.5369795    469.06937  0.026555105  0.027125949            2 
 1473000    1.0162092   -7.5383521    470.45288  0.026615347   0.02711794            2 
 1474000    1.0348545   -7.5624652    470.02108  0.026572879  0.027109859            2 
 1475000    1.0130275   -7.5507015    470.39831  0.026576176  0.027101771            1 
 1476000    1.0128774   -7.5909489    469.53802  0.026509599  0.027093552            1 
 1477000    0.9821672   -7.5912531     468.6726  0.026442823  0.027085379            3 
 1478000    1.0302824   -7.5465669    470.76001  0.026542626  0.027077125            1 
 1479000    1.0082655   -7.5534851    471.37606   0.02655939  0.027069007            1 
 1480000    1.0248307   -7.5350977    472.49132  0.026604241  0.027060923            1 
 1481000    1.0334803   -7.5185842    471.50898  0.026531003  0.027052804            2 
 1482000    0.9968251   -7.5516722     471.2123  0.026496418  0.027044827            2 
 1483000    1.0358508   -7.4755289    473.45376  0.026604504  0.027036983            1 
 1484000    1.0189959   -7.5391941    472.57897  0.026537453  0.027029049            3 
 1485000     1.039943   -7.5473615    472.58298  0.026519808  0.027021159            1 
 1486000   0.99140061   -7.5359628    472.75243  0.026511464   0.02701324            2 
 1487000    1.0198091   -7.5163865    473.55089  0.026538382  0.027005528            1 
 1488000    1.0140215   -7.5388943    475.22523  0.026614316   0.02699772            1 
 1489000    1.0098691   -7.5299343    475.35581   0.02660375  0.026989913            2 
 1490000     1.021674   -7.5116643    476.35191  0.026641606  0.026982291            1 
 1491000    1.0052997   -7.5235203    475.40387   0.02657075  0.026974475            2 
 1492000   0.99007231   -7.5318569    476.11271  0.026592533  0.026966824            1 
 1493000    1.0275504   -7.5193686    477.31967  0.026642089  0.026959124            2 
 1494000     1.047055   -7.5629868    474.47781  0.026465741   0.02695145            2 
 1495000    1.0272562   -7.5471902    475.18495  0.026487456   0.02694375            3 
 1496000    1.0175103   -7.5402849    476.20131  0.026526365  0.026936154            1 
 1497000   0.99823008    -7.529931    477.22163  0.026565444  0.026928681            2 
 1498000    1.0358365   -7.5435236    478.24569  0.026604678  0.026921216            1 
 1499000   0.97631461   -7.5083301    476.58808  0.026494779  0.026913762            2 
 1500000   0.99172651   -7.5191564    476.08609  0.026449227  0.026906311            3 
 1501000    1.0077618   -7.5314729    477.10176  0.026487995  0.026898823            1 
 1502000   0.98186169   -7.5681597     477.7588  0.026506813  0.026891274            3 
 1503000    1.0060038   -7.5028769    479.52426  0.026587063  0.026883753            1 
 1504000    1.0420271   -7.5614185    476.60409  0.026407585   0.02687611            3 
 1505000     0.993474   -7.5782556    476.31049  0.026373781  0.026868361            2 
 1506000   0.99982797   -7.5244028    478.87756  0.026498315  0.026860674            1 
 1507000    1.0145331   -7.5700697    478.23284  0.026445081  0.026853117            2 
 1508000    1.0074843   -7.5265453    478.82655  0.026460353  0.026845507            3 
 1509000    1.0066081   -7.5570473     478.9831  0.026451464  0.026837918            2 
 1510000    1.0041667   -7.5594613    478.46673  0.026405449  0.026830412            2 
 1511000    1.0047768   -7.5241397    480.58021  0.026504534  0.026823015            1 
 1512000    1.0132146   -7.5882286    478.52094  0.026373509  0.026815479            1 
 1513000    1.0193819     -7.58728    478.33585  0.026345883  0.026807877            2 
 1514000    1.0013921   -7.5380386    480.37027   0.02644046  0.026800178            1 
 1515000    1.0375783   -7.5599719    478.81062  0.026337218  0.026792509            1 
 1516000    1.0259663    -7.541993    479.67465   0.02636734  0.026784812            1 
 1517000    1.0025097   -7.5669326    480.70102   0.02640634  0.026777268            1 
 1518000    0.9990864   -7.5731689     479.6566   0.02633161  0.026769517            4 
 1519000    1.0209415   -7.5790808    480.35823  0.026352766  0.026761748            1 
 1520000   0.99166253   -7.5614567      480.287  0.026331524  0.026754098            2 
 1521000    1.0002487   -7.5620234    480.72724  0.026338332   0.02674645            1 
 1522000    1.0245201   -7.5619958     481.2777  0.026351166   0.02673891            3 
 1523000    1.0153553   -7.5846937     481.6129  0.026352205  0.026731294            1 
 1524000    1.0322706    -7.519986    482.27292  0.026371004  0.026723677            3 
 1525000    1.0227488   -7.5438953    480.60869   0.02626277  0.026716107            2 
 1526000    1.0132495   -7.5988563    480.79898  0.026255951  0.026708426            2 
 1527000    1.0252926   -7.5410703     481.1799  0.026259545  0.026700695            1 
 1528000    1.0121283   -7.5394796    482.34293  0.026305788  0.026692988            2 
 1529000    1.0220652    -7.553065    481.73479  0.026255439  0.026685375            2 
 1530000     1.014516   -7.5623612    482.50107  0.026280014  0.026677611            2 
 1531000    1.0297671   -7.5309713    483.84972  0.026336257   0.02666998            1 
 1532000    1.0282004   -7.5322386    482.54695  0.026248202  0.026662385            2 
 1533000    1.0019585   -7.5349807    484.53099  0.026338932  0.026654634            3 
 1534000    1.0399632   -7.5354872     483.7645  0.026280123  0.026646923            3 
 1535000    1.0199167    -7.549916    482.71656  0.026206111  0.026639355            1 
 1536000    1.0060225   -7.5788871    482.98329   0.02620352  0.026631653            2 
 1537000    1.0130872   -7.5184087    483.73985  0.026227491  0.026623902            2 
 1538000    1.0239484   -7.5932372      481.884  0.026109883  0.026616168            2 
 1539000   0.99832614    -7.568329    483.23373  0.026166002  0.026608448            2 
 1540000    1.0075264   -7.5549808    482.38639   0.02610316  0.026600632            1 
 1541000     1.010741   -7.6027925    481.88364  0.026059033  0.026592737            1 
 1542000     1.006394   -7.5554585    483.89349  0.026150751  0.026584866            2 
 1543000    1.0054873   -7.5739622    484.75679  0.026180427   0.02657709            2 
 1544000    1.0027143   -7.5552714     484.0684  0.026126317  0.026569253            2 
 1545000    1.0134724   -7.5380982    485.30631  0.026176176  0.026561457            1 
 1546000   0.98898377   -7.6063007    483.77738  0.026076832  0.026553603            2 
 1547000   0.99409125    -7.576926    484.22787  0.026084242  0.026545727            2 
 1548000   0.98324868   -7.5957877    485.27861  0.026123956  0.026537966            1 
 1549000   0.99846071    -7.526063    486.81872  0.026189946   0.02653019            1 
 1550000    1.0127992   -7.5514912    485.30069  0.026091435  0.026522541            1 
 1551000    1.0020921   -7.5583652    486.71342  0.026150517  0.026514868            4 
 1552000    1.0142002   -7.5489604    485.56136  0.026071808   0.02650718            3 
 1553000    1.0183524   -7.5646123    486.69838  0.026116033  0.026499411            1 
 1554000    1.0232842   -7.5750122    486.04993  0.026064453  0.026491783            4 
 1555000    1.0019154   -7.5454169     488.3404  0.026170439  0.026484259            1 
 1556000    1.0034984   -7.5317655    486.59005  0.026059879  0.026476752            1 
 1557000    1.0024593   -7.5305426    488.69221  0.026155652  0.026469182            2 
 1558000    1.0110614   -7.5595688    487.47638  0.026073833  0.026461602            2 
 1559000   0.99966451    -7.573425    487.24289  0.026044627  0.026454021            3 
 1560000   0.99801712   -7.5779303    487.28267  0.026030057  0.026446324            2 
 1561000   0.99903747   -7.5414478    488.56492  0.026081834  0.026438781            1 
 1562000   0.99257908   -7.5712393    489.32592  0.026105736  0.026431163            2 
 1563000   0.97984576   -7.5997429    488.09502  0.026023407  0.026423452            1 
 1564000    1.0106666   -7.5630928    487.17556  0.025957777   0.02641574            2 
 1565000    1.0078335   -7.6056845    487.68139  0.025968125  0.026407926            1 
 1566000    1.0113677   -7.5989221    487.39509  0.025936307  0.026400221            2 
 1567000     1.009185   -7.5680264      489.059  0.026008243  0.026392526            1 
 1568000    1.0134695   -7.5844913    488.15826  0.025943785  0.026384815            1 
 1569000   0.98476107   -7.5834532    488.06123  0.025922096  0.026376993            2 
 1570000    1.0160568   -7.5916338    489.53658  0.025983895  0.026369165            1 
 1571000   0.99443069   -7.6431491    487.30008   0.02584872  0.026361326            1 
 1572000    1.0235954   -7.5765181    489.81104  0.025965386  0.026353544            2 
 1573000   0.99356366   -7.5839902    488.63254  0.025886445  0.026345873            2 
 1574000   0.98378233   -7.5742718    489.89172  0.025936665  0.026338145            1 
 1575000   0.98827211   -7.5696679    490.01174  0.025926547   0.02633048            2 
 1576000   0.98920357   -7.5570136    489.79755  0.025898771   0.02632288            1 
 1577000    1.0102906   -7.5833594    490.85176  0.025938056  0.026315183            1 
 1578000   0.99126406   -7.5922131     491.1497  0.025937352  0.026307428            3 
 1579000    1.0002316   -7.5598561     490.6182  0.025892875   0.02629975            3 
 1580000    1.0011002   -7.5648952    490.76191  0.025884067  0.026292173            1 
 1581000     1.005327   -7.5486163    492.10374  0.025938422  0.026284545            1 
 1582000   0.99449058   -7.5517804    491.11899  0.025870153  0.026276916            2 
 1583000   0.99427684   -7.5773329    492.16696  0.025908979  0.026269263            1 
 1584000   0.96621386   -7.5729587    492.82251   0.02592711  0.026261641            2 
 1585000   0.98817919   -7.5858736    491.81704  0.025857889  0.026253993            2 
 1586000   0.97605756   -7.5885815    492.40821  0.025872646  0.026246406            1 
 1587000   0.99060922   -7.5854853    492.40096  0.025855963  0.026238749            2 
 1588000    1.0013132   -7.6171607    491.01077  0.025766728  0.026231056            5 
 1589000   0.99729857   -7.5746411    492.80446   0.02584458  0.026223431            1 
 1590000   0.99423893     -7.57416    493.84963  0.025883104  0.026215828            4 
 1591000    1.0002805   -7.5597695    494.31621  0.025891274   0.02620823            3 
 1592000   0.98942577   -7.5637219    494.27536  0.025872873  0.026200687            1 
 1593000   0.99189318   -7.5710642    494.37801  0.025862001  0.026193095            1 
 1594000    1.0005165   -7.5779472    494.00217  0.025826128  0.026185516            3 
 1595000    1.0147669   -7.5558247    493.97488   0.02580851  0.026177885            1 
 1596000     1.010491   -7.5675036    494.30236  0.025809438  0.026170276            3 
 1597000     1.006434   -7.6073316    493.83403  0.025768839  0.026162665            2 
 1598000    1.0117076   -7.6097489    491.93135  0.025653491  0.026154874            2 
 1599000   0.98978781   -7.5780021    494.15225  0.025753192  0.026147028            3 
 1600000    1.0076145   -7.5832293    494.20487  0.025739837  0.026139272            2 
 1601000   0.99757439   -7.5915686    494.08142  0.025717334  0.026131447            2 
 1602000   0.99976433   -7.5838728    494.57287  0.025726845  0.026123682            1 
 1603000    1.0139407   -7.5802664    495.18331   0.02574253  0.026115905            1 
 1604000    1.0033115   -7.6097731    494.79839  0.025706483  0.026108161            2 
 1605000    1.0256451   -7.5663712    495.09342  0.025705785  0.026100301            3 
 1606000   0.99725324   -7.6165317     494.6657  0.025667585  0.026092395            1 
 1607000    1.0222844   -7.5885719    494.77977  0.025657528  0.026084512            3 
 1608000   0.98934537    -7.612243    495.53641  0.025680784  0.026076767            2 
 1609000   0.97870435   -7.5719369    497.74912  0.025779424  0.026069106            2 
 1610000   0.99187468   -7.5703097     496.6772   0.02570793  0.026061348            3 
 1611000   0.98422643    -7.574837    496.40399  0.025677839  0.026053645            1 
 1612000    1.0045322   -7.5632076    495.41495  0.025610781   0.02604589            2 
 1613000    1.0032633    -7.592818    495.49221  0.025598895   0.02603805            3 
 1614000   0.99191804   -7.5747364    495.42869  0.025579755  0.026030148            2 
 1615000   0.98290391   -7.6122492    495.81401  0.025583798  0.026022264            1 
 1616000    1.0226643   -7.6077313    494.91332   0.02552152  0.026014237            2 
 1617000    1.0059249   -7.5807733    495.60316  0.025541288   0.02600619            2 
 1618000    1.0103037   -7.5735141    495.74557  0.025532838  0.025998229            1 
 1619000   0.99848429   -7.5858608    497.02006  0.025582667  0.025990335            2 
 1620000    1.0075429   -7.5695444    495.72428   0.02550022  0.025982312            1 
 1621000   0.99153347   -7.5765835    496.28733  0.025513435  0.025974416            1 
 1622000   0.98183132   -7.5988212    495.72237  0.025468679  0.025966438            1 
 1623000    0.9931902   -7.6109658    497.06435  0.025521891  0.025958483            1 
 1624000   0.99165731    -7.557393    497.39722  0.025523257  0.025950519            2 
 1625000    1.0068888   -7.5859251     495.5782  0.025414267  0.025942524            1 
 1626000   0.98948595   -7.5916092    496.73765  0.025458059  0.025934505            1 
 1627000   0.96923761   -7.6196049    497.59623  0.025486387  0.025926468            1 
 1628000   0.99071128    -7.554009    498.72025  0.025528268  0.025918482            1 
 1629000    0.9924854   -7.5703708    498.13856   0.02548284  0.025910487            3 
 1630000    1.0079275   -7.6044524    497.56421  0.025437843  0.025902448            2 
 1631000    1.0050276   -7.5834032    497.09627  0.025398338  0.025894428            2 
 1632000   0.99292646   -7.6048648    496.84211  0.025369797  0.025886355            2 
 1633000    0.9870946   -7.6184941    497.26209  0.025375693  0.025878266            2 
 1634000    1.0095677   -7.6042446    497.11215  0.025352517  0.025870233            1 
 1635000    1.0023933    -7.621269    497.01309  0.025331962  0.025862052            4 
 1636000   0.97379851   -7.5985303    500.23024   0.02548035  0.025853931            2 
 1637000   0.98593558   -7.5649225    498.96538  0.025400396  0.025845991            3 
 1638000   0.96036855   -7.6302872    498.74474  0.025373664  0.025837956            3 
 1639000   0.99834797   -7.6098876    499.50031  0.025396599  0.025829997            1 
 1640000    1.0007901   -7.6105465    499.27821  0.025369828  0.025821997            2 
 1641000   0.98360687   -7.6254882    499.36947  0.025359002   0.02581402            1 
 1642000   0.98568693   -7.5745051    499.27233  0.025338628  0.025806145            1 
 1643000    1.0061655   -7.6281858    500.17218  0.025368847  0.025798202            2 
 1644000   0.99501619   -7.6011412    500.23835   0.02535677  0.025790153            2 
 1645000    1.0019439   -7.5833243    500.43578  0.025351357  0.025782139            2 
 1646000   0.99297562   -7.5840773    500.16311   0.02532215   0.02577414            2 
 1647000    1.0104284    -7.615252    499.77254  0.025287014  0.025766172            5 
 1648000   0.99600611   -7.5718862    501.36808   0.02535235  0.025758205            2 
 1649000   0.98626995   -7.6195442    500.42282  0.025289206  0.025750362            3 
 1650000   0.99950264   -7.6346848    498.91692  0.025197824  0.025742427            2 
 1651000   0.98749454   -7.6126526    501.22867  0.025299247  0.025734479            1 
 1652000   0.99396609    -7.558294    501.77315  0.025311398   0.02572653            1 
 1653000   0.96347545   -7.5862087    500.21652   0.02521761  0.025718595            5 
 1654000   0.98680187   -7.5949582    501.30146  0.025257026  0.025710567            3 
 1655000   0.99058673   -7.6460576     500.9381   0.02522347  0.025702555            1 
 1656000    1.0052746   -7.5876163    501.73003  0.025248089  0.025694519            1 
 1657000   0.97913865   -7.6083714    502.50509  0.025271831  0.025686551            1 
 1658000     0.990245   -7.6090649     501.8082  0.025221562  0.025678498            3 
 1659000   0.99156303   -7.6095741    503.06126  0.025269302  0.025670538            1 
 1660000   0.95222112   -7.6316599    502.10651   0.02520615  0.025662495            1 
 1661000   0.99101648   -7.6107591    503.55421  0.025263607  0.025654493            1 
 1662000   0.99843631    -7.601839    502.84582  0.025212887  0.025646549            2 
 1663000    0.9954191   -7.6239731    502.44492  0.025177637  0.025638553            2 
 1664000    0.9759415   -7.6358876    500.34508  0.025057346  0.025630413            2 
 1665000   0.98694417   -7.6318043    502.88264  0.025169301  0.025622321            1 
 1666000    1.0018441   -7.5870991    503.87024  0.025203593  0.025614313            1 
 1667000   0.98429457   -7.6390735    502.05818  0.025097889  0.025606331            2 
 1668000   0.99218934   -7.6339973    502.09283  0.025084574  0.025598245            1 
 1669000    1.0015298   -7.6299444    504.27831  0.025178665  0.025590163            2 
 1670000   0.96287954   -7.6207443    502.61055  0.025080367   0.02558215            2 
 1671000    1.0047891   -7.6224376    504.03908  0.025136599  0.025574142            1 
 1672000   0.99641705   -7.6211183    504.48675  0.025143877  0.025566208            2 
 1673000    0.9654017   -7.6109184    505.29582  0.025169148  0.025558286            5 
 1674000   0.96828394   -7.6181344    505.86162  0.025182279  0.025550477            1 
 1675000   0.99162623   -7.6075967    503.93549  0.025071417  0.025542693            2 
 1676000   0.99250187    -7.612316    506.30474  0.025174261  0.025534888            2 
 1677000   0.99820386   -7.5877832    506.10914   0.02514953  0.025527086            3 
 1678000   0.97978983    -7.618849    504.29589  0.025044492   0.02551922            5 
 1679000   0.98506866   -7.6390439    504.66369  0.025047831  0.025511343            2 
 1680000   0.98954535   -7.6141679    506.62761  0.025130338  0.025503486            1 
 1681000   0.98220722   -7.6190521     506.2847  0.025098389  0.025495685            3 
 1682000   0.95858148   -7.6028647    505.63813  0.025051433  0.025487789            1 
 1683000   0.99879684   -7.6004205    506.93907  0.025100964  0.025479984            2 
 1684000   0.97916684     -7.61388    505.73198  0.025026325  0.025472148            3 
 1685000   0.98719356   -7.6367124     505.7951  0.025014594  0.025464238            1 
 1686000   0.96352574   -7.5851185    506.21432  0.025020478  0.025456282            1 
 1687000   0.97892765   -7.5872116    506.85624  0.025037356  0.025448395            2 
 1688000   0.99619685   -7.6225702    506.83923  0.025021684  0.025440526            1 
 1689000   0.99109718   -7.6340267    508.07023  0.025067606  0.025432604            3 
 1690000    1.0041403   -7.5950503    507.94583  0.025046639  0.025424748            2 
 1691000   0.96703539    -7.643186    506.24728  0.024948121  0.025416724            2 
 1692000   0.97334243   -7.6418779    507.32854   0.02498663  0.025408691            4 
 1693000   0.99226444   -7.6161233    506.75432  0.024943607  0.025400706            3 
 1694000   0.96389653    -7.606142    508.71064   0.02502512  0.025392789            2 
 1695000   0.96538372    -7.624653    507.76379  0.024963805  0.025384847            2 
 1696000   0.96265311   -7.6094841    507.39246   0.02493084  0.025376833            3 
 1697000    1.0042564   -7.6132033    507.78693   0.02493552  0.025368913            2 
 1698000   0.97767551   -7.6068331    507.39178  0.024901442  0.025361003            1 
 1699000   0.96686122   -7.6337013    507.69304  0.024901562  0.025353051            2 
 1700000   0.98043175    -7.619007    508.56114  0.024929468  0.025345121            3 
 1701000   0.98079663   -7.6415649    509.50835  0.024961217  0.025337245            2 
 1702000   0.98634181   -7.6062665    507.63481  0.024854818  0.025329366            1 
 1703000   0.96686023   -7.5867467    510.36247  0.024973697  0.025321551            4 
 1704000   0.98164409    -7.631214    509.09666  0.024897137  0.025313769            1 
 1705000   0.96314266   -7.6020128    509.80468   0.02491714  0.025306068            3 
 1706000   0.97165669   -7.6353641    509.59542  0.024892312  0.025298231            3 
 1707000    0.9880772   -7.6382225    509.97173  0.024896101  0.025290454            2 
 1708000   0.99158854   -7.6145622    510.45476  0.024905092  0.025282644            2 
 1709000     1.008537   -7.6118768    510.70766  0.024902851  0.025274889            2 
 1710000    0.9733551   -7.6054446    513.21995  0.025010719  0.025267161            2 
 1711000   0.98521236   -7.6274966    511.23906  0.024899623  0.025259405            3 
 1712000   0.98392485   -7.5808399    511.54051  0.024899752  0.025251668            3 
 1713000   0.96735456   -7.6128536    511.80594  0.024898129  0.025243923            2 
 1714000   0.97872492    -7.640146    512.87499  0.024935579  0.025236159            1 
 1715000   0.96482376   -7.6724877    510.90855  0.024825488   0.02522847            2 
 1716000   0.98413556   -7.6456922    512.97235  0.024911245  0.025220719            2 
 1717000   0.98174895   -7.6448026    512.01107  0.024850081  0.025213015            1 
 1718000   0.99752355   -7.6117691    514.92466  0.024976943  0.025205382            3 
 1719000   0.96005552   -7.6378078    511.79976  0.024810925  0.025197704            4 
 1720000    0.9616071   -7.6157586    513.72596  0.024889823  0.025190081            1 
 1721000   0.99621455   -7.6480304    512.85059  0.024832974  0.025182466            2 
 1722000   0.96672169   -7.6102826    515.34387  0.024939212  0.025174838            2 
 1723000   0.99283397   -7.6662847    513.87336  0.024853616  0.025167238            1 
 1724000   0.98878611   -7.6177588    514.02364  0.024846463  0.025159689            2 
 1725000   0.97365862   -7.6300448    512.77656  0.024771815  0.025152053            2 
 1726000   0.98203269   -7.6617587    512.88431  0.024762665    0.0251444            4 
 1727000   0.95914025   -7.6514951    514.18068   0.02481088  0.025136775            1 
 1728000   0.98083404   -7.6332815    513.16341  0.024747464  0.025129051            2 
 1729000   0.97571981   -7.6290241    516.06708    0.0248731  0.025121367            3 
 1730000   0.95416078   -7.6138298    514.82587  0.024798934  0.025113754            1 
 1731000   0.97303435    -7.615557    514.55585  0.024771608  0.025106151            2 
 1732000   0.98162991   -7.6121361    514.93279  0.024775442  0.025098486            2 
 1733000   0.96924684   -7.6354138    514.98773  0.024763788  0.025090838            1 
 1734000   0.97947074   -7.6622437    513.48043  0.024677068  0.025083115            3 
 1735000   0.97942329   -7.6492789    514.61402  0.024717292  0.025075399            1 
 1736000   0.96081861   -7.6367686    515.19632  0.024731006  0.025067718            2 
 1737000   0.97553159    -7.638901    516.12952  0.024761539  0.025060069            3 
 1738000   0.97603789    -7.619395    517.28264  0.024802582  0.025052447            1 
 1739000   0.99346658     -7.65627     515.2461  0.024690728  0.025044783            3 
 1740000   0.98469973   -7.6618673    516.39712  0.024731663  0.025037217            2 
 1741000   0.97893413   -7.6494529    516.06934  0.024701768  0.025029705            2 
 1742000   0.95512585   -7.6284978    518.60406  0.024808843  0.025022274            2 
 1743000   0.94921431   -7.6150015    517.24226  0.024729502   0.02501476            3 
 1744000   0.99318559   -7.6090873    517.31922  0.024718999  0.025007268            1 
 1745000   0.96447245   -7.6481409    517.69556  0.024722806   0.02499982            2 
 1746000   0.96440046   -7.6554168    517.42588  0.024695775  0.024992355            2 
 1747000   0.99125856   -7.6263574    517.13548  0.024667787  0.024984823            4 
 1748000   0.98710964   -7.6379197    518.42616  0.024715206  0.024977334            1 
 1749000   0.95969676   -7.6402003    518.39545  0.024699612  0.024969849            2 
 1750000   0.96570413   -7.6636458    517.11863  0.024624697  0.024962349            7 
 1751000   0.98305247   -7.6422165    518.18301  0.024661289  0.024954929            1 
 1752000   0.96582755   -7.6625487    516.91921  0.024587101  0.024947464            2 
 1753000   0.98334284   -7.6120387     519.9629  0.024717765  0.024939971            3 
 1754000   0.98291359   -7.6268023    519.28664  0.024671543  0.024932562            2 
 1755000   0.98404874   -7.6492901     519.4052  0.024663115   0.02492517            2 
 1756000   0.95877848   -7.6677499     519.2082  0.024639721  0.024917736            2 
 1757000    0.9765493    -7.651501    519.01841  0.024616696   0.02491032            1 
 1758000   0.98686087   -7.6192508    519.93797  0.024646282  0.024902905            1 
 1759000   0.98338189   -7.6590121    519.44888    0.0246091  0.024895499            2 
 1760000   0.97496127   -7.6676819    520.10805  0.024626328  0.024888059            2 
 1761000   0.97269455   -7.6534445    520.50472  0.024631115  0.024880641            2 
 1762000     0.968675    -7.610814    521.16482  0.024648355  0.024873309       -1e+20 
 1763000   0.96298659   -7.6329377    520.63915  0.024609527  0.024865927            2 
 1764000   0.97887888    -7.657664    521.38455  0.024630789  0.024858475            2 
 1765000   0.99273325   -7.6430548    521.78045  0.024635526  0.024850968            1 
 1766000   0.99163107   -7.6486031    519.94456  0.024534945  0.024843419            1 
 1767000   0.95926528   -7.6941607    520.50505  0.024547493  0.024835923            1 
 1768000   0.95954856   -7.6512352     521.8481  0.024596913  0.024828469            3 
 1769000    0.9794079   -7.6101889    522.48608  0.024613062   0.02482117            1 
 1770000   0.97017378   -7.6518937    521.54197  0.024554707   0.02481386            5 
 1771000    0.9630102   -7.6271778    522.81022  0.024600519  0.024806548            2 
 1772000   0.96922349   -7.6237993    523.42792  0.024615685  0.024799162            3 
 1773000   0.96965289   -7.6484333    521.05989    0.0244905  0.024791765            1 
 1774000   0.94242504   -7.6637042    521.89413  0.024515884  0.024784354            2 
 1775000   0.95782051   -7.6584657    522.16376   0.02451473  0.024776889            4 
 1776000   0.96022113   -7.7050541    520.72937  0.024433623  0.024769476            1 
 1777000   0.98736899   -7.6801032    521.94641  0.024476947  0.024761982            2 
 1778000   0.99139008   -7.6671765    522.48465  0.024488407  0.024754525            2 
 1779000   0.94984676   -7.6868488    521.78227   0.02444174  0.024747019            2 
 1780000   0.96685683   -7.6547737    523.44893  0.024506036  0.024739537            1 
 1781000   0.97389837   -7.6554378    523.11124  0.024476476  0.024732055            2 
 1782000   0.95647397   -7.6288262    522.94683  0.024455052   0.02472463            3 
 1783000   0.94853601   -7.6401666    524.07867  0.024494236  0.024717135            2 
 1784000   0.97045437   -7.6613866    522.22142  0.024393751  0.024709655            2 
 1785000   0.97191059   -7.6680375    522.31825  0.024384605  0.024702176            2 
 1786000   0.97519399   -7.6787497    524.65683  0.024480069  0.024694758            3 
 1787000   0.98866862   -7.6851222    522.90582  0.024384715  0.024687319            1 
 1788000   0.93816603   -7.6753922    524.44897  0.024442998  0.024679878            1 
 1789000   0.95444389   -7.6215608    523.72487  0.024395606   0.02467251            2 
 1790000   0.97140626   -7.6469047    524.06049  0.024397602  0.024665139            1 
 1791000   0.98749207   -7.6338273    524.15214  0.024388244  0.024657723            3 
 1792000   0.96989132   -7.6556483    524.84297   0.02440676  0.024650281            1 
 1793000   0.95645969    -7.694706    524.91894  0.024396679  0.024642787            1 
 1794000   0.97002148   -7.6994464    523.74818  0.024328697  0.024635337            1 
 1795000   0.94321419   -7.6331572    525.49963  0.024396455  0.024627863            1 
 1796000     0.967615   -7.6764499    525.01937  0.024360587  0.024620523            1 
 1797000   0.97214221   -7.6490403     526.9055  0.024434497   0.02461309            2 
 1798000    0.9636089   -7.6815623    524.51241  0.024309993  0.024605613            2 
 1799000   0.95429828   -7.6649641    524.42951   0.02429264  0.024598191            1 
 1800000   0.95084662   -7.6983679    526.72969  0.024385634  0.024590801            2 
 1801000    0.9773489   -7.6686226    526.45003  0.024359154   0.02458335            2 
 1802000   0.98557058     -7.65669    526.18225  0.024333252  0.024575911            1 
 1803000    0.9692017   -7.6424887    526.53817  0.024336207  0.024568523            2 
 1804000   0.96450617   -7.6558663    526.11248  0.024303052   0.02456116            1 
 1805000    0.9781182   -7.6438007    526.32762  0.024299521  0.024553773            1 
 1806000   0.94352695   -7.6937405    526.71652  0.024304011  0.024546396            1 
 1807000   0.95198271   -7.6699704    526.64242  0.024287143   0.02453895            1 
 1808000    0.9730124   -7.6581346    526.53847  0.024268919  0.024531522            2 
 1809000   0.96576676   -7.6510642    527.72419  0.024310125  0.024524096            1 
 1810000   0.96919188   -7.6804644    527.20766  0.024272913  0.024516693            2 
 1811000   0.95502294   -7.6457018    527.45523  0.024270901   0.02450928            2 
 1812000   0.96945437   -7.6722554    528.47627  0.024304464  0.024501838            2 
 1813000   0.97382625    -7.659987    529.38382  0.024332773  0.024494494            1 
 1814000   0.98079534   -7.6615046    527.62499  0.024238561  0.024487123            1 
 1815000   0.93185133   -7.6854723    528.64625  0.024272096  0.024479711            1 
 1816000   0.97119718    -7.676006    527.59682  0.024210574  0.024472318            2 
 1817000   0.95008747   -7.6886173    526.84016  0.024162547  0.024464941            4 
 1818000   0.94872077   -7.6615337    528.39322  0.024220445  0.024457586            2 
 1819000   0.97420779   -7.7108718     527.4114  0.024162149  0.024450148            1 
 1820000   0.96122276   -7.6686527      528.169  0.024183562  0.024442665            1 
 1821000   0.96162397   -7.6518801    529.03401  0.024209867  0.024435199            2 
 1822000   0.96486924   -7.6706071    528.25851   0.02416111  0.024427798            2 
 1823000   0.97229395   -7.6440044    530.05986    0.0242302  0.024420395            1 
 1824000   0.95522768   -7.6296077    529.59101  0.024195496  0.024413003            1 
 1825000   0.94608922   -7.6833727    530.55063  0.024226056  0.024405633            1 
 1826000   0.96667442   -7.6825667    528.91177  0.024137996  0.024398154            3 
 1827000   0.94491973   -7.7010584    526.93936  0.024034819  0.024390655            3 
 1828000   0.96694549   -7.6354034     530.0965  0.024165595  0.024383118            3 
 1829000   0.98377977   -7.6860797    528.28863  0.024070012  0.024375704            2 
 1830000   0.95680283   -7.6877575    529.40447  0.024107672   0.02436827            1 
 1831000   0.94178836   -7.7237486      527.575  0.024011241  0.024360688            2 
 1832000   0.93900822   -7.7153089    529.63741  0.024091949  0.024353169            3 
 1833000   0.95716486   -7.6656986    531.15741  0.024147909  0.024345724            2 
 1834000   0.94559097   -7.6704487     529.4902  0.024058988  0.024338268            2 
 1835000   0.94658528   -7.7020956    530.58126  0.024095425  0.024330806            2 
 1836000   0.94056255   -7.6388236    529.96332  0.024054254  0.024323382            1 
 1837000   0.94973741   -7.6487882    529.32088  0.024012016  0.024316034            2 
 1838000   0.95601017   -7.6758634    529.93256  0.024026685  0.024308586            2 
 1839000   0.96917024   -7.6615529    531.57974  0.024088261  0.024301178            2 
 1840000   0.95729602   -7.6666654    530.55907  0.024028944    0.0242938            2 
 1841000    0.9573176    -7.671004     530.7943  0.024026539  0.024286306            2 
 1842000   0.96179719    -7.678952     529.9941  0.023977294  0.024278909            1 
 1843000   0.97299534   -7.6609127    532.84786   0.02409332  0.024271533            7 
 1844000    0.9435534   -7.6612826    532.57097  0.024067741  0.024264101            1 
 1845000   0.95325498   -7.6855373     531.8376  0.024021572  0.024256607            1 
 1846000    0.9284073   -7.6685004    531.60728  0.023998162  0.024249167            1 
 1847000   0.95963014   -7.6939933    532.53838  0.024027178  0.024241703            2 
 1848000   0.96894781   -7.6617696    531.23925  0.023955594  0.024234255            1 
 1849000   0.95149678    -7.691711    532.97116  0.024020694  0.024226919            2 
 1850000   0.96481031   -7.7033217    532.22522  0.023974109  0.024219547            1 
 1851000   0.94731941   -7.6616159    533.03142  0.023997453   0.02421221            3 
 1852000    0.9290061   -7.6861346    532.09216  0.023942232  0.024204908            3 
 1853000    0.9493977   -7.6809454     532.0517  0.023927491   0.02419751            2 
 1854000   0.96200885    -7.695255    534.66495  0.024032046  0.024190154            2 
 1855000   0.95443407   -7.7049529    532.14471  0.023905872  0.024182794            1 
 1856000   0.94671414   -7.6545585    534.01109  0.023976791  0.024175444            2 
 1857000   0.97672149   -7.6549261    534.32772  0.023978088  0.024168201            2 
 1858000   0.94342752   -7.6786305    532.91273  0.023901719  0.024160895            1 
 1859000   0.97535796   -7.6876999    535.27054  0.023994555  0.024153605            1 
 1860000   0.97248023   -7.6858692    533.99284  0.023924411  0.024146334            1 
 1861000   0.96326045   -7.6891944    534.27017  0.023923973  0.024139038            2 
 1862000   0.94657666   -7.6898939    535.69425  0.023974859  0.024131806            1 
 1863000   0.95266283   -7.7095123    533.16025  0.023848643  0.024124532            5 
 1864000   0.95248185   -7.6807119     535.1105  0.023923037   0.02411721            1 
 1865000   0.96457033   -7.7094056    534.73572  0.023893464  0.024109948            1 
 1866000    0.9639819   -7.7188926    535.21902  0.023902243  0.024102679            2 
 1867000   0.96479451   -7.7200655    534.62221  0.023862802  0.024095285            2 
 1868000   0.96016582    -7.700145    535.23165  0.023877215  0.024087879            3 
 1869000   0.95462455    -7.693416    533.41897  0.023783617  0.024080538            1 
 1870000    0.9410824   -7.7088513    535.41537  0.023859865  0.024073184            2 
 1871000   0.98221603   -7.7266627    536.45504  0.023893419  0.024065822            1 
 1872000   0.94691342   -7.6565417    535.62758   0.02384382  0.024058538            4 
 1873000   0.95267027   -7.6589959    537.17697  0.023900025  0.024051271            3 
 1874000   0.94423154   -7.6984086    536.16468  0.023842257  0.024043954            2 
 1875000   0.95389547   -7.6461401    535.24421  0.023788631  0.024036648            3 
 1876000   0.95700617   -7.6817096    535.78444  0.023799948  0.024029292            1 
 1877000    0.9773398   -7.6952343    535.44766  0.023772317  0.024021867            2 
 1878000   0.94734854   -7.7172644    536.07303  0.023787408  0.024014446            1 
 1879000    0.9547383   -7.7241662    535.42272  0.023745907  0.024007028            3 
 1880000   0.96045612   -7.7379721    535.58933  0.023740662  0.023999588            2 
 1881000   0.96676764   -7.6647902    537.58573  0.023816486  0.023992208            1 
 1882000   0.94858468   -7.6818103    536.00491  0.023733834  0.023984864            3 
 1883000   0.95086016   -7.6648934    536.81562  0.023757108  0.023977526            3 
 1884000   0.96561259   -7.7316407    537.46286  0.023773127  0.023970142            1 
 1885000   0.96358779   -7.7239922    536.13655  0.023701881  0.023962732            2 
 1886000   0.93935455    -7.743818    535.04073  0.023640895   0.02395535            3 
 1887000   0.95109471    -7.701739    536.83375   0.02370755  0.023947884            3 
 1888000   0.96499205   -7.6683425    538.18375  0.023754579  0.023940519            2 
 1889000    0.9276163   -7.7066285    537.77246   0.02372386   0.02393312            1 
 1890000   0.93787188   -7.6809731    537.70808  0.023708469  0.023925741            1 
 1891000   0.93051531    -7.673417    537.99017  0.023708363  0.023918374            5 
 1892000   0.93480788   -7.6995851    538.62058  0.023723599  0.023910984            5 
 1893000   0.94925351   -7.7187948    537.05387  0.023642097  0.023903638            3 
 1894000   0.97475398   -7.6617337    539.23706  0.023725671  0.023896332            1 
 1895000   0.96168831   -7.7052044    536.76195  0.023604308  0.023889012            2 
 1896000   0.93264124   -7.7051606    539.06263  0.023692978  0.023881695            2 
 1897000   0.96257931   -7.6708334    538.55531  0.023658202  0.023874326            2 
 1898000   0.94553348   -7.7129584    537.69329  0.023607889  0.023866966            1 
 1899000   0.94876128   -7.7127256     538.8792  0.023647499  0.023859532            4 
 1900000   0.95013421   -7.6728959    539.13545  0.023646292  0.023852153            2 
 1901000   0.93577551   -7.7139087    539.15955  0.023634909  0.023844763            3 
 1902000   0.94433353   -7.6775711    539.92496  0.023656018  0.023837368            2 
 1903000   0.95485299   -7.7103369    538.77514  0.023593236  0.023829968            1 
 1904000   0.94748832     -7.72076     538.5249  0.023569892  0.023822571            2 
 1905000   0.95004574   -7.7620835    537.48786  0.023512155  0.023815097            2 
 1906000   0.93860572   -7.7126951    540.28177  0.023621973  0.023807598            4 
 1907000   0.93422788    -7.697141    539.72844  0.023585406  0.023800213            2 
 1908000   0.93852352   -7.6396791    542.12972  0.023677923  0.023792891            3 
 1909000    0.9466364   -7.6809803    540.79483  0.023607248  0.023785534            3 
 1910000   0.95324344   -7.7027045    538.52066  0.023495666   0.02377826            2 
 1911000   0.95601544   -7.7054849     539.6069  0.023530739  0.023770988            2 
 1912000    0.9413277    -7.699445    541.66846  0.023608284  0.023763745            2 
 1913000   0.96320132   -7.7382328    540.38352  0.023539969  0.023756486            1 
 1914000   0.95437474   -7.7183443    540.93706   0.02355177  0.023749131            3 
 1915000    0.9474323   -7.7254427    540.86049   0.02353614  0.023741793            1 
 1916000   0.95468923   -7.7200079    540.59482  0.023512301  0.023734471            2 
 1917000   0.94183365   -7.7021206    542.11322  0.023566042   0.02372723            2 
 1918000   0.95522965   -7.7527663    540.93452  0.023502542  0.023719929            3 
 1919000   0.95071295   -7.7179402    541.89635  0.023532063  0.023712665            1 
 1920000    0.9300447    -7.702177    541.20087  0.023489621  0.023705408            2 
 1921000   0.95406641   -7.6827036    541.73742  0.023500669  0.023698103            1 
 1922000   0.94350399   -7.6742221    542.75029  0.023532358  0.023690843            4 
 1923000   0.95683981   -7.6952776    541.35742   0.02345976  0.023683645            2 
 1924000   0.95035173   -7.7027038    542.00562  0.023475642   0.02367643            1 
 1925000   0.95532707   -7.7205225     542.1598  0.023470121  0.023669185            3 
 1926000   0.94612071   -7.7410421    541.45421  0.023427406  0.023661942            2 
 1927000   0.93306581   -7.6993177    542.10406  0.023443352  0.023654613            2 
 1928000   0.92158079   -7.7004111     543.8426  0.023506336  0.023647364            5 
 1929000   0.93294651   -7.7162099    543.17494  0.023465308  0.023640179            2 
 1930000   0.94372056   -7.6875748    543.00965  0.023446013  0.023632962            2 
 1931000   0.95628131    -7.705782    543.76326  0.023466393  0.023625786            3 
 1932000   0.95145944   -7.6985215    544.17458  0.023471988  0.023618606            1 
 1933000   0.96422506   -7.6749936    544.48017   0.02347302  0.023611353            1 
 1934000   0.95953239   -7.7077322     544.1341  0.023445971  0.023604129            1 
 1935000   0.93605636   -7.6916759    544.05486  0.023430442  0.023596878            2 
 1936000   0.94681815   -7.6899684    544.53042  0.023438809  0.023589619            1 
 1937000   0.95058535   -7.7239982    543.94326  0.023401448  0.023582376            3 
 1938000   0.92712573   -7.7147986    544.26678  0.023403284  0.023575071            1 
 1939000   0.94567669   -7.6843526    545.36611  0.023438461  0.023567761            1 
 1940000   0.94342769   -7.6948379    545.56545  0.023434942  0.023560448            2 
 1941000   0.94786002   -7.6797726    545.69504  0.023428432  0.023553192            1 
 1942000   0.93689164   -7.7240573    544.77944  0.023377079  0.023545884            2 
 1943000   0.93449912   -7.6985106    544.52165  0.023353991  0.023538593            2 
 1944000   0.93459081   -7.7131895    546.18616   0.02341333  0.023531383            2 
 1945000   0.94280373   -7.7192932    545.85125  0.023386943  0.023524147            4 
 1946000   0.95123359   -7.7173648    544.79601  0.023329737  0.023516937            8 
 1947000   0.93036458   -7.7513637     544.0605  0.023286274  0.023509666            1 
 1948000   0.94347701   -7.7175503    544.32142  0.023285482  0.023502376            3 
 1949000   0.92182775   -7.6903701    545.79122  0.023336378  0.023495108            2 
 1950000   0.94713376   -7.7002207    545.19431  0.023298902  0.023487844            4 
 1951000   0.94556433   -7.7034199    545.79061   0.02331243  0.023480606            1 
 1952000   0.93306149   -7.7228432      545.496   0.02328791  0.023473372            2 
 1953000   0.96104169   -7.7262375    546.17397  0.023304914  0.023466131            1 
 1954000   0.94139254   -7.7580115    545.23664  0.023253012  0.023458856            2 
 1955000   0.92330493   -7.7386616    546.01252  0.023274191  0.023451663            1 
 1956000   0.93584971   -7.7223318    546.89314   0.02329981  0.023444505            1 
 1957000   0.94242796   -7.7102842    545.48308  0.023227861  0.023437259            2 
 1958000   0.93865204   -7.7240027    545.95737  0.023236184  0.023430066            2 
 1959000   0.93734694   -7.7412387    547.01445  0.023269289  0.023422828            1 
 1960000   0.93324286   -7.7229189     546.3312  0.023228367  0.023415604            3 
 1961000   0.95712675   -7.7182271    548.34439  0.023302073  0.023408414            1 
 1962000   0.93315727   -7.7051514    547.69147  0.023262465  0.023401271            1 
 1963000   0.92270168   -7.7448965     548.0105  0.023264158  0.023394071            2 
 1964000   0.94160148   -7.7226424     547.3653  0.023224936  0.023386922            4 
 1965000   0.91778773   -7.7122125     546.6791  0.023184016  0.023379791            1 
 1966000   0.96234816   -7.7283137    547.64566  0.023213193  0.023372576            3 
 1967000   0.94947504   -7.7278777    547.01139  0.023174521   0.02336538            1 
 1968000   0.92847236   -7.7293238     546.7655  0.023152333  0.023358261            2 
 1969000    0.9404763   -7.7191285     547.7076  0.023180447  0.023351046            3 
 1970000   0.93216059   -7.7224454    547.90787  0.023177152  0.023343824            1 
 1971000   0.92052799   -7.7474776    547.22616   0.02313657  0.023336546            2 
 1972000   0.94264539   -7.7130819    547.08649  0.023118936  0.023329238            4 
 1973000    0.9507313   -7.7064689    549.65525  0.023215714  0.023322019            3 
 1974000   0.93802358   -7.7131991     547.5635  0.023115649  0.023314738            1 
 1975000   0.95160779   -7.6987628    550.11633  0.023211659  0.023307468            1 
 1976000   0.91696128    -7.730551    548.32395  0.023124323  0.023300216            1 
 1977000   0.91738488   -7.7326014    548.38133  0.023115045  0.023292846            2 
 1978000   0.94455876   -7.7427915    548.06334  0.023089962  0.023285572            1 
 1979000   0.95664248   -7.7402226    549.18317  0.023125449  0.023278326            4 
 1980000    0.9214086   -7.7138818    548.79965  0.023097628  0.023271116            1 
 1981000   0.92697444   -7.7118154    549.50691  0.023115721  0.023263879            1 
 1982000   0.93961725   -7.7147994    549.62897   0.02310919  0.023256675            2 
 1983000   0.93938922   -7.7118326    549.17741   0.02307856  0.023249504            1 
 1984000    0.9530574   -7.7283063    549.73821  0.023090482  0.023242322            1 
 1985000   0.94424329   -7.7298061     549.2934  0.023060176  0.023235083            1 
 1986000   0.92051859   -7.7713225    547.97495  0.022993242  0.023227817            2 
 1987000   0.92839983    -7.737475    549.32032  0.023038094  0.023220536            2 
 1988000   0.92779938   -7.7315213    549.96506  0.023053532  0.023213351            2 
 1989000    0.9367013   -7.7364664    550.23401   0.02305321  0.023206167            2 
 1990000     0.933132    -7.737245    550.78305  0.023064617  0.023199092            2 
 1991000   0.95730862   -7.7514701    549.71968  0.023008525  0.023191913            2 
 1992000   0.93991824   -7.7609029    548.34794  0.022939589   0.02318469            1 
 1993000    0.9316409   -7.7293156     551.0637  0.023041633  0.023177524            2 
 1994000   0.94066667    -7.694236    551.41005  0.023044553  0.023170391            3 
 1995000   0.93651979   -7.7360271    550.72184  0.023004254   0.02316327            3 
 1996000   0.93046124   -7.7610616    551.07982  0.023007674  0.023156128            2 
 1997000   0.94731286   -7.6940774    552.61013  0.023060012  0.023149004            2 
 1998000   0.92202817   -7.7685911    550.34779  0.022954112  0.023141797            2 
 1999000   0.90966881   -7.7569651     550.7628   0.02295993  0.023134591            2 
 2000000   0.92831738   -7.7356068    550.74596  0.022947748    0.0231274            4 
 2001000    0.9322532   -7.7536945    550.51175  0.022926526  0.023120176            2 
 2002000   0.93695545   -7.7507899    551.34629  0.022949812  0.023112956            1 
 2003000   0.90329561   -7.7459917    550.56455  0.022905831  0.023105727            2 
 2004000   0.93860205   -7.7796872    550.15368  0.022877315  0.023098457            2 
 2005000   0.92228306   -7.7296389    551.58144  0.022925247  0.023091249            1 
 2006000    0.9188215   -7.7544883    550.86611  0.022884102  0.023084005            1 
 2007000   0.90567618   -7.7198658    552.07079   0.02292272  0.023076755            3 
 2008000   0.92830071   -7.7295988     550.6947  0.022854196  0.023069543            2 
 2009000   0.91567044   -7.7597551    550.73772  0.022844604  0.023062281            3 
 2010000   0.94948114   -7.7428564    553.22499   0.02293636  0.023055004            1 
 2011000   0.92782708   -7.7264137    553.53479  0.022937792  0.023047864            1 
 2012000   0.94464955   -7.7421716    552.71877  0.022892593  0.023040699            1 
 2013000   0.91620763   -7.7309441    553.04995  0.022894931  0.023033574            3 
 2014000     0.933468   -7.7515011    553.04393  0.022883314  0.023026412            1 
 2015000   0.93047146   -7.7753354    553.17731  0.022877473  0.023019252            2 
 2016000   0.93363812   -7.7522778     554.0265  0.022901228  0.023012009            1 
 2017000   0.94541546   -7.7509302    553.67101  0.022875186  0.023004795            3 
 2018000   0.93118913   -7.7523611    552.22364  0.022804082  0.022997546            2 
 2019000   0.92588372   -7.7566912    552.34092  0.022797627  0.022990325            2 
 2020000   0.91145805   -7.7200779    552.39974  0.022788768  0.022983102            2 
 2021000   0.90642933   -7.7594344    553.82943  0.022836444  0.022975903            1 
 2022000   0.93059764    -7.742238     555.1269  0.022878623   0.02296873            2 
 2023000   0.91805735    -7.748809    553.97251  0.022819761  0.022961574            3 
 2024000   0.93125447    -7.740055    553.88769  0.022804994  0.022954435       -1e+20 
 2025000   0.93375946    -7.740343    554.81521  0.022831901  0.022947334            1 
 2026000   0.93074845   -7.7718693    553.91192  0.022783478  0.022940192            1 
 2027000   0.94862124    -7.722874    554.75095  0.022806732   0.02293312            2 
 2028000   0.93204207   -7.7191823    556.27351   0.02285805  0.022926089            1 
 2029000   0.92210505   -7.7483198    555.00544  0.022794703  0.022919034            2 
 2030000   0.95552669   -7.7544323    556.23164  0.022833811  0.022911975            2 
 2031000   0.93162456   -7.7526516    556.57642  0.022836715  0.022904943            3 
 2032000   0.92589422   -7.7419937    557.20199  0.022851131  0.022897906            2 
 2033000   0.93310514   -7.7875724    556.75208   0.02282145  0.022890839            1 
 2034000   0.92102199   -7.7551472    556.38169  0.022795055   0.02288377            3 
 2035000   0.93415336   -7.7589046    556.10444    0.0227725  0.022876702            2 
 2036000   0.91397007   -7.7622165    554.72563   0.02270488  0.022869591            1 
 2037000   0.94003162   -7.7740415    555.36833  0.022720027  0.022862473            3 
 2038000   0.91704741   -7.7883702    556.80788  0.022767741  0.022855402            1 
 2039000   0.91163432   -7.7710527    556.49042  0.022743601  0.022848357            1 
 2040000   0.91156108   -7.7719074    557.46317  0.022772188  0.022841341            1 
 2041000   0.91932673   -7.7268068    558.16185  0.022789558  0.022834359            2 
 2042000   0.91890366   -7.7433393    557.75461  0.022761778  0.022827337            3 
 2043000   0.91667346   -7.7491979    556.06596  0.022681757  0.022820261            2 
 2044000   0.91250713   -7.7545831    556.63675  0.022693932  0.022813148            1 
 2045000   0.91702095   -7.7856631    556.40802  0.022673513  0.022806055            2 
 2046000   0.91517371   -7.7754651    556.79107  0.022678033  0.022798996            1 
 2047000   0.90198205   -7.7920721    556.37634  0.022650071  0.022791946            5 
 2048000   0.91817984   -7.7910819    555.03903  0.022584596  0.022784828            2 
 2049000   0.92231716   -7.7639794    556.81884  0.022645959  0.022777755            1 
 2050000   0.91477486   -7.7404873    559.18477  0.022731088  0.022770686            4 
 2051000   0.93364964   -7.7929197    558.22041  0.022680823  0.022763659            2 
 2052000   0.94751765   -7.7849409    557.48891  0.022640063  0.022756567            2 
 2053000   0.92142704   -7.7900534    558.19969  0.022657886  0.022749478            3 
 2054000   0.94895455   -7.7972148    558.80901  0.022671576  0.022742401            2 
 2055000   0.93271627   -7.8191467    557.66696  0.022614232  0.022735333            2 
 2056000   0.90667594   -7.7590589    560.06956  0.022700615   0.02272833            4 
 2057000   0.91285876   -7.7626856    558.09704  0.022609668  0.022721314            8 
 2058000   0.92046028   -7.7804401    559.69366  0.022663332  0.022714362            4 
 2059000   0.91523138   -7.7845325    559.96822  0.022663438  0.022707411            5 
 2060000   0.91853189   -7.7857361    560.76125  0.022684516  0.022700476            3 
 2061000   0.91274698   -7.8002151     559.5479   0.02262445  0.022693486            3 
 2062000   0.93489247    -7.780324    560.73649  0.022661514  0.022686554            2 
 2063000   0.90337061   -7.7417306    561.45265  0.022679458  0.022679693            2 
 2064000   0.91717398    -7.746772    561.35031  0.022664337   0.02267287            3 
 2065000    0.9256266   -7.7543741    561.09217  0.022642945  0.022666023            1 
 2066000   0.91705273   -7.7582296    560.80612  0.022620447  0.022659163            1 
 2067000   0.92163494   -7.7420437    561.77917  0.022648733    0.0226523            1 
 2068000   0.92069709   -7.7678892    562.09257   0.02265041   0.02264541            3 
 2069000   0.91853036    -7.786083    560.49639  0.022575173  0.022638491            4 
 2070000   0.90929851   -7.7845233     559.0212  0.022504879  0.022631579            1 
 2071000   0.90894002   -7.7830803    561.28962   0.02258529  0.022624665            5 
 2072000    0.9409888   -7.7741893    562.21278  0.022611518    0.0226178            1 
 2073000   0.85996958   -7.7726253    562.32914  0.022605288  0.022610944            4 
 2074000   0.91633155   -7.7703692    562.70157  0.022609353  0.022604066            2 
 2075000   0.92834729   -7.8061132    560.49498  0.022509839  0.022597265            1 
 2076000   0.92160078   -7.7912471    561.19394  0.022527053  0.022590387            1 
 2077000   0.91677265   -7.7714219    563.08311  0.022592004  0.022583537            1 
 2078000   0.94009057   -7.7302935    563.77477   0.02260887  0.022576694            3 
 2079000   0.90888657   -7.7687154    563.31133  0.022579418  0.022569884            2 
 2080000    0.9113682   -7.7762152    561.77474  0.022507001  0.022563004            1 
 2081000   0.92275441   -7.7697887    562.09781  0.022509123   0.02255606            2 
 2082000   0.94660024   -7.7983903    562.60687  0.022518687  0.022549131            3 
 2083000   0.90685071   -7.7279701     562.5579  0.022505917  0.022542177            3 
 2084000    0.9350987   -7.7506295    562.18431  0.022480179  0.022535271            1 
 2085000    0.9231053   -7.7776127    562.77791  0.022493122  0.022528353            1 
 2086000   0.91370254   -7.7926122    562.15513   0.02245746  0.022521357            1 
 2087000   0.92790145   -7.7682459    562.15782  0.022446806  0.022514304            2 
 2088000   0.91528922   -7.7927035     561.5147  0.022410389  0.022507231            3 
 2089000   0.91772544   -7.8021888    564.05325  0.022500927  0.022500225            2 
 2090000   0.92943614   -7.7960687    562.51449  0.022428807  0.022493285            1 
 2091000   0.91846349   -7.7597719    563.07969  0.022440606   0.02248633            4 
 2092000   0.93247224   -7.7580428    562.34763  0.022400718  0.022479401            2 
 2093000   0.91325495   -7.7944224    562.12882  0.022381303  0.022472526            2 
 2094000   0.91004346    -7.748179    565.73808   0.02251425  0.022465595            2 
 2095000   0.91377947   -7.7722477    563.48087  0.022413718  0.022458664            4 
 2096000   0.91302637   -7.7536469    564.88692  0.022458926  0.022451709            2 
 2097000   0.91368894   -7.8239062      563.099  0.022377166    0.0224448            1 
 2098000   0.90880864   -7.8231629    563.35706   0.02237675  0.022437828            6 
 2099000   0.90957288   -7.7884983    564.60079  0.022415467  0.022430857            2 
 2100000   0.90817374   -7.7469631    564.30371  0.022393004  0.022423972            6 
 2101000   0.90344175   -7.7871417    565.24328  0.022419613  0.022417095            1 
 2102000   0.92946335   -7.7760045    564.67486  0.022386412  0.022410204            1 
 2103000   0.90525602   -7.7536733    565.15469  0.022394781  0.022403322            2 
 2104000   0.91236547   -7.7914171    565.04758  0.022379895   0.02239657            3 
 2105000   0.89838786   -7.8050909     564.7441  0.022357249    0.0223897            2 
 2106000   0.93346106    -7.744399    564.87339  0.022351749  0.022382851            2 
 2107000   0.91951861   -7.8055346    563.93428  0.022303998  0.022375926            2 
 2108000   0.90956569   -7.7869923    563.48769  0.022275763  0.022368975            2 
 2109000   0.91192065   -7.8234394    562.19221  0.022214012  0.022361995            3 
 2110000   0.89524434   -7.8034429     562.9514  0.022233468  0.022354998            3 
 2111000   0.90565013   -7.7861158    564.75348  0.022294074  0.022348036            2 
 2112000   0.91508199   -7.7826888      564.522  0.022274384  0.022341046            2 
 2113000   0.90933822   -7.7964302    565.17955  0.022289776  0.022334057            1 
 2114000   0.93009668   -7.8023793    562.73927  0.022183036  0.022327009            3 
 2115000   0.91524163   -7.8089397    565.35055  0.022275435  0.022319959            3 
 2116000   0.91159648   -7.8048983    563.50601  0.022192266  0.022312919            2 
 2117000    0.9006109   -7.8091755    564.19669  0.022208971  0.022305859            2 
 2118000   0.91622174   -7.7847671    564.81058  0.022222639  0.022298841            1 
 2119000   0.92101129   -7.7435923    564.84151  0.022213367  0.022291832            4 
 2120000   0.91250414   -7.7759547    565.88664  0.022243972  0.022284869            4 
 2121000   0.90484252   -7.7949526     564.1818  0.022166501  0.022277925            5 
 2122000   0.92807449   -7.7490405    566.73347  0.022256263  0.022271007            2 
 2123000   0.91072389   -7.7822678    566.25376  0.022226949  0.022264087            1 
 2124000    0.9222388   -7.7843514    565.89256  0.022202313  0.022257145            2 
 2125000   0.90907985   -7.7743607    565.43032  0.022173738  0.022250187            1 
 2126000   0.90670368   -7.7853717    567.30178  0.022236665   0.02224328            2 
 2127000   0.91004683   -7.7995117    565.91165  0.022171746  0.022236342            2 
 2128000   0.92693388   -7.8247872    564.15863  0.022092678  0.022229338            2 
 2129000   0.90632057   -7.7925736    566.04589  0.022156172  0.022222351            4 
 2130000   0.92646581   -7.8221047    566.31609  0.022156342  0.022215356            3 
 2131000   0.91095753   -7.7855349    566.75033  0.022162925  0.022208398            2 
 2132000   0.91175648    -7.781538    566.42919  0.022139978  0.022201437            1 
 2133000   0.90869789   -7.8221379    566.01007  0.022113223  0.022194436            4 
 2134000    0.9208331    -7.804728    566.53765  0.022123463  0.022187446            2 
 2135000   0.91881237   -7.8055868    565.41546    0.0220693  0.022180398            3 
 2136000   0.89764775   -7.7841844    566.50052    0.0221013  0.022173399            5 
 2137000   0.90432247   -7.8034978    567.57066  0.022132688  0.022166422            2 
 2138000   0.93112411   -7.8120044    565.35382   0.02203593  0.022159432            1 
 2139000   0.91653881   -7.7602628     568.7128  0.022156491  0.022152435            2 
 2140000   0.91398466    -7.813834    565.46603  0.022019705  0.022145472            2 
 2141000   0.91847162   -7.8057875    567.06671  0.022071723  0.022138485            3 
 2142000   0.89098897   -7.8100483    567.06793  0.022061466  0.022131436            2 
 2143000   0.90427576   -7.8062178    566.26186  0.022019827  0.022124439            2 
 2144000   0.89434809   -7.8017927    567.64637  0.022063369  0.022117433            3 
 2145000    0.9089141   -7.8215109    566.97105  0.022026847  0.022110417            1 
 2146000   0.89347476   -7.7894494    568.53721    0.0220774  0.022103429            2 
 2147000   0.89036173   -7.8419232    566.09939  0.021972496  0.022096427            4 
 2148000   0.89532809   -7.7907352    566.55121  0.021979796  0.022089436            1 
 2149000   0.89492193   -7.7629812    569.78017  0.022094779  0.022082459            2 
 2150000   0.91047976   -7.8205382    568.64181   0.02204038  0.022075427            2 
 2151000   0.91685252   -7.7871892    568.30675  0.022017153  0.022068405            1 
 2152000   0.91784399   -7.7768827    567.76683  0.021986014  0.022061449            1 
 2153000   0.91606555   -7.7620015    568.71564  0.022012527  0.022054496            2 
 2154000   0.90992686   -7.7959348    568.25912  0.021984646  0.022047549            3 
 2155000   0.90091646   -7.7970892    569.85001  0.022035963  0.022040626            1 
 2156000   0.89028183   -7.8128484    569.85824  0.022026061  0.022033751            1 
 2157000   0.90439512   -7.8062644    569.23118  0.021991623  0.022026884            2 
 2158000   0.89557895   -7.7938574    569.67237   0.02199847  0.022020002            3 
 2159000   0.91094291   -7.8141588    568.74399  0.021952447  0.022013069            2 
 2160000   0.89910143   -7.8282393    567.85631  0.021908037  0.022006132            1 
 2161000   0.90396212   -7.8279434    568.58672  0.021926065  0.021999212            2 
 2162000   0.89323838   -7.8289932    569.25026  0.021941499  0.021992313            4 
 2163000   0.91939265   -7.8105757    571.18496  0.022005893  0.021985445            2 
 2164000   0.89894326   -7.8071762    568.90562  0.021907949  0.021978643            1 
 2165000   0.90636297   -7.7889597    570.72422   0.02196783  0.021971828            4 
 2166000   0.91247137   -7.7931303    572.15216  0.022012625   0.02196508            2 
 2167000   0.91105898   -7.8042033     571.3588  0.021971958  0.021958334            2 
 2168000   0.89155929   -7.8105736    571.73631  0.021976334  0.021951538            3 
 2169000   0.92037257   -7.8025323    569.34891  0.021874478  0.021944711            2 
 2170000   0.89545186   -7.8030528    571.22026  0.021936262  0.021937927            2 
 2171000    0.9088936    -7.838075    571.59303  0.021940467  0.021931131            2 
 2172000   0.89371376   -7.8079851    571.21153  0.021915728  0.021924339            3 
 2173000   0.89038893   -7.8483745    571.95692  0.021934228  0.021917575            2 
 2174000   0.89484743    -7.793526    572.08772  0.021929152  0.021910789            3 
 2175000   0.89577563   -7.8207547    572.47332  0.021933844   0.02190409            1 
 2176000   0.89919107     -7.80679     572.2415  0.021914886   0.02189731            2 
 2177000   0.93571083   -7.8434853     572.3813  0.021910171  0.021890575            4 
 2178000   0.91769887   -7.8312304    571.74701  0.021875842  0.021883833            3 
 2179000   0.91585053   -7.7997636    572.91465  0.021910458  0.021877127            1 
 2180000   0.89420001   -7.8209047    571.83929    0.0218593  0.021870479            1 
 2181000   0.90001943   -7.8197354    571.22453  0.021825788  0.021863796            2 
 2182000   0.88284267   -7.8428716     572.5509  0.021866441  0.021857123            3 
 2183000   0.90470905    -7.849535    571.38301  0.021811842  0.021850341            3 
 2184000    0.8860596   -7.8254947    573.39822  0.021878748  0.021843533            3 
 2185000    0.9119202    -7.820745    572.54204  0.021836081  0.021836814            2 
 2186000   0.90104245    -7.801091    574.27684  0.021892225  0.021830031            1 
 2187000   0.90358203   -7.7995136    571.85818  0.021790054  0.021823352            2 
 2188000   0.89624823   -7.8471291    573.23163  0.021832405  0.021816615            1 
 2189000   0.89729177   -7.8556949    572.94503  0.021811521  0.021809924            2 
 2190000   0.91994499   -7.8133625    573.38404  0.021818266  0.021803207            1 
 2191000   0.91266042   -7.7955167    574.83594   0.02186353  0.021796539            1 
 2192000   0.91027716   -7.8345144    574.00618  0.021822011  0.021789857            1 
 2193000   0.90409313   -7.8500914    575.45608  0.021867156  0.021783139            1 
 2194000   0.92394828   -7.8071555    574.76553  0.021830961   0.02177643            1 
 2195000   0.91814788   -7.8170259    573.09485  0.021757587  0.021769719            1 
 2196000   0.90649695   -7.8249292    574.93356  0.021817454  0.021762991            2 
 2197000   0.88875421   -7.8372646    573.57653  0.021756051  0.021756322            1 
 2198000   0.90290597   -7.8176266    573.83409  0.021755918  0.021749624            2 
 2199000   0.89349482   -7.8342216    574.88446  0.021785829  0.021742992            1 
 2200000   0.90393694   -7.8313317    574.34442   0.02175547  0.021736313            2 
 2201000   0.90195599   -7.8022888    574.75766  0.021761232   0.02172963            2 
 2202000   0.90145833   -7.8366946    574.56771  0.021744161  0.021722899            3 
 2203000   0.89391981   -7.8001577    573.36785  0.021688903  0.021716209            2 
 2204000   0.89724188    -7.820138    574.06659  0.021705482  0.021709513            1 
 2205000   0.89407326   -7.8333468    576.88551  0.021802173  0.021702858            2 
 2206000   0.89961887   -7.8385961     574.9976  0.021720973  0.021696148            1 
 2207000   0.90506676    -7.837183    575.39761  0.021726235  0.021689446            2 
 2208000   0.90598339   -7.8085148    574.20282  0.021671302   0.02168275            5 
 2209000   0.89521737   -7.7686104    576.78786  0.021759011  0.021676073            1 
 2210000   0.90861105   -7.8172843    576.73593  0.021747207  0.021669378            4 
 2211000   0.89693708   -7.8118303    574.29728  0.021645458  0.021662694            1 
 2212000   0.90632769   -7.8445591     575.0586  0.021664354  0.021656028            1 
 2213000   0.91014971   -7.8165903    576.98315  0.021727035  0.021649384            2 
 2214000   0.87654092   -7.7859928    576.49572  0.021698875  0.021642733            4 
 2215000   0.87645681   -7.8700896    574.49809  0.021613924  0.021636049            1 
 2216000   0.90436799   -7.8500788    575.94396  0.021658542  0.021629337            2 
 2217000   0.91290652   -7.8342496     575.5143  0.021632623  0.021622617            3 
 2218000   0.90282743   -7.8272164     575.7924  0.021633318  0.021615915            5 
 2219000   0.89763538   -7.7919348    577.18531  0.021675879  0.021609215            1 
 2220000   0.90078625   -7.8275494    575.34588  0.021597068  0.021602533            2 
 2221000   0.89648257   -7.8449891    576.02719  0.021612907  0.021595834            2 
 2222000   0.89021854   -7.8323229    577.26049  0.021649433  0.021589136            2 
 2223000   0.89416379    -7.825631    577.48428  0.021648084  0.021582444            1 
 2224000   0.88265504   -7.8235443    576.12178  0.021587297  0.021575686            2 
 2225000    0.8880331   -7.8514735    574.49143  0.021516533  0.021568927            2 
 2226000   0.89313997   -7.8318137    576.38428  0.021577728  0.021562157            2 
 2227000   0.90236527   -7.8513792    576.60079  0.021576141  0.021555403            2 
 2228000   0.90473878   -7.8673908    574.63007  0.021492747  0.021548588            2 
 2229000   0.90361941   -7.8465075    577.89877  0.021605308  0.021541842            2 
 2230000   0.87550032   -7.8309784    576.98694  0.021561545  0.021535062            2 
 2231000   0.89821679   -7.8449426    576.81855  0.021545591  0.021528318            2 
 2232000     0.901629   -7.8289124    577.60377  0.021565254  0.021521595            3 
 2233000   0.90349245   -7.8491602    575.85536  0.021490348  0.021514867            2 
 2234000   0.88909665   -7.8575926    576.33439  0.021498597  0.021508135            1 
 2235000   0.89633444   -7.8739848    577.90242  0.021547443  0.021501444            2 
 2236000   0.87628102   -7.8267263    578.65075  0.021565696  0.021494809            3 
 2237000   0.88428392   -7.8366822    578.78596  0.021561092   0.02148818            1 
 2238000   0.89537153   -7.8548248    577.94242  0.021520048  0.021481472            3 
 2239000   0.90145344   -7.8458264    577.28833  0.021486092  0.021474736            3 
 2240000   0.88314696   -7.8233786    578.90165   0.02153652  0.021468091            5 
 2241000    0.8896359   -7.8274857    578.49366  0.021511738  0.021461402            2 
 2242000   0.88251911   -7.8300416    579.11205  0.021525128  0.021454719            2 
 2243000   0.87791791   -7.8310841    577.21179  0.021444932  0.021447979            1 
 2244000   0.88857898   -7.8481688    578.52871   0.02148428  0.021441313            2 
 2245000   0.90297774   -7.8460158    577.79151  0.021447346  0.021434584            2 
 2246000   0.87215619   -7.8340963     578.2183  0.021453632  0.021427844            3 
 2247000   0.87774231   -7.8263863    577.95785  0.021434426  0.021421069            1 
 2248000   0.89368612   -7.8453313    579.20024  0.021470946  0.021414357            2 
 2249000   0.90157532   -7.8308061    578.07297   0.02141963  0.021407679            1 
 2250000   0.88495561   -7.8419395    578.55797  0.021428073  0.021400976            1 
 2251000   0.88552042   -7.8681814    577.08837  0.021364148  0.021394231            4 
 2252000   0.89740346   -7.8753184    577.26037  0.021361026  0.021387447            2 
 2253000   0.89814395   -7.8603557    576.46665  0.021322187  0.021380643            1 
 2254000    0.8943001   -7.8487143    577.64731  0.021356378   0.02137379            1 
 2255000   0.87969048   -7.8727134    577.49616  0.021341322   0.02136688            4 
 2256000   0.90283104   -7.8265503    577.15742  0.021319349  0.021360065            2 
 2257000   0.90021356   -7.8341608    577.43301  0.021320078  0.021353256            1 
 2258000   0.88470559   -7.8065336    580.37318  0.021419146   0.02134645            4 
 2259000   0.89566477   -7.8569205    578.13283  0.021327019  0.021339612            1 
 2260000   0.90311799   -7.8326886    578.77755  0.021341355  0.021332746            1 
 2261000   0.90428449   -7.8449227    578.43339  0.021319231  0.021325917            1 
 2262000   0.89200938   -7.8436563    578.44458  0.021310219  0.021319091            2 
 2263000   0.87502031    -7.817286    579.85956  0.021352908  0.021312271            2 
 2264000   0.91013369   -7.8310379    578.35824  0.021288216  0.021305473            1 
 2265000   0.87771677   -7.8540628    578.10486  0.021269495  0.021298602            2 
 2266000   0.87388516   -7.8275209    578.11009    0.0212603  0.021291705            1 
 2267000   0.90697855   -7.8577586    578.06032  0.021249093  0.021284843            1 
 2268000   0.88506237   -7.8614241    577.58912   0.02122241  0.021277952            2 
 2269000    0.8746374   -7.8607978     578.4155  0.021243408  0.021271087            2 
 2270000   0.88785854   -7.8632082    579.00485  0.021255684  0.021264267            2 
 2271000   0.90322963   -7.8510915      578.628  0.021232497  0.021257413            4 
 2272000    0.9028275   -7.8544061    579.61704  0.021259428  0.021250586            2 
 2273000   0.87444563   -7.8551503    578.56483  0.021211498  0.021243761            3 
 2274000      0.90081   -7.8776939    578.52888  0.021200853  0.021236876            2 
 2275000    0.8857192   -7.8472417    579.79227  0.021237812  0.021229989            3 
 2276000   0.88806969   -7.8809069    579.25286  0.021208731  0.021223195            4 
 2277000   0.87879349   -7.8189573    581.09993  0.021267016   0.02121638            6 
 2278000   0.88613966   -7.8552797     579.8422  0.021211669  0.021209596            1 
 2279000   0.87338768   -7.8666889    580.31893  0.021219794  0.021202836            2 
 2280000   0.89449103   -7.8347152    579.39056  0.021176556  0.021196059            2 
 2281000   0.90245889   -7.8429694    580.33186  0.021201661  0.021189274            3 
 2282000   0.86780342    -7.848958    579.58382  0.021165053  0.021182421            2 
 2283000   0.89142421   -7.8319935    580.58801  0.021192437  0.021175598            2 
 2284000   0.88635005   -7.8855927    579.83372  0.021155638  0.021168775            3 
 2285000   0.88279858    -7.898231    581.23158  0.021197359  0.021161942            1 
 2286000   0.88239806   -7.8492475    579.54653   0.02112666  0.021155105            2 
 2287000   0.88480077   -7.8549971    581.60174  0.021192309  0.021148263            4 
 2288000   0.88758617   -7.8763015    580.26568  0.021134385  0.021141432            1 
 2289000   0.86977419   -7.8590451    579.45428  0.021095612  0.021134644            1 
 2290000   0.88151797   -7.8659894    581.12578  0.021147226  0.021127857            4 
 2291000   0.87870615   -7.8853504    581.91349  0.021166648  0.021121053            3 
 2292000   0.89013725    -7.903976    580.12116  0.021092247  0.021114188            1 
 2293000   0.88355038    -7.850994    580.00867   0.02107896  0.021107376            3 
 2294000   0.88994047   -7.8469154    581.01986  0.021106505  0.021100545            3 
 2295000   0.88896956   -7.8725779    580.36428  0.021073503   0.02109369            1 
 2296000   0.86334864   -7.8616528    579.69533  0.021040045  0.021086854            3 
 2297000   0.87848831    -7.868006    579.46472  0.021022519  0.021080013            1 
 2298000   0.87457848   -7.8399621      580.836  0.021063098  0.021073191            3 
 2299000   0.88499703   -7.8556899    581.22313  0.021067969  0.021066367            2 
 2300000   0.89896941   -7.8752481    581.68129  0.021075409  0.021059534            2 
 2301000   0.88951027   -7.8402702    581.72474  0.021067823  0.021052716            3 
 2302000     0.883154   -7.8609129     580.3823  0.021010075  0.021045898            4 
 2303000   0.89114626    -7.841203    581.99966  0.021059475  0.021039094            3 
 2304000   0.87475079   -7.8565405    581.94236  0.021048262  0.021032293            3 
 2305000   0.87912766    -7.833112    581.75665  0.021032417  0.021025511            2 
 2306000   0.86797623   -7.8787456    580.44613  0.020975937  0.021018719            4 
 2307000   0.88243273   -7.8706622    580.59216   0.02097212  0.021011869            1 
 2308000   0.88365306   -7.8739366    582.13872  0.021018873  0.021005117            3 
 2309000   0.87851765   -7.8523435    581.82688  0.020998516  0.020998387            1 
 2310000    0.8873403   -7.8547372    582.13683  0.021000607  0.020991614            4 
 2311000   0.87582321   -7.8490829     584.5295  0.021077798  0.020984882            2 
 2312000   0.87621326   -7.8486742    583.98434  0.021049032  0.020978188            3 
 2313000   0.86893005   -7.8509326    583.57196  0.021025074  0.020971515            1 
 2314000   0.88223167    -7.863702    584.11459   0.02103553  0.020964854            2 
 2315000   0.87596498   -7.8692326    582.95075  0.020984548  0.020958213            2 
 2316000   0.89408074   -7.8678014    582.96058  0.020975841  0.020951508            1 
 2317000   0.89190923   -7.9142655    582.48282  0.020949605  0.020944778            4 
 2318000   0.86192412   -7.8577941    584.76122  0.021022477   0.02093805            1 
 2319000   0.89700346   -7.8930327    582.98212   0.02094948  0.020931337            1 
 2320000    0.8808567   -7.9096028    583.95645  0.020975447   0.02092458            2 
 2321000    0.8878468   -7.8710166    583.70162  0.020957261  0.020917876            1 
 2322000   0.87677807   -7.8772934    584.71445  0.020984584  0.020911177            2 
 2323000   0.88461694   -7.8994929    585.49819  0.021003666  0.020904484            3 
 2324000    0.8626274   -7.8781467    584.86456  0.020971908  0.020897822            5 
 2325000   0.88083115   -7.9058211    584.71026  0.020957357  0.020891192            4 
 2326000   0.89247134   -7.8728459    584.18819  0.020929643   0.02088457            3 
 2327000    0.8822392   -7.9152517    582.83392   0.02087215  0.020877887            2 
 2328000   0.88272939   -7.8707065    584.54032  0.020924267  0.020871205            2 
 2329000   0.90291646   -7.8548574     585.5734  0.020952247  0.020864583            2 
 2330000   0.86401277   -7.8734015    585.38088  0.020936369     0.020858            3 
 2331000   0.88630972   -7.8523717    586.76292  0.020976796  0.020851398            2 
 2332000   0.85873849   -7.8909516    585.49706  0.020922565   0.02084479            2 
 2333000   0.87937063   -7.9174145     585.7098  0.020921196  0.020838185            4 
 2334000   0.88396811   -7.8635059     585.7212  0.020912639  0.020831577            2 
 2335000   0.87781937   -7.8705552    585.89735   0.02090997  0.020825011            1 
 2336000   0.88841875   -7.9244744    584.13856  0.020838276  0.020818391            2 
 2337000    0.9016776   -7.9239665    584.56013  0.020844392  0.020811797            6 
 2338000   0.88023699   -7.8887683     585.1371  0.020856041  0.020805173            1 
 2339000   0.88291114    -7.902565    585.51263  0.020860504  0.020798604            4 
 2340000   0.88870688   -7.8511712    588.46618  0.020956773  0.020792105            1 
 2341000   0.85573702   -7.8968428    585.56229   0.02084445  0.020785568            2 
 2342000   0.88636951   -7.8920049    586.63771  0.020873816  0.020779027            1 
 2343000   0.87583202   -7.8512118    588.02741  0.020914334  0.020772508            2 
 2344000   0.88712235   -7.8819153    588.09977  0.020907984   0.02076597            2 
 2345000   0.89935205   -7.8832138    587.23359  0.020868287  0.020759442            1 
 2346000   0.86497044   -7.8951157    587.68061   0.02087527  0.020752933            1 
 2347000   0.87801575   -7.8672386    588.10597  0.020881479   0.02074642            3 
 2348000   0.90749627   -7.9041334      586.977  0.020832517  0.020739883            1 
 2349000   0.87827899   -7.8940887    587.66969  0.020848222  0.020733284            4 
 2350000   0.88322647   -7.8725693    586.76624  0.020807314  0.020726663            2 
 2351000   0.85847143     -7.91823    585.50718  0.020753835  0.020720058            2 
 2352000   0.85871883   -7.9180658    585.14523  0.020732186  0.020713401            4 
 2353000   0.86949238   -7.8993782    586.12219  0.020757975   0.02070676            5 
 2354000   0.89464331   -7.9014622    585.78238  0.020737127  0.020700132            2 
 2355000   0.85958704   -7.8945361    587.82018  0.020800431  0.020693554            5 
 2356000   0.87325907   -7.9080672     586.7625  0.020754192  0.020686988            2 
 2357000   0.87313602   -7.8654516    587.55818  0.020773518  0.020680457            3 
 2358000   0.86757843   -7.8715347    588.84796   0.02081029  0.020673973            4 
 2359000   0.87826575   -7.8785458     587.2514  0.020745069  0.020667427            1 
 2360000   0.88721374   -7.8521341    588.76304  0.020789655  0.020660942            1 
 2361000   0.89576417   -7.8883959    587.69063  0.020742998  0.020654461            2 
 2362000   0.88356599   -7.8666509    588.83381  0.020774549  0.020647983            2 
 2363000   0.87976872   -7.9160036    588.81657  0.020765149  0.020641472            4 
 2364000   0.88577248   -7.8397005    588.92327  0.020760126  0.020634986            1 
 2365000   0.87960029   -7.8827411    588.33945  0.020730777  0.020628491            1 
 2366000   0.87934548   -7.9010274    586.54082  0.020658665  0.020621966            2 
 2367000     0.884814   -7.9117885    589.37791  0.020749821  0.020615445            3 
 2368000   0.87567801    -7.875649    589.51734  0.020745965  0.020608941            2 
 2369000   0.88210397   -7.8730889    590.51978   0.02077247  0.020602484            1 
 2370000    0.8629433    -7.879147    588.21749  0.020682753  0.020595985            3 
 2371000   0.86691635   -7.8986831    589.10038  0.020705061  0.020589515            5 
 2372000   0.88192493   -7.8767594    589.47525  0.020709501  0.020583022            6 
 2373000   0.86441739   -7.8863866    590.72558  0.020744682  0.020576537            4 
 2374000   0.87107249   -7.8732346    589.20071  0.020682418  0.020570027            2 
 2375000   0.88101695   -7.9101107    590.06004  0.020703861  0.020563582            2 
 2376000   0.85015231   -7.9050456    590.09148   0.02069625  0.020557137            3 
 2377000   0.89830842   -7.9106812    590.14508  0.020689422  0.020550716            2 
 2378000   0.88947333   -7.8932907    590.32105  0.020686888  0.020544308            1 
 2379000    0.8606549   -7.8711696    590.34744  0.020679117  0.020537942            2 
 2380000   0.88906486   -7.8917193    590.88679  0.020689313  0.020531591            2 
 2381000   0.87010442   -7.8960445    590.44928  0.020665311  0.020525185            1 
 2382000   0.84548726   -7.9121571    590.10671  0.020644651  0.020518754            1 
 2383000   0.90209223   -7.9386585    589.70905  0.020622082   0.02051232            2 
 2384000   0.86268283    -7.890282    591.73032  0.020684085  0.020505902            2 
 2385000   0.84792791   -7.9133442    591.33366  0.020661553  0.020499457            1 
 2386000   0.87910571   -7.8989298    590.09683  0.020609696  0.020492999            2 
 2387000    0.8619531   -7.8955774     590.3605  0.020610267  0.020486498            3 
 2388000   0.85286364   -7.9178469    590.30704  0.020599771  0.020480078            2 
 2389000   0.86512292    -7.928124      590.587  0.020600914  0.020473579            3 
 2390000   0.85509555   -7.9107983    591.46331  0.020622849  0.020467129            1 
 2391000   0.87395186   -7.9512532    590.46948  0.020579586  0.020460723            2 
 2392000   0.85890262   -7.9026266    592.49395  0.020641511  0.020454282            4 
 2393000   0.87720969   -7.9199122    590.65921  0.020568993  0.020447845            2 
 2394000    0.9010771   -7.9250616    591.42359  0.020587009  0.020441412            2 
 2395000   0.88059787   -7.9252052    591.72845   0.02058902  0.020434996            7 
 2396000   0.87219218   -7.8943592    591.41396  0.020569489  0.020428581            1 
 2397000   0.87319509   -7.9180303    590.91437  0.020543539  0.020422187            2 
 2398000   0.89125933   -7.9201118    592.71919  0.020597692  0.020415781            3 
 2399000    0.8691022    -7.896891    593.11591  0.020602887  0.020409397            1 
 2400000   0.88260148    -7.901087    592.33423  0.020567161  0.020403027            1 
 2401000   0.88898903   -7.9119492    592.17377  0.020553025  0.020396585            2 
 2402000   0.85396104   -7.8678928    592.35038  0.020550596  0.020390186            2 
 2403000   0.86842901   -7.8892697    592.76278  0.020556345  0.020383823            2 
 2404000   0.85672659   -7.9376668    590.46316   0.02046808  0.020377415            1 
 2405000   0.87191864   -7.9336994    591.89577  0.020509209  0.020370964            1 
 2406000   0.86126035    -7.921613    592.33595  0.020515931  0.020364548            5 
 2407000    0.8813705    -7.865845    592.26584   0.02050498  0.020358118            2 
 2408000   0.86819533   -7.9325578    590.90186  0.020449261  0.020351724            4 
 2409000   0.88253016   -7.9505206    593.27167   0.02052275   0.02034526            3 
 2410000   0.86454796   -7.9387315    592.67843  0.020493722  0.020338796            5 
 2411000   0.87249007   -7.9491638    590.68615  0.020416361  0.020332317            1 
 2412000    0.8427192   -7.9476661    590.81439  0.020412327  0.020325823            2 
 2413000   0.85818559    -7.959166     591.5408  0.020428954  0.020319304            2 
 2414000   0.85659692   -7.9229531    592.34001  0.020448081  0.020312831            3 
 2415000   0.87613254   -7.9488512    592.96308  0.020461114  0.020306311            2 
 2416000   0.86239958    -7.917553    591.34377  0.020396791  0.020299826            1 
 2417000   0.87155064    -7.966133    591.29644   0.02038672    0.0202933            5 
 2418000   0.88058261   -7.9375669    591.42822  0.020382831  0.020286788            4 
 2419000   0.85548795    -7.934268    592.28251  0.020403834  0.020280344            3 
 2420000    0.8789929   -7.8984974    593.85628  0.020449596  0.020273929            2 
 2421000   0.86353248   -7.9193511    591.85321  0.020372202  0.020267474            2 
 2422000    0.8770309   -7.9342958    593.51978  0.020421132  0.020261031            2 
 2423000   0.85473112   -7.9004479    592.60658  0.020381297  0.020254589            1 
 2424000   0.85357132   -7.9272426    592.83567  0.020380764  0.020248127            5 
 2425000   0.85448298   -7.9017756    593.60877  0.020398927  0.020241671            4 
 2426000   0.86227051   -7.9145719    593.11886   0.02037369  0.020235217            3 
 2427000   0.84795679    -7.882544    594.11683  0.020399562  0.020228745            2 
 2428000   0.85015867   -7.9342582    593.52178  0.020370736  0.020222337            2 
 2429000    0.8509961   -7.9249919    594.26274  0.020387771  0.020215924            3 
 2430000   0.86153701   -7.9277128     593.4079  0.020350065  0.020209503            5 
 2431000   0.88377784   -7.9459742    593.23279  0.020335691  0.020203029            3 
 2432000   0.83929488   -7.9281933    592.24914  0.020293625  0.020196514            2 
 2433000   0.86564464   -7.9306011    591.13339  0.020247068  0.020189987            2 
 2434000   0.85871615   -7.9433229    591.64309    0.0202562  0.020183483            1 
 2435000   0.85944605   -7.9508022    591.27854  0.020235405  0.020176969            4 
 2436000   0.86298937   -7.9103621    592.98273  0.020285397  0.020170503            4 
 2437000   0.86817922   -7.9197392     593.4538  0.020293182   0.02016406            4 
 2438000   0.86447796   -7.9350477    592.94276   0.02026739  0.020157583            4 
 2439000   0.87425143    -7.951746    593.04337  0.020262518  0.020151087            3 
 2440000   0.86720817   -7.9451646    593.84121  0.020281462  0.020144641            2 
 2441000   0.85724109   -7.9312457    594.29362  0.020288598  0.020138173            2 
 2442000   0.84850262   -7.9311398    595.63607  0.020326101  0.020131742            4 
 2443000   0.85135349    -7.904122    593.34243  0.020239543  0.020125275            2 
 2444000    0.8486805   -7.8887441    594.43453  0.020268499  0.020118776            2 
 2445000   0.85792995   -7.9040687    593.70312   0.02023528  0.020112319            3 
 2446000   0.83518398   -7.9119386    593.98275  0.020236534  0.020105835            1 
 2447000   0.84806716   -7.9077155    595.53844  0.020281244  0.020099432            1 
 2448000   0.84611658   -7.9389121    592.26662  0.020161582  0.020093018            2 
 2449000    0.8582062   -7.9286978     593.7705  0.020204522  0.020086561            5 
 2450000    0.8673622   -7.9398217    594.57839  0.020223755  0.020080124            3 
 2451000    0.8576866   -7.9349114    594.84783  0.020224665  0.020073742            2 
 2452000   0.84948065   -7.8948379    594.99011  0.020221252  0.020067384            1 
 2453000   0.85783491   -7.9190728    595.07048  0.020215738  0.020061015            3 
 2454000   0.84159479   -7.9669323     592.6211  0.020124324  0.020054601            3 
 2455000   0.85178622   -7.9348823    594.70039  0.020186707   0.02004817            5 
 2456000   0.84104552    -7.944963    594.90024  0.020185269  0.020041778            2 
 2457000   0.85639556    -7.923638    596.25324  0.020222943  0.020035433            1 
 2458000   0.85272723   -7.9020178    595.47085   0.02018819  0.020029071            2 
 2459000   0.85104323   -7.9196888    597.03098  0.020232852  0.020022718            3 
 2460000   0.85597945   -7.9072345    596.28341  0.020199302   0.02001637            3 
 2461000   0.85512895   -7.9282226    596.33197  0.020192739  0.020010023            2 
 2462000   0.87502825   -7.9314365     595.6413   0.02016116  0.020003657            4 
 2463000   0.84971459   -7.9206962    595.33384  0.020142571   0.01999728            2 
 2464000   0.85491035   -7.9098132    597.16336  0.020196272  0.019990861            2 
 2465000   0.86469785   -7.9231907    594.68465  0.020104281   0.01998443            3 
 2466000    0.8652669   -7.9174373    595.58999  0.020126723  0.019977986            1 
 2467000   0.86654656   -7.9444677    595.12235  0.020102768  0.019971538            4 
 2468000   0.84471764   -7.9523484    593.86808  0.020052272  0.019965071            3 
 2469000   0.84453251    -7.959054    594.81056   0.02007596   0.01995861            1 
 2470000   0.84906689   -7.9757584    594.26807   0.02004953  0.019952153            3 
 2471000   0.86473499   -7.9591688    594.21091  0.020039488  0.019945667            2 
 2472000   0.86578906   -7.9322509    596.50739  0.020108798  0.019939239            2 
 2473000   0.84647093   -7.9742438    594.99021  0.020049542  0.019932814            3 
 2474000   0.85283332    -7.927227     595.2651  0.020050697  0.019926418            2 
 2475000    0.8685279   -7.9580951     595.5583  0.020052468  0.019920038            4 
 2476000   0.84267303   -7.9350425    596.24006  0.020067315   0.01991364            3 
 2477000   0.87095474   -7.9314281    595.97304   0.02005023  0.019907267            2 
 2478000   0.86312131     -7.91962    597.09175   0.02007976  0.019900888            2 
 2479000   0.86369854   -7.9325112     596.3116  0.020045435  0.019894544            2 
 2480000   0.84283534   -7.9438976    598.71068  0.020117966  0.019888192            2 
 2481000   0.82968984   -7.9382102    597.25476  0.020060955   0.01988183            6 
 2482000   0.85657213   -7.9484963    596.69516  0.020034084  0.019875481            2 
 2483000   0.86736467   -7.9169655    596.49741  0.020019379  0.019869133            2 
 2484000   0.86637944   -7.9237667    596.43241  0.020009139  0.019862778            2 
 2485000   0.84098478   -7.9714154    596.39116  0.019999703  0.019856404            4 
 2486000   0.88283126   -7.9220106    597.92086  0.020042936  0.019850035            1 
 2487000    0.8360602   -7.9841881    595.52782  0.019954692  0.019843645            2 
 2488000   0.86047213    -7.934793    597.17491  0.020001839  0.019837258            1 
 2489000   0.83785027   -7.9411602    596.88722  0.019984171  0.019830894            2 
 2490000    0.8421959   -7.9082135    596.95619  0.019978453  0.019824543            3 
 2491000   0.85062714   -7.9416512    596.24527   0.01994665  0.019818204            3 
 2492000   0.85173668   -7.9259241    597.78738  0.019990215   0.01981188            1 
 2493000   0.86447803   -7.9632588    598.45199  0.020004412   0.01980556            1 
 2494000   0.84588132   -7.9558769    598.26784  0.019990238  0.019799164            5 
 2495000   0.84631363   -7.9670745    595.71759  0.019897047   0.01979277            5 
 2496000   0.84861175   -7.9507062    597.30004  0.019941909  0.019786355            2 
 2497000   0.83979368   -7.9478738     597.4453   0.01993877  0.019779906            2 
 2498000   0.85020656   -7.9532009    596.36596  0.019894781  0.019773506            2 
 2499000   0.84670914   -7.9427372    597.53004  0.019925638  0.019767068            1 
 2500000   0.86355627   -7.9451578    597.43555  0.019914518  0.019760645            2 
 2501000   0.83580094   -7.9710109     597.3279  0.019902969  0.019754245            3 
 2502000    0.8428149   -7.9239488    597.92701  0.019914968  0.019747842            2 
 2503000   0.85228223   -7.9595563    597.62217  0.019896863  0.019741475            1 
 2504000   0.86131837   -7.9562879    596.89466  0.019864705  0.019735057            2 
 2505000   0.85083159   -8.0018007    596.50383  0.019843774  0.019728658            3 
 2506000   0.85560527   -7.9811303    596.93508  0.019850196  0.019722212            2 
 2507000   0.83724795   -7.9506474    597.49831     0.019861  0.019715778            2 
 2508000   0.85244116   -7.9675184    597.11497  0.019840343  0.019709327            1 
 2509000   0.84887955   -7.9317994    597.68466  0.019851357  0.019702916            1 
 2510000   0.84520253   -7.9865224    598.13333  0.019858344  0.019696511            2 
 2511000   0.84510496   -7.9857051    596.58994  0.019799215  0.019690046            2 
 2512000    0.8321405   -7.9542753    598.14914  0.019843058  0.019683646            2 
 2513000     0.838276   -7.9306918     598.8812  0.019859438  0.019677275            2 
 2514000   0.83133369   -7.9398693    599.35313  0.019867181  0.019670885            1 
 2515000   0.86144329   -7.9492062    598.91302  0.019844699  0.019664506            2 
 2516000   0.82919924   -7.9452987    599.83581  0.019867376  0.019658119            3 
 2517000   0.83756228   -7.9539951    598.32611  0.019809499  0.019651752            1 
 2518000   0.84582484   -7.9850245    598.68871  0.019813632  0.019645348            2 
 2519000   0.86648164   -7.9662012    598.24938  0.019791233   0.01963896            2 
 2520000   0.85463128   -7.9341042    599.15654  0.019813378   0.01963256            2 
 2521000   0.86355351   -7.9419837     600.1132  0.019837141  0.019626223            1 
 2522000   0.83760913   -7.9642508    599.27423  0.019801554  0.019619883            2 
 2523000   0.85087791   -7.9957921     598.6401  0.019772761  0.019613536            2 
 2524000   0.85737712   -7.9735379    599.09932  0.019780089  0.019607201            5 
 2525000   0.85607419    -7.939455     598.0177  0.019736558  0.019600851            2 
 2526000   0.83400662   -7.9722707    598.57257   0.01974705  0.019594466            1 
 2527000   0.84470244   -7.9636727    598.03464  0.019721496  0.019588093            2 
 2528000   0.83959164   -7.9792289    598.33182  0.019723491  0.019581704            3 
 2529000   0.86591542   -7.9873231    597.95336  0.019703221  0.019575291            3 
 2530000   0.85891666   -7.9810598    596.83971  0.019658752  0.019568834           11 
 2531000   0.84795133   -7.9699414    598.78433  0.019715012  0.019562446            3 
 2532000   0.85022038   -7.9571734    598.76447  0.019706572  0.019556058            2 
 2533000   0.84735677   -7.9988668    598.52105  0.019690783   0.01954965            1 
 2534000   0.84404162   -7.9721875    597.41673  0.019646696  0.019543263            3 
 2535000   0.84511229   -7.9222671    600.79527  0.019750009  0.019536891            3 
 2536000   0.83539785   -7.9432574    600.20438  0.019722804  0.019530561            1 
 2537000   0.85507385   -7.9828923    599.43978  0.019689915  0.019524216            2 
 2538000    0.8536236   -7.9862881    600.12257  0.019704576  0.019517895            3 
 2539000   0.83179584   -7.9517093    600.06717  0.019694997  0.019511572            1 
 2540000   0.84044194   -7.9695954    599.47331   0.01966776  0.019505208            2 
 2541000    0.8399178   -7.9816644    599.95423  0.019675791  0.019498882            2 
 2542000   0.84106089   -7.9570715    600.60591  0.019689415  0.019492591            1 
 2543000   0.86119452   -7.9727265    600.17317  0.019667492  0.019486281            3 
 2544000   0.83968061   -7.9708005    600.50639  0.019670676      0.01948            2 
 2545000   0.85278345   -7.9366818    603.26303   0.01975321  0.019473754            3 
 2546000   0.84332176   -7.9742515    602.02627  0.019704971  0.019467496            1 
 2547000   0.83645274    -7.952272    602.36064  0.019708174  0.019461237            3 
 2548000   0.83427577   -7.9806546    601.07305  0.019658328  0.019455008            2 
 2549000   0.84931237   -7.9679717    600.97449  0.019647394  0.019448768            1 
 2550000   0.83682895   -7.9949442    601.02446  0.019641322  0.019442495            2 
 2551000   0.84853576   -7.9727946     602.5343  0.019682945  0.019436213            1 
 2552000   0.85239572   -7.9410705    602.03028  0.019658774  0.019429955            1 
 2553000   0.84405312   -7.9493294     603.4237  0.019696556  0.019423734            1 
 2554000   0.83892906   -7.9476869    602.26097  0.019650906  0.019417528            3 
 2555000   0.84323428   -7.9713303    602.67569  0.019656741  0.019411299            1 
 2556000   0.82610184   -7.9973226    602.49811  0.019643261  0.019405088            2 
 2557000   0.83672416    -7.988408    602.19889  0.019625828  0.019398867            2 
 2558000   0.83392717   -7.9818349    602.72314  0.019635234  0.019392649            3 
 2559000    0.8395986   -7.9719259    601.93524  0.019601903  0.019386418            2 
 2560000   0.83663436    -7.985061    601.64473   0.01958479  0.019380164            1 
 2561000   0.85550536   -7.9782572    602.97139  0.019620311  0.019373944            1 
 2562000   0.83912132   -8.0007771    602.21917  0.019588185   0.01936769            3 
 2563000   0.84174154   -7.9755243    602.72959  0.019597138  0.019361448            2 
 2564000   0.84383232   -7.9753014     601.7547   0.01955781  0.019355174            2 
 2565000    0.8540364   -7.9673023    600.88489  0.019521926  0.019348943            3 
 2566000   0.84141273   -7.9780948    602.94881  0.019581346   0.01934272            1 
 2567000   0.84188893   -7.9501323    602.23398  0.019550512  0.019336498            1 
 2568000   0.85457482   -7.9641455    603.42786  0.019581641  0.019330298            2 
 2569000   0.84207921   -7.9592921    602.63146  0.019548185  0.019324105            3 
 2570000   0.82531029   -7.9612526    604.39963  0.019597913  0.019317916            3 
 2571000   0.85146003   -7.9687985    603.08331  0.019547624  0.019311733            2 
 2572000   0.84662488   -7.9620618    603.14613   0.01954206  0.019305544            4 
 2573000   0.84150218   -8.0062829    602.36793  0.019509261  0.019299306            1 
 2574000   0.85239269   -7.9737826     602.0139   0.01949022  0.019293141            4 
 2575000   0.86158409   -8.0005973    601.97128  0.019481271  0.019286954            2 
 2576000   0.82858004   -8.0162591     602.0582  0.019476521  0.019280769            1 
 2577000   0.83661848   -7.9729998    605.19789  0.019570492  0.019274589            3 
 2578000   0.82231012   -8.0034416    603.13032  0.019496067  0.019268392            2 
 2579000   0.83538696   -7.9721434     603.7194  0.019507542  0.019262209            5 
 2580000   0.85469167   -7.9615078    602.90992  0.019473834   0.01925603            2 
 2581000   0.84045548   -7.9865032    602.10628  0.019440342  0.019249851            2 
 2582000   0.83067733   -8.0038545    603.34456  0.019472778  0.019243656            2 
 2583000   0.82480303   -8.0111118    604.08304  0.019489065  0.019237467            3 
 2584000   0.83148102   -8.0265422    604.52703  0.019495841  0.019231274            1 
 2585000   0.84002645   -7.9703351    604.95648  0.019502143  0.019225078            4 
 2586000   0.84367139   -7.9635003    604.06162  0.019465765  0.019218886            2 
 2587000   0.81912301   -7.9682483    604.87979  0.019484596  0.019212724            3 
 2588000   0.85603184   -7.9801005    603.80244  0.019442376  0.019206576            3 
 2589000   0.82892955   -7.9995169    604.05844  0.019443107  0.019200414            4 
 2590000    0.8210539   -7.9869552    604.15216  0.019438615   0.01919425            2 
 2591000   0.84286442   -7.9592308    605.75208  0.019482571  0.019188124            1 
 2592000    0.8382098   -7.9613983     605.7669   0.01947553  0.019182025            1 
 2593000   0.82894657   -7.9899008    606.48289   0.01949103  0.019175969            1 
 2594000   0.84297823   -7.9696542    604.11122  0.019407325  0.019169893            5 
 2595000   0.82712935   -7.9690267    605.01835  0.019428977  0.019163793            2 
 2596000   0.83646816   -7.9718661    605.35038  0.019432151  0.019157686            4 
 2597000   0.83666037   -8.0027974     604.8528  0.019408702  0.019151571            2 
 2598000   0.83961335   -8.0030066    605.47829  0.019421295  0.019145449            3 
 2599000   0.84586862   -7.9889853    606.23122  0.019437964  0.019139375            3 
 2600000    0.8279491   -8.0002068    605.76284  0.019415476  0.019133323            3 
 2601000   0.83633588   -8.0107305    604.39896  0.019364314  0.019127242            1 
 2602000   0.83846151   -8.0031713    605.86192  0.019403725   0.01912123            5 
 2603000   0.80826812   -7.9929375    606.42888  0.019414422  0.019115205            2 
 2604000    0.8619194   -7.9869155    606.45233  0.019407717  0.019109146            2 
 2605000    0.8319412   -7.9930023     606.5604  0.019403724  0.019103122            1 
 2606000   0.81464651   -7.9976173    605.99946   0.01937834  0.019097099            1 
 2607000   0.86138549    -7.981907    608.10462  0.019438199  0.019091076            1 
 2608000   0.85253059   -8.0024078    607.14875  0.019400203  0.019085056            3 
 2609000   0.83083902   -8.0015144    607.41006  0.019401114  0.019078999            2 
 2610000   0.83556821   -8.0148971    606.27746  0.019357518  0.019072937            2 
 2611000   0.81312287   -8.0265324    606.37413  0.019353189  0.019066902            2 
 2612000   0.83794149   -8.0012716    607.40669  0.019378723  0.019060863            2 
 2613000   0.83476338   -7.9697395       607.94  0.019388315  0.019054816            1 
 2614000   0.83036334   -8.0163646    607.03539  0.019352059  0.019048769            2 
 2615000   0.82352838   -8.0069228    606.19881  0.019317999   0.01904271            4 
 2616000   0.82889866   -8.0261474    606.03432  0.019305374  0.019036591            1 
 2617000   0.86293874   -8.0155543    607.06698  0.019330881  0.019030495            1 
 2618000   0.81956997    -8.001854    606.20859  0.019296174  0.019024428            4 
 2619000   0.82296563   -7.9989748    606.20969  0.019288841  0.019018374            1 
 2620000   0.81154903   -8.0274928    606.73155  0.019298077   0.01901231            4 
 2621000   0.83731081   -7.9698005    607.58023  0.019317698  0.019006268            1 
 2622000   0.80806177   -7.9959489    606.71787  0.019282922  0.019000239            1 
 2623000   0.82699665   -7.9530233    607.61055  0.019303931  0.018994195            3 
 2624000   0.82685158   -8.0223491    607.22048  0.019284187  0.018988182            4 
 2625000   0.81409602    -8.011974    606.49513  0.019253814  0.018982144            6 
 2626000   0.82383317   -7.9892576    606.56824  0.019248802  0.018976064            1 
 2627000   0.81631848   -8.0276023    607.51366  0.019271465  0.018969967            2 
 2628000   0.83488397   -8.0475206    606.77396  0.019240676   0.01896386            2 
 2629000    0.8347181   -7.9962643    607.29736  0.019249948  0.018957805            2 
 2630000   0.83317375   -8.0417409    606.60964  0.019220838  0.018951741            1 
 2631000   0.83857992   -8.0321341    605.14769  0.019167227  0.018945671            4 
 2632000   0.82526617   -8.0088599    607.29583  0.019227958  0.018939638            3 
 2633000   0.82822795    -7.993342    606.52974  0.019196409  0.018933604            3 
 2634000    0.8486302   -8.0138036    606.62124  0.019192016  0.018927556            2 
 2635000   0.83000685   -8.0112146    607.45429  0.019211078  0.018921508            5 
 2636000   0.82770232   -8.0343919    607.22891  0.019196665  0.018915462            3 
 2637000   0.85217186   -8.0008628    609.75791  0.019269306  0.018909414            1 
 2638000   0.81409686   -7.9926991    607.29811  0.019184297  0.018903359            4 
 2639000   0.81437163   -8.0084823     606.5282  0.019152716  0.018897316            2 
 2640000   0.81021167   -8.0045438    608.13674  0.019196235  0.018891245            3 
 2641000   0.84547325   -8.0266978    606.93052  0.019150906  0.018885218            2 
 2642000   0.82080322   -8.0069118    607.73657  0.019169082  0.018879182            1 
 2643000   0.83847919   -8.0271974    608.65661  0.019190838  0.018873108            2 
 2644000    0.8254808   -8.0233608    607.35801   0.01914265  0.018867046            2 
 2645000   0.82182729   -7.9967852    607.35379   0.01913528  0.018860955            3 
 2646000   0.83674451    -7.985341    606.16633   0.01909065  0.018854848            5 
 2647000   0.82202593   -8.0120011    606.91187  0.019106909   0.01884872            2 
 2648000   0.83814356   -8.0113273    606.44513  0.019085005  0.018842644            2 
 2649000   0.80260242   -8.0034343    608.00314  0.019126813  0.018836562            1 
 2650000   0.81343411   -8.0398604    607.90269  0.019116437  0.018830446            1 
 2651000   0.81655153   -8.0084757    606.76074  0.019073329  0.018824338            4 
 2652000   0.85049853    -8.011616    607.73191  0.019096654  0.018818266            2 
 2653000   0.81097264   -8.0072984    607.77013  0.019090656   0.01881215            1 
 2654000   0.82813214   -8.0309742    607.24682  0.019067031  0.018806062            1 
 2655000   0.83282687   -8.0348597    607.06303  0.019054081  0.018799961            1 
 2656000   0.80860962   -8.0098139    607.33801  0.019055535  0.018793874            2 
 2657000   0.82971406   -8.0392916    607.68306  0.019059185   0.01878779            2 
 2658000   0.82058343   -8.0325631    606.51858  0.019015506  0.018781692            4 
 2659000   0.82559019   -8.0366282    607.32664  0.019033679  0.018775565            2 
 2660000   0.82410962   -8.0106909    607.50603  0.019032144  0.018769474            2 
 2661000   0.81803362   -8.0078906    608.55688  0.019057901  0.018763381            3 
 2662000   0.83535957   -8.0486986    607.77351  0.019026218  0.018757294            4 
 2663000   0.82755463    -8.018439    607.81167  0.019020268   0.01875118            1 
 2664000   0.81281107   -8.0149896    609.11757  0.019053978  0.018745087            1 
 2665000   0.83372374   -7.9963369    608.87133  0.019039129  0.018738999            3 
 2666000    0.8319853   -7.9820155    608.06157  0.019006676  0.018732921            3 
 2667000   0.82710368   -8.0310061    608.04996  0.018999187  0.018726839            2 
 2668000   0.83258982   -8.0172938    608.51779  0.019006678  0.018720756            2 
 2669000   0.82638055   -8.0246659     608.1805  0.018989025  0.018714663            2 
 2670000    0.8403086   -8.0150521    606.91331  0.018942363  0.018708567            2 
 2671000   0.81306944   -8.0250008    610.52164  0.019047848  0.018702491            1 
 2672000   0.81309948   -8.0480194    608.66853  0.018982926  0.018696425            3 
 2673000   0.83874087   -8.0086839     608.4474   0.01896893  0.018690348            1 
 2674000    0.8317201   -8.0121044    610.57053  0.019028002  0.018684282            2 
 2675000   0.81399871   -8.0027335    608.84691  0.018967193  0.018678223            2 
 2676000   0.82331534   -8.0113157     609.1135  0.018968407  0.018672154            1 
 2677000   0.83992733   -8.0501215      607.065  0.018897553  0.018666054            3 
 2678000    0.8194262   -8.0357643    608.70919   0.01894166  0.018659963            3 
 2679000   0.84503555   -8.0522214    607.51754  0.018897522  0.018653839            2 
 2680000   0.80162212   -8.0294628    608.83096  0.018931311   0.01864772            2 
 2681000   0.82032886   -8.0400932    606.87415  0.018863426  0.018641591            4 
 2682000   0.82085794   -8.0457088    607.91162  0.018888629   0.01863546            5 
 2683000   0.83021402   -8.0478166     607.4288  0.018866592  0.018629333            1 
 2684000   0.83298519   -8.0444396    607.27764   0.01885487  0.018623211            3 
 2685000   0.84128727    -8.029031    609.89606  0.018929114  0.018617088            1 
 2686000   0.81959136   -8.0543003    607.30029  0.018841533   0.01861094            4 
 2687000   0.82864472   -8.0700347    606.62299  0.018813515  0.018604764            2 
 2688000   0.82128045   -8.0400173    606.82898  0.018812903   0.01859863            1 
 2689000   0.80514721   -8.0562468    608.43931  0.018855811  0.018592515            2 
 2690000   0.82119012   -8.0445888    608.84757  0.018861449  0.018586364            1 
 2691000    0.8407315    -8.011553    609.10134  0.018862298  0.018580272            2 
 2692000   0.82615749    -8.024177    608.42984  0.018834505  0.018574198            2 
 2693000   0.83080568   -8.0375895    609.09851  0.018848202  0.018568102            3 
 2694000   0.81460182   -8.0076484    608.92606  0.018835872  0.018562006            1 
 2695000   0.82898338   -8.0045757    608.82367  0.018825716  0.018555892            2 
 2696000   0.82788474   -8.0486804    607.63668  0.018782044  0.018549763            2 
 2697000   0.82739349   -8.0625312     609.8188  0.018842504  0.018543649            1 
 2698000   0.80205791   -8.0460892    609.04859  0.018811731  0.018537543            2 
 2699000   0.81745091   -8.0226371    609.46739  0.018817691  0.018531422            2 
 2700000   0.82177713   -8.0301534    609.56308  0.018813675  0.018525318            4 
 2701000   0.80164109     -8.02466    608.53217  0.018774903  0.018519236            2 
 2702000   0.82262724   -8.0822861    608.29984   0.01876079  0.018513126            3 
 2703000   0.82695475    -8.031027    609.36152   0.01878658  0.018507029            2 
 2704000   0.82488514   -8.0406977    608.49929   0.01875306  0.018500946            3 
 2705000   0.81394382   -8.0779856    609.69705  0.018783027  0.018494819            3 
 2706000   0.81363872   -8.0911723    608.67463  0.018744599  0.018488705            2 
 2707000    0.8185961    -8.027862    609.66858  0.018768273  0.018482596            2 
 2708000   0.82123374   -8.0362004    609.15576  0.018745561  0.018476526            3 
 2709000   0.80486639   -8.0382526    610.03787  0.018765777  0.018470467            1 
 2710000   0.81829827   -8.0867364    609.45931  0.018741061  0.018464364            1 
 2711000   0.82295312   -8.0585233    608.49774   0.01870459  0.018458293            1 
 2712000    0.8179095   -8.0414248    609.70693  0.018734849  0.018452225            2 
 2713000   0.80893077   -8.0695179     609.2927   0.01871522  0.018446137            3 
 2714000   0.81155837   -8.0382218    609.86783  0.018725983  0.018440071            3 
 2715000   0.81305741   -8.0303114    610.27269  0.018731513  0.018434032            1 
 2716000   0.81098148    -8.053528    609.44355  0.018699176  0.018427965            3 
 2717000   0.83580743   -8.0546008    609.88268  0.018705763  0.018421913            3 
 2718000   0.82721342    -8.061687    609.43328  0.018685102  0.018415887            1 
 2719000   0.79422426   -8.0583858    609.10857  0.018668278  0.018409816            1 
 2720000   0.80159251   -8.0308603    609.76213  0.018681438  0.018403797            1 
 2721000   0.80104548   -8.0354605    609.24886  0.018658853  0.018397736            2 
 2722000    0.8304841   -8.0296965    609.29246  0.018653333  0.018391683            1 
 2723000   0.81636444   -8.0376696    609.35642   0.01864844  0.018385613            3 
 2724000   0.82464767   -8.0548019    610.19905  0.018667372  0.018379521            4 
 2725000   0.78714742   -8.0641095    608.82282  0.018618435  0.018373434            2 
 2726000   0.82405566   -8.0661784    609.04509    0.0186184  0.018367336            3 
 2727000   0.82460004    -8.074981    610.22925  0.018647758  0.018361231            1 
 2728000   0.82173295   -8.0764355     609.4503  0.018617128  0.018355119            1 
 2729000    0.8229163   -8.0725988     610.0452  0.018628472  0.018349005            2 
 2730000   0.81073671   -8.0540147    608.33448  0.018569429  0.018342898            2 
 2731000   0.80219176   -8.0334977    610.64154  0.018633026  0.018336817            1 
 2732000   0.80891367   -8.0288735    610.53039  0.018622816  0.018330757            2 
 2733000   0.81356774   -8.0725338    609.06124  0.018571205   0.01832469            3 
 2734000   0.81327181    -8.032871    610.96766  0.018622521  0.018318631            2 
 2735000   0.82336399   -8.0605794    610.73156  0.018608518  0.018312602            3 
 2736000   0.82069652   -8.0235901     611.1347  0.018613995  0.018306537            4 
 2737000   0.81547905   -8.0191025    609.88859  0.018569254  0.018300453            1 
 2738000   0.79908053   -8.0495496    608.80902  0.018529615  0.018294351            3 
 2739000   0.82589425   -8.0710944    610.34154  0.018569476  0.018288225            2 
 2740000   0.80759836   -8.0499162     610.3786  0.018563826   0.01828213            1 
 2741000   0.81069154   -8.0716796      608.805  0.018509212  0.018276042            2 
 2742000   0.82459168   -8.1000323    610.25909  0.018546654  0.018269944            2 
 2743000   0.81947626   -8.0673878    609.23222  0.018508695  0.018263866            2 
 2744000   0.79378617   -8.0662129    609.30313  0.018504104  0.018257812            1 
 2745000   0.80465532   -8.0671354    609.68614   0.01850899  0.018251762            2 
 2746000    0.8107448   -8.0445294    611.02763   0.01854296  0.018245686            1 
 2747000   0.79873361   -8.0641186    610.10559  0.018508239  0.018239644            2 
 2748000   0.83295935   -8.0295543    609.95593  0.018496965  0.018233604            3 
 2749000   0.80168332    -8.075613    610.27993  0.018500059   0.01822757            2 
 2750000   0.82155161   -8.0580802    612.04601  0.018546849  0.018221551            2 
 2751000   0.81220159    -8.053627    611.59977  0.018526589  0.018215529            3 
 2752000    0.8136402   -8.0598234    610.89817  0.018498612  0.018209507            1 
 2753000   0.82555073   -8.0704014    611.86566  0.018521179  0.018203513            3 
 2754000   0.80969243   -8.0519471    611.91965  0.018516087  0.018197506            1 
 2755000     0.824385   -8.0638639    612.69107    0.0185327  0.018191514            1 
 2756000   0.81153204   -8.0306896    613.54475  0.018551789  0.018185554            6 
 2757000   0.81274453   -8.0235568    613.57864  0.018546084  0.018179625            1 
 2758000   0.79759012   -8.0857975    612.50095  0.018506797  0.018173688            5 
 2759000   0.79562827   -8.0620255    612.44475  0.018498392  0.018167717            6 
 2760000   0.82487098    -8.060531    611.31299  0.018457518  0.018161723            4 
 2761000   0.80277683   -8.0893607    611.37291  0.018452641   0.01815576            2 
 2762000   0.81361682   -8.0580225    613.31877   0.01850467  0.018149789            3 
 2763000   0.81655723   -8.0878895    611.14111  0.018432293  0.018143819            3 
 2764000   0.80148119    -8.048484    611.92109  0.018449141  0.018137871            6 
 2765000   0.80343774   -8.0579809    613.38078  0.018486461  0.018131961            2 
 2766000   0.79746919   -8.0903473    613.45824  0.018482111  0.018126037            1 
 2767000   0.82103775   -8.0884515    612.56403  0.018448501  0.018120091            2 
 2768000   0.80615239   -8.0720091    613.78648  0.018478639  0.018114162            2 
 2769000   0.81137836   -8.0888804    611.56689  0.018405167  0.018108211            1 
 2770000   0.80278818   -8.0936636     612.5689  0.018428667  0.018102238            1 
 2771000   0.81445889   -8.0972497    613.33798  0.018445146  0.018096267            2 
 2772000   0.80303954   -8.0993493    612.91123  0.018425662  0.018090291            2 
 2773000   0.80450537   -8.0728184    611.05535  0.018363245  0.018084334            2 
 2774000   0.81427186   -8.0732815    613.47546  0.018429328  0.018078379            2 
 2775000   0.81125296   -8.0748754    612.49115  0.018393128  0.018072471            1 
 2776000   0.80065177   -8.0869135    613.70329  0.018422889  0.018066532            2 
 2777000   0.79552307   -8.0643836    612.47678   0.01837945  0.018060606            1 
 2778000   0.79339683   -8.0562501    613.00047  0.018388543  0.018054679            1 
 2779000   0.79193603   -8.1111991    612.31694  0.018361429  0.018048715            2 
 2780000   0.82224085   -8.1014072    612.49085  0.018360037  0.018042739            6 
 2781000   0.80426185   -8.0646877    612.63125  0.018357643  0.018036774            1 
 2782000   0.80524789   -8.0839782    612.71861  0.018353661  0.018030841            2 
 2783000   0.79433756   -8.1012035    612.67087  0.018345636  0.018024879            2 
 2784000   0.80628259   -8.0720129    613.51024  0.018364171  0.018018948            3 
 2785000   0.82621804   -8.1059565    611.74599  0.018304787  0.018013007            2 
 2786000   0.80130812   -8.0771847    612.42273  0.018318459  0.018007082            1 
 2787000    0.8250609   -8.0654157    611.80444  0.018293399  0.018001153            2 
 2788000   0.81100007   -8.1116033    612.45666  0.018306332  0.017995242            3 
 2789000   0.80260456    -8.079402    614.07721   0.01834819  0.017989298            2 
 2790000   0.79551686   -8.1136474    614.20299   0.01834537  0.017983356            6 
 2791000   0.80663755   -8.0906176    612.86507   0.01829885   0.01797741            2 
 2792000   0.82091196   -8.0820294    613.74124  0.018318447  0.017971461            5 
 2793000   0.81369028   -8.0853199    613.96041  0.018318427  0.017965508            1 
 2794000   0.79326421   -8.0851573    612.89089  0.018279972  0.017959575            3 
 2795000    0.8080208   -8.0654088    613.71659   0.01829805  0.017953664            1 
 2796000   0.79646174   -8.1124257    612.94635  0.018268549   0.01794774            2 
 2797000     0.801351   -8.0653905    612.46713   0.01824774  0.017941806            2 
 2798000   0.80796644   -8.1019704    613.99616  0.018286757  0.017935866            2 
 2799000   0.80277201   -8.0878948    612.66039  0.018240455  0.017929935            2 
 2800000   0.81759126   -8.1039405    612.77722  0.018237417  0.017924012            1 
 2801000   0.78039916   -8.0944434    611.85014  0.018203324  0.017918067            1 
 2802000   0.82122943   -8.0984008    613.76451  0.018253763  0.017912118            2 
 2803000    0.7872092   -8.0645599    615.49729  0.018298766  0.017906169            2 
 2804000   0.79600837   -8.0786719    613.89972  0.018244761  0.017900225            4 
 2805000   0.82736697   -8.0877054    611.61461  0.018170369  0.017894293            4 
 2806000   0.80209625   -8.1000427    612.00692  0.018175544  0.017888324            4 
 2807000    0.7938914   -8.0854441     614.5729  0.018245247   0.01788238            2 
 2808000   0.79847302   -8.1026108    612.91089  0.018189426  0.017876425            1 
 2809000   0.81200624   -8.0853414    613.18158  0.018190981  0.017870481            1 
 2810000   0.79548168   -8.1092266    612.46683  0.018163311  0.017864505            1 
 2811000   0.79847813   -8.1109958    613.41915  0.018185081  0.017858539            3 
 2812000   0.80058481    -8.105995     613.1851  0.018171678  0.017852577            5 
 2813000   0.79542861   -8.0705139    612.76828   0.01815287  0.017846611            1 
 2814000   0.80609336   -8.0837674    613.82236  0.018177635  0.017840638            2 
 2815000   0.81841006   -8.0952936    614.35149  0.018186841  0.017834698            2 
 2816000   0.79327933   -8.0761139    613.18645  0.018145906  0.017828756            1 
 2817000   0.79030464   -8.0691765     615.0011  0.018193146   0.01782281            2 
 2818000   0.79587254   -8.0774206    612.45866  0.018111505  0.017816854            1 
 2819000   0.80515922   -8.0537048    614.93388  0.018178251   0.01781094            3 
 2820000   0.80467268   -8.0522468    614.26581  0.018152063  0.017805029            2 
 2821000   0.80119152   -8.0536291    613.85346  0.018133447  0.017799129            2 
 2822000   0.81849704   -8.0551835     614.1013   0.01813434  0.017793237            5 
 2823000   0.79363654   -8.0839481    614.24544  0.018132171  0.017787342            3 
 2824000   0.79321493   -8.0914345    614.71488  0.018139603  0.017781435            2 
 2825000   0.79031633   -8.0642726    614.42993  0.018124777  0.017775541            1 
 2826000   0.79544777   -8.0743095    613.98997  0.018105389  0.017769666            1 
 2827000   0.79664476   -8.0303003    615.45771  0.018142251    0.0177638            2 
 2828000   0.78904649   -8.0707996     614.0895  0.018095518  0.017757936            3 
 2829000   0.79540151   -8.0541452    614.54157  0.018102438  0.017752037            3 
 2830000   0.79457466   -8.0738661    615.02508  0.018110279   0.01774615            2 
 2831000   0.80114782   -8.0748135    615.41476  0.018115353  0.017740277            3 
 2832000   0.80990003   -8.0622987    615.89583  0.018123112  0.017734399            5 
 2833000   0.79061079   -8.0868291    615.01158  0.018090704  0.017728528            2 
 2834000   0.78226256    -8.091437    614.42842  0.018067173  0.017722653            3 
 2835000   0.79250693   -8.1169945    613.53083  0.018034416  0.017716773            3 
 2836000   0.79767721   -8.0837906    614.76417  0.018064297  0.017710906            1 
 2837000   0.80921541     -8.09806    614.38579  0.018046816  0.017705033            2 
 2838000   0.78939712   -8.0944691    614.90073  0.018055577  0.017699165            3 
 2839000   0.78225609   -8.0642461    614.77994  0.018045671  0.017693327            2 
 2840000   0.80455475   -8.0492514    617.82836  0.018128767  0.017687501            2 
 2841000   0.79065817   -8.0863479     615.7278  0.018060771  0.017681672            1 
 2842000   0.78909065   -8.0890753    615.45624  0.018046453  0.017675819            3 
 2843000   0.79497197   -8.0767545    615.98297  0.018055545  0.017669953            2 
 2844000   0.78241051   -8.1297063    614.83426  0.018015537  0.017664062            1 
 2845000   0.80218901   -8.1119974    614.67216  0.018004457  0.017658172            2 
 2846000   0.80063235   -8.0933218    616.16856  0.018041947  0.017652311            1 
 2847000   0.79502678   -8.1043325    616.02567  0.018031427    0.0176465            1 
 2848000   0.78698433   -8.1033802     615.1051   0.01799816  0.017640636            3 
 2849000   0.80377338   -8.0853025    615.05277  0.017990311  0.017634779            2 
 2850000   0.79462769   -8.0836265    616.17623  0.018016849  0.017628911            2 
 2851000   0.77448358   -8.1045352    614.14699  0.017951216  0.017623053            2 
 2852000   0.79162465   -8.1121175    615.01392  0.017970252  0.017617227            4 
 2853000   0.80739368   -8.0662387    617.48734    0.0180362  0.017611406            1 
 2854000   0.79539878    -8.078721    615.43458  0.017969942  0.017605573            1 
 2855000   0.78154607   -8.0889115    615.67127  0.017970557  0.017599724            3 
 2856000    0.7952201   -8.0692349     616.1076  0.017976996  0.017593881            2 
 2857000   0.80264513   -8.0933186    614.70758  0.017929867  0.017588043            2 
 2858000    0.7993706   -8.1205728    615.15303  0.017936582  0.017582174            4 
 2859000    0.8071925   -8.1296298    614.75066   0.01791858  0.017576306            1 
 2860000   0.81258965   -8.1441258    615.22365  0.017926097  0.017570414            1 
 2861000   0.82213938   -8.1619496    613.76036   0.01787721  0.017564517            2 
 2862000   0.80757925   -8.1309754    613.93469  0.017876039  0.017558599            1 
 2863000   0.79492218   -8.1182038    614.79757  0.017894911  0.017552692            4 
 2864000   0.79019239   -8.1143993    614.02428  0.017866163  0.017546808            2 
 2865000   0.79072742   -8.1284317    615.64673  0.017907118  0.017540938            1 
 2866000   0.79007736   -8.1352399    615.46124  0.017895477  0.017535061            3 
 2867000   0.79161166   -8.1143241    615.52195     0.017891  0.017529178            3 
 2868000   0.80671351   -8.1289326    616.62437  0.017916794  0.017523307            2 
 2869000   0.77349718     -8.12587    615.96406  0.017891369  0.017517451            3 
 2870000   0.80050738   -8.1234731     615.7695  0.017879486  0.017511602            2 
 2871000   0.79365401   -8.1125584    615.54664   0.01786679  0.017505737            3 
 2872000   0.80058523   -8.1293005    615.71156  0.017865354  0.017499875            3 
 2873000   0.78184786   -8.1444895    615.06156  0.017840282  0.017493996            4 
 2874000   0.80797024   -8.1180815    615.65889  0.017851394  0.017488123            3 
 2875000    0.7961173   -8.1259856    615.81585  0.017849735  0.017482261            1 
 2876000   0.79762554   -8.1188341    614.66725  0.017810247  0.017476421            4 
 2877000   0.79813201   -8.1266778    615.69715  0.017833888  0.017470573            2 
 2878000   0.78887511   -8.1080157    616.82875  0.017860457  0.017464739            5 
 2879000   0.79250185   -8.1384878    616.45893  0.017843549  0.017458862            4 
 2880000   0.80137016    -8.145732    615.48257  0.017809102   0.01745301            1 
 2881000   0.80459997   -8.1399983    615.31634  0.017798112  0.017447152            5 
 2882000   0.80045034   -8.1090538    616.38032  0.017822702  0.017441298            3 
 2883000   0.78066683   -8.0935347    615.96809  0.017804604  0.017435461            3 
 2884000   0.79545363   -8.1355785    615.90049  0.017796477  0.017429634            1 
 2885000   0.78700193   -8.1174237    616.11562  0.017796523  0.017423807            2 
 2886000   0.77842203   -8.1066119     616.8911  0.017812748  0.017417994            1 
 2887000   0.80654297   -8.1022873    618.18801  0.017844014  0.017412199            1 
 2888000   0.78495737   -8.1224903    617.12087  0.017807043  0.017406419            1 
 2889000   0.79100891   -8.1265819    616.33768  0.017778288   0.01740062            2 
 2890000   0.79384021   -8.1213772    618.11495  0.017823384  0.017394818            2 
 2891000   0.78797239   -8.1252255    617.38337  0.017796131  0.017389035            3 
 2892000   0.78063393   -8.1148515    616.90067  0.017776068  0.017383241            2 
 2893000   0.80996776   -8.1178672    617.60798  0.017790298  0.017377457            4 
 2894000   0.79042531   -8.1029815    618.50339  0.017809934  0.017371719            4 
 2895000   0.80695173   -8.1141254    618.04946  0.017790716  0.017366012            1 
 2896000   0.79275017   -8.1246517     617.5851   0.01777121  0.017360275            5 
 2897000   0.78142904   -8.1271951    616.65192  0.017738233  0.017354545            2 
 2898000   0.77642062   -8.1045305    617.49265  0.017756287  0.017348808            3 
 2899000   0.79029695    -8.108156    618.72363  0.017785548  0.017343051            1 
 2900000   0.78497858   -8.1160145    617.22899  0.017736465  0.017337283            1 
 2901000   0.78135397   -8.1392423    616.41487  0.017706965   0.01733151            2 
 2902000    0.7722459   -8.1297214    617.71291  0.017738138  0.017325724            1 
 2903000   0.78829908   -8.1239803    617.65025  0.017730229  0.017319952            2 
 2904000   0.79249338   -8.1381025    618.21143  0.017740227  0.017314146            2 
 2905000   0.76743679   -8.1465556    616.69323  0.017690569  0.017308342            4 
 2906000   0.77860093   -8.1053829    617.09994  0.017696144  0.017302529            2 
 2907000    0.7773079   -8.1491229    617.16626  0.017691958  0.017296722            2 
 2908000   0.80498822   -8.1498462    617.17982  0.017686263  0.017290921            1 
 2909000   0.79275092   -8.1491525    615.98012  0.017645815  0.017285127            3 
 2910000   0.77926091   -8.1385428    617.57096  0.017685308  0.017279321            1 
 2911000   0.78566456   -8.1515999    615.61447  0.017623224  0.017273497            1 
 2912000   0.78926076   -8.1323798    616.62562  0.017646109   0.01726769            1 
 2913000   0.77096725   -8.1600852    616.88667  0.017647519  0.017261883            1 
 2914000   0.77187645   -8.1789716    617.64565  0.017663168  0.017256062            3 
 2915000   0.79706943   -8.1444612    615.11939  0.017584888  0.017250243            4 
 2916000   0.78144604   -8.1615528     614.6815  0.017566344  0.017244403            2 
 2917000   0.76704585   -8.1506696    614.89768  0.017566497  0.017238576            1 
 2918000    0.7800566   -8.1629018    615.64252  0.017581749  0.017232738            1 
 2919000   0.78370851   -8.1509618    617.05792  0.017616133  0.017226892            1 
 2920000   0.77925752   -8.1496494    616.14311  0.017583993  0.017221032            5 
 2921000   0.79008648   -8.1434384    616.14251  0.017577956  0.017215191            1 
 2922000   0.78324328   -8.1448548     616.8278  0.017591484  0.017209345            3 
 2923000   0.80799406   -8.1446181    618.21045  0.017624884  0.017203504            2 
 2924000   0.78447425   -8.1385398    618.41022   0.01762455   0.01719768            2 
 2925000   0.79446011   -8.1127662    616.18918  0.017555247  0.017191893            5 
 2926000   0.77349863   -8.1293995    616.72656  0.017564552  0.017186097            2 
 2927000   0.77926978   -8.1164584    617.46352  0.017579533  0.017180305            2 
 2928000   0.79077715   -8.1520171    616.73226  0.017552717  0.017174529            2 
 2929000    0.8033576   -8.1368093    615.35024  0.017507404  0.017168756            1 
 2930000   0.78869141   -8.1224585    617.46126  0.017561469  0.017162971            2 
 2931000   0.77836829   -8.1142552    616.89217  0.017539297  0.017157211            2 
 2932000   0.80946358   -8.1427705    617.05491  0.017537941  0.017151436            1 
 2933000   0.77576885   -8.1523824    616.96382  0.017529373  0.017145659            3 
 2934000   0.78126938    -8.147603    618.40466  0.017564322  0.017139893            1 
 2935000   0.77957642   -8.1225505    617.64807  0.017536856  0.017134133            2 
 2936000   0.78436293   -8.1546302    617.35613  0.017522597  0.017128349            1 
 2937000   0.78295844   -8.1350078    616.54509  0.017493618  0.017122555            2 
 2938000    0.7841189    -8.156246    616.67041  0.017491219  0.017116773            4 
 2939000   0.78669867   -8.1206148    617.39635  0.017505851  0.017111008            5 
 2940000   0.77409866    -8.116808    618.39363  0.017528164  0.017105246            1 
 2941000   0.77502587   -8.1105249    618.51504  0.017525644  0.017099483            2 
 2942000   0.78601041   -8.1423014    618.22494   0.01751147  0.017093701            4 
 2943000   0.77550673   -8.1339256    616.45533  0.017455412  0.017087926            1 
 2944000    0.7661795    -8.146201    616.54508  0.017452023  0.017082161            2 
 2945000   0.78529014   -8.1766369    616.81694   0.01745379  0.017076385            4 
 2946000   0.77259479   -8.1494076    616.87907  0.017449623  0.017070627            1 
 2947000   0.79235735   -8.1463396     617.5181  0.017461772  0.017064835            4 
 2948000   0.79952453   -8.1320854    617.70426  0.017461111  0.017059037            6 
 2949000   0.77982277   -8.1486702    618.11166  0.017466702   0.01705326            3 
 2950000   0.79894687    -8.139785    618.07118  0.017459638  0.017047468            1 
 2951000   0.76199164   -8.1550812    618.54334  0.017467055  0.017041707            1 
 2952000    0.7824717     -8.15911    617.31538  0.017426473  0.017035951            2 
 2953000   0.77496641   -8.1382272    618.52922  0.017454826  0.017030192            2 
 2954000    0.7837961   -8.1186446    618.09005  0.017436528  0.017024443            1 
 2955000   0.77214352   -8.1438441    617.18248  0.017405033  0.017018709            3 
 2956000   0.79621046   -8.1284208    617.36586  0.017404315  0.017012969            1 
 2957000    0.7757303   -8.1447302    617.74645  0.017409155  0.017007223            1 
 2958000   0.79626003   -8.1620235    617.72455  0.017402652  0.017001478            2 
 2959000   0.79907079   -8.1484936    617.01276  0.017376725  0.016995707            3 
 2960000   0.78827502   -8.1645382    617.89688  0.017395746  0.016989961            1 
 2961000   0.77641063    -8.161216    617.04127  0.017365791   0.01698422            3 
 2962000   0.77987747   -8.1177348    618.98002  0.017414473  0.016978486            4 
 2963000    0.7639219   -8.1735112    616.80238   0.01734735  0.016972749            2 
 2964000   0.76299475   -8.1510906    616.56585  0.017334847  0.016966997            1 
 2965000   0.78864612   -8.1491648    617.48845  0.017354931  0.016961262            3 
 2966000   0.77215181   -8.1731036    615.46778  0.017292307  0.016955512            1 
 2967000   0.77444972   -8.1514248    618.23109  0.017364091  0.016949766            4 
 2968000   0.76545308   -8.1209203    618.42263  0.017363618  0.016944048            4 
 2969000   0.78226772    -8.124449    617.52715  0.017332636  0.016938338            1 
 2970000   0.77557571   -8.1312067    618.72565  0.017360428  0.016932621            1 
 2971000   0.78406194   -8.1378556    617.93362  0.017332369  0.016926908            2 
 2972000    0.7734453   -8.1480988    619.16582  0.017361087  0.016921199            2 
 2973000   0.77606471   -8.1388677    619.93923  0.017376927  0.016915485            2 
 2974000   0.76957732   -8.1457928    618.59439    0.0173334  0.016909753            2 
 2975000   0.78055851   -8.1136169    618.46296  0.017323892  0.016904034            3 
 2976000   0.78775873   -8.1356272    617.61191   0.01729424  0.016898326            1 
 2977000   0.79220485   -8.1789115     617.9737  0.017298558  0.016892613            2 
 2978000   0.77228393   -8.1382849    618.77791  0.017315254  0.016886906            3 
 2979000   0.77639218   -8.1545081     618.5617  0.017303393  0.016881204            1 
 2980000   0.77801545    -8.152625    619.28875  0.017317918  0.016875488            2 
 2981000   0.76701424   -8.1450295    619.39473  0.017315071  0.016869777            2 
 2982000   0.77232892   -8.1300712    618.18073  0.017275339  0.016864064            2 
 2983000   0.75472855   -8.1386058    617.82841  0.017259705  0.016858369            2 
 2984000    0.7849104   -8.1674975    617.74248  0.017251521  0.016852685            1 
 2985000   0.78128051   -8.1422115    618.89527  0.017277925   0.01684699            1 
 2986000   0.77036178   -8.1475415    618.53708  0.017262142  0.016841321            2 
 2987000   0.77811677   -8.1535005    618.67104  0.017260101  0.016835646            3 
 2988000    0.7591311   -8.1518351     618.6674  0.017254223   0.01682998            1 
 2989000   0.78081643   -8.1734299    618.05438  0.017231359  0.016824293            3 
 2990000   0.77010771   -8.1943598    618.61442  0.017241205    0.0168186            2 
 2991000   0.78255184   -8.1385188    620.08161  0.017276318  0.016812912            5 
 2992000   0.77734897   -8.1521972    620.51883  0.017282722  0.016807222            5 
 2993000   0.77828901   -8.1617678    619.71982    0.0172547   0.01680158            2 
 2994000   0.78089422   -8.1525288    619.52524  0.017243521  0.016795905            2 
 2995000   0.75999909   -8.1361719    618.61527  0.017212445  0.016790233            3 
 2996000   0.76800146   -8.1600568    619.48124  0.017230787  0.016784565            2 
 2997000   0.77121061   -8.1764459    618.09182  0.017186404  0.016778887            2 
 2998000    0.7616408   -8.1483398    619.67693  0.017224731  0.016773211            2 
 2999000   0.75577438   -8.1659682    618.76735  0.017193713  0.016767532            2 
 3000000   0.76905103   -8.1714955    618.58324  0.017182868  0.016761853            1 
 3001000   0.77864168   -8.1332115    620.95834  0.017243095  0.016756201            2 
 3002000    0.7672567   -8.1543067    619.42649  0.017194828  0.016750532            3 
 3003000   0.78504733   -8.1681604    619.16348  0.017181804  0.016744855            1 
 3004000   0.77521436   -8.1537868     618.1503  0.017147978  0.016739189            2 
 3005000   0.78154008   -8.1773858    618.91006  0.017163341   0.01673352            3 
 3006000   0.78801581    -8.168085    619.34713  0.017169747  0.016727852            3 
 3007000   0.76687598    -8.195486    618.61082  0.017143632  0.016722171            4 
 3008000   0.77154948   -8.1880653    618.93554  0.017146929  0.016716489            4 
 3009000   0.76961269   -8.1856265     619.7681  0.017164288  0.016710806            2 
 3010000   0.76495448   -8.2180073    618.25859  0.017116794  0.016705104            2 
 3011000   0.75902683   -8.1865566    617.45989  0.017089004  0.016699389            1 
 3012000   0.77098154   -8.1804793    618.86185  0.017122118  0.016693709            2 
 3013000   0.77396683   -8.1992823    618.50608  0.017106596  0.016688034            4 
 3014000   0.78750594   -8.1818351    618.73505  0.017107251  0.016682377            3 
 3015000   0.75962834   -8.1816853    620.00241  0.017136606  0.016676726            2 
 3016000   0.77302455   -8.1549905    619.75121  0.017123984  0.016671068            5 
 3017000   0.76124523   -8.1810352    619.00395  0.017097667  0.016665418            2 
 3018000   0.76837446   -8.2013106    619.46224  0.017104657  0.016659771            2 
 3019000   0.78598406   -8.1593548    620.34865  0.017123458  0.016654156            3 
 3020000   0.75935691   -8.1667391    620.53101   0.01712282  0.016648537            2 
 3021000    0.7716131   -8.1860596    619.85249  0.017098436   0.01664289            4 
 3022000     0.780126   -8.1953559    618.60086  0.017058263  0.016637258            2 
 3023000    0.7790726   -8.1929222    619.37095  0.017073849  0.016631609            2 
 3024000   0.75536583   -8.1794349    617.66192  0.017021107  0.016625997            4 
 3025000   0.75274041   -8.1800452    619.43709  0.017064383  0.016620387            1 
 3026000   0.76925128   -8.1906512    619.94967  0.017072859  0.016614783            2 
 3027000   0.78403671   -8.1785135    619.29777  0.017049272  0.016609192            1 
 3028000   0.77506653   -8.1739273     621.1552   0.01709476  0.016603586            2 
 3029000   0.75981596   -8.1741138    620.50673  0.017071276  0.016597991            2 
 3030000   0.75972177    -8.160828    619.82117  0.017046787  0.016592402            2 
 3031000   0.76205557   -8.1513892    620.93476  0.017071779  0.016586814            3 
 3032000   0.78110146   -8.1819422    620.54102  0.017055327  0.016581241            3 
 3033000   0.74688674   -8.1851949    622.30081  0.017098055   0.01657565            3 
 3034000   0.77191138    -8.195067    620.21642  0.017035169  0.016570064            5 
 3035000   0.77016071    -8.205379    619.64805   0.01701395  0.016564463            2 
 3036000   0.78589956   -8.1511296    621.47825  0.017058582  0.016558887            1 
 3037000   0.75836113   -8.1458837     621.7188  0.017059565  0.016553321            2 
 3038000   0.75914932   -8.1657748     620.5838  0.017022817  0.016547768            2 
 3039000   0.76829786   -8.1831642    621.62351  0.017045725  0.016542205            3 
 3040000   0.77345293   -8.1657497    621.34835  0.017032575  0.016536618            1 
 3041000    0.7541024   -8.1729772    621.64473  0.017035096  0.016531021            3 
 3042000   0.77792569   -8.1786611    621.28014  0.017019509  0.016525415            1 
 3043000   0.76588222   -8.1761927    620.98134  0.017005733  0.016519811            3 
 3044000   0.76740422   -8.1762412     620.6909  0.016992195  0.016514211            3 
 3045000   0.76791011   -8.1864856    621.02728   0.01699582   0.01650864            1 
 3046000   0.78258225   -8.2035779    621.36976   0.01699961  0.016503062            2 
 3047000   0.75887886   -8.1726946    621.61569  0.017000757   0.01649748            1 
 3048000   0.75562169   -8.1858569    620.50543  0.016964825    0.0164919            1 
 3049000   0.77675551   -8.1789306    620.41333  0.016956743  0.016486309            2 
 3050000    0.7492742   -8.1806562    620.42592  0.016951528  0.016480754            2 
 3051000   0.76351165   -8.1474223    621.16346  0.016966117  0.016475177            3 
 3052000   0.76526052    -8.168988      620.542  0.016943589  0.016469612            4 
 3053000   0.76857925   -8.2044813    619.52317  0.016910229  0.016464016            3 
 3054000    0.7705949   -8.1920893     620.1148  0.016920836  0.016458417            6 
 3055000   0.74468527   -8.1784503    620.66144  0.016930208  0.016452822            1 
 3056000   0.77912515   -8.1908885    620.06235  0.016908332  0.016447234            2 
 3057000   0.77025065   -8.1978848    621.06394  0.016930104  0.016441655            2 
 3058000   0.77065897   -8.2004054    620.36264  0.016905457  0.016436053            2 
 3059000   0.75743176   -8.2250832    619.15363  0.016866995  0.016430452            2 
 3060000   0.74907307   -8.1805726    620.90549  0.016909191  0.016424861            2 
 3061000   0.76540731   -8.1824014    620.76917  0.016899956  0.016419281            1 
 3062000   0.75992924   -8.2115323    621.00427  0.016900835  0.016413704            2 
 3063000   0.76776992   -8.2049055    619.78976  0.016862274  0.016408095            4 
 3064000   0.76174473   -8.2341552     619.6896  0.016854047  0.016402475            2 
 3065000   0.75540915    -8.225605    619.49147  0.016843161  0.016396848            2 
 3066000   0.75705479   -8.2233342    619.36462   0.01683422   0.01639125            3 
 3067000    0.7399925   -8.2224448      619.193  0.016824068  0.016385634            5 
 3068000   0.76685345   -8.2249783    619.96853  0.016839649  0.016380018            4 
 3069000   0.76562492    -8.215593    620.02662   0.01683574  0.016374414            2 
 3070000   0.76167529   -8.2315042    620.01685  0.016829991  0.016368835            2 
 3071000   0.78130462   -8.2225317    619.25301  0.016803783  0.016363237            3 
 3072000   0.74721232   -8.2068926    620.00302  0.016818658  0.016357642            2 
 3073000   0.75221182   -8.2091915    620.23062  0.016819357  0.016352052            3 
 3074000   0.75112891   -8.2079171    620.25659   0.01681459  0.016346506            4 
 3075000   0.77125752   -8.1785223    620.88017  0.016826021  0.016340952            2 
 3076000   0.77329295   -8.1669633    620.43782  0.016808567  0.016335393            2 
 3077000    0.7573604   -8.2123305    619.76303  0.016784829  0.016329817            2 
 3078000   0.77530048   -8.2240841    619.16578  0.016763206  0.016324229            3 
 3079000   0.76046946   -8.2077831    620.31513  0.016788869  0.016318645            3 
 3080000   0.76161562   -8.1984492    620.90838  0.016799469  0.016313067            2 
 3081000   0.74618169   -8.2079672    621.84804  0.016819432  0.016307493            2 
 3082000   0.74720524   -8.2251859    620.87371   0.01678763  0.016301924            1 
 3083000   0.74598782   -8.2283124    621.28566   0.01679332  0.016296351            1 
 3084000   0.76980427   -8.1968289    621.00445  0.016780276   0.01629078            1 
 3085000   0.73777483    -8.227605    620.53089  0.016762045  0.016285218            2 
 3086000    0.7628689   -8.2199438    620.63268  0.016759362  0.016279635            1 
 3087000   0.74843867   -8.2139873    620.52321  0.016750978  0.016274054            3 
 3088000   0.75446247   -8.2264941    619.55121  0.016719322  0.016268475            3 
 3089000   0.75695897   -8.2047223    620.19438  0.016731261  0.016262884            2 
 3090000   0.75126299   -8.2320587    619.79436  0.016715058  0.016257304            1 
 3091000   0.73498096   -8.2147771    619.64743  0.016705689  0.016251707            1 
 3092000   0.76134923    -8.218338    619.55096  0.016697687  0.016246116            2 
 3093000   0.76671827   -8.2316252    619.63254  0.016694486   0.01624055            4 
 3094000   0.76206731   -8.1998883    620.69345  0.016717665  0.016234971            1 
 3095000   0.77771911   -8.2016714    620.53158  0.016707905  0.016229387            3 
 3096000   0.75553254   -8.2218724    619.48494  0.016674336  0.016223806            3 
 3097000   0.75305793   -8.1918174    621.52362  0.016723809   0.01621823            4 
 3098000   0.75847762    -8.183462    619.26267  0.016657593  0.016212651            5 
 3099000    0.7585884   -8.2085429    620.50283  0.016685566  0.016207091            3 
 3100000    0.7555536   -8.1966043    619.37034   0.01664974  0.016201529            2 
 3101000    0.7480427   -8.2128676    619.44245  0.016646309   0.01619596            5 
 3102000   0.76438873   -8.2239449    619.90121  0.016653267  0.016190395            2 
 3103000    0.7726405   -8.2008863    620.15198  0.016654635  0.016184822            2 
 3104000   0.75078718   -8.2167165    620.46199  0.016657592  0.016179245            1 
 3105000   0.75049702   -8.2370445    620.55659  0.016654766  0.016173662            1 
 3106000   0.76382121    -8.206355    618.29276  0.016588666  0.016168091            1 
 3107000   0.76002142   -8.1995427    620.28547  0.016636774  0.016162513            1 
 3108000   0.77338002   -8.1855605    619.36437  0.016606724  0.016156945            3 
 3109000   0.75621341   -8.1713586    621.22888  0.016651359  0.016151382            2 
 3110000   0.74467327   -8.1814375    619.92478  0.016611061  0.016145839            2 
 3111000   0.75804622    -8.196389    619.50765  0.016594548  0.016140302            1 
 3112000   0.75694722   -8.1802787    620.25579  0.016609249  0.016134762            1 
 3113000   0.76097468    -8.222327    619.14289  0.016574122  0.016129202            5 
 3114000   0.75714678    -8.200067     620.1468  0.016595665  0.016123641            4 
 3115000   0.75050524   -8.1941529    621.13936   0.01661689   0.01611809            3 
 3116000   0.77284928   -8.2225476    619.78272  0.016575276  0.016112524            2 
 3117000    0.7557361   -8.2321007    619.82825  0.016571175  0.016106958            2 
 3118000   0.74740105   -8.1864722    621.09241  0.016599647  0.016101416            3 
 3119000   0.74805168   -8.2250177    621.22354  0.016597829  0.016095877            5 
 3120000    0.7416707   -8.1890641    621.14222  0.016590337  0.016090323            2 
 3121000   0.76138543   -8.2458865     620.9866  0.016580866  0.016084771            1 
 3122000   0.74472258   -8.1773802    621.83084   0.01659809  0.016079246            2 
 3123000   0.73956704   -8.2019728    620.84625  0.016566503  0.016073722            2 
 3124000    0.7602314   -8.1898118    621.92291   0.01658992  0.016068223            2 
 3125000   0.75291271   -8.1988741    621.26482  0.016567062  0.016062703            4 
 3126000   0.74844522   -8.2150995    621.60026  0.016570704   0.01605718            1 
 3127000   0.76340914   -8.2315654     621.2594  0.016556321  0.016051655            2 
 3128000   0.74844873   -8.2000591    621.20425  0.016549559  0.016046146            2 
 3129000   0.75529852   -8.2227676    620.07997  0.016514327  0.016040639            2 
 3130000    0.7416261   -8.1905327    621.47575  0.016546213  0.016035148            1 
 3131000    0.7466458   -8.1979184    621.63499  0.016545166   0.01602965            3 
 3132000   0.75408282   -8.2032348    622.35709  0.016559097  0.016024184            3 
 3133000   0.75952892   -8.2104134    622.14519  0.016548175  0.016018709            2 
 3134000   0.75502567   -8.2026925    621.51546   0.01652615  0.016013203            4 
 3135000   0.75253312   -8.2097339    621.03538  0.016508118  0.016007697            2 
 3136000   0.75010365   -8.2431303    619.92703  0.016473401  0.016002174            3 
 3137000   0.75805015   -8.2253943    621.40172  0.016507324  0.015996646            2 
 3138000   0.75418085   -8.2209878    621.14912  0.016495356  0.015991133            1 
 3139000   0.75972378    -8.209146    621.83834  0.016508398   0.01598563            2 
 3140000    0.7446728   -8.2460732    620.33668  0.016463288   0.01598011            2 
 3141000   0.75484965    -8.222501     621.1063  0.016478465  0.015974606            2 
 3142000   0.72219172    -8.222481    621.38136  0.016480516  0.015969128            1 
 3143000   0.77044675   -8.2448171    620.89757  0.016462445  0.015963645            3 
 3144000   0.75036059   -8.2367069    621.49204  0.016472965  0.015958151            4 
 3145000   0.75783688   -8.2144149    622.36065  0.016490743  0.015952674            2 
 3146000   0.73235627    -8.237112    621.20539    0.0164549  0.015947174            1 
 3147000   0.76028953    -8.238954     620.7452  0.016437486  0.015941676            2 
 3148000   0.74997122   -8.2296628     621.7223   0.01645813  0.015936185            1 
 3149000   0.74472438   -8.2150944    621.99173  0.016460033  0.015930702            2 
 3150000   0.75277715   -8.2385881    621.88267  0.016451922  0.015925236            4 
 3151000   0.74913109   -8.2569278    621.59613  0.016439123  0.015919767            2 
 3152000   0.73721604   -8.2154018    621.97015  0.016443796  0.015914295            3 
 3153000   0.74942115   -8.2488647    622.65052  0.016456563  0.015908816            3 
 3154000   0.76053472   -8.2193392    621.99903  0.016434132  0.015903336            4 
 3155000   0.76104001   -8.2345089    622.36786  0.016438665  0.015897875            2 
 3156000   0.73555372   -8.2385059    622.35537  0.016433127   0.01589242            1 
 3157000     0.728978   -8.2454517    621.78247  0.016412799  0.015886972            2 
 3158000   0.74836581   -8.2475976    622.29912  0.016421235  0.015881519            4 
 3159000   0.74696933   -8.2537656    620.19901  0.016360636  0.015876054            2 
 3160000   0.75811348   -8.2249121    621.90358  0.016400411  0.015870606            2 
 3161000   0.76445818   -8.2518452     621.6878  0.016389534  0.015865152            5 
 3162000   0.73586456   -8.2438598    621.35629  0.016375614  0.015859698            5 
 3163000    0.7203499   -8.2607257    622.21557  0.016393075  0.015854246            2 
 3164000   0.74405494   -8.2352074    622.47229  0.016394656  0.015848768            1 
 3165000   0.74473029   -8.2431636     621.9532  0.016375808  0.015843294            1 
 3166000   0.74577441   -8.2578708    621.80097  0.016366629  0.015837826            2 
 3167000   0.74142468   -8.2360026    622.98223  0.016392544  0.015832341            1 
 3168000   0.74430985    -8.242543    620.29078  0.016316571  0.015826873            2 
 3169000   0.72810967   -8.2679583    621.18177  0.016334853  0.015821406            3 
 3170000   0.74812361    -8.238544    622.27234  0.016358369   0.01581594            3 
 3171000   0.76127164   -8.2382918     622.0149  0.016346444  0.015810481            3 
 3172000   0.73247152   -8.2291449    622.05898  0.016342449  0.015805036            1 
 3173000   0.76460106   -8.2326631    623.31292  0.016370231  0.015799609            1 
 3174000   0.74464451   -8.2209188    621.86888   0.01632716  0.015794181            2 
 3175000    0.7251438   -8.2471326    621.18232  0.016303998  0.015788759            2 
 3176000   0.72899742   -8.2517129    623.16797  0.016350965  0.015783342            6 
 3177000   0.75042405   -8.2312093    623.36807  0.016351067  0.015777942            2 
 3178000   0.73614608   -8.2239153     622.1619  0.016314293  0.015772558            3 
 3179000   0.75789536   -8.2291978    623.05075  0.016332462  0.015767173            1 
 3180000   0.75390336   -8.2148369    621.72434  0.016292567  0.015761812            2 
 3181000   0.74682141   -8.2465945    622.81693  0.016316067  0.015756412            2 
 3182000   0.73439185   -8.2239233    623.42037  0.016326744  0.015751033            1 
 3183000   0.74022251   -8.1988377    623.89208  0.016333964  0.015745641            1 
 3184000   0.74997724   -8.2470593    621.78071  0.016273574  0.015740256            1 
 3185000   0.74615221   -8.2485275    622.83099  0.016295944  0.015734874            2 
 3186000   0.74600719   -8.2426628    623.05345  0.016296648  0.015729508            4 
 3187000   0.72500392   -8.2565201    622.36936  0.016273647  0.015724124            1 
 3188000   0.73787177   -8.2450762    622.13425  0.016262397  0.015718731            2 
 3189000   0.74895101   -8.2708392    620.99791  0.016227603  0.015713309            4 
 3190000   0.74016655   -8.2861253    622.77947  0.016269056  0.015707885            1 
 3191000   0.75521817    -8.261368    620.56996  0.016206256   0.01570248            2 
 3192000   0.74286575   -8.2599649    621.28822   0.01621993  0.015697056            3 
 3193000   0.72855256   -8.2613234    621.41904  0.016218265   0.01569163            2 
 3194000   0.72513026   -8.2377529    621.81558  0.016223533  0.015686208            2 
 3195000   0.75098334   -8.2633538    621.58561  0.016212457  0.015680793            2 
 3196000   0.74818387   -8.2570021    620.87233  0.016188786  0.015675374            2 
 3197000   0.74669277   -8.2553913    622.51276  0.016226482  0.015669964            3 
 3198000   0.74264183   -8.2465855    621.21106  0.016187488  0.015664544            2 
 3199000   0.73233057   -8.2396923    621.83852  0.016198774  0.015659137            1 
 3200000   0.74796665   -8.2572179    622.52726  0.016211647   0.01565373            1 
 3201000   0.75787047   -8.2192957    622.71194  0.016211391  0.015648331            1 
 3202000   0.74386376   -8.2557592    621.04054  0.016162829  0.015642924            1 
 3203000   0.74866839   -8.2721627    621.06156   0.01615833  0.015637522            2 
 3204000    0.7438419   -8.2423448    622.62242  0.016193883  0.015632112            3 
 3205000   0.73509087   -8.2620365    623.06699   0.01620039  0.015626712            3 
 3206000    0.7265966   -8.2852171    622.21136  0.016173096  0.015621317            2 
 3207000   0.75633319   -8.2686919    622.62293  0.016178748  0.015615949            1 
 3208000   0.71829673   -8.2566229    621.76042  0.016151299  0.015610542            1 
 3209000   0.74356806   -8.2792863    622.40268  0.016162945  0.015605127            2 
 3210000   0.72864154   -8.2527541    622.18312   0.01615221  0.015599701            1 
 3211000   0.74107521   -8.2646283    621.15101  0.016120394  0.015594278            5 
 3212000   0.74924148   -8.2711092    620.94703  0.016110083  0.015588849            3 
 3213000   0.73585661   -8.2626932    621.25981  0.016113181  0.015583413            2 
 3214000   0.74131458   -8.2487881    620.70793  0.016093858  0.015578012            2 
 3215000   0.72876323   -8.2713115    620.43018  0.016081653  0.015572622            2 
 3216000   0.74535756   -8.2835174    622.14868  0.016121183  0.015567204            3 
 3217000   0.74991534    -8.279203    621.51572  0.016099775  0.015561779            2 
 3218000   0.75131236   -8.2466606    621.95211  0.016106073  0.015556377            2 
 3219000    0.7293377   -8.2978074    620.46996    0.0160627  0.015550968            1 
 3220000   0.74037883   -8.2747534    621.46158  0.016083374  0.015545576            2 
 3221000   0.74179965   -8.2360015    622.38401  0.016102246  0.015540193            3 
 3222000    0.7383291   -8.2655449     621.9535  0.016086114  0.015534816            2 
 3223000   0.73861736   -8.2680072    621.69967   0.01607456  0.015529428            1 
 3224000   0.73868306   -8.2480688    621.80213  0.016072222   0.01552404            4 
 3225000   0.73884588   -8.2733313    622.02507  0.016072999  0.015518649            1 
 3226000   0.73933862   -8.2571797    622.76559  0.016087146  0.015513257            2 
 3227000   0.73031301   -8.2681232    622.79443  0.016082905  0.015507879            1 
 3228000   0.73531607   -8.2585187    622.41405  0.016068103  0.015502488            3 
 3229000   0.74293993   -8.2756132    620.46319   0.01601278  0.015497092            2 
 3230000   0.74316341   -8.2672213    621.71428    0.0160401   0.01549171            1 
 3231000   0.74514087   -8.2701327    620.61516  0.016006787  0.015486331            1 
 3232000    0.7363156   -8.2727751    621.29007  0.016019237  0.015480944            3 
 3233000   0.73177445   -8.2625901    622.52819  0.016046195  0.015475565            3 
 3234000   0.72722907   -8.2635638    620.71808  0.015994591  0.015470197            2 
 3235000   0.73843393   -8.2641992    622.05012   0.01602396  0.015464828            2 
 3236000    0.7356101   -8.2729128    621.90157  0.016015183  0.015459463            2 
 3237000   0.74542263    -8.286495    621.59651  0.016002382  0.015454088            3 
 3238000   0.74884835   -8.2938442    621.05269  0.015983444  0.015448729            2 
 3239000   0.73398857   -8.2799845    621.72052  0.015995691  0.015443368            1 
 3240000   0.72624139   -8.2745458    622.76673  0.016017663  0.015437995            4 
 3241000   0.74102714   -8.2606788     621.9555  0.015991862  0.015432655            2 
 3242000   0.74628021   -8.2813602    622.06244  0.015989678  0.015427291            2 
 3243000   0.72410425   -8.2871851    622.17171  0.015987555  0.015421946            3 
 3244000   0.74199118   -8.2749631    622.67021  0.015995433  0.015416577            1 
 3245000   0.73724007   -8.2963028    622.02905  0.015974038  0.015411208            2 
 3246000   0.73082742   -8.2855008    622.05912  0.015969889  0.015405853            2 
 3247000   0.73394542   -8.2654788    622.18718  0.015968257  0.015400491            4 
 3248000   0.74791399   -8.3094926    619.85225  0.015903434  0.015395129            4 
 3249000   0.73708784   -8.2577938     621.3779  0.015937671  0.015389756            1 
 3250000   0.72899005   -8.2942064    621.74967  0.015942299  0.015384379            7 
 3251000   0.74228221   -8.3164746    620.47837  0.015904808   0.01537901            3 
 3252000   0.72892925   -8.2955112    622.38531  0.015948783  0.015373639            1 
 3253000   0.72980376   -8.3060451    622.49893  0.015946791  0.015368269            1 
 3254000   0.72251584   -8.2969352    621.86698  0.015925706  0.015362893            2 
 3255000   0.74520364   -8.2751887    621.07423  0.015900518  0.015357521            2 
 3256000   0.72519113   -8.3027405    621.85072  0.015915508  0.015352149            2 
 3257000   0.72370227   -8.3219099    620.21347  0.015868731   0.01534677            2 
 3258000   0.75285192    -8.310708    622.54045   0.01592338  0.015341413            2 
 3259000   0.75456017   -8.2678619    622.24125  0.015910843  0.015336062            2 
 3260000   0.72814265   -8.2647851    621.18014  0.015878838   0.01533074            1 
 3261000   0.72596451   -8.2767553    622.27249  0.015901883  0.015325408            2 
 3262000    0.7308205   -8.2745805    621.95678  0.015888943  0.015320063            2 
 3263000   0.73538719   -8.2991645    621.22578  0.015865405  0.015314717            2 
 3264000   0.74062643   -8.3007906    620.95046  0.015853515  0.015309366            5 
 3265000   0.72859693    -8.282271    622.27657  0.015882506  0.015304021            3 
 3266000   0.72146144   -8.2629022    623.43197  0.015907123  0.015298697            2 
 3267000    0.7368706    -8.269042    623.21687  0.015896767  0.015293373            5 
 3268000   0.72195647    -8.316751    621.04952  0.015836636  0.015288035            3 
 3269000   0.73327098   -8.2672854    622.57578  0.015870699  0.015282703            3 
 3270000   0.73892859   -8.2757601    622.16883  0.015855475  0.015277384            6 
 3271000   0.71352588   -8.2903119    622.30085  0.015853991  0.015272058            2 
 3272000   0.73584066   -8.2654896    622.12239    0.0158446  0.015266728            2 
 3273000   0.73475017   -8.2874742    622.60174  0.015851964  0.015261407            3 
 3274000   0.71456405   -8.2827798    622.18517  0.015836519  0.015256091            2 
 3275000   0.71724075   -8.2801437    622.78824  0.015847029  0.015250788            3 
 3276000   0.73632013   -8.3051193    621.93534  0.015820496  0.015245495            1 
 3277000   0.71062782   -8.2806279    623.79465   0.01586295  0.015240191            3 
 3278000   0.72403662   -8.2936065    623.33663  0.015846467  0.015234892            8 
 3279000   0.74979443   -8.2714523    622.99772  0.015833021   0.01522959            2 
 3280000   0.72303823   -8.2838077    623.20653  0.015833499  0.015224281            4 
 3281000   0.72899959   -8.2845843    623.00785  0.015823627   0.01521899            4 
 3282000    0.7286316   -8.2922546    621.25427  0.015774281  0.015213695            1 
 3283000   0.72420899   -8.2915627    621.95136   0.01578717  0.015208406            2 
 3284000   0.72560738   -8.2844587     623.7899  0.015829017  0.015203122            6 
 3285000   0.72898021   -8.3006403    622.32552   0.01578705  0.015197838            2 
 3286000   0.71824349   -8.2963977    623.49377  0.015811873  0.015192543            2 
 3287000   0.71729794    -8.281557    622.15363  0.015773087   0.01518727            6 
 3288000   0.72474951    -8.272413    622.46596  0.015776206  0.015182012            5 
 3289000   0.72673568   -8.3136667    623.97622  0.015809674  0.015176735            2 
 3290000   0.72122013   -8.2750845    622.43197  0.015765754  0.015171468            2 
 3291000   0.72017687   -8.2572303    623.57741  0.015789968   0.01516621            3 
 3292000   0.72564182   -8.3130455    622.97013  0.015769799  0.015160961            2 
 3293000    0.7304126   -8.3001531    623.77485  0.015785374  0.015155692            7 
 3294000   0.74495792   -8.3061859    622.21683  0.015741167  0.015150447            3 
 3295000   0.72495097   -8.3008834    621.87005  0.015727619  0.015145174            5 
 3296000   0.73091467   -8.3018712    623.06937   0.01575317  0.015139899            2 
 3297000   0.72448059   -8.2790161    623.13415  0.015750029   0.01513464            2 
 3298000   0.73973729   -8.2747311    623.35932  0.015750943  0.015129386            2 
 3299000   0.72746253   -8.3080859     621.5996  0.015701718  0.015124127            4 
 3300000   0.73152077   -8.2744309    622.36312   0.01571624  0.015118871            2 
 3301000   0.73276248   -8.3000835    622.34302  0.015710972  0.015113625            2 
 3302000   0.72871613   -8.2651762    623.39524  0.015732769  0.015108377            2 
 3303000   0.72735787   -8.2882515    622.94782  0.015716718  0.015103139            2 
 3304000   0.73835159     -8.27793    622.41153  0.015698435  0.015097882            2 
 3305000   0.70091151   -8.3301485    622.54161  0.015696964  0.015092628            1 
 3306000   0.70379164   -8.2723298    623.77096  0.015723204  0.015087366            3 
 3307000   0.72026423   -8.3025909    623.46063   0.01571063  0.015082135            4 
 3308000   0.73793873    -8.316552    622.97984  0.015693769  0.015076901            2 
 3309000   0.71683624   -8.2822867    622.11392  0.015667219  0.015071662            3 
 3310000   0.72565628   -8.2950132     622.5514  0.015673499  0.015066415            2 
 3311000   0.71430857   -8.2899819     622.3845  0.015664565  0.015061168            3 
 3312000   0.71520379   -8.2799941     621.7454  0.015643755  0.015055901            2 
 3313000   0.70945551   -8.3106103    621.66392  0.015636984  0.015050631            3 
 3314000   0.72314588   -8.3070663    621.74931  0.015634412  0.015045366            3 
 3315000   0.71238456   -8.2929777    622.09404  0.015638362  0.015040113            4 
 3316000   0.73302775   -8.2851531    622.86083  0.015652916  0.015034857            3 
 3317000    0.7195142   -8.2833764    623.09824  0.015654161  0.015029596            2 
 3318000    0.7284105   -8.3070688    623.04736  0.015648165   0.01502432            2 
 3319000   0.73214305   -8.3054189    622.86181  0.015638792  0.015019061            4 
 3320000    0.7271904   -8.2944743    622.36164  0.015621527  0.015013805            2 
 3321000   0.73851065   -8.2875825    622.83787  0.015628773  0.015008563            2 
 3322000   0.74304035   -8.2753821    622.01262  0.015603367  0.015003328            3 
 3323000   0.71863993   -8.3052085    620.40757   0.01555842   0.01499809            2 
 3324000   0.72145846   -8.3123065    621.50074  0.015581146  0.014992839            2 
 3325000   0.73503153   -8.2992695    623.64882  0.015630296  0.014987593            2 
 3326000   0.71187691   -8.3057306    622.60347  0.015599405  0.014982354            1 
 3327000   0.71529709   -8.2760662    622.78292  0.015599211  0.014977113            2 
 3328000   0.72935608   -8.3140597    622.75469  0.015593817   0.01497187            3 
 3329000   0.71351261   -8.3139934    622.07903   0.01557222  0.014966615            1 
 3330000    0.7171941    -8.298309    622.67537  0.015582467  0.014961369            2 
 3331000   0.72396123   -8.3169156    622.17898   0.01556537  0.014956145            3 
 3332000   0.71380764   -8.3060109    622.94117  0.015579761  0.014950914            2 
 3333000   0.72681525   -8.3020374    621.90123  0.015549086  0.014945682            4 
 3334000   0.73014629   -8.2961727    622.44125   0.01555792  0.014940462            2 
 3335000   0.70292075   -8.2943044    623.22564  0.015572855  0.014935235            2 
 3336000   0.71240852   -8.2958867    622.60933  0.015552791  0.014929998            2 
 3337000   0.70237844   -8.3090982    622.88282   0.01555496  0.014924774            5 
 3338000   0.72916888   -8.3300158    622.27293  0.015535074  0.014919545            3 
 3339000   0.70441965   -8.3121301    623.28362  0.015555646  0.014914312            2 
 3340000   0.70581213   -8.3195624    623.98853  0.015568576  0.014909097            4 
 3341000   0.73811734   -8.3060418    622.81388  0.015534617  0.014903881            5 
 3342000   0.70853264   -8.3099557    624.01956  0.015560033   0.01489868            2 
 3343000   0.71617981   -8.3012476    624.28028  0.015561878  0.014893482            4 
 3344000   0.72225202   -8.2942832    623.25432  0.015531657  0.014888283            1 
 3345000   0.70603257   -8.3064306     622.4364  0.015506637  0.014883084            3 
 3346000   0.72714026   -8.3297377     622.3358  0.015499497  0.014877871            4 
 3347000   0.70769384   -8.3265204    622.13853  0.015489954  0.014872649            1 
 3348000   0.72297513   -8.2870412    623.05404  0.015508115  0.014867441            3 
 3349000   0.71702125   -8.3110105     622.8015  0.015497201  0.014862237            2 
 3350000   0.71519788   -8.3060241    623.47084  0.015509225  0.014857014            2 
 3351000    0.7124126   -8.3288701    621.41349  0.015453434  0.014851799            4 
 3352000   0.72556693   -8.3421736    620.75951  0.015432565  0.014846571            3 
 3353000   0.72521489   -8.3285215     621.3961  0.015443784  0.014841331            3 
 3354000   0.71150532   -8.3220189    622.46501  0.015465738  0.014836101            1 
 3355000   0.72021101   -8.3143103    622.71069   0.01546723  0.014830888            2 
 3356000   0.70202489   -8.3056576    623.17011  0.015474029  0.014825682            4 
 3357000   0.70784066   -8.3081917    622.08684  0.015442529  0.014820476            1 
 3358000   0.72891911   -8.3278393    622.34393   0.01544431  0.014815279            5 
 3359000   0.71757577   -8.3333534    621.65548  0.015422633  0.014810087            4 
 3360000   0.69320148   -8.3096031    623.17872  0.015455821   0.01480489            3 
 3361000   0.72980788   -8.3173114    621.96243  0.015421066  0.014799669            2 
 3362000   0.72875018   -8.3078858    622.11389  0.015420233   0.01479447            3 
 3363000   0.71006442   -8.2964605    622.76028  0.015431665  0.014789272            1 
 3364000   0.69947905   -8.3216315    623.07868  0.015434965  0.014784096            4 
 3365000   0.70838382   -8.3208587    623.10331  0.015430988  0.014778913            2 
 3366000   0.71604138    -8.288163      622.965   0.01542298  0.014773724            2 
 3367000   0.71898855   -8.3343448    623.49489  0.015431514  0.014768541            2 
 3368000   0.71141768    -8.325188    623.36547   0.01542373  0.014763377            1 
 3369000   0.70798044   -8.3033886    622.80878  0.015405382   0.01475822            1 
 3370000    0.7232004   -8.3029027     623.8493   0.01542654  0.014753062            1 
 3371000    0.7237322   -8.3368249    622.36394  0.015385245  0.014747905            2 
 3372000   0.70345712   -8.3270149     623.3696  0.015405536  0.014742765            2 
 3373000   0.73192195   -8.2778788    622.61681   0.01538237  0.014737617            1 
 3374000    0.7231758    -8.310915    623.93882  0.015410463  0.014732476            3 
 3375000   0.70605708   -8.3343735    623.58521  0.015397166  0.014727339            1 
 3376000   0.72037576   -8.3300649    621.76629  0.015347707  0.014722199            4 
 3377000   0.70940791   -8.3189778    621.52368  0.015337175  0.014717039            1 
 3378000   0.71939115   -8.3329252    622.82369  0.015364705  0.014711882            1 
 3379000   0.70954238   -8.3511141    622.87403    0.0153614  0.014706723            3 
 3380000   0.70235958   -8.3638446    620.93966  0.015309163  0.014701562            2 
 3381000   0.71154722   -8.3527202    621.62439  0.015321512  0.014696399            1 
 3382000   0.70658627   -8.3282403    622.80285  0.015346019  0.014691244            1 
 3383000   0.69466986   -8.3672063    621.94148  0.015320265  0.014686086            1 
 3384000   0.68752837   -8.3567972    622.54311  0.015330553  0.014680925            1 
 3385000   0.71164524   -8.3484547    622.40345  0.015322586  0.014675775            1 
 3386000   0.70681571   -8.3405121    622.73817  0.015326299  0.014670629            1 
 3387000   0.70630298   -8.3515449    624.58301  0.015367164  0.014665484            2 
 3388000    0.7017703   -8.3646745     622.2579  0.015305438  0.014660327            4 
 3389000   0.71180292   -8.3428195    622.26065   0.01530099  0.014655188            3 
 3390000   0.72558669   -8.3229283    622.48525  0.015301997  0.014650051            1 
 3391000   0.71309341    -8.352418    622.18167  0.015290024   0.01464492            1 
 3392000   0.70662829   -8.3106591    622.75727  0.015299658  0.014639792            3 
 3393000   0.70946285   -8.3438572    622.80436  0.015296305  0.014634664            2 
 3394000   0.71185095   -8.3417821    623.75123  0.015315047  0.014629542            2 
 3395000   0.69210096    -8.328788    622.89401  0.015289495   0.01462442            1 
 3396000   0.71172185   -8.3475662    623.26138  0.015294007  0.014619289            3 
 3397000    0.7256889    -8.346212    621.87168  0.015255414  0.014614156            4 
 3398000   0.71003042    -8.338791    622.40215  0.015263933  0.014609017            3 
 3399000    0.7026224   -8.3555451    623.04537  0.015275213  0.014603891            1 
 3400000   0.70209076   -8.3460504    624.04259  0.015295162  0.014598756            1 
 3401000   0.71545908   -8.3406502    622.42936  0.015251136  0.014593627            2 
 3402000   0.71683247     -8.35955    623.09754   0.01526302   0.01458849            2 
 3403000   0.72385518   -8.3613623    620.88395  0.015204328  0.014583362            2 
 3404000   0.71630461   -8.3704403     622.9902  0.015251425  0.014578228            3 
 3405000   0.68902271   -8.3330597    621.75405  0.015216692  0.014573101            3 
 3406000   0.70901938   -8.3423344    622.55271  0.015231765  0.014567979            2 
 3407000   0.69683816   -8.3482345    620.97574  0.015188723  0.014562852            2 
 3408000   0.70325168   -8.3650634    622.33169  0.015217422  0.014557724            1 
 3409000    0.7106174   -8.3525444    623.09436  0.015231602  0.014552603            2 
 3410000    0.7054072   -8.3416474    622.88072  0.015221914  0.014547478            1 
 3411000   0.70639628   -8.3497145     622.4444  0.015206792  0.014542348            2 
 3412000   0.70218565   -8.3679162    622.36591  0.015200418  0.014537232            2 
 3413000   0.70075742   -8.3364384    621.43936  0.015173341  0.014532113            2 
 3414000   0.71321496   -8.3586653     623.6954  0.015223965  0.014526988            1 
 3415000   0.69663997    -8.334805    623.06185  0.015204047  0.014521874            3 
 3416000   0.71202212   -8.3251552    623.62558  0.015213348  0.014516785            3 
 3417000   0.71032969   -8.3264975    624.15083  0.015221706  0.014511694            2 
 3418000   0.70253334   -8.3503402    623.15293  0.015192923  0.014506594            1 
 3419000   0.71106318    -8.376184    621.90865  0.015158152  0.014501494            2 
 3420000   0.72312014   -8.3454393    623.14075  0.015183741  0.014496392            2 
 3421000   0.71441844   -8.3795871     621.3692  0.015136149  0.014491281            2 
 3422000   0.69820271   -8.3548473    622.00762  0.015147273  0.014486173            3 
 3423000   0.70305338   -8.3659735    622.60683  0.015157436  0.014481066            2 
 3424000   0.70262763   -8.3634929    622.67586  0.015154689  0.014475951            7 
 3425000   0.70864275   -8.3631786    622.50531  0.015146115  0.014470848            7 
 3426000   0.69898205   -8.3697077    621.68105  0.015121644  0.014465736            6 
 3427000   0.70889518   -8.3572612    622.18239  0.015129423  0.014460626            3 
 3428000   0.69942399   -8.3968284    622.21227  0.015125736  0.014455517            5 
 3429000   0.69876966   -8.3683135    621.38803  0.015101294  0.014450402            4 
 3430000   0.67972704    -8.336876    623.64722  0.015151779  0.014445298            3 
 3431000   0.70218261   -8.3920669    622.56765  0.015121142  0.014440197            6 
 3432000   0.70237176   -8.3655569    622.00617  0.015103102  0.014435102            2 
 3433000   0.72219231   -8.3746554    622.79498  0.015117851   0.01442999            3 
 3434000   0.70376675   -8.3669798    621.14022  0.015073292  0.014424896            3 
 3435000   0.70681323    -8.352515    622.18798  0.015094323  0.014419799            1 
 3436000   0.69479406   -8.3494696    621.04257   0.01506215  0.014414709            3 
 3437000   0.71780323   -8.3649186    622.39328  0.015090517  0.014409605            2 
 3438000    0.7045641   -8.3918468    623.56056  0.015114421  0.014404502            1 
 3439000   0.69250493   -8.3668691    622.62316  0.015087311  0.014399408            2 
 3440000   0.71030345   -8.3580086     622.4013  0.015077551  0.014394313            1 
 3441000   0.70407981   -8.3593092    622.63503   0.01507883  0.014389214            2 
 3442000   0.70746531   -8.3894864    623.49076  0.015095167  0.014384118            1 
 3443000   0.70089479   -8.3577183    622.17144   0.01505885   0.01437902            2 
 3444000   0.69568818    -8.384644    622.53366  0.015063242   0.01437393            2 
 3445000   0.69392877   -8.3630801    621.80201  0.015041171  0.014368844            1 
 3446000   0.71238835   -8.3403225    622.81043  0.015061192   0.01436376            2 
 3447000   0.70481796   -8.3785533    620.91286  0.015010948  0.014358676            2 
 3448000   0.70776741   -8.3905955    621.67189  0.015024939  0.014353592            1 
 3449000   0.71052454   -8.3789089    621.16766    0.0150084  0.014348509            1 
 3450000   0.69929571   -8.3803548    622.40648  0.015033973  0.014343425            3 
 3451000   0.70306421   -8.3642765    622.52319  0.015032435   0.01433833            2 
 3452000   0.71039413   -8.3920304    622.42338  0.015025671  0.014333255            1 
 3453000   0.69591156   -8.3748807     621.0212  0.014987479  0.014328167            1 
 3454000   0.69689258   -8.4136453    622.50208  0.015018869  0.014323095            2 
 3455000   0.69862234   -8.3973452     621.3159  0.014985912  0.014318008            3 
 3456000    0.7045392   -8.3731339    621.59788  0.014988375  0.014312932            2 
 3457000   0.69500242   -8.3647008    622.73413  0.015011429  0.014307864            1 
 3458000   0.71192214   -8.3635146    621.33147  0.014973286  0.014302801            3 
 3459000   0.69994013   -8.3659913    622.33155  0.014993051  0.014297735            5 
 3460000   0.69497697   -8.3879549    622.40923  0.014990588  0.014292682            4 
 3461000   0.69459991   -8.3808119    621.81196  0.014971876  0.014287628            3 
 3462000   0.68907582   -8.3991422    621.71585  0.014965238  0.014282556            2 
 3463000   0.67965386   -8.3667035     621.8014  0.014962975  0.014277487            3 
 3464000   0.70378481   -8.3747602    622.08644  0.014965513  0.014272429            3 
 3465000   0.70187419   -8.3813025     621.9274  0.014957369  0.014267378            3 
 3466000   0.69726848   -8.3768668    623.18945  0.014983397   0.01426233            1 
 3467000    0.6948763   -8.3585916    622.22319   0.01495585  0.014257282            3 
 3468000   0.70214509   -8.3795061    623.34953  0.014978603  0.014252248            3 
 3469000   0.70112874   -8.3829715    622.73956  0.014959632  0.014247209            1 
 3470000    0.6848027   -8.3643145    622.46028  0.014948614  0.014242178            3 
 3471000   0.71091557   -8.3522951    620.81111  0.014904713  0.014237151            3 
 3472000   0.68058917   -8.3571532    621.63733  0.014920251  0.014232142            4 
 3473000   0.70437651   -8.3719156    621.64817  0.014916215  0.014227124            2 
 3474000   0.69283182   -8.3709686     622.9175  0.014942369  0.014222082            7 
 3475000   0.70180754   -8.3706381    621.09254  0.014894306  0.014217049            8 
 3476000   0.70599869   -8.3652018    623.14137  0.014939139  0.014212025            2 
 3477000    0.6979429   -8.3750899    623.02706  0.014932103  0.014207001            2 
 3478000   0.69629658   -8.3766328    622.00445  0.014903308  0.014201975            1 
 3479000   0.67138105   -8.3599926    622.76296  0.014917193  0.014196943            3 
 3480000   0.70196672   -8.3724951    622.20057  0.014899439  0.014191915            1 
 3481000   0.67876983   -8.3723374    622.87366  0.014911272  0.014186902            2 
 3482000    0.7039318   -8.3726887    621.73682  0.014879782  0.014181884            4 
 3483000   0.69848297   -8.3909268    621.53097  0.014870585  0.014176866            1 
 3484000   0.68664493   -8.3746186    621.11584  0.014856387  0.014171853            1 
 3485000   0.70310494   -8.3592354    622.40182  0.014882875  0.014166844            4 
 3486000   0.68978364   -8.3967451    621.25547  0.014851202  0.014161814            2 
 3487000   0.70050352   -8.3821684    621.30209  0.014848057  0.014156795       -1e+20 
 3488000   0.69642831   -8.3782777    622.21596  0.014865634  0.014151772            2 
 3489000   0.69382354   -8.3796527     622.4375  0.014866664  0.014146754            2 
 3490000   0.68644753   -8.3691522    621.84254  0.014848198  0.014141737            2 
 3491000   0.68674642   -8.3935371    621.61894  0.014838607  0.014136731            3 
 3492000   0.70642469   -8.3974874    622.35005  0.014851805  0.014131734            2 
 3493000   0.68810505   -8.3731578    622.21147  0.014844247   0.01412674            3 
 3494000   0.69608089   -8.3818327    622.73259  0.014852428  0.014121757            1 
 3495000   0.69380059   -8.3594046    622.12593  0.014833713  0.014116749            3 
 3496000     0.688149   -8.4071932    621.95599  0.014825419  0.014111747            1 
 3497000   0.69337398   -8.3876974     623.0222  0.014846588  0.014106737            3 
 3498000    0.6871895    -8.384123    620.82823  0.014790076  0.014101716            2 
 3499000   0.68761546    -8.413726     621.3967  0.014799388  0.014096697            2 
 3500000   0.70116913   -8.3863489     621.7653  0.014803936  0.014091691            3 
 3501000   0.70191316   -8.3998005     622.1463  0.014808776  0.014086684            2 
 3502000   0.68639739   -8.3956103    621.43416  0.014787601  0.014081687            4 
 3503000   0.67400134   -8.4233291    622.22736   0.01480225  0.014076682            4 
 3504000   0.69089139   -8.4157949    622.46791  0.014803746   0.01407167            3 
 3505000    0.6845377   -8.4267148    621.82914  0.014784335  0.014066667            1 
 3506000    0.6955345   -8.4153786    620.55514  0.014749837  0.014061663            2 
 3507000   0.70645691   -8.4230404    621.21619  0.014761339  0.014056656            1 
 3508000   0.70483402   -8.4307962    621.71153  0.014768898  0.014051664            2 
 3509000   0.69962533   -8.4184767    622.35235  0.014779908  0.014046676            2 
 3510000   0.67797415   -8.3916271    621.58537  0.014757487  0.014041701            2 
 3511000   0.67715802   -8.4132244     622.9664  0.014786063  0.014036729            3 
 3512000   0.68888351   -8.4114906    622.52314  0.014771335  0.014031748            5 
 3513000   0.70167277   -8.4009202     620.5787  0.014721005  0.014026761            2 
 3514000   0.69105113   -8.4127008    621.59211  0.014740849  0.014021778            2 
 3515000   0.69060519   -8.4181033    622.19916  0.014751047  0.014016791            2 
 3516000   0.68456593   -8.4293795    620.83257  0.014714462  0.014011815            2 
 3517000   0.68140245   -8.4272632    620.78249  0.014709091   0.01400683            3 
 3518000   0.69431595   -8.4182568    623.08365  0.014759419  0.014001851            2 
 3519000    0.6771974    -8.420542    621.59919  0.014720072  0.013996876            3 
 3520000   0.69707441   -8.4249063    621.90785  0.014723197  0.013991916            1 
 3521000   0.69383528   -8.3932069    622.30818   0.01472849  0.013986963            1 
 3522000   0.70945669   -8.4225101     621.9914  0.014716813  0.013982011            2 
 3523000    0.7142229   -8.3816798    622.68586  0.014729063  0.013977053            3 
 3524000    0.6819807   -8.3821777    623.13885  0.014735595  0.013972106            2 
 3525000   0.68640844   -8.3901325     620.4676  0.014668265  0.013967162            1 
 3526000   0.69181934   -8.4081817    621.56737  0.014690097  0.013962211            1 
 3527000   0.69220267   -8.3909779    622.49736  0.014707905  0.013957288            3 
 3528000   0.69941862   -8.4037892    622.86071  0.014712318  0.013952346            2 
 3529000   0.69027563     -8.37985    622.57504  0.014701404  0.013947411            2 
 3530000   0.67207129   -8.3917634    623.13417  0.014710438  0.013942483            2 
 3531000   0.70203316   -8.3854324    622.40665  0.014689102  0.013937564            2 
 3532000   0.68147584    -8.393941     622.8544  0.014695508  0.013932641            2 
 3533000   0.68989811   -8.4086449    623.59882  0.014708907  0.013927715            2 
 3534000   0.68634667   -8.4199106    622.84108  0.014686877  0.013922794            4 
 3535000   0.67381923   -8.3804953    621.81964  0.014658643  0.013917874            3 
 3536000   0.70712946    -8.405681    622.93445   0.01468077  0.013912965            4 
 3537000   0.67482938   -8.3933437     622.8048  0.014673565   0.01390806            3 
 3538000   0.68871698   -8.4222414    622.37459  0.014659285  0.013903139            2 
 3539000    0.6840458   -8.4013472    622.00863  0.014646525  0.013898218            3 
 3540000   0.67212771   -8.4272277    622.53088  0.014654682  0.013893297            3 
 3541000   0.67267981   -8.4065114    622.50116  0.014649844  0.013888383            2 
 3542000   0.67780652   -8.4011537    621.85414  0.014630485  0.013883467            1 
 3543000   0.70001988    -8.381812    623.52326  0.014665614  0.013878552            2 
 3544000   0.68415121   -8.4248715    622.43663  0.014635925  0.013873653            2 
 3545000   0.66939828    -8.422131    622.36094  0.014630017   0.01386874            1 
 3546000   0.69927655   -8.4144948    622.58325  0.014631116   0.01386383            4 
 3547000    0.6787309   -8.4181491    623.03965  0.014637714  0.013858931            3 
 3548000    0.6886599   -8.4018883    623.29847  0.014639667  0.013854029            5 
 3549000   0.67489898    -8.421306    622.83584  0.014624679  0.013849126            3 
 3550000   0.68479044   -8.4341764    624.02412  0.014648454  0.013844236            2 
 3551000   0.68657873   -8.4339459    621.78543  0.014591792  0.013839344            3 
 3552000   0.68916546   -8.4114519    622.24955  0.014598572  0.013834436            1 
 3553000   0.67771005   -8.3877261    622.13564  0.014591792  0.013829535            3 
 3554000   0.67968571   -8.3956629    622.94607  0.014606689  0.013824633            2 
 3555000   0.69344731   -8.4151272    622.12168  0.014583255  0.013819743            1 
 3556000   0.69537372   -8.4083214    622.31459  0.014583675  0.013814865            2 
 3557000   0.69518835   -8.3841276    622.59468  0.014586137  0.013809981            2 
 3558000   0.68337257   -8.4136693    621.80202  0.014563472  0.013805101            3 
 3559000   0.70142476   -8.4029154    622.01479  0.014564362  0.013800226            2 
 3560000   0.69711594   -8.3967358    623.02472  0.014583912  0.013795335            2 
 3561000    0.6829991   -8.4275048    622.12448  0.014558749   0.01379045            1 
 3562000   0.67240424   -8.4152769    621.70373  0.014544819  0.013785561            2 
 3563000   0.68813595   -8.4524298    620.79204  0.014519413  0.013780675            2 
 3564000   0.68314127   -8.4197747    622.31561  0.014550963  0.013775783            3 
 3565000   0.68093359   -8.4296082    623.74117  0.014580205  0.013770905            3 
 3566000   0.66930938   -8.4340055    621.55188  0.014524955  0.013766009            2 
 3567000   0.67945445   -8.4460471     622.7701  0.014549344  0.013761127            1 
 3568000   0.68504404   -8.4222038    623.40607  0.014560119  0.013756236            1 
 3569000   0.67669049   -8.4222175    621.85615   0.01451985  0.013751361            3 
 3570000   0.68736291   -8.4338407    621.97272  0.014518504  0.013746472            3 
 3571000    0.6807808   -8.4353518    621.84741  0.014511514  0.013741592            1 
 3572000   0.66092335   -8.4452456    621.70687  0.014504173  0.013736708            2 
 3573000   0.66860907   -8.4403165    621.66311  0.014499093   0.01373182            3 
 3574000   0.67680306   -8.4309467    620.75857  0.014473945  0.013726944            2 
 3575000   0.68957004   -8.4565082    622.26869  0.014505098  0.013722064            1 
 3576000    0.6923249   -8.4453063    621.13234  0.014474561  0.013717179            7 
 3577000   0.67027937   -8.4423216    622.07526  0.014492481  0.013712296            6 
 3578000     0.680955   -8.4475486    621.76031  0.014481095  0.013707417            2 
 3579000   0.68179165   -8.4425044    620.87783  0.014456502  0.013702539            2 
 3580000   0.68800723   -8.3973228     622.1391  0.014481823  0.013697662            2 
 3581000   0.68139258   -8.4177097    621.80791  0.014470072  0.013692789            3 
 3582000   0.68393501   -8.4277072    621.86284   0.01446731  0.013687922            1 
 3583000   0.67861951   -8.4659993    621.64063  0.014458104  0.013683048            2 
 3584000   0.67269384   -8.4580055    621.12793  0.014442149  0.013678169            2 
 3585000   0.66334181    -8.438889     622.1185  0.014461146  0.013673301            1 
 3586000   0.67067429    -8.425763    621.21258  0.014436061  0.013668436            2 
 3587000   0.67974848   -8.4150661    623.14642  0.014476963  0.013663574            4 
 3588000   0.66919807   -8.4486796     620.9806  0.014422626  0.013658723            1 
 3589000   0.68461113   -8.4358675    622.94269  0.014464166  0.013653867            2 
 3590000   0.66341902   -8.4317235    623.64744  0.014476496  0.013649015            2 
 3591000   0.67526531    -8.442913    621.75253  0.014428491  0.013644163            2 
 3592000   0.66120014   -8.4551797    622.11682  0.014432925  0.013639306            3 
 3593000   0.65855841   -8.4488003    622.23144  0.014431567  0.013634454            3 
 3594000    0.6821847   -8.4267352    623.50406  0.014457059  0.013629624            2 
 3595000   0.68597944   -8.4321814    622.08812  0.014420216  0.013624806            4 
 3596000   0.67721618   -8.4368667    622.96431  0.014436511  0.013619972            5 
 3597000   0.69172443   -8.4172719    620.98178  0.014386567  0.013615138            2 
 3598000   0.65334264   -8.4324105    622.46538   0.01441693  0.013610309            1 
 3599000   0.68379355   -8.4289696    621.71717    0.0143956  0.013605487            4 
 3600000   0.67110396   -8.4313321    621.42442  0.014384824  0.013600654            3 
 3601000   0.67422708   -8.4054091    622.23975  0.014399698  0.013595828            3 
 3602000     0.662774   -8.4154474      622.465  0.014400912  0.013591024            2 
 3603000    0.6944898   -8.4280708    623.38828  0.014418269  0.013586217            2 
 3604000   0.68358608   -8.4233672    622.52291  0.014394259  0.013581396            2 
 3605000   0.65781659   -8.4452648    622.41649  0.014387806  0.013576579            3 
 3606000   0.67036304   -8.4683583    620.64719  0.014342928  0.013571761            2 
 3607000   0.67015592     -8.44385    621.38203  0.014355929  0.013566948            3 
 3608000   0.67640049   -8.4276698     622.7619  0.014383821  0.013562141            1 
 3609000   0.67700939   -8.4297467    622.69242  0.014378231   0.01355734            2 
 3610000   0.66559176   -8.4259939    621.33946  0.014343016  0.013552539            3 
 3611000   0.67849246   -8.4440443    621.53022  0.014343446  0.013547731            3 
 3612000   0.67527496   -8.4294701    622.71455  0.014366799  0.013542917            1 
 3613000   0.67089495   -8.4604747     622.3718  0.014354917  0.013538103            4 
 3614000   0.68872656   -8.4376509    622.87196  0.014362478  0.013533294            2 
 3615000    0.6638016    -8.428071    622.71232  0.014354825  0.013528495            2 
 3616000   0.68421335   -8.4234298    620.46683  0.014299107  0.013523684            3 
 3617000   0.66367107   -8.4319246    621.15993  0.014311122  0.013518889            2 
 3618000    0.6677496    -8.462049     622.0696  0.014328119   0.01351409            4 
 3619000   0.67565095   -8.4517186      621.538  0.014311919  0.013509289            2 
 3620000   0.67187025   -8.4350779    622.14674  0.014321978  0.013504492            1 
 3621000   0.67167382   -8.4300913    622.25251  0.014320457  0.013499695            2 
 3622000   0.66749872   -8.4461386    622.34879  0.014318719  0.013494902            5 
 3623000   0.66844833   -8.4128828    622.60377  0.014320631  0.013490108            2 
 3624000   0.68373041   -8.4363463    621.50738  0.014291469  0.013485328            2 
 3625000    0.6854747   -8.4334299    623.24412  0.014327451  0.013480539            2 
 3626000   0.66314493   -8.4540432     621.5146  0.014283752  0.013475751            2 
 3627000   0.66375696   -8.4360264    622.06942  0.014292561  0.013470961            1 
 3628000   0.66434242   -8.4624728    622.46037  0.014297601   0.01346617            2 
 3629000   0.65989931   -8.4328697    621.61799  0.014274318  0.013461379            3 
 3630000   0.68688119   -8.4312581    620.59933     0.014247  0.013456585            3 
 3631000   0.68015998   -8.4574374    622.90705   0.01429604  0.013451802            6 
 3632000   0.67577951    -8.445406    622.05949  0.014272657   0.01344702            1 
 3633000   0.66303438   -8.4481636    622.04419  0.014268378  0.013442233            3 
 3634000   0.65770486   -8.4558058    622.71655  0.014279869  0.013437455            6 
 3635000   0.67459966   -8.4511889    621.53707  0.014248901  0.013432679            2 
 3636000   0.66067581   -8.4440895    622.37637  0.014264218  0.013427914            2 
 3637000   0.66606558   -8.4331341    622.56084  0.014264523  0.013423148            2 
 3638000   0.67498976   -8.4581861    621.94608   0.01424652  0.013418386            2 
 3639000   0.66510809   -8.4231755    623.59689  0.014280409  0.013413632            1 
 3640000   0.65149376   -8.4476153    622.33941  0.014247697  0.013408881            2 
 3641000   0.68099328   -8.4471596    622.86487   0.01425581  0.013404135            1 
 3642000   0.67568351   -8.4508708    622.05305  0.014233321  0.013399388            2 
 3643000   0.66668191   -8.4406365    621.58054  0.014218605  0.013394642            1 
 3644000   0.68302754    -8.439419    621.53097  0.014213569  0.013389893            6 
 3645000   0.66658996   -8.4438049     623.3928  0.014252236  0.013385147            2 
 3646000   0.66627795   -8.4352672    623.73118  0.014256061  0.013380394            1 
 3647000   0.67086798   -8.4721226    621.94912  0.014211432  0.013375647            1 
 3648000   0.66359301   -8.4509446    622.71542  0.014225042  0.013370898            4 
 3649000   0.67001423    -8.436205    622.10918  0.014207298  0.013366158            2 
 3650000   0.66911354   -8.4244646    623.40713   0.01423304  0.013361414            2 
 3651000   0.66941441   -8.4538562    622.27843  0.014203379  0.013356672            2 
 3652000   0.65360859   -8.4394826    622.07233  0.014194787  0.013351937            2 
 3653000   0.65205219   -8.4582566    622.26552  0.014195308   0.01334719            1 
 3654000   0.64789387    -8.444162      621.936  0.014183908  0.013342453            3 
 3655000   0.67204769   -8.4269887    621.62845  0.014173015  0.013337722            3 
 3656000   0.67855825   -8.4298904    622.48603  0.014188686  0.013332992            3 
 3657000   0.67930297   -8.4471677    622.28026  0.014180117   0.01332827            4 
 3658000   0.65924253    -8.456401    622.25087  0.014175571  0.013323549            4 
 3659000   0.66812027   -8.4588833    622.29036  0.014172596  0.013318817            3 
 3660000   0.65402095   -8.4470263    621.62766  0.014153635  0.013314083            2 
 3661000   0.65373777   -8.4377163    621.40345  0.014144666  0.013309353            3 
 3662000    0.6673237   -8.4544318    622.74109  0.014171243  0.013304642            4 
 3663000   0.65783506    -8.472192    621.71434  0.014144015  0.013299932            1 
 3664000   0.68161822   -8.4584618    621.08176  0.014125768  0.013295217            2 
 3665000   0.66876377    -8.480938    621.80465   0.01413835  0.013290497            2 
 3666000    0.6871849   -8.4456992    622.69762  0.014154792  0.013285785            1 
 3667000   0.66620729   -8.4453297    622.51888   0.01414687  0.013281067            4 
 3668000   0.66850931   -8.4394223    622.58013  0.014144405  0.013276365            2 
 3669000   0.66442862   -8.4483054    621.80757  0.014123003  0.013271662            2 
 3670000   0.66454788   -8.4289285    623.52908  0.014158244  0.013266963            3 
 3671000   0.66606768   -8.4545556    621.93373  0.014118172  0.013262267            1 
 3672000   0.65394394   -8.4567063    622.20971  0.014120591  0.013257576            2 
 3673000   0.65764793   -8.4293361    622.45565  0.014122326  0.013252877            1 
 3674000    0.6508869   -8.4656745    622.28695  0.014114656  0.013248179            2 
 3675000   0.65721651   -8.4884398    621.93157  0.014102757   0.01324347            2 
 3676000   0.66600824   -8.4670956    622.34458  0.014108283  0.013238758            2 
 3677000    0.6545931   -8.4413756    622.07446  0.014098324  0.013234048            2 
 3678000   0.66439347   -8.4700514    622.85594  0.014112197  0.013229344            2 
 3679000   0.66877805   -8.4572081    621.06867  0.014067878  0.013224639            2 
 3680000   0.66669821   -8.4706204    621.03948  0.014063394  0.013219934            2 
 3681000   0.65929598   -8.4524359    621.82046  0.014077254  0.013215235            3 
 3682000   0.67058441   -8.4649059    622.33825  0.014085149  0.013210543            1 
 3683000   0.65496601   -8.4509125    621.53877  0.014063236  0.013205844            2 
 3684000     0.670327   -8.4704132    622.48115  0.014080735  0.013201156            2 
 3685000   0.65676062   -8.4554302    622.04648  0.014067085   0.01319647            1 
 3686000   0.66257869   -8.4714257    622.25838  0.014068059   0.01319178            1 
 3687000   0.65137984   -8.4686872    621.03687  0.014036635  0.013187088            1 
 3688000   0.66366404   -8.4519879    621.39584   0.01404094  0.013182398            1 
 3689000   0.66641621   -8.4956517    621.77199  0.014045631  0.013177725            1 
 3690000    0.6713776   -8.4576506    621.51776  0.014036083  0.013173041            2 
 3691000   0.66329142   -8.4521469     622.0468  0.014044225  0.013168358            3 
 3692000   0.63791129   -8.4637955    621.95117  0.014038262  0.013163672            2 
 3693000    0.6613106   -8.4717079    622.18126  0.014039653  0.013158996            4 
 3694000   0.67281876   -8.4638101    623.08717  0.014056289   0.01315433            2 
 3695000      0.64822   -8.4543223    621.35478  0.014013414  0.013149663            3 
 3696000   0.67463626    -8.453815    622.59423  0.014037568  0.013145004            2 
 3697000   0.66087344   -8.4685227    621.72213  0.014014113  0.013140331            2 
 3698000   0.66158734   -8.4872545    621.52346  0.014005847  0.013135657            6 
 3699000   0.65733794   -8.4416723    621.64922  0.014004894  0.013130983            1 
 3700000   0.65306254   -8.4592408    622.28095  0.014015337  0.013126318            3 
 3701000   0.66390317   -8.4612349    622.50647  0.014016628  0.013121644            3 
 3702000   0.67844531    -8.487064    622.11966  0.014004134  0.013116981            1 
 3703000   0.64864008   -8.4619079    621.97467  0.013997089  0.013112319            4 
 3704000   0.64960938   -8.4604176    622.19425  0.013998251  0.013107665            2 
 3705000   0.65254988   -8.4581542    622.42821  0.013999735  0.013103006            2 
 3706000   0.66310566   -8.4647806    621.89087  0.013983875  0.013098347            2 
 3707000   0.65195345    -8.495553     621.2344  0.013965345   0.01309369            2 
 3708000   0.65317316   -8.4764753     621.0429  0.013957275  0.013089031            1 
 3709000   0.65796967   -8.4741057    621.85694  0.013971801  0.013084378            2 
 3710000   0.64710244   -8.4671414     622.5026  0.013982538  0.013079721            2 
 3711000   0.65517052   -8.4767161     622.9042  0.013987788  0.013075072            1 
 3712000   0.65595813   -8.4769201    621.87232  0.013960855  0.013070426            3 
 3713000   0.66070949   -8.4798996    622.26924  0.013966003  0.013065771            1 
 3714000   0.66712988   -8.4504898    622.52278  0.013967932  0.013061129            2 
 3715000   0.64197744   -8.4545464    622.17955  0.013956473  0.013056489            1 
 3716000   0.65670097   -8.4916383    622.54052  0.013960812  0.013051838            1 
 3717000   0.66109762   -8.4824957     621.8755  0.013942146  0.013047196            2 
 3718000   0.65328574   -8.4941961    620.66412  0.013911245   0.01304255            3 
 3719000   0.65488677   -8.4413363    620.44794  0.013902661  0.013037906            4 
 3720000    0.6584488     -8.47299    622.64442  0.013948128  0.013033264            1 
 3721000    0.6585811   -8.4867886    621.96702  0.013929208  0.013028619            2 
 3722000   0.65451827   -8.4893777    621.50643  0.013915154  0.013023976            2 
 3723000   0.66016939   -8.4799062    620.75353  0.013894564  0.013019327            1 
 3724000   0.66294256    -8.498972    620.90377  0.013894195  0.013014683            2 
 3725000   0.65136875   -8.5001601    621.78014   0.01391007  0.013010035            2 
 3726000   0.65237132   -8.4916981    622.76168   0.01392829  0.013005389            4 
 3727000   0.66954283    -8.488391    620.79391  0.013880554  0.013000752            3 
 3728000   0.66228056   -8.4741382    619.85686  0.013855885  0.012996125            5 
 3729000   0.65602165   -8.4870424    622.54618  0.013912268  0.012991503            1 
 3730000   0.65258706   -8.4882018     620.4366  0.013861408  0.012986878            1 
 3731000   0.65252979   -8.4924059    621.36616  0.013878454  0.012982252            1 
 3732000    0.6495674   -8.4890887    621.46274  0.013876892  0.012977631            2 
 3733000   0.66735547   -8.4854347    621.32678   0.01387014  0.012973005            1 
 3734000     0.665087   -8.4923207    621.17163  0.013862963  0.012968383            2 
 3735000   0.65119101   -8.4960722    620.61775  0.013846893  0.012963762            1 
 3736000   0.64881671   -8.4998686    622.14682  0.013877294   0.01295914            2 
 3737000   0.63394385   -8.5030362     621.9879  0.013870036  0.012954512            3 
 3738000   0.66587946   -8.4705233    620.28565  0.013828376  0.012949887            1 
 3739000   0.65883872   -8.4727964    621.18219   0.01384466  0.012945265            1 
 3740000   0.65977879   -8.4731344    620.92414  0.013835208  0.012940646            3 
 3741000   0.65894998   -8.4768022    621.61888  0.013846986  0.012936029            2 
 3742000   0.64653343   -8.4989218    622.08757  0.013853723   0.01293142            1 
 3743000   0.65545336   -8.4961536    622.05608  0.013849321  0.012926814            5 
 3744000   0.63393692   -8.4968437    620.43114  0.013809454  0.012922207            3 
 3745000   0.64754309    -8.495365    621.49713  0.013829487  0.012917602            4 
 3746000   0.64844213   -8.5031505    621.38324  0.013823261  0.012912996            1 
 3747000   0.63666019    -8.484936    620.24764  0.013794316  0.012908399            2 
 3748000   0.65401233   -8.4889139    621.43659  0.013817071  0.012903794            1 
 3749000   0.64411924   -8.4987064    620.52739  0.013793176  0.012899197            2 
 3750000   0.64439774   -8.4649957    621.44497  0.013809888  0.012894604            4 
 3751000   0.66039446   -8.5074048    620.42319  0.013783506  0.012890015            1 
 3752000   0.64382768   -8.5043577    620.25286   0.01377605  0.012885428            6 
 3753000   0.65312853   -8.4858437    621.57913  0.013801828  0.012880844            3 
 3754000   0.64097404   -8.4871942    622.19981   0.01381193  0.012876258            4 
 3755000   0.64955328   -8.5011574    620.78639  0.013776884  0.012871677            3 
 3756000   0.64919101   -8.4861411    621.70912  0.013793688  0.012867104            3 
 3757000   0.64855069   -8.4881509    622.05004  0.013797579  0.012862533            1 
 3758000   0.64689246    -8.530297     622.3376  0.013800284  0.012857953            3 
 3759000   0.66487963   -8.4782607    621.51546  0.013778387   0.01285338            9 
 3760000   0.65927054   -8.5059364    621.54351  0.013775344  0.012848821            4 
 3761000   0.66234829    -8.522899    620.43917  0.013747212  0.012844246            2 
 3762000    0.6626049   -8.4927338    621.60399   0.01376936  0.012839672            3 
 3763000   0.64694638   -8.4820399    622.22537  0.013779462  0.012835097            6 
 3764000   0.66594257   -8.4972009    621.77514  0.013765833  0.012830529            2 
 3765000   0.65713469   -8.5133801    621.50656  0.013756232   0.01282596            2 
 3766000   0.66536326   -8.4903958    622.20577  0.013768051    0.0128214            2 
 3767000   0.64583516   -8.4958585    620.95862  0.013736807   0.01281684            3 
 3768000   0.64680396   -8.4938049    622.01329  0.013756487  0.012812284            2 
 3769000   0.65499553   -8.4973782    621.12647  0.013733229  0.012807728            2 
 3770000   0.64904503   -8.4882627    621.13848  0.013729852  0.012803169            3 
 3771000   0.65660066   -8.5266928    621.56333  0.013735599   0.01279861            3 
 3772000    0.6415986   -8.4888264    622.45327  0.013751619  0.012794053            4 
 3773000   0.62735145   -8.4899386    621.61594   0.01372948  0.012789495            2 
 3774000   0.66751261    -8.515843    620.28805  0.013696521  0.012784937            3 
 3775000   0.65071677    -8.527718    620.33319   0.01369389  0.012780375            1 
 3776000   0.64832479   -8.5089889    620.58461  0.013695812  0.012775812            4 
 3777000   0.63833154   -8.5106683    620.19152  0.013683513  0.012771255            2 
 3778000   0.65247264   -8.5149012    620.73869   0.01369196  0.012766699            2 
 3779000   0.64738722   -8.5104928    619.45234   0.01365997   0.01276214            1 
 3780000   0.64063517   -8.5097592    620.98142  0.013690066  0.012757579            4 
 3781000   0.64334905   -8.5175237    620.85227  0.013683599  0.012753028            2 
 3782000    0.6423701   -8.5110625    621.01333   0.01368353  0.012748478            2 
 3783000   0.65830069   -8.5128434    621.62191  0.013693319  0.012743942            3 
 3784000    0.6497657   -8.5037812    621.20908  0.013680609  0.012739399            2 
 3785000   0.64707568   -8.5174941    622.66736  0.013709101   0.01273486            3 
 3786000   0.63966995   -8.5029753    620.21053  0.013651403  0.012730317            5 
 3787000   0.65853786   -8.5042086    621.10438  0.013667467  0.012725783            1 
 3788000   0.63780692   -8.5033613    620.28913  0.013645924  0.012721243            2 
 3789000   0.63616334   -8.5141688    621.23674  0.013663164  0.012716711            2 
 3790000   0.64150274   -8.4972863    619.67507  0.013625221  0.012712181            3 
 3791000    0.6427586   -8.5053486    622.07326  0.013674344  0.012707651            2 
 3792000    0.6526906    -8.517655    620.59219   0.01363819  0.012703123            2 
 3793000   0.67213314   -8.5012603    621.03934  0.013644418  0.012698609            3 
 3794000   0.64711418   -8.5115565    622.20877  0.013666508  0.012694098            3 
 3795000   0.64286832   -8.4998803    621.60667  0.013649685  0.012689585            5 
 3796000   0.64391278   -8.5062093    621.59803    0.0136459  0.012685077            2 
 3797000   0.65506362   -8.4878352    621.24876  0.013634641  0.012680575            5 
 3798000   0.65574526   -8.4851856    623.60951  0.013682849  0.012676075            2 
 3799000   0.65649677     -8.48869    621.76544  0.013638796  0.012671578            5 
 3800000   0.65143752   -8.5083725    619.94649  0.013595318  0.012667069            2 
 3801000   0.64534738   -8.5165236    620.60319  0.013606138  0.012662565            2 
 3802000   0.64386585   -8.5418215    620.03021  0.013590001  0.012658054            2 
 3803000   0.63869556   -8.5027416    620.78831   0.01360304  0.012653549            2 
 3804000    0.6299139   -8.4979741    620.27327  0.013588181  0.012649044            3 
 3805000   0.64578941   -8.4950073    619.57288   0.01356927  0.012644545            2 
 3806000   0.63975362   -8.5004332    620.86254  0.013593942   0.01264005            3 
 3807000   0.63604358   -8.4966205    622.64369   0.01362936  0.012635554            2 
 3808000   0.64740522   -8.4969697    621.32254  0.013596869  0.012631064            5 
 3809000   0.63274891   -8.4893189    620.47477  0.013574752  0.012626576            2 
 3810000   0.64249969   -8.5206836    621.57753  0.013595309  0.012622086            2 
 3811000   0.65528288   -8.5154273    620.83793  0.013575569    0.0126176            2 
 3812000   0.64924049   -8.5106881    621.42686  0.013584882  0.012613113            3 
 3813000   0.64034959   -8.5218039    620.00817  0.013550314  0.012608628            2 
 3814000   0.63101858     -8.51794    620.18847  0.013550701  0.012604144            4 
 3815000    0.6481095   -8.5227887    621.65013  0.013579077  0.012599661            2 
 3816000   0.64101588   -8.5030843    622.59989  0.013596259   0.01259518            4 
 3817000   0.62845363    -8.526461    620.62876  0.013549663  0.012590704            3 
 3818000    0.6370373    -8.532051    621.65954  0.013568612  0.012586224            5 
 3819000    0.6482815   -8.5417219     620.1861  0.013532908  0.012581739            3 
 3820000   0.62920011   -8.5392128    620.11263  0.013527762  0.012577259            2 
 3821000   0.63989281   -8.5226229    621.12686  0.013546342  0.012572772            4 
 3822000   0.64308386   -8.5072875    620.03496   0.01351899  0.012568288            4 
 3823000   0.63490189   -8.5175701    620.15621  0.013518097  0.012563808            3 
 3824000   0.64042334   -8.5088864    621.03639  0.013533743  0.012559338            2 
 3825000   0.64483391   -8.5187211    620.60907  0.013520895  0.012554867            2 
 3826000   0.62714526   -8.5201804     621.4614  0.013535925    0.0125504            3 
 3827000    0.6386296   -8.5027227    621.45706  0.013532294  0.012545939            2 
 3828000   0.62453826   -8.5093562    621.31551  0.013525677  0.012541488            1 
 3829000   0.62502816   -8.5021167    620.59493  0.013506462  0.012537033            2 
 3830000   0.63765122   -8.5169986    621.01763  0.013512133  0.012532582            2 
 3831000   0.63305579   -8.5244399    619.72017  0.013480383  0.012528133            2 
 3832000   0.64183737   -8.5261555    622.13132    0.0135293   0.01252368            1 
 3833000    0.6342457   -8.5166665     621.1474  0.013504379  0.012519232            3 
 3834000   0.64695545   -8.5180834    619.38234  0.013462492  0.012514785            2 
 3835000   0.63138804   -8.5221773    618.93318  0.013449222   0.01251033            3 
 3836000   0.62915914   -8.5244226    620.76501   0.01348551  0.012505883            3 
 3837000   0.63127111   -8.5383054     620.1459   0.01346855  0.012501429            2 
 3838000   0.62024755   -8.5323649    620.94459  0.013482382  0.012496981            2 
 3839000   0.64317742   -8.5073474    620.11934  0.013460956  0.012492525            2 
 3840000   0.62841189   -8.5250232     621.7081  0.013491929  0.012488074            1 
 3841000   0.62999517   -8.5457732    620.54097  0.013463095  0.012483627            1 
 3842000   0.64416804   -8.4898647    621.50989  0.013480607  0.012479176            1 
 3843000   0.64706225   -8.5426994    621.71438  0.013481533  0.012474735            2 
 3844000   0.64135294   -8.5224617    620.68227  0.013455651  0.012470294            1 
 3845000   0.64161812    -8.520949    621.18691  0.013463089  0.012465852            1 
 3846000   0.64867339   -8.5018307    620.38654  0.013442246  0.012461416            1 
 3847000   0.63918661    -8.502584    620.53195  0.013441902  0.012456982            4 
 3848000   0.62593838    -8.530766     621.6901   0.01346349  0.012452549            3 
 3849000   0.64921812   -8.5411841    620.29298  0.013429743  0.012448114            2 
 3850000   0.64825473   -8.5138586    620.72626  0.013435633  0.012443678            1 
 3851000   0.64034456   -8.5061587    620.46128  0.013426411  0.012439243            2 
 3852000   0.62096304   -8.5176093     620.6618  0.013427263  0.012434811            1 
 3853000    0.6462518   -8.5475743    620.74164  0.013425505   0.01243037            2 
 3854000   0.63701865   -8.5470862    619.06092   0.01338568  0.012425938            2 
 3855000   0.62816009   -8.5480056    619.66427   0.01339525  0.012421501            1 
 3856000   0.63129298   -8.5365727    620.15451  0.013402371  0.012417061            1 
 3857000   0.63364244   -8.5308814    621.03147  0.013417844  0.012412628            2 
 3858000   0.63376648   -8.5557172    619.97177  0.013391476  0.012408191            3 
 3859000   0.64304932   -8.5387403    619.99736  0.013388558   0.01240376            3 
 3860000   0.63391566   -8.5496969     619.2785   0.01336957  0.012399324            5 
 3861000   0.64383855   -8.5528393    620.77778  0.013398467  0.012394888            3 
 3862000   0.63303482   -8.5481372    619.99674  0.013378145  0.012390459            3 
 3863000   0.64246233   -8.5377792    620.17853  0.013378603  0.012386034            4 
 3864000   0.63316743   -8.5428291    619.54639  0.013361508  0.012381607            2 
 3865000   0.63598161   -8.5446751    619.99593  0.013367743  0.012377178            2 
 3866000   0.62971014   -8.5376868    619.75939  0.013359187  0.012372757            2 
 3867000   0.64310071   -8.5398386    620.18745  0.013364957  0.012368331            3 
 3868000   0.62529774   -8.5620774     619.4292  0.013345166  0.012363908            4 
 3869000   0.63976172   -8.5690961    620.24524  0.013359293  0.012359488            3 
 3870000   0.63849567   -8.5512465    620.39073  0.013358974   0.01235508            3 
 3871000   0.61317604   -8.5411878    620.25462  0.013352592   0.01235067            2 
 3872000   0.64218491   -8.5332871     619.8511  0.013340459  0.012346266            2 
 3873000    0.6274056    -8.558169    619.41493   0.01332763  0.012341855            2 
 3874000   0.64306089   -8.5121892    620.53196  0.013348218  0.012337446            1 
 3875000   0.63982235   -8.5460798    620.33505  0.013340539  0.012333039            1 
 3876000   0.63308426   -8.5404633    619.31678  0.013315204  0.012328634            2 
 3877000   0.62562158   -8.5242648    620.50771  0.013337368  0.012324232            2 
 3878000   0.62906542   -8.5358774    620.84408  0.013341157  0.012319828            2 
 3879000   0.62942201    -8.565641    621.16364  0.013344583  0.012315427            3 
 3880000   0.61831137   -8.5434066    619.56789   0.01330687  0.012311029            2 
 3881000   0.64247219   -8.5480667    619.59794  0.013304087   0.01230663            3 
 3882000   0.62878015   -8.5397963    620.54019  0.013320887  0.012302242            2 
 3883000   0.63282356   -8.5211449    618.56325  0.013275029  0.012297847            3 
 3884000   0.63818515   -8.5435468    619.56947    0.0132932   0.01229346            3 
 3885000   0.64771294   -8.5334454    619.96446  0.013298251  0.012289072            2 
 3886000   0.62976558   -8.5388747    619.66032  0.013288307  0.012284684            2 
 3887000   0.63199792    -8.554335    619.26328  0.013276376  0.012280298            3 
 3888000   0.64219751   -8.5568548    618.33524   0.01325307  0.012275907            3 
 3889000   0.63974999   -8.5339097     619.5268  0.013275195  0.012271526            1 
 3890000   0.63647995    -8.559297    620.64567  0.013295751  0.012267142            1 
 3891000   0.63077466    -8.565713    619.62624  0.013270501  0.012262756            1 
 3892000   0.63742538     -8.55195     620.5343  0.013286534  0.012258381            1 
 3893000   0.62271408   -8.5453451    620.60105   0.01328455  0.012253999            5 
 3894000   0.62396644   -8.5754843    619.80915  0.013264192  0.012249613            3 
 3895000   0.62153294   -8.5513618    619.52116  0.013254625  0.012245227            2 
 3896000   0.63205712   -8.5633366    619.41113  0.013248869  0.012240842            2 
 3897000   0.63260919   -8.5469734    620.12821  0.013260803   0.01223647            2 
 3898000   0.62175507   -8.5609954    619.49053  0.013243769  0.012232092            2 
 3899000   0.64703181   -8.5621183     619.4085  0.013238619  0.012227719            2 
 3900000   0.63403741    -8.558097    620.08611  0.013249703   0.01222334            3 
 3901000   0.62044525   -8.5414792    618.76071  0.013217993  0.012218963            2 
 3902000    0.6194497   -8.5565815    619.71766  0.013235043  0.012214593            1 
 3903000   0.61614775   -8.5655579    619.26937  0.013222081  0.012210221            2 
 3904000   0.62630576   -8.5626329    619.97724  0.013233804  0.012205855            4 
 3905000   0.63717989   -8.5548808     619.7014  0.013224528  0.012201497            1 
 3906000     0.630808   -8.5498417    619.15218  0.013209425  0.012197138            3 
 3907000   0.62683716   -8.5282502    619.90643  0.013222132  0.012192783            3 
 3908000   0.62227784   -8.5620111    619.07083   0.01320093  0.012188424            4 
 3909000   0.62809684   -8.5527331    620.29556  0.013223662  0.012184071            2 
 3910000   0.63385837   -8.5604991    618.72733  0.013186857  0.012179721            3 
 3911000   0.61374766   -8.5623401    619.60627  0.013202213  0.012175365            2 
 3912000   0.63948906   -8.5532016    618.90419  0.013183883  0.012171013            2 
 3913000   0.61796696    -8.557244    620.08218  0.013205601  0.012166665            4 
 3914000   0.62952556   -8.5823837    619.06089  0.013180482  0.012162317            2 
 3915000   0.62029992    -8.567639    618.67516  0.013168905  0.012157969            3 
 3916000    0.6285102   -8.5618919    618.23786  0.013156236  0.012153614            1 
 3917000   0.64016546   -8.5596145    619.72963  0.013184615  0.012149267            1 
 3918000   0.62623434   -8.5780531    618.86223  0.013162801  0.012144923            2 
 3919000   0.61786935   -8.5666751    619.61818  0.013175516  0.012140581            5 
 3920000   0.62477644   -8.5769724    619.93751  0.013178944  0.012136231            3 
 3921000   0.63407111   -8.5554858    618.70738  0.013149438  0.012131895            3 
 3922000   0.63627123   -8.5614756    619.13893  0.013155255  0.012127557            2 
 3923000   0.62499982   -8.5664155    620.23876  0.013175265  0.012123223            3 
 3924000   0.62635325    -8.567663    619.37685  0.013153603  0.012118891            2 
 3925000   0.63512248   -8.5458192    620.80503  0.013180574  0.012114553            2 
 3926000   0.62298166   -8.5672577       618.86  0.013135931   0.01211022            2 
 3927000   0.62764394   -8.5519181    618.86255  0.013132641  0.012105893            1 
 3928000   0.63548009   -8.5617262    619.54895  0.013143859  0.012101559            2 
 3929000   0.62775615   -8.5554496    619.85894  0.013147089  0.012097229            1 
 3930000   0.61886832   -8.5685112    619.66596  0.013139651  0.012092901            1 
 3931000   0.62877761   -8.5826879     619.2164  0.013126779  0.012088576            2 
 3932000   0.61310152   -8.5677315    620.05248   0.01314116  0.012084259            2 
 3933000   0.62042287   -8.5363511    619.52707  0.013126686  0.012079942            1 
 3934000   0.63021541   -8.5724107    620.36076  0.013141009  0.012075628            2 
 3935000   0.62140105    -8.579063    619.63586  0.013122318  0.012071318            1 
 3936000   0.61367289   -8.5704303    618.95807  0.013104634  0.012067003            4 
 3937000   0.61725086   -8.5686861    619.05176  0.013103288  0.012062686            3 
 3938000   0.61813429   -8.5782383    619.96792  0.013119348  0.012058375            1 
 3939000   0.63000421   -8.5827283    619.00872  0.013095725  0.012054066            2 
 3940000   0.61883069   -8.5721748    618.97486  0.013091685  0.012049758            3 
 3941000   0.61930048   -8.5675086    620.24613  0.013115244  0.012045454            2 
 3942000   0.62065221   -8.5696424    619.11555  0.013088017  0.012041151            2 
 3943000   0.62527758     -8.58302    619.48509  0.013092508  0.012036841            1 
 3944000   0.61298516   -8.5762756    619.33873  0.013086096  0.012032537            2 
 3945000   0.63619727   -8.6028854     619.2392  0.013080676   0.01202823            2 
 3946000   0.60870348   -8.5704201    618.78295  0.013067726  0.012023923            2 
 3947000   0.62581102   -8.5709246    619.40773  0.013077606  0.012019622            1 
 3948000   0.61396496   -8.5618374    617.92739  0.013043047   0.01201532            1 
 3949000   0.62862072   -8.5970642    618.13048   0.01304403  0.012011024            2 
 3950000   0.62403554   -8.5788479    618.68141   0.01305235  0.012006722            3 
 3951000   0.60986014     -8.57389    619.10516  0.013057985  0.012002429            2 
 3952000   0.61985565   -8.5727132    620.32621  0.013080428  0.011998136            2 
 3953000   0.62368564   -8.5874993    619.53666  0.013060474  0.011993851            2 
 3954000   0.61256825   -8.5747393     619.3862     0.013054  0.011989561            4 
 3955000   0.61795174   -8.5881171    619.30498  0.013048988  0.011985277            2 
 3956000   0.62660981    -8.566994    618.88985  0.013036945  0.011980994            1 
 3957000   0.62320195   -8.5794956    619.23379  0.013040894  0.011976713            1 
 3958000   0.62903838   -8.5659912    618.95551   0.01303174  0.011972431            1 
 3959000   0.61874511   -8.5588996    619.12991  0.013032119  0.011968152            2 
 3960000   0.63879776   -8.5892222     618.2117  0.013009506  0.011963881       -1e+20 
 3961000   0.61914533   -8.5850611    619.07292   0.01302434  0.011959618            1 
 3962000   0.62631793   -8.5784046    619.97435  0.013040012  0.011955349            2 
 3963000   0.60757518   -8.5984462    618.74265  0.013010822  0.011951077            2 
 3964000   0.61442268   -8.5676075    618.96772  0.013012271   0.01194681            2 
 3965000   0.60379798   -8.5626111    619.06048  0.013010939  0.011942544            1 
 3966000   0.61884372   -8.5654655    618.44764  0.012994781  0.011938278            1 
 3967000   0.61551688   -8.5789951    618.47893  0.012992163  0.011934022            3 
 3968000   0.62132626   -8.5784787     618.1144  0.012981233  0.011929757            2 
 3969000   0.62017362    -8.584582    619.18734   0.01300049  0.011925487            5 
 3970000   0.61339324   -8.5725706    618.55716  0.012983987  0.011921223            3 
 3971000   0.62287108   -8.5910734    617.52362  0.012959028  0.011916964            1 
 3972000   0.63028281   -8.6124303    618.52009  0.012976672  0.011912707            3 
 3973000   0.61373481   -8.5879299    618.88736  0.012981109  0.011908448            3 
 3974000   0.60970111   -8.5792658    618.32811  0.012966115  0.011904197            1 
 3975000   0.62166138   -8.5836582     618.7457  0.012971608  0.011899944            2 
 3976000   0.61952252    -8.579039    619.87605  0.012992037  0.011895693            2 
 3977000   0.61841588   -8.5726576    618.07409  0.012951012  0.011891445            2 
 3978000   0.62770187   -8.5717721    619.40776  0.012975695  0.011887196            1 
 3979000   0.61263551   -8.6051159    618.51473  0.012953731   0.01188295            2 
 3980000   0.61426476   -8.5810943    619.16698  0.012964133  0.011878696            1 
 3981000   0.61449993   -8.5831694    618.47233  0.012946335  0.011874452            2 
 3982000   0.61352725     -8.58147    619.24707  0.012959297  0.011870217            3 
 3983000   0.62477498    -8.582061     618.8922  0.012948619  0.011865974            3 
 3984000   0.62464252   -8.5878965    618.35834  0.012934202  0.011861734            3 
 3985000   0.61344988   -8.5778309    618.37544  0.012931314    0.0118575            1 
 3986000   0.61892365   -8.5993742    617.94196  0.012919007  0.011853268            2 
 3987000   0.62628492   -8.5814837    619.25218  0.012943152  0.011849035            2 
 3988000   0.60973699   -8.5867675    619.55942  0.012946327  0.011844801            2 
 3989000   0.60877176   -8.6031515    618.37623  0.012918364  0.011840569            3 
 3990000   0.62813636   -8.6018594    618.32241  0.012914002  0.011836345            1 
 3991000   0.62013258    -8.580622    617.93177  0.012902609  0.011832116            2 
 3992000   0.60719853   -8.5727746     619.2654  0.012927217  0.011827894            2 
 3993000   0.61837144     -8.57692    618.73657  0.012912943  0.011823674            2 
 3994000    0.6083685    -8.589471    617.86829  0.012891593  0.011819458            4 
 3995000   0.60556754   -8.5923519    618.69216  0.012905552  0.011815237            3 
 3996000    0.6107456   -8.5796885    618.82364  0.012905064  0.011811019            1 
 3997000   0.61213946   -8.6057169    618.16901  0.012888187  0.011806803            3 
 3998000   0.62177376   -8.5859196    618.52015  0.012892283  0.011802588            2 
 3999000   0.61041588   -8.5870805    617.56732  0.012869203  0.011798378            3 
 4000000   0.60645131   -8.6107891    619.83351  0.012913198  0.011794174            1 
 4001000   0.59894047   -8.6156086    617.43048   0.01285992  0.011789963            2 
 4002000   0.61704628   -8.6049961    618.82358  0.012885715  0.011785753            1 
 4003000   0.61011897   -8.6011633    618.31418  0.012871892  0.011781545            1 
 4004000    0.6154052   -8.6070889    617.19385   0.01284536  0.011777339            2 
 4005000   0.61391373   -8.5937635    619.78674  0.012896104  0.011773139            3 
 4006000   0.63037646   -8.6015411     619.0431  0.012877415  0.011768941            1 
 4007000    0.6254581   -8.5952627    619.05675  0.012874485  0.011764747            2 
 4008000   0.61811553   -8.6090121     619.1046  0.012872268  0.011760555            3 
 4009000   0.60802223   -8.5896745     619.0985   0.01286893   0.01175636            2 
 4010000   0.61142406   -8.5799175    618.86122   0.01286079  0.011752166            3 
 4011000   0.61408083   -8.6181436    618.24028  0.012844683  0.011747978            3 
 4012000   0.61016297   -8.5957275    618.24289  0.012841536  0.011743784            2 
 4013000   0.60784007   -8.6031249    619.15817  0.012857342  0.011739593            1 
 4014000   0.61075519    -8.600202    618.26485  0.012835593  0.011735404            2 
 4015000   0.59982216   -8.5924454    618.15688  0.012830155  0.011731221            2 
 4016000   0.60391782   -8.5970764    617.77547  0.012819046   0.01172703            2 
 4017000   0.59888843   -8.5999702      618.838  0.012837897  0.011722849            2 
 4018000   0.61589668   -8.5752586    619.50061  0.012848445  0.011718669            2 
 4019000   0.59778374     -8.60818    618.30285  0.012820412  0.011714486            2 
 4020000   0.60257747   -8.5817984    618.28359  0.012816824   0.01171031            2 
 4021000   0.62465369    -8.593345    618.79611  0.012824258  0.011706138            3 
 4022000   0.58884955   -8.5884587    618.31607  0.012811124  0.011701966            2 
 4023000   0.59560762   -8.5785607    619.76205  0.012837891  0.011697794            1 
 4024000   0.61067796   -8.6265549    618.52701  0.012809125  0.011693619            3 
 4025000   0.60548614   -8.5890801    619.68505  0.012829918  0.011689452            2 
 4026000   0.62281647   -8.5882031    619.59905  0.012824951  0.011685289            3 
 4027000   0.60698827   -8.5965901    617.66051  0.012781651  0.011681128            3 
 4028000    0.5945791   -8.5948938    618.49499  0.012795742  0.011676961            3 
 4029000   0.60243263   -8.6070138    617.82511  0.012778711  0.011672796            3 
 4030000    0.6098002   -8.5996088    618.60538  0.012791674  0.011668635            4 
 4031000   0.61242381   -8.5842401    617.86668   0.01277323  0.011664473            3 
 4032000   0.61734399   -8.5790752    618.30374  0.012779095  0.011660313            2 
 4033000    0.5985161   -8.5919498    618.46159  0.012779188  0.011656157            1 
 4034000   0.59663869   -8.6033453    617.98204  0.012766114  0.011652003            1 
 4035000   0.60492021   -8.6363422    619.00717  0.012784122   0.01164784            2 
 4036000   0.60046353   -8.5984319     618.1013   0.01276225  0.011643685            1 
 4037000   0.59979375   -8.5926532    617.34971  0.012743574  0.011639527            6 
 4038000   0.59769239   -8.6126119    617.70442  0.012747739   0.01163537            1 
 4039000   0.61983577    -8.589449    618.66059   0.01276431  0.011631219            3 
 4040000   0.60525123   -8.6307757    618.03281  0.012748201  0.011627071            1 
 4041000   0.60478207     -8.59136    618.92637  0.012763474  0.011622923            1 
 4042000   0.60807493   -8.6141845    619.44057  0.012770917  0.011618776            1 
 4043000   0.60125723   -8.6102246    619.16529  0.012762085  0.011614639            2 
 4044000   0.60568052   -8.6062341    618.38727  0.012742896  0.011610499            1 
 4045000   0.60998412   -8.6160319    617.89495  0.012729603   0.01160636            2 
 4046000   0.59985581   -8.6195192    617.50149  0.012718353  0.011602218            1 
 4047000   0.61574083    -8.607452    617.93011  0.012724037   0.01159808            2 
 4048000   0.61799173   -8.6141075    619.17029  0.012746424  0.011593947            1 
 4049000     0.603292   -8.6233349    617.92364  0.012717618  0.011589813            2 
 4050000   0.60492775   -8.6065232    616.95761  0.012694601   0.01158568            2 
 4051000    0.6020937   -8.6346397    618.47781  0.012722739  0.011581548            3 
 4052000   0.59459645    -8.620486    618.42848  0.012718585  0.011577422            1 
 4053000   0.59047519   -8.6029356    618.59516  0.012718874  0.011573296            2 
 4054000    0.6037444   -8.6119133    617.27587  0.012688618  0.011569177            1 
 4055000   0.60457704   -8.6118074    619.09751  0.012722925  0.011565055            2 
 4056000   0.60695779   -8.6062455     617.9173   0.01269554   0.01156094            1 
 4057000   0.59511074   -8.6161771    617.06873   0.01267498  0.011556824            2 
 4058000   0.59809987   -8.6180187    619.21713  0.012715975  0.011552715            2 
 4059000    0.6029999    -8.605336    618.38728  0.012695805  0.011548601            1 
 4060000   0.59924706   -8.6277134    617.45534   0.01267355  0.011544492            2 
 4061000   0.60372233   -8.6403455    617.40604  0.012669417  0.011540388            1 
 4062000   0.60544634   -8.6106632    619.00648  0.012699132  0.011536278            3 
 4063000   0.59659204   -8.6226134    617.78306  0.012670914  0.011532174            1 
 4064000   0.59599049   -8.6068436     618.4273  0.012681006  0.011528072            1 
 4065000   0.59730907    -8.634791     617.8015  0.012665057  0.011523971            2 
 4066000   0.59105859   -8.6122809    616.40214  0.012633262  0.011519862            2 
 4067000   0.61446574   -8.6014061    618.60261  0.012675244  0.011515763            5 
 4068000   0.60768464   -8.6243441    616.91185  0.012637493  0.011511662            3 
 4069000   0.59840118    -8.620713     618.4524  0.012665938  0.011507564            2 
 4070000    0.6069966   -8.6027358     618.4662  0.012663108  0.011503466            1 
 4071000   0.58669639   -8.6086804    619.06641  0.012672284  0.011499371            1 
 4072000   0.60509267   -8.6148535    618.02832  0.012647927  0.011495278            3 
 4073000    0.5993068   -8.6158178    618.04044   0.01264507  0.011491191            2 
 4074000   0.59475618   -8.6136235    619.38415  0.012669452  0.011487097            1 
 4075000   0.59137576   -8.6349154    617.65321  0.012630945  0.011483002            2 
 4076000   0.60400946   -8.6130224    617.55335  0.012625805   0.01147892            1 
 4077000   0.59947646   -8.6064591    617.83748  0.012628515  0.011474837            1 
 4078000   0.59491358   -8.6059616    617.56501  0.012619851  0.011470754            1 
 4079000   0.59878764   -8.6170679    617.85436  0.012622668  0.011466678            2 
 4080000    0.6067292   -8.6047462    617.29728  0.012608196  0.011462595            2 
 4081000   0.60000092   -8.6069021    618.57558  0.012631209  0.011458517            1 
 4082000   0.60049196    -8.627137    617.61555  0.012608516  0.011454439            2 
 4083000   0.59011344   -8.6216678    617.87789  0.012610782  0.011450359            2 
 4084000   0.59987964   -8.5921816    619.25749  0.012635845  0.011446283            2 
 4085000   0.59693765   -8.5941439     618.1107  0.012609357  0.011442213            1 
 4086000   0.59593542   -8.6142644    617.01772   0.01258398   0.01143814            2 
 4087000   0.59534142   -8.6171185    618.53578  0.012611854  0.011434069            5 
 4088000   0.60189252   -8.6224027    618.46629  0.012607353  0.011430004            4 
 4089000   0.60753186   -8.6258928    618.32392  0.012601368  0.011425939            1 
 4090000   0.60572626   -8.6268031    618.08032  0.012593324  0.011421884            1 
 4091000   0.59600999   -8.5962097     618.4276  0.012597319  0.011417825            2 
 4092000   0.59156617   -8.6090372    618.25311  0.012590687  0.011413767            3 
 4093000   0.60170089   -8.6029562    618.18831  0.012586292  0.011409714            5 
 4094000   0.60247675   -8.6200275    617.24791  0.012564076  0.011405665            6 
 4095000   0.58712115    -8.639696    617.58748  0.012567918  0.011401612            2 
 4096000   0.60894335   -8.6220157    617.78504  0.012568869  0.011397563            2 
 4097000   0.61178096   -8.6002055     618.5518  0.012581397   0.01139351            2 
 4098000   0.59224222   -8.6172569    618.74697  0.012582296  0.011389466            2 
 4099000   0.59959234   -8.6384578    617.57975  0.012555496  0.011385415            2 
 4100000   0.59569491    -8.622154    618.07471  0.012562494  0.011381365            3 
 4101000   0.59218467   -8.6280428    617.50947  0.012547945  0.011377318            2 
 4102000   0.59731851   -8.6347964    617.63385  0.012547413  0.011373269            1 
 4103000   0.59939104   -8.6227639    617.89358   0.01254963  0.011369225            1 
 4104000   0.58342619   -8.6284134    616.69468  0.012522228  0.011365179            3 
 4105000   0.59925195   -8.6398142    618.21147  0.012549969  0.011361135            1 
 4106000   0.58315931   -8.6481522      617.403  0.012530504   0.01135709            1 
 4107000   0.59367073   -8.6306598    616.67654  0.012512713  0.011353052            2 
 4108000   0.59759025   -8.6113468    617.03837  0.012517007  0.011349017            3 
 4109000   0.58997246   -8.6247565    617.62425  0.012525843  0.011344982            3 
 4110000   0.60230307   -8.6479069    618.31447   0.01253679  0.011340949            1 
 4111000   0.59924744   -8.6540414    617.22232  0.012511601  0.011336915            2 
 4112000    0.5838192   -8.6267382    618.40376  0.012532502  0.011332888            1 
 4113000   0.60493173   -8.6240081    618.93969  0.012540313   0.01132886            1 
 4114000   0.60383323   -8.6192811    617.68072  0.012511763  0.011324834            2 
 4115000   0.58274069   -8.6108503    618.87069  0.012532821  0.011320806            2 
 4116000   0.58445621   -8.6038084     618.5545  0.012523374  0.011316786            1 
 4117000   0.59536314   -8.6189584    616.61194  0.012481012  0.011312767            2 
 4118000   0.58620898    -8.610114    618.50865  0.012516364   0.01130875            2 
 4119000    0.5862098   -8.6390196    617.06228  0.012484063  0.011304736            1 
 4120000   0.60435757   -8.6511065    617.38199    0.0124875  0.011300718            2 
 4121000    0.5981056   -8.6295488    618.38258  0.012504703  0.011296701            1 
 4122000   0.59314826   -8.6197782    618.78897  0.012509885   0.01129269            2 
 4123000   0.59273954   -8.6342212    617.87499  0.012488378  0.011288675            1 
 4124000   0.58967131   -8.6579521    616.61127  0.012459814  0.011284655            3 
 4125000   0.59263823   -8.6379572    617.05104  0.012465678  0.011280638       -1e+20 
 4126000   0.58653697   -8.6354099    616.74024  0.012456379  0.011276624            2 
 4127000   0.59459368   -8.6567542     617.9175  0.012477132  0.011272616            1 
 4128000   0.60482836   -8.6351195    617.69961  0.012469711  0.011268607            3 
 4129000   0.57579264   -8.6461493    618.39058  0.012480637  0.011264606            1 
 4130000   0.58944331   -8.6330914    617.63358   0.01246234  0.011260599            2 
 4131000   0.60474601   -8.6414751    618.65241  0.012479876  0.011256599            1 
 4132000   0.59783525   -8.6258748    617.88778  0.012461435  0.011252594            1 
 4133000   0.59697918   -8.6421405    617.10231  0.012442582  0.011248596            3 
 4134000   0.58256391   -8.6513279    617.48514   0.01244729  0.011244596            4 
 4135000   0.58230622   -8.6580677     618.5347  0.012465431    0.0112406            1 
 4136000   0.59128638   -8.6329983    617.25168  0.012436567  0.011236604            2 
 4137000   0.58090793    -8.640226    617.73434  0.012443283  0.011232615            1 
 4138000   0.58537379   -8.6617217    617.97049  0.012445032  0.011228628            4 
 4139000   0.58802996   -8.6500634     616.6722  0.012415886  0.011224641            3 
 4140000   0.60649695   -8.6404844    617.30464  0.012425617  0.011220658            1 
 4141000   0.58712801   -8.6311436    617.35567  0.012423643  0.011216675            1 
 4142000   0.59208228   -8.6324105    616.87802  0.012411034  0.011212695            5 
 4143000   0.58435439   -8.6389622    616.57628  0.012401969  0.011208712            1 
 4144000   0.58291542   -8.6467335    618.02443  0.012428098  0.011204737            1 
 4145000   0.57913181   -8.6397382    616.86454   0.01240178  0.011200761            1 
 4146000   0.57505847   -8.6497974    617.44567  0.012410469  0.011196791            2 
 4147000   0.59983284   -8.6353602    617.69973  0.012412582  0.011192819            1 
 4148000   0.59066693   -8.6385537    617.01356  0.012395804  0.011188849            2 
 4149000   0.59891423   -8.6633236    617.53192  0.012403228   0.01118488            4 
 4150000   0.58512257   -8.6526471    616.78203  0.012385181  0.011180909            3 
 4151000   0.59090028   -8.6740891    617.27618  0.012392118  0.011176942            6 
 4152000   0.59243349   -8.6492498    617.52891  0.012394206  0.011172976            1 
 4153000   0.58478833   -8.6426177    617.24916  0.012385608  0.011169015            1 
 4154000   0.57011946   -8.6533462     617.1139  0.012379913  0.011165048            1 
 4155000   0.58888242   -8.6386709    616.82277  0.012371095  0.011161086            1 
 4156000   0.58366539   -8.6469686    617.40153  0.012379723   0.01115713            3 
 4157000    0.5920116   -8.6438633    618.42744  0.012397311  0.011153175            3 
 4158000    0.5861389   -8.6480576    616.23664  0.012350422  0.011149221            3 
 4159000   0.59024774   -8.6350618    616.72901  0.012357318   0.01114527            2 
 4160000   0.58223796   -8.6369883    617.78809  0.012375563  0.011141317            2 
 4161000   0.58376217   -8.6544736     617.8077  0.012372981  0.011137368            3 
 4162000   0.59959756   -8.6612008    618.09417  0.012375744   0.01113342            1 
 4163000    0.5778028   -8.6333708    616.84263  0.012347718  0.011129473            2 
 4164000   0.58930087   -8.6640777    617.70292   0.01236197  0.011125527            3 
 4165000   0.58038933    -8.658048    617.76242  0.012360193  0.011121584            1 
 4166000   0.57847676   -8.6594816    616.68477  0.012335669  0.011117642            1 
 4167000   0.57677395   -8.6761221    618.04917  0.012359995    0.0111137            1 
 4168000   0.57798386   -8.6314111    617.51522  0.012346354  0.011109763            7 
 4169000   0.58520496   -8.6393587    616.75172  0.012328131  0.011105822            2 
 4170000   0.57946098   -8.6581795     617.1835  0.012333803  0.011101884            2 
 4171000   0.59215155   -8.6439541    617.02662  0.012327712  0.011097946            1 
 4172000   0.58439759   -8.6607491     617.6378  0.012336965  0.011094011            1 
 4173000   0.59649325   -8.6286916    617.88878   0.01233902  0.011090079            1 
 4174000   0.59211281    -8.645203     617.6314  0.012330926  0.011086148            2 
 4175000   0.58859527   -8.6597745    616.91549  0.012313682  0.011082217            2 
 4176000   0.59073209    -8.657443    616.37361   0.01229992  0.011078284            2 
 4177000   0.57260711     -8.67048     617.5712  0.012320868   0.01107436            2 
 4178000   0.57649655   -8.6626859    617.26662  0.012311844  0.011070435            2 
 4179000   0.58523518   -8.6466334    617.82716  0.012320076  0.011066513            1 
 4180000   0.59938655   -8.6490527    616.76465  0.012295946   0.01106259            2 
 4181000    0.5793087    -8.646806    617.16376   0.01230096  0.011058669       -1e+20 
 4182000   0.57599299   -8.6604652     615.9161  0.012273157  0.011054748            2 
 4183000   0.59507359   -8.6605474    617.37097  0.012299206  0.011050826            2 
 4184000   0.57562283   -8.6467259     616.9168  0.012287221  0.011046905            1 
 4185000   0.58171706   -8.6344761    616.94067   0.01228476  0.011042986            1 
 4186000   0.57262634   -8.6600234    616.60848  0.012275213  0.011039074            4 
 4187000   0.58183903   -8.6669766    617.26348  0.012285317  0.011035161            1 
 4188000   0.57738964   -8.6618751    617.20737  0.012281267  0.011031249            1 
 4189000   0.58085102   -8.6460595    617.74444   0.01228902  0.011027334            1 
 4190000   0.58035272    -8.661658      616.757  0.012266448  0.011023419            1 
 4191000   0.57206558   -8.6596656    616.43862   0.01225719   0.01101951            1 
 4192000   0.58232442   -8.6750127     616.6311  0.012258093  0.011015605            1 
 4193000   0.58251466    -8.661622    615.71024  0.012236868  0.011011693            2 
 4194000   0.58142314   -8.6726423    616.89891  0.012257569   0.01100779            1 
 4195000   0.57635081   -8.6779329    615.44141  0.012225694  0.011003883            1 
 4196000   0.57987385   -8.6739663    616.69778  0.012247732  0.010999983            2 
 4197000   0.56560125   -8.6545666    616.04503  0.012231853  0.010996084            2 
 4198000   0.57548017   -8.6506742    617.56687  0.012259149  0.010992185            3 
 4199000   0.57633181   -8.6507151    616.78118  0.012240636  0.010988292            1 
 4200000   0.57860438   -8.6555063    616.97519  0.012241571  0.010984399            1 
 4201000   0.58450017   -8.6559657    616.87064  0.012236583  0.010980508            2 
 4202000   0.58557569   -8.6618974    616.43523  0.012225036  0.010976619            2 
 4203000   0.58428932   -8.6491717    616.31445  0.012219733  0.010972728            1 
 4204000   0.58314012   -8.6582004     617.4664  0.012239661  0.010968845            1 
 4205000   0.56731968   -8.6845094    617.48746  0.012237167  0.010964957            1 
 4206000   0.56516927   -8.6593566    616.82808  0.012221194  0.010961078            2 
 4207000   0.58483743   -8.6583986    616.72109  0.012216169  0.010957198            1 
 4208000   0.57069168   -8.6562811    616.93419  0.012217486  0.010953319            3 
 4209000   0.57414218   -8.6699111    617.87621  0.012233234  0.010949445            2 
 4210000   0.56270812   -8.6462519    617.35964  0.012220104  0.010945578            3 
 4211000   0.58204984   -8.6564717    617.01119  0.012210306   0.01094171            4 
 4212000   0.56264084   -8.6539901    617.96102  0.012226199  0.010937842            1 
 4213000   0.58202486   -8.6512175    617.06739  0.012205621  0.010933979            1 
 4214000     0.585076   -8.6432547    615.59287  0.012173566  0.010930114            3 
 4215000   0.58560141   -8.6693826    616.10074  0.012180718  0.010926247            1 
 4216000   0.56811474   -8.6687127    616.97469  0.012195104  0.010922386            2 
 4217000   0.57338694   -8.6619313    617.36722  0.012199969  0.010918519            2 
 4218000   0.57720205   -8.6772464      617.718  0.012204007  0.010914658            2 
 4219000    0.5806893   -8.6593311    616.88837  0.012184727  0.010910798            3 
 4220000   0.57948086   -8.6830975    615.92665  0.012162848  0.010906938            2 
 4221000   0.58982312   -8.6615449    616.84935  0.012178184  0.010903079            3 
 4222000   0.58038815   -8.6580768    616.88364  0.012175976  0.010899223            3 
 4223000   0.58949897   -8.6535026    616.28113  0.012161203   0.01089537            2 
 4224000   0.57206175   -8.6546085    616.81764  0.012168909  0.010891519            2 
 4225000   0.56172032   -8.6771062    617.23481  0.012174257  0.010887665            2 
 4226000   0.57293124   -8.6643903    616.38222  0.012154563  0.010883813            1 
 4227000    0.5685714    -8.686167     616.8241  0.012160399   0.01087996            1 
 4228000   0.57556552   -8.6697462    617.11511  0.012163259  0.010876118            2 
 4229000   0.57926322   -8.6821542    617.39352  0.012165869  0.010872271            2 
 4230000   0.57739896   -8.6718076    616.37113  0.012142851  0.010868429            2 
 4231000   0.56626569   -8.6773461    616.31841  0.012138943   0.01086458            1 
 4232000   0.57979336   -8.6776684     616.5866  0.012141356  0.010860738            1 
 4233000   0.57723794   -8.6525246    616.81217  0.012142928  0.010856901            2 
 4234000   0.58426628   -8.6789749    616.23952  0.012128789  0.010853062            2 
 4235000   0.56835975   -8.6699572    617.49084  0.012150548  0.010849225            2 
 4236000   0.57377949   -8.6740431    616.41515  0.012126518  0.010845392            2 
 4237000   0.57859094   -8.6506955    617.63714   0.01214769  0.010841562            1 
 4238000   0.56801122   -8.6885297    616.64974  0.012125408  0.010837738            2 
 4239000   0.57052897   -8.6690308    617.08944  0.012131191  0.010833911            2 
 4240000   0.58324877   -8.6756331    617.11508  0.012128834  0.010830086            2 
 4241000   0.57333077   -8.6678153    617.03729  0.012124446  0.010826263            2 
 4242000   0.58636664   -8.6718462    617.03483  0.012121539  0.010822444            1 
 4243000   0.57270512   -8.6619512     617.4276  0.012126396  0.010818626            1 
 4244000   0.57158052   -8.6689993    616.72649  0.012109772  0.010814809            2 
 4245000   0.56977716    -8.679372    618.29596   0.01213773  0.010810994            2 
 4246000   0.57168638   -8.6881261    616.50358  0.012099694  0.010807179            2 
 4247000   0.55899792   -8.6637198    615.69333  0.012080946  0.010803361            2 
 4248000   0.56696714   -8.6921514    616.21301  0.012088297  0.010799546            1 
 4249000   0.57517084    -8.673126    617.22159  0.012105232  0.010795729            1 
 4250000   0.58210492   -8.6728956    615.68694  0.012072293  0.010791914            1 
 4251000   0.57197021   -8.6696809    617.60245  0.012107003  0.010788103            3 
 4252000   0.57263982   -8.6862686     616.4668  0.012081899  0.010784294            3 
 4253000   0.56893454   -8.6666934    616.52565  0.012080211  0.010780483            1 
 4254000   0.56879757   -8.6845663    617.34652  0.012093452  0.010776678            4 
 4255000   0.56519366   -8.6680029    616.34805  0.012071055  0.010772869            4 
 4256000   0.57990526   -8.6872891    616.97344  0.012080464  0.010769065            3 
 4257000   0.58487009   -8.6812984    616.33261  0.012065081  0.010765263            3 
 4258000   0.56530803   -8.6796778    615.70618  0.012049988  0.010761467            2 
 4259000   0.56988525    -8.671853     616.5523  0.012063714  0.010757669            1 
 4260000   0.56233483   -8.6865231    616.80543  0.012065834  0.010753873            2 
 4261000    0.5771471   -8.6906366    616.46462  0.012056337  0.010750077            2 
 4262000   0.57156205     -8.70027    616.98717  0.012063725  0.010746285            3 
 4263000   0.56570611   -8.6680028    617.37689  0.012068514  0.010742495            3 
 4264000   0.56552749   -8.6732472    616.46841  0.012047929  0.010738707            1 
 4265000   0.57895815   -8.6876457    616.26227  0.012041076  0.010734921            2 
 4266000     0.568581   -8.6751571    617.25098  0.012057567  0.010731135            2 
 4267000   0.57704066   -8.6904041    617.39985  0.012057649  0.010727351            1 
 4268000   0.57028545   -8.6962279    616.48063  0.012036876  0.010723567            1 
 4269000   0.56433877   -8.6942008    616.10793  0.012026781  0.010719781            2 
 4270000   0.57726138   -8.6779859    615.93518  0.012020593     0.010716            2 
 4271000   0.58303994   -8.6767464    616.24261  0.012023777  0.010712216            2 
 4272000   0.55919398   -8.6712379    616.32282  0.012022527  0.010708437            1 
 4273000   0.56419542   -8.6849103    616.26266   0.01201854  0.010704655            1 
 4274000   0.56554723   -8.6893913    616.99585  0.012030024  0.010700875            3 
 4275000   0.57189203   -8.6859127    616.15491  0.012010817  0.010697101            1 
 4276000     0.557205   -8.6926797     615.9392  0.012003804  0.010693323            1 
 4277000   0.56156683   -8.7052061    616.44352  0.012010824  0.010689543            1 
 4278000   0.57835551   -8.6694951     615.5369  0.011990356  0.010685768            1 
 4279000   0.57223932   -8.6934931    615.22047  0.011981391  0.010681998            2 
 4280000   0.57349652   -8.6779796    616.14732  0.011996638   0.01067823            1 
 4281000   0.57489987   -8.6866856    616.12104  0.011993324  0.010674461            2 
 4282000   0.56298027    -8.686758    616.38578  0.011995675  0.010670695            2 
 4283000   0.56334483   -8.6918022     615.9505  0.011984405   0.01066693            2 
 4284000   0.57140502   -8.6793708    615.91587  0.011980934  0.010663167            3 
 4285000   0.55612571     -8.68258       616.11  0.011981914  0.010659401            2 
 4286000   0.57479687   -8.6775495    616.40984  0.011984948  0.010655638            2 
 4287000   0.56086436   -8.7165315     615.3894  0.011962316  0.010651879            1 
 4288000   0.56044133   -8.6886176    616.18609  0.011975009  0.010648117            2 
 4289000   0.56264043   -8.6850413    615.82343  0.011965171  0.010644359            2 
 4290000   0.56650131   -8.6881499    615.01006  0.011946582  0.010640605            1 
 4291000   0.56523126   -8.6938689    616.07754  0.011964529  0.010636848            2 
 4292000   0.56424657   -8.7024206    616.91878  0.011978075  0.010633098            2 
 4293000   0.56041968   -8.6924467    615.54483  0.011948615  0.010629345            2 
 4294000   0.55352552   -8.6790877    616.18191  0.011958196  0.010625599            2 
 4295000   0.55566022   -8.7013076    617.39365  0.011978922  0.010621859            3 
 4296000   0.56204844   -8.6897099    616.64196  0.011961553  0.010618112            1 
 4297000   0.57394573   -8.6937027    615.53665  0.011937333  0.010614362            1 
 4298000   0.54959435   -8.6810664     615.8572  0.011940771   0.01061062            1 
 4299000   0.56249756   -8.6953077    617.50498  0.011969934  0.010606883            1 
 4300000   0.57367855   -8.7101185    616.73613  0.011952251  0.010603144            1 
 4301000   0.56970704   -8.7010295    615.62123   0.01192787  0.010599407            3 
 4302000   0.55675352   -8.6930915    615.02174  0.011913485  0.010595674            1 
 4303000   0.56216168   -8.6700939    616.06296  0.011930881   0.01059194            1 
 4304000   0.56122356   -8.6970072    616.32604  0.011933202  0.010588211            1 
 4305000   0.55576059   -8.6971467     616.0968  0.011925993  0.010584484            2 
 4306000    0.5729682   -8.6744665    616.45051  0.011930069  0.010580759            4 
 4307000   0.56063779   -8.6909884    614.65054  0.011892472  0.010577034            2 
 4308000   0.55089745   -8.6997155    615.11334  0.011898664  0.010573304            1 
 4309000   0.56386618   -8.6875001    616.32107  0.011919259   0.01056958            1 
 4310000   0.57001084   -8.6898316    617.02509  0.011930106  0.010565861            2 
 4311000     0.563875   -8.6946668    617.08673   0.01192853  0.010562141            1 
 4312000    0.5632358   -8.6760965    616.05515  0.011905828  0.010558425            1 
 4313000   0.56843528   -8.6829142    615.82147  0.011898552  0.010554704            4 
 4314000   0.56061824   -8.6904701    616.15032  0.011902147  0.010550991            2 
 4315000   0.54910145   -8.6845514    616.43597  0.011904905  0.010547276            1 
 4316000   0.55034541   -8.6880403    616.59647  0.011905245   0.01054356            3 
 4317000   0.56442382   -8.7061988    615.14729  0.011874513  0.010539848            1 
 4318000   0.55726609   -8.6899655    615.75904   0.01188357   0.01053614            2 
 4319000   0.57212824    -8.696571    616.37187  0.011892642  0.010532438            4 
 4320000   0.56088095   -8.6817625    616.31077  0.011888711  0.010528735            2 
 4321000   0.56981355   -8.6924204    616.48719  0.011889362   0.01052503            5 
 4322000    0.5436073   -8.6878013    615.73715  0.011872149   0.01052133            2 
 4323000   0.55166865   -8.6939292    615.45794  0.011864021  0.010517626            1 
 4324000   0.56400513   -8.6869771    617.31092  0.011896988   0.01051393            2 
 4325000    0.5717578   -8.6996223    616.05976   0.01187013  0.010510232            1 
 4326000   0.57207358    -8.700926    614.85462  0.011844171  0.010506534            2 
 4327000   0.54908755   -8.6995573    616.28314  0.011868946  0.010502836            5 
 4328000   0.54947386   -8.6926439    616.06669  0.011862036  0.010499144            2 
 4329000   0.55399526    -8.714528    615.39929  0.011846448  0.010495452            2 
 4330000   0.56027589   -8.6981791    616.37233  0.011862439   0.01049176            1 
 4331000   0.57485846   -8.7043349    615.26669  0.011838426   0.01048807            1 
 4332000   0.55693058   -8.6881751    616.01242  0.011850039  0.010484381            1 
 4333000   0.56295648   -8.7129496    615.38276  0.011835194  0.010480692            2 
 4334000   0.56758578   -8.6868754    617.09955  0.011865474  0.010477004            2 
 4335000   0.56824337   -8.7027116    616.25263  0.011846456  0.010473323            2 
 4336000   0.55368387   -8.6984549    615.15739  0.011822674  0.010469636            1 
 4337000   0.56547771   -8.6993487    616.00479  0.011836231  0.010465957            3 
 4338000   0.55102348   -8.7171438    615.96756  0.011832787  0.010462275            4 
 4339000   0.55318503   -8.7126664    615.63244  0.011823624  0.010458595            2 
 4340000   0.55943124   -8.7033905    616.28446  0.011833419  0.010454917            1 
 4341000   0.56374231   -8.7166808    615.41511  0.011814004  0.010451239            2 
 4342000   0.56397703   -8.6987647    615.11842  0.011805589  0.010447563            1 
 4343000   0.56230846   -8.7029536    615.02151  0.011801011  0.010443887            2 
 4344000   0.54261695   -8.6914891    615.06418  0.011799113  0.010440213            2 
 4345000   0.55705681   -8.7155812    616.08351  0.011815948  0.010436542            2 
 4346000   0.55109994   -8.7150257    615.24793  0.011797207  0.010432874            3 
 4347000   0.55674084   -8.7068074    615.44684  0.011798306   0.01042921            2 
 4348000   0.54370873   -8.6906571    616.51004   0.01181597  0.010425544            1 
 4349000   0.56308582   -8.7110351    616.08594  0.011805126  0.010421887            2 
 4350000   0.55457897   -8.7082537    615.46785  0.011790572  0.010418232            2 
 4351000   0.55005924   -8.6843124    614.80162  0.011775102  0.010414573            4 
 4352000   0.54755492   -8.7032505    615.79643  0.011791445  0.010410916            3 
 4353000   0.56325162   -8.7195471    616.62315  0.011804563  0.010407263            2 
 4354000   0.55269579   -8.7182396    615.37362  0.011777936  0.010403612            2 
 4355000   0.54772515   -8.7034667    616.48531  0.011796504  0.010399962            1 
 4356000   0.54917871   -8.7132623    615.63938  0.011777613  0.010396312            1 
 4357000   0.54857431   -8.7144128    614.65864  0.011756152   0.01039266            1 
 4358000   0.54684174   -8.7204419    616.00315  0.011779164  0.010389009            1 
 4359000    0.5594954   -8.7226598    615.01196  0.011757513   0.01038536            1 
 4360000   0.55598447   -8.7138751    615.92311  0.011772231  0.010381712            1 
 4361000   0.56656217   -8.7036737    614.50865  0.011742503  0.010378064            1 
 4362000   0.55288944   -8.7043616    615.56253  0.011759944  0.010374419            2 
 4363000   0.54447326   -8.6847591    615.90803  0.011763848  0.010370772            1 
 4364000   0.54729678   -8.6962273     615.6067  0.011755398   0.01036713            2 
 4365000   0.54871602   -8.6983086    615.14886  0.011743965  0.010363494            1 
 4366000    0.5408131   -8.7011005    615.08768  0.011740107  0.010359855            2 
 4367000    0.5636442   -8.7148654    616.11637  0.011757048   0.01035622            1 
 4368000   0.54617645   -8.7043313    616.70168  0.011765524  0.010352587            1 
 4369000    0.5574237   -8.6993902    614.83876  0.011727298  0.010348953            2 
 4370000   0.56278561    -8.728073    615.11455  0.011729873  0.010345318            1 
 4371000   0.55338338   -8.7160095    614.89362  0.011722978  0.010341693            1 
 4372000   0.55694843   -8.6882851     615.8439  0.011738409  0.010338062            2 
 4373000   0.55964997    -8.694893    614.02146  0.011700996  0.010334432            3 
 4374000   0.55724395   -8.7157573    615.72879  0.011730849  0.010330805            1 
 4375000   0.54859662    -8.716534    614.76304  0.011709772  0.010327177            1 
 4376000   0.54707574   -8.7064406     616.0305  0.011731233  0.010323554            3 
 4377000   0.54671466   -8.7158556    615.08279  0.011710509  0.010319933            2 
 4378000   0.55178277   -8.7142128    616.26311  0.011730301  0.010316315            3 
 4379000   0.54707458   -8.7163018    615.02449  0.011704051  0.010312694            1 
 4380000   0.54719612   -8.7265666    615.55947  0.011711558  0.010309076            2 
 4381000   0.54939975   -8.7160518    615.78024  0.011713084  0.010305456            2 
 4382000   0.54730272   -8.7310161    614.01988  0.011676934  0.010301839            1 
 4383000   0.55357091   -8.7118345    614.67258  0.011686679  0.010298222            1 
 4384000   0.54635417   -8.7454893    615.28166  0.011695591  0.010294607            1 
 4385000   0.54096038   -8.7161849    615.00935  0.011687749  0.010290992            1 
 4386000   0.53864911   -8.7184415    615.66975  0.011697632  0.010287385            2 
 4387000   0.55503969   -8.7178521    615.00912  0.011682416  0.010283774            1 
 4388000   0.54244774   -8.7129641    614.92185  0.011678097  0.010280167            3 
 4389000   0.57414634   -8.6918146     616.0502   0.01169686  0.010276563            3 
 4390000   0.54908661   -8.7349204    614.70966  0.011668748   0.01027296            2 
 4391000   0.53248365   -8.7153867    614.30725  0.011658454  0.010269361            1 
 4392000   0.54315953   -8.7264659    615.41413  0.011676801  0.010265762            1 
 4393000     0.554495   -8.7050312    616.06853  0.011686557  0.010262162            2 
 4394000   0.54815283   -8.7158714    616.07196  0.011683962  0.010258564            2 
 4395000   0.55313892   -8.7042733    616.02811  0.011680472  0.010254969            2 
 4396000   0.54550529   -8.7149911    616.13555  0.011679852  0.010251374            1 
 4397000   0.54698263   -8.7088835    616.03216  0.011675236  0.010247782            1 
 4398000   0.55788063    -8.717207    616.39823  0.011679518  0.010244191            1 
 4399000    0.5587869   -8.7235649    615.54538  0.011660707  0.010240604            2 
 4400000   0.54934809   -8.7038632    614.83422  0.011644587  0.010237017            1 
 4401000   0.54821575   -8.7317718     615.1926  0.011648728  0.010233434            1 
 4402000   0.53950132   -8.7236622    615.49595  0.011651824  0.010229849            1 
 4403000   0.54147841   -8.7138906    613.96575  0.011620216  0.010226264            2 
 4404000   0.55479182   -8.6999486     615.7968  0.011652225  0.010222684            4 
 4405000   0.54717483   -8.7166614    614.97172  0.011633971  0.010219107            6 
 4406000   0.55198978    -8.702737      615.979  0.011650382  0.010215532            4 
 4407000   0.54561279   -8.7169273    615.02539  0.011629706  0.010211957            3 
 4408000   0.55260399   -8.7022669    616.04554  0.011646354  0.010208381            1 
 4409000   0.54297295    -8.720377    615.49585  0.011633323  0.010204808            1 
 4410000   0.54321531   -8.7274068    614.75929  0.011616767  0.010201237            1 
 4411000   0.56046334   -8.7136358    615.45133  0.011627207  0.010197669            1 
 4412000   0.54377707   -8.7255111    614.45532  0.011605759  0.010194101            1 
 4413000   0.53540363   -8.7241717    614.52892  0.011604519  0.010190533            1 
 4414000   0.53091587    -8.741406    615.33611  0.011617129  0.010186962            1 
 4415000   0.54419529   -8.7389897    613.91615  0.011587696  0.010183393            1 
 4416000   0.54678633     -8.72894    615.21389  0.011609562  0.010179828            2 
 4417000   0.53658528   -8.7100744    615.86443  0.011619207  0.010176263            1 
 4418000   0.55816887   -8.7159679     614.7054  0.011594715  0.010172702            4 
 4419000   0.54268144   -8.7155724    613.94218  0.011577698  0.010169142            2 
 4420000   0.54736302   -8.7167821    614.23859  0.011580667  0.010165583            2 
 4421000   0.55752065   -8.7383039     614.3066   0.01157933  0.010162025            1 
 4422000   0.54962638   -8.7171779    614.66933  0.011583547  0.010158467            2 
 4423000   0.52983627    -8.712647    614.73107  0.011582091  0.010154911            1 
 4424000    0.5455455   -8.7333775    615.07485  0.011585949  0.010151357            1 
 4425000   0.53851522   -8.7091547    615.72726  0.011595617  0.010147805            1 
 4426000   0.53700938   -8.7374219    615.66802  0.011591882  0.010144253            2 
 4427000     0.541661   -8.7311993    614.77158  0.011572389  0.010140703            1 
 4428000   0.55165265   -8.7191158    614.29169  0.011560744  0.010137153            2 
 4429000   0.54747194   -8.7211596    615.00074  0.011571475  0.010133604            4 
 4430000   0.55885076    -8.730364    615.37943  0.011575986  0.010130059            1 
 4431000   0.54360518    -8.705073    614.94233  0.011565153  0.010126513            1 
 4432000   0.55088412   -8.7271854    614.31554  0.011550759  0.010122969            3 
 4433000   0.53332953   -8.7142034    613.62298  0.011535134  0.010119427            1 
 4434000   0.55410781   -8.7372152    614.47103  0.011548471  0.010115885            1 
 4435000   0.55573524   -8.7287129    614.21553  0.011541066  0.010112344            1 
 4436000   0.53392249   -8.7284437    614.85311  0.011550442  0.010108809            2 
 4437000   0.53175021   -8.7245194    614.49534  0.011541119   0.01010527            2 
 4438000   0.54434744   -8.7356684    615.24185  0.011552536  0.010101739            2 
 4439000   0.53156463   -8.7272337    614.48083  0.011535647  0.010098203            2 
 4440000   0.55464665   -8.7412628    614.95967  0.011542036  0.010094669            2 
 4441000   0.55347216   -8.7375926    615.63791  0.011552164  0.010091134            2 
 4442000    0.5324292   -8.7282155    613.72675  0.011513709  0.010087606            1 
 4443000   0.54798541   -8.7321661    614.37412   0.01152326  0.010084076            1 
 4444000    0.5398557   -8.7335375    613.81062    0.0115101  0.010080543            1 
 4445000   0.54694419   -8.7158683    613.61459  0.011503836  0.010077012            2 
 4446000   0.54611488    -8.718865    614.35327  0.011515094  0.010073487            2 
 4447000   0.54369386   -8.7257228    615.13728  0.011527196  0.010069965            2 
 4448000   0.53154601   -8.7209413    615.66746  0.011534537  0.010066445            1 
 4449000   0.54082782   -8.7258574    614.88989   0.01151738  0.010062925            2 
 4450000   0.52857552   -8.7303192    614.52048  0.011507874  0.010059411            1 
 4451000   0.54252912    -8.732899    613.80611  0.011491914  0.010055893            2 
 4452000    0.5343377   -8.7246311    614.14918  0.011495754  0.010052375            3 
 4453000   0.54364968   -8.7214223      614.731  0.011504061  0.010048864            1 
 4454000   0.53806602   -8.7322641    614.70892  0.011501065  0.010045353            2 
 4455000    0.5397154   -8.7377961    614.24554  0.011489816  0.010041846            2 
 4456000   0.55430927    -8.725551    614.79947  0.011497596   0.01003834            1 
 4457000    0.5370903   -8.7364379    613.67989  0.011474084  0.010034835            1 
 4458000   0.53410759   -8.7314732    615.05454  0.011497206  0.010031333            1 
 4459000   0.54347548   -8.7393472    614.89188  0.011491588  0.010027833            1 
 4460000   0.54613508   -8.7522227     615.0536  0.011492033  0.010024333            1 
 4461000    0.5305593   -8.7218074    614.43853  0.011477967  0.010020833            2 
 4462000   0.54965824   -8.7417903    614.77826   0.01148174  0.010017331            1 
 4463000   0.54342056   -8.7335363    614.93983  0.011482184  0.010013833            1 
 4464000   0.52295204   -8.7405893    614.53339  0.011472024  0.010010336            2 
 4465000   0.55419639   -8.7401492     615.3377  0.011484466  0.010006845            1 
 4466000   0.54575832    -8.736255    613.41919  0.011446096  0.010003349            2 
 4467000   0.52990389   -8.7419209    614.69983  0.011467425 0.0099998583            1 
 4468000   0.52561008   -8.7339427    614.78734   0.01146649 0.0099963692            2 
 4469000   0.53322894    -8.719912    614.16404  0.011452302 0.0099928819            2 
 4470000    0.5302576   -8.7381279    614.29557  0.011452192 0.0099893915            2 
 4471000   0.53261455   -8.7339311    614.98717  0.011462521 0.0099859075            2 
 4472000   0.53443797   -8.7500793    614.71108  0.011454813 0.0099824199            2 
 4473000   0.53153006   -8.7387165     613.8754  0.011436683 0.0099789366            2 
 4474000   0.54518219   -8.7412178    613.95543  0.011435617 0.0099754543            1 
 4475000   0.53255592   -8.7391459    615.26943  0.011457531 0.0099719756            2 
 4476000   0.53604492   -8.7455004    613.48328  0.011421717 0.0099684984            2 
 4477000    0.5406007   -8.7435197     614.2326  0.011433114 0.0099650219            1 
 4478000    0.5415847   -8.7307328    614.40556  0.011433779 0.0099615467            1 
 4479000   0.51922064   -8.7612773    612.82896  0.011401893 0.0099580696            1 
 4480000   0.53146066   -8.7407339    613.92154  0.011419671 0.0099545953            1 
 4481000   0.53111871   -8.7324722    614.06701  0.011419828 0.0099511219            1 
 4482000   0.53445001    -8.751551    614.47944  0.011424949 0.0099476521            1 
 4483000    0.5273351   -8.7598516    613.97776  0.011413075 0.0099441809            2 
 4484000   0.53470702   -8.7364053    613.55302  0.011402636 0.0099407162            2 
 4485000   0.53310427   -8.7583286    614.14311  0.011411057 0.0099372515            1 
 4486000   0.53692283   -8.7393683    613.31035  0.011393044 0.0099337883            1 
 4487000   0.53198875   -8.7445229    614.29477  0.011408788 0.0099303274            2 
 4488000   0.54350348   -8.7430861    613.66959  0.011394637 0.0099268654            2 
 4489000   0.53419031   -8.7422633    614.93139  0.011415523 0.0099234066            1 
 4490000   0.52943759   -8.7301286    613.93395  0.011394468 0.0099199461            1 
 4491000   0.55329009   -8.7489447    613.68129  0.011387243 0.0099164861            2 
 4492000   0.53828824      -8.7202    614.53972  0.011400633 0.0099130348            2 
 4493000   0.55003798   -8.7645788    613.37791  0.011376547 0.0099095799            2 
 4494000   0.53892931    -8.734518    614.17712  0.011388835 0.0099061242            1 
 4495000   0.52829193   -8.7410277    614.69689  0.011395938 0.0099026699            2 
 4496000    0.5307002   -8.7291367    614.36135  0.011387184 0.0098992165            1 
 4497000   0.52855745   -8.7336884    613.83904  0.011374973 0.0098957659            1 
 4498000   0.52393949   -8.7401701    613.67364   0.01136938 0.0098923181            4 
 4499000   0.53613767   -8.7300933    614.10498  0.011374842 0.0098888739            2 
 4500000   0.53984439   -8.7477982    614.24322  0.011374874 0.0098854315            1 
 4501000   0.52074975   -8.7327312    613.93155  0.011366577 0.0098819911            2 
 4502000    0.5370541    -8.748256    614.86591  0.011381347 0.0098785512            3 
 4503000   0.53103696   -8.7427912    613.34491  0.011350672 0.0098751156            1 
 4504000   0.53959034   -8.7522042    614.31157  0.011366037 0.0098716802            1 
 4505000   0.52323896    -8.715963    615.13618  0.011378768 0.0098682485            2 
 4506000   0.52325269   -8.7426978    613.38982  0.011343946 0.0098648152            2 
 4507000    0.5272824   -8.7605712    614.06399  0.011353894 0.0098613839            1 
 4508000   0.52306634   -8.7478883    613.76007  0.011345757 0.0098579519            2 
 4509000   0.55132074   -8.7443733    615.74679  0.011379958 0.0098545242            1 
 4510000   0.53928184   -8.7261235    614.60842  0.011356401 0.0098510987            1 
 4511000   0.52669207   -8.7402796    614.88343  0.011358964 0.0098476742            1 
 4512000   0.53465393   -8.7353368     614.6416   0.01135198 0.0098442524            1 
 4513000   0.53251662   -8.7785104    613.81492    0.0113342 0.0098408258            1 
 4514000   0.52390482   -8.7595085    613.62943  0.011328264 0.0098374011            3 
 4515000    0.5276063   -8.7386584    614.27561  0.011337682 0.0098339808            1 
 4516000   0.52891704   -8.7538056    615.33197  0.011354664 0.0098305627            4 
 4517000    0.5365677   -8.7496495    613.78832  0.011323672 0.0098271423            1 
 4518000    0.5387648   -8.7597871    614.45222  0.011333411 0.0098237277            1 
 4519000   0.52799151   -8.7568562    613.03679  0.011304802 0.0098203093            1 
 4520000   0.52000803   -8.7642791    615.29996  0.011344026 0.0098168943            1 
 4521000   0.52988752   -8.7583475    615.40001  0.011343361 0.0098134846            1 
 4522000   0.51679661   -8.7487118    613.52142  0.011306233 0.0098100736            2 
 4523000   0.52489441   -8.7624112    613.72829  0.011307545 0.0098066614            2 
 4524000   0.53148171   -8.7671433    613.11675   0.01129378 0.0098032525            1 
 4525000   0.53150396   -8.7560605    614.26996  0.011312522 0.0097998424            1 
 4526000    0.5362095   -8.7477263    613.90601  0.011303322  0.009796437            2 
 4527000    0.5249495    -8.752046    612.94516  0.011283137 0.0097930312            2 
 4528000   0.52221964   -8.7561948    613.10964  0.011283673 0.0097896262            1 
 4529000    0.5275568    -8.764196    614.22263   0.01130166 0.0097862271            2 
 4530000   0.54627897   -8.7791059    614.10778  0.011297053  0.009782823            3 
 4531000   0.53116214   -8.7488635    614.08559  0.011294151 0.0097794241            1 
 4532000   0.51651566     -8.77706    614.58219  0.011300791 0.0097760225            1 
 4533000   0.52431592   -8.7498695    615.06717  0.011307213 0.0097726232            2 
 4534000   0.53559624   -8.7533929    613.68253   0.01127927 0.0097692287            2 
 4535000   0.52323545   -8.7531505    614.07728  0.011284037 0.0097658335            3 
 4536000    0.5132888   -8.7658033    613.34604  0.011268115 0.0097624371            1 
 4537000   0.52104837   -8.7660885    613.66803  0.011271546 0.0097590441            2 
 4538000   0.51928804   -8.7424012    613.82216  0.011271892 0.0097556522            2 
 4539000   0.52328306   -8.7790769    613.27998  0.011259455  0.009752262            3 
 4540000   0.51384629   -8.7817228    613.42037  0.011259552 0.0097488717            1 
 4541000   0.52856188   -8.7631527    613.95099   0.01126681 0.0097454812            1 
 4542000   0.51763961   -8.7609054    614.28007  0.011270367 0.0097420998            1 
 4543000   0.53413301   -8.7712306    613.25906  0.011249157 0.0097387184            1 
 4544000   0.53401165   -8.7608763     613.7986  0.011256577  0.009735334            2 
 4545000   0.53017552   -8.7488668    613.70312  0.011252349 0.0097319535            4 
 4546000   0.52543034   -8.7553022    613.01109  0.011237188 0.0097285714            1 
 4547000   0.51872055   -8.7689709    613.86527  0.011250371  0.009725191            2 
 4548000   0.53055396   -8.7583775     613.3577  0.011238598 0.0097218127            1 
 4549000   0.51784777   -8.7590976    613.68312  0.011242088 0.0097184381            1 
 4550000    0.5377707   -8.7870672    613.89427  0.011243485 0.0097150606            2 
 4551000   0.52667498   -8.7804512    612.49526  0.011215397   0.00971169            1 
 4552000    0.5212221   -8.7636126    613.35613  0.011228693 0.0097083176            2 
 4553000   0.52527168    -8.761627     613.9857   0.01123775 0.0097049505            1 
 4554000   0.52986829   -8.7696337    613.62561  0.011228693 0.0097015831            2 
 4555000   0.52991308   -8.7713049     613.2694  0.011219711 0.0096982164            4 
 4556000   0.52648244   -8.7683381    612.96127  0.011211612 0.0096948548            2 
 4557000   0.53207115   -8.7604852    614.42098  0.011235846 0.0096914902            2 
 4558000   0.52798787   -8.7522523    613.43519  0.011215357 0.0096881303            1 
 4559000   0.52719293   -8.7650243    613.92675  0.011221883 0.0096847681            1 
 4560000   0.52465816    -8.774792    613.10086  0.011204329 0.0096814111            1 
 4561000   0.52152774   -8.7448953    613.24291  0.011204467 0.0096780528            2 
 4562000   0.50856906    -8.760555    613.46951  0.011206151 0.0096746954            1 
 4563000   0.52320068    -8.776088    614.03927    0.0112141 0.0096713401            1 
 4564000   0.52096863   -8.7693028    613.32153  0.011198538  0.009667986            2 
 4565000   0.51836311   -8.7600854    613.48145  0.011199004 0.0096646336            2 
 4566000   0.52898551   -8.7648515    613.82558  0.011202832   0.00966128            2 
 4567000   0.51958235   -8.7950774     613.6108   0.01119646 0.0096579286            3 
 4568000   0.53069784   -8.7539242    612.29221  0.011169954 0.0096545773            2 
 4569000   0.51297515   -8.7635242    613.79836   0.01119498 0.0096512292            2 
 4570000   0.51961888    -8.767375    613.51884  0.011187433  0.009647884            2 
 4571000   0.52600633   -8.7607241    613.97755  0.011193348 0.0096445418            3 
 4572000   0.52806416   -8.7641381     613.9232   0.01118991 0.0096411978            2 
 4573000   0.52009816   -8.7802237    613.35982  0.011177196 0.0096378549            1 
 4574000   0.53389577   -8.7653153    613.25343  0.011172814 0.0096345134            2 
 4575000   0.51688625   -8.7537571    613.93305  0.011182751 0.0096311722            3 
 4576000   0.52602901   -8.7635506    613.06099  0.011164427 0.0096278363            2 
 4577000   0.51534377   -8.7463285    613.44443  0.011168969 0.0096244987            2 
 4578000   0.52250582   -8.7654283    614.27599  0.011181666 0.0096211656            3 
 4579000   0.53267548   -8.7542514    612.81938  0.011152715 0.0096178333            3 
 4580000   0.50602723   -8.7483814    612.87249  0.011151246 0.0096144987            2 
 4581000   0.52197032   -8.7734677     613.8021  0.011165722 0.0096111674            3 
 4582000   0.51033244    -8.769254    613.40458  0.011156056  0.009607837            1 
 4583000   0.51621356   -8.7594767    614.40654  0.011171841 0.0096045119            2 
 4584000   0.53009186   -8.7560749     613.8398  0.011159101 0.0096011871            3 
 4585000   0.51516109   -8.7683327    613.16432   0.01114439 0.0095978594            1 
 4586000   0.51095579   -8.7662996    613.84049  0.011154246 0.0095945365            3 
 4587000   0.49993848   -8.7783314    613.45362  0.011144786 0.0095912119            2 
 4588000   0.51560674   -8.7827332    613.31999   0.01113993 0.0095878884            2 
 4589000   0.51504318    -8.770721    612.96055  0.011130975 0.0095845679            2 
 4590000    0.5254223   -8.7732245    613.50362   0.01113841 0.0095812549            2 
 4591000   0.54297312   -8.7723827    612.02071  0.011109067 0.0095779405            2 
 4592000   0.51026081   -8.7560324    613.71144   0.01113733 0.0095746272            2 
 4593000   0.51037901   -8.7936248     613.8085  0.011136666 0.0095713142            2 
 4594000   0.52248486   -8.7844327    612.93893  0.011118468  0.009568002            2 
 4595000   0.50713079   -8.7907915     613.5243  0.011126665 0.0095646958            3 
 4596000   0.50902522   -8.7801255    613.33336  0.011120782 0.0095613892            2 
 4597000   0.51332018    -8.769857    613.80774  0.011126962 0.0095580822            2 
 4598000   0.51268683   -8.7722259    613.65156  0.011121712 0.0095547764            2 
 4599000   0.52090187   -8.7731475     613.0928  0.011109169 0.0095514722            2 
 4600000   0.50597489   -8.7877989    612.22917  0.011091108 0.0095481678            4 
 4601000   0.51899422   -8.7570063    613.76551  0.011116524 0.0095448671            2 
 4602000   0.50512739   -8.7860622    613.67876  0.011112537 0.0095415658            2 
 4603000   0.51928698   -8.7798824     613.5015  0.011106914 0.0095382704            2 
 4604000   0.52104895   -8.7737818     612.6157  0.011088468 0.0095349715            2 
 4605000   0.51897083   -8.7842868    613.77271  0.011106998 0.0095316727            1 
 4606000   0.50979773   -8.7842712      613.252  0.011095166 0.0095283783            2 
 4607000   0.50601856   -8.7679869     611.8162  0.011066786 0.0095250859            2 
 4608000   0.51262781    -8.780458    613.12297  0.011088017 0.0095217932            1 
 4609000   0.52118467   -8.7850848    612.59414  0.011076049 0.0095185012            3 
 4610000   0.51552076   -8.7904933     613.7995  0.011095436 0.0095152136            2 
 4611000   0.50529495   -8.7656951    612.04999  0.011061411  0.009511928            2 
 4612000   0.51653246   -8.7685691    613.49004  0.011085033 0.0095086413            2 
 4613000   0.51023419    -8.775942      612.551  0.011065666 0.0095053576            2 
 4614000   0.50068716   -8.8004442    611.88003  0.011051149 0.0095020704            1 
 4615000   0.51689846   -8.7606662    612.64807  0.011062623 0.0094987887            2 
 4616000   0.51076174   -8.7757828     612.6796  0.011060796 0.0094955057            1 
 4617000   0.52342105   -8.7757341    613.06138  0.011065291 0.0094922248            2 
 4618000   0.49803116   -8.7689994    613.61412  0.011072869 0.0094889459            1 
 4619000   0.52079598   -8.7755728    613.37676   0.01106619 0.0094856683            2 
 4620000   0.50487313   -8.7908936    613.35854  0.011063466 0.0094823933            2 
 4621000   0.51312654   -8.7686746    613.19159  0.011058061 0.0094791195            4 
 4622000   0.51305607   -8.7840977    613.14948  0.011054909 0.0094758492            1 
 4623000   0.50547093   -8.7720193      613.154  0.011052599 0.0094725758            3 
 4624000   0.51168059   -8.7910693    612.91444  0.011045892 0.0094693064            2 
 4625000   0.51619028   -8.7797783    612.85679  0.011042465 0.0094660341            3 
 4626000    0.5041287    -8.778094    612.83922  0.011039761 0.0094627679            3 
 4627000   0.49877161   -8.7869804    613.33949  0.011046385    0.0094595            2 
 4628000   0.50523742   -8.7677514    612.95227  0.011037026 0.0094562383            1 
 4629000   0.51348461   -8.7801146    612.57765  0.011027898 0.0094529764            3 
 4630000   0.51596915   -8.7810331    612.89422  0.011031213 0.0094497176            1 
 4631000    0.5154139   -8.7783224    612.57115  0.011023018 0.0094464589            1 
 4632000   0.50054279   -8.7932625    613.62513    0.0110396 0.0094431997            1 
 4633000   0.50244575   -8.7876922    612.69445  0.011020477 0.0094399426            2 
 4634000   0.51094287   -8.7867612    614.08612  0.011043125 0.0094366891            2 
 4635000   0.50861685   -8.7822866    612.43358  0.011011032 0.0094334381            2 
 4636000   0.52715331   -8.7693175    613.45831  0.011027076 0.0094301861            2 
 4637000    0.5182461   -8.7834644    613.05806  0.011017505 0.0094269369            1 
 4638000    0.5068043   -8.7727576    612.82878   0.01101101 0.0094236863            2 
 4639000   0.51887842   -8.7738177    614.02215  0.011030074 0.0094204408            1 
 4640000   0.51059623    -8.777703    612.87987  0.011007182 0.0094171952            1 
 4641000   0.49892871   -8.7807359    613.08036   0.01100841 0.0094139535            2 
 4642000   0.51779291   -8.7911406    612.69095  0.010999048 0.0094107118            2 
 4643000   0.51934218   -8.7822933    612.73172   0.01099741 0.0094074703            2 
 4644000   0.50173634   -8.7777363    612.87293  0.010997576 0.0094042307            2 
 4645000   0.51134201   -8.7879724    612.29813  0.010984896 0.0094009891            1 
 4646000   0.50884752   -8.7657828    613.65405  0.011006853 0.0093977513            1 
 4647000   0.50680012    -8.800188    612.79955  0.010989161 0.0093945147            2 
 4648000   0.51165985   -8.7775814    612.68875   0.01098481 0.0093912803            1 
 4649000   0.50371579   -8.7672692    612.95871  0.010987286 0.0093880489            3 
 4650000   0.51265426   -8.7956184    612.56643  0.010977893 0.0093848156            3 
 4651000   0.50274382   -8.7791157    612.96192  0.010982619 0.0093815841            1 
 4652000   0.51815744   -8.7732613    613.01938  0.010981287 0.0093783586            2 
 4653000   0.51502802   -8.7825708    613.34844  0.010984821 0.0093751319            1 
 4654000   0.51218282   -8.7938646    612.77137  0.010972127 0.0093719079            2 
 4655000   0.50058822   -8.7953018    612.61505  0.010966972 0.0093686829            2 
 4656000   0.49869568   -8.7693337    613.24102   0.01097582 0.0093654569            2 
 4657000   0.50773132   -8.7940374    611.65818   0.01094514 0.0093622317            1 
 4658000   0.50974493   -8.8137509    612.53222  0.010958427 0.0093590106            1 
 4659000   0.50348679   -8.7762192    612.82522  0.010961315 0.0093557893            3 
 4660000   0.49320099     -8.80299    612.80747  0.010958646 0.0093525703            1 
 4661000   0.50266307   -8.7728276    612.61316  0.010952821  0.009349351            1 
 4662000   0.49429309   -8.7894244    612.07004  0.010940763 0.0093461349            2 
 4663000   0.50527625   -8.7871153     612.8595  0.010952525 0.0093429215            2 
 4664000   0.50996137   -8.7842893    612.50432  0.010943831  0.009339709            1 
 4665000   0.49784338   -8.7938334    612.73246   0.01094556 0.0093364988            1 
 4666000   0.49178308   -8.7781969    612.55427  0.010940032 0.0093332901            1 
 4667000   0.50614769   -8.7943038    613.04271  0.010946409 0.0093300806            2 
 4668000   0.50950397   -8.7970435    612.27587  0.010930375 0.0093268747            2 
 4669000   0.49612017   -8.7705084    613.69943  0.010953442 0.0093236679            2 
 4670000   0.49664489   -8.7972185    612.86709  0.010936243 0.0093204652            1 
 4671000   0.50704547   -8.7852363    612.66286  0.010930259 0.0093172605            1 
 4672000   0.49951909   -8.7918355    612.46984  0.010924476 0.0093140577            1 
 4673000   0.50717466   -8.7984264    612.38845  0.010920687 0.0093108551            2 
 4674000   0.50037737    -8.775556     612.7962   0.01092562  0.009307656            2 
 4675000   0.51029994    -8.795904    612.78589    0.0109231 0.0093044556            3 
 4676000   0.50876229   -8.7984783    612.45734  0.010914908 0.0093012588            1 
 4677000   0.49317111   -8.7987185     613.5617  0.010932252 0.0092980635            2 
 4678000   0.50179211    -8.801423     612.3928  0.010909092 0.0092948689            2 
 4679000   0.50491886   -8.7799096    613.94686  0.010934439 0.0092916761            1 
 4680000   0.49415867   -8.7861532    612.80545  0.010911778 0.0092884845            3 
 4681000   0.50308479   -8.8109574    612.04482  0.010895906 0.0092852911            2 
 4682000   0.51662792   -8.7861756    612.50531  0.010901775 0.0092821008            1 
 4683000   0.49484893   -8.7865307    612.27974  0.010895433 0.0092789132            2 
 4684000   0.50394548   -8.8094711    611.82431  0.010885004 0.0092757269            2 
 4685000   0.50491039   -8.8075902    613.18194  0.010906829 0.0092725418            1 
 4686000   0.49464305   -8.8060861    612.10891   0.01088542 0.0092693571            1 
 4687000   0.50708558   -8.8025329    611.85173  0.010878524  0.009266176            2 
 4688000   0.51302923   -8.7981663    612.31961  0.010884521 0.0092629935            1 
 4689000   0.49947912   -8.8148119    611.11337  0.010860762 0.0092598107            2 
 4690000   0.49635407   -8.7937798    612.51255  0.010883308 0.0092566327            2 
 4691000   0.48359604   -8.8018444    612.35038  0.010878107 0.0092534539            3 
 4692000   0.49831159   -8.7958774    612.35756  0.010875916 0.0092502784            1 
 4693000   0.49542617   -8.8011189    612.28548  0.010872318 0.0092471013            2 
 4694000   0.50504066    -8.802193    612.41119  0.010872234 0.0092439259            2 
 4695000   0.50485396   -8.7937283    612.95698  0.010879606  0.009240756            3 
 4696000   0.49504897   -8.7981234    613.01811  0.010878374 0.0092375858            2 
 4697000   0.49180241   -8.7866387    613.16973  0.010878748 0.0092344169            3 
 4698000   0.49994393   -8.7763133    611.84583  0.010852949  0.009231247            4 
 4699000   0.49462212   -8.7905626    612.70281  0.010865837 0.0092280811            1 
 4700000   0.50055674    -8.803103    612.82743  0.010865735 0.0092249166            2 
 4701000   0.49203088   -8.8028644    611.57524  0.010841226 0.0092217482            1 
 4702000   0.49278876   -8.7837686    613.15175  0.010866861 0.0092185836            3 
 4703000   0.49688595   -8.7995188    612.20673  0.010847805 0.0092154229            1 
 4704000   0.49270742   -8.7985849    611.82445  0.010838727 0.0092122626            2 
 4705000   0.50452264   -8.7924432    612.41493  0.010846881 0.0092091052            3 
 4706000   0.48899894   -8.7843322    611.98687  0.010836996 0.0092059477            1 
 4707000   0.50602077   -8.8015073    613.00159  0.010852659 0.0092027943            2 
 4708000   0.49720019   -8.8049342    612.49265  0.010841345 0.0091996372            2 
 4709000   0.50562766   -8.8047696    612.07968  0.010831735 0.0091964812            2 
 4710000     0.499954   -8.7987942    612.24992  0.010832447 0.0091933297            2 
 4711000   0.49391012   -8.8034079    612.41031  0.010832985 0.0091901771            2 
 4712000   0.50206783   -8.7993688    612.46125  0.010831587 0.0091870266            1 
 4713000   0.49663742   -8.8037457    611.52824  0.010812792 0.0091838804            1 
 4714000   0.50091561   -8.8098232    611.81369  0.010815544 0.0091807366            1 
 4715000   0.51339628   -8.7950022    612.53428  0.010825986 0.0091775918            2 
 4716000   0.49253482   -8.8189781    611.85059  0.010811609  0.009174447            1 
 4717000   0.50519691   -8.7992244    611.99716  0.010811907 0.0091713035            3 
 4718000    0.5030612   -8.7956867    613.03002  0.010827858 0.0091681617            2 
 4719000   0.48239426   -8.8100327    612.19977  0.010810902 0.0091650198            2 
 4720000   0.49364235   -8.8082595    611.00812  0.010787573 0.0091618811            1 
 4721000    0.4864592   -8.8007792     611.9006  0.010801041 0.0091587431            2 
 4722000   0.50148744   -8.8110517    612.47549    0.0108089 0.0091556043            1 
 4723000   0.49772745    -8.799062    612.91587  0.010814381  0.009152469            1 
 4724000   0.48784714   -8.8017794     611.5034  0.010787175 0.0091493393            3 
 4725000   0.49206478   -8.8031836    612.02947  0.010794171 0.0091462079            1 
 4726000   0.50465902   -8.7977122    612.97625  0.010808581 0.0091430785            2 
 4727000   0.50206692   -8.8317144    612.66352  0.010800781 0.0091399505            2 
 4728000   0.50482947   -8.8016125    611.66536  0.010780904 0.0091368226            2 
 4729000   0.49573849   -8.8003381     612.6609  0.010796167 0.0091336948            1 
 4730000   0.48967821   -8.8200396    612.70701  0.010794697 0.0091305702            2 
 4731000   0.50038212   -8.8018228    611.61968  0.010773263 0.0091274468            1 
 4732000   0.50247652   -8.8115966    612.42412  0.010785153 0.0091243233            2 
 4733000    0.5018721   -8.8145664     612.5263  0.010784673 0.0091212039            1 
 4734000   0.49992101   -8.8088742    613.00595  0.010790838 0.0091180857            3 
 4735000   0.48771695    -8.810292    612.01276   0.01077108 0.0091149672            3 
 4736000    0.5082374   -8.8181812    611.81903  0.010765397 0.0091118451            2 
 4737000   0.49588285   -8.8140511    612.61716  0.010777165 0.0091087263            1 
 4738000   0.49407018   -8.8186408    612.32339  0.010769723 0.0091056107            2 
 4739000   0.48316736   -8.8013934    611.02825  0.010744676 0.0091024945            1 
 4740000   0.49969223   -8.8246889    613.09635  0.010778768  0.009099383            2 
 4741000   0.48769375   -8.8197062    611.80642  0.010753822 0.0090962727            2 
 4742000   0.48742676   -8.8053525    611.91427  0.010753449  0.009093163            6 
 4743000   0.48055344   -8.8349689     612.0046  0.010752769 0.0090900566            1 
 4744000   0.49635057   -8.8020394     612.4684   0.01075865 0.0090869472            2 
 4745000   0.49505158   -8.7981195    612.31383  0.010753667 0.0090838428            3 
 4746000   0.49590235   -8.8094882    611.29254  0.010733469 0.0090807404            3 
 4747000   0.48541391   -8.8102916    611.68379  0.010738076 0.0090776385            2 
 4748000   0.47789237   -8.8185695    611.70528  0.010736192 0.0090745344            2 
 4749000   0.49270084   -8.8168503    611.90986  0.010737521 0.0090714322            1 
 4750000   0.48902817   -8.8133964    612.24905  0.010741211 0.0090683299            1 
 4751000   0.49212201   -8.8060514    612.17041  0.010737571 0.0090652313            3 
 4752000   0.48637087   -8.8139567    612.42502  0.010739777 0.0090621342            1 
 4753000   0.48610623    -8.818243    612.54808  0.010739675 0.0090590405            1 
 4754000   0.49741452   -8.8323725    611.35524  0.010716506 0.0090559466            1 
 4755000   0.49227142   -8.8215273    611.42576  0.010715488  0.009052856            2 
 4756000   0.48573817   -8.8175462    612.51183  0.010732265 0.0090497643            1 
 4757000   0.49620384   -8.8148378    612.67806  0.010732921 0.0090466737            1 
 4758000   0.48121201   -8.8071744    612.34705  0.010724868 0.0090435873            3 
 4759000   0.48762355   -8.8269836    611.07188  0.010700285 0.0090405001            2 
 4760000   0.50157435    -8.829378    612.26644   0.01071895 0.0090374131            1 
 4761000   0.50054995   -8.8159224    612.95319  0.010728719 0.0090343309            1 
 4762000   0.48818749   -8.8319607    612.30129  0.010715058 0.0090312468            1 
 4763000   0.48887939   -8.7976059    611.27775  0.010694901 0.0090281656            2 
 4764000   0.49853686   -8.8032343    612.31664  0.010710828 0.0090250876            2 
 4765000   0.50327591   -8.8114698    611.43967  0.010693244 0.0090220104            1 
 4766000   0.49281353   -8.8063636     611.7391  0.010696235 0.0090189322            2 
 4767000   0.48337589   -8.8293076    610.92423  0.010679747 0.0090158522            1 
 4768000    0.4926143   -8.8297061    611.66634  0.010690477 0.0090127747            1 
 4769000   0.49919372   -8.8209428    611.24817  0.010680928 0.0090096986            1 
 4770000   0.49510885   -8.8173816    611.58159  0.010684514 0.0090066231            2 
 4771000   0.48998835   -8.8204054    611.87309  0.010687366 0.0090035505            1 
 4772000    0.4817556   -8.8061794    611.69251  0.010681973 0.0090004813            2 
 4773000   0.49865551   -8.8184914     611.1556  0.010670361  0.008997413            2 
 4774000   0.49029694    -8.826646    612.90559  0.010698673 0.0089943458            3 
 4775000    0.4812718   -8.8327428    611.83269  0.010677708 0.0089912755            2 
 4776000   0.47872479   -8.8182502    611.19557  0.010664356 0.0089882086            3 
 4777000   0.48554772   -8.8358562    611.84252  0.010673409  0.008985144            1 
 4778000    0.4859363   -8.8116471    610.66881  0.010650705 0.0089820811            1 
 4779000   0.48098677   -8.8085133     611.8006  0.010668212 0.0089790164            3 
 4780000   0.47624433   -8.8131882    611.94479  0.010668494 0.0089759574            2 
 4781000   0.47256365   -8.8125748    611.41688  0.010657061 0.0089728972            1 
 4782000   0.48298402   -8.8255501    612.13488  0.010667344 0.0089698395            1 
 4783000    0.4878184   -8.8335152    611.84037  0.010659983 0.0089667844            2 
 4784000   0.48721066   -8.8167363    611.26731  0.010647772 0.0089637327            1 
 4785000   0.50174593   -8.8134899    611.08405  0.010642356  0.008960681            2 
 4786000   0.47753036   -8.8281773    611.24877     0.010643 0.0089576303            2 
 4787000   0.49065028   -8.8205026    611.41716  0.010643708 0.0089545794            2 
 4788000   0.49820486    -8.824835    611.81856  0.010648471 0.0089515297            1 
 4789000   0.49019851   -8.8304452     612.4485  0.010657209 0.0089484829            1 
 4790000   0.48418529   -8.8361215    611.93837   0.01064611 0.0089454388            1 
 4791000    0.4953796   -8.8151313    611.81463  0.010641735 0.0089423954            1 
 4792000   0.48167901   -8.8250015    611.79022   0.01063909 0.0089393541            2 
 4793000   0.48832139   -8.8231221    611.23544  0.010627224 0.0089363128            2 
 4794000    0.4785145   -8.8341868    611.29537  0.010626049 0.0089332705            2 
 4795000   0.47536977   -8.8133696    612.12933  0.010638327 0.0089302338            2 
 4796000   0.47888045   -8.8361447     611.8365  0.010631021 0.0089271958            2 
 4797000   0.49394106   -8.8216856    611.62854  0.010625192 0.0089241581            1 
 4798000   0.48483223   -8.8305098    611.71874  0.010624544 0.0089211252            2 
 4799000   0.48453768   -8.8243495    611.90025  0.010625482 0.0089180936            1 
 4800000   0.48756096   -8.8364093    612.63326  0.010635994 0.0089150594            2 
 4801000   0.47349271   -8.8291624    611.88686  0.010620823 0.0089120272            2 
 4802000   0.47918134   -8.8294647    611.92108  0.010619205 0.0089089981            3 
 4803000   0.46795871   -8.8375797     611.1628  0.010603838 0.0089059693            2 
 4804000   0.49226474   -8.8079472    612.44826  0.010623929 0.0089029431            2 
 4805000   0.47969544   -8.8183179    612.54936  0.010623471 0.0088999191            2 
 4806000   0.48855491   -8.8182701    611.88054  0.010609664 0.0088968956            4 
 4807000   0.48859257    -8.829781    611.65428  0.010603534 0.0088938717            2 
 4808000   0.47306033   -8.8064169    612.33336  0.010613099 0.0088908512            2 
 4809000   0.49519561   -8.8298484    611.45564  0.010595682 0.0088878317            1 
 4810000   0.48135061   -8.8293534    611.55912  0.010595272 0.0088848142            1 
 4811000   0.47024189   -8.8296055    610.89045  0.010581488 0.0088817953            2 
 4812000   0.48556207   -8.8359236    612.20015   0.01060197 0.0088787792            1 
 4813000   0.47317874   -8.8265868    611.53295  0.010588215 0.0088757637            1 
 4814000   0.47702436   -8.8244409    611.36947  0.010583186 0.0088727478            1 
 4815000   0.47865945   -8.8143575    611.75693  0.010587693  0.008869731            1 
 4816000   0.47012049   -8.8277958    611.78082  0.010585908 0.0088667177            1 
 4817000   0.46597404   -8.8162982    610.29187  0.010557952 0.0088637054            1 
 4818000   0.47721321   -8.8236968    612.04129  0.010586019 0.0088606955            2 
 4819000   0.47823234   -8.8300413    611.70632   0.01057803 0.0088576895            1 
 4820000    0.4870512   -8.8288278     612.0033   0.01058097 0.0088546815            2 
 4821000   0.48458226   -8.8364046    611.26097  0.010565944 0.0088516717            1 
 4822000   0.47628661   -8.8478764    611.44001  0.010566847  0.008848667            1 
 4823000   0.47455439   -8.8269272    611.52407  0.010566108 0.0088456601            1 
 4824000   0.47108943   -8.8259712    611.72805  0.010567441 0.0088426563            2 
 4825000   0.48525386   -8.8293762     611.3053   0.01055795 0.0088396556            2 
 4826000   0.47933847   -8.8377018    611.68008  0.010562234 0.0088366527            3 
 4827000   0.47557337   -8.8269085    610.89713  0.010546529  0.008833655            2 
 4828000    0.4770015    -8.822258    611.34818   0.01055213 0.0088306587            1 
 4829000   0.47626841   -8.8182646    611.80853  0.010557889 0.0088276614            2 
 4830000   0.47502295   -8.8443596    611.25765  0.010546198 0.0088246653            1 
 4831000   0.47358776   -8.8372959    611.26602   0.01054416 0.0088216713            1 
 4832000   0.47338968   -8.8344791    611.48036  0.010545674 0.0088186791            3 
 4833000   0.48267083   -8.8365281    610.40519  0.010524953 0.0088156896            3 
 4834000   0.49307347   -8.8368404    612.22138  0.010554085 0.0088126959            1 
 4835000   0.47766564   -8.8323453    612.23294  0.010552102  0.008809707            2 
 4836000   0.47848131   -8.8324217    611.63547  0.010539624 0.0088067175            2 
 4837000   0.48202418   -8.8404182    611.40465  0.010533469 0.0088037303            2 
 4838000   0.48352202   -8.8493699    611.07063  0.010525538 0.0088007439            2 
 4839000   0.48310435   -8.8456507    609.93074  0.010503733 0.0087977623            1 
 4840000   0.49110706   -8.8367232    611.82271  0.010534138 0.0087947801            1 
 4841000   0.46737535   -8.8204047    611.02593  0.010518246 0.0087918016            1 
 4842000   0.48449104   -8.8379695    611.43142  0.010523052  0.008788822            2 
 4843000   0.47164196   -8.8214905    611.74128  0.010526211 0.0087858461            1 
 4844000   0.47357726   -8.8263375    611.30545   0.01051654 0.0087828686            2 
 4845000   0.47912657   -8.8248436    611.31335  0.010514506 0.0087798951            2 
 4846000   0.48907791   -8.8413161    611.59023  0.010517097 0.0087769229            1 
 4847000   0.47130367   -8.8352778    611.48974    0.0105132 0.0087739508            2 
 4848000   0.45840751   -8.8576449    611.00196  0.010502646 0.0087709776            4 
 4849000   0.48181355    -8.832396    610.67605   0.01049488 0.0087680069            2 
 4850000   0.46104111   -8.8329091    611.25127  0.010502599 0.0087650394            1 
 4851000   0.46917595   -8.8490408    610.94859  0.010495235 0.0087620718            2 
 4852000   0.47459466   -8.8510434    611.48273  0.010502245 0.0087591049            2 
 4853000   0.48878765    -8.837576     611.5169  0.010500668 0.0087561368            2 
 4854000   0.47495982   -8.8397242    611.39858  0.010496473 0.0087531721            2 
 4855000   0.47070989   -8.8259236    611.67059   0.01049898 0.0087502066            1 
 4856000   0.47215184   -8.8381399    610.98684  0.010485084 0.0087472452            2 
 4857000     0.470658   -8.8405438    611.85909  0.010497891 0.0087442847            3 
 4858000   0.47661547   -8.8340009    611.94773  0.010497251 0.0087413244            1 
 4859000   0.48552886   -8.8377723    610.57752  0.010471591 0.0087383654            2 
 4860000     0.474385    -8.833727    610.98732  0.010476463 0.0087354098            1 
 4861000   0.46605715   -8.8517756    612.49943   0.01050023 0.0087324544            1 
 4862000    0.4853445   -8.8454083    610.76806  0.010468395 0.0087295021            3 
 4863000   0.47597736    -8.840652    611.21362  0.010473878 0.0087265491            3 
 4864000   0.45937308   -8.8299852    611.38456  0.010474653 0.0087235988            2 
 4865000   0.47107058   -8.8285312    611.31465  0.010471303 0.0087206485            2 
 4866000   0.46593599   -8.8503119    611.03475  0.010464357 0.0087176993            2 
 4867000   0.46842068   -8.8383598     611.2216  0.010465406 0.0087147509            2 
 4868000   0.47192111   -8.8414746    611.50811  0.010468161  0.008711806            2 
 4869000   0.46549031   -8.8418197    610.94297  0.010456339 0.0087088598            2 
 4870000    0.4823979   -8.8385314    611.56387  0.010464816 0.0087059154            2 
 4871000   0.47787521   -8.8533637    609.97898  0.010435554 0.0087029699            4 
 4872000   0.47491387    -8.853035    610.51912   0.01044265 0.0087000286            3 
 4873000   0.46957513   -8.8399389    611.25211  0.010453042 0.0086970883            2 
 4874000   0.47348455   -8.8489223    610.43501  0.010436927  0.008694152            2 
 4875000   0.47249224   -8.8393606    610.51786  0.010436203 0.0086912143            2 
 4876000   0.46338781   -8.8398171    611.84949  0.010456821 0.0086882793            2 
 4877000   0.47655184   -8.8349833    610.88571  0.010438208  0.008685345            1 
 4878000   0.46654943   -8.8351116    611.26412  0.010442533 0.0086824101            2 
 4879000   0.47179743   -8.8414608    611.02234  0.010436263 0.0086794778            2 
 4880000   0.46333484    -8.854621     610.6142  0.010427155 0.0086765451            1 
 4881000    0.4695729   -8.8399417    610.73077  0.010427009 0.0086736147            1 
 4882000   0.47788972   -8.8335031    610.66898  0.010423819 0.0086706855            2 
 4883000   0.48013208   -8.8555212    611.63375  0.010438149 0.0086677578            3 
 4884000   0.46354348   -8.8518311    610.12653  0.010410294 0.0086648294            2 
 4885000   0.47690621   -8.8611117    611.31616  0.010428457 0.0086619038            2 
 4886000   0.46923402   -8.8446015      610.158   0.01040657 0.0086589782            3 
 4887000   0.46010478   -8.8478729    611.22278  0.010422597 0.0086560559            3 
 4888000   0.46842703   -8.8420021    610.42853  0.010406924 0.0086531359            2 
 4889000   0.47337205   -8.8383809    611.30594  0.010419751 0.0086502149            2 
 4890000   0.47835216   -8.8447044    610.35359   0.01040139 0.0086472967            2 
 4891000    0.4757478   -8.8458315    611.50862  0.010418943 0.0086443807            1 
 4892000   0.46817139    -8.846223    611.28978  0.010413086 0.0086414658            2 
 4893000   0.46459184   -8.8570587    611.21775  0.010409731 0.0086385559            1 
 4894000   0.47551501   -8.8236383    611.34818  0.010409825 0.0086356453            2 
 4895000   0.46559951    -8.844374     611.1484  0.010404297 0.0086327332            1 
 4896000   0.46053635   -8.8598881    610.04929  0.010383464 0.0086298209            2 
 4897000   0.46433222   -8.8395897    610.81952  0.010394451  0.008626912            3 
 4898000   0.45728852    -8.834056    610.29198  0.010383353 0.0086240045            3 
 4899000   0.46567785   -8.8527104    610.91373   0.01039181 0.0086210981            1 
 4900000   0.48365062   -8.8511364    610.92461  0.010389874 0.0086181929            1 
 4901000   0.46481998   -8.8444358    610.64123  0.010382936 0.0086152885            2 
 4902000   0.47574148    -8.848449    611.41482  0.010393969 0.0086123842            1 
 4903000   0.47301637   -8.8349597    611.04583  0.010385577 0.0086094829            1 
 4904000     0.467396   -8.8526179    610.66459  0.010376981 0.0086065853            1 
 4905000   0.46761656   -8.8404571    611.46697  0.010388498 0.0086036858            2 
 4906000    0.4618902   -8.8470515    611.02001  0.010378788 0.0086007885            2 
 4907000   0.46963973   -8.8551932     610.9123  0.010374844 0.0085978902            2 
 4908000   0.47478295   -8.8459365    610.36219   0.01036339 0.0085949929            1 
 4909000    0.4726673   -8.8615187    610.66671  0.010366448 0.0085921008            3 
 4910000   0.46712373   -8.8572451    611.87964  0.010384923 0.0085892079            3 
 4911000   0.47478681   -8.8577684    610.70597  0.010362892 0.0085863163            2 
 4912000   0.46759561   -8.8512059    611.09726  0.010367421 0.0085834256            2 
 4913000   0.47488181   -8.8636432    611.44387   0.01037119 0.0085805357            2 
 4914000    0.4698354   -8.8436497    610.16182  0.010347338 0.0085776505            1 
 4915000   0.46213275   -8.8497179    610.46422   0.01035036 0.0085747643            1 
 4916000   0.45957924   -8.8498471    610.33149  0.010346004 0.0085718788            2 
 4917000   0.46583345   -8.8456436    611.34846  0.010361136 0.0085689965            3 
 4918000    0.4721786   -8.8391176    610.34917  0.010342096  0.008566117            2 
 4919000   0.46474338   -8.8397887    611.41526  0.010358055 0.0085632375            1 
 4920000   0.47181409   -8.8437839     611.3991  0.010355676 0.0085603613            2 
 4921000   0.45265486    -8.853127    610.45328  0.010337555 0.0085574843            3 
 4922000   0.46353413   -8.8578538    610.46983  0.010335735 0.0085546089            1 
 4923000   0.45589737   -8.8477375    611.11167    0.0103445 0.0085517346            2 
 4924000   0.45798151   -8.8590469    610.69556  0.010335357 0.0085488596            1 
 4925000   0.45947493   -8.8678559    611.72902  0.010350745 0.0085459887            2 
 4926000   0.46614971   -8.8556333    610.70057  0.010331245  0.008543117            1 
 4927000   0.45733352   -8.8519602    610.59544   0.01032737 0.0085402454            2 
 4928000   0.45982972   -8.8520016    610.55411  0.010324576 0.0085373761            2 
 4929000   0.45877175   -8.8636816    611.27898  0.010334736 0.0085345079            1 
 4930000   0.45479807   -8.8498481    610.41983  0.010318117  0.008531643            2 
 4931000   0.45634642   -8.8632902    610.53594  0.010317987 0.0085287793            2 
 4932000   0.46814896   -8.8396654    610.44003  0.010314275 0.0085259152            2 
 4933000   0.46697994   -8.8267936     611.2326  0.010325573 0.0085230548            1 
 4934000   0.47259268   -8.8625011    610.49801  0.010311073 0.0085201939            1 
 4935000   0.47415816   -8.8541614    610.81257  0.010314295 0.0085173337            2 
 4936000   0.45693095     -8.84427    610.33894  0.010304209 0.0085144728            4 
 4937000   0.47619474   -8.8503518    611.37096  0.010319542 0.0085116149            2 
 4938000   0.45838807   -8.8597325    610.76239  0.010307182 0.0085087568            1 
 4939000   0.45570906   -8.8610621    611.87414  0.010323853 0.0085059017            1 
 4940000   0.45080867   -8.8471009    611.04725  0.010307815 0.0085030477            1 
 4941000   0.46826637   -8.8715715    610.77568  0.010301148 0.0085001934            3 
 4942000    0.4640501    -8.865716     611.1709  0.010305728 0.0084973402            1 
 4943000   0.45852321   -8.8524304    610.54898  0.010293158 0.0084944894            3 
 4944000   0.46731078   -8.8579118    610.45505  0.010289493   0.00849164            2 
 4945000   0.46169291   -8.8604278    610.59529  0.010289776 0.0084887917            1 
 4946000   0.47236628   -8.8594444    609.57821  0.010270559 0.0084859425            1 
 4947000   0.46419855   -8.8507511    610.83954   0.01028973 0.0084830979            1 
 4948000   0.46988235   -8.8637288    610.21175  0.010277077 0.0084802536            1 
 4949000   0.46271433     -8.87616    611.16229  0.010291006 0.0084774101            1 
 4950000   0.46718938   -8.8635043    610.81274  0.010283043 0.0084745696            1 
 4951000    0.4544187   -8.8599356    610.06066  0.010268307 0.0084717277            2 
 4952000   0.45578738   -8.8619433    610.64136  0.010276006 0.0084688873            1 
 4953000   0.45221659   -8.8639627    610.69008  0.010274751 0.0084660489            2 
 4954000   0.45914774   -8.8418741    610.21347  0.010264659 0.0084632142            2 
 4955000    0.4605836   -8.8621577    610.34955  0.010264876 0.0084603785            2 
 4956000   0.45577445    -8.855667    609.18948  0.010243299 0.0084575403            1 
 4957000   0.46199556   -8.8733728    610.82114  0.010268663 0.0084547063            1 
 4958000   0.45586288   -8.8534281    610.51334  0.010261418  0.008451873            3 
 4959000   0.45481129   -8.8630998    610.91717  0.010266135 0.0084490416            2 
 4960000   0.46153911   -8.8675663    610.73002  0.010260921 0.0084462105            2 
 4961000   0.45001454   -8.8707594    610.59224  0.010256538 0.0084433779            1 
 4962000   0.46740897   -8.8571635    610.91469  0.010259887 0.0084405479            2 
 4963000   0.45741714   -8.8631034    610.91781  0.010257872 0.0084377226            2 
 4964000   0.45796731   -8.8538202    610.15022  0.010242919 0.0084348965            3 
 4965000   0.46296224   -8.8756039    611.10267  0.010256842 0.0084320728            1 
 4966000   0.45709259   -8.8548799    610.37693  0.010242598 0.0084292486            1 
 4967000   0.46596259   -8.8684956    610.84598  0.010248406 0.0084264245            3 
 4968000    0.4560892   -8.8760053    611.06601  0.010250034 0.0084236027            2 
 4969000   0.45686792   -8.8540353    610.76657  0.010242949 0.0084207818            1 
 4970000   0.45327844   -8.8680734    610.31198  0.010233266 0.0084179619            1 
 4971000    0.4464049   -8.8547992    610.02802  0.010226447 0.0084151447            2 
 4972000   0.46347356   -8.8586959    610.14966  0.010226429 0.0084123255            2 
 4973000   0.45671002   -8.8573956    610.86281  0.010236323   0.00840951            2 
 4974000   0.44416555   -8.8795197    610.28905  0.010224652 0.0084066945            1 
 4975000    0.4582273   -8.8650491    609.66321  0.010212114 0.0084038813            1 
 4976000   0.44885699   -8.8537323    609.61904  0.010209322 0.0084010696            2 
 4977000   0.45976625   -8.8651189    610.13303  0.010215877 0.0083982588            1 
 4978000   0.45728566     -8.87742    610.35697  0.010217574 0.0083954484            1 
 4979000   0.45311724   -8.8745515    610.97412  0.010225851 0.0083926399            2 
 4980000   0.46636746   -8.8525006    610.82957  0.010221378 0.0083898321            1 
 4981000   0.45172887   -8.8659587    610.28238  0.010210172 0.0083870244            3 
 4982000    0.4489423   -8.8767469     610.8804  0.010218125 0.0083842207            3 
 4983000    0.4427902   -8.8662718    609.53107  0.010193509 0.0083814174            2 
 4984000   0.45236435   -8.8558503    611.36964  0.010222205 0.0083786171            3 
 4985000   0.45764652   -8.8782601    611.02597  0.010214409 0.0083758164            3 
 4986000    0.4575731   -8.8794775    610.08972  0.010196713 0.0083730173            1 
 4987000   0.45374546   -8.8525581    609.67845  0.010187796  0.008370218            1 
 4988000   0.45058722   -8.8717988    610.93133  0.010206685 0.0083674241            2 
 4989000   0.45192019   -8.8606305     610.5205  0.010197777 0.0083646286            1 
 4990000   0.46356726   -8.8708261    610.09389  0.010188609 0.0083618364            2 
 4991000   0.45044715   -8.8617148    610.37501  0.010191261 0.0083590435            1 
 4992000   0.44137673   -8.8719938    610.90396   0.01019805  0.008356251            2 
 4993000   0.44661599   -8.8709802     610.0255  0.010181346  0.008353461            1 
 4994000   0.45321777   -8.8675506    610.38754  0.010185348 0.0083506709            2 
 4995000   0.45274958   -8.8699165    610.49352  0.010185077 0.0083478798            2 
 4996000    0.4445059   -8.8565306    610.41556  0.010181738  0.008345092            2 
 4997000   0.45520135   -8.8719068    611.02966  0.010189942 0.0083423054            5 
 4998000   0.44467403   -8.8690682    610.00471  0.010170813 0.0083395197            2 
 4999000   0.44719979   -8.8687214    611.49216  0.010193575 0.0083367344            2 
 5000000   0.45904849   -8.8605408    609.98753  0.010166459 0.0083339514            3 
 5001000   0.45200786   -8.8769206    610.51786  0.010173263 0.0083311695            3 
 5002000   0.45627856   -8.8697601    609.70822  0.010157741 0.0083283875            2 
 5003000   0.45365187   -8.8656291    610.28884  0.010165382 0.0083256087            2 
 5004000   0.44955346   -8.8677974    611.10954  0.010177017 0.0083228289            3 
 5005000   0.44813611   -8.8768289    609.99859  0.010156487 0.0083200517            1 
 5006000    0.4565677   -8.8776128    610.04783  0.010155278 0.0083172759            2 
 5007000    0.4487861   -8.8868475    610.36175  0.010158474 0.0083144981            1 
 5008000   0.45250106   -8.8719941    610.12333  0.010152478 0.0083117225            1 
 5009000   0.45004714   -8.8736943    608.97667  0.010131375 0.0083089494            1 
 5010000   0.45869712   -8.8777661    609.57134  0.010139244 0.0083061758            2 
 5011000   0.44974007   -8.8677422    610.28094  0.010149021 0.0083034016            1 
 5012000   0.44723075   -8.8629712    610.66545  0.010153389 0.0083006311            2 
Loop time of 12200.6 on 48 procs for 5000000 steps with 4000 atoms

Performance: 70816.218 tau/day, 409.816 timesteps/s
99.4% CPU use with 48 MPI tasks x no OpenMP threads

MPI task timing breakdown:
Section |  min time  |  avg time  |  max time  |%varavg| %total
---------------------------------------------------------------
Pair    | 803.21     | 861.14     | 927.39     |  93.1 |  7.06
Neigh   | 79.42      | 83.113     | 86.312     |  18.0 |  0.68
Comm    | 763.29     | 834.93     | 900.66     | 106.8 |  6.84
Output  | 16.403     | 16.409     | 16.503     |   0.3 |  0.13
Modify  | 10272      | 10295      | 10314      |   8.3 | 84.38
Other   |            | 110        |            |       |  0.90

Nlocal:        83.3333 ave          90 max          76 min
Histogram: 3 2 4 4 7 11 3 7 2 5
Nghost:        2127.92 ave        2142 max        2107 min
Histogram: 1 0 5 7 6 3 7 4 9 6
Neighs:        13993.2 ave       15145 max       12490 min
Histogram: 4 1 4 1 6 9 9 3 7 4
FullNghs:      27986.5 ave       30350 max       25451 min
Histogram: 3 2 5 4 7 11 3 6 3 4

Total # of neighbors = 1343351
Ave neighs/atom = 335.83775
Neighbor list builds = 267322
Dangerous builds = 1

#clear
#
#next RN
#
#jump SELF
Total wall time: 3:23:23
