
units lj                  # Use reduced LJ style units
atom_style atomic         # Uncharged point particles
atom_modify map hash      # Needed for indexing of clusters etc
                          # Used to be able to find where atoms are in relation to each other.

lattice fcc 1.0 spacing 1 1 1
Lattice spacing in x,y,z = 1.5874011 1.5874011 1.5874011
region box block 0 10 0 10 0 10 units lattice
create_box 2 box
Created orthogonal box = (0.0000000 0.0000000 0.0000000) to (15.874011 15.874011 15.874011)
  3 by 4 by 4 MPI processor grid
create_atoms 1 box
Created 4000 atoms
  using lattice units in orthogonal box = (0.0000000 0.0000000 0.0000000) to (15.874011 15.874011 15.874011)
  create_atoms CPU = 0.031 seconds
set type 1 type/fraction 2 0.33 78393
Setting atom values ...
  1342 settings made for type/fraction
mass 1 1.0
mass 2 1.0
pair_style lj/cut  3.5
pair_modify tail  yes
pair_coeff 1  1  1.0  1.0   # Intearaction between 1 and 1 set with epsilon = 1 and sigma = 1
pair_coeff 1  2  1.5  0.8
pair_coeff 2  2  0.5  0.88

write_data data.0
System init for write_data ...
Neighbor list info ...
  update every 1 steps, delay 10 steps, check yes
  max neighbors/atom: 2000, page size: 100000
  master list distance cutoff = 3.8
  ghost atom cutoff = 3.8
  binsize = 1.9, bins = 9 9 9
  1 neighbor lists, perpetual/occasional/extra = 1 0 0
  (1) pair lj/cut, perpetual
      attributes: half, newton on
      pair build: half/bin/atomonly/newton
      stencil: half/bin/3d
      bin: standard
WARNING: Not all mixed pair coeffs generated from mixing. Use write_data with 'pair ij' option to store all pair coeffs. (../write_data.cpp:312)


#############################
#   M E L T   S Y S T E M   #
#############################

velocity all create 2.4 5300450 mom yes dist gaussian # Assign velocities
                                                    # Temperature 2.4, random number seed, zero linear momentum
                                                                                # Gaussian distribution

timestep 0.002   # simulation timestep
thermo 1000       # output thermodynamic data every 1000 steps bf 100

# Define a fix  in this case with index 1 applied to all
# particles in the simulation. This fix is for simulations
# in the anisotropic NPT ensemble. Note that we use the MTK
# correction.
fix 1 all npt temp 2.4 2.4 0.1 iso 5.68 5.68 0.5 mtk yes tchain 5 pchain 5 # Use NPT ensemble
                                                                         # Set temperature and pressure and damping
                                                                         # Numbers of thermostats in chain and in barostat
run 10000          # run for 10000 steps
Per MPI rank memory allocation (min/avg/max) = 3.642 | 3.644 | 3.648 Mbytes
Step Temp E_pair E_mol TotEng Press Volume 
       0          2.4   -6.2616635            0   -2.6625635   -4.0519521         4000 
    1000    2.3798868   -5.0050893            0   -1.4361516    5.6373326    4075.4278 
    2000      2.36331   -5.0381924            0   -1.4941136    5.5492723      4069.83 
    3000     2.406484    -5.033138            0   -1.4243143    5.6888542    4062.2925 
    4000    2.3874508   -4.9959798            0   -1.4156989    5.6923214    4071.2485 
    5000    2.4038324    -5.075773            0   -1.4709259     5.337045    4067.2137 
    6000    2.4033692   -4.9369141            0   -1.3327615    5.9074971    4072.3708 
    7000    2.4291632   -5.0192035            0   -1.3763696    5.4863614    4089.1047 
    8000    2.4074504   -4.9709076            0   -1.3606348    6.0013494    4057.9715 
    9000    2.3845782   -5.0512039            0   -1.4752308    5.4535305    4074.9667 
   10000    2.3847045   -5.0191524            0   -1.4429899    5.5012819    4081.0494 
Loop time of 2.44189 on 48 procs for 10000 steps with 4000 atoms

Performance: 707648.934 tau/day, 4095.191 timesteps/s
99.6% CPU use with 48 MPI tasks x no OpenMP threads

MPI task timing breakdown:
Section |  min time  |  avg time  |  max time  |%varavg| %total
---------------------------------------------------------------
Pair    | 1.0624     | 1.1301     | 1.192      |   2.6 | 46.28
Neigh   | 0.20388    | 0.21175    | 0.22236    |   0.8 |  8.67
Comm    | 0.77987    | 0.83033    | 0.89306    |   3.2 | 34.00
Output  | 0.00024441 | 0.00024892 | 0.00032027 |   0.0 |  0.01
Modify  | 0.22734    | 0.25399    | 0.29369    |   3.1 | 10.40
Other   |            | 0.01551    |            |       |  0.64

Nlocal:        83.3333 ave          95 max          75 min
Histogram: 1 5 7 6 8 12 5 2 1 1
Nghost:        1620.19 ave        1655 max        1580 min
Histogram: 1 1 2 5 14 5 12 5 1 2
Neighs:        9358.60 ave       11151 max        8529 min
Histogram: 8 6 11 8 9 3 1 1 0 1

Total # of neighbors = 449213
Ave neighs/atom = 112.30325
Neighbor list builds = 899
Dangerous builds = 173

# Equilibrate just above the melting temperature to avoid step fn in T

fix 1 all npt temp 1.25 1.25 0.1 iso 5.68 5.68 0.5 mtk yes tchain 5 pchain 5
run 2000
Per MPI rank memory allocation (min/avg/max) = 3.643 | 3.645 | 3.649 Mbytes
Step Temp E_pair E_mol TotEng Press Volume 
   10000    2.3847045   -5.0191524            0   -1.4429899    5.5012819    4081.0494 
   11000    1.2456614   -6.9585317            0   -5.0905067    5.5288024     3256.711 
   12000    1.2300985   -6.9818077            0   -5.1371212    5.8081695    3239.0193 
Loop time of 0.577782 on 48 procs for 2000 steps with 4000 atoms

Performance: 598149.865 tau/day, 3461.515 timesteps/s
99.6% CPU use with 48 MPI tasks x no OpenMP threads

MPI task timing breakdown:
Section |  min time  |  avg time  |  max time  |%varavg| %total
---------------------------------------------------------------
Pair    | 0.25843    | 0.27916    | 0.30246    |   2.0 | 48.32
Neigh   | 0.038982   | 0.040974   | 0.043599   |   0.5 |  7.09
Comm    | 0.18551    | 0.20779    | 0.23198    |   2.5 | 35.96
Output  | 5.1465e-05 | 5.3025e-05 | 6.9395e-05 |   0.0 |  0.01
Modify  | 0.042043   | 0.045061   | 0.048824   |   0.9 |  7.80
Other   |            | 0.004743   |            |       |  0.82

Nlocal:        83.3333 ave          93 max          77 min
Histogram: 6 4 5 9 6 9 6 0 2 1
Nghost:        1887.35 ave        1905 max        1871 min
Histogram: 3 0 11 7 3 9 3 8 2 2
Neighs:        11777.5 ave       13603 max       10318 min
Histogram: 3 3 5 8 10 9 4 4 1 1

Total # of neighbors = 565321
Ave neighs/atom = 141.33025
Neighbor list builds = 144
Dangerous builds = 5

#############################
# L I N E A R  Q U E N C H  #
#############################

# Define solid atoms. This closely follows ten Wolde  Ruiz-Montero and Frenkel  Faraday Discuss  1996  104  93-110
# Compute components of the per-atom q6 vector
compute q6 all orientorder/atom degrees 1 6 components 6 nnn NULL cutoff 1.3 # compute the Q6 parameter.
                                                                             # Use all neighbours within 1.3 unit cell.

# get number of connections
compute coord_number all coord/atom orientorder q6 0.5

# An atom is solid if it has 8 or more connections (of a possible 14)
variable is_solid atom c_coord_number>=8
group solid dynamic all var is_solid    # Must be dynamic to update
dynamic group solid defined

# do clustering
compute cluster solid cluster/atom 1.3 # Create a cluster where all atoms within are solid and max 1.3 units from another member

# define chunks one chunk per cluster
compute clus_chunks solid chunk/atom c_cluster nchunk every compress yes  # Says which atoms are in which chunk

# count the size of each chunk
compute size_chunks solid property/chunk clus_chunks count


# Find the maximum entry in the vector of chunk sizes
variable max_n equal max(c_size_chunks)


# Thermo style which includes this variable
# thermo_style custom step temp pe vol v_max_n

thermo ${N}  # Print the thermo information every 100 steps
thermo 1000  

# Reset the npt fix at a lower temperature (below freezing)
fix 1  all npt temp  ${temp} ${temp}  0.1  iso  5.68  5.68  0.5  mtk yes tchain  5  pchain  5
fix 1  all npt temp  0.45 ${temp}  0.1  iso  5.68  5.68  0.5  mtk yes tchain  5  pchain  5
fix 1  all npt temp  0.45 0.45  0.1  iso  5.68  5.68  0.5  mtk yes tchain  5  pchain  5

dump dmp2 all dcd ${N} traj.dcd
dump dmp2 all dcd 1000 traj.dcd


compute msd all msd com yes
variable twopoint equal c_msd[4]/6/(step*dt+1.0e-6)
fix 9 all vector 10 c_msd[4]
variable fit equal slope(f_9)/6/(10*dt)
thermo_style custom step temp pe c_msd[4] v_twopoint v_fit v_max_n

fix 1 all npt temp 1.25 ${temp} 0.1 iso 5.68 5.68 0.5 mtk yes tchain 5 pchain 5
fix 1 all npt temp 1.25 0.45 0.1 iso 5.68 5.68 0.5 mtk yes tchain 5 pchain 5
run 500000 # 5000000  # Run for this many steps
Neighbor list info ...
  update every 1 steps, delay 10 steps, check yes
  max neighbors/atom: 2000, page size: 100000
  master list distance cutoff = 3.8
  ghost atom cutoff = 3.8
  binsize = 1.9, bins = 8 8 8
  4 neighbor lists, perpetual/occasional/extra = 1 3 0
  (1) pair lj/cut, perpetual
      attributes: half, newton on
      pair build: half/bin/atomonly/newton
      stencil: half/bin/3d
      bin: standard
  (2) compute orientorder/atom, occasional
      attributes: full, newton on
      pair build: full/bin/atomonly
      stencil: full/bin/3d
      bin: standard
  (3) compute coord/atom, occasional
      attributes: full, newton on
      pair build: full/bin/atomonly
      stencil: full/bin/3d
      bin: standard
  (4) compute cluster/atom, occasional
      attributes: full, newton on
      pair build: full/bin/atomonly
      stencil: full/bin/3d
      bin: standard
Per MPI rank memory allocation (min/avg/max) = 9.815 | 9.820 | 9.823 Mbytes
Step Temp PotEng c_msd[4] v_twopoint v_fit v_max_n 
   12000    1.2300985   -6.9818077 3.9443045e-34 2.7391003e-36 8.3333333e+20            2 
   13000    1.2476487   -6.9655465   0.49082904 0.0031463399  0.039926469            1 
   14000    1.2345687   -6.9284752   0.95531317 0.0056863877  0.039189207            2 
   15000    1.2407707   -6.9168862    1.4453264 0.0080295907  0.039540584            1 
   16000     1.234557   -6.9629227    1.8933848 0.0098613787  0.039502376            1 
   17000    1.2298574   -7.0059244    2.4077483  0.011802688  0.039630644            5 
   18000    1.2535008   -6.9717138    2.9662429  0.013732605  0.040523212            2 
   19000    1.2299425   -6.9509813    3.3810849  0.014829319   0.04080255            2 
   20000    1.2433036   -6.9451648    3.8323453  0.015968105   0.04038808            1 
   21000    1.2518017   -6.9946807    4.3530324  0.017273938   0.04017152            1 
   22000    1.2246272   -6.9657732     4.786177  0.018129458  0.040002122            2 
   23000    1.2348845   -6.9600927    5.2255571  0.018933178  0.039763851            1 
   24000      1.24697   -7.0296005    5.7162537  0.019848103  0.039591033            2 
   25000    1.2238765   -6.9823571    6.1544571  0.020514857  0.039519177            1 
   26000    1.2177893   -6.9655394    6.6463553   0.02130242  0.039398761            1 
   27000    1.2387189   -7.0318205    7.0840619  0.021864388  0.039361076            2 
   28000    1.2064685   -7.0170223    7.5058101   0.02233872  0.039279285            1 
   29000     1.235908   -7.0609662    7.9338056  0.022798292   0.03911521            1 
   30000     1.239512   -7.0550152    8.3344146  0.023151151  0.038941744            2 
   31000     1.200658   -7.1028541    8.8227672  0.023717116  0.038760077            1 
   32000    1.2146655   -7.0246767    9.1798594  0.023905884  0.038570324            1 
   33000     1.229452   -7.0230987    9.6257848  0.024307537   0.03832721            1 
   34000    1.2165606   -7.0901915    9.9169801  0.024306324  0.038103788            2 
   35000    1.2269078   -7.0233087    10.556655  0.025134894  0.037929689            1 
   36000    1.2203294   -7.0382081    10.970174  0.025393921   0.03783814            1 
   37000    1.2310784   -7.0550736    11.310876  0.025474947  0.037717907            1 
   38000    1.1847914   -7.0105597    11.672594  0.025597794  0.037562656            1 
   39000    1.2160214   -7.0127333    12.030619  0.025706451  0.037345174            1 
   40000    1.1994381   -6.9961319    12.382377  0.025796618  0.037129668            1 
   41000    1.2177513   -7.0346491    12.605393  0.025620717  0.036876556            3 
   42000    1.2084206    -7.052583    12.955139   0.02570464  0.036579743            3 
   43000    1.1999737    -7.090325    13.308473  0.025791614  0.036309361            1 
   44000    1.1955117   -7.0530829    13.793131  0.026123354  0.036072308            2 
   45000    1.2229824   -7.1058839     14.23078  0.026353296   0.03589388            2 
   46000    1.1878292    -7.044227    14.643815   0.02652865  0.035724261            1 
   47000    1.1728987   -7.0858288    14.946014  0.026500025  0.035547827            2 
   48000    1.1849471   -7.0356923    15.295003  0.026553825  0.035374304            1 
   49000    1.2200791   -7.0378482    15.840169  0.026939063  0.035229376            3 
   50000     1.174921   -7.1270705    16.168328  0.026947213  0.035108792            2 
   51000     1.183638   -7.1244253    16.529359  0.027008756  0.035003857            4 
   52000    1.1736979   -7.1058834    17.052144  0.027327154  0.034916117            2 
   53000    1.1894948   -7.1041797    17.280658  0.027170846  0.034827272            2 
   54000      1.16827   -7.1038269    17.669716   0.02726808  0.034718737            1 
   55000    1.1903753   -7.0832785    18.032523  0.027322004  0.034599171            1 
   56000    1.1970955   -7.0912013    18.257383  0.027168724  0.034474113            3 
   57000    1.1909865   -7.0513621    18.611661  0.027210031  0.034333445            1 
   58000    1.1601269    -7.089011    19.041668  0.027358717  0.034213623            3 
   59000    1.1590694   -7.0893078    19.564569  0.027633572  0.034110916            2 
   60000    1.1635883   -7.1498418    19.917044  0.027662561  0.034029413            4 
   61000    1.1719663   -7.1153841    20.267966  0.027688477  0.033940488            1 
   62000    1.1612771   -7.0912261    20.688832  0.027807569  0.033860329            3 
   63000    1.1743168   -7.0832492    21.060741  0.027858123  0.033772363            4 
   64000    1.1628238   -7.1025469    21.354164  0.027804901  0.033687977            2 
   65000    1.1715691    -7.173175    21.378512  0.027408348  0.033579581            1 
   66000    1.1701973   -7.1479328    21.734165  0.027442127  0.033442466            1 
   67000    1.1478827   -7.1115777    22.051056  0.027426687   0.03330925            2 
   68000    1.1482014   -7.1367064    22.507438  0.027582644  0.033195056            2 
   69000     1.163818    -7.138021     22.96679  0.027737668  0.033091794            2 
   70000    1.1895615   -7.1024042    23.436374  0.027900445  0.033007529            1 
   71000    1.1523262   -7.1587954    23.784443  0.027916012  0.032945634            2 
   72000    1.1323234   -7.1331562     24.31382  0.028140995  0.032901452            1 
   73000    1.1415128   -7.1168149    24.821973  0.028335585  0.032860868            4 
   74000     1.182299   -7.1888231    25.079908   0.02824314  0.032820988            1 
   75000    1.1641305   -7.1664855    25.418575  0.028242861  0.032781104            1 
   76000    1.1310948   -7.2092645    25.604224  0.028074807  0.032733776            1 
   77000    1.1394328   -7.2023678    25.987305  0.028124789  0.032673264            1 
   78000    1.1416955   -7.1934264    26.251291  0.028046251   0.03261205            1 
   79000    1.1372432   -7.2115173    26.712225  0.028177453  0.032550991            1 
   80000    1.1641247    -7.161479    27.099901  0.028229063  0.032495039            2 
   81000    1.1381013   -7.2339676    27.299653  0.028086063  0.032441189            2 
   82000    1.1265742   -7.1977609    27.742774  0.028193876  0.032388549            1 
   83000    1.1422424   -7.1821578    27.827958  0.027939717  0.032324199            1 
   84000    1.1415719    -7.210789    28.251883  0.028027662   0.03224664            2 
   85000    1.1419146   -7.1958959    28.618014  0.028056877  0.032170711            5 
   86000    1.1545871   -7.1754756    28.847526  0.027953029  0.032098993            1 
   87000    1.1418774   -7.2519589    29.027353  0.027803978  0.032021651            1 
   88000    1.1023712   -7.1940139    29.344624  0.027788469  0.031938032            2 
   89000    1.1164472   -7.2258336    29.622572   0.02773649  0.031851443            1 
   90000    1.1213542   -7.2199026    29.940332   0.02772253  0.031765115            1 
   91000    1.1264056   -7.2528934    30.224101  0.027677748  0.031676906            3 
   92000    1.1170413   -7.2070919    30.639798   0.02775344  0.031591362            2 
   93000    1.1338791   -7.2389499    30.765553    0.0275677  0.031509023            4 
   94000    1.1098641   -7.2160913    31.101708  0.027572436  0.031426447            2 
   95000    1.1258131   -7.2681776    31.373458  0.027520577  0.031342347            3 
   96000    1.1124605    -7.245308    31.713181  0.027528803   0.03125927            5 
   97000    1.1202399   -7.3112894    31.889336  0.027396337   0.03117109            2 
   98000    1.1294706   -7.2586858    32.171493  0.027356712  0.031084036            2 
   99000    1.1070194    -7.266838    32.493996  0.027351848  0.030995609            1 
  100000    1.1210321    -7.254586    32.827108  0.027355924  0.030908818            1 
  101000    1.1059186   -7.3072437    33.216611  0.027406445  0.030825359            1 
  102000    1.1207776   -7.2847123    33.514157  0.027380847  0.030746253            2 
  103000    1.1178542   -7.2642236    33.815714  0.027358992  0.030669539            2 
  104000    1.0715619   -7.3366361    34.083688  0.027310647  0.030592389            1 
  105000    1.0753812    -7.318833    34.201132  0.027143755   0.03050948            2 
  106000    1.1114927   -7.2607022    34.810185  0.027366497  0.030430222            1 
  107000    1.1117066   -7.2892329    34.857412  0.027147517  0.030355508            1 
  108000    1.0976669   -7.3299729     35.02423  0.027024869  0.030271618            1 
  109000    1.0912776   -7.3013765    35.423157  0.027081924  0.030190437            1 
  110000    1.0792673   -7.3268597     35.74343  0.027078356  0.030112452            1 
  111000    1.1004815   -7.3307583    36.067177   0.02707746  0.030038362            3 
  112000    1.0913925   -7.2617196    36.265923  0.026983574   0.02996212            1 
  113000    1.0634587   -7.3069663      36.3189   0.02678385  0.029880032            2 
  114000    1.0905267   -7.2974278    36.681856  0.026814222   0.02979646            1 
  115000    1.0720892   -7.3261945    36.884418  0.026727839  0.029714002            2 
  116000    1.0898419    -7.336034    37.253479  0.026762557  0.029631711            5 
  117000    1.0725294   -7.3114465    37.480612  0.026695593  0.029550303            1 
  118000     1.070486   -7.3798522    37.903697  0.026768147  0.029473589            2 
  119000    1.1006635   -7.3603441    38.140474  0.026709015  0.029400347            3 
  120000     1.089943   -7.3713563    38.535527  0.026760783  0.029330877            3 
  121000    1.0916122   -7.3445259    38.882323   0.02677846  0.029263224            3 
  122000    1.0762706   -7.3414966    39.053861  0.026676134  0.029195303            2 
  123000    1.0904633   -7.3366578    39.433164  0.026716236  0.029128846            1 
  124000    1.0583262   -7.3487335    39.635158   0.02663653  0.029061193            1 
  125000    1.0732988   -7.3718201    39.860129  0.026573419  0.028992907            1 
  126000    1.0480242   -7.3477474     39.97099   0.02643584  0.028923888            2 
  127000    1.0844088   -7.3941994    40.145651  0.026342291  0.028850174            1 
  128000    1.0728509   -7.3744894    40.341561  0.026264037  0.028772513            1 
  129000    1.0551682   -7.3629482    40.619163  0.026239769  0.028694759            1 
  130000     1.061141   -7.3438691    40.687318  0.026081614  0.028616102            3 
  131000    1.0481392   -7.3601651    41.016233  0.026091751  0.028534772            3 
  132000    1.0422292   -7.4247189    41.192179  0.026005163  0.028455275            2 
  133000    1.0666115   -7.3893798    41.616922  0.026075765  0.028378031            4 
  134000     1.062372   -7.3777478    41.889064  0.026050413  0.028301832            3 
  135000     1.030282   -7.3874211    41.873367  0.025847758  0.028225983            2 
  136000    1.0470224   -7.3895905    42.295127  0.025916132  0.028148137            3 
  137000    1.0529435   -7.4471026    42.317537  0.025740594  0.028073487            1 
  138000    1.0425697   -7.3751337    42.824413  0.025860153  0.027996973            2 
  139000    1.0466932   -7.4005873    42.865112  0.025698508  0.027922406            2 
  140000    1.0357649   -7.3979411    43.089327  0.025648409  0.027847364            2 
  141000    1.0355598   -7.4065444    43.293947  0.025587439   0.02777171            2 
  142000    1.0633937    -7.441567    43.476093  0.025514139  0.027694482            3 
  143000    1.0400686   -7.4069725    43.831452  0.025542804  0.027618094            1 
  144000    1.0393131   -7.4390734    43.919082  0.025416135  0.027540902            1 
  145000    1.0600558   -7.4550713    44.104889  0.025347638  0.027465057            2 
  146000    1.0335078    -7.454156    44.421342  0.025354647  0.027390092            2 
  147000    1.0314646   -7.4488773    44.605998  0.025286847  0.027317561            2 
  148000    1.0410687   -7.3942511    44.874459   0.02526715  0.027241334            2 
  149000    1.0128097   -7.4609043    44.799573  0.025055689  0.027163527            2 
  150000    1.0247566   -7.4118967    44.983444  0.024990802  0.027081831            2 
  151000    1.0119467   -7.4499751    45.128865  0.024905554  0.026999722            3 
  152000    1.0309243   -7.4528247    45.377838    0.0248782  0.026917707            1 
  153000    1.0289738   -7.4784538    45.633958  0.024855097  0.026836081            2 
  154000    1.0197589   -7.4458302    45.731126   0.02474628  0.026752576            2 
  155000    1.0319612   -7.4645041    45.935258  0.024696375  0.026670746            1 
  156000    1.0071075   -7.4459953    46.017587  0.024582044  0.026586605            2 
  157000    1.0192658   -7.4627473    46.276517  0.024562907  0.026503123            1 
  158000    1.0232854   -7.4627674    46.571818  0.024563195  0.026420585            1 
  159000    1.0080434   -7.5007857    46.697049  0.024474344  0.026341088            2 
  160000     1.018797   -7.4706308    46.856113  0.024404225  0.026261503            1 
  161000    1.0282271   -7.4806278    46.902373   0.02427659  0.026181835            2 
  162000    1.0060536   -7.5102815    47.286136  0.024324144  0.026101845            3 
  163000    1.0013519   -7.4768677    47.636702  0.024354142  0.026024238            2 
  164000    1.0178541   -7.5209599    47.698042   0.02423681  0.025948982            2 
  165000   0.98419792   -7.5471311    47.976918  0.024230766  0.025874209            2 
  166000    1.0195283   -7.5186303     48.29411  0.024244031  0.025799826            2 
  167000    1.0065184   -7.5218194    48.509532  0.024206353  0.025728938            1 
  168000   0.97795414   -7.5157093    48.799939  0.024206319  0.025659717            3 
  169000    1.0014205   -7.5324557    49.028165  0.024175624  0.025592074            4 
  170000   0.99225606   -7.5581244    49.270788  0.024152347  0.025527481            1 
  171000   0.97927652   -7.5598224    49.338564  0.024044135  0.025461204            1 
  172000    1.0026716   -7.5211489    49.763768  0.024110353  0.025395856            2 
  173000   0.98793729   -7.5564541    49.891962  0.024032737  0.025330434            1 
  174000   0.98062851   -7.5422638    50.021249  0.023956537  0.025264377            2 
  175000   0.99866949   -7.5848147    50.111092  0.023862425   0.02519952            9 
  176000    0.9722171   -7.5299603    50.675381  0.023994025   0.02513565            2 
  177000   0.98144586   -7.5440472    50.573288  0.023810399  0.025073803            2 
  178000   0.97424717   -7.5188962     51.05192  0.023900712  0.025010975            1 
  179000   0.97632605   -7.5764678    51.076177  0.023778481  0.024948965            3 
  180000    0.9727147   -7.5489816    51.272529  0.023737282  0.024887597            1 
  181000   0.98610806   -7.5546102    51.419814  0.023673947    0.0248262            2 
  182000   0.98127781   -7.5534149    51.874508  0.023752064  0.024766892            5 
  183000   0.97032909    -7.592653    51.902377  0.023634962  0.024707851            5 
  184000   0.96597772   -7.5974854    51.997501  0.023549593  0.024645869            3 
  185000   0.99332231   -7.6342019    51.991827  0.023419742  0.024583718            2 
  186000   0.96546454   -7.5773752    52.360183  0.023458863  0.024521538            1 
  187000   0.95860938   -7.5601328    52.626263  0.023451989   0.02446119            1 
  188000   0.97991948   -7.5819704    52.786861  0.023398431  0.024400087            2 
  189000   0.96230674   -7.5951304    52.919964  0.023333317  0.024339641            2 
  190000   0.99825924   -7.6033275    53.086024  0.023283344  0.024279331            2 
  191000   0.98405656   -7.6287857    53.029598  0.023136823  0.024218787            3 
  192000   0.98472169    -7.631876    53.217072  0.023097688  0.024157627            3 
  193000   0.96965663   -7.6084748    53.582428  0.023135764   0.02409652            1 
  194000   0.97191983   -7.5965321    53.781784  0.023102141  0.024036528            5 
  195000   0.97613781   -7.6092749     54.11537  0.023126227  0.023977968            2 
  196000    0.9492574   -7.6000944    54.078352  0.022992497  0.023920425            5 
  197000   0.93393006   -7.5876663    54.369353   0.02299888  0.023862516            3 
  198000   0.95730523    -7.590087    54.762217  0.023048071  0.023805988            1 
  199000   0.94143874    -7.631814     54.79073  0.022944192   0.02374962            2 
  200000   0.95761498   -7.6255849    54.722115  0.022800881  0.023691936            1 
  201000   0.97414885   -7.6192073     54.95729  0.022784946  0.023633744            1 
  202000   0.93241426     -7.62655    54.926839  0.022659587  0.023575681            1 
  203000   0.96326885   -7.6415875    55.315342  0.022707448  0.023517835            4 
  204000   0.96133949   -7.6339879    55.447899  0.022650285  0.023459963            2 
  205000   0.94487406   -7.6783175      55.5955  0.022599797  0.023402584            2 
  206000   0.94141082   -7.6806027    55.910439  0.022617491  0.023346101            1 
  207000   0.92362937   -7.6534267    55.969859  0.022532149  0.023289088            4 
  208000   0.90712255   -7.6538185    56.058961   0.02245952  0.023232674            1 
  209000   0.91375674   -7.6857236    56.044844  0.022346429  0.023173968            2 
  210000   0.92713626   -7.6930741    56.268363  0.022328715  0.023115021            1 
  211000   0.91441941   -7.6721485    56.345185  0.022253232  0.023056448            2 
  212000   0.93809338   -7.6898115    56.505055  0.022211106  0.022997142            4 
  213000   0.91120163   -7.7034655    56.485227  0.022099071   0.02293776            3 
  214000   0.93840067   -7.6899668    56.591448  0.022037168  0.022877283            2 
  215000   0.92092286   -7.7060338    56.881552  0.022047113  0.022817483            3 
  216000   0.92866734   -7.7141864     56.95424  0.021973086  0.022758566            3 
  217000   0.90713728   -7.7346496    56.927516  0.021861565  0.022698511            2 
  218000    0.9140838   -7.7174545    57.141537  0.021843095  0.022638598            2 
  219000   0.91393547   -7.7265076    57.253912  0.021786116  0.022578366            6 
  220000   0.91623092     -7.70213    57.374569  0.021732791  0.022517922            2 
  221000   0.90564568   -7.7613736    57.156805   0.02155234  0.022455472            3 
  222000   0.88537611   -7.7448418    57.338304  0.021523387  0.022392994            1 
  223000   0.92706613   -7.7677026    57.519887  0.021494726  0.022330639            1 
  224000   0.89688168   -7.7479554    57.513563  0.021396415  0.022268069            2 
  225000   0.91579844   -7.7514849    57.652081  0.021352622  0.022205861            3 
  226000   0.89994368   -7.7509026    57.849313  0.021330868  0.022143574            2 
  227000   0.91754933   -7.7319186    58.079386   0.02132136  0.022081952            7 
  228000   0.91309202   -7.7559481    58.020106  0.021206179  0.022020041            2 
  229000   0.91456521   -7.7347974    57.978238   0.02109834  0.021957332            3 
  230000    0.8988891   -7.7621735    58.068137   0.02103918  0.021893466            4 
  231000   0.90450754   -7.8104934     58.23076  0.021006768  0.021830566            1 
  232000   0.91319831   -7.7652283    58.583748  0.021043013  0.021768712            2 
  233000   0.90627639   -7.7958748    58.563081  0.020945308  0.021706614            2 
  234000   0.89114397   -7.8147246    58.384412   0.02079217  0.021644293            3 
  235000   0.91238813   -7.7478374    58.869395  0.020875672  0.021582936            3 
  236000   0.88288884   -7.7860464    58.887854  0.020793734  0.021521929            1 
  237000   0.89061626   -7.7786888      58.9178  0.020716526  0.021461646            2 
  238000   0.90993478   -7.7850012    59.268203  0.020752172  0.021401372            2 
  239000   0.89360017   -7.7582211    59.580447  0.020774214  0.021341237            2 
  240000   0.88708951   -7.8027857    59.503472  0.020660928  0.021280919            2 
  241000   0.88938287   -7.8266997    59.473477  0.020564826  0.021220816            2 
  242000   0.88077004   -7.7751437    59.632651  0.020534659  0.021160345            2 
  243000   0.87075769   -7.7893652    59.921695  0.020549278  0.021101735            3 
  244000   0.88421657   -7.8183068    59.949809  0.020474661  0.021043792            2 
  245000   0.89624996   -7.7950562    60.049673  0.020425059  0.020985109            3 
  246000   0.88440462   -7.8225122    60.126041    0.0203679  0.020926606            3 
  247000   0.86115392   -7.8202218    60.290099  0.020340789  0.020868078            4 
  248000   0.88082227   -7.8460599    60.286541  0.020257574  0.020809456            9 
  249000   0.86745614   -7.8684448    60.273603  0.020171889  0.020750667            2 
  250000   0.86439046   -7.8364477    60.483336  0.020161112  0.020691846            1 
  251000   0.86303347   -7.8457254    60.644242   0.02013421  0.020633832            4 
  252000   0.85494144   -7.8461779    60.967995  0.020161374  0.020576675            2 
  253000   0.86659394   -7.8718252    60.841761  0.020040106  0.020519153            2 
  254000    0.8544464   -7.8353262    60.883278  0.019974829  0.020462122            2 
  255000   0.86090367   -7.8711322    61.082506  0.019961603  0.020403965            2 
  256000   0.86797398   -7.8790845    60.961209  0.019844144  0.020346323            1 
  257000   0.86564732   -7.8824616    61.102925  0.019812881  0.020288544            2 
  258000   0.85059097   -7.8712295    61.095372  0.019733647  0.020230147            1 
  259000   0.85449211   -7.8621194    61.298897   0.01972294  0.020172206            2 
  260000   0.83768671   -7.8544012    61.453841  0.019696744  0.020115226            2 
  261000   0.82498528   -7.8575021    61.448895  0.019619698  0.020057987            1 
  262000   0.85371824   -7.8829077     61.52774  0.019569892  0.020000767            3 
  263000   0.84153782    -7.891305    61.662649  0.019538228  0.019943477            2 
  264000   0.83257439     -7.91747     61.63606  0.019455827  0.019886707            3 
  265000   0.85042716   -7.8978372     61.72134  0.019409226  0.019829406            2 
  266000    0.8652947   -7.9209025    61.762709   0.01934922  0.019772655            2 
  267000   0.83237847   -7.8805574    61.865173  0.019308731  0.019715113            1 
  268000   0.84925266   -7.9390273    61.758192  0.019203418  0.019657478            3 
  269000    0.8508926   -7.9251268    61.886019  0.019171629  0.019599644            1 
  270000   0.82652874   -7.9081889    61.920178  0.019111166  0.019542105            1 
  271000   0.83791973   -7.9059794    62.139474  0.019108079  0.019484284            4 
  272000   0.82154718   -7.9165638    62.163396  0.019045158  0.019426949            3 
  273000   0.83756005   -7.9077314    62.154166  0.018972578  0.019368876            2 
  274000   0.82931884   -7.9312028    62.207701  0.018919617  0.019310746            1 
  275000    0.8307569   -7.9329173    62.183623  0.018843522  0.019252778            2 
  276000    0.8350728   -7.9324718    62.273374  0.018802347  0.019194334            1 
  277000   0.81815697   -7.9412126    62.272082   0.01873408  0.019136426            3 
  278000   0.81779252   -7.9329317    62.563071  0.018753918  0.019079364            3 
  279000   0.81212603   -7.9278628     62.61539  0.018702327  0.019022191            7 
  280000    0.8116675   -7.9911177    62.451424  0.018586733  0.018964868            2 
  281000   0.82955567   -7.9469512    62.524549  0.018542274  0.018907447            4 
  282000     0.792109   -7.9641509    62.562966  0.018487874  0.018850212            2 
  283000   0.82286739   -7.9627168    62.523018  0.018410783  0.018792358            2 
  284000   0.80663429   -7.9893128    62.693942   0.01839611  0.018734647            5 
  285000   0.81160048   -7.9902482    62.695332  0.018331969  0.018677575            2 
  286000   0.83197643   -7.9835326    62.946508  0.018341057  0.018620399            2 
  287000   0.81590736   -8.0399376    62.799368  0.018234428  0.018563583            1 
  288000   0.80554694   -8.0005477    62.969519  0.018220347  0.018506931            3 
  289000   0.80566816   -7.9790114    63.147872  0.018208729  0.018450917            4 
  290000   0.80802733   -7.9932765    63.051127   0.01811814  0.018394493            2 
  291000   0.78413936   -8.0202425    62.960339  0.018029879  0.018338094            4 
  292000   0.81256857   -7.9994118    63.076852  0.018001385  0.018281939            5 
  293000   0.79707912   -8.0006388     63.17694  0.017968413   0.01822569            1 
  294000   0.81672091   -8.0275388    63.098632    0.0178851  0.018169052            2 
  295000   0.79514207   -8.0414581    63.180159  0.017847502  0.018112146            3 
  296000   0.79452419    -8.063853     62.97213   0.01772864  0.018054984            2 
  297000   0.77980906   -8.0536339     63.14112  0.017716364  0.017997737            1 
  298000   0.78918747   -8.0196917     63.15588   0.01766104  0.017940672            2 
  299000    0.7768228   -8.0249544     63.35811  0.017658336  0.017884258            2 
  300000    0.7779526   -8.0524649    63.148192  0.017541165  0.017827743            1 
  301000   0.78196652   -8.0440239    63.517704  0.017585189  0.017771489            4 
  302000   0.80376667   -8.0424905    63.588876  0.017546599  0.017715839            3 
  303000   0.78245172   -8.0445177    63.604086  0.017492873  0.017660307            2 
  304000   0.78409621   -8.0630014    63.458479  0.017395416  0.017604997            3 
  305000   0.76234377   -8.0523586     63.65351  0.017391669  0.017550342            3 
  306000   0.78748171   -8.0812365    63.787928   0.01737144  0.017496261            2 
  307000   0.78595983   -8.0176588    63.886431  0.017341594  0.017442504            1 
  308000   0.77721989   -8.0728771     63.91084  0.017291894  0.017388828            3 
  309000   0.78991927   -8.0865735    64.068657  0.017278494  0.017335065            3 
  310000   0.77757309   -8.1035027    64.012905   0.01720777  0.017281731            3 
  311000   0.76589373   -8.0671855    64.114912  0.017179773  0.017228967            7 
  312000   0.78266878   -8.0744011      63.8493  0.017053766  0.017175788            4 
  313000   0.75685455   -8.0644865    64.049193  0.017052501  0.017122512            2 
  314000   0.76229795   -8.1224883    63.848395  0.016944903  0.017069335            2 
  315000   0.76141505   -8.0883374    64.104195  0.016958782  0.017016308            2 
  316000   0.78360034   -8.1359327    63.975172   0.01687109  0.016963267            3 
  317000   0.75766551   -8.1342658    64.124502  0.016857125  0.016910255            3 
  318000    0.7590728   -8.1443291    64.178644  0.016818303  0.016857076            4 
  319000   0.75689926   -8.0888596    64.174169  0.016764412  0.016804106            2 
  320000   0.76144637   -8.1466762    64.175422   0.01671235  0.016751217            1 
  321000   0.74644228   -8.1265361    64.400509   0.01671872  0.016698868            1 
  322000   0.75470448   -8.1428094    64.204734  0.016616132  0.016646147            2 
  323000   0.73878503   -8.1378583    64.205083  0.016564779  0.016593339            1 
  324000   0.75752417   -8.1390121    64.102857   0.01648736  0.016540291            3 
  325000   0.75350128   -8.1242253    64.275629   0.01648093  0.016487061            4 
  326000   0.73539955   -8.1553074    64.158644  0.016400471   0.01643398            2 
  327000   0.75403398   -8.1031801    64.248041  0.016373099  0.016381052            3 
  328000   0.72306843   -8.1551072    64.232892  0.016319332  0.016328619            1 
  329000   0.76253784   -8.1824476     64.15555  0.016250139  0.016275819            3 
  330000   0.75279492    -8.162884    64.227002   0.01621894    0.0162232            4 
  331000   0.73761514   -8.1813967    64.291844  0.016186265  0.016170946            1 
  332000   0.73954279   -8.1754474    64.360028  0.016154625  0.016118981            3 
  333000   0.72689638   -8.1574411    64.302293  0.016091665   0.01606695            4 
  334000   0.75506814   -8.1470375    64.308736  0.016045094  0.016015141            2 
  335000   0.75252847   -8.1641777    64.408911  0.016022117  0.015963414            2 
  336000   0.72643197   -8.1852328    64.591523  0.016019723  0.015912259            2 
  337000   0.73563451   -8.1619882    64.426908  0.015931481  0.015861416            7 
  338000   0.74634113   -8.1867384    64.530035  0.015909772  0.015810381            1 
  339000   0.72824007   -8.1921873    64.505779  0.015856878  0.015759513            2 
  340000   0.72160737   -8.2047897    64.362943  0.015775231  0.015708487            4 
  341000   0.72718704   -8.2035965    64.511161  0.015765191  0.015657536            3 
  342000   0.69921073   -8.2120819     64.41153  0.015694817  0.015606636            1 
  343000   0.73174269   -8.2346707     64.44676  0.015657619  0.015555907            2 
  344000   0.71435431   -8.2141647    64.448832  0.015612605  0.015505375            2 
  345000    0.7032253   -8.2200671    64.530788  0.015587147   0.01545521            3 
  346000   0.72138497   -8.2206063    64.617206  0.015562911  0.015405036            2 
  347000   0.71507731   -8.2194778    64.726437  0.015544293   0.01535508            1 
  348000   0.72039424   -8.2284191    64.692999  0.015491619  0.015305632            2 
  349000   0.72021717   -8.2510461    64.711791  0.015451717  0.015256237            3 
  350000   0.71070448   -8.2233993    64.807763   0.01543042  0.015206982            2 
  351000   0.69753751   -8.2328132    64.667928  0.015353259  0.015157921            2 
  352000   0.72470849   -8.2550177    64.789468  0.015338416  0.015109012            3 
  353000    0.6966388   -8.2334126     64.74534  0.015284547  0.015060011            2 
  354000   0.70439903    -8.235145    64.835576  0.015262612  0.015011161            2 
  355000   0.70940392   -8.2787626    64.706926  0.015189419  0.014962372            1 
  356000   0.69653381   -8.2546883    64.826952  0.015174848  0.014913833            2 
  357000   0.68732595   -8.2921296    64.710643  0.015105192  0.014865324            4 
  358000   0.71067457   -8.2907112    64.937697  0.015115851  0.014816945            2 
  359000    0.6933469   -8.2949285    64.693013  0.015016948  0.014768929            2 
  360000   0.70081014   -8.2672739    64.795464   0.01499895  0.014720857            2 
  361000   0.67879344   -8.3036205    64.684479  0.014931782  0.014672771            3 
  362000   0.67823295   -8.3060873    64.757399   0.01490732  0.014624828            3 
  363000   0.67691964   -8.2844415    64.919375  0.014903438  0.014577081            1 
  364000   0.68839715   -8.2692042    64.840136  0.014844354  0.014529615            3 
  365000   0.67478077   -8.3186737    64.805032  0.014795669  0.014482081            2 
  366000   0.66834549   -8.3061942    64.777962  0.014749081  0.014434396            2 
  367000   0.67200441   -8.3137945    64.787477  0.014711053  0.014387045            2 
  368000   0.66984694   -8.2849743    64.750691  0.014662747  0.014339902            1 
  369000   0.68929639   -8.3306819    64.932209  0.014664004  0.014292985            2 
  370000    0.6710017   -8.3329197    64.794072  0.014593259  0.014246135            2 
  371000   0.66681761   -8.3398134    64.890062  0.014575486  0.014199369            1 
  372000    0.6761253   -8.3277875     64.81519  0.014519532  0.014152751            2 
  373000   0.66272471   -8.3235154    64.915003  0.014502905  0.014106279            2 
  374000   0.68280811   -8.3566612    64.773991  0.014432707  0.014059962            1 
  375000   0.67331185   -8.3664775    64.807773  0.014401727  0.014013801            2 
  376000   0.65921589    -8.349763    64.893362  0.014382394  0.013967755            2 
  377000   0.66414945   -8.3507981    64.895197   0.01434465  0.013921769            4 
  378000   0.66799927   -8.3667254    64.883138  0.014304043  0.013876053            1 
  379000   0.66183404   -8.3570807    64.956153  0.014282356  0.013830524            1 
  380000   0.66224393   -8.3501646    64.799363  0.014210387  0.013784892            1 
  381000   0.65815182   -8.3679047    64.821692  0.014177973  0.013739436            5 
  382000   0.64931691    -8.373342    64.788972   0.01413372  0.013694004            1 
  383000   0.65378315   -8.3696156    64.850684  0.014110245  0.013648643            3 
  384000   0.65452826   -8.3730219    64.955963  0.014096346  0.013603703            2 
  385000   0.66137236   -8.3722096     64.84682  0.014036108  0.013558829            4 
  386000    0.6491702   -8.4047015    64.843015  0.013998924  0.013514041            5 
  387000   0.64255284   -8.3828692    64.874071  0.013969438  0.013469441            2 
  388000   0.64377922   -8.4026067    64.729848  0.013902459   0.01342491            3 
  389000   0.63849621   -8.4204613    64.597848  0.013838442  0.013380463            2 
  390000    0.6374136    -8.422363    64.703085  0.013825445  0.013336168            2 
  391000    0.6305931    -8.403665    64.926037  0.013837604  0.013291943            2 
  392000   0.64409489   -8.4465711     64.79029  0.013773446  0.013247833            4 
  393000   0.63981287   -8.4276292    64.717394  0.013722942  0.013203781            1 
  394000   0.63560034   -8.4309676    64.803854  0.013706399  0.013160068            1 
  395000   0.63979847   -8.4111582    64.756739  0.013661759  0.013116565            2 
  396000   0.63676215   -8.4326535    64.674537  0.013609961  0.013073146            1 
  397000   0.60979478   -8.4412991    64.785585  0.013598989  0.013029719            3 
  398000   0.62758185   -8.4425205     64.71779  0.013550626  0.012986399            1 
  399000   0.63416627    -8.424197    64.851718  0.013544636  0.012943178            1 
  400000   0.63366617   -8.4224729    64.752177  0.013490037   0.01290021            2 
  401000   0.63510594   -8.4392834    64.825231  0.013471578  0.012857442            2 
  402000   0.61898272   -8.4471812    64.805142  0.013433902  0.012814792            2 
  403000   0.64683579   -8.4626299    64.721188  0.013383207  0.012772307            2 
  404000   0.63786977   -8.4367415    64.826815  0.013371868  0.012729862            2 
  405000   0.62893628   -8.4448165    64.681363  0.013308922  0.012687541            4 
  406000    0.6229336   -8.4593935    64.859337  0.013312672  0.012645432            2 
  407000   0.60306735   -8.4410272    64.880183  0.013284231  0.012603511            1 
  408000   0.62257835   -8.4509603    64.887342  0.013253133  0.012561681            2 
  409000   0.60067044    -8.445474    64.779191  0.013198694  0.012520012            1 
  410000   0.60491829   -8.4674492    64.745803  0.013159716  0.012478576            2 
  411000   0.62259212   -8.4678488    64.695307  0.013117459  0.012437212            4 
  412000   0.62065918   -8.4642647    64.719167  0.013090446  0.012395975            1 
  413000   0.61868603   -8.4755722    64.810202  0.013077119  0.012354847            2 
  414000   0.61238718   -8.4930387    64.742585  0.013031921  0.012313813            2 
  415000   0.60482781   -8.5054431    64.621555  0.012976216  0.012272833            1 
  416000   0.60287267   -8.4900063    64.598685  0.012940442  0.012232072            1 
  417000   0.61020156   -8.5029382    64.611937  0.012912058  0.012191311            2 
  418000   0.59654984   -8.5176391     64.54527  0.012867877  0.012150661            2 
  419000   0.58858386   -8.5177543    64.654785  0.012858947    0.0121102            3 
  420000   0.60574282   -8.5197435    64.691297  0.012835575  0.012069908            2 
  421000   0.60228725    -8.502565    64.636815  0.012794302   0.01202971            1 
  422000   0.58641851   -8.5157443    64.580846  0.012752932  0.011989525            1 
  423000   0.58929943   -8.5169334    64.557398  0.012718164  0.011949533            1 
  424000   0.59189586   -8.5241416    64.619967  0.012700465  0.011909663            2 
  425000   0.58467931   -8.5419596    64.463113  0.012639826  0.011869878            4 
  426000   0.58940698   -8.5477217    64.693287  0.012655181  0.011830281            3 
  427000   0.58593139   -8.5458731    64.622291  0.012611688  0.011790795            1 
  428000   0.58105826   -8.5351357    64.590884  0.012576107  0.011751421            3 
  429000    0.5830519   -8.5420138    64.402159  0.012510132  0.011712223            2 
  430000   0.59500594   -8.5744918    64.505935   0.01250115  0.011673042            1 
  431000   0.58294431   -8.5534225    64.477587  0.012466664  0.011634029            3 
  432000   0.56731489   -8.5727771    64.457036  0.012433842  0.011595178            2 
  433000    0.5827269   -8.5736994    64.356076  0.012385696  0.011556399            1 
  434000   0.57229317   -8.5640073     64.54513  0.012393458  0.011517753            3 
  435000   0.56406586    -8.578891    64.519173  0.012359995  0.011479359            1 
  436000   0.57733573   -8.5594422    64.424407  0.012313533  0.011441106            3 
  437000   0.57058691   -8.5730919    64.527059  0.012304931  0.011403042            2 
  438000   0.57121296   -8.5638648    64.458099  0.012263717  0.011365087            2 
  439000   0.57065004   -8.5765156     64.42445  0.012229394   0.01132718            2 
  440000   0.56568054   -8.5739769    64.491542  0.012214307  0.011289441            1 
  441000   0.56476748   -8.6013199    64.400902  0.012169483   0.01125185            2 
  442000   0.56150447   -8.5753009    64.438283  0.012148998  0.011214478            5 
  443000   0.56867265   -8.5793062    64.389083  0.012112318  0.011177149            3 
  444000   0.54595488   -8.5897428    64.361027  0.012079772  0.011140015            1 
  445000   0.54962615   -8.5972242    64.368323  0.012053993  0.011102984            1 
  446000   0.54817878   -8.5974205    64.503105   0.01205215   0.01106624            1 
  447000    0.5546162   -8.6001693    64.491318   0.01202299  0.011029586            4 
  448000   0.55853085   -8.6180271    64.358431  0.011971434  0.010993112            7 
  449000   0.54675377   -8.6091477    64.381278  0.011949012  0.010956716            3 
  450000   0.53655914   -8.6062198    64.480512  0.011940836  0.010920424            7 
  451000   0.54195429   -8.6206687    64.373213  0.011894533  0.010884299            8 
  452000   0.54185882    -8.622788    64.303951  0.011855448  0.010848287            2 
  453000     0.552003   -8.6236616    64.427676  0.011852037  0.010812457            2 
  454000   0.54377284   -8.6243006    64.294484  0.011801484  0.010776731            5 
  455000   0.53966579   -8.6147942    64.430883  0.011800528  0.010741186            5 
  456000   0.53372599   -8.6378565    64.492701  0.011785947  0.010705792            6 
  457000   0.54476837   -8.6178198    64.302579  0.011725489  0.010670466            3 
  458000   0.52845155   -8.6458577    64.463435  0.011729155   0.01063529            3 
  459000   0.53656724   -8.6253927     64.38923  0.011690129  0.010600148            5 
  460000   0.52540205   -8.6333245    64.211424  0.011632504  0.010565154            4 
  461000     0.543726   -8.6374744    64.360861  0.011634284  0.010530287            5 
  462000   0.52904006   -8.6344163    64.308104  0.011599586  0.010495606            3 
  463000   0.52116114   -8.6436969    64.263282  0.011566465  0.010461054            3 
  464000   0.53561298   -8.6424749    64.363635  0.011559561  0.010426704            8 
  465000   0.52294566   -8.6429685    64.252131  0.011514719  0.010392475            3 
  466000   0.53793971   -8.6417475     64.37728  0.011512389  0.010358434            2 
  467000   0.53258276   -8.6440604    64.375669   0.01148745  0.010324488            2 
  468000   0.53183502   -8.6503842    64.313107  0.011451764   0.01029074            3 
  469000   0.52194472   -8.6458063    64.243585  0.011414994  0.010257043            1 
  470000   0.51195469   -8.6285087    64.340394  0.011407871  0.010223504            4 
  471000   0.51800421   -8.6611887    64.320192  0.011380076  0.010190104            1 
  472000   0.51380384   -8.6552829    64.222196  0.011338665  0.010156755            2 
  473000   0.51116363   -8.6687474    64.340425  0.011335522  0.010123572            4 
  474000   0.51504803   -8.6507761    64.345913  0.011312573  0.010090529            6 
  475000    0.5118023   -8.6585102    64.226962  0.011267888   0.01005759            1 
  476000   0.51342989   -8.6688693    64.245723  0.011247501  0.010024754            2 
  477000   0.50176346    -8.675273    64.264377   0.01122718 0.0099920291            2 
  478000   0.50558088   -8.6893252    64.204436  0.011193242 0.0099594113            5 
  479000   0.51886216   -8.6848039     64.23776  0.011175671 0.0099269539            5 
  480000   0.50118875   -8.6948643     64.16406  0.011139594 0.0098946369            2 
  481000   0.50102518   -8.6685629    64.207796  0.011124012 0.0098624566            4 
  482000   0.50171328   -8.6982196    64.099526  0.011082214  0.009830392            2 
  483000   0.48439413    -8.684883    64.156792   0.01106915 0.0097983985            6 
  484000   0.49135132   -8.6725913    64.089969  0.011034774 0.0097665218            6 
  485000   0.48881281   -8.6983468    64.172348  0.011026177 0.0097347787            2 
  486000   0.49611315   -8.6865658    64.144269  0.010998674 0.0097031519            2 
  487000   0.48169369   -8.6778046    64.220603  0.010989152 0.0096716995            4 
  488000   0.49330542   -8.7062423    64.193249  0.010961962 0.0096403314            4 
  489000   0.48875596   -8.7071741    64.112779  0.010925831 0.0096090713            3 
  490000    0.4819842   -8.6972415    64.020407  0.010887824 0.0095779231            2 
  491000   0.48479703   -8.7081006    64.133053  0.010884768 0.0095469502            3 
  492000   0.48095214   -8.7165429    64.094002   0.01085603 0.0095160857            1 
  493000   0.48326912    -8.703104    64.087806  0.010832962 0.0094853298            2 
  494000   0.47366212   -8.7264103    64.040571  0.010803065 0.0094546829            3 
  495000   0.47982592   -8.7023717    63.939034  0.010764147 0.0094241737            2 
  496000    0.4651176   -8.7223299    64.013582   0.01075497 0.0093937461            4 
  497000   0.47156448   -8.7080744    64.027245  0.010735621 0.0093634187            1 
  498000   0.46881857   -8.7317524    64.027004  0.010714023 0.0093332675            3 
  499000   0.45681414   -8.7309488    64.117421  0.010707652 0.0093031863            3 
  500000   0.47357651   -8.7480815    64.048807  0.010674801 0.0092732412            4 
  501000   0.47327288   -8.7250588     64.01063  0.010647144  0.009243415            1 
  502000    0.4721341   -8.7288446    63.977734  0.010620474 0.0092136972            2 
  503000   0.46443083   -8.7220294    64.055373  0.010612222 0.0091841058            2 
  504000   0.46074617   -8.7402137    64.020343  0.010585374 0.0091546846            1 
  505000   0.46541784   -8.7460613     64.01769  0.010563975 0.0091253456            1 
  506000   0.45436265   -8.7424846    64.038178  0.010546472 0.0090961168            2 
  507000    0.4615049   -8.7441157    63.938081  0.010509218   0.00906699            2 
  508000   0.45413274   -8.7500928    63.976181   0.01049478 0.0090379893            3 
  509000   0.45513468   -8.7620398    63.875739  0.010457718 0.0090090899            4 
  510000   0.45252782   -8.7375351    63.932171  0.010446433 0.0089803273            4 
  511000   0.45207159   -8.7571392     63.92009   0.01042402 0.0089516891            3 
  512000   0.45404567   -8.7602066    63.998004  0.010416342 0.0089231561            2 
Loop time of 1201.48 on 48 procs for 500000 steps with 4000 atoms

Performance: 71911.127 tau/day, 416.152 timesteps/s
99.4% CPU use with 48 MPI tasks x no OpenMP threads

MPI task timing breakdown:
Section |  min time  |  avg time  |  max time  |%varavg| %total
---------------------------------------------------------------
Pair    | 76.396     | 80.994     | 87.877     |  30.9 |  6.74
Neigh   | 7.936      | 8.26       | 8.6698     |   6.8 |  0.69
Comm    | 75.094     | 82.227     | 87.656     |  34.6 |  6.84
Output  | 0.86007    | 0.86061    | 0.86954    |   0.1 |  0.07
Modify  | 1016.3     | 1018       | 1020.7     |   3.3 | 84.73
Other   |            | 11.1       |            |       |  0.92

Nlocal:        83.3333 ave          91 max          76 min
Histogram: 2 3 5 6 10 5 7 3 3 4
Nghost:        2087.00 ave        2119 max        2070 min
Histogram: 6 8 6 12 2 7 5 1 0 1
Neighs:        13692.1 ave       15465 max       12427 min
Histogram: 3 7 9 5 9 4 4 4 1 2
FullNghs:      27383.0 ave       30040 max       24753 min
Histogram: 2 2 7 8 6 9 3 5 1 5

Total # of neighbors = 1314386
Ave neighs/atom = 328.59650
Neighbor list builds = 26756
Dangerous builds = 0

#clear
#
#next RN
#
#jump SELF
Total wall time: 0:20:04
