
units lj                  # Use reduced LJ style units
atom_style atomic         # Uncharged point particles
atom_modify map hash      # Needed for indexing of clusters etc
                          # Used to be able to find where atoms are in relation to each other.

lattice fcc 1.0 spacing 1 1 1
Lattice spacing in x,y,z = 1.5874011 1.5874011 1.5874011
region box block 0 10 0 10 0 10 units lattice
create_box 2 box
Created orthogonal box = (0.0000000 0.0000000 0.0000000) to (15.874011 15.874011 15.874011)
  3 by 4 by 4 MPI processor grid
create_atoms 1 box
Created 4000 atoms
  using lattice units in orthogonal box = (0.0000000 0.0000000 0.0000000) to (15.874011 15.874011 15.874011)
  create_atoms CPU = 0.027 seconds
set type 1 type/fraction 2 0.73 78393
Setting atom values ...
  2936 settings made for type/fraction
mass 1 1.0
mass 2 1.0
pair_style lj/cut  3.5
pair_modify tail  yes
pair_coeff 1  1  1.0  1.0   # Intearaction between 1 and 1 set with epsilon = 1 and sigma = 1
pair_coeff 1  2  1.5  0.8
pair_coeff 2  2  0.5  0.88

write_data data.0
System init for write_data ...
Neighbor list info ...
  update every 1 steps, delay 10 steps, check yes
  max neighbors/atom: 2000, page size: 100000
  master list distance cutoff = 3.8
  ghost atom cutoff = 3.8
  binsize = 1.9, bins = 9 9 9
  1 neighbor lists, perpetual/occasional/extra = 1 0 0
  (1) pair lj/cut, perpetual
      attributes: half, newton on
      pair build: half/bin/atomonly/newton
      stencil: half/bin/3d
      bin: standard
WARNING: Not all mixed pair coeffs generated from mixing. Use write_data with 'pair ij' option to store all pair coeffs. (../write_data.cpp:312)


#############################
#   M E L T   S Y S T E M   #
#############################

velocity all create 2.4 9580093 mom yes dist gaussian # Assign velocities
                                                    # Temperature 2.4, random number seed, zero linear momentum
                                                                                # Gaussian distribution

timestep 0.002   # simulation timestep
thermo 1000       # output thermodynamic data every 1000 steps bf 100

# Define a fix  in this case with index 1 applied to all
# particles in the simulation. This fix is for simulations
# in the anisotropic NPT ensemble. Note that we use the MTK
# correction.
fix 1 all npt temp 2.4 2.4 0.1 iso 5.68 5.68 0.5 mtk yes tchain 5 pchain 5 # Use NPT ensemble
                                                                         # Set temperature and pressure and damping
                                                                         # Numbers of thermostats in chain and in barostat
run 10000          # run for 10000 steps
Per MPI rank memory allocation (min/avg/max) = 3.642 | 3.644 | 3.648 Mbytes
Step Temp E_pair E_mol TotEng Press Volume 
       0          2.4   -4.0230884            0  -0.42398835   -3.6147038         4000 
    1000    2.3542065   -3.5808851            0  -0.05045819    5.9145859    3650.2512 
    2000    2.3315429   -3.5611833            0 -0.064743359    5.7212306    3681.6454 
    3000    2.3966196   -3.5616187            0  0.032412027    5.6094796    3701.8655 
    4000    2.3991258   -3.5556292            0   0.04215984    5.2491086    3758.6627 
    5000    2.4243285     -3.53077            0   0.10481373    5.6517396    3722.0584 
    6000    2.3842263   -3.5651399            0  0.010305415     5.696871    3688.1156 
    7000    2.4001125   -3.5839106            0  0.015358148    5.8418455     3667.086 
    8000    2.3864543   -3.5667902            0  0.011996344    5.8054647    3667.9871 
    9000    2.4223016    -3.531035            0   0.10150903    5.4990135    3727.4189 
   10000    2.4014987   -3.5579695            0  0.043377955    5.6472237     3708.972 
Loop time of 2.62603 on 48 procs for 10000 steps with 4000 atoms

Performance: 658026.922 tau/day, 3808.026 timesteps/s
99.6% CPU use with 48 MPI tasks x no OpenMP threads

MPI task timing breakdown:
Section |  min time  |  avg time  |  max time  |%varavg| %total
---------------------------------------------------------------
Pair    | 1.1487     | 1.2501     | 1.3489     |   3.7 | 47.60
Neigh   | 0.21346    | 0.22186    | 0.23882    |   1.0 |  8.45
Comm    | 0.78839    | 0.89462    | 1.0353     |   5.1 | 34.07
Output  | 0.00024845 | 0.00025391 | 0.00031748 |   0.0 |  0.01
Modify  | 0.21032    | 0.24364    | 0.27234    |   3.7 |  9.28
Other   |            | 0.01555    |            |       |  0.59

Nlocal:        83.3333 ave          93 max          74 min
Histogram: 1 3 4 8 14 5 3 5 4 1
Nghost:        1729.46 ave        1762 max        1690 min
Histogram: 1 0 1 8 10 8 13 3 2 2
Neighs:        10296.9 ave       11633 max        8959 min
Histogram: 3 5 1 8 9 5 5 6 3 3

Total # of neighbors = 494252
Ave neighs/atom = 123.56300
Neighbor list builds = 903
Dangerous builds = 197

# Equilibrate just above the melting temperature to avoid step fn in T

fix 1 all npt temp 1.25 1.25 0.1 iso 5.68 5.68 0.5 mtk yes tchain 5 pchain 5
run 2000
Per MPI rank memory allocation (min/avg/max) = 3.644 | 3.646 | 3.649 Mbytes
Step Temp E_pair E_mol TotEng Press Volume 
   10000    2.4014987   -3.5579695            0  0.043377955    5.6472237     3708.972 
   11000    1.2453345   -5.2833286            0   -3.4157939    5.5108404    2826.3317 
   12000    1.2468193   -5.2747983            0   -3.4050368    5.7098653    2818.6935 
Loop time of 0.652707 on 48 procs for 2000 steps with 4000 atoms

Performance: 529486.932 tau/day, 3064.160 timesteps/s
99.6% CPU use with 48 MPI tasks x no OpenMP threads

MPI task timing breakdown:
Section |  min time  |  avg time  |  max time  |%varavg| %total
---------------------------------------------------------------
Pair    | 0.29156    | 0.3207     | 0.34892    |   2.4 | 49.13
Neigh   | 0.040702   | 0.043626   | 0.045968   |   0.6 |  6.68
Comm    | 0.20754    | 0.23861    | 0.27239    |   3.1 | 36.56
Output  | 5.2828e-05 | 5.4334e-05 | 6.9691e-05 |   0.0 |  0.01
Modify  | 0.041026   | 0.044748   | 0.0484     |   1.0 |  6.86
Other   |            | 0.004969   |            |       |  0.76

Nlocal:        83.3333 ave          91 max          76 min
Histogram: 4 0 6 5 8 6 9 2 7 1
Nghost:        2077.79 ave        2095 max        2056 min
Histogram: 1 0 6 5 9 6 7 7 4 3
Neighs:        13537.4 ave       14984 max       11852 min
Histogram: 3 0 4 7 7 8 8 4 2 5

Total # of neighbors = 649797
Ave neighs/atom = 162.44925
Neighbor list builds = 143
Dangerous builds = 14

#############################
# L I N E A R  Q U E N C H  #
#############################

# Define solid atoms. This closely follows ten Wolde  Ruiz-Montero and Frenkel  Faraday Discuss  1996  104  93-110
# Compute components of the per-atom q6 vector
compute q6 all orientorder/atom degrees 1 6 components 6 nnn NULL cutoff 1.3 # compute the Q6 parameter.
                                                                             # Use all neighbours within 1.3 unit cell.

# get number of connections
compute coord_number all coord/atom orientorder q6 0.5

# An atom is solid if it has 8 or more connections (of a possible 14)
variable is_solid atom c_coord_number>=8
group solid dynamic all var is_solid    # Must be dynamic to update
dynamic group solid defined

# do clustering
compute cluster solid cluster/atom 1.3 # Create a cluster where all atoms within are solid and max 1.3 units from another member

# define chunks one chunk per cluster
compute clus_chunks solid chunk/atom c_cluster nchunk every compress yes  # Says which atoms are in which chunk

# count the size of each chunk
compute size_chunks solid property/chunk clus_chunks count


# Find the maximum entry in the vector of chunk sizes
variable max_n equal max(c_size_chunks)


# Thermo style which includes this variable
# thermo_style custom step temp pe vol v_max_n

thermo ${N}  # Print the thermo information every 100 steps
thermo 1000  

# Reset the npt fix at a lower temperature (below freezing)
fix 1  all npt temp  ${temp} ${temp}  0.1  iso  5.68  5.68  0.5  mtk yes tchain  5  pchain  5
fix 1  all npt temp  0.45 ${temp}  0.1  iso  5.68  5.68  0.5  mtk yes tchain  5  pchain  5
fix 1  all npt temp  0.45 0.45  0.1  iso  5.68  5.68  0.5  mtk yes tchain  5  pchain  5

dump dmp2 all dcd ${N} traj.dcd
dump dmp2 all dcd 1000 traj.dcd


compute msd all msd com yes
variable twopoint equal c_msd[4]/6/(step*dt+1.0e-6)
fix 9 all vector 10 c_msd[4]
variable fit equal slope(f_9)/6/(10*dt)
thermo_style custom step temp pe c_msd[4] v_twopoint v_fit v_max_n

fix 1 all npt temp 1.25 ${temp} 0.1 iso 5.68 5.68 0.5 mtk yes tchain 5 pchain 5
fix 1 all npt temp 1.25 0.45 0.1 iso 5.68 5.68 0.5 mtk yes tchain 5 pchain 5
run 2000000 # 5000000  # Run for this many steps
Neighbor list info ...
  update every 1 steps, delay 10 steps, check yes
  max neighbors/atom: 2000, page size: 100000
  master list distance cutoff = 3.8
  ghost atom cutoff = 3.8
  binsize = 1.9, bins = 8 8 8
  4 neighbor lists, perpetual/occasional/extra = 1 3 0
  (1) pair lj/cut, perpetual
      attributes: half, newton on
      pair build: half/bin/atomonly/newton
      stencil: half/bin/3d
      bin: standard
  (2) compute orientorder/atom, occasional
      attributes: full, newton on
      pair build: full/bin/atomonly
      stencil: full/bin/3d
      bin: standard
  (3) compute coord/atom, occasional
      attributes: full, newton on
      pair build: full/bin/atomonly
      stencil: full/bin/3d
      bin: standard
  (4) compute cluster/atom, occasional
      attributes: full, newton on
      pair build: full/bin/atomonly
      stencil: full/bin/3d
      bin: standard
Per MPI rank memory allocation (min/avg/max) = 9.841 | 9.846 | 9.851 Mbytes
Step Temp PotEng c_msd[4] v_twopoint v_fit v_max_n 
   12000    1.2468193   -5.2747983 1.8100413e-30 1.2569731e-32 8.3333333e+20            1 
   13000    1.2567161   -5.3176589   0.65796269 0.0042177094  0.054573197            1 
   14000      1.23783   -5.2811316    1.3339478 0.0079401654  0.055608236            1 
   15000     1.251606   -5.3074794    1.9354506  0.010752503  0.054399614            3 
   16000     1.226727   -5.3025952    2.6505961  0.013805188   0.05462825            3 
   17000    1.2495288   -5.3316814     3.294176  0.016147921   0.05503404            1 
   18000    1.2423302   -5.3158395    3.9094435  0.018099275  0.054926303            3 
   19000    1.2553714   -5.2972736     4.605787  0.020200819   0.05465323            2 
   20000    1.2407549   -5.3268428    5.2894344  0.022039309  0.054888189            1 
   21000    1.2491196   -5.3165855    5.9849686  0.023749875  0.055020439            2 
   22000    1.2174885   -5.2901926    6.6549341  0.025208083  0.055264726            2 
   23000    1.2386006   -5.3027534    7.3408559  0.026597304  0.055485777            3 
   24000    1.2514768   -5.3131521    8.0503929  0.027952752  0.055765678            3 
   25000    1.2499296   -5.2945304    8.6218441   0.02873948  0.055759845            3 
   26000    1.2187863   -5.2859156    9.3037473  0.029819702   0.05563349            2 
   27000    1.2807599   -5.2836598     9.958537  0.030736225  0.055512328            2 
   28000    1.2023613    -5.297811    10.686423  0.031804829  0.055523201            4 
   29000    1.2640923   -5.3260479    11.402809  0.032766693  0.055671615            2 
   30000     1.230524   -5.3407928    12.197521  0.033882003  0.055922029            2 
   31000    1.2327142   -5.3141789    12.850271  0.034543737   0.05613544            2 
   32000    1.2333737   -5.3264803    13.532674  0.035241337  0.056269575            2 
   33000    1.2418996   -5.3121443     14.15493  0.035744773  0.056355611            3 
   34000    1.2601844   -5.3335122     14.63557  0.035871496  0.056321921            2 
   35000     1.258594   -5.3504746    15.181428  0.036146257  0.056145161            3 
   36000     1.261086   -5.3200665    15.941002  0.036900467  0.055983907            1 
   37000    1.2404836   -5.2982166    16.358797  0.036844136  0.055772989            2 
   38000    1.2257877   -5.3363664    17.027311  0.037340593  0.055517795            1 
   39000     1.237107   -5.3276567     17.75645  0.037941133  0.055353423            1 
   40000    1.2344533   -5.2953989    18.339369  0.038207018  0.055195195            2 
   41000    1.2406643   -5.3280013     18.97633  0.038569776  0.055067761            1 
   42000    1.2263704   -5.3240395    19.548373  0.038786455  0.054940138            2 
   43000    1.2321443   -5.2641064    20.419351  0.039572385  0.054836887            1 
   44000    1.2286859   -5.3185569    20.838722  0.039467277  0.054752218            3 
   45000    1.2249377   -5.3146509    21.541243  0.039891191  0.054644206            3 
   46000    1.2190655   -5.3214917    22.207112  0.040230275   0.05457522            3 
   47000    1.2503111   -5.3501185    22.929768  0.040655617  0.054527728            3 
   48000    1.2291593   -5.3524943    23.536818  0.040862531  0.054493369            6 
   49000    1.2463594   -5.3416962    24.160232   0.04108883  0.054435597            3 
   50000    1.2342569   -5.2971451    24.907988  0.041513314  0.054399622            3 
   51000    1.2478571   -5.3612877     25.39618  0.041497025  0.054377385            3 
   52000    1.2270299   -5.3627962    26.000441  0.041667373  0.054326187            1 
   53000    1.2068746   -5.3346848    26.694957  0.041973203  0.054264217            2 
   54000    1.2317019   -5.3159606    27.471458  0.042394224   0.05423807            2 
   55000    1.2410079   -5.3209838    28.038197  0.042482116  0.054218628            2 
   56000    1.2443202   -5.3332246    28.763399  0.042802676   0.05422755            2 
   57000    1.2357914   -5.3618802    29.253295  0.042767975  0.054215449            3 
   58000    1.2248595   -5.3092909    30.109484  0.043260753  0.054191825            2 
   59000    1.2387061   -5.3426427     30.59334  0.043210932   0.05417904            2 
   60000    1.2184589   -5.3394856    31.202532  0.043336849  0.054158531            1 
   61000    1.2234719   -5.3575276    31.881514   0.04355398   0.05413367            3 
   62000    1.2234312   -5.3398822    32.544665  0.043742829   0.05410542            2 
   63000    1.2258652   -5.3637692    33.214016  0.043933883  0.054094113            6 
   64000    1.2531402   -5.3181057    33.759827  0.043958108  0.054071855            2 
   65000    1.2161423   -5.3491829    34.060171  0.043666886  0.054029238            2 
   66000    1.2217458   -5.3292155    34.789963  0.043926721  0.053958402            1 
   67000    1.2193309   -5.3452788     35.46633  0.044112351  0.053900156            3 
   68000    1.2268435   -5.3531773    36.292141  0.044475663  0.053860886            1 
   69000    1.2296403   -5.3274837     36.71409  0.044340688  0.053819822            3 
   70000    1.2343443   -5.3293776    37.242979  0.044336879  0.053772203            6 
   71000    1.2110785   -5.3295287    38.133602  0.044757749  0.053722366            2 
   72000    1.2085772   -5.4305494    38.561503  0.044631368  0.053683752            3 
   73000    1.2359851   -5.3359836    39.516986  0.045110714   0.05365775            1 
   74000    1.2115231   -5.3710346    39.884615  0.044915107  0.053628588            5 
   75000    1.2465159   -5.3620725    40.579158  0.045087954   0.05361526            2 
   76000    1.2372541   -5.3541671    41.480863  0.045483402  0.053608755            1 
   77000    1.2571072   -5.3607763    42.083157  0.045544541  0.053595387            2 
   78000    1.2364132   -5.3321536    42.713034  0.045633583   0.05357615            2 
   79000    1.2107717   -5.3535627    43.107859  0.045472424  0.053561855            1 
   80000     1.200662   -5.3509745    43.618106  0.045435526  0.053519663            3 
   81000     1.230598   -5.3590227     44.19381  0.045466883  0.053474213            4 
   82000    1.2251058   -5.3815472     44.63202  0.045357744  0.053433179            2 
   83000    1.2374856   -5.3980855    45.226134  0.045407765  0.053378967            2 
   84000    1.2028018   -5.3817679    45.694333  0.045331679  0.053320151            2 
   85000    1.2137066   -5.3405758    46.400268  0.045490458  0.053258031            3 
   86000    1.2215762   -5.3337344    47.444809  0.045973651  0.053217849            2 
   87000    1.1985082   -5.3560134    48.310892    0.0462748  0.053197364            1 
   88000    1.2150719   -5.3626344    48.862453  0.046271262  0.053179736            3 
   89000    1.2231858   -5.3540576    49.390313  0.046245611  0.053152514            2 
   90000    1.2122522   -5.3727593    49.915218  0.046217794  0.053137453            3 
   91000     1.222536   -5.3852806    50.346001  0.046104396  0.053121745            2 
   92000    1.2367498   -5.3562533    50.923391  0.046126259   0.05310318            3 
   93000    1.2168492   -5.3846892    51.913904  0.046517835  0.053083861            2 
   94000    1.2374109   -5.3831641    52.432921  0.046483085  0.053082092            1 
   95000    1.2285964   -5.3479722    53.185503   0.04665395  0.053067634            1 
   96000    1.2398663   -5.3889687    54.097521  0.046959654  0.053062033            2 
   97000     1.207286    -5.346006    54.566033  0.046878035  0.053053835            2 
   98000    1.2259813   -5.3420401    55.389362  0.047099797   0.05305545            2 
   99000    1.2106502   -5.3444853     55.83202  0.046996649  0.053063164            5 
  100000    1.2231248   -5.3939195    56.333882  0.046944901  0.053065404            2 
  101000    1.2076427    -5.358985    57.160746  0.047162332  0.053062623            3 
  102000    1.2113053   -5.3257197    57.828405  0.047245429  0.053065274            5 
  103000    1.2325706   -5.4104335    57.855898  0.046808979  0.053044431            3 
  104000    1.2025604   -5.3713203    58.551259  0.046916073  0.053027885            2 
  105000    1.2293567   -5.3897136    59.060787   0.04687364  0.052994575            2 
  106000    1.2271263   -5.3542915     59.61961  0.046870762  0.052959004            6 
  107000    1.2138238    -5.349455    60.444123  0.047074862  0.052937728            3 
  108000    1.1994941   -5.3716027    61.207698  0.047228162   0.05291469            1 
  109000    1.2290361   -5.4017812    61.655118   0.04713694  0.052890615            2 
  110000    1.2269218    -5.394232    62.201181  0.047122106  0.052871114            3 
  111000    1.2066382   -5.3598383    62.888907  0.047213894  0.052852101            2 
  112000    1.1962721   -5.3477224    63.615048  0.047332625  0.052830974            1 
  113000    1.2147107   -5.4039156    63.946672  0.047158312  0.052802476            6 
  114000    1.2082198   -5.3916679    64.550483  0.047186025  0.052780116            3 
  115000     1.218102   -5.3875839    65.361355    0.0473633  0.052756648            2 
  116000    1.2027164   -5.3470964    66.077402  0.047469398  0.052727023            3 
  117000    1.2221292   -5.3520417    66.808052  0.047584083  0.052699131            3 
  118000    1.2179667   -5.3646714    66.923704  0.047262502   0.05267687            2 
  119000    1.2345134   -5.4024616    67.515006  0.047279416   0.05264525            2 
  120000    1.2263258   -5.3885198     68.03094  0.047243708  0.052613733            1 
  121000     1.195945   -5.4005697    68.279833  0.047024678  0.052578048            3 
  122000    1.2192042   -5.3606214    69.231652  0.047289379  0.052538196            1 
  123000     1.174477   -5.3619425    69.853567  0.047326265  0.052500121            2 
  124000     1.202613    -5.390824    70.146262  0.047141305  0.052462876            2 
  125000    1.1825343   -5.3925231    70.897951    0.0472653  0.052425244            2 
  126000    1.1893058   -5.3769786    71.551334  0.047322311  0.052394096            2 
  127000    1.2050011   -5.3859727    72.236564   0.04739932  0.052355057            3 
  128000    1.2034406   -5.3688653    73.054724  0.047561669  0.052328523            2 
  129000    1.2067433       -5.416    73.499743  0.047480454  0.052301563            1 
  130000    1.1856843   -5.3919526    74.017065  0.047446836  0.052275813            2 
  131000    1.2026601   -5.4033856    75.155392  0.047808773   0.05225458            2 
  132000    1.2545305   -5.4065155    75.645787  0.047756178   0.05223781            4 
  133000    1.2234968   -5.4130442    76.323199  0.047821553  0.052225407            1 
  134000    1.1862979   -5.3950048    77.428929  0.048152319  0.052219285            3 
  135000    1.2196965   -5.4174522    77.776012  0.048009884  0.052212661            2 
  136000    1.1934459   -5.4224399    78.160092  0.047892213  0.052202062            3 
  137000       1.2021   -5.4026559    78.592397  0.047805594  0.052183133            5 
  138000    1.1789322   -5.4029975    79.403893  0.047949211  0.052167369            1 
  139000    1.1615184   -5.3861497    79.687099   0.04777404  0.052146149            1 
  140000    1.1697668   -5.4115924    80.319564  0.047809264  0.052132984            7 
  141000    1.1850347   -5.4355495     81.20568    0.0479939   0.05212383            2 
  142000    1.1930881   -5.3833108     81.60222  0.047888626  0.052117212            2 
  143000    1.1741465   -5.4121185    82.632004  0.048153848  0.052109336            2 
  144000    1.2056279   -5.3751477    82.974313  0.048017542  0.052095682            2 
  145000    1.2207628   -5.3772016    83.289246  0.047867383  0.052078378            3 
  146000    1.2181743   -5.4114388    83.636081  0.047737489  0.052058817            2 
  147000    1.2065896   -5.4174271    84.194782  0.047729468  0.052036223            1 
  148000    1.1978258   -5.3978091    85.159393  0.047950108  0.052017478            2 
  149000    1.2194593   -5.3970157    85.597955  0.047873577   0.05199567            3 
  150000    1.2096167   -5.4476207    85.843011  0.047690562  0.051974311            3 
  151000     1.196687      -5.3999    87.087847  0.048061726  0.051952929            3 
  152000    1.1851853   -5.4228578    87.273226  0.047847163  0.051934402            4 
  153000    1.1766496   -5.4202202    87.892187  0.047871561  0.051913622            5 
  154000    1.2292151   -5.4070938    88.786512  0.048044649  0.051894084            2 
  155000    1.1875075   -5.4354702    89.441725  0.048086949   0.05187505            3 
  156000    1.1960629   -5.4414085    89.530877  0.047826323  0.051852967            3 
  157000    1.1758771   -5.4339612    90.080958  0.047813672  0.051824757            4 
  158000    1.1862452   -5.4552115     90.82505  0.047903507  0.051799706            4 
  159000    1.1850736   -5.4108659    91.318045   0.04786061  0.051772211            3 
  160000    1.1946867   -5.4073491    91.974669  0.047903473  0.051744261            1 
  161000    1.1938322   -5.4325479    92.704148  0.047983513   0.05172287            2 
  162000    1.2065522   -5.4291787    93.089139   0.04788536  0.051704854            2 
  163000    1.1893312   -5.4273349    93.717824  0.047912998  0.051683547            3 
  164000    1.1697637   -5.4623705    94.308387  0.047920928  0.051661162            2 
  165000    1.1862908   -5.3709765    94.926225  0.047942538  0.051641993            2 
  166000    1.1984116   -5.4109086    95.160599  0.047771385  0.051621279            2 
  167000    1.1806321   -5.4322709    96.114636  0.047961395  0.051601517            1 
  168000    1.1796222   -5.4233446    97.169617  0.048199215  0.051576286            2 
  169000    1.2051143   -5.4008835     97.40706  0.048031094  0.051558027            9 
  170000     1.185473    -5.351119    98.102046  0.048089238  0.051536605            3 
  171000    1.1678224   -5.4232735    98.582438  0.048042123  0.051516158            2 
  172000    1.1971707   -5.4369543    98.543387  0.047743889  0.051491598            2 
  173000    1.2117264   -5.4073502    99.687926  0.048019232   0.05146873            1 
  174000    1.1745126   -5.4408795    99.851834   0.04782176  0.051444698            3 
  175000    1.1838176   -5.4294891    100.35358   0.04778742  0.051418559            3 
  176000    1.1773384   -5.3997179    100.95522  0.047800767  0.051391526            4 
  177000    1.1557032   -5.4809147    101.41829  0.047748723  0.051359102            2 
  178000    1.1943186   -5.4454712    101.90777   0.04770963    0.0513308            4 
  179000    1.1738231   -5.4377405    101.97434   0.04747409   0.05129737            1 
  180000    1.1514537   -5.3992275    103.07395  0.047719423  0.051268309            3 
  181000    1.1824065   -5.4210956    103.30216  0.047560847  0.051235149            3 
  182000    1.2001141   -5.4476208    104.04829  0.047641157  0.051203458            1 
  183000    1.1996241   -5.4120617    104.81695  0.047730851  0.051171691            2 
  184000    1.1920186   -5.4615006      105.143  0.047619113  0.051142099            6 
  185000    1.1897572   -5.4283535    105.99138  0.047743866  0.051113111            1 
  186000    1.1843006   -5.4439836     106.5023  0.047716084  0.051085156            6 
  187000    1.1814349   -5.4232844    107.23769  0.047788634  0.051059325            2 
  188000    1.1682704   -5.4424117    107.43987  0.047624055  0.051031533            2 
  189000    1.1630433   -5.4494962    107.51294  0.047404295  0.051003334            4 
  190000    1.1786231   -5.4485982    108.78964  0.047714753   0.05097574            2 
  191000     1.201768   -5.4045869    109.86225  0.047932921  0.050954928            2 
  192000    1.1977508   -5.4452552    110.39097  0.047912746  0.050934842            3 
  193000    1.2032353   -5.4486101    110.88005  0.047875668  0.050915153            5 
  194000     1.176069   -5.4606753    111.06994  0.047710453  0.050893603            5 
  195000     1.203932   -5.4303305    111.92775  0.047832373  0.050872602            2 
  196000    1.1825621   -5.4584671    112.07339  0.047650249   0.05084725            1 
  197000    1.1637325   -5.4143329    112.68712  0.047667988  0.050821711            3 
  198000     1.173059   -5.4279198    113.66624  0.047839327  0.050799136            2 
  199000    1.1925015   -5.4668721    113.49302  0.047526389  0.050771226            1 
  200000    1.1830824    -5.452943    114.05795  0.047524147  0.050741789            1 
  201000     1.155554   -5.4178133    114.83914  0.047611585  0.050709968            2 
  202000     1.151456   -5.4285797    115.66881  0.047718156  0.050682978            1 
  203000     1.170431   -5.4325092    116.09011  0.047656037  0.050657494            3 
  204000     1.170919   -5.4769976    116.83069  0.047724954   0.05063166            2 
  205000    1.1856991   -5.4578427    117.28389  0.047676379  0.050609502            4 
  206000    1.1703784   -5.4649313    118.24834   0.04783509  0.050589322            2 
  207000    1.1779363   -5.4705985    118.34428  0.047642626  0.050568701            3 
  208000    1.1818495   -5.4561766    118.60953  0.047519845  0.050548715            3 
  209000    1.1551633   -5.4646609    119.80575  0.047769437  0.050527376            2 
  210000    1.1529774   -5.4665748    120.21986  0.047706292  0.050504558            2 
  211000     1.169475   -5.4696275    120.46166  0.047575695  0.050480945            4 
  212000    1.1795782   -5.4798725    121.50573  0.047761686  0.050461496            3 
  213000    1.2069295   -5.4433086    122.14627  0.047788056  0.050443694            3 
  214000    1.1794885   -5.4669176    122.36215  0.047648811   0.05042463            2 
  215000    1.1682491   -5.5032306    122.60817  0.047522546  0.050403329            3 
  216000    1.1443894   -5.4520689    123.74244  0.047740139  0.050381267            3 
  217000    1.1755741   -5.4590105     123.8789   0.04757254  0.050356815            3 
  218000    1.1711686   -5.5006823    124.87212  0.047733992  0.050334501            3 
  219000     1.164068   -5.4525143    125.14142  0.047618499  0.050311062            4 
  220000    1.1780117   -5.4391428    125.87348  0.047679348  0.050288798            2 
  221000    1.1566587   -5.4911197    126.00602  0.047513583  0.050268112            3 
  222000    1.1612437   -5.4837686    126.31141  0.047414195  0.050246191            2 
  223000    1.1910575   -5.4791655      127.354  0.047591183  0.050223763            2 
  224000      1.15018   -5.4554087    128.26823  0.047718834  0.050202887            1 
  225000    1.1509894   -5.4649329    128.29384  0.047516236  0.050181228            2 
  226000    1.1579992   -5.4759338    129.55452  0.047770842  0.050158591            3 
  227000    1.1512349   -5.4716937    129.88164  0.047680483  0.050135001            3 
  228000    1.1860919   -5.4842137    129.92802  0.047488312   0.05011173            2 
  229000    1.1462885   -5.4697518     130.3527  0.047435481  0.050087785            3 
  230000    1.1476302   -5.4286357    131.01424  0.047468926  0.050062948            3 
  231000    1.1542278     -5.43169    131.60797  0.047477624  0.050038088            2 
  232000     1.161907   -5.4355505    132.76285  0.047687804  0.050015849            5 
  233000    1.1464119   -5.4815719    132.84335  0.047511927  0.049994018            7 
  234000    1.1490473   -5.5237968    133.41155  0.047511234  0.049970996            6 
  235000    1.1953934   -5.4556741    134.11141  0.047557237  0.049948122            2 
  236000    1.2011247   -5.4445845    134.73135   0.04757463  0.049925633            3 
  237000    1.1673986   -5.5305157    134.92798   0.04744303  0.049905222            2 
  238000    1.1396619   -5.4436539    136.05258  0.047637459  0.049883835            4 
  239000    1.1619156    -5.472065    136.21074  0.047493283  0.049865956            3 
  240000    1.1349853   -5.5015417     136.1351  0.047269132  0.049844346            3 
  241000     1.157127   -5.4842618    137.31981  0.047482644  0.049821146            3 
  242000    1.1778594   -5.4712599    138.11561  0.047560471  0.049798715            2 
  243000    1.1582975      -5.5109    138.09921  0.047359125  0.049774178            8 
  244000    1.1240597     -5.50727    138.44342  0.047282588  0.049750255            3 
  245000    1.1591679   -5.4403454    139.51311   0.04745344  0.049726432            2 
  246000    1.1397207   -5.5165511    139.34865  0.047204826  0.049702493            2 
  247000    1.1513578   -5.5045444    140.38679  0.047363964  0.049678388            2 
  248000    1.1353814   -5.4742792    140.38552  0.047172555  0.049652413            1 
  249000    1.1454592   -5.4830519    141.13447  0.047233757  0.049626518            4 
  250000    1.1539171   -5.5357136    141.24271  0.047080902  0.049600846            3 
  251000    1.1466235   -5.4797881    142.08198  0.047171972  0.049574322            2 
  252000    1.1425858   -5.5012316    142.56461  0.047144383  0.049549355            2 
  253000    1.1389695   -5.4983056    142.97215  0.047092274  0.049523014            3 
  254000    1.1670907   -5.4859847    143.58032  0.047106403  0.049497354            5 
  255000     1.157962   -5.4763613     144.0411  0.047072255  0.049471803            1 
  256000    1.1234738   -5.4523548    144.40162  0.047005736  0.049442322            4 
  257000    1.1299648   -5.4896055    144.63778  0.046899409  0.049413677            2 
  258000    1.1270571   -5.4955693     144.9123  0.046806298  0.049386197            1 
  259000    1.1550424    -5.502349     146.4704  0.047126897  0.049358725            4 
  260000    1.1302925   -5.5379176    146.51588  0.046960218  0.049333262            3 
  261000     1.179555   -5.4835761    147.77553  0.047182482  0.049307579            1 
  262000    1.1419419   -5.4843942    148.24885  0.047152942  0.049284233            4 
  263000    1.1284481   -5.4825291    149.02272  0.047218858  0.049261143            1 
  264000     1.141957   -5.4656505    149.26741  0.047117239  0.049239232            3 
  265000    1.1459065   -5.5242269    149.80962  0.047109943  0.049216501            3 
  266000    1.1623979   -5.4838304    150.35516  0.047103747  0.049195042            1 
  267000    1.1587371   -5.4654423    150.71645   0.04704009  0.049173067            2 
  268000    1.1570079   -5.5420267    150.91556  0.046926479  0.049151302            4 
  269000    1.1378072   -5.5473946    151.38964  0.046898896  0.049130231            3 
  270000    1.1500501   -5.5332148     151.7617   0.04684003  0.049106577            2 
  271000    1.1551053   -5.5645743    152.19777  0.046801281  0.049085057            5 
  272000    1.1765581   -5.5033115    153.86785  0.047140887  0.049065979            2 
  273000     1.126186    -5.498333    153.63276  0.046896448  0.049045514            4 
  274000    1.1460691   -5.5111727     154.5962   0.04701831  0.049022965            2 
  275000    1.1237061   -5.5209755    154.44394  0.046801194  0.048999858            1 
  276000     1.139638   -5.5470388    155.10314  0.046830659  0.048974243            3 
  277000    1.1534186   -5.4914498     156.5389  0.047093532   0.04895139            3 
  278000     1.156312   -5.4989329    156.46007  0.046900501  0.048929884            4 
  279000    1.1194644    -5.537578    157.08562  0.046919241  0.048908646            3 
  280000    1.1284043   -5.5187549    158.32157  0.047119514   0.04888813            3 
  281000    1.1526101   -5.5140517    158.76271  0.047082653  0.048870079            5 
  282000    1.1774846   -5.5361926     159.1895  0.047041814  0.048852979            3 
  283000     1.154321   -5.4940889    159.83366  0.047065272  0.048835342            3 
  284000    1.1241215   -5.4908015    160.36931  0.047056723  0.048815065            3 
  285000    1.1284194   -5.5177673    160.71957  0.046994026  0.048796761            2 
  286000    1.1518446   -5.4885639    161.12305  0.046947275  0.048777699            2 
  287000    1.1425958   -5.5112081    162.00192  0.047038884   0.04875901            3 
  288000     1.158977   -5.5215613     162.2085   0.04693533  0.048741288            1 
  289000      1.14919   -5.5124734    162.40645  0.046830003   0.04872108            2 
  290000    1.1603962   -5.5027555    163.72314  0.047046878   0.04870156            2 
  291000    1.1090604   -5.5440651    164.39318  0.047077084  0.048682803            2 
  292000      1.13205   -5.5070602    164.40948  0.046920513  0.048663608            2 
  293000    1.1445446   -5.4833223    164.70816  0.046845324  0.048643484            4 
  294000    1.1119041   -5.5321984    164.81771  0.046717037  0.048622907            2 
  295000    1.1365412   -5.5411115    165.36125  0.046712218  0.048601337            1 
  296000    1.1378208   -5.5568166    165.45992  0.046582185  0.048578921            2 
  297000    1.1301227   -5.5147964    166.05575  0.046592521  0.048556734            2 
  298000    1.1035451   -5.5087902    166.63707  0.046598734  0.048533665            3 
  299000    1.1460996   -5.5504388    166.91583  0.046520577  0.048511179            4 
  300000    1.1206511    -5.534099    168.36512  0.046768088  0.048488388            2 
  301000    1.1457896   -5.5583388    168.07429  0.046532196  0.048465673            2 
  302000    1.1480693   -5.5096813    168.41646  0.046472534  0.048441873            3 
  303000    1.1285717   -5.5468473    168.52303  0.046348467  0.048417252            2 
  304000    1.1397382   -5.5512562    169.71995  0.046524108  0.048393957            4 
  305000    1.1257705     -5.56561    170.14662  0.046488147  0.048372545            3 
  306000    1.1304751   -5.5317764    171.33337  0.046659414  0.048350846            3 
  307000    1.1331669   -5.5471991    171.66084  0.046596319  0.048332966            4 
  308000    1.1381206   -5.5738591    171.89078  0.046507245  0.048311769            3 
  309000    1.1212746   -5.5371709    172.70811   0.04657716  0.048291478            3 
  310000    1.1376494   -5.5307893    173.52994  0.046647834  0.048270299            1 
  311000    1.1286222   -5.5713079    174.24016  0.046688145  0.048251499            4 
  312000    1.1445037   -5.5274605    174.85304    0.0467022  0.048234019            3 
  313000    1.1591374   -5.5653528    174.40754  0.046434383   0.04821511            9 
  314000    1.1127931   -5.5697715    175.46412  0.046566911  0.048194643            2 
  315000    1.1292144   -5.5308782    176.15038  0.046600629  0.048174135            2 
  316000    1.1099593   -5.5085128    175.89427  0.046385619  0.048154176            3 
  317000    1.1048486   -5.5490823    176.67728  0.046445132  0.048134525            4 
  318000    1.1260667   -5.5207858    177.12682  0.046416883  0.048113201            7 
  319000    1.1401907   -5.5609486    176.91383  0.046215734   0.04809048            3 
  320000    1.1172345   -5.5812564    177.47816   0.04621827  0.048067258            1 
  321000    1.1262779   -5.5351196    178.36423  0.046304317  0.048044377            2 
  322000    1.1482517     -5.57012    178.49332  0.046193923   0.04802139            3 
  323000    1.1203411   -5.5382743    179.57639  0.046330337     0.048001            3 
  324000    1.1367886   -5.5770673    179.35108  0.046129393   0.04798129            2 
  325000    1.1338024   -5.5448173    180.12838  0.046186764  0.047958808            2 
  326000    1.1510181   -5.5776301    180.65886   0.04618069   0.04793763            3 
  327000    1.1353772   -5.5069294    182.06773  0.046398504  0.047917103            4 
  328000    1.1396233   -5.5412023    182.81767  0.046447579  0.047899077            3 
  329000     1.140088   -5.5471082    182.87395  0.046320655  0.047882245            3 
  330000    1.1159079   -5.5606435     184.3288  0.046547677  0.047864279            2 
  331000    1.1096729   -5.5820269    183.98058  0.046319382  0.047846427            3 
  332000    1.1196281   -5.5361375    185.03158  0.046443669  0.047829879            3 
  333000    1.1134865   -5.5296006    185.86126  0.046511827  0.047814835            1 
  334000    1.0995639   -5.5433565    186.75515  0.046595596  0.047800897            2 
  335000    1.1357068   -5.5700252    187.36282  0.046607666  0.047786314            3 
  336000    1.1020677   -5.5416716    188.23662   0.04668567  0.047773484            1 
  337000    1.1164935   -5.5248877    188.11586  0.046517274  0.047759455            8 
  338000    1.1211433   -5.5579942    188.33982  0.046434867  0.047744232            2 
  339000    1.1155948   -5.5551315    188.83524  0.046419677  0.047727253            3 
  340000    1.1114287   -5.5820736    188.87251  0.046292282  0.047709806            3 
  341000    1.1566202     -5.56189     189.6069  0.046335997  0.047694161            2 
  342000    1.1140023   -5.5571614    190.29802  0.046368912  0.047677756            2 
  343000    1.1159914   -5.5685351     190.5412  0.046292809  0.047660814            5 
  344000    1.1234194   -5.5939169    190.42536  0.046130175  0.047642813            2 
  345000    1.1217066   -5.5672898    191.46737  0.046248156  0.047625851            2 
  346000    1.1265454   -5.5910548    191.71698  0.046174609  0.047609602            2 
  347000    1.1128186   -5.5899461     191.6039  0.046014384  0.047590763            7 
  348000    1.1259965   -5.5478904    192.60954  0.046122974  0.047572026            3 
  349000    1.1240006   -5.5568253    192.79507  0.046035118   0.04755142            6 
  350000    1.1084529   -5.5647324    193.22582  0.046006147  0.047532295            6 
  351000    1.1062575    -5.566346    194.28856  0.046127389  0.047511333            5 
  352000      1.12767   -5.5312171    194.41846  0.046027097  0.047492243            4 
  353000    1.1281718   -5.5672909    194.43362  0.045900287  0.047472848            4 
  354000    1.0888464   -5.5664951    195.31987  0.045979253  0.047452153            3 
  355000    1.1033751   -5.5594753    195.96847  0.046001989   0.04743172            2 
  356000    1.1266208   -5.5295834      196.447  0.045984784  0.047411538            3 
  357000    1.0961784   -5.5762496    196.16793  0.045790833  0.047390766            5 
  358000    1.1192985   -5.5332127    197.54732  0.045984014  0.047369459            3 
  359000    1.1085405   -5.5498117    196.61565  0.045639659  0.047345771            2 
  360000     1.108954   -5.5861831    197.33136  0.045678556  0.047321036            4 
  361000    1.1216002   -5.5933529    197.20572  0.045523019  0.047296198            3 
  362000    1.1126557   -5.5911327    197.79482  0.045532879  0.047270196            2 
  363000    1.0945775   -5.5943885    198.31195  0.045526159  0.047245272            3 
  364000    1.1080126   -5.6113781    198.36861   0.04541406  0.047219049            4 
  365000    1.1124917   -5.5884572    198.12167  0.045233258  0.047193718            2 
  366000    1.1043831   -5.6302503    199.07808  0.045327433  0.047167767            2 
  367000    1.0931923   -5.5851966     199.8959  0.045389622  0.047142401            2 
  368000    1.1243588   -5.6105474    199.37179  0.045147597  0.047116011            3 
  369000    1.1323172   -5.5386928    202.15156  0.045653018  0.047090466            4 
  370000    1.0942658   -5.5512421    201.59512  0.045404305  0.047066309            3 
  371000    1.1020709    -5.592193    201.25175  0.045204796  0.047040781            2 
  372000    1.1253483   -5.5948592    202.33297  0.045325486  0.047015322            4 
  373000    1.1291279   -5.5988026    203.16185  0.045389153   0.04698809            2 
  374000    1.1124846   -5.5683545    203.06932  0.045247175  0.046961585            1 
  375000    1.1089388   -5.6080378    203.62908  0.045250907  0.046934172            6 
  376000    1.1121671   -5.6096469    203.83068   0.04517524  0.046906729            5 
  377000     1.108101   -5.6049041     204.1645    0.0451292  0.046879061            4 
  378000    1.1128333   -5.5917042    204.83113  0.045156775  0.046852447            3 
  379000    1.0918125   -5.6263105    204.88241  0.045048902  0.046825403            6 
  380000    1.1220526   -5.6178582    204.69109  0.044888397  0.046798789            5 
  381000     1.095528   -5.5494909    206.79436  0.045230613  0.046771571            4 
  382000    1.0942025   -5.5820104    206.49006  0.045045824  0.046745115            1 
  383000     1.106398   -5.5920194    206.51503  0.044933645   0.04671879            4 
  384000    1.1243334   -5.5855671    207.24212  0.044974419  0.046691345            1 
  385000    1.0922368   -5.5925056    207.16105  0.044840054    0.0466627            5 
  386000     1.105429    -5.614149    207.49376  0.044795717  0.046634064            1 
  387000    1.1061108   -5.6037119     208.1009  0.044810702  0.046605577            2 
  388000    1.1023019   -5.6081586    207.97379   0.04466791  0.046577399            1 
  389000    1.1180874    -5.591608    209.38001  0.044854329  0.046549063            6 
  390000    1.1177775   -5.6324064    209.01896   0.04466217  0.046520293            5 
  391000    1.0806706   -5.6328828    209.33591  0.044615496  0.046491458            3 
  392000    1.1015372   -5.5696263    210.43921  0.044736226  0.046462069            3 
  393000    1.1114024   -5.5852476    211.07916  0.044758092  0.046432239            2 
  394000    1.1093452   -5.5972583    210.89572  0.044605694  0.046402271            2 
  395000    1.0933343     -5.63183    211.02475  0.044519989  0.046373371            2 
  396000     1.106733   -5.6010204    211.87544  0.044586583  0.046342905            8 
  397000    1.1108576   -5.5963537    212.27288  0.044557699  0.046313479            2 
  398000    1.0980201   -5.6482806    211.97567  0.044383515  0.046283281            8 
  399000      1.09503   -5.6152405    211.98473   0.04427417    0.0462524            8 
  400000    1.1038444   -5.6004887    213.44413  0.044467526   0.04622252            4 
  401000    1.0708991   -5.6230377    213.74683  0.044419541  0.046192522            3 
  402000    1.1163991   -5.6115663    213.82472  0.044325191  0.046162817            4 
  403000    1.0620282   -5.5930718    215.26574   0.04451318  0.046133449            4 
  404000    1.0597128   -5.6307468    214.71627  0.044289659  0.046104972            5 
  405000    1.0643269   -5.6297373    215.96124   0.04443647  0.046075916            3 
  406000    1.0905314   -5.6073752    215.97564  0.044329975  0.046048195            3 
  407000    1.0971053   -5.6420897    216.73051  0.044375617  0.046020339            2 
  408000    1.0758628   -5.6525084    216.87074  0.044295495  0.045992833            4 
  409000      1.07694   -5.6312454    217.52873  0.044321257  0.045964404            3 
  410000    1.0881797   -5.6712025    218.08764  0.044326756  0.045936588            3 
  411000    1.0978951   -5.6084019    218.58272  0.044319287  0.045907808            2 
  412000    1.0918969   -5.5978516    219.15453  0.044327373  0.045881154            2 
  413000    1.0894158   -5.6311529    219.50186  0.044290125  0.045854526            3 
  414000    1.0759816   -5.5955948    220.29778  0.044343354  0.045826814            4 
  415000    1.0781338   -5.6709228     218.9313  0.043962108  0.045797258            4 
  416000    1.0947502   -5.6530266    220.50555  0.044171785  0.045768786            2 
  417000    1.0845558    -5.662354    220.20834  0.044006463  0.045739453            3 
  418000    1.0907972   -5.6774936    220.88174  0.044035434  0.045710619            6 
  419000    1.1047944   -5.6645576    221.80653  0.044114266    0.0456812            2 
  420000    1.0889889   -5.6188875     222.8644  0.044219127  0.045654107            4 
  421000    1.0825989   -5.6026447    221.99177  0.043941364  0.045625419            4 
  422000    1.0874051   -5.6492317    222.20865  0.043880064  0.045597311            3 
  423000    1.0908897   -5.6537854    222.34726  0.043803637  0.045568316            7 
  424000    1.0772657   -5.6483139     223.2955  0.043886694  0.045539175            5 
  425000    1.0973843   -5.6473587    223.83879  0.043889959  0.045510161            3 
  426000    1.0765935   -5.6383302    224.82981  0.043980792  0.045481942            4 
  427000    1.1037852    -5.648439    224.47083  0.043807734  0.045453458            5 
  428000    1.0693622   -5.6329407     225.5456  0.043914642  0.045425191            3 
  429000    1.0792258   -5.6744125    225.42027  0.043787931  0.045397502            3 
  430000    1.1007248   -5.6882907    225.80195  0.043760068  0.045370386            2 
  431000    1.0915015   -5.6810713    226.25668  0.043746458  0.045341797            8 
  432000    1.0917017   -5.6312289    226.69895  0.043730507  0.045313223            2 
  433000    1.0815383   -5.6170614    227.52224  0.043787959   0.04528534            2 
  434000    1.0806898   -5.6180186    227.90562  0.043760679  0.045256517            2 
  435000    1.0799058   -5.6137261    228.47516  0.043769187  0.045228749            2 
  436000    1.0921082    -5.629187    228.54429  0.043682012   0.04520155            3 
  437000    1.0805072   -5.6552256    228.45925  0.043565837    0.0451741            3 
  438000    1.1001234   -5.6632535    229.58255  0.043680089  0.045145951            6 
  439000    1.1198508   -5.6485457    230.19033  0.043695963  0.045119135            2 
  440000    1.0821335   -5.5842503    232.20209  0.043977668  0.045092808            2 
  441000    1.0850161   -5.6736855    230.81116  0.043615109  0.045065471            2 
  442000    1.0857452   -5.6642278    231.39135  0.043625819  0.045039096            1 
  443000    1.0733214   -5.6263604    231.77967   0.04360039  0.045012147            5 
  444000    1.0872131   -5.6806527    232.18152  0.043577613   0.04498488            7 
  445000    1.0973699   -5.6621234    233.69534  0.043763173  0.044957491            2 
  446000    1.0698987   -5.6263851    233.14187  0.043561634  0.044931124            2 
  447000    1.0821721   -5.7059836    232.99816   0.04343739  0.044904429            2 
  448000    1.0702704   -5.6677686    233.99182  0.043525264  0.044877802            2 
  449000    1.0803203   -5.6176404    234.86532  0.043590446  0.044851493            4 
  450000    1.0595534   -5.7109003    233.46815  0.043234843  0.044825834            3 
  451000    1.0635171   -5.6331107    235.44497  0.043504245  0.044799478            7 
  452000    1.0862695   -5.6792414    235.80579  0.043474519  0.044773853            2 
  453000    1.0854969   -5.6633698    236.33618  0.043476118  0.044748074            3 
  454000    1.0678016   -5.6557509    236.88128   0.04348041  0.044723519            5 
  455000    1.0684894   -5.6702699    237.69694  0.043534237  0.044697882            4 
  456000     1.065541   -5.6363208    238.27853  0.043545053  0.044672948            4 
  457000    1.0631069   -5.6624416    237.46162  0.043300806  0.044647587            6 
  458000    1.0612576   -5.6235237    238.93274  0.043473933  0.044622699            3 
  459000    1.0693934   -5.6419634    238.69766   0.04333654  0.044596803            4 
  460000    1.0399824   -5.7238829    237.66284  0.043054863  0.044570131            2 
  461000    1.0618401   -5.6688172    239.71856  0.043333073  0.044544996            5 
  462000    1.0641038   -5.6922588    240.70865  0.043417867  0.044520736            4 
  463000    1.0735343   -5.6329662    240.91671  0.043361538  0.044496315            3 
  464000    1.0791731   -5.6238178    241.53609  0.043379326  0.044471752            2 
  465000    1.0635976   -5.7063771     240.2762  0.043060251  0.044447053            3 
  466000    1.0811044   -5.6614295    241.63183  0.043210269   0.04442222            9 
  467000    1.0675215   -5.6965531    241.05282  0.043014422  0.044396781            5 
  468000    1.0342771   -5.6847618    242.74656  0.043224103  0.044371079            4 
  469000    1.0738453   -5.6601374    242.65791  0.043116188  0.044345787            3 
  470000    1.0657491   -5.6957007    242.15061  0.042934506  0.044319664            3 
  471000    1.0877124   -5.7015577    242.29636  0.042869136  0.044293402            2 
  472000    1.0738354   -5.6958329    243.28991  0.042953728  0.044267064            2 
  473000    1.0553658   -5.6978284    243.66821  0.042929564  0.044240851            4 
  474000    1.0504564   -5.6975498     244.1129  0.042917177  0.044213681            2 
  475000     1.080908   -5.6955727    244.32167  0.042863451  0.044187152            3 
  476000    1.0737496   -5.6753751    245.18645  0.042924798  0.044160242            3 
  477000    1.0474841   -5.6907886    245.41998  0.042875609  0.044134413            4 
  478000    1.0795398   -5.6794608    245.09531  0.042729308  0.044108297            7 
  479000    1.0438433   -5.6938689     246.7813   0.04293342  0.044082567            3 
  480000    1.0497068   -5.6786714     246.7384  0.042836528  0.044056864            5 
  481000    1.0612284   -5.7286234    247.44224  0.042869411  0.044031226            2 
  482000    1.0764221   -5.6997004    247.48343  0.042787592  0.044005323            3 
  483000    1.0298314   -5.7178548    247.23752  0.042656577  0.043980077            3 
  484000    1.0748908   -5.7255194    248.52455  0.042790039  0.043954884            4 
  485000    1.0591598   -5.7016926    249.49947  0.042869325  0.043930178            3 
  486000    1.0591615   -5.7031781    250.34384  0.042925898  0.043906834            5 
  487000    1.0449418   -5.6654498    250.58676  0.042879322  0.043881727            1 
  488000    1.0318902   -5.6689873    250.91976   0.04284832  0.043857892            2 
  489000    1.0909289   -5.7220386    250.84181  0.042747412   0.04383345            2 
  490000    1.0799267   -5.7078493    251.16098  0.042714452   0.04380893            3 
  491000    1.0372876   -5.6582233    251.60377  0.042702608  0.043784456            2 
  492000    1.0532418   -5.7251374    252.96632  0.042846599  0.043760206            2 
  493000    1.0864779   -5.7048496    252.67719  0.042710816  0.043736512            2 
  494000    1.0505954   -5.6849028    253.52435  0.042767265  0.043713272            5 
  495000    1.0482372   -5.6923485    253.10208  0.042609777  0.043689843            2 
  496000     1.045648   -5.6945307    253.78795  0.042639104  0.043665345            2 
  497000    1.0214564   -5.7207533    254.62889  0.042694313  0.043640302            4 
  498000     1.057648   -5.7178112    254.07585   0.04251604  0.043616227            3 
  499000    1.0346776   -5.6890963    254.99671  0.042584621  0.043591804            5 
  500000    1.0507186   -5.7170001    255.28681  0.042547801   0.04356812            3 
  501000    1.0303667   -5.7028769    255.36591  0.042476033  0.043543979            4 
  502000    1.0684872   -5.7214596    255.21594  0.042366523  0.043518682            4 
  503000    1.0685907    -5.700547    255.85509  0.042388187  0.043493826            3 
  504000    1.0552269   -5.6790624    256.81275  0.042462426  0.043469581            4 
  505000    1.0356959   -5.7170192    257.44905  0.042483342  0.043446203            4 
  506000    1.0426141   -5.7204542    258.22697  0.042527498  0.043422182            3 
  507000    1.0342591   -5.7386219    256.96567  0.042236303  0.043397718            1 
  508000    1.0289971   -5.7259697    258.31878  0.042375128  0.043374177            7 
  509000    1.0399849   -5.7397781    258.42224  0.042308815  0.043350289            3 
  510000    1.0532018   -5.6974603    260.45401  0.042557845  0.043326349            3 
  511000    1.0433037   -5.7293546    259.96321  0.042394521  0.043302088            2 
  512000    1.1019899   -5.7065351    260.30211   0.04236688  0.043277792            3 
  513000    1.0441369   -5.7844544    260.68129  0.042345889  0.043253208            5 
  514000    1.0518175   -5.7315357     260.5203  0.042237403  0.043229022            4 
  515000    1.0329168   -5.6926606    261.24773  0.042273095  0.043205331            5 
  516000    1.0425166   -5.6929028    262.29824  0.042360827  0.043181761            4 
  517000    1.0501367   -5.7290718    262.25733  0.042272297  0.043158727            3 
  518000    1.0441466   -5.7568761    262.52672  0.042234027  0.043136193            2 
  519000    1.0366447   -5.7141125    263.74167  0.042347731  0.043114141            3 
  520000    1.0538455   -5.6920207    264.82245  0.042439495  0.043092343            2 
  521000    1.0417893   -5.7028467    264.72853  0.042343015  0.043070949            3 
  522000    1.0678101   -5.7300294     264.0632  0.042155684  0.043048606            2 
  523000    1.0679142   -5.7675226    264.09464  0.042080089  0.043026113            4 
  524000    1.0156603   -5.7058921    265.24559  0.042182823  0.043002862            4 
  525000    1.0398771   -5.7494296     265.3791  0.042123667  0.042979697            3 
  526000    1.0619947   -5.7293838    266.22421  0.042177474  0.042957112            2 
  527000    1.0194275   -5.7503785     265.7652  0.042024858  0.042933428            2 
  528000    1.0373782   -5.7054625    265.92838  0.041971019   0.04290988            2 
  529000    1.0717893   -5.7537272     266.2641  0.041944565  0.042885925            8 
  530000    1.0350775   -5.7131801     266.2191  0.041858349  0.042861527            5 
  531000    1.0197416     -5.74259    266.53556  0.041829184  0.042837655            5 
  532000    1.0328361   -5.7088692    267.33352  0.041875551  0.042814151            4 
  533000    1.0293633   -5.7441465    268.42456  0.041967568  0.042790803            2 
  534000    1.0355231    -5.740375    268.42092  0.041888408  0.042766819            9 
  535000    1.0415633   -5.7499339    267.87957   0.04172579  0.042742489            3 
  536000    1.0406341   -5.7554611    268.03176  0.041671604  0.042718576            3 
  537000    1.0505632   -5.7533811     268.3174  0.041638331   0.04269454            5 
  538000    1.0527086   -5.7342543    269.28986  0.041711564  0.042670221            3 
  539000     1.033563   -5.7834124    269.41497   0.04165352  0.042646099            2 
  540000    1.0368871   -5.7489786    269.68398  0.041617898  0.042621651            3 
  541000    1.0366014   -5.7661861    270.03498  0.041595036  0.042597379            6 
  542000     1.047172   -5.7546237    269.89218  0.041496337  0.042572563            6 
  543000    1.0256102   -5.7280135     271.0298  0.041594505  0.042547662            7 
  544000    1.0423098   -5.8049296    270.93301  0.041503219  0.042522901            4 
  545000    1.0390205     -5.74799     271.4453  0.041505397  0.042497869            3 
  546000    1.0426925   -5.7289768    272.10658  0.041530308  0.042473403            2 
  547000    1.0070431   -5.7344382    273.14166  0.041612075  0.042448693            6 
  548000    1.0376069   -5.7869172    271.90984  0.041348821  0.042423764            1 
  549000    1.0388283   -5.7183725    274.03744  0.041596454    0.0423998            7 
  550000    1.0368442   -5.7420569    273.06105  0.041372887  0.042375845            7 
  551000    1.0085543   -5.7637017    273.75475  0.041402715  0.042351176            3 
  552000    1.0329385   -5.7482333    274.86342  0.041495081  0.042327278            4 
  553000    1.0284732   -5.7178688    275.49626   0.04151541  0.042303374            2 
  554000     1.023996   -5.7705116    274.10894   0.04123179  0.042277966            5 
  555000    1.0487635   -5.7403089     274.9418  0.041282553  0.042253382            4 
  556000    1.0368235   -5.7627818    275.53487  0.041297193  0.042228863            4 
  557000    1.0500837   -5.7249462    276.64686  0.041389416  0.042204382            4 
  558000    1.0347776   -5.7610994    276.03169   0.04122337  0.042179208            3 
  559000    1.0333758   -5.7295337    276.31736  0.041192212  0.042154165            9 
  560000    1.0291532   -5.7402489    276.18903  0.041099557  0.042128918            3 
  561000    1.0245731   -5.7700344    276.44043  0.041063641  0.042103154            3 
  562000    1.0192139   -5.7457305    276.85942  0.041052702  0.042077386            2 
  563000    1.0278542   -5.7642174    276.33729    0.0409025  0.042051936            4 
  564000    1.0318451   -5.7691122    276.79695  0.040897894  0.042026229            1 
  565000    1.0447978   -5.8010635    276.96664  0.040850537  0.041999881            3 
  566000    1.0232645   -5.7380719     278.3409  0.040980697  0.041974015            4 
  567000    1.0358096   -5.7368005    277.98782  0.040856528  0.041948526            2 
  568000    1.0290165   -5.7560299    278.47185  0.040855612  0.041922604            7 
  569000      1.01912   -5.7675149    278.81885  0.040834629  0.041896402            2 
  570000     1.033868   -5.7620933    278.50295  0.040716806  0.041870269            4 
  571000    1.0204279   -5.7559867    278.68171  0.040671587  0.041843778            3 
  572000    1.0309501   -5.7581837    280.38933  0.040849261  0.041817684            4 
  573000    1.0188195   -5.8031327    279.93223  0.040711494  0.041791406            6 
  574000    1.0246855   -5.8132103    279.30685  0.040549774  0.041764737            6 
  575000    1.0507684    -5.762635    280.27716  0.040619878  0.041737759            2 
  576000    1.0141629   -5.7825598    279.87669  0.040491419  0.041710686            4 
  577000    1.0417197     -5.77203    281.82768  0.040703016  0.041684303            4 
  578000    1.0349574   -5.7643876    281.11355  0.040529635  0.041657691            6 
  579000    1.0246073   -5.7469181    282.57057   0.04066934  0.041631336            3 
  580000     1.009899   -5.7808052    281.61388  0.040461764  0.041604599            5 
  581000    1.0179542    -5.748149    283.45348  0.040655978  0.041577859            7 
  582000    1.0198709   -5.7939333    282.05381  0.040385711  0.041551412            4 
  583000    1.0030599   -5.8027689    283.46213  0.040517743  0.041525388            3 
  584000    1.0518058   -5.7578986    283.54458  0.040460128  0.041499447            3 
  585000    1.0051326   -5.8108224    283.72074   0.04041606  0.041473135            6 
  586000    1.0421905   -5.7697762    284.45214  0.040451101  0.041446976            5 
  587000     1.024083   -5.8005962    284.26274  0.040355301  0.041421577            5 
  588000    1.0409525   -5.7394102    286.40973  0.040590948  0.041396041            2 
  589000    1.0254187   -5.7416179    287.13133  0.040624126  0.041370841            4 
  590000    1.0163037   -5.7976698    287.06746  0.040546252  0.041345627            2 
  591000    1.0352813   -5.8069153    286.01876  0.040329774  0.041320396            4 
  592000    1.0225615    -5.791999     286.0046  0.040259656   0.04129464            2 
  593000    1.0363845   -5.7888436    287.03527  0.040336603  0.041268874            2 
  594000    1.0245608   -5.8144837    287.76365  0.040370882   0.04124337            3 
  595000    1.0204536   -5.7724118    288.05778  0.040344226  0.041218191            7 
  596000    1.0131746   -5.8253186    287.66057  0.040220997  0.041192964            3 
  597000    1.0054444   -5.7545488    289.27042  0.040378339  0.041167393            6 
  598000    1.0226743   -5.7753547    288.45022  0.040196518   0.04114193            4 
  599000    1.0000115   -5.8073914    288.62317  0.040153474  0.041116113            4 
  600000    1.0018801    -5.825379    289.11732  0.040155183  0.041089835            3 
  601000     1.028114   -5.7840702    289.27912  0.040110805   0.04106328            2 
  602000    1.0010344   -5.7884629    289.12474  0.040022805   0.04103721            5 
  603000   0.99415977   -5.8292728    288.28248  0.039840034  0.041010403            8 
  604000    1.0117107   -5.7863011    289.59033  0.039954516  0.040983188            4 
  605000    1.0241104    -5.771484    290.42995  0.040004125  0.040956199           10 
  606000    1.0255228   -5.8388938    289.25948  0.039777157    0.0409289            4 
  607000    1.0160871   -5.8405342    289.01288   0.03967777  0.040900851            6 
  608000    1.0103156   -5.8243353    291.70297  0.039981218  0.040873066            2 
  609000   0.98436699    -5.807436     291.0567  0.039827134  0.040845398            4 
  610000    1.0099032   -5.8131971    292.39395  0.039944528  0.040818071            2 
  611000    1.0040328   -5.8380667    290.79547  0.039661139  0.040790686            4 
  612000    1.0215368   -5.8277764    292.12104   0.03977683  0.040764046            2 
  613000    1.0052769   -5.8203219    292.56904  0.039772844  0.040737346            3 
  614000    1.0229056   -5.8065567    293.07147  0.039776258  0.040710865            5 
  615000    1.0255932   -5.7958303    293.06173  0.039710261   0.04068467            5 
  616000    1.0181125   -5.8125425    293.25191  0.039671524  0.040658623            3 
  617000    1.0071987   -5.8053247    294.48599  0.039773904  0.040633021            3 
  618000    1.0119275   -5.8525872     293.4839   0.03957442  0.040606953            3 
  619000   0.99868119   -5.8576054    295.05735  0.039722314   0.04058098           10 
  620000    1.0054758   -5.7807876    295.66348  0.039739714  0.040555774            6 
  621000   0.99535109   -5.8061681    295.17394   0.03961003   0.04053007            4 
  622000   0.98411681   -5.8190163    295.15354  0.039543614  0.040503881            2 
  623000    1.0109798   -5.8355695     296.0718   0.03960297  0.040478221            5 
  624000    1.0024475   -5.8207287    296.40104  0.039583473  0.040452462            3 
  625000   0.98635737   -5.8460144    296.81044  0.039574725  0.040426578            5 
  626000    1.0000424   -5.8342733    296.98881  0.039535252  0.040400872            3 
  627000    1.0002524   -5.8470706    297.27437  0.039510151  0.040375762            6 
  628000     1.000858   -5.8493204     298.0003  0.039543564  0.040350232            8 
  629000    1.0069888   -5.8387931    297.84415  0.039460009  0.040324116            3 
  630000   0.98605162   -5.7876087    299.01652   0.03955245   0.04029843            2 
  631000     1.021033   -5.7904111    298.11204  0.039370317  0.040273061            3 
  632000   0.97980709   -5.8479059    298.59716  0.039371989  0.040247563            6 
  633000    1.0128249   -5.8018985    298.97576  0.039359632  0.040221763            8 
  634000    1.0056641   -5.8332546    299.34051  0.039345493  0.040195852            8 
  635000    1.0098602    -5.852197    299.80351  0.039344293  0.040169976            6 
  636000    1.0045559   -5.8573181    299.12627  0.039193694   0.04014382            3 
  637000    1.0118419     -5.83559    300.09104  0.039258378  0.040118376            4 
  638000    1.0180549   -5.8044105    301.54748  0.039387079  0.040093609            3 
  639000   0.98883206   -5.8176042    301.27786  0.039290279  0.040068609            4 
  640000   0.97364545   -5.8403855    301.30692  0.039232672  0.040043031            4 
  641000   0.98090116   -5.8471477    301.95946    0.0392563  0.040017709            4 
  642000   0.99783532   -5.8448825     301.7787   0.03917169  0.039992466            7 
  643000   0.97720312   -5.8671565    301.17186  0.039032123  0.039966733            2 
  644000    1.0005838   -5.8556084    302.20088  0.039104669  0.039941358            4 
  645000   0.96506372   -5.8413515    302.96035  0.039142165  0.039916161           13 
  646000   0.97680384   -5.8573633    303.09105  0.039098432  0.039890909            7 
  647000   0.99721572   -5.8439768    304.26353  0.039189018  0.039865935            4 
  648000    1.0027519   -5.8248226    303.32258  0.039007533  0.039841556            2 
  649000    1.0001533   -5.8109944    305.16854  0.039184456  0.039816619            3 
  650000   0.99330548     -5.82474    305.11472  0.039117272  0.039791909            2 
  651000   0.99163107   -5.8226292    305.54412   0.03911215  0.039767493            3 
  652000   0.97633294   -5.8585472    304.87352  0.038966451  0.039742962            8 
  653000    0.9822979   -5.8838838    304.86695   0.03890594  0.039717929            8 
  654000   0.98156239   -5.8629767    305.69708  0.038952227  0.039692895            5 
  655000    1.0095905   -5.8263366    306.49042  0.038993692  0.039668214            2 
  656000   0.98457114   -5.8429593     305.7042  0.038834375  0.039642623            4 
  657000   0.98755465   -5.8513056    305.68652  0.038773024  0.039617116            5 
  658000   0.98186178   -5.8621444    306.35484  0.038798739  0.039591977            2 
  659000   0.99664275   -5.8026957    307.52232  0.038887496   0.03956734            2 
  660000    1.0020144   -5.8131775    306.42244  0.038689702  0.039542554            9 
  661000   0.98216536   -5.8473845    307.06729  0.038712467   0.03951741            7 
  662000   0.99107548   -5.8548848     307.2444  0.038676284  0.039491703            8 
  663000   0.99439852   -5.8534771    307.73699  0.038679863  0.039466183            7 
  664000    1.0021523   -5.8798975    306.97399  0.038525852  0.039440275            4 
  665000   0.98497462   -5.8457273    308.72181  0.038686944  0.039414281            6 
  666000   0.96487218   -5.8668422    307.68352  0.038498939  0.039388602            2 
  667000   0.97992905   -5.8588249    308.67348  0.038564903  0.039363156            4 
  668000   0.98218257   -5.8716463    308.95934  0.038542831  0.039338002            3 
  669000   0.98557064   -5.8473747    309.00071  0.038490372  0.039313017            6 
  670000   0.98690032   -5.8469299    310.53048  0.038623194   0.03928781            8 
  671000   0.99554046    -5.906785    308.96762  0.038371537   0.03926227            2 
  672000    1.0087508   -5.8841448    309.51177  0.038381916  0.039236002            6 
  673000   0.97666868   -5.8674116    310.22541   0.03841325  0.039210053            3 
  674000   0.98567786   -5.8919227    309.61156   0.03828036  0.039183587            5 
  675000   0.98874222   -5.8479199    311.24863  0.038425757  0.039157109            4 
  676000    1.0089991   -5.8536102    312.46533  0.038518901  0.039131209            6 
  677000   0.97396919   -5.8731448    310.71831  0.038246961  0.039105632            2 
  678000   0.98086427    -5.857882    311.74162  0.038316325  0.039079912            2 
  679000   0.99557164   -5.8699598    312.36285  0.038336137  0.039054464            7 
  680000   0.98638838   -5.8538574    312.30384  0.038272529  0.039028797            3 
  681000   0.98601016   -5.8684311    312.05163  0.038185467  0.039003214            3 
  682000   0.97811913    -5.845154    312.76767  0.038216969  0.038977903            5 
  683000   0.99706743   -5.8743671    313.18023  0.038211351  0.038952786            2 
  684000   0.96168016   -5.8632199    313.59465  0.038205976  0.038927727            5 
  685000   0.97992927   -5.8623628     314.2901  0.038234805  0.038903125            2 
  686000   0.96548769   -5.8623796    313.68149  0.038105137  0.038878718            3 
  687000   0.95868901   -5.8564623     314.9969  0.038209232  0.038854088            3 
  688000   0.96771204    -5.902921    314.76674  0.038125817  0.038829519            5 
  689000   0.97146922   -5.8520188    315.40144  0.038147248  0.038804552            5 
  690000   0.98904843   -5.8995114     315.1866  0.038066014  0.038779668            6 
  691000   0.94964474    -5.875055     315.1947  0.038011903   0.03875437           10 
  692000   0.97212026   -5.8899353    315.52848  0.037997168  0.038728907            4 
  693000   0.98417061   -5.8875069    315.54555  0.037944391   0.03870372            6 
  694000    0.9676999   -5.9258679    315.71903  0.037910546  0.038678122            7 
  695000   0.97901201   -5.8696601    316.95914  0.038004693  0.038652591            5 
  696000   0.98483151   -5.8545119    317.21119  0.037980267  0.038627056            4 
  697000   0.96347034   -5.8775063    316.87948  0.037886116  0.038602501            6 
  698000   0.98625975   -5.8981216    317.40918  0.037895079  0.038577627            4 
  699000   0.98406901   -5.8687964    318.06232  0.037918731  0.038552508            3 
  700000   0.97462268   -5.8309995    318.57873   0.03792604  0.038527673            3 
  701000   0.98316441   -5.9209807    318.03972   0.03780786  0.038502951            3 
  702000   0.98132558   -5.9185496    317.60749  0.037702694  0.038478278            3 
  703000   0.97696388   -5.8794163    318.04107  0.037700458  0.038453488           10 
  704000   0.97346295   -5.8755656    318.81095  0.037738039   0.03842903            7 
  705000   0.96776898   -5.9277725    318.87866  0.037692513  0.038404183            3 
  706000   0.96383349   -5.8708676    320.84819    0.0378716  0.038379795            6 
  707000   0.97454668   -5.8951309    320.96748  0.037832093  0.038355798            3 
  708000    0.9552412   -5.8640816     321.2512  0.037812053  0.038331158            5 
  709000   0.94649544   -5.8624005    320.64716  0.037687724  0.038306564            5 
  710000   0.96127878   -5.8913141    321.35746  0.037718012   0.03828175            6 
  711000    0.9600951   -5.8621292    322.73803  0.037826773  0.038257385            6 
  712000   0.97697469   -5.9079346    322.28082  0.037720133  0.038233073            5 
  713000   0.96327006   -5.8754243     320.1188   0.03741454  0.038208792            9 
  714000   0.98222151   -5.8935633    322.26601  0.037612746  0.038183918            5 
  715000   0.96538882   -5.8915519    321.91284  0.037518979  0.038158888            9 
  716000   0.97885779   -5.8906655    321.75372  0.037448059  0.038133898            3 
  717000    0.9531369      -5.8874    321.40809  0.037355659  0.038108537            4 
  718000   0.97584673   -5.8986032     320.9194  0.037246913  0.038082923            4 
  719000   0.96305351   -5.9153015    321.09873  0.037215894  0.038056624            6 
  720000   0.98034054   -5.8953187    322.85543  0.037367527   0.03803038            4 
  721000   0.94722996   -5.9220294    321.51778  0.037161093  0.038004067            9 
  722000   0.95087791   -5.9158896    321.40111  0.037096158  0.037977605            4 
  723000   0.95641145   -5.9190636    321.92072  0.037104739  0.037951436            8 
  724000   0.96539776   -5.9080348    323.59816  0.037246566  0.037925685            5 
  725000   0.97859651   -5.8893393    323.80864  0.037219384  0.037900487            3 
  726000   0.96708382   -5.9007984    323.99523  0.037189535  0.037875277            5 
  727000   0.96060005   -5.9245887    324.98428  0.037251751  0.037849845            4 
  728000   0.95094587   -5.8985522    325.00729  0.037203215  0.037824545            6 
  729000   0.97250272    -5.913832    324.41216  0.037084152  0.037799344            6 
  730000   0.94168268   -5.8687255    325.80145  0.037191946  0.037774237            3 
  731000    0.9871913   -5.9310801    325.54051  0.037111321  0.037749641            9 
  732000   0.96589582   -5.9184663    324.47372  0.036939176  0.037724037            6 
  733000   0.96352696   -5.9108508    325.43683  0.036998275  0.037698875            6 
  734000   0.95188287   -5.9003635    326.04111  0.037016474  0.037673851           10 
  735000   0.98543453   -5.9399774    326.46221  0.037013856  0.037648519            2 
  736000   0.93629799   -5.9292627    327.54413  0.037086066  0.037623302            3 
  737000   0.95418454   -5.8989418    326.27004  0.036891682  0.037598397            3 
  738000   0.96576609   -5.8984134    327.82122   0.03701685  0.037573273            2 
  739000   0.94015441   -5.9105102    327.20036  0.036896748  0.037547932            3 
  740000   0.95938812   -5.9063482    326.47125   0.03676478   0.03752258            5 
  741000   0.93599714   -5.9269967    327.40712  0.036820414  0.037496971            5 
  742000   0.97038825   -5.8666615    328.27206  0.036867931  0.037471533            2 
  743000   0.94655595   -5.8970969    328.45427  0.036838747  0.037446077            3 
  744000   0.94175794    -5.899778     328.6781  0.036814303  0.037420642            7 
  745000   0.94914169   -5.9182241    328.20024  0.036711436  0.037394869            5 
  746000   0.96208714   -5.8945717    328.91587  0.036742166  0.037369354            5 
  747000   0.95029581   -5.9113821    329.38553  0.036745373  0.037343823            8 
  748000   0.94161708   -5.9327904    328.97819  0.036650868  0.037318327            7 
  749000    0.9550906   -5.9134617    328.14291  0.036509002  0.037292478            5 
  750000   0.94231296   -5.9581146    328.12787  0.036458652  0.037266345            4 
  751000   0.93011647   -5.9388509    328.79242  0.036483846   0.03724023            4 
  752000   0.96082994   -5.9360581    328.54368  0.036407766  0.037214127            5 
  753000   0.96126728   -5.9564389    329.13443  0.036424793  0.037188147            7 
  754000   0.95000451   -5.9877008    328.63965  0.036321801  0.037161975            5 
  755000   0.96703686   -5.8893182    331.88678  0.036632095  0.037136184            6 
  756000   0.94873433   -5.9493301    330.87456  0.036472063  0.037110449            9 
  757000   0.92556569   -5.9334589    330.94824  0.036431994  0.037084795            4 
  758000   0.93356331   -5.9417848    331.06372  0.036396627  0.037059237            5 
  759000   0.95078056   -5.9554692    331.49062  0.036395545   0.03703341            8 
  760000    0.9494407   -5.9530423    331.76456  0.036377693  0.037007993            9 
  761000    0.9640607   -5.9581225    331.49356  0.036300214  0.036982439            9 
  762000   0.95655164   -5.9424746    332.02612  0.036310818  0.036956882            5 
  763000   0.95622382   -5.9562459    332.40401    0.0363045  0.036931347            3 
  764000   0.95771969   -5.9363633    333.71126  0.036399571  0.036906079            6 
  765000   0.93447772    -5.948419    333.89526  0.036372033  0.036880562            6 
  766000   0.96065897    -5.927474    334.02971  0.036339177  0.036855783            2 
  767000   0.95989998   -5.9422319    333.08515  0.036189173  0.036830669           10 
  768000   0.95832258   -5.9467773    334.25985  0.036269515  0.036805625            2 
  769000   0.95203464   -5.9627927    333.47101  0.036136867  0.036780569            4 
  770000    0.9307789   -5.9521688    334.81902  0.036235825  0.036755282            4 
  771000     0.944308   -5.9919253    333.72854  0.036070962  0.036730055            5 
  772000   0.93175595   -5.9969988    333.50854   0.03600049  0.036704906            4 
  773000   0.94395803   -5.9620899    334.57288  0.036068659  0.036679862            3 
  774000   0.94973234   -5.9522912    335.03591  0.036071912  0.036655176            8 
  775000   0.94588317   -5.9988518    335.35195  0.036059349  0.036630256            5 
  776000   0.93744767   -5.9657824    335.09213   0.03598498  0.036605658            4 
  777000   0.94031825   -5.9806025    335.25935  0.035956601  0.036581066            5 
  778000   0.95246755   -5.9843238    336.33212  0.036025292  0.036556478            5 
  779000   0.97121829   -5.9705832     337.3522  0.036088169  0.036531789            3 
  780000   0.94031595   -5.9386559    336.33788  0.035933535  0.036507262            3 
  781000   0.96435746   -5.9290353    338.37829  0.036105238  0.036483237            4 
  782000   0.95610369   -5.9572125      337.232  0.035936914  0.036459343            4 
  783000   0.93415641   -5.9516473     339.1764  0.036097956  0.036435381            7 
  784000   0.95893959   -5.9733146    338.57645  0.035988143  0.036411807            7 
  785000   0.95758362   -5.9590787    338.96047  0.035983065  0.036388192            4 
  786000   0.92952515   -6.0048049    338.06052   0.03584187  0.036364698            3 
  787000   0.91815587   -5.9404846     339.9932  0.036000974  0.036340996            5 
  788000   0.96092823    -5.979182    339.89195   0.03594458  0.036317306            3 
  789000    0.9248353   -5.9654274    340.98756   0.03601474  0.036293471            7 
  790000   0.92747392    -5.983031    339.74858  0.035838458  0.036269577            6 
  791000   0.92352918   -5.9569123    340.91907  0.035916464  0.036245451            3 
  792000   0.93620447    -5.971903    339.33612  0.035704558  0.036221504            6 
  793000   0.92898189    -5.975521    341.24292  0.035859911  0.036197375            3 
  794000   0.91593919   -5.9624188    340.96515  0.035785595  0.036173601            2 
  795000   0.95258987   -5.9670122    341.20494  0.035765717  0.036149865            4 
  796000   0.94310023   -5.9765609    341.06406  0.035706037  0.036125961            3 
  797000   0.94103564   -6.0310988    339.96435  0.035546252  0.036102107            7 
  798000   0.95029262   -6.0007883      341.202  0.035630953  0.036077549            9 
  799000   0.92545459   -5.9765349    341.57385  0.035625141   0.03605334            7 
  800000   0.93535691   -5.9690317    341.14009  0.035535426  0.036029077            3 
  801000   0.94237213   -5.9777286    341.79825  0.035559535  0.036005109            4 
  802000   0.96336954   -5.9885181    341.81589  0.035517029  0.035980795            4 
  803000   0.94338478   -5.9748039    342.25619  0.035518492  0.035956458            3 
  804000   0.93626878   -5.9542582    341.81874  0.035428974  0.035931974            3 
  805000   0.92737973   -5.9565653    342.34263  0.035439196  0.035907298            5 
  806000   0.94126852    -5.984056    341.51183  0.035309329  0.035882833            4 
  807000    0.9397137   -6.0059176    342.09795    0.0353261  0.035858253            8 
  808000   0.93912207   -5.9678108    342.48564  0.035322364  0.035833498            7 
  809000    0.9408131   -5.9747907    343.54034  0.035387344  0.035808865            3 
  810000   0.92433424   -6.0047093    341.67053  0.035151289  0.035784445            4 
  811000   0.92061138   -5.9882231     343.1272  0.035257624  0.035759584            3 
  812000   0.94735976   -5.9920742    342.84995  0.035185751  0.035734767            5 
  813000   0.96638606   -5.9952555    343.30762  0.035189383  0.035709661            6 
  814000   0.93024765   -5.9664232    343.68299  0.035184582  0.035684973            5 
  815000   0.91729509    -6.029222    343.20457  0.035092492  0.035659915            4 
  816000   0.92452243   -6.0033412    342.77078  0.035005186  0.035634602           10 
  817000   0.92593979   -6.0270991    343.55657   0.03504249  0.035609335            3 
  818000   0.92392314   -6.0121685    343.82883  0.035027387  0.035584207            8 
  819000   0.93503497   -6.0066695    343.29701  0.034930505   0.03555874            5 
  820000    0.9399908   -6.0158687    344.85495  0.035046235  0.035533442            4 
  821000   0.93267486   -5.9468933    346.12148  0.035132103  0.035508733            2 
  822000    0.8994173   -5.9577049    345.76986  0.035053717  0.035484474            5 
  823000      0.93318   -5.9927808    346.38288  0.035073196  0.035460063            3 
  824000   0.93463201   -5.9893169    345.34095  0.034925258  0.035435598            4 
  825000   0.92472913   -6.0344776    347.10985  0.035061601  0.035411114            5 
  826000   0.92007669   -6.0518976    345.78468   0.03488546  0.035386808            5 
  827000   0.92471688   -5.9873546    347.72502  0.035038796  0.035362884            2 
  828000   0.92116143   -5.9845027    348.18079   0.03504235  0.035338738            4 
  829000   0.92301611   -6.0155813    346.86169   0.03486748  0.035314863            6 
  830000   0.93031098   -6.0220415    346.38191    0.0347773  0.035290569            2 
  831000    0.9193866   -6.0290329    347.22856  0.034820353  0.035266349            6 
  832000   0.91623199    -6.006097    347.92619  0.034848376  0.035242466            2 
  833000   0.91728056   -6.0071302    348.03051  0.034816978  0.035218335           13 
  834000   0.92751008   -6.0540828    346.39276  0.034611586  0.035193997            4 
  835000   0.92156593    -6.002176    348.47807   0.03477825  0.035169525            4 
  836000   0.92466649    -6.020086    347.60964  0.034650083  0.035145256            4 
  837000   0.92324765   -6.0157793    347.97865  0.034645425  0.035121391            3 
  838000   0.90999031    -5.999505    349.15014  0.034720578  0.035097381            2 
  839000   0.91448175   -6.0602033    348.54393  0.034618984  0.035073148            5 
  840000   0.90434784   -6.0077508    348.81987  0.034605145  0.035048936            4 
  841000   0.92919154   -6.0076067    350.07954  0.034688817  0.035025202            4 
  842000   0.92177971   -5.9925636    350.05099  0.034644793  0.035001569            3 
  843000   0.92622606   -6.0191919    350.68859  0.034666725  0.034977835            3 
  844000   0.90761764   -6.0508234    350.19229  0.034576648  0.034954087            3 
  845000    0.9112267   -6.0149212    349.87767  0.034504701  0.034930451            5 
  846000   0.90531298   -6.0243373    350.49559  0.034524782  0.034906532            4 
  847000   0.91677933   -6.0243126    351.70161  0.034602677  0.034882494            6 
  848000   0.93686418   -6.0166136    351.62126  0.034553976  0.034858642            5 
  849000   0.91290651    -6.033666    351.20289  0.034472211  0.034834848            3 
  850000    0.9041795   -6.0455477    350.99794  0.034411562  0.034810757            4 
  851000   0.90133711   -6.0781008     349.8013  0.034253946  0.034786156            7 
  852000    0.9398157   -6.0341116    351.47511  0.034377456  0.034761997            3 
  853000   0.91723477   -6.0227076    352.40285  0.034427789  0.034738055            9 
  854000   0.90781113   -6.0494557    352.14822  0.034362629  0.034714278            6 
  855000   0.89940857   -6.0533049    352.43668  0.034350554  0.034690637            2 
  856000     0.910191   -6.0172676    353.19076  0.034383835  0.034667096            4 
  857000   0.91252756   -6.0367911    352.06484  0.034234231  0.034643711            6 
  858000   0.90787245   -6.0303099    352.65158  0.034251319  0.034619978            3 
  859000   0.89931525   -6.0310579    352.87111  0.034232743  0.034596284            6 
  860000   0.90882429   -6.0222094    353.73427  0.034276576  0.034572633            6 
  861000   0.90346825   -6.0270319     355.0296  0.034362137  0.034549222            9 
  862000   0.90290023   -6.0318626    353.97301  0.034220129   0.03452594            4 
  863000   0.89846813   -6.0545138    354.90541  0.034270511  0.034502684            8 
  864000   0.89688469   -6.0732085    354.83238  0.034223802  0.034479463            4 
  865000    0.9213644   -6.0585821    355.26484    0.0342259  0.034456212            8 
  866000   0.91873301   -6.0580224    356.23001  0.034279254  0.034433257            3 
  867000    0.9186521   -6.0622992     355.4705  0.034166715  0.034410137            4 
  868000   0.92074796    -6.056863    355.62961  0.034142627  0.034387009            4 
  869000    0.9153903   -6.0484238    355.66381  0.034106618  0.034363606           12 
  870000    0.9087251   -6.0297118    357.08707  0.034203742  0.034341019            2 
  871000   0.90693405   -6.0904636    356.16976  0.034076708  0.034318276            5 
  872000   0.92866229   -6.0245981    356.67721  0.034086125  0.034295391            3 
  873000   0.88202317   -6.0578637    357.15457  0.034092647  0.034272725            7 
  874000   0.90717898   -6.1031498    356.43714  0.033985235  0.034250154            4 
  875000   0.90439798   -6.0824235    356.50922  0.033953259  0.034227727            7 
  876000   0.91493468   -6.0159085     358.2013  0.034075466  0.034205085           14 
  877000   0.91701621    -6.058058    358.50483  0.034065454    0.0341829            7 
  878000   0.88811356   -6.0582825    358.45082  0.034021528  0.034160175           12 
  879000   0.90341203   -6.0652871    358.64734  0.034001454  0.034137448            3 
  880000   0.88990532   -6.0491559      357.967   0.03389839  0.034114733            8 
  881000   0.91291187   -6.0515394    358.94135  0.033952076  0.034092262            4 
  882000   0.92489022   -6.0469829    358.35698  0.033858369  0.034069663            8 
  883000   0.88879918   -6.0636033     358.0146  0.033787713  0.034046731            3 
  884000   0.88782745   -6.0714841     357.8615  0.033735058  0.034023708            4 
  885000   0.89425655   -6.0715787    359.14422  0.033817723  0.034001074            4 
  886000   0.92006864   -6.0778941    358.53452  0.033722208   0.03397831            4 
  887000   0.90194869   -6.0725103    360.19353  0.033840053    0.0339558            9 
  888000   0.89211102   -6.0457586    359.83169  0.033767989  0.033933244            6 
  889000   0.89199061   -6.0504078     360.7717   0.03381812  0.033910746            4 
  890000   0.87564006   -6.0853424    360.19623  0.033726239  0.033888029            9 
  891000   0.90990847   -6.0823649    360.11689  0.033680966  0.033865607            4 
  892000   0.90889984   -6.0552124    361.48068  0.033770616  0.033843489           10 
  893000   0.89137906   -6.0262634     361.8449  0.033766788  0.033821291            4 
  894000   0.89610051   -6.0562664    361.84164  0.033728714  0.033799113            4 
  895000   0.90479616   -6.0864797    360.71215  0.033585861  0.033776762            6 
  896000   0.89174892   -6.0769329    362.58059  0.033722153  0.033754303            7 
  897000   0.88502838   -6.0878739    361.75125  0.033607512  0.033732124            3 
  898000   0.89873921   -6.0888665    361.59173  0.033555283  0.033709934            7 
  899000   0.90203507   -6.0850205    362.13491  0.033568308  0.033687769            7 
  900000   0.89050359   -6.0922149    362.20997   0.03353796  0.033665477            4 
  901000   0.89443646    -6.122159    361.63474  0.033447535  0.033643182            6 
  902000   0.89406575   -6.0837511    362.32158  0.033473908  0.033620838           11 
  903000   0.90760244    -6.130885    362.30373  0.033435191  0.033598267            4 
  904000   0.89297235     -6.09419    362.64898  0.033430031  0.033575973            5 
  905000   0.89585629   -6.1082269    362.62084  0.033390501  0.033553713            3 
  906000   0.89948953   -6.1285176    363.37687  0.033423185  0.033531484            6 
  907000   0.89677575   -6.0834211    364.30439  0.033471554  0.033509452            3 
  908000   0.89730047   -6.0563423    364.34071  0.033438024  0.033487526            6 
  909000   0.89631052   -6.0827862     364.2354  0.033391584  0.033465684           15 
  910000   0.88737376   -6.1398759    363.66893  0.033303016  0.033443542            4 
  911000   0.88848389   -6.1075012    364.25258  0.033319848  0.033421378            4 
  912000    0.8705815   -6.0574372    364.70144  0.033324327  0.033399366            5 
  913000   0.91126911    -6.054054     365.1156   0.03332563  0.033377542            4 
  914000   0.88662554    -6.057677    365.62983  0.033336053  0.033355666            4 
  915000   0.88176451   -6.0742717    365.92486   0.03332649  0.033333877            3 
  916000   0.87327373   -6.1221853    365.00358  0.033206294  0.033312028           11 
  917000   0.89595041   -6.1279608    366.24259  0.033282678  0.033290117            8 
  918000   0.89953822   -6.0856723    366.10393  0.033233835  0.033268158            3 
  919000   0.88612025   -6.0976446    366.52577  0.033235924  0.033246268            5 
  920000   0.87122846   -6.1017519    366.53663  0.033200782  0.033224429            4 
  921000   0.89887833   -6.0834154    367.26248  0.033230409  0.033202743            3 
  922000   0.86838469   -6.1076053     366.9154  0.033162997   0.03318109            7 
  923000   0.88651947   -6.1165882    366.72246  0.033109647  0.033159386            5 
  924000   0.87794684   -6.0528827    368.18571  0.033205782  0.033137733            3 
  925000   0.87851176    -6.096856    366.77061  0.033042397  0.033116318            4 
  926000   0.89652713   -6.0935865    368.78612  0.033188096    0.0330946           10 
  927000    0.8809815   -6.0776347    367.96936  0.033078871  0.033073134           17 
  928000   0.88586321   -6.1161736    367.30793   0.03298383  0.033051574            2 
  929000   0.89060315   -6.1266116    368.74861  0.033077557  0.033030134           19 
  930000   0.87503423   -6.1188212    369.22682  0.033084841   0.03300878            7 
  931000   0.86654813   -6.1058832    369.16739  0.033043984  0.032987195            8 
  932000   0.90322729   -6.1122767    369.75924  0.033061449  0.032965718            6 
  933000   0.88533734   -6.1092815     369.7973  0.033029412  0.032944475            5 
  934000    0.8797319   -6.0776951    369.39063  0.032957765   0.03292331            3 
  935000   0.88562407   -6.1309824    368.71102  0.032861945  0.032902029            5 
  936000   0.88679598    -6.102406    370.15704  0.032955577  0.032880703            5 
  937000    0.8620277   -6.1505318    369.55119  0.032866524  0.032859567            4 
  938000   0.86893728    -6.103378    369.67867   0.03284281  0.032838347            5 
  939000   0.87695328    -6.126325    371.44928   0.03296497  0.032817011            3 
  940000   0.87972244   -6.1221944    370.84952  0.032876731  0.032795858            5 
  941000   0.85123617   -6.1261916    369.99017   0.03276569  0.032774662            6 
  942000   0.87045754    -6.112907    370.92254  0.032813388   0.03275363            4 
  943000   0.88106509   -6.0937127    371.20328    0.0328034   0.03273266            4 
  944000   0.89745194   -6.1044004     370.9827  0.032749179  0.032711457            4 
  945000   0.86307361   -6.0993621    371.94654  0.032799519  0.032690212            4 
  946000   0.86398365   -6.1141706    370.93578  0.032675809  0.032668995            4 
  947000   0.87288476   -6.1322652    371.45942  0.032687383    0.0326478            4 
  948000   0.87714343   -6.1380208    371.71443  0.032675319    0.0326264            4 
  949000   0.88689257   -6.1158558    373.39626  0.032788572  0.032605143            9 
  950000   0.87428556   -6.1415213    371.79477  0.032613576   0.03258401           10 
  951000    0.8645018   -6.1402179     372.5789  0.032647993  0.032563124            6 
  952000   0.86155311   -6.0988762    372.76148  0.032629682  0.032542248            5 
  953000   0.85989752   -6.1117941    373.41875  0.032652916  0.032521458            3 
  954000   0.87085502    -6.098993    373.28523  0.032607026  0.032500552           11 
  955000   0.89063387   -6.1104398    374.26714  0.032658564  0.032479793            6 
  956000   0.86910915   -6.1170493    373.07643  0.032520609  0.032458684            4 
  957000   0.88347967   -6.1114899    374.59916  0.032619223   0.03243748            4 
  958000   0.88603395   -6.1393909    373.17276  0.032461096  0.032416244            8 
  959000   0.88253533   -6.1430176    374.04402  0.032502957  0.032394992            5 
  960000   0.86403783    -6.102607    373.57799  0.032428645  0.032373883            4 
  961000   0.88520864   -6.1071597    373.84727  0.032418251  0.032353025            4 
  962000   0.88424317   -6.1068706    375.23293  0.032504585  0.032331881            6 
  963000   0.87021413   -6.1487221    373.55912  0.032325988  0.032310784            6 
  964000   0.86141925   -6.1277266    373.79861  0.032313158  0.032289532            4 
  965000   0.86795466   -6.1157406    374.30013  0.032322982  0.032268361            5 
  966000   0.87615692   -6.1456263    374.81323  0.032333785  0.032247283            9 
  967000   0.87272688   -6.1224293    374.41668  0.032266174  0.032226184            6 
  968000   0.87335043   -6.1242389    374.79226  0.032265174  0.032205087            5 
  969000   0.88120544   -6.1395188    374.39753   0.03219793  0.032183541            9 
  970000    0.8725975    -6.154551    374.73748  0.032193941  0.032162019            7 
  971000   0.85827844   -6.1475497    374.72476  0.032159694  0.032140481            5 
  972000   0.87267779    -6.124051    375.77986  0.032217067  0.032118995           10 
  973000    0.8568857   -6.1454091    375.98199  0.032201267  0.032097575            5 
  974000   0.85324598   -6.1540943    375.25347  0.032105875  0.032076189            3 
  975000    0.8669787   -6.1290991    376.34961  0.032166634  0.032054525            4 
  976000   0.86895935   -6.1480998    376.02057  0.032105582  0.032033022            4 
  977000   0.86435829   -6.1376294    375.75546  0.032050108   0.03201163            8 
  978000   0.88098116   -6.1292743    375.20588  0.031970508  0.031990186            4 
  979000   0.87110031    -6.130704    376.06034  0.032010584  0.031968657            5 
  980000   0.86489614   -6.1382498    376.91197  0.032050338  0.031947392            6 
  981000   0.87825239   -6.1645439    374.92433  0.031848822  0.031925836            3 
  982000   0.84471181   -6.1522173    376.61764  0.031960085  0.031904215            4 
  983000   0.84508079   -6.1611213    376.41064  0.031910023  0.031882691            5 
  984000    0.8192137   -6.1673905    376.64209  0.031897196  0.031861102            5 
  985000   0.84799756    -6.139474    376.98231  0.031893597  0.031839472            5 
  986000   0.86136835   -6.1318789    378.00687  0.031947842   0.03181811            9 
  987000    0.8700647    -6.146534    377.11791  0.031840418  0.031796358            5 
  988000   0.87153586   -6.1704338    377.31072  0.031824453  0.031774738            4 
  989000    0.8586025   -6.1530942    377.49387  0.031807708  0.031753155            9 
  990000   0.85405383   -6.1859038    376.74255  0.031712336  0.031731626            6 
  991000   0.87405322   -6.1927677    376.83266  0.031687913  0.031710075            4 
  992000   0.85692003   -6.1773426    377.20492  0.031687242  0.031688717            6 
  993000    0.8613781   -6.1488083    377.98492  0.031720789  0.031667045            7 
  994000   0.85096127   -6.1950033    377.65248  0.031661006  0.031645299            3 
  995000   0.86953866   -6.1768197    377.37907  0.031606287  0.031623402            4 
  996000    0.8591678   -6.1567096    378.16214  0.031640072   0.03160153           12 
  997000   0.84326649   -6.1733583    378.28027   0.03161821  0.031579874            5 
  998000   0.84733445   -6.1710733    378.02458  0.031565179  0.031558229            6 
  999000   0.86672717   -6.1679472     378.1955   0.03154784  0.031536506            4 
 1000000   0.84254651   -6.1808995    378.37925  0.031531604  0.031515053            4 
 1001000   0.85028771   -6.1648069    379.03628  0.031554802  0.031493532           10 
 1002000   0.85838636   -6.1446796    378.77308   0.03150142  0.031472147           15 
 1003000   0.85022443   -6.1562541    378.63227  0.031458314  0.031450807            3 
 1004000   0.86419773   -6.1620699     379.4056  0.031491168  0.031429431            5 
 1005000   0.83881968   -6.1448987    380.16282  0.031522622    0.0314082            4 
 1006000   0.84274692   -6.1920793    379.85386  0.031465694  0.031386839           11 
 1007000   0.85159906   -6.1556691    380.65668  0.031500884  0.031365561           10 
 1008000   0.84853903    -6.161858    380.53704  0.031459742   0.03134425            3 
 1009000   0.86923185   -6.1812693    380.29739   0.03140877  0.031323115            7 
 1010000   0.86149726   -6.1567316    381.22275  0.031454023  0.031302224            2 
 1011000     0.843526   -6.1535254    380.71329  0.031380918  0.031281159            4 
 1012000   0.85662142   -6.2035381    380.75786  0.031353579  0.031260071           15 
 1013000   0.85506004   -6.1842363     380.2844  0.031283679  0.031238725           15 
 1014000    0.8454224   -6.1740457    379.57965  0.031194909  0.031217466            4 
 1015000   0.85468973   -6.1582695    381.72845  0.031340595  0.031196203            4 
 1016000   0.83646136   -6.1567979    381.39261  0.031282202  0.031174966            6 
 1017000   0.85001797   -6.1751909    381.97529  0.031299188  0.031154024            6 
 1018000   0.84630113    -6.177199    381.41034  0.031222195   0.03113291            6 
 1019000   0.84414728      -6.2074    380.39421  0.031108457  0.031111524           17 
 1020000   0.84841472   -6.2326485     380.5871  0.031093717  0.031090063           10 
 1021000   0.85777659   -6.2135221    381.07726  0.031103269  0.031068584            7 
 1022000   0.83968696   -6.1855108    381.58116  0.031113924  0.031047079            8 
 1023000   0.84637089   -6.2050753    381.01623   0.03103749  0.031025713            4 
 1024000   0.86571558   -6.1828844     382.2739   0.03110953  0.031004403            5 
 1025000   0.85854027   -6.1880855    382.29408  0.031080819  0.030983268            5 
 1026000   0.85545853   -6.1812781    382.13232  0.031037388  0.030962214            4 
 1027000   0.85887558   -6.2070349    382.51439  0.031038168  0.030941004            6 
 1028000   0.86982062   -6.1833288    381.78945  0.030949209  0.030919808            9 
 1029000   0.85490572   -6.2056477     383.2841  0.031040177  0.030898626           10 
 1030000   0.83028391    -6.173964    384.39496  0.031099916  0.030877575            3 
 1031000    0.8302843    -6.172948    384.47473  0.031076198  0.030856976           11 
 1032000   0.83387726   -6.2056824    383.65557  0.030979939  0.030836164            5 
 1033000   0.83308522   -6.2327641    383.48379  0.030936092   0.03081518            3 
 1034000   0.83891296   -6.2247406    383.45567  0.030903907  0.030794323            5 
 1035000   0.83059713   -6.2137729    384.13354  0.030928627  0.030773299            3 
 1036000   0.85019035   -6.2331781    383.70094  0.030863976  0.030752256           13 
 1037000    0.8350452   -6.1929811    384.60546    0.0309069  0.030731233            5 
 1038000   0.82582267   -6.2206815    384.40488  0.030861021  0.030710422            6 
 1039000   0.84591728   -6.2334405    384.04269  0.030802269   0.03068948            4 
 1040000   0.83636297   -6.2428175     383.6792  0.030743525  0.030668263            5 
 1041000   0.83043078   -6.2440746    383.63927  0.030710796  0.030647137            9 
 1042000   0.84407199   -6.2218143    384.41496  0.030743359  0.030626119            5 
 1043000   0.83061219   -6.2194455    384.29258  0.030704105  0.030605177            3 
 1044000   0.86491308   -6.2203917    384.93232   0.03072576  0.030584191            5 
 1045000   0.83896791   -6.2132768    385.34731  0.030729451   0.03056318            3 
 1046000   0.84292731   -6.2168481    385.00404  0.030672724  0.030542173            7 
 1047000   0.82181817    -6.223029     384.7291  0.030621545  0.030521191            5 
 1048000   0.85369156   -6.2411427    384.60593  0.030582532   0.03050021            8 
 1049000   0.83816223   -6.2347447    384.53218   0.03054752  0.030479178            6 
 1050000   0.82507284   -6.2349741    384.82071  0.030541327  0.030458164            6 
 1051000   0.85103896   -6.2502378    384.40364  0.030479198  0.030437062            9 
 1052000   0.84030774   -6.2487566    385.16051   0.03051018  0.030415963           11 
 1053000   0.82630326   -6.2112282    386.24148  0.030566752  0.030395051            3 
 1054000    0.8311121   -6.2065292    385.99418  0.030518199  0.030374153            9 
 1055000   0.83180642   -6.2163714    386.06729  0.030495046  0.030353251            7 
 1056000   0.83340457   -6.2075133    386.80497  0.030524382  0.030332189            8 
 1057000   0.80690613   -6.2223341    386.49018  0.030470686  0.030311269           10 
 1058000   0.84147646   -6.2424452    385.64275  0.030375138   0.03029023            6 
 1059000   0.83116711   -6.2270816    386.65146  0.030425831  0.030269123            9 
 1060000   0.85070031   -6.2221238    386.67071  0.030398641  0.030247971            8 
 1061000   0.83433748   -6.2251552    386.32241  0.030342633  0.030226981            5 
 1062000   0.83225855   -6.2313806    386.09845  0.030296489  0.030206084            5 
 1063000    0.8464657    -6.219017    387.13896  0.030349558  0.030185441            7 
 1064000   0.83930399   -6.2475025    386.85707  0.030298956  0.030164701            5 
 1065000   0.81820667   -6.2478721    387.34291  0.030308522   0.03014414            8 
 1066000   0.82954997   -6.2344673    386.28664  0.030197517  0.030123416            8 
 1067000   0.81555443   -6.2568084    387.76641  0.030284787  0.030102697            4 
 1068000   0.84169014   -6.2981772    386.51451  0.030158748  0.030081958            5 
 1069000   0.82798248   -6.2315139    387.27203  0.030189588  0.030061211            4 
 1070000   0.83106339   -6.2384518    389.57072  0.030340399   0.03004053            4 
 1071000   0.82742353    -6.265119     388.1255  0.030199619  0.030019943            3 
 1072000   0.82578623   -6.2304737    390.16793  0.030330219  0.029999385           10 
 1073000   0.81522966   -6.2398104    388.60108  0.030180264  0.029978703            7 
 1074000   0.81972324    -6.257131    387.58781  0.030073542  0.029958037            7 
 1075000   0.81889171   -6.2325201     390.3535  0.030259961  0.029937414            6 
 1076000   0.81902961    -6.232456    388.94309  0.030122606  0.029916924           15 
 1077000   0.82336973   -6.2518078    389.52535  0.030139689   0.02989649            4 
 1078000   0.82567916   -6.2403104    390.56653  0.030192218  0.029876363           10 
 1079000    0.8177402   -6.2722355    389.52397  0.030083718  0.029856092            5 
 1080000   0.82084564   -6.2329864    389.44605  0.030049849  0.029835673            8 
 1081000   0.83603489   -6.2742846    388.77096   0.02997001  0.029815227            5 
 1082000   0.83197101   -6.2487229    389.31499  0.029984211  0.029794871           23 
 1083000   0.81735444   -6.2878052    389.39485  0.029962669  0.029774315           15 
 1084000   0.81619393   -6.2846102    388.96143  0.029901709   0.02975377           13 
 1085000   0.82303434    -6.240475    390.62015  0.030001548  0.029733349            4 
 1086000   0.80370793   -6.2735202    390.71366  0.029981097  0.029712946            8 
 1087000   0.82238088    -6.271178    390.35536  0.029926047   0.02969245           10 
 1088000   0.81289732   -6.2767773    389.46682  0.029830486  0.029671681            3 
 1089000    0.8121657   -6.2580989    390.05097  0.029847794  0.029651085            5 
 1090000   0.83391939   -6.2423911    391.56002  0.029935781  0.029630728            7 
 1091000   0.82495217   -6.2377036    391.50467  0.029904115  0.029610491            4 
 1092000    0.8215151   -6.2692367    390.85303  0.029827002  0.029590103            5 
 1093000   0.79800446   -6.2711661    391.70514   0.02986468  0.029569734            3 
 1094000   0.81514232   -6.2758074    391.91219  0.029853153  0.029549531           11 
 1095000   0.80758405   -6.2818946    390.88502  0.029747718  0.029529256           12 
 1096000    0.8219365   -6.2447404    392.74067  0.029861669   0.02950927            4 
 1097000   0.81115984   -6.2668787    391.88612  0.029769532  0.029489228            5 
 1098000   0.83034074   -6.2656741    392.83318  0.029814298  0.029469309           10 
 1099000   0.83512814   -6.2298325    393.24582  0.029818458   0.02944953            5 
 1100000   0.82316307   -6.2508549    392.99466  0.029772323  0.029429909            2 
 1101000   0.80829768   -6.2903158    393.70935  0.029799376  0.029410139           19 
 1102000   0.79641555   -6.2841007    393.26496   0.02973873  0.029390514           14 
 1103000   0.82766519    -6.275713    393.18669  0.029705854  0.029370649            6 
 1104000   0.81184572   -6.2528675    392.12118  0.029598519  0.029350825            6 
 1105000   0.82482035   -6.2858059    392.90736  0.029631023  0.029331026            7 
 1106000   0.79261654   -6.2914341     393.1289  0.029620924  0.029311238            7 
 1107000    0.8088081   -6.3013632    393.04112  0.029587558  0.029291326           14 
 1108000   0.82129963   -6.2693935    393.63594  0.029605591  0.029271439           11 
 1109000   0.81146692   -6.3184986    392.70807  0.029509173  0.029251653            7 
 1110000   0.81132598    -6.295638    393.24047  0.029522558  0.029231645            6 
 1111000   0.81588331   -6.3172043    394.11115  0.029561292  0.029211754           11 
 1112000   0.81268055   -6.2857182    394.79283  0.029585794  0.029192155           11 
 1113000   0.81917766   -6.3034763    394.09409  0.029506895  0.029172628            6 
 1114000   0.79890293   -6.2858661    395.85487  0.029612124  0.029152886            8 
 1115000   0.80843833   -6.2950813     394.2946  0.029468954  0.029133436            4 
 1116000    0.7978338   -6.3229031    394.16726  0.029433039   0.02911377            7 
 1117000   0.81221495   -6.2961913    394.71042  0.029447211  0.029094107            6 
 1118000   0.81845851    -6.305954     393.4296  0.029325403  0.029074446           16 
 1119000   0.80180008   -6.2960053    395.65992   0.02946529  0.029054742            8 
 1120000   0.80220165   -6.2930648    395.43266  0.029422073  0.029035227            4 
 1121000   0.82076836   -6.2916397    394.61949  0.029335377  0.029015542            8 
 1122000   0.78053474   -6.2967891    395.13729  0.029347689  0.028995846            6 
 1123000   0.80843514   -6.2905581    395.99826  0.029385445  0.028976218            4 
 1124000   0.80610176   -6.3114121    394.61449  0.029256709  0.028956429            8 
 1125000   0.80052142   -6.3117843     394.8703  0.029249652  0.028936667           11 
 1126000   0.81029028   -6.3292571    393.62229  0.029131312  0.028916738            4 
 1127000   0.80419807   -6.3024149    394.38654  0.029161974  0.028896679            5 
 1128000   0.80318635    -6.292614    395.63934  0.029228674  0.028876697            3 
 1129000   0.81116193   -6.3112081    394.83551  0.029143454  0.028856845           12 
 1130000   0.79845874   -6.3105046    394.88824  0.029121551  0.028836932           14 
 1131000   0.79755797   -6.3510206    394.41023  0.029060582  0.028816938           10 
 1132000   0.79400444   -6.2847172    395.92601  0.029146497  0.028797026           14 
 1133000    0.8150025   -6.2904606    395.38356  0.029080874   0.02877725            8 
 1134000   0.79470152   -6.2922033    395.17754  0.029040089  0.028757302            7 
 1135000   0.78575457   -6.3067049    396.14189  0.029085308  0.028737315            7 
 1136000   0.81215662   -6.3223182    395.55329  0.029016526  0.028717431            5 
 1137000    0.8027811   -6.3398473    395.74448  0.029005019  0.028697473           13 
 1138000   0.78789387   -6.3177981    396.05156  0.029002018  0.028677376           22 
 1139000   0.81456567   -6.3174617    395.91132  0.028966295  0.028657316           13 
 1140000   0.79923961   -6.3075848    396.78093  0.029004454  0.028637422            8 
 1141000   0.78817812   -6.2887774    395.90468  0.028915037  0.028617468            8 
 1142000   0.80649483   -6.2861711    395.90076  0.028889431  0.028597459           11 
 1143000   0.78346789   -6.3396505    395.18466  0.028811947  0.028577534           17 
 1144000   0.80888538   -6.3415727    394.38694  0.028728652   0.02855733            8 
 1145000    0.7930174   -6.3309596    395.94067  0.028816643  0.028537189            6 
 1146000   0.81437136   -6.3105282    396.73328  0.028849133  0.028517177            6 
 1147000   0.79347799   -6.3298492    394.88469  0.028689675  0.028496932            8 
 1148000   0.78841645   -6.3352023    395.49854  0.028709243  0.028476641            9 
 1149000   0.78838572   -6.3320439    396.69412  0.028770969  0.028456346            7 
 1150000   0.78177911   -6.2909736    397.17696  0.028780939  0.028436298            9 
 1151000    0.8029415   -6.3272969    396.62868  0.028716238  0.028416177            6 
 1152000   0.80008826    -6.343304    395.45191  0.028606185  0.028395971            8 
 1153000   0.80211805   -6.2911497    396.78314  0.028677591  0.028375885            3 
 1154000   0.81136771   -6.3107227     396.6329   0.02864189  0.028355861            4 
 1155000   0.78922403   -6.3258982    396.71066  0.028622703  0.028335894            5 
 1156000   0.79874597   -6.3312807    396.65705  0.028594078  0.028315923            5 
 1157000   0.79588802   -6.3305058    396.21148  0.028537272  0.028295823           10 
 1158000   0.80859219   -6.3239988    397.34036  0.028593866   0.02827562            6 
 1159000   0.79129632   -6.3355107    398.52624  0.028654461  0.028255562            5 
 1160000   0.78346069   -6.3265381     397.8094  0.028578261  0.028235705            9 
 1161000   0.79368361   -6.3344755    397.12147  0.028504269  0.028215872           12 
 1162000   0.79499878   -6.3391187    398.43318  0.028573808  0.028195909           12 
 1163000   0.81012281   -6.3551595    396.72926  0.028427147  0.028176077            8 
 1164000   0.77756697      -6.3432     397.9458  0.028489819  0.028156347            5 
 1165000   0.79157545   -6.3451473     398.0232  0.028470902  0.028136705            5 
 1166000   0.78586268   -6.3505067     399.0041  0.028516588  0.028117053            6 
 1167000   0.76975708   -6.3386639     399.7752  0.028547215  0.028097353            8 
 1168000   0.78717912   -6.3543238    399.06222  0.028471905  0.028077769            8 
 1169000   0.78593285   -6.3639424    399.52316  0.028480408  0.028058103            9 
 1170000   0.78944086    -6.342329    399.42828  0.028449308  0.028038499            8 
 1171000   0.77774721   -6.3577643    399.20084  0.028408827  0.028018884            7 
 1172000    0.7757846   -6.3671779    398.00477  0.028299542  0.027999204           22 
 1173000   0.78555636   -6.3461367    399.77967  0.028401511   0.02797947            8 
 1174000   0.78545577   -6.3529945    399.62854  0.028366592  0.027959835            8 
 1175000   0.80899943   -6.3523476    399.01895  0.028299216  0.027940201            7 
 1176000   0.77474383   -6.3707738    398.25397  0.028220944  0.027920632           14 
 1177000   0.78539029   -6.3420799    399.52973  0.028287293  0.027900945            9 
 1178000   0.78723692   -6.3468254    399.55162  0.028264829  0.027881465           11 
 1179000    0.7793579   -6.3459691    399.30639  0.028223522  0.027861944            9 
 1180000   0.79928299    -6.336349    399.68139  0.028226087  0.027842349            6 
 1181000   0.78299788     -6.36021    398.75838  0.028137058  0.027822825            9 
 1182000   0.77083119   -6.3787138    399.45548    0.0281624   0.02780326            6 
 1183000   0.79467641     -6.36257    399.53752  0.028144373  0.027783416            8 
 1184000   0.77205941   -6.3666387    399.71353   0.02813299   0.02776364            7 
 1185000   0.79333458   -6.3846097    399.07946  0.028064659   0.02774374           13 
 1186000   0.77687267   -6.3843737     399.1823  0.028048222  0.027723792           15 
 1187000   0.78684496   -6.3694905     399.7547  0.028064778  0.027704051            5 
 1188000   0.79272727   -6.3946942    399.30377  0.028009524  0.027684358           12 
 1189000   0.79878341   -6.3692833    399.61001   0.02800743   0.02766459           18 
 1190000   0.78221584   -6.4041817    398.70462  0.027920492  0.027645011            9 
 1191000   0.76873979   -6.3890651    401.16362  0.028069103  0.027625422            9 
 1192000   0.78293748    -6.388042    400.36649  0.027989828  0.027605767            8 
 1193000   0.78201679   -6.3988775    399.61147  0.027913626  0.027586106            8 
 1194000   0.76952799   -6.3869011    401.39767  0.028014913  0.027566617            5 
 1195000   0.77764033    -6.372476    399.80692  0.027880538  0.027546999            9 
 1196000   0.76887255    -6.412431    400.88985  0.027932682  0.027527621           10 
 1197000   0.78493934    -6.402302    401.75408  0.027969512  0.027508042           10 
 1198000   0.77718575   -6.3640542     401.6528  0.027939121  0.027488523            3 
 1199000   0.78143447   -6.3982992    401.45527   0.02790209  0.027468996            8 
 1200000   0.78207459   -6.4302342    400.63117  0.027821609  0.027449515           11 
 1201000   0.77802786    -6.401854    400.59413  0.027795874  0.027430143            9 
 1202000   0.78062224   -6.3738968    400.86271  0.027791369  0.027410727            7 
 1203000   0.76138429   -6.3793644     402.2651  0.027865413  0.027391418            8 
 1204000   0.76445532   -6.3877774    402.88255  0.027885005  0.027372218            6 
 1205000   0.77247009   -6.3531954    402.10745  0.027808261  0.027352995           16 
 1206000    0.7699812   -6.3646154    402.81585  0.027834152  0.027333928           22 
 1207000    0.7599592   -6.3689979    402.50042  0.027789314  0.027314876            9 
 1208000   0.77551148   -6.3825058    402.45273  0.027763019  0.027295928            7 
 1209000   0.76355563   -6.3854397    402.62328  0.027751812  0.027276959            5 
 1210000    0.7804216   -6.3864621    402.06603  0.027690498  0.027257918            4 
 1211000    0.7775864    -6.408333    402.89104  0.027724404  0.027238841           12 
 1212000   0.76068531    -6.369591    402.97735  0.027707463  0.027219872            8 
 1213000   0.76323979   -6.3902517    402.09208  0.027623803  0.027200938            5 
 1214000   0.77599984   -6.3713075    403.87822  0.027723656  0.027182005           11 
 1215000    0.7721169   -6.3813859    403.36118  0.027665376  0.027163121            6 
 1216000   0.77561375   -6.3897786    403.66997  0.027663786  0.027144384           17 
 1217000   0.75547695   -6.4286347    403.23572   0.02761132  0.027125413           12 
 1218000   0.76552174   -6.4157841    402.32337  0.027526229  0.027106278           17 
 1219000   0.77518052   -6.4369149    402.26751   0.02749983  0.027087256            7 
 1220000   0.74719512   -6.4056106    402.98218  0.027526105  0.027068268            8 
 1221000   0.76388111   -6.4459224    401.76962  0.027420804   0.02704912           13 
 1222000   0.77699585   -6.3675888     404.3531  0.027574543  0.027030095           17 
 1223000    0.7652321   -6.4015978    403.84422  0.027517322  0.027011092           12 
 1224000   0.74628192   -6.4131185    403.72924  0.027487013  0.026992047           12 
 1225000   0.76600193   -6.4051364    403.31336  0.027436283  0.026973105            8 
 1226000   0.76363581   -6.3871859    402.99454  0.027392234  0.026954285           20 
 1227000    0.7713695   -6.4285183    403.95601  0.027435209  0.026935382            9 
 1228000   0.76691164   -6.4081531    404.02928  0.027417839  0.026916546           16 
 1229000   0.74590887   -6.3781792    405.34689  0.027484872  0.026897722            5 
 1230000   0.75431375   -6.4370686    404.46697  0.027402911  0.026878824            7 
 1231000   0.74722233   -6.4195044    403.67334  0.027326926   0.02685986            9 
 1232000   0.75242389   -6.4397553    404.26607  0.027344837  0.026840796           11 
 1233000   0.76689902   -6.4133097    404.15406  0.027315089  0.026821741            5 
 1234000   0.75367673   -6.4069564    404.13824  0.027291885  0.026802717           10 
 1235000   0.75245916    -6.423744    403.39957  0.027219944  0.026783755            8 
 1236000   0.76865446   -6.3978156    403.79078  0.027224297  0.026764821            6 
 1237000   0.76583615   -6.4207656    402.92165  0.027143738  0.026745909            6 
 1238000   0.74994263    -6.375073     405.2854  0.027280923  0.026726943           16 
 1239000   0.76401796   -6.4024339    404.26827  0.027190494  0.026708028           17 
 1240000   0.75306379   -6.4168877    403.67783  0.027128886  0.026689115            8 
 1241000   0.76470412   -6.4031153    404.61242  0.027169784  0.026670111            8 
 1242000   0.77180503   -6.4289426    404.24723  0.027123405  0.026651273           10 
 1243000   0.76221049   -6.4232843    405.67659  0.027197411  0.026632317            8 
 1244000   0.75577882   -6.4317237    404.21338  0.027077531  0.026613433           11 
 1245000   0.76580966   -6.3902289    405.35913  0.027132472  0.026594538           21 
 1246000   0.75934931   -6.3947447    404.67033  0.027064628  0.026575583           12 
 1247000    0.7719047   -6.4318787    403.50242  0.026964877  0.026556538            6 
 1248000   0.76156531   -6.4574186    402.98523  0.026908736  0.026537349           13 
 1249000   0.76759111   -6.4448938    404.64007  0.026997602  0.026518251           10 
 1250000   0.77341018   -6.4503999    405.00974  0.027000649  0.026499266            5 
 1251000   0.76601741   -6.4130014    405.46369  0.027009305  0.026480353            6 
 1252000   0.76257912   -6.4284814    404.74801  0.026940096   0.02646168            6 
 1253000    0.7550448   -6.4219751    404.86018  0.026926056  0.026442959            8 
 1254000   0.74187025   -6.4076875    406.04259   0.02698316  0.026424247           15 
 1255000   0.75454372   -6.4101104      405.701  0.026938978   0.02640564            6 
 1256000   0.75869041   -6.4006737    407.46144  0.027034331  0.026387236            5 
 1257000   0.74638464   -6.3850903    405.84952  0.026905961  0.026368786            9 
 1258000   0.75152216   -6.4159023    406.92604  0.026955885  0.026350155           14 
 1259000    0.7643764   -6.4517172    406.09372  0.026879383  0.026331481            7 
 1260000   0.74422469    -6.451335    406.77695  0.026903237  0.026312707           11 
 1261000   0.75763966   -6.4603342    405.63937  0.026806725  0.026293928           11 
 1262000   0.77082794   -6.4495771    405.50844  0.026776838  0.026275153           10 
 1263000     0.740132   -6.4238676    406.98705  0.026853197  0.026256441           11 
 1264000   0.74850615   -6.4483516    405.59451  0.026740144  0.026237717           11 
 1265000   0.73452145   -6.4499351    406.56712  0.026783078  0.026219013           25 
 1266000   0.73819112   -6.4575989    406.16227  0.026735273  0.026200263           16 
 1267000   0.74603454   -6.4727532    404.58988  0.026610753   0.02618144            9 
 1268000   0.76061879   -6.4599627    405.39359  0.026642586  0.026162662            9 
 1269000   0.74179499   -6.4286033     406.7524  0.026710822  0.026144037           13 
 1270000   0.75076539   -6.4676377    405.82947   0.02662923  0.026125451           27 
 1271000   0.74912273   -6.4604889    406.93707  0.026680899   0.02610688           12 
 1272000   0.75281111   -6.4737506    406.65282  0.026641301  0.026088316           14 
 1273000   0.75577823   -6.4464887    406.56959  0.026614924  0.026069779            8 
 1274000   0.72221288    -6.435039    407.02315  0.026623702  0.026051215           15 
 1275000   0.74803662   -6.4566252    406.29646  0.026555324  0.026032814           17 
 1276000   0.74973174   -6.4839086    406.64234  0.026557101  0.026014219            6 
 1277000   0.74860107   -6.4418161    407.10198    0.0265663  0.025995627            6 
 1278000   0.74196091   -6.4562883    406.51743  0.026507396  0.025977127            5 
 1279000   0.74422508   -6.4738403    407.18665  0.026530274  0.025958753           15 
 1280000   0.73977667   -6.4649805    408.19596  0.026575258  0.025940387            6 
 1281000   0.74803163   -6.4588703    406.47713  0.026442697  0.025921901            7 
 1282000   0.73062321   -6.4690868    408.26541  0.026538313  0.025903505            9 
 1283000   0.74007229   -6.4791297    406.56766  0.026407357  0.025885064            8 
 1284000   0.74741696   -6.4380799    407.99029  0.026479121  0.025866618           11 
 1285000   0.73295462   -6.4347208    407.44476  0.026423136  0.025848238            7 
 1286000   0.73718972   -6.4273978    408.75471  0.026487475  0.025829928           10 
 1287000   0.71986452   -6.4625894    407.89398  0.026411162  0.025811627            6 
 1288000   0.73735635   -6.4207295    409.05245  0.026465609  0.025793413           29 
 1289000   0.74249918   -6.4442663     408.2697  0.026394473   0.02577519           16 
 1290000   0.74414504    -6.438311     407.5584  0.026328062  0.025756911           13 
 1291000   0.71995334   -6.4641006    407.19061  0.026283928  0.025738511           14 
 1292000   0.73192071   -6.4664766    407.66514  0.026294191  0.025720023           14 
 1293000   0.73792715   -6.4855322    408.41501  0.026322184   0.02570167            8 
 1294000   0.72978245   -6.4845088    408.01048  0.026275791  0.025683174            9 
 1295000   0.72632372   -6.5009948    406.92645  0.026185743  0.025664729           12 
 1296000   0.74183695   -6.4812121    408.79203  0.026285496  0.025646342            9 
 1297000    0.7165817   -6.4625067    408.84538  0.026268657  0.025627979            8 
 1298000   0.73349967   -6.4897621    408.28058  0.026212159  0.025609554           12 
 1299000     0.718754   -6.4969629    407.39662  0.026135272  0.025591115           11 
 1300000   0.71246089   -6.4964894    408.49824  0.026185785  0.025572604            8 
 1301000   0.72850116   -6.4993858    408.08685  0.026139306  0.025554196            9 
 1302000   0.73543749   -6.4894041    408.80036  0.026164898  0.025535947            8 
 1303000   0.72901509   -6.4988629    408.89937  0.026151149  0.025517652           13 
 1304000   0.72544806   -6.4758462    408.09897  0.026079945  0.025499408            9 
 1305000   0.72483735   -6.4692329    410.06215  0.026185322   0.02548135            4 
 1306000   0.74056312   -6.4612895    409.76769  0.026146484  0.025463288            5 
 1307000   0.72878725   -6.4853277    409.41468  0.026103971  0.025445215           12 
 1308000   0.73760138   -6.5023817    408.83095  0.026046824  0.025427085           15 
 1309000   0.72643849   -6.5029854    409.98447  0.026100361  0.025408955           10 
 1310000   0.73722644   -6.4876777    408.79661  0.026004874  0.025390963            8 
 1311000   0.73614757   -6.4943395    410.49237  0.026092828  0.025372931           10 
 1312000   0.73157878   -6.5347063    408.20518  0.025927667  0.025354919           21 
 1313000   0.73448062   -6.4984639    409.86187  0.026013066  0.025336863           14 
 1314000   0.74351298   -6.4707498    410.61301  0.026040906  0.025318889           14 
 1315000   0.72749825   -6.5050685    409.71302   0.02596407  0.025300911           15 
 1316000   0.72990733   -6.4831467    409.91534  0.025957152  0.025283009           19 
 1317000   0.73514849   -6.5069543    410.51863  0.025975616  0.025265092           26 
 1318000   0.71175527   -6.4877572    411.03952  0.025988842  0.025247119           15 
 1319000   0.71560062   -6.5282507    409.20372  0.025853154  0.025229142           11 
 1320000    0.7287735   -6.5321397    408.72363  0.025803259  0.025211139           17 
 1321000   0.73748575   -6.5213328    408.70018  0.025782247  0.025193211           19 
 1322000   0.73120001   -6.5275017    408.50751  0.025750599  0.025175168            7 
 1323000   0.73257824   -6.4778236    410.31647  0.025845079  0.025157125           21 
 1324000   0.73291589   -6.5038795     410.1921   0.02581773  0.025139162           14 
 1325000   0.74336758   -6.5009781    410.44949  0.025814433  0.025121145           10 
 1326000   0.72895942   -6.5091149    409.94338  0.025763159  0.025103018            7 
 1327000   0.72546173   -6.4958426    411.03543  0.025812323  0.025085044           10 
 1328000   0.72029437   -6.4957573     410.4721  0.025757536  0.025067101           14 
 1329000   0.70809252    -6.473741    410.30816  0.025727876  0.025049284           26 
 1330000   0.73516486   -6.5213075    410.03052  0.025691135  0.025031263           12 
 1331000   0.71655382   -6.5179615    410.46324  0.025698926  0.025013378           16 
 1332000   0.72605743   -6.5299889    409.54301   0.02562206   0.02499543           17 
 1333000   0.71909793   -6.5055543     410.3382  0.025652551   0.02497756           19 
 1334000   0.72062026   -6.5241143    410.47079  0.025641604  0.024959724            9 
 1335000   0.71404775   -6.5223061    410.87012  0.025647324  0.024941814            4 
 1336000   0.72364172   -6.5368914    410.33345  0.025594651  0.024924019            8 
 1337000   0.71352144   -6.4955417    411.04641  0.025619946  0.024906275            8 
 1338000    0.7174226   -6.5297644    411.12536  0.025605715   0.02488845           12 
 1339000     0.722038   -6.5237697    410.99108  0.025578235  0.024870592           21 
 1340000   0.72618813   -6.5435045    410.67614  0.025539561  0.024852657           13 
 1341000   0.71553364   -6.5155091    411.47411  0.025570104  0.024834769           11 
 1342000   0.72264309   -6.5431446    409.86809  0.025451322  0.024816788           13 
 1343000   0.71684281   -6.5316294    410.55473  0.025474977  0.024798866           20 
 1344000   0.69724211   -6.5326207    410.57757  0.025457439  0.024780844           23 
 1345000   0.73370622   -6.5292944    410.00426   0.02540299  0.024762829            7 
 1346000   0.73103493    -6.536464     410.0268  0.025385513   0.02474488            8 
 1347000   0.71647499   -6.5418274    409.85904  0.025356288  0.024726844           14 
 1348000   0.71193003   -6.5299065    410.24369  0.025361257  0.024708886           26 
 1349000    0.7184735   -6.5234866    411.08596  0.025394487  0.024691018           10 
 1350000   0.71416441   -6.5379499    411.01095  0.025371046  0.024673183           13 
 1351000   0.71411831   -6.5206331     411.9745  0.025411701   0.02465557           14 
 1352000   0.71097851   -6.5451486    411.85181  0.025385343  0.024637963           10 
 1353000   0.69334774   -6.5052769     411.8627  0.025367252  0.024620476           11 
 1354000   0.71544016   -6.5310949    411.29032  0.025313289  0.024602872           11 
 1355000   0.72969791   -6.5278868    411.99331  0.025337842  0.024585302           13 
 1356000   0.70253834   -6.5102557    412.43449  0.025346269  0.024567781            9 
 1357000    0.7214307   -6.5450752     412.1999  0.025313185  0.024550248            5 
 1358000    0.7085254   -6.5462959    412.17558  0.025293053  0.024532759            8 
 1359000   0.70360709   -6.5233608    412.03334  0.025265719  0.024515238           12 
 1360000   0.71119295   -6.5258164    411.58646  0.025219759  0.024497668           15 
 1361000   0.71931411   -6.5281897    411.59656  0.025201847  0.024480179           12 
 1362000   0.72351304   -6.5527248    412.17344  0.025218639  0.024462663           13 
 1363000   0.70605629     -6.54575    412.80606  0.025238815  0.024445143            7 
 1364000   0.72165353   -6.5580605    411.99319  0.025170649  0.024427675           11 
 1365000   0.72477514   -6.5641788     411.3349  0.025112021   0.02441019           10 
 1366000   0.71334155   -6.5690749    412.02504  0.025135739  0.024392671            8 
 1367000   0.69688622   -6.5414647    411.95876  0.025113312  0.024375192           17 
 1368000   0.71587491    -6.528995    412.46628   0.02512587   0.02435773           12 
 1369000    0.6969969   -6.5733952    412.09647  0.025085005  0.024340187            8 
 1370000    0.6981826   -6.5731278    412.09768  0.025066769  0.024322685           12 
 1371000   0.69505381   -6.5131845    413.04757  0.025106222   0.02430521            8 
 1372000   0.70553374   -6.5557247    413.12928  0.025092886  0.024287746           13 
 1373000   0.69170019   -6.5533875    412.76583  0.025052551  0.024270246            9 
 1374000   0.69005783    -6.557344    412.45955  0.025015742   0.02425279           19 
 1375000   0.71757753   -6.5417341    412.46257  0.024997732   0.02423539           12 
 1376000   0.70922391    -6.535935    412.51949  0.024983012  0.024217928           11 
 1377000   0.70331735   -6.5480066    413.82212  0.025043702  0.024200424           13 
 1378000    0.7235609   -6.5115885    412.78459  0.024962783  0.024182988           23 
 1379000   0.71705666   -6.5568581    412.74118  0.024942058  0.024165559           16 
 1380000   0.71445299   -6.5398631    413.70465  0.024982165  0.024148218           14 
 1381000   0.70071477    -6.562868    412.43534  0.024887481  0.024130811           12 
 1382000   0.69665873   -6.5485694    413.71604  0.024946698  0.024113382            6 
 1383000    0.7030343   -6.5522714    412.26583  0.024841277  0.024095966           10 
 1384000   0.70613473   -6.5553441    412.21444  0.024820233  0.024078502            7 
 1385000   0.69623188   -6.5532839    412.19471  0.024801126  0.024061048           11 
 1386000   0.69348784   -6.5658893    412.39657  0.024795369  0.024043671           11 
 1387000   0.70055912   -6.5461784    412.40038  0.024777721  0.024026197           13 
 1388000   0.69471244   -6.5929866    411.56351  0.024709625  0.024008632           11 
 1389000   0.71329981   -6.5749421    411.61236  0.024694766  0.023990945           10 
 1390000   0.68914945   -6.5809781    411.55089  0.024673315  0.023973354            6 
 1391000   0.69131833   -6.5835087    412.87306  0.024734787  0.023955769           12 
 1392000   0.69900207   -6.5747097    412.11937  0.024671897  0.023938215           31 
 1393000   0.69036411   -6.5802503    412.33172  0.024666889  0.023920709           15 
 1394000   0.68691893   -6.5765562    411.82883  0.024619131  0.023903247           23 
 1395000   0.69356907   -6.5926958    412.14827  0.024620566  0.023885812           26 
 1396000   0.70496303   -6.5896494    412.59181  0.024629406  0.023868252           11 
 1397000   0.70518814   -6.5875035    412.52267  0.024607651  0.023850742            8 
 1398000   0.68642261   -6.5708127     411.5261  0.024530645  0.023833278           13 
 1399000   0.70000158   -6.5725514    412.54732  0.024573941  0.023815879           20 
 1400000   0.66373406   -6.5848703    412.14995  0.024532735  0.023798444            8 
 1401000   0.69938837   -6.5482456    412.92762  0.024561481   0.02378106           18 
 1402000   0.69457129   -6.6132731    412.71197  0.024531144  0.023763607           21 
 1403000   0.69755669   -6.6022636    411.95839  0.024468899  0.023746047           44 
 1404000   0.69761157   -6.5983585     412.3304  0.024473551  0.023728535           15 
 1405000   0.67643284   -6.5906279    412.40261  0.024460416  0.023711109           25 
 1406000   0.69867956   -6.5809842    413.05102   0.02448145  0.023693681            6 
 1407000   0.69575992   -6.6099752    412.66619  0.024441257  0.023676203           11 
 1408000   0.69538048   -6.6150759    411.50972  0.024355452  0.023658691           11 
 1409000   0.71047868   -6.5849704    413.22615  0.024439682   0.02364119           14 
 1410000   0.70246264   -6.5839118    411.79925  0.024338017  0.023623713           15 
 1411000   0.69283154   -6.6056124    412.52601  0.024363691  0.023606258           20 
 1412000   0.68943153   -6.5898089    412.71477  0.024357576  0.023588817           28 
 1413000   0.67800437   -6.6174395     412.5731  0.024331983  0.023571402           15 
 1414000   0.69869564   -6.6238213    411.84266  0.024271727  0.023554016           23 
 1415000   0.69023691   -6.6159465     412.2458  0.024278315  0.023536585           36 
 1416000   0.68613818   -6.5917081     411.9932  0.024246304  0.023519185           15 
 1417000   0.70672199   -6.6262859    412.00396  0.024229826  0.023501808           19 
 1418000   0.69710598   -6.6125155    412.89386  0.024265036  0.023484373           14 
 1419000   0.68943504   -6.6173799    413.29593  0.024271549  0.023466932           14 
 1420000   0.67083627   -6.6004412    413.11111   0.02424361  0.023449546           15 
 1421000   0.70771812   -6.6150046    412.32995  0.024180738  0.023432227           13 
 1422000   0.69085168   -6.6467809    413.19204  0.024214255  0.023414899           11 
 1423000   0.69160775   -6.6369278    412.06793  0.024131408  0.023397617           31 
 1424000   0.68897659   -6.6069733    413.33663  0.024188707  0.023380319           14 
 1425000   0.69389203   -6.6195918    412.61182  0.024129346  0.023363055           14 
 1426000   0.67485376   -6.6222385    412.67415  0.024116068  0.023345773           14 
 1427000   0.67706857    -6.607159    413.62617  0.024154764  0.023328489           32 
 1428000   0.68516613   -6.6318557    412.37007  0.024064547  0.023311209           27 
 1429000   0.67367725   -6.6278708    412.55672  0.024058591  0.023293922           19 
 1430000   0.68423622   -6.6259744    414.00006  0.024125878  0.023276664           39 
 1431000   0.68357905   -6.6297342    413.29828   0.02406815  0.023259397           52 
 1432000   0.68411128   -6.6331849    411.67086  0.023956638   0.02324202           22 
 1433000   0.68702758   -6.6399054    411.34035    0.0239207  0.023224549           46 
 1434000   0.67193244   -6.6083035    413.60217  0.024035458  0.023207243           26 
 1435000   0.68899226   -6.6425904    412.47014   0.02395297  0.023189986           36 
 1436000   0.68172268   -6.6375845    412.13715  0.023916966  0.023172661           15 
 1437000   0.67952964   -6.6119398    412.99463  0.023950048   0.02315543           14 
 1438000   0.67771607   -6.6315678    413.24484  0.023947893   0.02313827           30 
 1439000    0.6581297   -6.6470919     412.6721  0.023898083  0.023121063           15 
 1440000   0.66652414   -6.5977318    413.74097  0.023943343  0.023103838           13 
 1441000   0.69070251   -6.6402508     413.9151  0.023936798  0.023086691            8 
 1442000   0.68272069   -6.6189326    412.82756  0.023857349  0.023069515           21 
 1443000   0.68040438   -6.6309291    414.67586  0.023947555  0.023052337            8 
 1444000   0.68602104   -6.6250347     412.9323   0.02383035  0.023035188           14 
 1445000   0.67919753   -6.6460285    414.34855  0.023895533  0.023018085           44 
 1446000   0.66918096   -6.6298817    413.43096  0.023826127  0.023000953           29 
 1447000    0.6853688   -6.6475487    412.29192  0.023744064   0.02298381           16 
 1448000   0.68414161   -6.6225759     413.3082  0.023786154  0.022966696           34 
 1449000   0.66887665   -6.6465102    413.05023  0.023754902  0.022949552           10 
 1450000   0.68015357   -6.6251219    413.62487  0.023771544  0.022932433           21 
 1451000   0.68393241    -6.653884    412.66594  0.023700088  0.022915292           13 
 1452000   0.67579793   -6.6199712    413.54699  0.023734332  0.022898179           12 
 1453000    0.6815439   -6.6387145    412.59415  0.023663349  0.022881152           21 
 1454000   0.66467307   -6.6410819    413.16925  0.023680035  0.022864165           21 
 1455000   0.65174613   -6.6597206    412.76076  0.023640364  0.022847138           26 
 1456000   0.67179821   -6.6798868    413.26203  0.023652817  0.022830096           19 
 1457000   0.67956263   -6.6444697    414.19128  0.023689732  0.022813068           33 
 1458000   0.66290091   -6.6504367    413.94319  0.023659304  0.022796207           18 
 1459000   0.67750904   -6.6331831    413.96888  0.023644556  0.022779262           36 
 1460000   0.68054062   -6.6718187     413.1792  0.023583288  0.022762348           38 
 1461000   0.67377095   -6.6480343    414.22829  0.023626984  0.022745459           26 
 1462000   0.66108334   -6.6909476    413.38524   0.02356277  0.022728512           23 
 1463000   0.66848505     -6.65291     413.5332  0.023555092  0.022711595           23 
 1464000   0.65368166   -6.6584106    413.22702  0.023521574  0.022694686           22 
 1465000   0.66579715   -6.6456541    413.27476  0.023508234  0.022677741           13 
 1466000   0.67310533   -6.6741053    413.90623  0.023528094  0.022660785           13 
 1467000   0.68234561   -6.6862772    413.11683  0.023467214  0.022643859           21 
 1468000   0.67248015   -6.6577264     414.1387  0.023509236  0.022626973           54 
 1469000   0.66597051   -6.6431795    414.80751  0.023531173  0.022610148           52 
 1470000   0.65899119   -6.6562703    414.50336  0.023497923  0.022593361           49 
 1471000   0.65770163   -6.6754717    413.65162  0.023433697  0.022576555           82 
 1472000   0.66179414   -6.6746528    413.26064  0.023395643   0.02255979           62 
 1473000   0.65472364   -6.6827437    413.85169  0.023413198  0.022542999           57 
 1474000   0.66880919   -6.6795697     414.8049  0.023451204  0.022526227           43 
 1475000   0.65704877   -6.7003507    412.62553  0.023312177   0.02250936           55 
 1476000   0.66090581   -6.6934875    414.30816  0.023391382  0.022492526           74 
 1477000    0.6742537   -6.7096056    412.07571  0.023249589  0.022475695           36 
 1478000   0.67255497   -6.6823964    414.47258     0.023369  0.022458941           31 
 1479000   0.66221859   -6.6713798    414.61101  0.023360999  0.022442304           22 
 1480000   0.65874134     -6.70057    413.77403  0.023298087  0.022425646           47 
 1481000    0.6614926   -6.6764312      414.003   0.02329524  0.022408941           44 
 1482000   0.66472575   -6.6827739    414.74279   0.02332112  0.022392243           19 
 1483000   0.65465148   -6.6881177    413.89321  0.023257654  0.022375567           48 
 1484000   0.66830712   -6.6888411     414.0849  0.023252746  0.022358794           23 
 1485000   0.65622087    -6.698752    414.62586  0.023267444  0.022342031           16 
 1486000   0.66951298    -6.726592    412.73997  0.023146028  0.022325206           14 
 1487000   0.65450851   -6.7163288    413.97263  0.023199542  0.022308373           28 
 1488000   0.65807486   -6.6870163    414.12352  0.023192402  0.022291603           43 
 1489000   0.63787993   -6.6930158    413.89463  0.023164016  0.022274874           24 
 1490000   0.64535279   -6.7051745    413.44383  0.023123257  0.022258155           18 
 1491000   0.65431859   -6.6936369    413.68945  0.023121476  0.022241404           25 
 1492000   0.65340534   -6.7197755    413.39837  0.023089721  0.022224638           99 
 1493000   0.64912225   -6.7058852    413.78444  0.023095805  0.022207938           23 
 1494000   0.65829648   -6.7262817    413.14852  0.023044875  0.022191175           31 
 1495000   0.65654154   -6.7274174    414.01976  0.023078024  0.022174456           31 
 1496000   0.67478327    -6.725962    413.79432   0.02305004  0.022157795           19 
 1497000   0.64250612    -6.709746    414.16388  0.023055215  0.022141116           57 
 1498000   0.65258076   -6.7208968    413.67668  0.023012721  0.022124427           61 
 1499000   0.65289172   -6.7126157    413.15924  0.022968603   0.02210777           55 
 1500000   0.65689119   -6.7115448    414.73234  0.023040686  0.022091162           28 
 1501000   0.63882562   -6.7039136    414.88966  0.023034069  0.022074643           18 
 1502000   0.65404251   -6.7127508    413.73486  0.022954664  0.022058051           13 
 1503000   0.62770396   -6.7210752    413.72314  0.022938741   0.02204138           43 
 1504000    0.6456889   -6.7127744    413.77495   0.02292636  0.022024725           37 
 1505000   0.64355309   -6.7137544    413.51052  0.022896485  0.022008063           28 
 1506000   0.64935725   -6.7228978    413.84201  0.022899624  0.021991425           41 
 1507000   0.64538661   -6.7014801    414.84276  0.022939768  0.021974919           44 
 1508000   0.65062525   -6.6979782    415.14388  0.022941196  0.021958443           40 
 1509000   0.66140205   -6.7017464    413.68048  0.022845178  0.021941929           36 
 1510000    0.6544177   -6.7259187     414.2756  0.022862892  0.021925367           49 
 1511000   0.64344016   -6.7196046    414.17798  0.022842377  0.021908865           42 
 1512000   0.65293839   -6.7243191    413.97995  0.022816355  0.021892383           60 
 1513000   0.63905566   -6.7031362    414.11493  0.022808709  0.021875889           54 
 1514000   0.65288372   -6.7172087    414.91234  0.022837535  0.021859397           23 
 1515000   0.63979304   -6.7366827     414.1422  0.022780099  0.021842857           46 
 1516000   0.64754334   -6.7295546    413.28187  0.022717781  0.021826291           76 
 1517000   0.65127996   -6.7239239    414.21485  0.022754057   0.02180983           70 
 1518000   0.64343487   -6.7225527    414.92614  0.022778115  0.021793369           71 
 1519000   0.64823447   -6.7575706    413.87483  0.022705444  0.021776895           44 
 1520000    0.6462345   -6.7450493    414.68221   0.02273477  0.021760442           34 
 1521000   0.64345576   -6.7452709    413.38831  0.022648932  0.021744008          101 
 1522000   0.65621948   -6.6924165    414.72787  0.022707395  0.021727608           28 
 1523000   0.65185557   -6.7418117    414.20843  0.022664064  0.021711263           49 
 1524000   0.63728079   -6.7260518    414.39411  0.022659345  0.021694834           49 
 1525000   0.64677171   -6.7396826    414.36511  0.022642902  0.021678397           56 
 1526000   0.65929023   -6.7389179     414.9755  0.022661397  0.021661962           27 
 1527000   0.65583111   -6.7187262    414.06805  0.022597034  0.021645541           56 
 1528000   0.63413494   -6.7385977    413.61009  0.022557269  0.021629171           41 
 1529000   0.64903111   -6.7323641    414.39529  0.022585311    0.0216128           15 
 1530000   0.63842564   -6.7493026    414.78365  0.022591702   0.02159636           81 
 1531000   0.63887256   -6.7385399    414.22177  0.022546362  0.021579894           35 
 1532000   0.62944469   -6.7627983    412.90855  0.022460213  0.021563435           63 
 1533000   0.64208111   -6.7638625    412.94358  0.022447466  0.021546947           66 
 1534000   0.63765717   -6.7654928    414.11082  0.022496242  0.021530523           27 
 1535000   0.63589535   -6.7319396    414.23623  0.022488395  0.021514082           17 
 1536000   0.64442089    -6.726515    414.26922  0.022475544  0.021497667           28 
 1537000   0.64106582   -6.7407909    412.75803  0.022378986  0.021481222           41 
 1538000   0.64684406    -6.720964    415.04113  0.022488141  0.021464916           28 
 1539000   0.63897951   -6.7494813     413.7745  0.022404944   0.02144861           58 
 1540000   0.65402213   -6.7493297    413.12306  0.022355144  0.021432249           56 
 1541000   0.63284066   -6.7409594    414.27417  0.022402886  0.021415868           29 
 1542000   0.64604086   -6.7544281    414.07752   0.02237773  0.021399555           32 
 1543000   0.64591082   -6.7420856    414.61217  0.022392103  0.021383251           71 
 1544000    0.6271457   -6.7462588    413.74792  0.022330954  0.021366936           44 
 1545000   0.63254749   -6.7549438    413.36665  0.022295936   0.02135062           27 
 1546000    0.6379914   -6.7599995    413.72946  0.022301071  0.021334313           77 
 1547000   0.64494097   -6.7386039    414.62493  0.022334892   0.02131795           23 
 1548000   0.62579969   -6.7423298     413.6044  0.022265525  0.021301582           44 
 1549000     0.621295   -6.7686886    413.91356  0.022267783  0.021285274           14 
 1550000   0.63003717    -6.761821    413.26651   0.02221863  0.021268959           26 
 1551000    0.6276722    -6.757029    413.45616  0.022214494  0.021252628           31 
 1552000   0.63496062   -6.7561384    414.42466  0.022252183  0.021236319           25 
 1553000   0.63594249    -6.747811    414.35432   0.02223408  0.021220042           44 
 1554000   0.62388341   -6.7890649    413.38318  0.022167695  0.021203749           37 
 1555000   0.63511424   -6.7383908    413.34291  0.022151282    0.0211875          104 
 1556000   0.63046514   -6.7798238    412.96221  0.022116657   0.02117127           73 
 1557000   0.63229154   -6.7762495    413.63488  0.022138454  0.021154972           35 
 1558000   0.63200007   -6.7690028    412.90086  0.022084984   0.02113866           24 
 1559000   0.62308214   -6.7771632    414.65336  0.022164494  0.021122403           20 
 1560000    0.6255867   -6.7774252    412.88045   0.02205558  0.021106185           23 
 1561000    0.6255304   -6.7523226    413.67854  0.022084056  0.021090063           45 
 1562000   0.64798715   -6.7640438    414.63665  0.022121033  0.021073971           65 
 1563000   0.63990095   -6.7621948    413.79423  0.022061966  0.021057862           49 
 1564000   0.62933543   -6.7607567    413.85844  0.022051281   0.02104169           28 
 1565000   0.62892095   -6.7795344    413.25927  0.022005286  0.021025546           57 
 1566000   0.62404025   -6.7443825    413.61956  0.022010407  0.021009374           85 
 1567000   0.63246547   -6.7593801     413.0914  0.021968273  0.020993229           40 
 1568000   0.63211719   -6.7741295    413.73826  0.021988641  0.020977139           34 
 1569000   0.61821944    -6.790005    413.04836  0.021937984  0.020961024           48 
 1570000   0.63095866   -6.7673167    414.12158  0.021980976  0.020944842           64 
 1571000   0.63164003   -6.7516618    413.95768   0.02195829  0.020928684           46 
 1572000    0.6303054   -6.8064346    412.29943  0.021856416  0.020912469           45 
 1573000   0.63271425   -6.7755076    412.56634  0.021856662  0.020896277           58 
 1574000   0.62785512   -6.7678243    413.24491  0.021878701  0.020880083           38 
 1575000   0.62192841   -6.7886048    412.64588  0.021833115  0.020863937           55 
 1576000   0.63138731   -6.7633997    412.56811   0.02181515  0.020847797           37 
 1577000   0.62122099   -6.8002139    412.55451  0.021800597  0.020831674           32 
 1578000   0.62406547   -6.7835054    413.79763  0.021852431  0.020815542           58 
 1579000   0.63212463   -6.8089802     413.6948  0.021833165  0.020799361           33 
 1580000   0.63774098    -6.793072    413.33718  0.021800484   0.02078319           69 
 1581000   0.61935901   -6.8028159    412.40142  0.021737372  0.020767023           64 
 1582000   0.61536097   -6.7682939    413.66683  0.021790288  0.020750896           38 
 1583000   0.62536793   -6.8060515    412.75093  0.021728308  0.020734759           85 
 1584000    0.6078249   -6.7749198    412.34469  0.021693218  0.020718597           52 
 1585000   0.61314165   -6.7946978      412.193  0.021671556  0.020702541           98 
 1586000   0.61514965    -6.780675    413.30379  0.021716256  0.020686483           64 
 1587000   0.61451349   -6.7975597    412.43125  0.021656755  0.020670379           67 
 1588000   0.61327508   -6.8162453    413.60663  0.021704798  0.020654318           47 
 1589000   0.62184096   -6.8093995    412.63268  0.021640061  0.020638284           64 
 1590000   0.62526131   -6.7980899    412.57031  0.021623182  0.020622246           46 
 1591000   0.61765925   -6.7846894    413.36842  0.021651394  0.020606216           40 
 1592000   0.61690173   -6.8164361    412.27992  0.021580817   0.02059019           82 
 1593000   0.61937612   -6.8064087    413.03249  0.021606638  0.020574226           79 
 1594000   0.63270921   -6.7970863    412.68076  0.021574695  0.020558272           58 
 1595000   0.61673397   -6.8051438    412.70472   0.02156242  0.020542336           33 
 1596000    0.6064039   -6.7942776    413.31252  0.021580646  0.020526413           83 
 1597000   0.62629071   -6.8138297    413.11072  0.021556602   0.02051048           41 
 1598000   0.62648648   -6.8111289    412.34934  0.021503408  0.020494514           36 
 1599000   0.61351868   -6.8153359    412.31908  0.021488382  0.020478529           70 
 1600000   0.61705199   -6.8250637    412.95989  0.021508327  0.020462558           57 
 1601000   0.60720837   -6.8098538    413.40263  0.021517938  0.020446575           63 
 1602000   0.61791242   -6.8211919    412.74208  0.021470146  0.020430632           81 
 1603000   0.61473326   -6.8305788    412.46571  0.021442385  0.020414705           53 
 1604000   0.59713271   -6.8055958    412.70146  0.021441265  0.020398778           82 
 1605000   0.62079398    -6.822717    412.89083  0.021437738   0.02038286           59 
 1606000    0.6222244   -6.8217631    411.63734  0.021359347  0.020366941           74 
 1607000   0.60842759   -6.8113857    413.38462  0.021436664  0.020351084           52 
 1608000   0.61109812   -6.8083084     412.5109  0.021378052   0.02033519           98 
 1609000   0.61607871   -6.8169846    412.88806    0.0213843  0.020319369           35 
 1610000   0.61464935    -6.817629    412.44434  0.021348051  0.020303567          101 
 1611000   0.60437835   -6.8285623    412.62706  0.021344251   0.02028773          146 
 1612000   0.60232903   -6.8229573    411.87703  0.021292237  0.020271884          185 
 1613000   0.61734091   -6.8512629    411.31162  0.021249826  0.020256026          174 
 1614000   0.61571831   -6.8194436    412.36295  0.021290941  0.020240166          126 
 1615000   0.60580061   -6.8210312    412.70134  0.021295219   0.02022433          112 
 1616000    0.6108909   -6.8181913    412.30837  0.021261777  0.020208535          108 
 1617000   0.59677247   -6.8367346    412.86693  0.021277414  0.020192793          102 
 1618000   0.60115181   -6.8255103    411.97633  0.021218393  0.020176987           49 
 1619000   0.61261929   -6.8322139    412.54795   0.02123471  0.020161289           79 
 1620000   0.61330256   -6.8222791    412.93824  0.021241679  0.020145597          105 
 1621000   0.60544262   -6.8405831    411.58775  0.021159148  0.020129856          122 
 1622000   0.61941488   -6.8442423     411.6285  0.021148197  0.020114128          109 
 1623000   0.61324073   -6.8217455    412.86434  0.021198621  0.020098432          136 
 1624000   0.60708966   -6.8277979    412.00356  0.021141398  0.020082726          162 
 1625000   0.60414307   -6.8237919    412.58342  0.021158124  0.020067046           95 
 1626000   0.60576243   -6.8570095    412.35633  0.021133473  0.020051331          106 
 1627000   0.61076401   -6.8421287    412.55647  0.021130735  0.020035622           85 
 1628000   0.61037175   -6.8315467    412.74453  0.021127382  0.020019923          125 
 1629000   0.60143416   -6.8171237     412.9238  0.021123583  0.020004221          107 
 1630000   0.60267824   -6.8404374    412.40176  0.021083935  0.019988541          101 
 1631000   0.59362975   -6.8428941    412.31493  0.021066571  0.019972826          113 
 1632000   0.59432903   -6.8154059    411.54969  0.021014588  0.019957103           84 
 1633000   0.59654082   -6.8498402    412.49581  0.021050001  0.019941401           94 
 1634000   0.60966648   -6.8442236     412.0748  0.021015646  0.019925743          129 
 1635000   0.59386928   -6.8462428    412.40573   0.02101966  0.019910098          131 
 1636000    0.5900979   -6.8221964    412.58543  0.021015965  0.019894475           54 
 1637000   0.59094959   -6.8391623    412.31141  0.020989178  0.019878822          109 
 1638000   0.60300129   -6.8796275    411.36516  0.020928223  0.019863188          159 
 1639000    0.6121432   -6.8561821    411.96748  0.020946079  0.019847539          179 
 1640000   0.59612588   -6.8589737    411.28498  0.020898627  0.019831934          156 
 1641000    0.5913175   -6.8621888    412.23762  0.020934269  0.019816331          168 
 1642000    0.6052066   -6.8523383    411.32062  0.020874981  0.019800707          157 
 1643000   0.59306347   -6.8784822    410.88588  0.020840225  0.019785032          182 
 1644000   0.59777497   -6.8592478    411.18675    0.0208428  0.019769385          139 
 1645000   0.58366612   -6.8728622    411.39561   0.02084071  0.019753769          158 
 1646000   0.60020454   -6.8572279    412.65974  0.020892048  0.019738129          146 
 1647000   0.59756843   -6.8698115    411.33587   0.02081238  0.019722553          169 
 1648000   0.60258461   -6.8506394    412.55975  0.020861638  0.019707004          180 
 1649000   0.59699974   -6.8599497    411.12494  0.020776478  0.019691421          224 
 1650000   0.60130401   -6.8708479    411.37254  0.020776391  0.019675837          261 
 1651000   0.58218381   -6.8698205     411.2999   0.02076014  0.019660226          348 
 1652000   0.60127403   -6.8626051    412.51873  0.020809056  0.019644696          171 
 1653000   0.59818697   -6.8825463      411.041   0.02072197  0.019629132          153 
 1654000   0.58793198   -6.8697608    410.94894  0.020704803  0.019613585          283 
 1655000   0.59235902   -6.8761815    411.18281  0.020704069  0.019598063          277 
 1656000   0.57859655   -6.8835946    412.03649  0.020734525  0.019582545          223 
 1657000   0.59531021   -6.8622919    411.21469  0.020680683  0.019567052          111 
 1658000   0.58511027   -6.8794973    410.83922  0.020649338  0.019551554          149 
 1659000   0.60456513   -6.8693738    411.81244  0.020685777   0.01953605          324 
 1660000   0.60251568   -6.8804842    411.76072  0.020670719  0.019520593          195 
 1661000   0.58595206    -6.901788    411.26406  0.020633356  0.019505123          160 
 1662000   0.58816713   -6.9083121    410.78765  0.020597054   0.01948965          187 
 1663000   0.58973732    -6.889559    411.23098  0.020606884  0.019474148          335 
 1664000   0.59032295   -6.8962073    410.45777  0.020555778  0.019458658          168 
 1665000   0.58709889   -6.8799558    411.98986  0.020620113  0.019443217          176 
 1666000   0.59084233   -6.8863526    412.16624  0.020616559  0.019427782          101 
 1667000   0.58716301    -6.864191    411.62407  0.020577088   0.01941236          113 
 1668000   0.58827485   -6.8790006     410.7851  0.020522837  0.019396951          192 
 1669000   0.59326764    -6.893429    411.23114  0.020532811  0.019381574          181 
 1670000   0.58711085   -6.8817894    410.09523  0.020463834  0.019366219           86 
 1671000    0.5955947   -6.8930243    410.33774  0.020463682  0.019350859          161 
 1672000   0.57945275   -6.8865167    410.58938  0.020463984   0.01933546           89 
 1673000    0.5805054   -6.9009583    410.77585  0.020461041  0.019320094          226 
 1674000    0.5949162   -6.8980467    410.30791  0.020425523  0.019304741          243 
 1675000   0.59106419   -6.8855837    411.23522  0.020459464  0.019289404           91 
 1676000   0.57409875   -6.9044371    411.29684   0.02045032  0.019274054           98 
 1677000   0.58309929    -6.910278    410.61494  0.020404241  0.019258682          342 
 1678000   0.59869994   -6.9267299    410.14516  0.020368751  0.019243317          376 
 1679000   0.58479623    -6.915522    410.82489  0.020390356  0.019227973          423 
 1680000   0.57539134   -6.8825499    410.07769  0.020341155  0.019212631          257 
 1681000   0.57569282   -6.8962901    410.94248  0.020371926  0.019197327          139 
 1682000   0.56767564   -6.9163349    410.13692  0.020319903   0.01918204          201 
 1683000   0.58072201   -6.8985936    410.96104  0.020348635  0.019166726          334 
 1684000   0.58367595   -6.8873583    410.07645  0.020292778  0.019151425          131 
 1685000   0.58164822   -6.8987166    410.40244  0.020296856  0.019136119          238 
 1686000   0.58809713   -6.9409343    409.84628  0.020257329  0.019120803          360 
 1687000   0.58008328    -6.916455    409.54964  0.020230668  0.019105479          275 
 1688000   0.57579898   -6.9212952    409.70203  0.020226206   0.01909016          187 
 1689000   0.57147525     -6.93967    410.10828  0.020234275  0.019074842          204 
 1690000   0.57373967   -6.9269528    410.59788  0.020246444  0.019059575          148 
 1691000   0.56747785   -6.9175662    410.56213  0.020232709  0.019044348          114 
 1692000   0.58303282   -6.9110853    409.85652  0.020185999  0.019029132          101 
 1693000   0.56720701   -6.9189295    410.92847  0.020226839  0.019013933          136 
 1694000   0.57322938    -6.941301    410.31103  0.020184525  0.018998715          186 
 1695000   0.58173924   -6.9193522    409.95246  0.020154988  0.018983523          126 
 1696000   0.59801774   -6.9140554    409.53215  0.020122452   0.01896835          142 
 1697000   0.58317546   -6.9114686    410.51513  0.020158865  0.018953246          105 
 1698000   0.56849526   -6.9142577    410.27462  0.020135189  0.018938144          101 
 1699000   0.56866218   -6.9013262    410.03192  0.020111434  0.018923022           85 
 1700000   0.58051348   -6.9032252    410.10497  0.020103185  0.018907915          110 
 1701000   0.57581179   -6.9120723    410.02421   0.02008741  0.018892816          137 
 1702000   0.58140023   -6.9163132    410.83748  0.020115427  0.018877734          160 
 1703000   0.56993421   -6.9087864    410.48608   0.02008642  0.018862653          189 
 1704000   0.55940923   -6.9462882    409.61253  0.020031912  0.018847561          365 
 1705000   0.56203587   -6.9474522    409.40589  0.020010063  0.018832482          225 
 1706000   0.58135536   -6.9293534    409.59529  0.020007586  0.018817411          266 
 1707000   0.56942662   -6.9139317    410.78717  0.020054051  0.018802377          185 
 1708000   0.57718291   -6.9207506    410.24142  0.020015682  0.018787336          193 
 1709000   0.56363625   -6.9558091     410.1819  0.020001068   0.01877227          228 
 1710000   0.56715184   -6.9283445    410.07923  0.019984368  0.018757198          230 
 1711000   0.57413103   -6.9395306    409.03942  0.019922045  0.018742171          149 
 1712000     0.568993   -6.9586774    409.69235   0.01994219  0.018727146          203 
 1713000   0.58555941   -6.9433721    409.94935  0.019943051  0.018712124          395 
 1714000   0.55927945   -6.9486782    409.93577  0.019930755  0.018697082          170 
 1715000   0.56576316   -6.9323863    410.32771  0.019938178  0.018682059          191 
 1716000   0.56662879   -6.9406357    409.71228  0.019896673  0.018667053          262 
 1717000   0.56812201   -6.9651735    409.55399  0.019877402  0.018652057          216 
 1718000   0.56700585    -6.962349    409.57133  0.019866673  0.018637095          230 
 1719000   0.57139791   -6.9298928    409.69054  0.019860895  0.018622098          241 
 1720000   0.57440906   -6.9398785    408.71467  0.019802067  0.018607154          250 
 1721000   0.57213013   -6.9322276    410.29561  0.019867113  0.018592213          449 
 1722000   0.55823535   -6.9558171    409.32828  0.019808763  0.018577295          384 
 1723000   0.57118252   -6.9524225    409.32996  0.019797347  0.018562371          329 
 1724000   0.55418258   -6.9624496    408.89518  0.019764848  0.018547456          392 
 1725000   0.56135736   -6.9523838    409.41151  0.019778334  0.018532564          263 
 1726000   0.56198391   -6.9384944    409.54106  0.019773129  0.018517657          340 
 1727000   0.57050299   -6.9655222    409.68948  0.019768842   0.01850277          248 
 1728000   0.56503293   -6.9656251    409.10364  0.019729149  0.018487903          215 
 1729000   0.57704998   -6.9538492    409.72288  0.019747585  0.018473032          230 
 1730000   0.58142648   -6.9556899    408.75825  0.019689704  0.018458183          225 
 1731000   0.55233882   -6.9487983    409.86595  0.019731656  0.018443334          236 
 1732000   0.57039053   -6.9722622    409.07084  0.019682007  0.018428478          286 
 1733000   0.56052216   -6.9521939    409.49292  0.019690947  0.018413649          275 
 1734000   0.55874024   -6.9799782    409.14805  0.019663017  0.018398815          476 
 1735000   0.55132671    -6.957844    408.68983  0.019629675  0.018384014          279 
 1736000   0.56087661   -6.9697938    409.45695  0.019655192  0.018369234          273 
 1737000   0.55798707   -6.9518619    408.73794  0.019609381  0.018354483          289 
 1738000   0.55815094   -6.9683968     409.0702   0.01961403  0.018339725          275 
 1739000    0.5483018     -6.98183    408.59409  0.019579935  0.018324975          247 
 1740000   0.56146706    -6.976928    409.74877  0.019623983   0.01831026          419 
 1741000   0.55487716   -6.9728523    408.95919  0.019574918  0.018295552          270 
 1742000   0.54723498   -6.9668045    409.85685  0.019606623  0.018280862          293 
 1743000   0.55497691   -6.9538989    409.66339  0.019586125  0.018266179          268 
 1744000   0.56475229   -6.9650132    409.42265  0.019563391    0.0182515          271 
 1745000   0.56446801   -6.9976213     409.1814  0.019540659  0.018236851          486 
 1746000   0.55953043   -6.9632257    409.75511   0.01955685  0.018222205          343 
 1747000   0.55819782   -6.9570786    409.45075  0.019531137  0.018207585          314 
 1748000   0.55107787   -6.9681184     409.7971  0.019536475  0.018192965          513 
 1749000   0.54851007   -6.9675372    408.73079  0.019474499  0.018178353          291 
 1750000   0.55792799   -6.9777995    409.96904  0.019522335  0.018163776          301 
 1751000   0.54179719   -6.9754215      408.725   0.01945198  0.018149188          239 
 1752000   0.56544756   -6.9567611    409.05569  0.019456606  0.018134582          382 
 1753000    0.5487393   -6.9890979    409.16485  0.019450696  0.018120014          322 
 1754000   0.56675598   -6.9809727    409.64708  0.019462518  0.018105444          417 
 1755000   0.55354344   -6.9891969    408.40737  0.019392563  0.018090866          319 
 1756000   0.54082008   -6.9503503    409.00839  0.019410041  0.018076315          341 
 1757000   0.55489704   -6.9859379    408.32902  0.019366772  0.018061778          297 
 1758000   0.55873562   -6.9609478    409.13073  0.019393758  0.018047275          377 
 1759000   0.53992304   -6.9794716    409.35598  0.019393405  0.018032765          373 
 1760000   0.54232895   -6.9936783    408.96182  0.019363722  0.018018243          389 
 1761000   0.55813289   -6.9960432    408.78917  0.019344556  0.018003749          314 
 1762000   0.54867137   -7.0030606    408.46236  0.019318122  0.017989267          570 
 1763000   0.55316904   -6.9947338    408.69056   0.01931795  0.017974767          339 
 1764000   0.55031837    -6.990158    408.81197  0.019312735  0.017960283          532 
 1765000    0.5478182   -7.0098285    408.01585  0.019264204  0.017945817          470 
 1766000   0.56064008    -6.983012     408.5111  0.019276666   0.01793137          594 
 1767000   0.55220311   -6.9899628    409.17972  0.019297289  0.017916947          290 
 1768000   0.55602689   -7.0016618    409.01542   0.01927863  0.017902529          418 
 1769000    0.5475763   -6.9837674    408.40277  0.019238872  0.017888109          401 
 1770000   0.54699655   -6.9904459    408.73371  0.019243583  0.017873689          437 
 1771000   0.54265693   -6.9986094    408.71811  0.019231983  0.017859311          314 
 1772000   0.54766903   -6.9947092    408.34126  0.019203408  0.017844907          506 
 1773000    0.5501026   -6.9954463    408.38204  0.019194493  0.017830537          537 
 1774000   0.52739773   -7.0065291    408.14898  0.019172726  0.017816149          593 
 1775000   0.54081405   -6.9838693    409.42298  0.019221736  0.017801774          396 
 1776000   0.53857369   -6.9861277    408.65232  0.019174752  0.017787439          587 
 1777000   0.54027258   -7.0037772    408.45792  0.019154845  0.017773105          474 
 1778000   0.54901836   -7.0112441    408.04166  0.019124562  0.017758787          442 
 1779000   0.54818363   -7.0324083    408.05427  0.019114403  0.017744489          401 
 1780000   0.52417154   -7.0066351    408.49418  0.019124259  0.017730196          602 
 1781000   0.54529574   -6.9943947    408.36872  0.019107651  0.017715913          639 
 1782000   0.54715968   -7.0156264    407.41826  0.019052481  0.017701624          546 
 1783000   0.54665839   -6.9959261    408.35644  0.019085644  0.017687365          452 
 1784000   0.55112447   -7.0213751    409.22243  0.019115398  0.017673097          618 
 1785000   0.53842095   -7.0022621    408.01474  0.019048307  0.017658839          609 
 1786000   0.53541851   -6.9999897    408.60288  0.019065084  0.017644616          464 
 1787000   0.54167628   -7.0131123    407.91077   0.01902214  0.017630397          537 
 1788000   0.54008819   -7.0201889    408.06029   0.01901847  0.017616174          552 
 1789000   0.52820147   -7.0149367    407.56562  0.018984797  0.017601954          640 
 1790000   0.53600274    -7.023011    407.39459  0.018966229  0.017587754          660 
 1791000   0.53378377   -7.0168445    408.55587  0.019009672  0.017573556          645 
 1792000   0.53284192   -7.0184133    407.56655  0.018953058  0.017559364          525 
 1793000   0.53804953   -7.0182065    407.14395  0.018922846  0.017545193          680 
 1794000   0.54317646   -7.0356868    408.18552   0.01896068  0.017531036          717 
 1795000   0.53323652   -7.0304247    408.25143  0.018953177  0.017516883          654 
 1796000   0.54012578   -7.0222635    407.93206  0.018927805  0.017502755          631 
 1797000   0.53368513   -7.0037045    408.09879  0.018925004  0.017488651          596 
 1798000   0.54356236   -7.0393499    408.44369  0.018930464   0.01747458          607 
 1799000   0.53423203   -7.0200929    408.01957  0.018900295  0.017460492          653 
 1800000   0.52890427   -7.0232497    407.51679  0.018866518  0.017446419          615 
 1801000   0.53731782   -7.0203518    408.24928  0.018889935  0.017432363          454 
 1802000   0.52996677   -7.0274176    407.65636  0.018852033    0.0174183          513 
 1803000   0.54091957   -7.0372061    407.43151  0.018831185  0.017404258          397 
 1804000   0.54637973   -7.0180345    408.30459  0.018861077  0.017390231          710 
 1805000   0.53011864   -7.0216603    408.19778  0.018845696  0.017376209          488 
 1806000   0.52553948   -7.0263497    407.33309  0.018795362  0.017362195          560 
 1807000   0.53308736   -7.0376518    408.14863  0.018822571  0.017348191          549 
 1808000    0.5385837   -7.0324888     407.3602   0.01877582  0.017334201          620 
 1809000   0.54004956   -7.0274778    408.23314  0.018805654  0.017320225          604 
 1810000   0.53410377   -7.0230251    407.60255  0.018766231  0.017306279          586 
 1811000   0.53046716    -7.015944    407.95945  0.018772292  0.017292358          590 
 1812000   0.52844058   -7.0275616    407.91183  0.018759742  0.017278422          511 
 1813000   0.53027941   -7.0220977    407.39547   0.01872566  0.017264537          632 
 1814000   0.53174576   -7.0261719     408.1216  0.018748695  0.017250651          370 
 1815000    0.5315415   -7.0376393    408.33695  0.018748253  0.017236783          575 
 1816000   0.53667883   -7.0232429    407.29567  0.018690146  0.017222908          626 
 1817000   0.53739348   -7.0371237    407.65683  0.018696424  0.017209097          579 
 1818000   0.52522931   -7.0372711    408.21968   0.01871194  0.017195278          478 
 1819000   0.51900632    -7.025981     407.4329  0.018665608  0.017181488          661 
 1820000   0.51400451   -7.0316056    407.68525  0.018666907  0.017167698          534 
 1821000   0.51444942    -7.023793    407.02941  0.018626643  0.017153921          744 
 1822000   0.52896906   -7.0170514    408.41986  0.018680016  0.017140149          503 
 1823000   0.52424602   -7.0387424    407.94916  0.018648252  0.017126371          520 
 1824000   0.53298118   -7.0381663    407.50018  0.018617515  0.017112605          621 
 1825000   0.51869761   -7.0403711    407.62549  0.018613036  0.017098844          538 
 1826000   0.51601239   -7.0519283    407.61146  0.018602202  0.017085097          516 
 1827000   0.52799986   -7.0393391    407.85262   0.01860302  0.017071355          625 
 1828000   0.51753929   -7.0484781     407.7342  0.018587446  0.017057623          569 
 1829000   0.51122697    -7.049329    407.46209  0.018564885  0.017043885          740 
 1830000   0.52476816   -7.0642895    407.29571  0.018547164  0.017030179          659 
 1831000   0.52887508   -7.0467993    407.69101  0.018555025  0.017016471          603 
 1832000   0.52347816   -7.0426894    407.66946  0.018543917  0.017002768          547 
 1833000   0.52272613   -7.0389661    407.28005  0.018516096  0.016989084          640 
 1834000   0.52529778   -7.0508091    407.59233   0.01852019  0.016975398          504 
 1835000   0.52328123   -7.0510488    407.26675  0.018495311  0.016961757          615 
 1836000   0.51199146   -7.0654288    407.85822  0.018512083  0.016948116          693 
 1837000   0.51862615   -7.0540131    407.13224  0.018469073  0.016934492          703 
 1838000   0.51355459   -7.0518459    406.85382  0.018446401  0.016920899          584 
 1839000   0.52271271   -7.0614913    407.43995  0.018462931  0.016907305          658 
 1840000   0.51545522   -7.0620994    406.71679  0.018420145  0.016893716          570 
 1841000   0.52155351    -7.067362    407.05266  0.018425342  0.016880143          681 
 1842000   0.50957818   -7.0438387    407.66425  0.018443008  0.016866597          721 
 1843000   0.50952205    -7.045809    407.56798  0.018428648  0.016853036          666 
 1844000   0.52691173   -7.0669998    407.25805  0.018404648  0.016839445          739 
 1845000   0.50826345   -7.0614082    407.17512  0.018390927  0.016825883          565 
 1846000   0.51547625    -7.069386    407.45763  0.018393717  0.016812342          671 
 1847000   0.52206495   -7.0724088     407.0202  0.018364023  0.016798822          700 
 1848000    0.5056447   -7.0510267    405.95589  0.018306092  0.016785325          692 
 1849000   0.51753732   -7.0486469    407.29975  0.018356758  0.016771827          710 
 1850000   0.51960994   -7.0675129    407.39613  0.018351177  0.016758323          627 
 1851000   0.51237381   -7.0527366    406.19204  0.018287054  0.016744849          518 
 1852000   0.51272495   -7.0696129    406.98615  0.018312912  0.016731383          718 
 1853000   0.50576257   -7.0838624    406.68189  0.018289346  0.016717914          687 
 1854000   0.52086559   -7.0585762    406.94392  0.018291259  0.016704485          665 
 1855000   0.50591314   -7.0686911     407.6604  0.018313585  0.016691057          716 
 1856000   0.51854262    -7.066785    406.71428  0.018261238  0.016677642          806 
 1857000   0.51222582   -7.0637893    406.61917  0.018247136  0.016664219          795 
 1858000   0.52387598   -7.0733476    407.64385  0.018283273   0.01665081          722 
 1859000   0.50333105   -7.0697916    406.56479  0.018225067  0.016637405          784 
 1860000   0.52148193   -7.0791544    406.92012  0.018231188  0.016623996          639 
 1861000   0.50572827    -7.078686    407.03232  0.018226416  0.016610603          685 
 1862000   0.50665698   -7.0836037    406.56975  0.018195925  0.016597209          622 
 1863000   0.50636437   -7.0633467    406.66091  0.018190236  0.016583848          628 
 1864000   0.52053835   -7.0851629    406.64367  0.018179706  0.016570483          724 
 1865000   0.51509508   -7.0626133    406.68005  0.018171584  0.016557148          658 
 1866000   0.51046344   -7.0728468    405.96324  0.018129834  0.016543817          573 
 1867000   0.49913312   -7.0900607    406.73193  0.018154434  0.016530489          599 
 1868000   0.51344639   -7.0829839    406.42373  0.018130966  0.016517172          800 
 1869000   0.50869167   -7.0865478    406.29898  0.018115703  0.016503865          760 
 1870000   0.50863926   -7.0976656    406.57438  0.018118288  0.016490584          753 
 1871000   0.50662787   -7.0977973    406.54012  0.018107078  0.016477313          690 
 1872000   0.50586445     -7.08493    406.68054  0.018103657  0.016464038          716 
 1873000   0.49210767   -7.0750817    406.46804  0.018084537  0.016450789          631 
 1874000   0.49968873   -7.0908357    406.93323  0.018095572  0.016437548          686 
 1875000   0.49737588   -7.0975041    406.00696  0.018044754  0.016424326          717 
 1876000   0.50365803   -7.0984834    406.02529  0.018035949  0.016411112          698 
 1877000   0.49887905   -7.0963147    406.45119  0.018045249  0.016397896          746 
 1878000   0.50449315   -7.1043918    406.80199  0.018051206  0.016384701          649 
 1879000   0.49328684   -7.0921338    406.40908  0.018024174  0.016371536          605 
 1880000    0.5052526    -7.076126    406.34445  0.018011722  0.016358374          701 
 1881000   0.49985819   -7.0940588    406.64859  0.018015621  0.016345212          722 
 1882000   0.50998179   -7.0798277       406.52  0.018000354   0.01633208          706 
 1883000   0.49119283   -7.0942851    405.97303  0.017966588  0.016318926          752 
 1884000   0.50482072    -7.083131    405.75084  0.017947224  0.016305801          754 
 1885000   0.49703733   -7.0951756    405.96595  0.017947213  0.016292683          605 
 1886000   0.49894883   -7.1022372    406.47154  0.017960036  0.016279586          761 
 1887000   0.49768097   -7.0857468    405.84842     0.017923  0.016266484          685 
 1888000   0.50439325   -7.1096258    406.56469  0.017945122  0.016253401          689 
 1889000   0.49018355    -7.105616    405.61731  0.017893829  0.016240337          688 
 1890000   0.49444097   -7.1112107    406.58115  0.017926859  0.016227291          607 
 1891000   0.50663155   -7.1374926    405.81489   0.01788361  0.016214253          730 
 1892000   0.49483051    -7.103976    406.66805  0.017911736  0.016201218          572 
 1893000   0.48623815   -7.1021363    406.10724  0.017877586  0.016188196          630 
 1894000   0.50305252    -7.098223     406.7662   0.01789714  0.016175202          612 
 1895000   0.50100774   -7.1117784    405.62448  0.017837488  0.016162214          712 
 1896000   0.49946462   -7.1146954    405.90009  0.017840194   0.01614922          684 
 1897000    0.4836212   -7.1061169    404.97899  0.017790326  0.016136238          559 
 1898000    0.5023858    -7.099577    406.10597  0.017830434  0.016123261          735 
 1899000    0.5005614   -7.1107515    406.16199  0.017823503    0.0161103          733 
 1900000    0.4957112   -7.1058879    406.26588  0.017818679  0.016097346          638 
 1901000   0.48807615   -7.0998089    405.58538  0.017779475  0.016084427          712 
 1902000   0.50212604   -7.1017435    405.10312  0.017748997  0.016071502          676 
 1903000    0.4976856   -7.0992353    406.45028  0.017798664  0.016058598          722 
 1904000   0.49548612   -7.1030107    405.56242  0.017750456   0.01604572          678 
 1905000   0.48600123   -7.1181064    404.85533  0.017710207  0.016032828          751 
 1906000   0.49954217   -7.0938587    406.11852  0.017756144  0.016019943          728 
 1907000   0.49967213   -7.0977784    405.39377  0.017715162  0.016007079          687 
 1908000   0.49006733   -7.1178047    405.66831  0.017717868  0.015994227          703 
 1909000   0.49524348   -7.1172538    405.82004   0.01771521  0.015981377          703 
 1910000   0.50457723   -7.1186066    406.17175  0.017721281  0.015968546          651 
 1911000   0.49256448   -7.1229908    405.66553  0.017689932  0.015955727          538 
 1912000   0.48864679   -7.1122038    405.54411  0.017675388  0.015942942          648 
 1913000   0.48648349   -7.1244602    404.89227  0.017637753  0.015930138          722 
 1914000   0.48271647   -7.1155556     405.2631  0.017644684  0.015917341          726 
 1915000    0.4933799   -7.1251103    405.45695  0.017643906   0.01590455          642 
 1916000   0.48703215   -7.1092156    404.98462  0.017614154  0.015891775          683 
 1917000   0.48006264   -7.1159177    406.20399  0.017657972  0.015879014          672 
 1918000   0.47684474   -7.1189196    405.14927   0.01760294  0.015866266          724 
 1919000   0.48491598   -7.1152795    404.69818  0.017574178  0.015853535          622 
 1920000    0.4866329   -7.1240337    405.56342  0.017602579  0.015840818          626 
 1921000   0.49170485   -7.1024535    406.04896  0.017614479  0.015828116          614 
 1922000   0.48772001   -7.1295798    405.43599  0.017578737  0.015815453          658 
 1923000   0.49468943   -7.1338493    405.13048  0.017556356  0.015802774          674 
 1924000   0.47611616   -7.1191111    405.51219  0.017563764  0.015790101          732 
 1925000   0.47427766   -7.1149308    405.58904  0.017557967  0.015777453          744 
 1926000   0.48026572   -7.1175961    405.79702  0.017557849  0.015764808          678 
 1927000   0.47518229   -7.1035999    405.47451  0.017534791  0.015752175          700 
 1928000   0.48829006   -7.1187056    405.94284  0.017545939  0.015739559          654 
 1929000    0.4759915   -7.1431341    405.51548  0.017518381   0.01572695          614 
 1930000    0.4842289   -7.1355451    405.39591  0.017504141  0.015714342          681 
 1931000   0.47674876   -7.1408429    405.80676  0.017512807  0.015701743          717 
 1932000   0.48217311   -7.1171176    405.34362  0.017483765  0.015689176          632 
 1933000   0.47571174   -7.1425716    404.79039   0.01745087  0.015676592          617 
 1934000   0.47819684   -7.1297918    404.79734  0.017442147  0.015664033          534 
 1935000   0.49048389    -7.137971    405.57526  0.017466635  0.015651488          581 
 1936000   0.47435069   -7.1262149    405.28824  0.017445258  0.015638963          630 
 1937000   0.47721628    -7.121668    405.05361  0.017426158  0.015626462          644 
 1938000    0.4739153    -7.124877    405.65677  0.017443102  0.015613965          425 
 1939000   0.49077643   -7.1184721    404.75776  0.017395469  0.015601503          633 
 1940000   0.47050999   -7.1203203    405.17603  0.017404468  0.015589045          626 
 1941000   0.47704943   -7.1271673    405.12438  0.017393284   0.01557659          665 
 1942000   0.47389231   -7.1224387    405.12881  0.017384518  0.015564147          613 
 1943000   0.47311809   -7.1325718    405.06768  0.017372949   0.01555173          706 
 1944000   0.47374973   -7.1288593    405.25029   0.01737184  0.015539315          676 
 1945000   0.46915065   -7.1261792    405.44533  0.017371265  0.015526909          494 
 1946000   0.46577692   -7.1381402    405.76594  0.017376068   0.01551451          777 
 1947000   0.48285752   -7.1443735    405.18491  0.017342275  0.015502115          677 
 1948000   0.47087839   -7.1208626    404.85131  0.017319101  0.015489736          733 
 1949000   0.47240013   -7.1249767    405.53928  0.017339631  0.015477379          600 
 1950000   0.46916148   -7.1400556    404.61563  0.017291266  0.015465035          676 
 1951000   0.47470187   -7.1374787    404.79327  0.017289991  0.015452699          608 
 1952000   0.46640465   -7.1493093    404.75614  0.017279548  0.015440378          731 
 1953000   0.47888869   -7.1184034    405.68541  0.017310352  0.015428077          662 
 1954000   0.46923735   -7.1389667    405.06022   0.01727483  0.015415777          688 
 1955000   0.46781654   -7.1464794    404.91641  0.017259864  0.015403476          740 
 1956000   0.46108963    -7.123345    405.02727  0.017255763  0.015391191          789 
 1957000   0.47396556   -7.1551614     404.9645  0.017244273  0.015378902          764 
 1958000    0.4647521    -7.139442    405.34587  0.017251697  0.015366621          736 
 1959000   0.48478559   -7.1531085    404.95628  0.017226318  0.015354351          812 
 1960000   0.47897479    -7.147721    405.26994  0.017230865  0.015342087          747 
 1961000   0.46587987   -7.1495045    404.29448  0.017180626  0.015329823          836 
 1962000   0.47147138   -7.1407967    405.52152  0.017223986  0.015317599          616 
 1963000   0.47888832   -7.1452033    405.03585  0.017194594  0.015305367          834 
 1964000   0.46202838   -7.1518286    404.39876  0.017158807   0.01529315          842 
 1965000   0.46717543   -7.1634076    405.39369  0.017192268  0.015280957          756 
 1966000   0.47676605   -7.1571099     404.8514  0.017160538  0.015268787          686 
 1967000   0.46109971   -7.1545724    404.94287  0.017155688  0.015256632          743 
 1968000   0.46476633   -7.1470291    404.37486  0.017122919   0.01524447          778 
 1969000   0.47008676   -7.1453315    404.83981  0.017133901  0.015232312          742 
 1970000   0.46255716   -7.1469371    404.03087  0.017090984  0.015220163          725 
 1971000   0.46061602    -7.155105    405.03389  0.017124721  0.015208033          792 
 1972000   0.46397132   -7.1787698    404.35463  0.017087332  0.015195906          809 
 1973000   0.45857302   -7.1517012    404.91956  0.017102532  0.015183788          758 
 1974000    0.4660433   -7.1614499    404.24385  0.017065343  0.015171684          781 
 1975000   0.46264314   -7.1569804    404.36592  0.017061853  0.015159597          784 
 1976000   0.46112234   -7.1480671    404.74656  0.017069271  0.015147528          786 
 1977000   0.46540467   -7.1422352    404.54042  0.017051948  0.015135479          731 
 1978000    0.4705733   -7.1743955    404.21896  0.017029784  0.015123427          798 
 1979000   0.46251224   -7.1404755    404.66703  0.017040047  0.015111388          737 
 1980000   0.46062796   -7.1494657    404.63185   0.01702996  0.015099363          709 
 1981000    0.4543354   -7.1742061    404.19896  0.017003153  0.015087339          762 
 1982000    0.4472331   -7.1606128    404.43282  0.017004407  0.015075333          755 
 1983000   0.46646177   -7.1630493    404.68968  0.017006626  0.015063329          786 
 1984000    0.4555383   -7.1668867    404.77268  0.017001541  0.015051335          722 
 1985000   0.45697553   -7.1634703    404.55576  0.016983869  0.015039362          833 
 1986000   0.45357409   -7.1741278    404.36065   0.01696713    0.0150274          823 
 1987000   0.44808973   -7.1402975       404.12  0.016948498  0.015015453          809 
 1988000   0.44855148   -7.1510308    404.49205  0.016955569  0.015003519          618 
 1989000    0.4506625   -7.1611583    403.76716  0.016916674  0.014991587          762 
 1990000   0.45834588   -7.1729437    404.17076  0.016925074  0.014979676          784 
 1991000   0.46232341   -7.1546266    404.91382  0.016947674  0.014967788          636 
 1992000   0.45254606   -7.1614771    404.67021  0.016928975  0.014955911          838 
 1993000   0.45519011   -7.1608038    404.13672  0.016898174  0.014944044          813 
 1994000    0.4522925   -7.1536402    404.91595  0.016922265  0.014932194          748 
 1995000   0.45518155   -7.1698855    404.25435  0.016886147  0.014920352          841 
 1996000   0.45957767   -7.1565919    404.01494  0.016867691  0.014908517          822 
 1997000    0.4571284   -7.1738944    404.21229   0.01686748  0.014896701          858 
 1998000   0.45627496   -7.1725365    405.18052  0.016899421  0.014884889          764 
 1999000   0.47110846   -7.1820159    404.39604  0.016858264  0.014873079          606 
 2000000    0.4688634   -7.1715409    403.59353  0.016816397  0.014861279          843 
 2001000   0.45031799   -7.1653113     404.1268  0.016830202  0.014849486          589 
 2002000   0.44972081   -7.1637626    403.93085  0.016813638  0.014837729          723 
 2003000   0.46144065   -7.1789429    403.06109  0.016769058  0.014825962          809 
 2004000   0.46345141   -7.1727276    404.06698  0.016802519  0.014814217          781 
 2005000   0.45869632   -7.1654504     404.5394  0.016813774  0.014802481          796 
 2006000   0.45056656   -7.1705822    404.61682  0.016808608  0.014790754          841 
 2007000   0.44669541   -7.1801082    404.34284  0.016788857  0.014779043          817 
 2008000   0.45874091   -7.1843092    404.04928  0.016768313  0.014767333          797 
 2009000   0.44424682   -7.1686312    404.09187  0.016761734  0.014755634          812 
 2010000   0.43492445   -7.1569733    403.82938  0.016742511  0.014743947          842 
 2011000   0.44232433    -7.199316    404.20077  0.016749576   0.01473227          809 
 2012000   0.44428289   -7.1838751    404.37114  0.016748308    0.0147206          804 
Loop time of 5144.32 on 48 procs for 2000000 steps with 4000 atoms

Performance: 67180.917 tau/day, 388.778 timesteps/s
99.4% CPU use with 48 MPI tasks x no OpenMP threads

MPI task timing breakdown:
Section |  min time  |  avg time  |  max time  |%varavg| %total
---------------------------------------------------------------
Pair    | 356.73     | 391.85     | 421.44     |  66.7 |  7.62
Neigh   | 35.92      | 37.107     | 38.728     |  10.7 |  0.72
Comm    | 325.68     | 357.26     | 396.47     |  76.2 |  6.94
Output  | 4.6712     | 4.673      | 4.7191     |   0.3 |  0.09
Modify  | 4296       | 4306.6     | 4323       |   8.7 | 83.72
Other   |            | 46.85      |            |       |  0.91

Nlocal:        83.3333 ave          92 max          77 min
Histogram: 3 3 5 5 18 4 8 0 1 1
Nghost:        2404.08 ave        2421 max        2380 min
Histogram: 1 0 2 6 6 9 13 2 3 6
Neighs:        16617.5 ave       19142 max       14193 min
Histogram: 2 3 5 10 4 4 9 9 1 1
FullNghs:      33235.1 ave       36728 max       30674 min
Histogram: 3 5 3 9 13 7 6 0 1 1

Total # of neighbors = 1595285
Ave neighs/atom = 398.82125
Neighbor list builds = 107044
Dangerous builds = 1

#clear
#
#next RN
#
#jump SELF
Total wall time: 1:25:47
