
units lj                  # Use reduced LJ style units
atom_style atomic         # Uncharged point particles
atom_modify map hash      # Needed for indexing of clusters etc
                          # Used to be able to find where atoms are in relation to each other.

lattice fcc 1.0 spacing 1 1 1
Lattice spacing in x,y,z = 1.5874011 1.5874011 1.5874011
region box block 0 10 0 10 0 10 units lattice
create_box 2 box
Created orthogonal box = (0.0000000 0.0000000 0.0000000) to (15.874011 15.874011 15.874011)
  3 by 4 by 4 MPI processor grid
create_atoms 1 box
Created 4000 atoms
  using lattice units in orthogonal box = (0.0000000 0.0000000 0.0000000) to (15.874011 15.874011 15.874011)
  create_atoms CPU = 0.010 seconds
set type 1 type/fraction 2 0.0 78393
Setting atom values ...
  0 settings made for type/fraction
mass 1 1.0
mass 2 1.0
pair_style lj/cut  3.5
pair_modify tail  yes
pair_coeff 1  1  1.0  1.0   # Intearaction between 1 and 1 set with epsilon = 1 and sigma = 1
pair_coeff 1  2  1.5  0.8
pair_coeff 2  2  0.5  0.88

write_data data.0
System init for write_data ...
Neighbor list info ...
  update every 1 steps, delay 10 steps, check yes
  max neighbors/atom: 2000, page size: 100000
  master list distance cutoff = 3.8
  ghost atom cutoff = 3.8
  binsize = 1.9, bins = 9 9 9
  1 neighbor lists, perpetual/occasional/extra = 1 0 0
  (1) pair lj/cut, perpetual
      attributes: half, newton on
      pair build: half/bin/atomonly/newton
      stencil: half/bin/3d
      bin: standard
WARNING: Not all mixed pair coeffs generated from mixing. Use write_data with 'pair ij' option to store all pair coeffs. (../write_data.cpp:312)


#############################
#   M E L T   S Y S T E M   #
#############################

velocity all create 2.4 2750902 mom yes dist gaussian # Assign velocities
                                                    # Temperature 2.4, random number seed, zero linear momentum
                                                                                # Gaussian distribution

timestep 0.002   # simulation timestep
thermo 1000       # output thermodynamic data every 1000 steps bf 100

# Define a fix  in this case with index 1 applied to all
# particles in the simulation. This fix is for simulations
# in the anisotropic NPT ensemble. Note that we use the MTK
# correction.
fix 1 all npt temp 2.4 2.4 0.1 iso 5.68 5.68 0.5 mtk yes tchain 5 pchain 5 # Use NPT ensemble
                                                                         # Set temperature and pressure and damping
                                                                         # Numbers of thermostats in chain and in barostat
run 10000          # run for 10000 steps
Per MPI rank memory allocation (min/avg/max) = 3.642 | 3.644 | 3.648 Mbytes
Step Temp E_pair E_mol TotEng Press Volume 
       0          2.4   -8.3859253            0   -4.7868253   -2.2405722         4000 
    1000    2.3434012   -4.4238704            0  -0.90964738    5.8682558    5151.8188 
    2000    2.3504393   -4.3589326            0  -0.83415507    5.6673309    5225.8782 
    3000    2.3633435   -4.3726504            0  -0.82852136    5.6121267    5228.2742 
    4000    2.3858967   -4.3362391            0  -0.75828884    5.6038686    5256.6348 
    5000    2.3669883   -4.3788855            0  -0.82929069    5.7822055    5203.3727 
    6000    2.4386828   -4.3872907            0  -0.73018101     5.566166    5232.4539 
    7000     2.375162   -4.3227245            0  -0.76087222    5.5978979    5269.1666 
    8000    2.4155118   -4.2871785            0  -0.66481659    6.0334343     5227.644 
    9000    2.4147409    -4.326289            0  -0.70508324    5.6601201    5270.5522 
   10000    2.4587258   -4.3542053            0  -0.66703854    5.7681548    5226.2975 
Loop time of 2.04926 on 48 procs for 10000 steps with 4000 atoms

Performance: 843229.435 tau/day, 4879.800 timesteps/s
99.7% CPU use with 48 MPI tasks x no OpenMP threads

MPI task timing breakdown:
Section |  min time  |  avg time  |  max time  |%varavg| %total
---------------------------------------------------------------
Pair    | 0.85885    | 0.90457    | 1.0178     |   3.2 | 44.14
Neigh   | 0.1657     | 0.17277    | 0.20495    |   1.7 |  8.43
Comm    | 0.60953    | 0.72346    | 0.79756    |   4.7 | 35.30
Output  | 0.00023618 | 0.00024017 | 0.00029897 |   0.0 |  0.01
Modify  | 0.19967    | 0.23413    | 0.28435    |   4.0 | 11.43
Other   |            | 0.0141     |            |       |  0.69

Nlocal:        83.3333 ave          90 max          74 min
Histogram: 2 2 4 5 3 2 14 6 7 3
Nghost:        1377.23 ave        1411 max        1351 min
Histogram: 2 4 11 5 5 8 7 3 2 1
Neighs:        7274.52 ave        8119 max        6230 min
Histogram: 1 2 5 6 2 10 13 3 1 5

Total # of neighbors = 349177
Ave neighs/atom = 87.294250
Neighbor list builds = 903
Dangerous builds = 208

# Equilibrate just above the melting temperature to avoid step fn in T

fix 1 all npt temp 1.25 1.25 0.1 iso 5.68 5.68 0.5 mtk yes tchain 5 pchain 5
run 2000
Per MPI rank memory allocation (min/avg/max) = 3.642 | 3.644 | 3.648 Mbytes
Step Temp E_pair E_mol TotEng Press Volume 
   10000    2.4587258   -4.3542053            0  -0.66703854    5.7681548    5226.2975 
   11000    1.2385739   -5.8316965            0      -3.9743    5.6599611     4347.706 
   12000    1.2677567   -5.8352325            0   -3.9340728    5.7930652    4338.2417 
Loop time of 0.440195 on 48 procs for 2000 steps with 4000 atoms

Performance: 785106.119 tau/day, 4543.438 timesteps/s
99.7% CPU use with 48 MPI tasks x no OpenMP threads

MPI task timing breakdown:
Section |  min time  |  avg time  |  max time  |%varavg| %total
---------------------------------------------------------------
Pair    | 0.18925    | 0.20551    | 0.23037    |   1.7 | 46.69
Neigh   | 0.030213   | 0.031594   | 0.036441   |   0.7 |  7.18
Comm    | 0.12932    | 0.15192    | 0.1669     |   2.2 | 34.51
Output  | 4.9138e-05 | 5.0028e-05 | 6.2734e-05 |   0.0 |  0.01
Modify  | 0.037731   | 0.046818   | 0.055669   |   2.5 | 10.64
Other   |            | 0.004302   |            |       |  0.98

Nlocal:        83.3333 ave          89 max          75 min
Histogram: 2 0 3 5 3 12 2 12 4 5
Nghost:        1556.15 ave        1572 max        1539 min
Histogram: 2 5 0 6 9 5 11 5 2 3
Neighs:        8780.50 ave        9670 max        7670 min
Histogram: 1 1 3 6 8 8 8 7 3 3

Total # of neighbors = 421464
Ave neighs/atom = 105.36600
Neighbor list builds = 142
Dangerous builds = 15

#############################
# L I N E A R  Q U E N C H  #
#############################

# Define solid atoms. This closely follows ten Wolde  Ruiz-Montero and Frenkel  Faraday Discuss  1996  104  93-110
# Compute components of the per-atom q6 vector
compute q6 all orientorder/atom degrees 1 6 components 6 nnn NULL cutoff 1.3 # compute the Q6 parameter.
                                                                             # Use all neighbours within 1.3 unit cell.

# get number of connections
compute coord_number all coord/atom orientorder q6 0.5

# An atom is solid if it has 8 or more connections (of a possible 14)
variable is_solid atom c_coord_number>=8
group solid dynamic all var is_solid    # Must be dynamic to update
dynamic group solid defined

# do clustering
compute cluster solid cluster/atom 1.3 # Create a cluster where all atoms within are solid and max 1.3 units from another member

# define chunks one chunk per cluster
compute clus_chunks solid chunk/atom c_cluster nchunk every compress yes  # Says which atoms are in which chunk

# count the size of each chunk
compute size_chunks solid property/chunk clus_chunks count


# Find the maximum entry in the vector of chunk sizes
variable max_n equal max(c_size_chunks)


# Thermo style which includes this variable
# thermo_style custom step temp pe vol v_max_n

thermo ${N}  # Print the thermo information every 100 steps
thermo 1000  

# Reset the npt fix at a lower temperature (below freezing)
fix 1  all npt temp  ${temp} ${temp}  0.1  iso  5.68  5.68  0.5  mtk yes tchain  5  pchain  5
fix 1  all npt temp  0.45 ${temp}  0.1  iso  5.68  5.68  0.5  mtk yes tchain  5  pchain  5
fix 1  all npt temp  0.45 0.45  0.1  iso  5.68  5.68  0.5  mtk yes tchain  5  pchain  5

dump dmp2 all dcd ${N} traj.dcd
dump dmp2 all dcd 1000 traj.dcd


compute msd all msd com yes
variable twopoint equal c_msd[4]/6/(step*dt+1.0e-6)
fix 9 all vector 10 c_msd[4]
variable fit equal slope(f_9)/6/(10*dt)
thermo_style custom step temp pe c_msd[4] v_twopoint v_fit v_max_n

fix 1 all npt temp 1.25 ${temp} 0.1 iso 5.68 5.68 0.5 mtk yes tchain 5 pchain 5
fix 1 all npt temp 1.25 0.45 0.1 iso 5.68 5.68 0.5 mtk yes tchain 5 pchain 5
run 5000000 # 5000000  # Run for this many steps
Neighbor list info ...
  update every 1 steps, delay 10 steps, check yes
  max neighbors/atom: 2000, page size: 100000
  master list distance cutoff = 3.8
  ghost atom cutoff = 3.8
  binsize = 1.9, bins = 9 9 9
  4 neighbor lists, perpetual/occasional/extra = 1 3 0
  (1) pair lj/cut, perpetual
      attributes: half, newton on
      pair build: half/bin/atomonly/newton
      stencil: half/bin/3d
      bin: standard
  (2) compute orientorder/atom, occasional
      attributes: full, newton on
      pair build: full/bin/atomonly
      stencil: full/bin/3d
      bin: standard
  (3) compute coord/atom, occasional
      attributes: full, newton on
      pair build: full/bin/atomonly
      stencil: full/bin/3d
      bin: standard
  (4) compute cluster/atom, occasional
      attributes: full, newton on
      pair build: full/bin/atomonly
      stencil: full/bin/3d
      bin: standard
Per MPI rank memory allocation (min/avg/max) = 9.729 | 9.733 | 9.739 Mbytes
Step Temp PotEng c_msd[4] v_twopoint v_fit v_max_n 
   12000    1.2677567   -5.8352325 2.0853538e-30 1.4481623e-32 8.3333333e+20            2 
   13000    1.2988617   -5.8240008   0.57991416 0.0037173983  0.048404906            2 
   14000    1.2516693   -5.8319917    1.1195214 0.0066638174  0.047446572            4 
   15000     1.262674   -5.8472212    1.6603607 0.0092242259  0.045370334            1 
   16000    1.2239003   -5.8593654    2.2408719  0.011671208  0.045749213            3 
   17000    1.2494563   -5.8593166    2.7931919  0.013692117  0.046099785            3 
   18000    1.2587592    -5.822005    3.3323734  0.015427654  0.046010646            3 
   19000    1.2640086   -5.8485275    3.9131742  0.017163044  0.046116429            1 
   20000    1.2525291   -5.8478257    4.4350745  0.018479477    0.0463006            3 
   21000    1.2392856   -5.8496597    4.9488458  0.019638277  0.045976845            3 
   22000    1.2412416   -5.8325406    5.5145937  0.020888612  0.045837327            3 
   23000    1.2288388   -5.7906105    6.0849809  0.022047032   0.04575662            4 
   24000    1.2707338   -5.8456861    6.6699992  0.023159719   0.04582188            3 
   25000    1.2338005   -5.8009317    7.2432439  0.024144146  0.045948205            1 
   26000    1.2033347   -5.8409755     7.807294  0.025023378  0.046094123            3 
   27000    1.2329017   -5.8593706    8.4832137  0.026182758  0.046346573            2 
   28000    1.2365073   -5.8708989    9.1040008   0.02709524  0.046650708            3 
   29000    1.2352415   -5.9103055     9.614631   0.02762825  0.046856209            3 
   30000    1.2377326   -5.8306203    10.229573  0.028415479  0.046995781            2 
   31000    1.2785529   -5.8302444    10.893123  0.029282589  0.047227118            3 
   32000    1.2460101   -5.8418085    11.479898  0.029895568  0.047443482            3 
   33000    1.2593723   -5.8444455    11.874462  0.029986015  0.047548667            5 
   34000    1.2524741     -5.84093    12.393819  0.030377006   0.04752521            5 
   35000    1.2345602   -5.8443016    13.007716  0.030970753  0.047515848            4 
   36000    1.2776719   -5.8370214     13.61191   0.03150905  0.047466298            2 
   37000    1.2574267   -5.8479568    14.071998  0.031693689  0.047446251            4 
   38000    1.2463334   -5.8599522    14.634446  0.032093083    0.0473453            2 
   39000    1.2527253   -5.8396738    15.053589  0.032165788  0.047227206            4 
   40000    1.2246223   -5.8661882    15.487601  0.032265835  0.047067357            2 
   41000    1.2488897   -5.8413555    16.041427  0.032604526  0.046882406            4 
   42000    1.2343328   -5.8341199    16.633867  0.033003704  0.046755605            3 
   43000     1.226999   -5.8316958     17.27706  0.033482673  0.046630554            4 
   44000    1.2467929   -5.8186196    17.889635  0.033881885  0.046620444            2 
   45000    1.2366067   -5.8584593    18.518603   0.03429371  0.046627052            2 
   46000     1.260572   -5.8680448    19.206542   0.03479446  0.046657375            2 
   47000    1.2663367   -5.8229417    19.758815   0.03503336  0.046709263            2 
   48000    1.2374745    -5.875697    20.221482  0.035106739  0.046727396            3 
   49000     1.237865   -5.8518359    20.946502  0.035623303  0.046773061            3 
   50000    1.2109115   -5.8293653    21.662416  0.036104027  0.046874078            4 
   51000    1.2620831   -5.8192483    22.446468  0.036677235  0.047012977            1 
   52000    1.2350864   -5.8190114    23.017797  0.036887494   0.04714858            2 
   53000    1.2662679    -5.878874    23.370158  0.036745531  0.047246888            3 
   54000    1.2428739   -5.8861289    23.985808  0.037015136  0.047323046            2 
   55000    1.2302395   -5.8630864    24.641204  0.037335157  0.047403116            4 
   56000    1.2418468   -5.8718363     24.88661  0.037033646  0.047444746            4 
   57000    1.2119118   -5.8585019    25.629642  0.037470237  0.047455551            1 
   58000    1.2451856   -5.8600866    26.193569  0.037634439  0.047480385            3 
   59000    1.2233836   -5.8613969    26.959238  0.038078019  0.047521174            6 
   60000    1.2662215   -5.8714828    27.653479   0.03840761  0.047593352            4 
   61000    1.2442148   -5.8626243    28.062124  0.038336234  0.047661359            3 
   62000    1.2504556   -5.8588897    28.706019  0.038583358  0.047698446            4 
   63000    1.2499348   -5.8050826    29.060336  0.038439598  0.047723073            6 
   64000    1.2261045    -5.882526    29.478202  0.038383075    0.0477133            3 
   65000    1.2356054   -5.8813289    29.941858  0.038386998  0.047683144            5 
   66000     1.243689     -5.87665    30.379793  0.038358324  0.047630642            4 
   67000    1.2443872   -5.8889178    30.702932  0.038187726  0.047561879            2 
   68000    1.2550917    -5.873524    31.471442  0.038567944  0.047495701            3 
   69000    1.2449257   -5.8828103    31.877988  0.038499985  0.047444831            4 
   70000    1.2426285   -5.8401221    32.707172  0.038937109  0.047391504            4 
   71000    1.2350299   -5.8420527     33.14633  0.038904143  0.047345278            4 
   72000    1.2591791   -5.8062758    33.557865  0.038840122  0.047293331            4 
   73000    1.2601711   -5.8679994    33.817354  0.038604285   0.04721362            4 
   74000    1.2254651   -5.8795829    34.252293  0.038572402   0.04712326            2 
   75000    1.2294237   -5.8632676    34.828306  0.038698118  0.047031577            2 
   76000    1.2321179   -5.8676725    35.328213  0.038737076  0.046936393            2 
   77000       1.2269   -5.8486135    35.734127  0.038673297  0.046844126            4 
   78000     1.254617     -5.86797      36.2606  0.038739957  0.046742613            7 
   79000    1.2371051   -5.8597087    36.967467  0.038995218   0.04665388            5 
   80000    1.2337104   -5.8375723    37.401941  0.038960355  0.046581623            2 
   81000    1.2725139   -5.9078374     38.16889  0.039268405   0.04651959            3 
   82000    1.2439304   -5.7934869    38.850771   0.03948249  0.046475831            4 
   83000    1.2536568    -5.828059    39.438675  0.039597063  0.046451916            2 
   84000    1.2498722   -5.9101994    40.084114  0.039765986  0.046430879            6 
   85000    1.2268584   -5.8359803     40.56984  0.039774353  0.046411167            6 
   86000    1.2245773   -5.8671365    41.438641  0.040153721  0.046403377            5 
   87000    1.2665159   -5.8424082    42.011298  0.040240707   0.04640745            6 
   88000     1.267523   -5.8587796    42.527885  0.040272618  0.046417768            4 
   89000    1.2295187   -5.8150398    43.054036  0.040312768  0.046411813            5 
   90000    1.2518097   -5.8470258    43.496829  0.040274842  0.046406125            3 
   91000    1.2403505   -5.8456776    44.072106  0.040359072  0.046391988            3 
   92000     1.221471   -5.8739325    44.399571  0.040217003  0.046370444            4 
   93000    1.2336454   -5.8402703    45.164399  0.040469891  0.046345357            2 
   94000    1.2304172   -5.8741974    45.907934  0.040698523  0.046337631            4 
   95000    1.2224706   -5.8404472    46.539416  0.040824049  0.046340717            2 
   96000    1.2467651   -5.8769744     47.21196  0.040982604  0.046362816            2 
   97000    1.2431817   -5.8898086    48.080587  0.041306346  0.046390263            4 
   98000    1.2614953   -5.8447696    48.948528  0.041622898  0.046439961            5 
   99000    1.2256304   -5.7965796     49.75937  0.041884992  0.046501168            3 
  100000     1.223849   -5.8992748     50.21859  0.041848825  0.046560653            2 
  101000     1.260411   -5.9077375    50.628723  0.041772874  0.046615186            7 
  102000    1.2341961   -5.8720594    51.338601  0.041943302  0.046669956            2 
  103000    1.2155933   -5.8903297    51.796545   0.04190659  0.046713962            2 
  104000    1.2093423   -5.8695757    52.262612  0.041877093  0.046753276            5 
  105000    1.2239135   -5.8828887    52.883968  0.041971403  0.046792258           13 
  106000    1.2297784   -5.8663621    53.610001  0.042146227  0.046839673            2 
  107000    1.2391402   -5.8961728    54.243024  0.042245346  0.046884013            2 
  108000    1.2432465   -5.8554509    54.823666  0.042302212  0.046928872            2 
  109000    1.2597722   -5.9162246    55.080477  0.042110456  0.046963895            3 
  110000    1.2366624   -5.8674895    55.734158  0.042222847  0.046987388            5 
  111000    1.2464159   -5.8531445    56.286053  0.042256796  0.047013367            2 
  112000    1.2379776   -5.8399804    56.661549  0.042158891  0.047033939            6 
  113000    1.2472296   -5.8423214    57.303481  0.042259204  0.047048965            4 
  114000    1.2417004   -5.8861776    57.480703  0.042018058  0.047049225            3 
  115000    1.2501593   -5.8701145    58.022264  0.042045119   0.04704454            2 
  116000    1.2005502   -5.8721733    58.624368  0.042115207  0.047040382            2 
  117000    1.2198994   -5.8752103    58.690741  0.041802522  0.047027492            7 
  118000    1.2321409   -5.8379976     59.76123  0.042204258  0.047014421            3 
  119000    1.2409317    -5.855057    60.001875   0.04201812  0.047006958            6 
  120000    1.2572991   -5.8739111    60.674535  0.042135093  0.046998272            3 
  121000    1.2394381   -5.8920073    61.138373  0.042106317  0.046989119            2 
  122000    1.2512301   -5.9085819    61.897394  0.042279641  0.046987292            2 
  123000    1.2174571   -5.8763761    62.749772  0.042513395  0.046990103            5 
  124000    1.2371039   -5.8492984    63.218765  0.042485729  0.046993073            3 
  125000     1.255154   -5.8757107    63.692956  0.042461971  0.046996016            5 
  126000    1.2464105   -5.8625944    64.368018   0.04257144  0.047003494            4 
  127000    1.2113649   -5.8692273    64.999317   0.04265047  0.047009111            3 
  128000    1.2312254   -5.9179932    65.281301  0.042500847  0.047017322            4 
  129000    1.2212771   -5.8871192     66.04944  0.042667597  0.047019142            3 
  130000    1.2556977   -5.8504783    66.698895  0.042755702  0.047021373            5 
  131000    1.2445181   -5.8488167    67.312089  0.042819395  0.047028514            2 
  132000    1.2259268   -5.8767247    68.149716  0.043023811  0.047040606            4 
  133000    1.2267592   -5.8816087     68.67398  0.043028809  0.047056675            2 
  134000    1.2246763    -5.878974    68.783814  0.042776003    0.0470617            3 
  135000    1.2257716   -5.8662484    69.370816  0.042821491  0.047063209            2 
  136000    1.1960593   -5.8345985    69.946416  0.042859323  0.047061043            4 
  137000    1.2249831   -5.8250375    70.635238  0.042965473  0.047058892            2 
  138000    1.2451083   -5.8689615    70.974693  0.042859114  0.047055511            6 
  139000    1.2284851   -5.8646022    71.775344  0.043030782  0.047054918            2 
  140000    1.2441718   -5.8778337    71.879343  0.042785323  0.047052453            2 
  141000    1.2183339   -5.9015637    72.281164  0.042719364   0.04704158            4 
  142000    1.2321309   -5.8927721    72.773472  0.042707436  0.047032576            5 
  143000    1.2379186   -5.8927962    73.484713  0.042823259  0.047024887            3 
  144000    1.2355567     -5.87996    74.250323  0.042968937  0.047016517            2 
  145000    1.2327975    -5.871305    74.224881  0.042657978  0.047006055            6 
  146000    1.2583659    -5.878337     74.85142  0.042723413  0.046995083            3 
  147000    1.2283489   -5.8351603    75.520722    0.0428122  0.046981987            3 
  148000    1.2264887   -5.8648296    76.442655  0.043042035  0.046971649            3 
  149000     1.224173   -5.8570895    77.282779  0.043223031  0.046966826           12 
  150000    1.2200211   -5.8693419    77.906111  0.043281173  0.046966404            4 
  151000    1.2653836   -5.9314812    77.886429   0.04298368  0.046964128            6 
  152000    1.2112311   -5.8835009    78.772069  0.043186441  0.046959754            3 
  153000    1.2368476   -5.8557052    78.913035  0.042980956  0.046951294            2 
  154000    1.2147471   -5.8784338    79.536271  0.043039107  0.046940922            4 
  155000      1.20958   -5.8346289    80.081129   0.04305437  0.046930227            4 
  156000    1.2150749   -5.8510762    80.598981  0.043055011  0.046919154            8 
  157000    1.2155524   -5.8471914    81.392898  0.043202175  0.046910456            2 
  158000    1.2220076      -5.8604    81.917476   0.04320542  0.046902281            2 
  159000    1.2175684   -5.8897191    82.626088  0.043305077  0.046893784            3 
  160000    1.2153551   -5.8919721      82.9727  0.043214948   0.04688697            2 
  161000     1.254739   -5.9192009    83.196175  0.043062202  0.046875222            5 
  162000    1.2278693   -5.8777543    84.031113  0.043225881   0.04686309           10 
  163000    1.2221772   -5.8914694    84.345373  0.043121356  0.046853126            3 
  164000    1.2214564   -5.8858918    85.099071  0.043241398  0.046843138            2 
  165000     1.220354   -5.8824533     85.53191  0.043197934  0.046832216            3 
  166000    1.2138314   -5.8875109    85.570989  0.042957324  0.046818644            5 
  167000    1.2343545   -5.8889828    86.025848   0.04292707  0.046799293            3 
  168000    1.2146224   -5.8614943    86.935227  0.043122633  0.046782133            4 
  169000    1.2029137   -5.8932812     87.14385   0.04297034   0.04676391            2 
  170000    1.2316572   -5.8678077    88.254703  0.043262109  0.046750533            4 
  171000    1.2158546   -5.8269329    88.609379  0.043181959  0.046736051            2 
  172000    1.2252419   -5.8674593    89.012735  0.043126325  0.046721481            4 
  173000    1.2308636   -5.8652637    89.563997   0.04314258  0.046704739            2 
  174000    1.2371552   -5.8936906    89.891295  0.043051386  0.046689004            3 
  175000    1.2118046   -5.9203565    90.139243  0.042923449  0.046668244            2 
  176000    1.2379215   -5.8651866    90.590556  0.042893256  0.046645341            3 
  177000    1.2243582    -5.895216    91.724734  0.043184903  0.046623683            3 
  178000    1.1829481   -5.8768111    92.390438   0.04325395  0.046607093            2 
  179000    1.2400363   -5.8731279    92.854492  0.043228348  0.046593241            4 
  180000    1.2267704   -5.8895283    93.818028  0.043434272  0.046580739            5 
  181000    1.2186384    -5.866665    94.029262  0.043291557  0.046567819            2 
  182000    1.2466622   -5.8886167    94.518595  0.043277745  0.046554841            4 
  183000     1.231907   -5.8872897    95.129626  0.043319502  0.046540375            3 
  184000    1.2061427   -5.8675277    95.554531  0.043276509  0.046527559            3 
  185000    1.2392944   -5.8749093    95.888336  0.043192944  0.046513296            3 
  186000    1.2366391   -5.8818884    96.504318  0.043236701  0.046501025            2 
  187000    1.2190846   -5.8978824    97.385235  0.043398055  0.046491702            4 
  188000     1.218551   -5.9043362    98.069664  0.043470596  0.046484427            3 
  189000    1.2132204   -5.9274943     98.17772  0.043288236   0.04647393            2 
  190000    1.2310669   -5.8776777     99.08563   0.04345861  0.046464696            3 
  191000      1.21179    -5.892465    99.264179  0.043308979   0.04645409            2 
  192000     1.180485   -5.8833618    99.872115  0.043347272  0.046441985            2 
  193000     1.233992   -5.8894324    100.16575  0.043249461   0.04642609            4 
  194000    1.2179039   -5.8553485    100.72805  0.043268065  0.046410782            4 
  195000     1.203703   -5.9094191    101.26126  0.043274044   0.04639399            4 
  196000    1.2171413   -5.8601988    102.01071    0.0433719  0.046376968            3 
  197000    1.2168345   -5.8942197    101.79718  0.043061412  0.046359674            4 
  198000    1.1975914   -5.9041091    102.44791  0.043117806  0.046339611            3 
  199000    1.2110441   -5.8591938    102.43644   0.04289633   0.04631649            3 
  200000    1.2217889   -5.8738912    103.34318  0.043059658  0.046292283            4 
  201000     1.220489   -5.8960852    103.51146  0.042915199  0.046267098            3 
  202000     1.217335   -5.9329215    103.59224  0.042736074  0.046242356            3 
  203000    1.2134579   -5.9148995    104.33252  0.042829441  0.046216562            3 
  204000    1.2235644   -5.8974293    104.53975  0.042704147  0.046188617            4 
  205000    1.2384226     -5.87845    104.96222  0.042667569  0.046157459            3 
  206000    1.1836512   -5.9015428    105.32481  0.042607124  0.046125357            4 
  207000    1.2441565   -5.9047509     105.8716  0.042621418  0.046095289            4 
  208000    1.1931974   -5.8783408     106.5317   0.04268097  0.046065016            3 
  209000    1.2167703   -5.8844979    107.37104  0.042811418  0.046034165            7 
  210000    1.2309636    -5.870399    107.56902  0.042686119   0.04600517            8 
  211000     1.210821   -5.8488873    108.45751  0.042834719  0.045977259            2 
  212000    1.2257493   -5.9203707    108.79653  0.042765931  0.045952258            4 
  213000    1.2252949   -5.9355584    109.24223  0.042739526  0.045927124            5 
  214000    1.2059231   -5.8969051    109.66661  0.042705065  0.045904171            2 
  215000    1.1978826   -5.8849939    111.01246  0.043028087  0.045881231            3 
  216000    1.2279827   -5.8505781    111.00997  0.042827922   0.04585919            6 
  217000    1.2227164   -5.8904363    111.35686   0.04276377  0.045832834            7 
  218000    1.2222646   -5.9040753    112.09117  0.042848308  0.045805434            3 
  219000    1.2399805   -5.9020308    112.54719  0.042826176  0.045781143            4 
  220000    1.2235516   -5.8982014    112.63427  0.042664498  0.045755709            4 
  221000    1.2033086     -5.88142     113.4821  0.042791137  0.045731896            3 
  222000    1.2193508    -5.917517    114.11054  0.042834288  0.045710761            3 
  223000    1.2193503   -5.9105842    114.18917  0.042671588   0.04568854            4 
  224000    1.2285645   -5.8786063    115.01713   0.04278911  0.045666311            6 
  225000     1.216294   -5.9025395    115.52559  0.042787256   0.04564426            6 
  226000    1.2004627   -5.8996662    115.86077  0.042721522  0.045623206            3 
  227000    1.1961571   -5.9132497    116.47926  0.042760374  0.045599689            3 
  228000    1.2099103    -5.909908    117.01227  0.042767643  0.045577459            2 
  229000    1.2235165   -5.9019337    118.08666  0.042971857  0.045558291            2 
  230000    1.2088504   -5.9182533    118.49317  0.042932307  0.045540319            3 
  231000    1.2189706   -5.9016661    119.01542  0.042934854  0.045524244            4 
  232000    1.2448348   -5.8992251    119.96114  0.043089491  0.045509817            7 
  233000    1.2159711   -5.9131968    119.92271  0.042890813   0.04549567            3 
  234000    1.2144716   -5.9131943    120.29223  0.042839112  0.045475984            3 
  235000     1.240416   -5.8683587    120.44528  0.042711094  0.045453514            4 
  236000    1.1930761    -5.862931    121.13249  0.042772771  0.045430216            4 
  237000    1.1773212   -5.9049324    121.64564  0.042772727  0.045408459            4 
  238000    1.2069508   -5.8774527    121.99462  0.042715204  0.045386789            2 
  239000    1.2151538   -5.8862038    122.64429  0.042763002  0.045363685            6 
  240000    1.1849134   -5.8860281    122.98443  0.042702927  0.045341114            4 
  241000    1.2027321   -5.8706231    123.33669  0.042647542  0.045316965            4 
  242000    1.2084518   -5.9251699    123.82732   0.04264026  0.045292029            6 
  243000     1.227104   -5.8868054    124.31186  0.042630955  0.045269085            6 
  244000    1.2132533   -5.9186313    124.90081  0.042657382  0.045246435            3 
  245000    1.2229511    -5.896864    125.37664  0.042645114  0.045224286            4 
  246000    1.2069781    -5.896606    126.07638  0.042708802  0.045203261            1 
  247000    1.2079374   -5.9184089    126.54231  0.042693085  0.045184489            3 
  248000    1.1983257   -5.9212964    126.73465  0.042585569    0.0451644            5 
  249000    1.2277897   -5.8995426     127.2951   0.04260211  0.045143374            3 
  250000    1.2181238   -5.9034165    128.11425  0.042704751  0.045122416            3 
  251000    1.2090494    -5.843892    129.01974  0.042835239  0.045105099            3 
  252000    1.2081897   -5.8909232    129.69292   0.04288787  0.045090092            3 
  253000    1.2268962   -5.9351512    129.67779  0.042713368   0.04507229            8 
  254000    1.1894497    -5.941412    129.96799  0.042640415  0.045054126            2 
  255000    1.1811531   -5.8876487    130.35307  0.042599042  0.045035217            6 
  256000    1.2080723   -5.8771668    131.10809  0.042678414  0.045014748            1 
  257000    1.1844057   -5.9147941    131.62622  0.042680358  0.044996707            2 
  258000    1.2250414    -5.890485    132.65988  0.042848799  0.044978578            8 
  259000    1.2359415   -5.8927183    132.70476  0.042697799  0.044959943            4 
  260000    1.1965504   -5.9224947    133.34713  0.042739465  0.044942215            4 
  261000    1.2126111   -5.9473439    134.01145  0.042787819  0.044926269            3 
  262000    1.1855597   -5.9104281    134.12596  0.042660929  0.044909763            2 
  263000     1.227045   -5.9112885    134.72422  0.042688281  0.044894127            3 
  264000    1.2098668   -5.9314255    135.34512  0.042722574  0.044877428            4 
  265000    1.1955721   -5.8978527    135.97533  0.042759538   0.04486109            2 
  266000    1.1892785   -5.9011347    136.19806  0.042668564  0.044845482            3 
  267000    1.1955681   -5.9402582    136.94948  0.042743285  0.044828677            4 
  268000    1.2155265   -5.9232397     137.7825  0.042842818  0.044813421            3 
  269000    1.2012338   -5.8919768    137.91602  0.042724912  0.044797004            3 
  270000    1.2008795   -5.9162092    138.23859  0.042666231  0.044781874            6 
  271000    1.2066321   -5.9093792    138.65882  0.042638013  0.044766737            2 
  272000    1.2068163   -5.9114032    139.53125  0.042748546  0.044752574            2 
  273000    1.2280981   -5.8796317    140.49824  0.042887131  0.044741638            4 
  274000    1.2003494   -5.9004871    140.75385  0.042808348  0.044729427            2 
  275000     1.226299    -5.893045    141.66127  0.042927658  0.044717157            4 
  276000     1.209699   -5.9441756    142.13291  0.042914525  0.044707077            3 
  277000    1.1899432   -5.9010878    142.56238  0.042888803  0.044698383            1 
  278000    1.1959801   -5.8590026    143.48451  0.043010943  0.044689089            4 
  279000    1.1957039   -5.8964108    143.59335  0.042889291  0.044679907            5 
  280000     1.236163   -5.9415495    143.94748  0.042841513  0.044671336            3 
  281000    1.1897372   -5.9020031    145.15556  0.043047319  0.044662396            4 
  282000    1.1979183   -5.9108043    145.61063  0.043029147  0.044653437            2 
  283000    1.2033927   -5.9166506    145.31938  0.042791337  0.044645409            3 
  284000     1.197695   -5.9508236    145.66867  0.042743153  0.044634035            3 
  285000     1.195016   -5.9232374    146.30689  0.042779791   0.04462087            4 
  286000     1.195542   -5.9244707    146.82292  0.042780572  0.044609923            7 
  287000    1.1965059    -5.918583     147.7902  0.042912368  0.044600357            3 
  288000    1.2393753   -5.9299006    148.15807  0.042869811  0.044591698            4 
  289000    1.1964919   -5.9118267    148.99146  0.042961782  0.044584388            3 
  290000    1.1771256   -5.9591808    148.90809  0.042789682  0.044577118            3 
  291000    1.2096264   -5.9269223    149.94315  0.042939046  0.044568986            4 
  292000    1.2074183   -5.9103023    150.71122  0.043011194  0.044562843            2 
  293000    1.2011949   -5.9074286    151.39076  0.043057667  0.044556201            2 
  294000    1.1899671   -5.9151273    151.63354  0.042980029  0.044551125            4 
  295000    1.1964557   -5.9419188    152.27857  0.043016546  0.044546248            5 
  296000    1.1817997   -5.9395855    153.04338  0.043086536  0.044542047            2 
  297000    1.2328608   -5.9127283    153.67451   0.04311855  0.044537118            4 
  298000    1.1926942   -5.9075937    153.90093  0.043037173  0.044530787            6 
  299000    1.1849872   -5.9061486    153.75687  0.042853085  0.044524788            5 
  300000    1.1921451     -5.92072     155.0505  0.043069583   0.04451641            7 
  301000    1.1805847   -5.9128603    155.09845   0.04293977  0.044508732           15 
  302000    1.2217136   -5.9017414    155.25196  0.042839946  0.044500679            2 
  303000    1.2093226   -5.9282692    155.66183  0.042811284    0.0444917            2 
  304000    1.1754361   -5.8777649    156.14093  0.042801789  0.044482713            5 
  305000    1.2031416   -5.9452951    156.55559  0.042774751  0.044472831            5 
  306000    1.2103914   -5.8771424    156.79426   0.04269996  0.044460977            3 
  307000    1.1901389     -5.91381    157.27027  0.042690085  0.044448972            3 
  308000    1.2047995   -5.9051713    158.46969  0.042875997  0.044438584            6 
  309000    1.1917989   -5.8920242     158.9682  0.042871682  0.044427362            6 
  310000    1.1955998   -5.9088866    159.13096  0.042777139  0.044416442            2 
  311000    1.2002226   -5.9419486    159.23848  0.042668402  0.044404854            3 
  312000    1.2391342    -5.970922      160.085  0.042757745  0.044393184            4 
  313000    1.2020133   -5.8769916    160.69404  0.042783291  0.044383258            5 
  314000    1.1837099   -5.9293877    161.41213  0.042837615  0.044374814            3 
  315000    1.2133501   -5.9240975    161.86429  0.042821241  0.044366892            3 
  316000    1.2076146    -5.959874    162.88288  0.042954347  0.044358545            4 
  317000    1.1751744   -5.9243988    162.71905  0.042775776  0.044349389            4 
  318000    1.2109898   -5.8770855    163.20449  0.042768472  0.044340775            3 
  319000     1.192192   -5.8934352    163.80644  0.042791651  0.044330588            5 
  320000    1.2156903   -5.8958802    163.84527  0.042668038   0.04431897            4 
  321000    1.2033799   -5.9424114    164.36398  0.042669778  0.044307781            3 
  322000    1.2108168    -5.957203    165.19995  0.042753609  0.044296472            3 
  323000    1.1855564   -5.9448644    166.14379  0.042864755  0.044286392            4 
  324000    1.1856819   -5.9353618    166.17501  0.042740487  0.044277296            3 
  325000      1.20272   -5.9171864    166.80691  0.042771003   0.04426834            3 
  326000    1.2126072   -5.9306664    167.49933  0.042816803   0.04425935            4 
  327000    1.1842294   -5.9317857    167.86735  0.042779651  0.044249098            4 
  328000    1.2094588   -5.9437837    167.69967  0.042606624  0.044238526            4 
  329000    1.2184719   -5.9315588    168.38762  0.042651374   0.04422955            4 
  330000    1.1762963   -5.9154811     168.7573   0.04261548  0.044220077            3 
  331000    1.2260189   -5.8893557     169.1801  0.042593178  0.044209391            5 
  332000    1.2117241   -5.8696673    170.54729  0.042808055  0.044198522            2 
  333000     1.209799   -5.9015208    170.49896  0.042667407  0.044187769            5 
  334000    1.2059597    -5.920364    170.67778  0.042584277  0.044176704            5 
  335000    1.2016362   -5.9112651    171.39892  0.042636548  0.044165514            2 
  336000    1.1975518   -5.9066701    171.91049  0.042636531  0.044154601            4 
  337000    1.2027841   -5.9146056     172.4935  0.042654178  0.044144637            4 
  338000    1.1780794   -5.8931572    173.10593  0.042678977  0.044134026            2 
  339000    1.2036163   -5.9184417    173.30291  0.042601501  0.044121784            2 
  340000    1.2004093   -5.9125395    173.43556  0.042508715  0.044110014            2 
  341000    1.2211597   -5.9354332    173.72644  0.042455142  0.044098515            2 
  342000     1.181757   -5.9377619    174.63404  0.042552153  0.044085179            5 
  343000    1.1993021   -5.9543541    174.42005  0.042376106  0.044070187            3 
  344000    1.1771653   -5.8939847    174.52461  0.042278249  0.044053485            3 
  345000    1.1802673   -5.9194348    174.72483  0.042204065  0.044036837            3 
  346000    1.2170505   -5.9605369    175.83293  0.042348972  0.044019486            4 
  347000    1.1803662   -5.8638305    176.90729  0.042484939  0.044005618            3 
  348000    1.1915466   -5.9230833    176.57564  0.042283439  0.043991267            5 
  349000    1.2193201   -5.9296163     177.2948  0.042334002  0.043976697            6 
  350000    1.1783911   -5.9269046    177.27683  0.042208768  0.043961892            6 
  351000    1.1946897   -5.9618295    177.47135  0.042134698  0.043946194            4 
  352000    1.1972228   -5.9543323    177.86893  0.042109121   0.04393005            4 
  353000    1.2007576   -5.9357518    178.84779  0.042220913  0.043914039            4 
  354000    1.2021762   -5.9327425    179.59389  0.042277281  0.043898631            3 
  355000    1.1903866   -5.9147557    180.37973  0.042342659  0.043883124            4 
  356000    1.2144845   -5.9430189    180.72201  0.042303842  0.043868374            4 
  357000    1.2332842   -5.9146093    180.90993  0.042229208  0.043853942            4 
  358000    1.2015322   -5.9371775    181.03667  0.042140751  0.043838629            5 
  359000    1.1883479   -5.9513427    181.27969   0.04207978  0.043821612            6 
  360000    1.1743094   -5.9611345    181.54814  0.042025033  0.043803615            5 
  361000    1.1895663   -5.9234253    182.62871  0.042158059  0.043786526            2 
  362000    1.1662332   -5.9149234    182.75736  0.042071215  0.043770467            3 
  363000    1.1918768   -5.9049849    183.31007  0.042082202  0.043754338            6 
  364000    1.1643069   -5.9397775      183.915  0.042105082  0.043739648            4 
  365000    1.1897579   -5.8987505    184.60207  0.042146591  0.043723902            2 
  366000    1.1853303   -5.9839501    184.25423  0.041952238  0.043707214            5 
  367000     1.227694   -5.9543326    185.12188   0.04203494  0.043691088            5 
  368000    1.1881478    -5.953899    185.66883  0.042044571  0.043675317            4 
  369000    1.1933527   -5.9359253    185.99476  0.042004237  0.043659119            4 
  370000    1.1573282    -5.943479    186.81882   0.04207631   0.04364339            2 
  371000      1.19686   -5.8908373    187.62211  0.042143331    0.0436276            6 
  372000    1.1941228   -5.9483903    187.70782  0.042049242   0.04361253            5 
  373000    1.1861224    -5.943301    188.54661  0.042123908  0.043597482            2 
  374000    1.1716411   -5.9286483    189.46893  0.042216784    0.0435839            3 
  375000    1.1967962    -5.938552     189.2777   0.04206171  0.043569984            3 
  376000    1.1861694   -5.9044587    189.85313  0.042077378  0.043556561            3 
  377000    1.1760277   -5.9312834    190.15596  0.042032706  0.043542003            5 
  378000    1.2269348   -5.9415261    191.11971  0.042133974  0.043528184            3 
  379000    1.2197755   -5.9253109    191.01855  0.042000561  0.043514496            5 
  380000    1.1930297   -5.9606714    192.43263  0.042200139  0.043501383            2 
  381000      1.22471   -5.9283766    192.41491    0.0420855  0.043488398            2 
  382000      1.19029   -5.9589416    192.78131   0.04205526  0.043475939            4 
  383000    1.1712183   -5.9255957    193.79643  0.042166325  0.043464001            2 
  384000    1.2085998   -5.9657625     194.3554  0.042177821  0.043453077            3 
  385000    1.2051911   -5.9460211    194.87982   0.04218178  0.043443552            7 
  386000    1.1886463   -5.9423969    196.01277  0.042317092  0.043434191            3 
  387000    1.1890339   -5.9446724    196.24714  0.042258213  0.043424458            4 
  388000    1.1767952   -5.9321333    196.28165  0.042156711   0.04341454            3 
  389000    1.1851606   -5.9614879    195.87289  0.041960774  0.043403356            2 
  390000    1.1989437   -5.9408884    196.99937  0.042093881  0.043392769            2 
  391000    1.1739197   -5.9018564    198.27997  0.042259158  0.043382186            3 
  392000    1.1851803   -5.9450142    198.65716  0.042231538  0.043372559            7 
  393000    1.1836964   -5.9155148    198.94972  0.042186115  0.043363253            5 
  394000      1.21969    -5.955217    199.81962  0.042263033  0.043355164            2 
  395000    1.2123597   -5.9023245    200.36333  0.042270744  0.043346636            2 
  396000    1.2153465   -5.9506328    200.62942  0.042219997  0.043339088            3 
  397000    1.1863957   -5.9388699    201.90783  0.042381996  0.043330742            3 
  398000    1.1893778   -5.9412523    201.69834  0.042231645  0.043321581            2 
  399000    1.1600457   -5.9571096    201.79038  0.042145025  0.043311025            6 
  400000    1.1878747   -5.9481436    202.44266  0.042175555  0.043299719            4 
  401000    1.2035648    -5.950642    201.73639  0.041923605  0.043287848            3 
  402000    1.1935768   -5.9761902    202.77995  0.042035645  0.043276148            5 
  403000    1.1793646   -5.9784302    204.09566  0.042203403  0.043265606            3 
  404000    1.1849747   -5.9537038    203.70185  0.042017709  0.043254275            3 
  405000    1.1905948   -5.9300353     204.4045  0.042058539  0.043242878            7 
  406000    1.2018998   -5.9458819    205.24293  0.042127039  0.043231864            5 
  407000    1.1644309   -5.9617862    205.47787  0.042071636  0.043220559            3 
  408000    1.2084212    -5.954838    205.58486  0.041990372  0.043209306            4 
  409000    1.1638878   -5.9485466     206.1441   0.04200165  0.043198903            2 
  410000    1.1895103   -5.9370694     206.8466  0.042041991  0.043187885            3 
  411000    1.1931659   -5.9144052    207.07533  0.041986076  0.043177154            4 
  412000    1.1751695   -5.9369688    207.49542  0.041969139  0.043166294            6 
  413000    1.1954847    -5.966743    207.87295  0.041943695  0.043155461            8 
  414000    1.1501558   -5.9561613    209.05679  0.042080674  0.043144669            2 
  415000    1.2090417   -5.9129661    209.25727  0.042019533  0.043133814            4 
  416000    1.1593599    -5.952418    209.74666  0.042016559  0.043123682            7 
  417000    1.1979328   -5.9410819    209.32952  0.041832439  0.043113329            5 
  418000    1.1792194   -5.9118219    210.66364  0.041998333  0.043102518            8 
  419000    1.1923589   -5.9414407    210.87019  0.041939178  0.043090432            6 
  420000    1.1779081   -5.9387372    211.45477  0.041955312  0.043079797            7 
  421000    1.1682381   -5.9355803    212.32128  0.042027173    0.0430712            4 
  422000    1.1949175   -5.9202658     212.9771  0.042057089  0.043062531            2 
  423000    1.1694287   -5.9493952    212.81983  0.041926681  0.043052933            3 
  424000    1.2200781   -5.9253023     214.3962  0.042137619  0.043043679            3 
  425000    1.1620623   -5.9499921    214.68909    0.0420959  0.043034092            3 
  426000    1.1768097   -5.9622082    214.97887  0.042053769  0.043025355            3 
  427000     1.192336    -5.938683    215.05792  0.041970711  0.043016892            3 
  428000    1.1666403   -5.9306185     216.1424  0.042083801  0.043008389            5 
  429000    1.1880784   -5.9712431    216.43173  0.042041905   0.04299967            4 
  430000    1.1784092   -5.9929681    215.87878  0.041836973  0.042990018            4 
  431000    1.1524216   -5.9389623    217.98044  0.042146256  0.042981104            3 
  432000    1.1742917   -5.9493454     218.4788  0.042144829  0.042972794            5 
  433000    1.1841886   -5.9840945    218.28457  0.042010118  0.042965264            3 
  434000    1.1826211   -5.9859273    219.39035  0.042125642  0.042957455            3 
  435000    1.1425859   -5.9950064    219.46021  0.042042185  0.042949072            2 
  436000    1.1720933   -5.9353695    220.16317  0.042080117  0.042941227            3 
  437000    1.1881409   -5.9587974    220.44182  0.042036961  0.042933212            2 
  438000    1.1837365   -5.9669514    221.15528  0.042076728  0.042925673            4 
  439000    1.1607544   -5.9345429    221.70088   0.04208445  0.042918065            2 
  440000    1.1831438   -5.9587128    221.89565  0.042025692  0.042910899            4 
  441000    1.1562776   -5.9425308    222.66471  0.042075721  0.042903079            3 
  442000    1.1718746   -5.9511712    222.89236  0.042023446  0.042895785            4 
  443000     1.189006   -5.9768528    223.94599  0.042126785  0.042888943            6 
  444000    1.1685082   -5.9643342    223.85107   0.04201409  0.042882034            4 
  445000    1.1731398   -5.9376064    224.56309  0.042053014   0.04287418            5 
  446000    1.1622745   -5.9482688    224.40799  0.041929743  0.042866852            4 
  447000    1.1950741   -5.9495534     225.6133  0.042060646  0.042860029            4 
  448000    1.1679547   -5.9336477    226.06287  0.042050385  0.042853418            3 
  449000    1.1923735   -5.9233339    227.06723  0.042143139  0.042846873            4 
  450000    1.1698967   -5.9463134    227.69852  0.042166392  0.042839421            3 
  451000    1.1709575   -5.9492009    227.37435  0.042012998  0.042831894            4 
  452000    1.1877698   -5.9864823    228.59061  0.042144287  0.042825097            5 
  453000    1.1910744   -6.0046188    228.73537  0.042077883  0.042817796            4 
  454000    1.1788588   -5.9811044    228.79615  0.041996357  0.042810076            2 
  455000     1.179092   -5.9569599    228.53014  0.041855338  0.042802201            5 
  456000    1.1852335   -5.9408616    228.71687  0.041797673  0.042792959            3 
  457000    1.1514147   -5.9708662    229.86814  0.041916146    0.0427844            3 
  458000    1.1819451   -5.9563792    230.28477  0.041900431  0.042776681            2 
  459000    1.1831166   -5.9557309    230.48607  0.041845692  0.042768844            9 
  460000    1.1862333   -5.9914989    231.39996  0.041920282  0.042761551            2 
  461000    1.1757564   -5.9881779    231.57044  0.041860166  0.042753634            3 
  462000    1.1790576   -5.9534484     232.1941  0.041882053  0.042745615            5 
  463000    1.1638635   -5.9495658    232.92916  0.041923896   0.04273812            4 
  464000    1.1775284   -5.9525424    233.59945  0.041953924  0.042730297            4 
  465000     1.192209   -5.9755466    234.23926  0.041978363  0.042723017            2 
  466000    1.1578265   -5.9841548    234.59813  0.041952455  0.042716669            2 
  467000    1.2171184   -5.9392311    235.69363  0.042058107  0.042709784            7 
  468000    1.1617517   -5.9721743    236.40485  0.042094881  0.042704379            2 
  469000    1.1829763   -5.9484594    236.96571  0.042104782  0.042698332            4 
  470000    1.1709713    -5.934282    236.51098  0.041934571  0.042692009            3 
  471000    1.2007333   -5.9838814    235.98444  0.041752379  0.042684555            4 
  472000    1.1609803   -5.9471471    237.21882  0.041881853  0.042676837            4 
  473000    1.1656232    -5.998105    238.06427   0.04194226  0.042668513            6 
  474000    1.1595553   -5.9824448    237.24796   0.04171026  0.042660626            6 
  475000    1.2109043   -5.9228951    238.28896  0.041805081  0.042652984            8 
  476000    1.1909655   -5.9569551    239.00867  0.041843255  0.042645066            7 
  477000    1.1512802    -6.002022    238.89287  0.041735302  0.042637506            3 
  478000    1.1947456   -5.9756806     240.2273  0.041880632  0.042629132            2 
  479000    1.1544401   -5.9185078    239.74116  0.041708622  0.042621189            3 
  480000    1.1904123   -5.9959441    240.02622  0.041671218    0.0426122            7 
  481000     1.167561   -5.9505274    240.29953  0.041631935  0.042602428            2 
  482000    1.1876279   -5.9331782     240.8315  0.041637534  0.042593655            2 
  483000    1.1519393   -5.9730394    241.04888  0.041588834  0.042584615            4 
  484000    1.1713455   -5.9575307    242.51287  0.041754971  0.042574756            3 
  485000    1.1842296   -5.9276061    241.92285  0.041567499  0.042565285            5 
  486000    1.1851243   -5.9751642    241.55775  0.041419368  0.042554802            4 
  487000    1.1741006   -5.9634126    242.69254  0.041528498   0.04254413            5 
  488000    1.1702077   -5.9785836    242.87802  0.041475072  0.042533886            2 
  489000    1.1789397    -5.954378    244.78283  0.041714865  0.042523764            3 
  490000    1.1693219   -5.9698924    244.25747  0.041540387  0.042513901            3 
  491000    1.1798273   -5.9779947    244.77647  0.041543869    0.0425036            4 
  492000     1.164236   -5.9570808    245.67323  0.041611319  0.042493239            2 
  493000    1.1818425   -5.9577217    246.25048   0.04162449  0.042483907            3 
  494000    1.1760319   -5.9544748     246.6884  0.041614102  0.042474337            7 
  495000    1.1613311   -5.9446712    247.04453  0.041589989  0.042464897            5 
  496000    1.1905695   -5.9598133    247.57598  0.041595426  0.042455634            3 
  497000    1.1525514   -5.9691555    247.76674  0.041543718  0.042446411            2 
  498000    1.1889991   -5.9690615    249.07251  0.041678799  0.042438302           10 
  499000    1.1688328   -5.9630305    249.44555  0.041657574  0.042429824            3 
  500000    1.1768549   -5.9643447    249.35749  0.041559581  0.042421531            4 
  501000    1.1852971   -5.9650713    249.93059  0.041571955  0.042413297            7 
  502000    1.1606216   -5.9637037    250.16939  0.041528783   0.04240457            2 
  503000    1.1856423    -5.967322     251.2896  0.041631809  0.042395553            5 
  504000    1.1584409   -6.0055171    250.82922  0.041473086  0.042386523            2 
  505000    1.1986583   -5.9675243    252.68252  0.041696786  0.042378379            3 
  506000    1.1679023   -5.9809569     251.8311   0.04147416  0.042370198            3 
  507000    1.1849798   -5.9884226    253.01756   0.04158737  0.042362144            2 
  508000    1.1728965   -5.9718107    253.87241  0.041645736  0.042354225            8 
  509000    1.1500749   -5.9865945     253.6332  0.041524754  0.042346404            5 
  510000    1.1538969   -6.0099063    254.01307  0.041505404   0.04233837            3 
  511000    1.1857458   -5.9877287    254.74442  0.041543448  0.042330122            3 
  512000    1.1872884   -6.0135417    255.15912  0.041529804  0.042321927            3 
  513000    1.1397032   -5.9421397    255.92426  0.041573141  0.042313819            5 
  514000    1.1672559   -5.9965975    256.40967  0.041570959  0.042306284            3 
  515000    1.1805978   -6.0074166    255.95546  0.041416741  0.042297647            2 
  516000    1.1615812    -5.965498    257.19149  0.041536093  0.042289234            3 
  517000    1.1800887   -5.9936532    257.14434  0.041448152  0.042281242            3 
  518000    1.1645802   -6.0000584    257.80481   0.04147439  0.042272596            7 
  519000    1.1846755   -5.9957207    257.14823  0.041289055  0.042263252            3 
  520000    1.1774607   -5.9396335    258.31326  0.041396355  0.042253713            2 
  521000    1.1883337   -5.9713793    259.47269   0.04150235  0.042244477            5 
  522000    1.1673835   -5.9454022    259.49872  0.041426999  0.042235824            5 
  523000    1.1722187    -5.989357    259.85346  0.041404312  0.042226256            2 
  524000    1.1767919   -5.9613217    260.37918  0.041408903  0.042216546            3 
  525000     1.156783   -5.9374698    260.86235  0.041406722  0.042207616            1 
  526000    1.1592678   -5.9807647    261.01692   0.04135249  0.042198227            4 
  527000    1.1607376   -5.9880646     260.6841  0.041221394  0.042188266            3 
  528000    1.1625067   -5.9727864    262.29364  0.041397355   0.04217832            5 
  529000    1.1825701   -5.9831617    263.11648   0.04144872  0.042169068            5 
  530000    1.1591083    -5.968147    262.81053   0.04132241  0.042160347            4 
  531000    1.1609369   -5.9894521    262.99774  0.041273971   0.04215109            4 
  532000    1.1584023   -5.9667084    264.06625   0.04136376  0.042141678            4 
  533000    1.1546571   -6.0143167    263.36191  0.041176033  0.042132654            7 
  534000    1.1523003   -5.9635718    264.93353  0.041344184  0.042123131            3 
  535000    1.1611655   -5.9896979    265.12336  0.041296473  0.042114169            4 
  536000    1.1640272   -6.0046416    266.02624  0.041359801  0.042105403            8 
  537000    1.1663863   -6.0096798    265.91116  0.041264922   0.04209655            4 
  538000     1.143873   -5.9688239     267.5387   0.04144032  0.042088435            3 
  539000    1.1405863   -5.9944101    266.24023  0.041162683  0.042079246            6 
  540000    1.1818211   -6.0179477    266.08051  0.041061808  0.042069262            4 
  541000    1.1705196   -5.9837768    267.83135    0.0412556  0.042059321            2 
  542000    1.1489049   -5.9842486    267.68467   0.04115693  0.042049159            4 
  543000    1.1728226   -5.9729316    267.96144  0.041123609  0.042038336            6 
  544000    1.1586679   -5.9689316    268.11943  0.041072216  0.042027272            4 
  545000    1.1534738   -5.9649239    269.02573  0.041135432   0.04201562            3 
  546000    1.1813091   -5.9649614    269.35528   0.04111039   0.04200455            3 
  547000     1.175868   -5.9621544    269.33554  0.041032227  0.041993478            3 
  548000    1.1690164   -5.9917144     269.9496   0.04105073  0.041981882            5 
  549000    1.1728068   -5.9884655    270.11327  0.041000801  0.041969661            2 
  550000    1.1606742   -6.0080853    269.43566  0.040823585  0.041957828            6 
  551000    1.1527118   -5.9435458    270.33568  0.040885615  0.041945488            3 
  552000    1.1790867    -6.013112    270.47598  0.040832727  0.041932058            4 
  553000    1.1631617    -5.949298    271.02961  0.040842316  0.041919356            4 
  554000    1.1517949   -5.9442052    271.04728  0.040771251  0.041907065           12 
  555000    1.1807841   -5.9964182    271.44089   0.04075689  0.041894179            4 
  556000    1.1554616   -5.9625553    271.52045  0.040695511  0.041881371            5 
  557000    1.1636992   -5.9988111    272.48088   0.04076614  0.041868531            4 
  558000    1.1928532   -5.9698259    273.44855  0.040837596  0.041855646            6 
  559000    1.1122165   -5.9804099    272.93685  0.040688261  0.041842776            4 
  560000    1.1856107   -5.9601457    274.39958  0.040833271  0.041830206            2 
  561000     1.146278   -5.9992795    274.77527  0.040816291  0.041818105            3 
  562000    1.1565832   -6.0021112    275.04323  0.040783398  0.041805362            6 
  563000    1.1840215   -5.9721279    275.01269  0.040706437  0.041793405            4 
  564000    1.1585325   -5.9977117    275.99141  0.040778872  0.041782269            4 
  565000    1.1879281   -6.0033321    276.35651  0.040760547  0.041770602            3 
  566000     1.190565   -6.0187685    277.07042  0.040793642  0.041758946            5 
  567000    1.1480876   -5.9985143    277.83249    0.0408337  0.041748046            8 
  568000    1.1597736   -5.9840292    279.11821  0.040950442  0.041737421            3 
  569000    1.1775555   -6.0021643     278.5735  0.040798696  0.041726553           11 
  570000    1.1733891   -6.0088376    279.05056  0.040796866  0.041715355            3 
  571000    1.1731752   -5.9816845    280.21282  0.040895042  0.041704059            5 
  572000    1.1809892   -6.0011973      279.566  0.040729312  0.041692467            3 
  573000    1.1353307   -5.9663553    280.72312  0.040826515  0.041680734            4 
  574000    1.1673341   -5.9517943    280.95897   0.04078963  0.041669174            4 
  575000    1.1567475   -5.9798917     282.3018  0.040913305  0.041658887            2 
  576000    1.1510415   -5.9619017    282.02312  0.040801957  0.041649365            5 
  577000    1.1688415   -6.0095905     281.6493  0.040677253  0.041639511            4 
  578000    1.1782723   -5.9720289    283.52358  0.040877102  0.041629434            6 
  579000    1.1808009    -5.951114    283.53905   0.04080873  0.041619588            4 
  580000    1.1512151   -5.9995706    284.15915  0.040827465  0.041609873            5 
  581000    1.1577289   -5.9928556    284.92685  0.040867305    0.0416001            3 
  582000    1.1787986   -5.9921376     284.0678  0.040674084  0.041589907            3 
  583000    1.1444768   -5.9953624    284.87223  0.040719301  0.041579641            3 
  584000    1.1391921   -5.9678139      285.053  0.040675372  0.041569157            5 
  585000    1.1571111   -6.0053059    286.44113   0.04080358  0.041559094            2 
  586000    1.1569647   -5.9745227    287.69985  0.040912948  0.041549362            4 
  587000    1.1807577    -5.976297    288.45432  0.040950358  0.041540147            3 
  588000    1.1394451   -5.9688982    287.83722  0.040793256  0.041530541            4 
  589000    1.1773103   -6.0016468    288.19042   0.04077397  0.041520985            3 
  590000    1.1461115   -5.9950182    288.27763   0.04071718  0.041511202            3 
  591000    1.1156876   -6.0075074    289.32712  0.040796266  0.041501599            4 
  592000    1.1632294   -5.9868778    289.91575  0.040810213  0.041492479            6 
  593000    1.1615347   -6.0289499     289.7191  0.040713757  0.041483685            5 
  594000    1.1503003   -5.9731546    290.53612  0.040759837  0.041474617            4 
  595000    1.1642252   -5.9692647    291.72437  0.040857755   0.04146544            3 
  596000    1.1330654   -6.0006985    291.78103  0.040797124  0.041456791            5 
  597000    1.1667672   -5.9905697    292.53359  0.040833834   0.04144857            2 
  598000    1.1412338   -5.9903023    292.80791  0.040803777  0.041440458            5 
  599000    1.1550996   -5.9794231    293.76051  0.040868184  0.041432278            2 
  600000     1.146313   -6.0282975     293.3011  0.040736264  0.041424126            4 
  601000    1.1590824   -6.0371715    292.72203  0.040588191  0.041415648            5 
  602000    1.1328798   -5.9815176    294.62132  0.040783682  0.041407081            5 
  603000    1.1491368   -5.9980534    294.91124  0.040756114  0.041398478            4 
  604000    1.1607318   -6.0053313    294.51903  0.040634524  0.041389314            6 
  605000    1.1594715   -6.0262093    294.47311  0.040561034  0.041380388            4 
  606000    1.1639988   -6.0096976    295.62613  0.040652659  0.041370829            4 
  607000    1.1536162    -6.000768    295.28144  0.040538363  0.041361538           10 
  608000    1.1474521   -5.9735161    297.28037  0.040745665  0.041352364            8 
  609000    1.1451867   -6.0106477     296.6396  0.040591078  0.041343728            4 
  610000    1.1697544    -5.983275    297.66897  0.040665159  0.041334648            3 
  611000    1.1402892   -6.0410244    298.42581  0.040701828  0.041325492            7 
  612000    1.1969275   -5.9780851    298.29665  0.040617735  0.041316521            5 
  613000    1.1598962   -6.0217067    298.63355  0.040597275   0.04130766            6 
  614000    1.1607701   -5.9925917    299.79903  0.040689336  0.041298704            4 
  615000    1.1475244   -5.9894328    300.62209    0.0407347  0.041290023            6 
  616000    1.1624863   -6.0021151    300.15778  0.040605761    0.0412813            1 
  617000     1.166143   -6.0073973    301.52681  0.040724852  0.041272597            3 
  618000    1.1757083   -6.0105179    301.57086  0.040664895  0.041264008            3 
  619000    1.1452928   -6.0082214    301.78894   0.04062856  0.041255292            6 
  620000    1.1419909   -6.0022184    301.29496  0.040496634  0.041246514            3 
  621000    1.1764456   -6.0126767    302.58842  0.040604995  0.041237896            4 
  622000    1.1464426   -5.9886613    302.46553  0.040523249  0.041229397            4 
  623000    1.1670458    -6.016626    303.53433  0.040601168  0.041220491            8 
  624000    1.1491818   -6.0048107    303.49958  0.040531461  0.041211859            3 
  625000    1.1480552   -5.9911132    304.90096  0.040653461  0.041203608            5 
  626000    1.1316073   -6.0181587    306.31519  0.040776782  0.041195431            7 
  627000     1.168653   -6.0086181    305.76942  0.040639211  0.041187336            4 
  628000    1.1478684   -6.0233711    305.32606  0.040515666  0.041179074            5 
  629000    1.1571681   -6.0304373    305.69709  0.040500409  0.041170549            3 
  630000    1.1423172   -6.0149694    306.17725  0.040499636  0.041161993            3 
  631000    1.1546857   -6.0112714    305.56686  0.040354841  0.041153327            2 
  632000    1.1472219   -6.0096295    308.17647  0.040635083  0.041144556            5 
  633000     1.154673   -5.9970868    308.33486  0.040591741  0.041135902            5 
  634000    1.1539546   -5.9938536    307.97059  0.040479836    0.0411271            4 
  635000    1.1467329    -6.018097     308.3106  0.040460708  0.041118154            3 
  636000    1.1626369   -5.9990436    309.60131   0.04056621  0.041109015            3 
  637000    1.1124808   -6.0069664    310.48242  0.040617794  0.041100363            8 
  638000     1.156825   -6.0021429    309.65975  0.040446675   0.04109143            3 
  639000     1.151932   -5.9918775    310.83905  0.040537174  0.041081999            4 
  640000    1.1606655   -5.9590789    310.45664  0.040424041   0.04107277            5 
  641000    1.1400252   -6.0451982    311.32903  0.040474392  0.041063277            4 
  642000    1.1615364   -5.9931152    311.52302  0.040436529  0.041054193            7 
  643000    1.0998964   -6.0411444    311.63387  0.040388009  0.041044976            9 
  644000    1.1248038   -5.9848943    311.34828  0.040288339  0.041035337            4 
  645000    1.1550647   -6.0136234    312.37312  0.040358284  0.041025774            7 
  646000    1.1650897   -6.0309809    312.65521  0.040332199  0.041016185            8 
  647000    1.1559413   -6.0057487    313.62521  0.040394797  0.041006069            5 
  648000    1.1553477   -6.0000944    313.34015  0.040295802  0.040996075            4 
  649000    1.1412745    -6.006725    315.25975  0.040480194    0.0409863            4 
  650000    1.1711886   -5.9951925    314.28545  0.040293007  0.040976928            2 
  651000    1.1531631   -6.0500912    315.12245  0.040338255   0.04096705            3 
  652000    1.1542086   -5.9738805    315.85395  0.040369882  0.040957516            5 
  653000    1.1515864    -5.996835    316.15009  0.040345851  0.040948751            3 
  654000    1.1307264    -6.027204    316.95144  0.040386269  0.040939821            3 
  655000     1.141177   -6.0269207    317.32222  0.040371784   0.04093046            3 
  656000    1.1342867   -6.0467271    317.78762  0.040369362  0.040921315            4 
  657000    1.1849554    -6.013409    317.77798  0.040306694  0.040912463            3 
  658000    1.1321264   -6.0094257    318.14586  0.040292028  0.040903205            3 
  659000    1.1506105   -6.0309682    317.91754  0.040202015  0.040893813            8 
  660000    1.1336314    -6.034352    318.67193  0.040236354  0.040884254            4 
  661000    1.1566653   -6.0150529    319.39851  0.040267084  0.040874896            5 
  662000     1.149155   -6.0262228    319.32652  0.040197195  0.040865695            4 
  663000    1.1246656   -6.0361469    318.52616  0.040035968   0.04085607            3 
  664000    1.1248323   -6.0044593     320.3787   0.04020817  0.040846643            4 
  665000    1.1462165    -6.045421    320.50407  0.040163417   0.04083648            9 
  666000    1.1300867   -6.0228695    320.70195  0.040127872  0.040827282            5 
  667000    1.1653928   -6.0035818    322.81376  0.040331554  0.040818501            4 
  668000    1.1493761   -6.0156484    322.13442   0.04018643  0.040809663            6 
  669000    1.1268444   -6.0205771    322.19502  0.040133909  0.040800415            5 
  670000    1.1508611   -6.0670695    322.05531   0.04005663  0.040790596            4 
  671000    1.1398293   -6.0069176    323.38406  0.040161955  0.040780931            4 
  672000    1.1578868   -6.0341653    323.76435  0.040149348  0.040770875            6 
  673000    1.1307066   -5.9983147    324.02391  0.040121832   0.04076104            4 
  674000    1.1637491   -6.0307871    324.48841  0.040119735  0.040751571            4 
  675000    1.1670572   -6.0134043    324.28997  0.040035799  0.040741509            5 
  676000    1.1561865   -5.9738945    324.66642  0.040022981  0.040731944            1 
  677000    1.1592307   -5.9645052    324.95076  0.039998863  0.040721978            5 
  678000    1.1232887   -6.0298677    324.92233  0.039936373   0.04071237            6 
  679000    1.1492179   -6.0212533    326.35834  0.040053798  0.040702265            3 
  680000    1.1092303    -6.051833    326.78466   0.04004714  0.040692276            4 
  681000     1.155005    -6.028747     326.7701  0.039986551   0.04068231            5 
  682000    1.1663771   -6.0244895    326.86675   0.03993973  0.040672482            4 
  683000    1.1597829   -6.0098348    327.61898  0.039973033  0.040662621            8 
  684000     1.116824   -5.9660897    327.64754  0.039918072  0.040652919            8 
  685000    1.1131208   -6.0151249    328.74176  0.039992914  0.040643282            3 
  686000    1.1455481   -6.0442342    328.53794  0.039909857  0.040633726           14 
  687000    1.1730687    -6.077777    328.28637  0.039821248  0.040623668            9 
  688000      1.13129   -6.0228768    329.79216  0.039945756  0.040613869            3 
  689000    1.1635114   -6.0557674    330.19183  0.039936118  0.040604081            2 
  690000    1.1228616   -6.0585522    330.39306  0.039902543  0.040594535            3 
  691000    1.1278047   -6.0161797    332.20942  0.040063847  0.040585249            4 
  692000    1.1477306   -6.0242764    331.77261  0.039953349  0.040576299            5 
  693000    1.1308195   -6.0054665    332.60337  0.039995595  0.040566455            3 
  694000    1.1474295   -6.0001532    333.17994  0.040007197   0.04055642            4 
  695000    1.1222885   -6.0122787    332.22892  0.039835602  0.040546344            4 
  696000    1.1403076   -6.0605558    331.78436  0.039725139  0.040535972            3 
  697000    1.1456125   -5.9924767    332.57894  0.039763144  0.040525308            4 
  698000    1.1424051   -6.0110527    333.43077  0.039807876  0.040514989            4 
  699000    1.1454053   -6.0437414    332.37712  0.039625313   0.04050427            4 
  700000    1.1365859   -6.0453705    334.03159  0.039765666  0.040493389            2 
  701000    1.1519058   -6.0687706    333.87969  0.039690881  0.040482166            5 
  702000    1.1452003   -5.9823012    335.09004   0.03977802  0.040471619            5 
  703000     1.152924    -6.003524    335.16248  0.039730024  0.040461331            2 
  704000    1.1521444   -6.0240542    335.64918  0.039731201  0.040451175            3 
  705000    1.1540282   -6.0165292    336.11829  0.039730295  0.040440979            6 
  706000    1.1353666   -6.0371274    337.12272  0.039792578  0.040430409            9 
  707000    1.1531277   -6.0147974    337.47678  0.039778026  0.040419992            3 
  708000    1.1321766   -6.0124025    337.35441   0.03970744  0.040409944            4 
  709000    1.1221042   -6.0643326    337.26763  0.039641236  0.040399225            3 
  710000    1.1399458   -6.0071389    336.98577   0.03955232  0.040388605            3 
  711000    1.1287932   -6.0277563    338.42152  0.039664969  0.040378091            6 
  712000    1.1389962   -6.0438519    339.40293  0.039724126  0.040367435            3 
  713000    1.1237875   -6.0192155    339.36534  0.039664018  0.040356952            4 
  714000    1.1767555   -6.0239211    340.59837  0.039752378  0.040346415            7 
  715000    1.1254036   -6.0217677    340.80524  0.039720891  0.040335815            4 
  716000    1.1085078   -6.0290624    341.05323  0.039694277  0.040325488            2 
  717000    1.1549712   -6.0324432    341.24937  0.039661712  0.040315227            2 
  718000    1.1431526   -6.0104732    341.76738  0.039666594  0.040304881            3 
  719000    1.1535009   -6.0126333    341.58122  0.039589849  0.040294846            3 
  720000    1.1293398    -6.014228     342.4661   0.03963728  0.040284592            2 
  721000     1.134155   -6.0217968     342.3502  0.039568909  0.040274315            6 
  722000    1.1447345   -6.0213344    343.46417  0.039642679  0.040264201            4 
  723000    1.1479562    -6.034606     344.1124  0.039662564  0.040253936            6 
  724000    1.1394955   -6.0240035      344.026  0.039597836  0.040243715            7 
  725000    1.1529914   -6.0173559    344.56517  0.039605192  0.040233465            6 
  726000    1.1349065   -6.0278044    345.83845  0.039696791  0.040223538            8 
  727000    1.1144381   -6.0281704    345.48088  0.039601201  0.040213649            5 
  728000    1.1272695   -6.0398119      346.074  0.039614698  0.040203478            4 
  729000    1.1623017    -5.997543    346.30946  0.039587273  0.040193522            5 
  730000     1.150836    -6.013781    345.11852  0.039397091  0.040183315           10 
  731000    1.1331884   -6.0535343    346.84607  0.039540136  0.040172924            6 
  732000    1.1152208    -6.030752    346.75066  0.039475257  0.040162412            8 
  733000    1.1259462   -5.9965814    347.47578   0.03950384  0.040151604            3 
  734000     1.122859   -6.0316029    346.42772  0.039331031  0.040141194            3 
  735000    1.1209697   -6.0393113    347.50186  0.039399304  0.040130669            4 
  736000    1.1537407   -6.0377053    348.51407  0.039460379  0.040119736            5 
  737000    1.1419698   -6.0186691    349.37937  0.039504678  0.040109377            5 
  738000    1.1281142   -6.0343913    347.29687  0.039215997  0.040098415            4 
  739000    1.1462127   -6.0130367    348.56524  0.039305958  0.040087372            6 
  740000    1.1306729   -6.0754332     351.1373  0.039542489  0.040076123            5 
  741000    1.0981858   -6.0000689    350.42072  0.039408538  0.040065149            3 
  742000    1.1194352   -6.0296006    350.42804  0.039356249  0.040054141            2 
  743000    1.1513419   -6.0223659    350.40949  0.039301198  0.040043076            6 
  744000    1.1306726   -6.0396697    350.51508  0.039260202  0.040031735            4 
  745000    1.1171969   -6.0109874    350.14238  0.039165814    0.0400201            6 
  746000    1.1236837   -6.0715193    350.87903  0.039195602  0.040008281            2 
  747000    1.1240057   -6.0338156    351.33236  0.039193704  0.039996541            9 
  748000    1.1413827   -6.0132082    351.72505  0.039185055  0.039984579            8 
  749000    1.1410014   -6.0258556     351.8871  0.039150768  0.039972332            4 
  750000    1.1226423   -6.0518795    351.44752  0.039049725  0.039960385            4 
  751000    1.1110837   -6.0627708    352.32666   0.03909528  0.039948379           11 
  752000    1.1122387   -6.0349109    352.21437  0.039030847  0.039936183            6 
  753000    1.1248809   -6.0321954    353.76942  0.039151109  0.039923886            7 
  754000    1.1563812   -6.0209393    353.45819  0.039064787  0.039911541            1 
  755000    1.1300912   -6.0174772    353.28348  0.038993762  0.039899148            2 
  756000    1.1287211   -6.0652961    352.02054  0.038802969  0.039886263            3 
  757000    1.1170534   -6.0632114    353.48514  0.038912939  0.039873403            4 
  758000    1.1270509   -6.0666464    355.11895  0.039041221  0.039860428            7 
  759000    1.1313456    -6.016005    354.72892  0.038946961  0.039847793            2 
  760000    1.1393731   -6.0240201    355.16001  0.038942984  0.039834989            5 
  761000    1.1256894   -6.0413962    355.30257  0.038907421  0.039821989            3 
  762000    1.1405971   -6.0227702    355.51825  0.038879949  0.039808994            3 
  763000    1.1253813   -6.0314179      355.459  0.038822521  0.039796503            6 
  764000    1.1083469   -6.0158195    356.66937  0.038903728  0.039783815            6 
  765000    1.1142672   -6.0389898     356.8186  0.038869129  0.039771116            2 
  766000    1.1274884   -6.0069211    357.65575  0.038909459  0.039758586            2 
  767000     1.137915   -6.0616911     358.2395  0.038922153  0.039746363            6 
  768000    1.1270214   -6.0484184    358.01762  0.038847398  0.039734242            7 
  769000    1.1338622   -6.0286906    359.34149  0.038940343  0.039722381            6 
  770000    1.1205967    -6.053688    360.67786    0.0390344   0.03971107            3 
  771000    1.1405187   -6.0239355    360.52527  0.038967279  0.039699556            3 
  772000    1.1299453   -6.0267003    359.97868  0.038857802  0.039687907            6 
  773000    1.1224658   -6.0739879    361.27693  0.038947492   0.03967622            7 
  774000    1.1296554    -6.069236    361.99783  0.038974788  0.039664649            3 
  775000    1.1332461   -6.0585502    360.79694   0.03879537  0.039652415            5 
  776000    1.1185709   -6.0382192    361.03526  0.038770969  0.039640637            5 
  777000    1.1365206   -6.0276806    362.78925  0.038909186  0.039628694            4 
  778000    1.1345318    -6.051699    362.38986  0.038816395  0.039616896            6 
  779000    1.1312094   -6.0516161    364.06347    0.0389456  0.039605388            7 
  780000    1.1339101    -6.027536    364.46894  0.038938989  0.039593511            3 
  781000    1.1068051   -6.0407903    363.68928  0.038805941   0.03958183            9 
  782000    1.1563468   -6.0295726    363.79754  0.038767854  0.039570521            5 
  783000    1.1356391   -6.0454252    364.71722  0.038816222  0.039559123            4 
  784000    1.1302997   -6.0613901    365.02054  0.038798952  0.039547589            5 
  785000    1.1303978   -6.0675458    364.88292  0.038734917   0.03953551            7 
  786000    1.1144632   -6.0379604    366.30546  0.038836457  0.039523713            6 
  787000    1.1342409   -6.0984099    365.88327  0.038742404  0.039511952            4 
  788000    1.1156129   -6.0681397    366.18291  0.038724927  0.039500755            6 
  789000    1.1451084   -6.0763412    367.07933  0.038770525  0.039489588            2 
  790000    1.1349608    -6.065801    367.44827  0.038760366  0.039478344           10 
  791000    1.1282854   -6.0661813    368.50485  0.038822677  0.039467384            4 
  792000     1.108073   -6.0459758    370.05393  0.038936651  0.039456842            6 
  793000    1.1126668   -6.0373646     369.5634  0.038836003  0.039446408            3 
  794000    1.1249455   -6.0566211    369.78913  0.038810782  0.039435894            7 
  795000    1.1071239   -6.0412118    370.77777  0.038865594  0.039425216            3 
  796000     1.119739   -6.0443408    371.83668  0.038927626  0.039414285            3 
  797000    1.1036019   -6.0651202    370.67188  0.038756993  0.039403523            3 
  798000    1.1058718   -5.9931202    372.08107  0.038855584  0.039393133            5 
  799000    1.1304708   -6.0410669     372.7702  0.038878828  0.039382999           13 
  800000    1.1322145   -6.0431959    372.56946  0.038809319  0.039372414            4 
  801000    1.1253314   -6.0689612    372.97486  0.038803044  0.039362036            3 
  802000    1.1380913   -6.0397097    374.44008  0.038906908  0.039351917            7 
  803000    1.1202049   -6.0462951    375.66013   0.03898507   0.03934228            2 
  804000    1.1385606   -6.0532159    375.19155  0.038888013  0.039332431            5 
  805000    1.1219275   -6.0794315    374.65062  0.038783708  0.039322917            4 
  806000    1.1179391   -6.0665098    375.78093  0.038852453  0.039313462            3 
  807000    1.1074283   -6.0461202    376.79208  0.038908723  0.039304169            2 
  808000    1.1155065   -6.0751464    376.70586  0.038851677  0.039294694            2 
  809000    1.1055071   -6.0708237     377.4218    0.0388774  0.039285176            7 
  810000    1.1269445   -6.0442994    378.28222  0.038917924  0.039276032            4 
  811000    1.1034246   -6.0594857    377.49823  0.038789378  0.039266896            3 
  812000    1.1152914   -6.0617104     378.2324  0.038816954  0.039257572            7 
  813000    1.1158258   -6.0709073    378.51288  0.038797958  0.039248432            4 
  814000    1.1400882   -6.0479402    379.98353  0.038900853   0.03923903            5 
  815000    1.0974469   -6.0803202    379.52076  0.038805804  0.039230124            3 
  816000    1.1195125   -6.0623885    380.06072   0.03881339   0.03922109            4 
  817000    1.1151671    -6.040879    379.21759  0.038679885  0.039212606            3 
  818000    1.1350248    -6.083079     380.3898  0.038752017   0.03920327            8 
  819000    1.1151319   -6.0764396    381.13047  0.038780064  0.039194176            2 
  820000    1.1166715   -6.0952933    380.44898  0.038663514  0.039184833            5 
  821000    1.1169763   -6.0254521    381.76935  0.038750441  0.039175125            8 
  822000    1.1206047   -6.0600409    380.92758  0.038617962  0.039165467            3 
  823000     1.136198   -6.0522815    382.41757  0.038721909  0.039155466            3 
  824000    1.1032893   -6.0893094    382.04302  0.038637036    0.0391458            4 
  825000     1.103945   -6.0455231    383.28007  0.038715159  0.039135906            2 
  826000    1.1447126   -6.0604697    382.37151  0.038576626  0.039125928            4 
  827000    1.1298328   -6.0176944    382.90657  0.038583894   0.03911587            5 
  828000    1.1142265   -6.0719704    382.15545    0.0384617  0.039105884            3 
  829000    1.1027078   -6.0764441    382.41357  0.038441252  0.039095574            6 
  830000      1.12057   -6.0671408    384.88789  0.038643363  0.039085296            5 
  831000    1.1300471   -6.0671355    383.58894  0.038466601   0.03907507            5 
  832000    1.1323068   -6.0532128    384.71875  0.038533528  0.039065118            5 
  833000    1.1069193   -6.0508849    385.95826  0.038611271   0.03905518            6 
  834000    1.0984546   -6.0415538     386.9224  0.038661311  0.039045158            3 
  835000    1.1020703   -6.0691156    386.82662  0.038605451  0.039035427            5 
  836000    1.1333325    -6.049162    387.34694  0.038611139  0.039025752            3 
  837000    1.1004283   -6.0309752    387.04364   0.03853481  0.039016192            5 
  838000    1.1308465   -6.0622231     387.0438  0.038488843  0.039006874            6 
  839000    1.1095131   -6.0573106    389.18713  0.038655854   0.03899746            2 
  840000    1.1257651   -6.0327167    389.41006  0.038631951  0.038987995            7 
  841000    1.1011159   -6.0672815    389.35207  0.038580268  0.038978786            4 
  842000    1.0958129   -6.0832427    391.29001  0.038726248  0.038969832            3 
  843000    1.1220022   -6.0470032    390.63119  0.038615183  0.038960757            7 
  844000    1.1344452   -6.0827589    390.54344  0.038560767  0.038951737            4 
  845000    1.1394496   -6.0546932    390.41631  0.038502594  0.038942227            4 
  846000    1.1146415   -6.0739543    391.67042  0.038580617  0.038932924            2 
  847000    1.1381917   -6.0654682    392.77035  0.038643285  0.038923646            4 
  848000    1.0984544    -6.056212    393.26036  0.038645868   0.03891454            7 
  849000    1.1094298   -6.0635005    390.96512  0.038375061  0.038905243            3 
  850000    1.1412657   -6.0733978    392.39643  0.038470238  0.038895802            4 
  851000    1.1139258   -6.0672466    393.48523  0.038531652  0.038886523            2 
  852000    1.1198296   -6.0517624    393.60792  0.038498427  0.038877434            4 
  853000    1.1077447   -6.0203105    394.05233   0.03849671  0.038868004            3 
  854000     1.106185   -6.0713052    393.78878  0.038425915  0.038858668            7 
  855000    1.1116127    -6.100971    393.61999  0.038364521  0.038849401            4 
  856000    1.0995299   -6.0796947    394.55291  0.038410525   0.03884006            5 
  857000    1.1341052   -6.0859541    395.48538  0.038456377  0.038830803            4 
  858000    1.0863762   -6.0547488    396.69903  0.038529431  0.038821741            3 
  859000    1.1130798   -6.0952188    396.97908  0.038511746  0.038813318            5 
  860000     1.096509   -6.0954991     397.1911   0.03848751  0.038804638            4 
  861000    1.1232542   -6.0937268    396.96621  0.038421042  0.038795885            3 
  862000    1.1020067   -6.0948342     397.1776  0.038396906  0.038786904            8 
  863000    1.1421125   -6.0592133    399.80897  0.038606505  0.038777952            4 
  864000    1.1358995    -6.093219    398.44223  0.038429999  0.038769309            3 
  865000    1.1272922   -6.0432092    399.87527  0.038523629   0.03876073            3 
  866000    1.1401745   -6.0759616    398.87224  0.038382626  0.038751778            5 
  867000    1.1054391   -6.0889242    398.88606  0.038339682  0.038742894            3 
  868000    1.0944566   -6.0796828    399.80394  0.038383634    0.0387339            5 
  869000    1.1165815   -6.0975391    399.55353  0.038315452  0.038724874            4 
  870000    1.1281357    -6.070818    400.81724  0.038392456  0.038716154            4 
  871000    1.1113836   -6.0501556    400.86486  0.038352934  0.038707776            4 
  872000    1.1122387   -6.0499111    401.33429  0.038353812  0.038699237            6 
  873000    1.1488772   -6.0599425    402.69176  0.038439458  0.038690331            3 
  874000    1.1217738   -6.0539643    402.38888  0.038366598  0.038681453            5 
  875000    1.0936667   -6.0699399    403.53157  0.038431578  0.038672763            6 
  876000    1.1352079   -6.1073861    402.34518  0.038274846  0.038664019            5 
  877000    1.1106976   -6.0542936    403.35402  0.038327064  0.038655315            4 
  878000    1.1020993   -6.0935394    404.47859  0.038390147  0.038646507            5 
  879000    1.1026066    -6.080114    404.49514  0.038348042  0.038637564            6 
  880000    1.1133072    -6.050942    405.17679  0.038369014  0.038629095            7 
  881000    1.1374543   -6.1012743    406.11248  0.038413969  0.038620463            3 
  882000    1.1067127   -6.0952991    405.45224  0.038308035  0.038611578            6 
  883000    1.0932352   -6.0639266    405.22153  0.038242877  0.038602759            3 
  884000    1.1392706   -6.0589963    406.70372   0.03833934  0.038594034            5 
  885000    1.1025602   -6.0900763    406.15855  0.038244684  0.038585154            5 
  886000    1.1135522   -6.1076143    406.16242  0.038201883  0.038576159            4 
  887000    1.1240236   -6.0666682    405.78423  0.038123284  0.038566893            5 
  888000    1.0835975   -6.0785493    406.65729  0.038162283  0.038557606            8 
  889000    1.1004763   -6.0706945    408.45836  0.038288185  0.038548301            6 
  890000     1.113064   -6.0478623    407.10236  0.038118199  0.038538977            4 
  891000     1.094147   -6.0461436    407.03233  0.038068868  0.038529346            5 
  892000    1.1047542   -6.0939665    408.78772  0.038190183  0.038519731            2 
  893000    1.1303511   -6.0640071    408.60596  0.038130455  0.038509961            6 
  894000    1.0874096   -6.0926502    408.89391  0.038114645  0.038500245            5 
  895000    1.1152047   -6.0940639    407.68063   0.03795909  0.038490535            8 
  896000     1.103065   -6.0765782    410.42113  0.038171608  0.038480818            3 
  897000    1.1163964   -6.0399482    410.95574   0.03817872  0.038471387            6 
  898000    1.1241516   -6.1096177    409.46966  0.037998298  0.038461511            6 
  899000    1.1178479   -6.1055151     408.1218   0.03783109  0.038451677            5 
  900000     1.097145   -6.0528961    410.05852  0.037968381   0.03844155            4 
  901000    1.1215431   -6.0904225    409.49313  0.037873948  0.038431453            2 
  902000    1.1194126   -6.1174729    409.61754  0.037843454  0.038421274            4 
  903000    1.1290386   -6.0689872    411.07823  0.037936344   0.03841106            4 
  904000    1.0924617   -6.1012616    410.40502  0.037832321  0.038400708            4 
  905000    1.1234081   -6.0768782    411.40305  0.037882417  0.038390404           10 
  906000    1.1213229   -6.0656386    411.27876  0.037829172  0.038380267            4 
  907000    1.0916508   -6.0789815    413.22895  0.037966643  0.038370141            5 
  908000    1.1100679   -6.1003862    413.13634  0.037916331  0.038360322            6 
  909000     1.093176    -6.096346    414.12284  0.037965057  0.038350181           10 
  910000    1.0745473   -6.0600105    413.76675  0.037890728  0.038340204            3 
  911000    1.1100837   -6.1064466    414.23735  0.037892183  0.038330396            3 
  912000      1.11315   -6.0939712     414.6947  0.037892425  0.038320671            4 
  913000    1.0964865   -6.1224684    414.72764  0.037853929  0.038310703            4 
  914000    1.0930081   -6.1143649    415.50637  0.037883513  0.038301016            5 
  915000    1.1216912   -6.0613474    415.82246  0.037870898  0.038291257            5 
  916000    1.1153448   -6.0781871     417.3412  0.037967722  0.038281766            4 
  917000    1.1108613    -6.059594    416.35192  0.037836416  0.038271845            7 
  918000    1.1102246   -6.1228206    416.18284  0.037779851  0.038261985            2 
  919000     1.090222   -6.0564993    416.93077  0.037806563  0.038252062            5 
  920000    1.1025188   -6.1006514    418.04323  0.037866234   0.03824213            3 
  921000    1.1306241   -6.1001262    417.91099  0.037813155  0.038232246            5 
  922000    1.0966353   -6.1088801    416.96319  0.037686478  0.038222304            4 
  923000    1.1151874   -6.0806719    416.07688  0.037565626  0.038212298            5 
  924000    1.0979385   -6.1380354    417.63803  0.037665767  0.038202175            6 
  925000    1.0886919   -6.0872893    418.37654   0.03769158  0.038191954            4 
  926000     1.100314    -6.055565    421.55393  0.037936819  0.038182167            4 
  927000    1.1270572   -6.0911477    418.96637  0.037663284  0.038172259            3 
  928000    1.0987057   -6.0594736    421.15036  0.037818819  0.038162494            3 
  929000    1.1001668   -6.0934982    420.54337  0.037723661  0.038152476            4 
  930000    1.1005214   -6.1018676    420.46823  0.037676365  0.038142398            8 
  931000     1.107244   -6.0590423    421.96998  0.037770317  0.038132451            2 
  932000     1.101738   -6.0827487    421.80279  0.037714842  0.038122578            3 
  933000    1.1105599   -6.0738226    422.40694   0.03772838  0.038112489            4 
  934000    1.0916919   -6.0916795    421.53823  0.037610478   0.03810241            4 
  935000    1.0827224   -6.0972749    421.94221  0.037606258   0.03809209            3 
  936000    1.1114097   -6.0783761    420.68845  0.037454456   0.03808157            6 
  937000    1.0934255   -6.0919942     421.9912  0.037530345  0.038071109            3 
  938000    1.0969793    -6.115115    422.17543  0.037506701  0.038060551            3 
  939000    1.0999321   -6.1229955    423.73907  0.037605527  0.038050293            3 
  940000    1.1119188   -6.0696066    424.90556  0.037668933  0.038040511            4 
  941000    1.1085211   -6.0793818    425.54476  0.037685509  0.038030624            6 
  942000    1.1163823   -6.1047286    423.61543  0.037474825  0.038020882            3 
  943000     1.082553   -6.0741347    425.29644  0.037583637  0.038011075            3 
  944000    1.0917822   -6.0495329     425.4071  0.037553593   0.03800126            5 
  945000     1.090099   -6.0940686    425.49329  0.037521454  0.037991444            2 
  946000    1.1094154   -6.0568583    427.41613  0.037651174  0.037981607            3 
  947000    1.1131916   -6.0840848    426.93475  0.037569056  0.037971611            8 
  948000    1.0856439   -6.0780705    426.21227  0.037465917  0.037961824            2 
  949000     1.096493   -6.0958371    427.56952   0.03754562  0.037952036           16 
  950000    1.0903002   -6.1231302    428.61111  0.037597466  0.037942274            7 
  951000    1.0831576   -6.1050518    427.71198  0.037479143  0.037932759            5 
  952000    1.1062284   -6.1019904    429.37735  0.037585552  0.037923326            6 
  953000    1.0981846    -6.113187    429.25786  0.037535664  0.037913619            3 
  954000    1.1207413    -6.082806    429.26795    0.0374972  0.037904233            2 
  955000    1.0998062   -6.0987256    430.64185  0.037577823  0.037894891            6 
  956000    1.1179932   -6.0839833    429.28698  0.037420413  0.037885245            8 
  957000    1.0910017   -6.0560131    429.93132  0.037437419  0.037875512            4 
  958000    1.1100096   -6.0908292    431.69665    0.0375519  0.037865736            4 
  959000    1.1030574    -6.094637    431.44179  0.037490597  0.037856368            5 
  960000    1.0823143   -6.0878376    432.24216  0.037521021  0.037846991            5 
  961000    1.0871098   -6.0962407    433.17487  0.037562857  0.037837673            4 
  962000    1.1053839   -6.0847375     432.5944  0.037473527  0.037828346           10 
  963000    1.0911127   -6.1154232    433.19696  0.037486757  0.037818941            7 
  964000    1.0961498    -6.145798    432.09383  0.037352509  0.037809374            5 
  965000     1.107692   -6.0829059    433.14495  0.037404573  0.037799693            4 
  966000    1.0753064   -6.1099105    433.17477  0.037368424  0.037789812            4 
  967000    1.0910601   -6.1235665    434.13674   0.03741268  0.037780093            8 
  968000    1.1235429   -6.0833021    434.81898  0.037432764  0.037770428            5 
  969000    1.0736602   -6.0909447    434.63071  0.037377942  0.037760934            5 
  970000    1.1033729   -6.0698581     434.8506  0.037358299   0.03775141           10 
  971000     1.092819   -6.1089269    435.75225  0.037397207  0.037741901            8 
  972000    1.0997318   -6.0786154    436.24081  0.037400618  0.037732657            3 
  973000    1.1095999   -6.0927262    436.43166  0.037378525  0.037723324            6 
  974000    1.1235035    -6.058245    437.96169  0.037471055  0.037714338            2 
  975000    1.1156774   -6.1052112    436.70589   0.03732529  0.037705366           14 
  976000     1.074389   -6.0811562    438.43209  0.037434434  0.037696399            8 
  977000    1.1056927   -6.0969608    439.43448  0.037481617  0.037687468           14 
  978000    1.1273521   -6.1001658    439.20694  0.037423904   0.03767828            8 
  979000    1.1014009   -6.0844672    440.39258    0.0374866  0.037669401            7 
  980000    1.0838778   -6.1152328    440.25986  0.037437063  0.037660545            7 
  981000    1.0953391   -6.1201978     438.7709  0.037272417  0.037651107            7 
  982000    1.1046253   -6.1228239     439.0204  0.037255635  0.037641733           10 
  983000    1.0936479    -6.121326    440.36854  0.037332022  0.037632249            4 
  984000    1.0854437   -6.1272842    439.26769  0.037200855    0.0376225            4 
  985000     1.092095   -6.1094028    441.19189  0.037325879  0.037613124            4 
  986000     1.069335   -6.1156607    440.92056  0.037265092  0.037603725           11 
  987000    1.0926159   -6.0976723    442.40862  0.037352973  0.037594504            6 
  988000    1.1196587   -6.1143458    441.97381  0.037278493  0.037585097            3 
  989000    1.1002776   -6.1112897    440.53868  0.037119876  0.037575497            8 
  990000    1.0955797   -6.1180053    442.50169  0.037247617  0.037566059            7 
  991000    1.0664455   -6.0927056    443.76394  0.037316174  0.037556709           13 
  992000    1.0789628   -6.1100785    442.02226  0.037132246  0.037547406            4 
  993000    1.0726901   -6.0651097    444.36211  0.037291214   0.03753797            6 
  994000    1.1080085    -6.115572    443.15217  0.037152261  0.037528941            9 
  995000     1.093212   -6.1181312    443.95664  0.037182298  0.037519631            4 
  996000    1.0771735    -6.082817    444.92744  0.037226192  0.037510334            2 
  997000    1.0770992   -6.1343679    444.76044  0.037174895   0.03750096            3 
  998000    1.1003086   -6.1377235    445.60223  0.037207935  0.037491408            2 
  999000    1.0617761    -6.124371    444.41178  0.037071386  0.037481959            3 
 1000000    1.0781516   -6.0807006    446.52899  0.037210749  0.037472501            4 
 1001000    1.0786736   -6.1011456    445.65949   0.03710119  0.037463269            6 
 1002000     1.077529   -6.1026871    446.23457   0.03711199  0.037453718            6 
 1003000    1.1038342   -6.1393402     447.3779  0.037169982  0.037444255            7 
 1004000    1.1009484   -6.0972659    448.21944  0.037202809  0.037434768           13 
 1005000    1.0768882   -6.1300015     447.7097  0.037123524  0.037425458            4 
 1006000    1.1043898   -6.1363541    447.64207   0.03708102  0.037416018            4 
 1007000    1.0922266    -6.110317    449.40375  0.037189982  0.037406795            4 
 1008000    1.0650826   -6.0971021    449.42185  0.037154584  0.037397553            2 
 1009000      1.08819    -6.101227    448.46675  0.037038879  0.037388556            4 
 1010000    1.1002311   -6.1316719    448.40723  0.036997297  0.037379356            3 
 1011000    1.0994476   -6.0879176    450.75891  0.037154543  0.037370391            6 
 1012000    1.0904981   -6.1170672    449.94657  0.037050937  0.037361299            5 
 1013000    1.0841126   -6.1252918    451.20596  0.037117963  0.037352312            6 
 1014000    1.0739342   -6.1177198    450.68718  0.037038723  0.037343546            4 
 1015000    1.0945178   -6.1498386    449.13174  0.036874527  0.037334238            7 
 1016000    1.0788145   -6.1399348    451.18004  0.037006237   0.03732499            6 
 1017000    1.0876435   -6.1155076    453.03176   0.03712158  0.037315837            6 
 1018000    1.0889077   -6.0982852    451.47039  0.036957301  0.037306598            4 
 1019000    1.0953088   -6.1124728    451.51446  0.036924637  0.037297397            3 
 1020000    1.1069484   -6.1260816    452.71646  0.036986639  0.037288435            2 
 1021000    1.0688489   -6.1441613    454.08965  0.037062492  0.037279327            3 
 1022000    1.0599148   -6.1278179    453.56175  0.036983182  0.037270158            6 
 1023000    1.0945525   -6.1190287    454.41416  0.037016468   0.03726106            8 
 1024000    1.0903601   -6.0967996      455.216  0.037045573  0.037251985            4 
 1025000    1.0741827   -6.1183087    454.05355  0.036914923  0.037242618            3 
 1026000    1.0644767   -6.1057265    453.72723  0.036852439  0.037233328           17 
 1027000    1.0617075   -6.0664618    456.78589  0.037064743  0.037224266            5 
 1028000    1.0734534    -6.119709    454.93169   0.03687838  0.037215138            5 
 1029000    1.0921998   -6.1254629    455.70793  0.036905404  0.037205818            7 
 1030000    1.1043796    -6.138686    456.22631  0.036911514  0.037196651            4 
 1031000    1.0909445   -6.1041294    456.57972  0.036904278  0.037187668            8 
 1032000    1.0780195   -6.1203914    456.56989  0.036867724  0.037178506            5 
 1033000    1.0687276   -6.1569945    457.08387  0.036873497   0.03716945            8 
 1034000    1.0742936   -6.1130198    457.98455  0.036910424  0.037160423            9 
 1035000    1.1072578   -6.1213765     457.6603  0.036848656  0.037151505            3 
 1036000    1.1088038   -6.1449488    457.86896  0.036829871  0.037142702            4 
 1037000    1.0725054   -6.1038991     459.4229   0.03691923  0.037133595            9 
 1038000    1.0930077   -6.1432705    459.50793  0.036890489   0.03712448            5 
 1039000    1.0726791   -6.0826403    460.96771  0.036972065  0.037115618            7 
 1040000    1.0982636   -6.1223339    459.96817  0.036856424  0.037106641            6 
 1041000    1.1088612   -6.1331807    459.99757  0.036823372  0.037097802            9 
 1042000     1.081983   -6.1430218    460.19165  0.036803555  0.037088968            4 
 1043000    1.1045547   -6.1180086    460.17801  0.036767178  0.037079906            4 
 1044000    1.0762807   -6.0929115    461.32691  0.036823668  0.037070956            6 
 1045000    1.0968251   -6.1043465    462.42292  0.036875831  0.037061791            3 
 1046000    1.0639423    -6.097266    462.36531  0.036835987  0.037052797            2 
 1047000    1.0623679   -6.1237079    462.67955  0.036825815  0.037043535            4 
 1048000     1.102835    -6.109292    464.10032  0.036903651  0.037034255            2 
 1049000    1.0985563   -6.1243948    463.25798  0.036801556  0.037024948            4 
 1050000    1.0864871    -6.135432    463.39225  0.036777163  0.037015788            4 
 1051000    1.0704875   -6.1227594    463.43161  0.036745291  0.037006526            9 
 1052000    1.0782997    -6.099534    462.59742  0.036644283  0.036997169            6 
 1053000    1.0714723   -6.1460348    463.68791  0.036695783   0.03698783            5 
 1054000    1.0559671   -6.1271947    464.43206  0.036719802  0.036978755           11 
 1055000      1.07132   -6.1454459    464.52724  0.036692515   0.03696965            6 
 1056000    1.0910129   -6.1452862    464.14876  0.036627901  0.036960361            5 
 1057000    1.0592405   -6.0871669    465.37047  0.036689567  0.036951094            5 
 1058000    1.0965963   -6.1407816     465.2335  0.036644101  0.036941793            8 
 1059000    1.0748488   -6.1366276    466.06037  0.036674565  0.036932438            4 
 1060000    1.0959441   -6.1188822     465.8756   0.03662544  0.036922902            4 
 1061000    1.0760833   -6.1169652    465.63919  0.036572352  0.036913327            7 
 1062000    1.0927237   -6.1286368    466.04355  0.036569645  0.036903677            7 
 1063000    1.0732736   -6.1335656    466.60926  0.036579591  0.036893974            4 
 1064000    1.0717567   -6.0784182    466.05197  0.036501564  0.036884522            4 
 1065000    1.0903366   -6.1462015    466.74413   0.03652145  0.036875026            5 
 1066000    1.1147649   -6.1543066    467.10384   0.03651531  0.036865424            6 
 1067000    1.1121141   -6.1052419    466.78575  0.036456244   0.03685593            2 
 1068000    1.0678252   -6.1339224     467.9708  0.036514576  0.036846503           14 
 1069000    1.0808742   -6.1226138    467.74398  0.036462736  0.036836605            9 
 1070000    1.0671532   -6.1331413    469.40473     0.036558  0.036826865            8 
 1071000    1.0985103   -6.1704714    469.43596  0.036526296   0.03681729            3 
 1072000    1.0686339   -6.1379368    468.68467  0.036433821  0.036807724            4 
 1073000    1.0717148   -6.1252463    469.17345  0.036437826  0.036798328            5 
 1074000    1.0945981   -6.1208863    470.52485  0.036508756  0.036788885            7 
 1075000    1.0704276   -6.1154106    470.07151  0.036439652  0.036779399            4 
 1076000    1.0751886   -6.1305305    469.26179  0.036343076  0.036769499            4 
 1077000    1.0858529   -6.1048318    470.38849   0.03639651  0.036759501            3 
 1078000     1.062129   -6.1193278    470.16013  0.036345093  0.036749603            7 
 1079000     1.088177   -6.1283526    471.96239  0.036450602  0.036739804            4 
 1080000    1.0752538   -6.1234634    470.30674    0.0362891  0.036730031            6 
 1081000    1.0709129   -6.1132394    471.53904  0.036350527  0.036720122           10 
 1082000    1.0833411     -6.16719     470.9854  0.036274291  0.036710081            8 
 1083000     1.089765   -6.1091916    473.20438   0.03641154  0.036700178            3 
 1084000    1.0740209    -6.125187    471.76789   0.03626752  0.036690489            5 
 1085000    1.0804087   -6.1679632    473.69733  0.036382284  0.036680899            3 
 1086000    1.0802021   -6.1393169    473.15468  0.036307142  0.036671178            2 
 1087000    1.0864432   -6.1183399    474.84204    0.0364031  0.036661626            3 
 1088000    1.1034742   -6.1499828    474.00613  0.036305616  0.036652087            6 
 1089000    1.0993456   -6.1173012    475.29349   0.03637079  0.036642611            3 
 1090000    1.0758012    -6.127268    474.87172  0.036305178  0.036633062            4 
 1091000    1.0911262   -6.1315668    476.54421  0.036399649  0.036623559            3 
 1092000    1.0520684   -6.2010037    475.81458  0.036310636   0.03661375            6 
 1093000    1.0832285   -6.1459649    476.40044  0.036322083  0.036604034            6 
 1094000    1.1029589    -6.135979    477.13069  0.036344507  0.036594522            8 
 1095000    1.0577827   -6.1220627    478.82155  0.036439996   0.03658532            6 
 1096000    1.0880373   -6.1737054    478.30264  0.036367293  0.036576236            5 
 1097000    1.1015275    -6.130531    479.77471  0.036445967  0.036567332            3 
 1098000     1.074638   -6.1344346    479.22787  0.036371271   0.03655844            5 
 1099000    1.0455397   -6.1461411    479.05627  0.036325164  0.036549652            5 
 1100000    1.0775563   -6.1177709    480.34264  0.036389594  0.036540808            3 
 1101000    1.0815028   -6.1312783    479.12993  0.036264754   0.03653201            2 
 1102000    1.0893215    -6.174908    479.35552  0.036248905  0.036523084            4 
 1103000    1.0804967   -6.1415438    481.89385  0.036407816  0.036514064            4 
 1104000    1.0900529   -6.1478287    479.37286  0.036184546  0.036505166           17 
 1105000      1.08587   -6.1428243    481.51317  0.036313211  0.036496001            8 
 1106000    1.0720603   -6.1452179    481.64419  0.036290249  0.036486956            6 
 1107000    1.0790972   -6.1594786    481.61778  0.036255479  0.036478178           10 
 1108000    1.0779318   -6.1522592     481.4605  0.036210928  0.036469186            6 
 1109000    1.0761977   -6.1372797    482.19692  0.036233613  0.036460106            5 
 1110000    1.0753038   -6.0961603    482.62924  0.036233426  0.036451197           10 
 1111000    1.0764103   -6.1344879    483.53579  0.036268811  0.036442394            8 
 1112000    1.0603756   -6.1268951     482.8004  0.036181085  0.036433681            9 
 1113000    1.0661754   -6.1311508    483.96814  0.036236009  0.036424682            5 
 1114000    1.0534551   -6.1339534    483.08552  0.036137457  0.036415918            6 
 1115000    1.0715749   -6.1552387    483.64699   0.03614701  0.036406981            4 
 1116000    1.0644218   -6.1059621    485.68123  0.036266519  0.036397682            2 
 1117000    1.0710282   -6.1785789    483.63974  0.036081748  0.036388517            5 
 1118000    1.0691032   -6.1487204     485.6603  0.036200082   0.03637942            5 
 1119000    1.0927778   -6.1619631    486.74974  0.036248863  0.036370515            3 
 1120000    1.0823975   -6.1421864    487.32115  0.036259014  0.036361844            3 
 1121000    1.0719273   -6.1452353    487.41868  0.036233919  0.036353185            7 
 1122000    1.0528663   -6.1423102    486.69069  0.036147556  0.036344479            9 
 1123000    1.0766654   -6.1620018    485.61088  0.036035239  0.036335555            5 
 1124000    1.0610539    -6.169686    486.30758  0.036054832  0.036326679            6 
 1125000    1.0746869   -6.1338013    489.17176  0.036234945  0.036317795            5 
 1126000    1.0891447    -6.135575    488.83932  0.036178161  0.036309086            2 
 1127000    1.0590505   -6.1505058    488.47484   0.03611911  0.036300361            4 
 1128000    1.0677155   -6.1649163    488.01308  0.036052976   0.03629154            4 
 1129000     1.076217   -6.1510896    489.28266  0.036114752  0.036282739            5 
 1130000    1.0396247    -6.109075    490.06945  0.036140815  0.036273935            5 
 1131000    1.0702177   -6.1514021    490.42302  0.036134912  0.036265423            7 
 1132000    1.0678542   -6.1579889    491.14738  0.036156314  0.036256749           14 
 1133000     1.060591   -6.1951096    489.81811  0.036026634  0.036247876            6 
 1134000     1.081895   -6.1404272    491.36594  0.036108608  0.036239246            7 
 1135000    1.0788645   -6.1559224    492.44136  0.036155754  0.036230498            3 
 1136000    1.0486217   -6.1157075    491.71827  0.036070882  0.036222076            5 
 1137000     1.066085   -6.1330994    494.35036   0.03623207  0.036213623            4 
 1138000    1.0700104   -6.1681528    492.96801  0.036099005  0.036205158            4 
 1139000    1.0481507   -6.1500329    493.58274  0.036112287  0.036196861            3 
 1140000    1.0566312   -6.1422134    493.38056   0.03606583  0.036188389           15 
 1141000    1.0846174   -6.1809588    493.55297  0.036046814  0.036180015            8 
 1142000    1.0650111   -6.1347604    494.57534  0.036089853  0.036171633            3 
 1143000    1.0872276   -6.1417248    494.38606  0.036044478  0.036163244            6 
 1144000    1.0517095   -6.1383967    495.38494  0.036085733  0.036154976            6 
 1145000    1.0543159   -6.1053187    496.70926  0.036150601  0.036146736            3 
 1146000    1.0795329   -6.1551654    495.02945  0.035996906  0.036138508            4 
 1147000    1.0683159   -6.1385576    496.96272  0.036105981  0.036130353            7 
 1148000    1.0588833   -6.1299948    496.96422  0.036074638   0.03612212            4 
 1149000    1.0557874   -6.1684258    496.93687  0.036041258  0.036114292            7 
 1150000    1.0654233   -6.1295843    499.55435  0.036199591  0.036106453            4 
 1151000    1.0538768   -6.1629728    497.80124  0.036041213   0.03609872            9 
 1152000    1.0839155   -6.1358232     499.1369  0.036106546  0.036091113            5 
 1153000    1.0869948   -6.1507895    499.68621  0.036114932  0.036083163            5 
 1154000     1.063391    -6.182635    499.85974  0.036096169  0.036075297            4 
 1155000    1.0685717   -6.1338973     499.7656  0.036058124  0.036067576            7 
 1156000    1.0684464   -6.1395103    501.43562   0.03614732  0.036059889            4 
 1157000    1.0933344   -6.1399845    501.64094  0.036130866  0.036052474            9 
 1158000    1.0603324   -6.1516063    501.02701  0.036055484  0.036044893            7 
 1159000    1.0596277   -6.1536022    502.20929  0.036109382  0.036037403           13 
 1160000    1.0484627   -6.1680278    502.76658  0.036118289  0.036029847            5 
 1161000     1.068202   -6.1510142    503.16287  0.036115624  0.036022411            5 
 1162000    1.0564605   -6.1082941    503.28801  0.036093518  0.036015195            2 
 1163000    1.0413626   -6.1553255    503.73204  0.036094299  0.036007966            7 
 1164000    1.0438564   -6.1698089    503.78283  0.036066927  0.036000484            3 
 1165000    1.0445074   -6.1616452    505.54809  0.036162238  0.035993036            9 
 1166000    1.0593617   -6.1827011    504.24639  0.036038193  0.035985559            4 
 1167000    1.0510527   -6.1861492    504.86179  0.036051256  0.035978003           10 
 1168000    1.0701805   -6.1842299    505.20312  0.036044743  0.035970512            8 
 1169000    1.0450101   -6.1454226    506.92027  0.036136318  0.035962827            5 
 1170000    1.0578304   -6.1654939    505.32348  0.035991701  0.035955326            3 
 1171000     1.040353   -6.1459364    506.25004  0.036026903  0.035948031            7 
 1172000    1.0671063   -6.1755566    506.76919  0.036033077  0.035940677            5 
 1173000    1.0588377   -6.1324131    507.13513  0.036028355  0.035933088            3 
 1174000    1.0753447   -6.1700398    506.91223  0.035981845  0.035925773            3 
 1175000    1.0731859   -6.1332242    509.04756  0.036102664  0.035918399           10 
 1176000    1.0499384   -6.1237772    507.58726  0.035968485  0.035911115            4 
 1177000    1.0625749   -6.1499579    508.25737   0.03598537  0.035903855            3 
 1178000    1.0397702   -6.1734212    508.41028   0.03596564  0.035896131            4 
 1179000    1.0657691    -6.137992    509.71955  0.036027675  0.035888596            7 
 1180000    1.0904342   -6.1410522    511.13177  0.036096876   0.03588145            8 
 1181000    1.0740338   -6.1480598    507.67468  0.035822374  0.035874096            6 
 1182000    1.0683516   -6.1371091    511.02371  0.036028181  0.035866636            7 
 1183000    1.0393959   -6.1593823    510.62753  0.035969818  0.035859121            5 
 1184000    1.0433232    -6.134646    511.11987   0.03597409  0.035851592            6 
 1185000    1.0443394   -6.1648466    511.52694  0.035972359  0.035844168            3 
 1186000    1.0618682    -6.181171    510.42311  0.035864468  0.035836609            3 
 1187000      1.06884   -6.1820275    512.11365  0.035952938  0.035829334            3 
 1188000    1.0736138   -6.1432999    512.01768  0.035915943  0.035822017            7 
 1189000    1.0780114   -6.1702552    512.62682  0.035928429  0.035814725            9 
 1190000     1.061181   -6.1684968    513.54768  0.035962723  0.035807264           14 
 1191000    1.0494405   -6.1449865    513.10961  0.035901876  0.035799925            4 
 1192000     1.040616   -6.1519129    513.68837  0.035912218  0.035792524            3 
 1193000    1.0391611   -6.1723655    513.48379  0.035867825    0.0357852            8 
 1194000    1.0801383    -6.168888    514.22915  0.035889807   0.03577789            5 
 1195000    1.0824611   -6.1900822    513.23231  0.035790259  0.035770429           11 
 1196000    1.0544876   -6.1395465    515.08457  0.035889393  0.035762891            9 
 1197000    1.0603773   -6.1703012    515.35665  0.035878352  0.035755531            3 
 1198000    1.0597288   -6.1354155    515.87468  0.035884438  0.035748088            5 
 1199000    1.0697543   -6.1606003     515.9624  0.035860606  0.035740459            6 
 1200000    1.0608974   -6.1717978    515.06374  0.035768315  0.035732924            5 
 1201000    1.0663522   -6.1859602    514.68812   0.03571247   0.03572513            9 
 1202000    1.0789056    -6.175943    516.02534  0.035775467  0.035717444            6 
 1203000    1.0818857     -6.17783    516.66124  0.035789778  0.035709554            6 
 1204000    1.0650326   -6.1588596    516.33383  0.035737392  0.035701852            6 
 1205000    1.0595748   -6.1419392    518.17325  0.035834941  0.035694167            5 
 1206000    1.0640323   -6.1916227    516.64599  0.035699695  0.035686505            5 
 1207000    1.0607813   -6.1609989    518.75594  0.035815793  0.035678922            4 
 1208000    1.0808196   -6.1584647    514.77909  0.035511803  0.035671255            3 
 1209000    1.0488284   -6.1481191    518.17538  0.035716527  0.035663742            4 
 1210000    1.0704989   -6.1906408    518.08595  0.035680851  0.035656044            7 
 1211000    1.0396425   -6.1936551    518.21995  0.035660607  0.035648458            7 
 1212000    1.0489607   -6.1660175    518.81184  0.035671881  0.035640982            5 
 1213000    1.0390055   -6.1497063    520.83583  0.035781522  0.035633504            9 
 1214000    1.0802791   -6.1941786    519.60372  0.035667471  0.035625939            9 
 1215000    1.0886437   -6.1606456    520.89846  0.035726917  0.035618425            5 
 1216000    1.0691583   -6.1709989    521.29949   0.03572502  0.035611269            6 
 1217000    1.0713475   -6.1645021    522.17816  0.035755831   0.03560385            9 
 1218000    1.0664289   -6.1569372    523.50513  0.035817264   0.03559664            9 
 1219000    1.0731537   -6.1625945    522.68247  0.035731643  0.035589299            6 
 1220000    1.0536359   -6.1651988    522.57462  0.035694988   0.03558214           12 
 1221000    1.0599048   -6.1183357    524.45198  0.035793883  0.035574884            7 
 1222000    1.0584332    -6.180994    521.48038  0.035561946  0.035567451            3 
 1223000    1.0574034   -6.2064305    521.92992    0.0355635  0.035559925            8 
 1224000     1.050411   -6.1477093    523.60938  0.035648787  0.035552343            8 
 1225000    1.0620672   -6.1794079    524.83065  0.035702766  0.035545114            4 
 1226000    1.0584789   -6.1662457    525.00752  0.035685666  0.035537868            3 
 1227000    1.0290683   -6.1547094     525.6882  0.035702812  0.035530608           12 
 1228000    1.0530304   -6.1611614    525.53679  0.035663463  0.035523392            2 
 1229000    1.0495274   -6.1893327    525.72059  0.035646907  0.035516268            3 
 1230000    1.0415356   -6.1988718    525.71617  0.035617627   0.03550896            5 
 1231000    1.0586614   -6.1716526    525.19696  0.035553545  0.035501686            5 
 1232000     1.033555   -6.1668614    526.59183  0.035619036  0.035494356            6 
 1233000    1.0374376   -6.1618664    526.61217  0.035591523  0.035487208            3 
 1234000    1.0781243   -6.1190415    526.79371   0.03557494  0.035480054            5 
 1235000     1.048776   -6.1666776    527.96335  0.035625057  0.035472801            4 
 1236000    1.0614383   -6.1799766    528.17739  0.035610665  0.035465574           11 
 1237000    1.0670516   -6.1520784    529.23948  0.035653427   0.03545857            3 
 1238000    1.0592017    -6.193999    526.91726  0.035468313   0.03545146            5 
 1239000    1.0529074   -6.1687146    529.83895  0.035636195  0.035444199            3 
 1240000    1.0562064   -6.1520894    530.71569  0.035666377  0.035437028            4 
 1241000    1.0847513   -6.1776994      530.797  0.035643097  0.035430042            4 
 1242000    1.0675127   -6.1904218    530.97731  0.035626497  0.035423001            6 
 1243000    1.0696035   -6.1312435    531.24546  0.035615812  0.035415978            2 
 1244000    1.0534246   -6.1975043     530.0647  0.035508086  0.035409008            4 
 1245000    1.0556974   -6.2334074    529.53063  0.035443817  0.035401799           14 
 1246000    1.0544407   -6.1855885     531.0875  0.035519496  0.035394602           11 
 1247000    1.0411006   -6.1497307    531.93507  0.035547653   0.03538745            4 
 1248000    1.0476972    -6.168597    533.85103  0.035647104   0.03538042            4 
 1249000    1.0491911   -6.1751456    532.37155  0.035519853  0.035373353            5 
 1250000    1.0528233   -6.1716113    535.05497  0.035670332  0.035366565            3 
 1251000    1.0510166   -6.1757097    532.86463  0.035495912  0.035359671            4 
 1252000    1.0618829   -6.1761969    533.19608  0.035489622  0.035352851            5 
 1253000    1.0330052   -6.1944392    535.43949  0.035610501  0.035346107            3 
 1254000    1.0564254   -6.1510915    535.65149  0.035596191  0.035339184            5 
 1255000    1.0353554   -6.1466418    535.94326  0.035587202  0.035332337            5 
 1256000    1.0527275    -6.164325     534.9317  0.035491753  0.035325659            5 
 1257000    1.0469739   -6.1820393    535.43217  0.035496696  0.035318946            5 
 1258000    1.0484932   -6.1872102    536.12038  0.035514068  0.035312008            8 
 1259000      1.04334   -6.1918912    535.47525  0.035443159  0.035305001            4 
 1260000    1.0541482   -6.2085216    535.96421  0.035447368  0.035297948            6 
 1261000    1.0356204   -6.1566924    537.87019  0.035545215  0.035290969            8 
 1262000    1.0304516    -6.237544    535.51932  0.035361814  0.035283982            5 
 1263000    1.0525948   -6.1817047    536.55043  0.035401849  0.035276751            5 
 1264000      1.05933   -6.1703461    538.27858  0.035487776  0.035269545            6 
 1265000    1.0592546   -6.1754107    537.84744   0.03543132  0.035262451           10 
 1266000    1.0578688   -6.1605434     538.3591  0.035437013  0.035255539            6 
 1267000    1.0496812   -6.1440191     539.3759  0.035475921  0.035248543           10 
 1268000    1.0549855   -6.1884468     538.0786  0.035362684  0.035241642            5 
 1269000    1.0290291   -6.2013431    538.51094  0.035363209  0.035234546            4 
 1270000    1.0517078   -6.1659697    539.71233  0.035414195  0.035227487            8 
 1271000    1.0284263   -6.1962299    538.59031  0.035312766  0.035220489            7 
 1272000    1.0365398   -6.1954862    539.33054    0.0353335  0.035213302            9 
 1273000    1.0613436   -6.1672638    539.74292  0.035332739  0.035206363            6 
 1274000     1.077645   -6.1785723    540.64818  0.035364219  0.035199314            5 
 1275000    1.0323128   -6.1679051    541.63838  0.035401201  0.035192172            7 
 1276000    1.0452798   -6.1888704    541.01353  0.035332649  0.035184853            4 
 1277000    1.0363619   -6.1632071    540.52587  0.035273158  0.035177692            4 
 1278000    1.0370843   -6.1727698    542.19328  0.035354283  0.035170566            3 
 1279000     1.058022   -6.1744998    541.40382  0.035275203  0.035163416            9 
 1280000    1.0655755   -6.2084208    540.62658  0.035197043  0.035156116            3 
 1281000    1.0358705    -6.180429     542.5251  0.035293072  0.035148615            3 
 1282000    1.0140975   -6.1911509    542.80664  0.035283843   0.03514116           16 
 1283000    1.0528714   -6.2032736    541.36618  0.035162781   0.03513366            8 
 1284000    1.0478539   -6.1583193    544.19241  0.035318822  0.035126347            5 
 1285000    1.0311251   -6.1818249    542.33059  0.035170596  0.035119099           10 
 1286000    1.0594014   -6.2072708    543.70992  0.035232628  0.035111644            5 
 1287000    1.0330858   -6.2363255    543.27789  0.035177278  0.035104064            4 
 1288000    1.0436379   -6.1371341    543.44926  0.035161054  0.035096405            4 
 1289000    1.0443548   -6.2028258    543.18226  0.035116515  0.035088815           15 
 1290000    1.0625232   -6.2099079    543.11921   0.03508522  0.035081101            7 
 1291000    1.0277472   -6.1850107    544.31376  0.035135151  0.035073414            4 
 1292000    1.0512325   -6.1957209    543.29195  0.035042051   0.03506576            5 
 1293000    1.0532972   -6.1740926    544.60487  0.035099566  0.035058215            7 
 1294000    1.0543838   -6.2226135    544.79015  0.035084374  0.035050763            6 
 1295000    1.0583826   -6.1975495    546.71529  0.035181164   0.03504319            6 
 1296000    1.0645671   -6.1921263    545.51707  0.035076972  0.035035662            2 
 1297000    1.0326457   -6.2065002    544.86954  0.035008323   0.03502806            6 
 1298000    1.0583301   -6.2115121    546.87869  0.035110342  0.035020594            5 
 1299000    1.0427008   -6.1905874    547.45333  0.035120178  0.035013107            5 
 1300000    1.0384882   -6.1830541    545.82272  0.034988636  0.035005671           10 
 1301000    1.0448655   -6.1916618    547.20173  0.035050072  0.034998154            6 
 1302000    1.0577996   -6.2018854    548.27389  0.035091775  0.034990662            7 
 1303000    1.0632469   -6.1538082    550.31425  0.035195335   0.03498323            6 
 1304000    1.0352371   -6.1481609    550.29281  0.035166974  0.034976121            6 
 1305000    1.0308315    -6.221326    549.62749  0.035097541  0.034968719            7 
 1306000    1.0328582   -6.2100359    549.40693  0.035056593  0.034961312            9 
 1307000    1.0331764   -6.1938526    548.95857  0.035001184  0.034953971            5 
 1308000    1.0451037    -6.224854    550.36695  0.035064153  0.034946708            4 
 1309000    1.0143242   -6.1759267    550.92248  0.035072732  0.034939218            3 
 1310000    1.0427951   -6.2092273    549.33454  0.034944945  0.034931682           11 
 1311000    1.0542423   -6.1677718    551.31463  0.035044154  0.034924215            5 
 1312000    1.0470011   -6.1639379    550.51684  0.034966771  0.034916766            8 
 1313000    1.0276991   -6.1862704    552.67259   0.03507696   0.03490934            5 
 1314000    1.0479978   -6.2131658    552.76661  0.035056228  0.034902034            4 
 1315000    1.0468978   -6.2210453    551.10522  0.034924285   0.03489485            6 
 1316000    1.0243809   -6.2317685    552.31306  0.034974232  0.034887555            7 
 1317000     1.039647   -6.1883942    552.92993  0.034986708  0.034880236            8 
 1318000    1.0301966   -6.1699222    554.09818  0.035034028  0.034873037            6 
 1319000    1.0255619   -6.2182257     551.5702  0.034847751  0.034865833            5 
 1320000    1.0150373   -6.1823279    554.75126  0.035022176  0.034858561            8 
 1321000    1.0395956   -6.1755885    553.52364  0.034918221  0.034851405            6 
 1322000    1.0247389   -6.2126517    553.65452  0.034900058  0.034843995           17 
 1323000    1.0404773   -6.1766024    554.11639  0.034902771  0.034836702            8 
 1324000    1.0483682   -6.2129076    554.64516   0.03490969  0.034829529            5 
 1325000    1.0288175   -6.1893604    554.88416  0.034898375  0.034822203            4 
 1326000    1.0556719   -6.1905703    555.34113  0.034900775  0.034814757            6 
 1327000    1.0396657   -6.1809267    554.96351   0.03485076  0.034807301            6 
 1328000    1.0412629   -6.2147198    555.20306  0.034839549  0.034800051            5 
 1329000    1.0344758   -6.1903357    555.49878  0.034831878  0.034792629            6 
 1330000    1.0248844   -6.1956528    556.92088  0.034894792  0.034785084            5 
 1331000    1.0314749   -6.1677636    557.38635  0.034897718  0.034777601           10 
 1332000    1.0193496   -6.1729195    557.43292  0.034874432  0.034770217            3 
 1333000    1.0269512   -6.1951691    556.60163  0.034796301  0.034762694            4 
 1334000    1.0698261   -6.2050966    556.72525  0.034777939  0.034755283            3 
 1335000    1.0580438   -6.1754159    556.47538  0.034736291  0.034747815            3 
 1336000    1.0379754   -6.1937959    558.23339  0.034819947  0.034740088            3 
 1337000    1.0483348   -6.1901601    558.40386  0.034804529  0.034732497            5 
 1338000    1.0439324   -6.1904198    558.49721   0.03478433  0.034725092           10 
 1339000    1.0417244    -6.186927    558.70398  0.034771221  0.034717702            7 
 1340000    1.0508361   -6.2197106    559.40817  0.034789066  0.034710185            7 
 1341000    1.0269252    -6.196891    559.98671  0.034799074  0.034702862            6 
 1342000    1.0250524   -6.2293111    561.17981  0.034847231  0.034695582            4 
 1343000    1.0376059   -6.1972391    560.58186  0.034784181  0.034688091            5 
 1344000    1.0435152   -6.2223918    561.79645  0.034833609  0.034680484            9 
 1345000    1.0651368   -6.2045144    559.36927  0.034657328  0.034672911           10 
 1346000    1.0565781   -6.2248747     560.5336  0.034703665  0.034665477           12 
 1347000    1.0375344   -6.1844705    561.85345  0.034759555  0.034658055            5 
 1348000    1.0368135     -6.17335    561.74769  0.034727231  0.034650595            4 
 1349000    1.0231164   -6.2110692    560.95035  0.034652233  0.034643125            5 
 1350000    1.0166492   -6.2002728    561.57748  0.034665276  0.034635637            4 
 1351000    1.0333874   -6.2197665    562.04137  0.034668232  0.034628252            4 
 1352000     1.066843      -6.2038    562.47831  0.034669521  0.034620784            3 
 1353000    1.0289806   -6.1646473    565.02699  0.034800874  0.034613567            6 
 1354000    1.0630043   -6.2148614    563.62351  0.034688793  0.034606334            4 
 1355000    1.0197531   -6.2020949    565.30152  0.034766391  0.034599077            5 
 1356000    1.0536266   -6.1817801    565.60575  0.034759448   0.03459177            7 
 1357000     1.031036   -6.1586692    564.81897  0.034685518  0.034584428            2 
 1358000    1.0420289   -6.2323067    564.90144  0.034665037  0.034576955            7 
 1359000    1.0220859   -6.2243083    566.32317  0.034726709  0.034569353            7 
 1360000    1.0139964   -6.2305401    564.57293  0.034593929  0.034561764            4 
 1361000    1.0384443   -6.2439697    563.59439  0.034508596  0.034554113            8 
 1362000     1.003409   -6.2116937    565.97907  0.034629165   0.03454659            7 
 1363000    1.0154143   -6.1878846    567.36154  0.034688282  0.034539238            5 
 1364000    1.0298621   -6.2287003    565.79395  0.034567079   0.03453187            4 
 1365000    1.0277609   -6.2255096    566.77006  0.034601347  0.034524253            6 
 1366000    1.0491903   -6.2269665    567.10753  0.034596604  0.034516592            5 
 1367000    1.0581342   -6.2167721    566.64982  0.034543393  0.034508871            4 
 1368000    1.0445913   -6.1871554    566.55792  0.034512544  0.034501183            6 
 1369000    1.0283026   -6.1997816    567.51084  0.034545339  0.034493437           10 
 1370000    1.0490524    -6.238923    567.48862  0.034518772   0.03448556            5 
 1371000    1.0330601   -6.2272384    565.68451  0.034383936  0.034477599            6 
 1372000    1.0398093   -6.2259847    566.03291  0.034380036  0.034469581            6 
 1373000    1.0277978   -6.2363099    565.32682   0.03431214  0.034461278           10 
 1374000    1.0154856   -6.1909529    567.95464  0.034446546  0.034453259            5 
 1375000     1.026373    -6.197956    566.08639  0.034308266  0.034445251            5 
 1376000    1.0138645   -6.2372317    566.69767  0.034320353   0.03443714            8 
 1377000    1.0533758   -6.2396763    567.18084   0.03432467  0.034429167            5 
 1378000    1.0298091   -6.2052602    569.98052  0.034469069  0.034421402            9 
 1379000    1.0429025    -6.200995    571.31099  0.034524474  0.034413717            7 
 1380000    1.0321744   -6.1955007    569.18713  0.034371204   0.03440609            6 
 1381000    1.0328383   -6.2108441    569.85349  0.034386525  0.034398332            4 
 1382000    1.0226913   -6.2231446     571.7873   0.03447825  0.034390561            3 
 1383000    1.0274884   -6.1914264     571.5333  0.034438015  0.034382996            4 
 1384000    1.0347217   -6.2176929    571.91877  0.034436342  0.034375334            5 
 1385000     1.032948   -6.2170557    571.12428  0.034363675   0.03436775           12 
 1386000    1.0301815   -6.2029444     572.4753  0.034420112  0.034360242            5 
 1387000    1.0275586   -6.1725938    574.19315  0.034498507   0.03435298            7 
 1388000    1.0189179   -6.2062932    574.04306  0.034464641  0.034345724            8 
 1389000    1.0302149    -6.180763    572.33905  0.034337596  0.034338318            8 
 1390000    1.0354154   -6.2010509     573.7332  0.034396475  0.034330868            7 
 1391000    1.0536951   -6.2303126    573.45738  0.034355223   0.03432338            7 
 1392000    1.0329275   -6.2080879    575.13076  0.034430721  0.034315733            6 
 1393000    1.0360169   -6.2045624    575.36334  0.034419917  0.034308196            4 
 1394000     1.022289   -6.2290854    573.89208  0.034307274  0.034300554            5 
 1395000    1.0074733    -6.204268    576.78714  0.034455623   0.03429311            5 
 1396000    1.0383101    -6.239515    574.31235  0.034283211  0.034285525            6 
 1397000   0.99653519   -6.2164898     576.4486  0.034386101  0.034278131            7 
 1398000    1.0299092   -6.2620656    576.12607  0.034342279  0.034270572            6 
 1399000    1.0411998   -6.2612807    575.38566  0.034273628  0.034263014            3 
 1400000    1.0267596   -6.1880048    578.77558  0.034450927  0.034255536            4 
 1401000    1.0677671   -6.2177906    576.26543   0.03427703  0.034248058            8 
 1402000    1.0161628   -6.2456664    576.60659   0.03427286  0.034240539            5 
 1403000    1.0129127   -6.2096321    578.20421  0.034343324  0.034233061            3 
 1404000    1.0213321   -6.2164467    579.09933  0.034371992  0.034225681            4 
 1405000    1.0262096   -6.1864656     578.2726  0.034298493  0.034218111            5 
 1406000    1.0504625   -6.2468908     577.0047  0.034198951  0.034210497            8 
 1407000    1.0215713   -6.2203121    577.60763  0.034210355  0.034202924           17 
 1408000    1.0249126   -6.2318484    578.37957  0.034231745   0.03419523           17 
 1409000      1.02978   -6.2440479    578.33157  0.034204612  0.034187498           10 
 1410000    1.0416976   -6.2160066    578.32242  0.034179812  0.034180038            4 
 1411000    1.0527705   -6.2426711     579.9469   0.03425153  0.034172652            8 
 1412000    1.0343945   -6.2316744    580.04129  0.034232843  0.034165189            4 
 1413000     1.021648   -6.2400278    579.93257  0.034202204  0.034157577            7 
 1414000    1.0059322   -6.2101831    582.04734  0.034302649  0.034150227            6 
 1415000    1.0118516   -6.2250833    582.12471  0.034282963  0.034142789            3 
 1416000    1.0086182   -6.2156827    579.94446  0.034130442  0.034135369            3 
 1417000     1.021096   -6.2323194    582.51096   0.03425729  0.034128076            4 
 1418000    1.0236436    -6.225813    581.58683  0.034178822  0.034120716            4 
 1419000    1.0079997    -6.263997      581.983  0.034178001  0.034113423            6 
 1420000    1.0089347   -6.2435243    582.91795    0.0342088  0.034105905            7 
 1421000    1.0547947   -6.2038655    583.20002  0.034201268  0.034098531            8 
 1422000    1.0141392   -6.2197062    583.19212  0.034176754  0.034091152           11 
 1423000    1.0086001   -6.2398476      582.202  0.034094753   0.03408392            4 
 1424000    1.0198512   -6.2288883    584.20999  0.034188318  0.034076558            4 
 1425000    1.0142288   -6.2528854    584.45597  0.034178712  0.034069298            6 
 1426000    1.0174328   -6.2323953    585.78387  0.034232344  0.034061965            4 
 1427000   0.97193183   -6.2670623    582.63106  0.034024238  0.034054542            9 
 1428000    1.0337739   -6.2579673    584.25395  0.034095118  0.034046924            9 
 1429000    1.0493695   -6.2388044    584.76669   0.03410116  0.034039304            5 
 1430000    1.0338623   -6.2232771    587.36969  0.034229003  0.034031982            4 
 1431000    1.0220462   -6.2302497    586.15422  0.034134301  0.034024607            6 
 1432000    1.0146809   -6.2523908    586.52214  0.034131875  0.034017175            8 
 1433000    1.0386826   -6.2174236     587.0137  0.034136642   0.03400989            7 
 1434000    1.0125493   -6.2448164     586.4298  0.034078905  0.034002643            6 
 1435000     1.036151   -6.2063642    587.45296  0.034114574    0.0339955            4 
 1436000    1.0082699   -6.2242601    589.41316   0.03420457  0.033988451            8 
 1437000    1.0068166   -6.2129942    588.73339  0.034141347   0.03398135            4 
 1438000   0.98738529   -6.2089065    589.72281  0.034174943  0.033974273            4 
 1439000    1.0303166   -6.2220277    590.40157  0.034190501  0.033967082            4 
 1440000    1.0386481   -6.2492641     589.1588  0.034094838  0.033959893            7 
 1441000    1.0278719   -6.2106809    589.33625   0.03408144  0.033952635            4 
 1442000    1.0107876   -6.2327295    590.10105  0.034102002  0.033945486            6 
 1443000    1.0013269   -6.2206649    590.86196  0.034122313  0.033938304           12 
 1444000    1.0215557   -6.2575378    589.67423  0.034030138  0.033931026            3 
 1445000    1.0235558   -6.1953421     591.4267  0.034107653  0.033923973            4 
 1446000     1.009747   -6.2402341    590.35368  0.034022227  0.033916813            3 
 1447000    1.0256137   -6.2083736    592.26826  0.034108976  0.033909546            3 
 1448000    1.0313971   -6.2451526    591.15344  0.034021261  0.033902306            6 
 1449000    1.0347747   -6.2544957    592.04859  0.034049263  0.033895022            4 
 1450000    1.0218008   -6.2472644    592.25403  0.034037588  0.033887731            6 
 1451000    1.0097368   -6.2320826    593.40932   0.03408048  0.033880729            7 
 1452000    1.0173366   -6.2321095    592.30015  0.033993351  0.033873504           10 
 1453000    1.0317295   -6.2184712    592.93035  0.034006099  0.033866352            4 
 1454000    1.0299628   -6.2329361    592.39928  0.033952274  0.033859084            5 
 1455000    1.0172302   -6.2223823    591.31512  0.033866845  0.033851685            5 
 1456000    1.0112109   -6.2045872    594.21444  0.034009526  0.033844454            8 
 1457000    1.0226628   -6.1868148     594.4868  0.034001761  0.033837399            8 
 1458000    1.0097097   -6.2454795    594.17102  0.033960392  0.033830417            5 
 1459000    1.0133953   -6.2641813    593.67362  0.033908706  0.033823248           11 
 1460000    1.0180372   -6.2085823    595.88971   0.03401197  0.033816213            8 
 1461000    1.0078092   -6.2519964    596.40075  0.034017839  0.033809173            8 
 1462000    1.0172777   -6.2417692    595.97014  0.033970026  0.033802049            5 
 1463000    1.0022373   -6.2614238    596.37067  0.033969621  0.033795072            6 
 1464000   0.99497573   -6.2332494    597.50518  0.034010996  0.033788032            4 
 1465000    1.0136692   -6.2256751    597.10155  0.033964821   0.03378102            5 
 1466000    1.0131974   -6.2574221    596.20004  0.033890407  0.033774022            9 
 1467000    1.0123148   -6.2265417     597.6727   0.03395096  0.033767065            3 
 1468000    1.0274429   -6.2443327    599.07784  0.034007598  0.033760235           20 
 1469000      1.03721   -6.2489182    597.94195  0.033920011   0.03375326           21 
 1470000    1.0153138    -6.268956    598.17801  0.033910318  0.033746316            7 
 1471000    1.0277238   -6.2580568    599.36949  0.033954764  0.033739314            7 
 1472000    1.0054743   -6.2686465    598.12654   0.03386133  0.033732252            8 
 1473000    1.0275804   -6.2091567    602.89433  0.034108074  0.033725316            7 
 1474000    1.0015759   -6.2379476    601.85218  0.034026016  0.033718466            5 
 1475000    1.0038719    -6.253109    598.86759  0.033834327  0.033711528            6 
 1476000     1.005281   -6.2506169    599.47723  0.033845824  0.033704692            8 
 1477000    1.0288129   -6.2652792    597.53551  0.033713355  0.033697554            9 
 1478000   0.99792965   -6.2348216    600.25918  0.033844112  0.033690468            6 
 1479000    1.0215897   -6.2380557    601.18528   0.03387341  0.033683467           13 
 1480000    1.0286277   -6.2139916    599.72454  0.033768274  0.033676411            3 
 1481000   0.99220448   -6.2519299    598.93271  0.033700917  0.033669231            3 
 1482000    1.0182815   -6.2661789    601.76171  0.033837253   0.03366194           13 
 1483000    1.0090707   -6.2437087    602.41482  0.033851136  0.033654775           15 
 1484000    1.0281922   -6.2632385     600.8763  0.033741931  0.033647655            4 
 1485000      1.01977   -6.2257177    601.98437   0.03378139   0.03364048           11 
 1486000    1.0221819   -6.2276603     602.9404   0.03381227  0.033633268            5 
 1487000     1.018975   -6.2479602     603.9187  0.033844357   0.03362592            5 
 1488000    1.0366296   -6.2437112    602.67974  0.033752225  0.033618665            6 
 1489000    1.0085177   -6.2395305     602.9367  0.033743939  0.033611395            5 
 1490000    1.0214498   -6.2494781    603.41501  0.033748043  0.033604117            6 
 1491000    1.0160311    -6.291337    603.41362  0.033725331  0.033596828            7 
 1492000    1.0023259    -6.268009    602.26155   0.03363838  0.033589602            7 
 1493000   0.99348028   -6.2511119    604.83915   0.03375972   0.03358247            4 
 1494000    1.0136264   -6.2388398    604.72178  0.033730577  0.033575408            3 
 1495000    1.0251525   -6.2492077    603.30534   0.03362906   0.03356831            4 
 1496000    1.0240137   -6.2379204    604.41264  0.033668262  0.033561153            8 
 1497000     0.986346      -6.2626    606.16527  0.033743335  0.033554016            5 
 1498000    1.0007958   -6.2470064    606.08667  0.033716437  0.033546798            9 
 1499000       1.0323   -6.2596178    605.39493  0.033655489  0.033539614            8 
 1500000    1.0083651   -6.2624834    606.25947  0.033681081  0.033532445            6 
 1501000     1.032513   -6.2779461    607.09553  0.033705059  0.033525446            5 
 1502000    1.0034494   -6.2486098    608.40734    0.0337554  0.033518512            3 
 1503000    1.0029439   -6.2552768    608.15948  0.033719199  0.033511585            6 
 1504000    1.0242767    -6.273279    608.68179   0.03372572  0.033504652            7 
 1505000    1.0052381   -6.2597127     608.3502   0.03368495  0.033497756            8 
 1506000    1.0051396   -6.2352829    610.10648  0.033759766   0.03349079            7 
 1507000   0.99701849   -6.2519292    610.03442  0.033733379  0.033483781            6 
 1508000    1.0220617   -6.2896861    607.30983  0.033560446  0.033476765            7 
 1509000     1.031289   -6.2617389    610.23361  0.033699669  0.033469726           11 
 1510000    0.9932715   -6.2556475    608.36177  0.033574049  0.033462643            8 
 1511000    1.0163593   -6.2734308    609.13848  0.033594666   0.03345564            5 
 1512000    0.9837736   -6.2928029    609.48617   0.03359161  0.033448563            5 
 1513000     1.019223   -6.2565005    610.34898   0.03361693  0.033441286            4 
 1514000    1.0013317   -6.2264865    611.29914  0.033647025  0.033434179            8 
 1515000    1.0304452   -6.2265153    611.32221  0.033626084  0.033427041            6 
 1516000    1.0124783   -6.2454629    609.59149  0.033508767  0.033420122            7 
 1517000    1.0059235   -6.2642275    611.92362  0.033614789  0.033413099            8 
 1518000    1.0071573   -6.2638585    612.50804  0.033624727  0.033406014            5 
 1519000    1.0098101   -6.2377559    611.45152   0.03354463  0.033399034            7 
 1520000    1.0147408   -6.2662916    613.94342  0.033659179   0.03339193           15 
 1521000    1.0145482   -6.2503609    611.45087  0.033500486  0.033384801            3 
 1522000    1.0164458   -6.2662054       614.36  0.033637757  0.033377645            7 
 1523000   0.99204913   -6.2298924    613.07064  0.033545122  0.033370655           11 
 1524000   0.99074803   -6.2379961     613.6912  0.033557043  0.033363647            8 
 1525000    1.0173023   -6.2701851    611.48982  0.033414744  0.033356455            5 
 1526000    1.0159538   -6.2628321    613.50337  0.033502805  0.033349168            6 
 1527000    1.0128589   -6.2732533      612.011  0.033399421  0.033341924            7 
 1528000     1.015831   -6.2441662     613.4544  0.033456282  0.033334644            5 
 1529000   0.97177185   -6.2402247    612.98962   0.03340907   0.03332747            5 
 1530000    1.0019017   -6.2521771    615.57966  0.033528304   0.03332029            9 
 1531000    1.0037232   -6.2552521    612.02529  0.033312938   0.03331295            8 
 1532000   0.97618418   -6.2904154    613.96692  0.033396808  0.033305612            3 
 1533000    1.0155587   -6.2526208    613.31661  0.033339672  0.033298262            8 
 1534000     1.011257   -6.2627637    614.96883  0.033407694  0.033290943            4 
 1535000   0.99482006   -6.2427363    614.18671   0.03334347  0.033283568            8 
 1536000   0.99290352   -6.2676828    615.22093  0.033377872  0.033276088            7 
 1537000   0.99219415   -6.2584802    613.70631  0.033274035  0.033268648            8 
 1538000    1.0108758   -6.3015322    615.15574  0.033330935  0.033261355           10 
 1539000    1.0320129   -6.2870746    616.15124  0.033363182  0.033254109            6 
 1540000   0.99674024   -6.2702993    616.01843  0.033334331  0.033246794            3 
 1541000     1.015532   -6.2585404    614.64989  0.033238692  0.033239505            8 
 1542000   0.98557339   -6.2622849    618.62691  0.033432064  0.033232187            6 
 1543000    1.0195492   -6.2343694    617.12225  0.033329135  0.033224777            8 
 1544000    1.0110426   -6.2384426    618.27377  0.033369698  0.033217461           18 
 1545000    1.0209802   -6.2502971    618.91459  0.033382664  0.033210203            6 
 1546000    1.0023579   -6.2965922    617.37931  0.033278316  0.033202876            7 
 1547000    1.0210634   -6.2736342    618.27876  0.033305255    0.0331955           14 
 1548000    1.0008855   -6.2570737    618.53112  0.033297326  0.033188125           11 
 1549000    1.0079006   -6.2797682    617.21816  0.033205195  0.033180676            9 
 1550000    1.0204612   -6.2536459    617.50001  0.033198925  0.033173246            7 
 1551000    1.0188153   -6.2548417    620.09782  0.033317097  0.033165861            6 
 1552000    1.0015716   -6.2775027    617.22647  0.033141455  0.033158339            6 
 1553000    1.0286944   -6.2795994    618.45462  0.033186017  0.033150765            4 
 1554000   0.98422498   -6.2632279    619.51493  0.033221521  0.033143298            4 
 1555000    1.0085471   -6.2475701    618.59261   0.03315073   0.03313578            9 
 1556000   0.98740406    -6.296069    619.83235   0.03319582   0.03312838            5 
 1557000    1.0099288   -6.2612672    619.92333  0.033179369   0.03312108            4 
 1558000    0.9725077   -6.2906907    620.70938  0.033200117  0.033113711            7 
 1559000    1.0075232    -6.292441    621.50029  0.033221098  0.033106283            6 
 1560000   0.98983317    -6.256139    619.52987  0.033094544  0.033098889            5 
 1561000   0.99829065   -6.2753861    622.62713  0.033238689  0.033091486           10 
 1562000   0.96375372   -6.2748178     621.4323  0.033153665  0.033084209            6 
 1563000    1.0024389   -6.2518985    623.41631  0.033238234  0.033076878            6 
 1564000    0.9962609   -6.2804471    622.99735  0.033194658  0.033069571            5 
 1565000    1.0055939    -6.278003    622.53115  0.033148624  0.033062189           10 
 1566000    1.0271264   -6.2917482    624.42432  0.033228199  0.033055006            7 
 1567000    1.0116292   -6.2394087    624.85944  0.033230134  0.033047881            5 
 1568000    1.0112729   -6.3023278    624.44334  0.033186827  0.033040782            4 
 1569000    1.0298337   -6.2925604    625.20427   0.03320609  0.033033699           11 
 1570000   0.99373427   -6.2688011    626.01071  0.033227745   0.03302655            8 
 1571000   0.99950578   -6.2565959    623.83271  0.033091063  0.033019363            6 
 1572000   0.98641658    -6.238284     626.1706  0.033193946  0.033012222            4 
 1573000    1.0134969   -6.2683177    626.33089  0.033181335   0.03300519            4 
 1574000   0.99303335   -6.2602557    626.25438  0.033156204  0.032998095            4 
 1575000   0.99779275   -6.2726005    624.65469  0.033050512  0.032990854            5 
 1576000    1.0052824   -6.2869449    627.49815  0.033179894  0.032983581            7 
 1577000   0.99215552   -6.2753725    627.13614  0.033139724  0.032976345            5 
 1578000   0.99028666   -6.2684106    627.40126  0.033132724  0.032969045            8 
 1579000    0.9952963   -6.2750028    627.32876  0.033107914  0.032961785            4 
 1580000   0.98265146    -6.283189    626.57549   0.03304723   0.03295454           12 
 1581000   0.96925815   -6.3072047    625.88079  0.032989711  0.032947136           10 
 1582000   0.99528691    -6.250335    628.44189  0.033103766  0.032939828            9 
 1583000   0.99129369   -6.2820446    624.70271  0.032886013  0.032932505            4 
 1584000   0.98899264   -6.2771285    628.44319  0.033062036  0.032925219            9 
 1585000   0.99556647   -6.2840999    627.48367  0.032990729  0.032917894            3 
 1586000   0.99815964   -6.2760274    628.40811  0.033018501  0.032910667            6 
 1587000    1.0093062   -6.2580982    628.33498  0.032993855  0.032903435            7 
 1588000   0.99256943   -6.2548246     628.7544  0.032995088  0.032896249            5 
 1589000   0.97648133   -6.2767159    631.12444  0.033098618  0.032889013            5 
 1590000   0.98647763   -6.2445473    629.21656  0.032977807  0.032881849            4 
 1591000    1.0184736   -6.2950341    630.49681  0.033024136  0.032874587            5 
 1592000   0.99426113   -6.2575161     628.6431   0.03290636  0.032867243            5 
 1593000   0.98679972   -6.2815692    630.44901  0.032980174  0.032859764            8 
 1594000   0.98503141   -6.2741648     629.1491  0.032891525  0.032852355            5 
 1595000   0.99032838   -6.2800054    631.66496  0.033002349   0.03284492            3 
 1596000     1.006137   -6.2934689    630.08495  0.032899172  0.032837493            6 
 1597000   0.97460076   -6.3099442    629.51181  0.032848665  0.032830058            4 
 1598000    1.0085516   -6.2817088    628.57964  0.032779497  0.032822524            7 
 1599000   0.98678899   -6.3221478    629.12347   0.03278734  0.032814952            6 
 1600000     1.000497   -6.2645665    631.88504  0.032910679  0.032807421            9 
 1601000   0.98092721   -6.2679758    632.01414  0.032896843  0.032800137            3 
 1602000   0.99730322   -6.2717502    629.67315  0.032754533  0.032792789           10 
 1603000    1.0127019   -6.2731256    632.98128  0.032906076  0.032785422            5 
 1604000    1.0087591   -6.3078735    630.21148   0.03274166   0.03277807            5 
 1605000    1.0081278   -6.2958853    632.21453  0.032825261  0.032770714            4 
 1606000   0.97910241   -6.2927597    630.73301  0.032727948  0.032763164            9 
 1607000    0.9913561    -6.282257    632.55097  0.032801855  0.032755678            7 
 1608000   0.97707731   -6.3107085    634.22871  0.032868403  0.032748306            4 
 1609000   0.99083134   -6.2844869    634.45354   0.03285962   0.03274085            5 
 1610000   0.99395049   -6.2555326    635.35205  0.032885717  0.032733619            9 
 1611000    1.0048582   -6.2829132    633.40754  0.032764719  0.032726271            6 
 1612000    1.0063883    -6.268334    633.74833  0.032762011   0.03271891            7 
 1613000   0.99193589   -6.2455754    634.57733  0.032784528  0.032711549            8 
 1614000     1.012049   -6.2802966    631.85709  0.032623766  0.032704057            6 
 1615000   0.99477767   -6.3065566    634.43053  0.032736354  0.032696562            5 
 1616000    1.0056932    -6.269026    634.39642  0.032714337  0.032689126            8 
 1617000    1.0035323   -6.2787489    635.75224  0.032763979  0.032681658           14 
 1618000   0.99153729    -6.316734    635.65349  0.032738643  0.032674192            8 
 1619000   0.99028563   -6.2900105    636.10385  0.032741602  0.032666701            5 
 1620000   0.99231988   -6.3151912    636.36365  0.032734756  0.032659227           11 
 1621000    0.9849911   -6.2465334    636.79242  0.032736604  0.032651838            5 
 1622000   0.99908791   -6.2897832    637.76395  0.032766335  0.032644558            5 
 1623000   0.98722566   -6.2934022    636.59147  0.032685945  0.032637164            7 
 1624000   0.99961351   -6.2680268    638.38752   0.03275798  0.032629937            5 
 1625000   0.97800099    -6.265633    640.30411  0.032836108    0.0326227            4 
 1626000   0.98134651   -6.2879875    637.69205  0.032682044  0.032615389           10 
 1627000   0.98904883    -6.301499    638.23209  0.032689618  0.032608035            6 
 1628000   0.98586805   -6.2996522    640.12373  0.032766366  0.032600761            6 
 1629000   0.97449973   -6.2807366    640.38249  0.032759489  0.032593503            8 
 1630000    0.9955624   -6.2572767    639.56734  0.032697717  0.032586183            5 
 1631000   0.97175628   -6.2960204    638.84625  0.032640826  0.032578891           20 
 1632000    1.0009834    -6.270496     640.5103  0.032705795  0.032571643            9 
 1633000   0.98811563   -6.2683832    640.40242  0.032680263  0.032564339            7 
 1634000   0.96388262   -6.2576415    638.64768  0.032570771  0.032557028            9 
 1635000   0.99762995   -6.2715369    640.50441  0.032645485  0.032549613            5 
 1636000   0.99353161   -6.2750846    639.95468  0.032597528  0.032542173            7 
 1637000   0.98062469   -6.2854872    639.92747  0.032576231  0.032534791           10 
 1638000   0.97990435   -6.2971389    640.37544  0.032579133  0.032527335            5 
 1639000   0.98495401   -6.2867964    642.40443  0.032662418  0.032519979           10 
 1640000    0.9891344   -6.2849598    640.73868   0.03255786  0.032512685            8 
 1641000   0.98903399   -6.2922194    641.29388  0.032566213  0.032505398            6 
 1642000    1.0077526    -6.316685     642.3611  0.032600543  0.032498047            5 
 1643000   0.95822234   -6.2805921    643.30028  0.032628336  0.032490735            7 
 1644000   0.99595692   -6.2974765    642.69803  0.032577962  0.032483374            4 
 1645000   0.98154429   -6.2851462    641.02927  0.032473621   0.03247587            6 
 1646000    1.0091185   -6.2994174    642.69784  0.032538368  0.032468396            7 
 1647000   0.98886239   -6.3187814    641.34398   0.03245011  0.032460912           20 
 1648000   0.98510879   -6.2804234    643.21461  0.032525011  0.032453487            4 
 1649000   0.95586252   -6.3043092    643.15758  0.032502404  0.032445972           16 
 1650000   0.97435752   -6.2954248    642.18397  0.032433534  0.032438352            7 
 1651000   0.97736052   -6.2941931    642.77463  0.032443702  0.032430801            6 
 1652000   0.98127275   -6.2640626    642.40239  0.032405286  0.032423173            7 
 1653000   0.98809783   -6.3143372    643.04751  0.032418205  0.032415608            5 
 1654000   0.99281651   -6.2594706    643.74045  0.032433517  0.032408046            5 
 1655000   0.99471776   -6.2807171    643.90108  0.032422008   0.03240048            9 
 1656000   0.97644425   -6.3039707    643.90505  0.032402629  0.032392906            6 
 1657000   0.98870837   -6.2739984    645.90218  0.032483513  0.032385373            9 
 1658000   0.97898858   -6.2960701    645.40138   0.03243875  0.032377911            9 
 1659000   0.99779976   -6.3118298    645.59864  0.032429106  0.032370337            8 
 1660000   0.96199886   -6.3334016    643.21797  0.032290059  0.032362592            6 
 1661000   0.98209754   -6.3170555    645.27725  0.032373934  0.032354899            9 
 1662000    0.9902239   -6.3118612    646.44298  0.032412905   0.03234722           12 
 1663000   0.99932349   -6.2850517    645.14944  0.032328595  0.032339501            8 
 1664000    1.0022751   -6.2874185    645.96968  0.032350245  0.032331832           11 
 1665000    0.9766848   -6.2871436    647.65158  0.032414994  0.032324293            7 
 1666000   0.97569546   -6.2652301    647.18286  0.032372092  0.032316684           10 
 1667000   0.96303101   -6.3089143     647.4565  0.032366352  0.032309006           11 
 1668000    1.0010178   -6.3173609    645.09451  0.032228942  0.032301343            3 
 1669000   0.97787483   -6.2733132     647.0417  0.032306856  0.032293627            8 
 1670000   0.99784433   -6.3127934    647.10842  0.032290839  0.032285985            7 
 1671000   0.96667212    -6.312429    648.09056  0.032320495  0.032278331            6 
 1672000   0.96900775   -6.3272841    647.81697  0.032287529   0.03227065           17 
 1673000   0.97592169   -6.2951023    649.02498  0.032328401  0.032262932            9 
 1674000   0.97643132   -6.3040457    648.04516  0.032260313   0.03225534           19 
 1675000   0.97258972   -6.3307436    649.12213  0.032294633  0.032247679            5 
 1676000    0.9754544   -6.3069309    648.05361  0.032222236  0.032240062            4 
 1677000    1.0078644     -6.25488    648.43165  0.032221807   0.03223256            9 
 1678000   0.97854928   -6.2916558    648.54123  0.032208047  0.032224888            7 
 1679000   0.99824588   -6.3363281    649.00005  0.032211636  0.032217132            7 
 1680000   0.98368073   -6.3251525    647.94562   0.03214016  0.032209493            6 
 1681000   0.96788528   -6.2746969     649.2165  0.032184042  0.032201826            9 
 1682000     1.008184    -6.305227    648.45334  0.032127098  0.032194149            5 
 1683000   0.97103511   -6.2860874    651.21817  0.032244909  0.032186569            3 
 1684000    1.0006966   -6.3284399    650.05228  0.032168066  0.032178899            4 
 1685000   0.98202382    -6.346269    649.39293  0.032116366  0.032171327            9 
 1686000   0.96919009   -6.2551883    650.33095  0.032143681  0.032163808           12 
 1687000   0.97349084   -6.3162898    652.16613   0.03221528  0.032156337            9 
 1688000   0.99248736   -6.3023773    653.25071  0.032249739  0.032148867           11 
 1689000   0.96312745   -6.2750846    653.06048  0.032221259  0.032141381            5 
 1690000   0.95003194   -6.3108767    652.70575  0.032184702   0.03213383            7 
 1691000   0.98640145   -6.3103013    651.86814  0.032124391  0.032126249            5 
 1692000   0.98949829   -6.2838525    653.86817  0.032203909  0.032118746            7 
 1693000   0.97278929   -6.2987741    652.63056  0.032123969  0.032111183            5 
 1694000   0.98491997   -6.3071823    652.70406  0.032108622  0.032103551            5 
 1695000   0.99192721   -6.3007606    653.03916  0.032106153  0.032095991            5 
 1696000   0.98632157   -6.3056345    653.14425  0.032092387   0.03208841           16 
 1697000   0.97983215   -6.3310539    654.36295  0.032133321  0.032080878            5 
 1698000   0.97304899   -6.3097927    655.51051  0.032170716  0.032073419            4 
 1699000    0.9914011   -6.3252885    653.90592  0.032073078  0.032065953           10 
 1700000   0.99228662   -6.3143204    654.79175  0.032097635  0.032058478           10 
 1701000    0.9633188    -6.306043    653.61877    0.0320213  0.032051037            8 
 1702000   0.99520716   -6.3191495    655.57966  0.032098495  0.032043489            6 
 1703000   0.95840895   -6.3151141    656.18128  0.032109086  0.032035934            5 
 1704000   0.95376041   -6.3152495    654.86505  0.032025873  0.032028413            6 
 1705000   0.97381821   -6.3131737    656.85826  0.032104509  0.032020821            8 
 1706000   0.97645014   -6.2789511    656.36648  0.032061668  0.032013205            6 
 1707000   0.97657609   -6.3211394    657.67335  0.032106686  0.032005624           12 
 1708000   0.97998024   -6.3257637     656.7485  0.032042764  0.031998038            9 
 1709000   0.98460772   -6.3042949    657.63239  0.032067115  0.031990511            7 
 1710000   0.96388082   -6.2985798    658.07383  0.032069875  0.031982985           11 
 1711000   0.95683209   -6.2986233    658.70782  0.032082009  0.031975431            7 
 1712000   0.97989604   -6.3119766    657.85449  0.032021733  0.031967864            7 
 1713000   0.98059543   -6.3119507    659.15755  0.032066431  0.031960525           13 
 1714000   0.97213537   -6.3150722    656.60555  0.031923646  0.031953025            8 
 1715000   0.97391876   -6.3027891    660.76714  0.032107247  0.031945509           10 
 1716000   0.97615433   -6.2752335    659.77433  0.032040323  0.031938005            3 
 1717000   0.97969861   -6.3124931    660.02298   0.03203373  0.031930494           10 
 1718000   0.97462305   -6.3047797    659.19301  0.031974826  0.031922955            6 
 1719000   0.98970865   -6.2916274    661.35733  0.032061146  0.031915508           10 
 1720000   0.97356501   -6.3141971    660.32894  0.031992681   0.03190817            8 
 1721000   0.97386352   -6.3073031    659.30991  0.031924749  0.031900796            6 
 1722000   0.99033286   -6.3188585    660.14137  0.031946446  0.031893326           11 
 1723000   0.99485736    -6.317795    661.66925  0.032001802  0.031885924            9 
 1724000   0.98953339   -6.3063324    662.15939  0.032006931  0.031878495            5 
 1725000   0.97864839   -6.3429288    659.69506  0.031869327  0.031870952           10 
 1726000    0.9808053   -6.3300207    661.37312  0.031931881  0.031863338            4 
 1727000   0.98323041   -6.3410956    660.69426  0.031880634  0.031855672            9 
 1728000   0.98461866   -6.3042603    662.84831  0.031966064  0.031848073            7 
 1729000   0.96037668   -6.3624481     660.6073  0.031839565  0.031840555            6 
 1730000   0.95166319   -6.2991395    662.36071  0.031905622  0.031833003            7 
 1731000   0.98850921   -6.3121853    662.39507  0.031888844  0.031825602            6 
 1732000    0.9815078   -6.3327067    662.37441  0.031869439  0.031818183            8 
 1733000   0.97382336   -6.3134942    664.49867  0.031953196  0.031810794            5 
 1734000   0.96221925   -6.2852445    663.00057  0.031862772  0.031803537           13 
 1735000   0.94359135   -6.3355703    664.92094  0.031936645  0.031796288           14 
 1736000   0.97646038   -6.2841313    664.23543  0.031885341  0.031788912            5 
 1737000   0.99344454   -6.3046812     666.9784   0.03199858  0.031781663            8 
 1738000   0.99187797   -6.2793713    667.32133  0.031996611  0.031774458            6 
 1739000   0.98890471   -6.3413773    664.86655  0.031860579  0.031767273            8 
 1740000   0.98986769   -6.3378963    667.28977  0.031958322   0.03176011            7 
 1741000   0.98317777   -6.3526721    666.90256  0.031921432   0.03175295            9 
 1742000   0.97216982   -6.3334437    667.16681  0.031915749  0.031745755            8 
 1743000   0.95265484   -6.3216033    667.36299  0.031906817  0.031738626           14 
 1744000   0.96901374   -6.3261427    666.03874  0.031825245  0.031731441           16 
 1745000   0.97187599      -6.3386    665.58039  0.031785119  0.031724206            7 
 1746000   0.97857728   -6.3430936    665.14813  0.031746283  0.031716864            9 
 1747000   0.97710563   -6.3219199     667.4138  0.031836186  0.031709386            8 
 1748000    0.9939754    -6.314449    667.04372   0.03180033  0.031701877            4 
 1749000   0.98833182   -6.3204083    666.37146  0.031750117   0.03169448            7 
 1750000   0.97034728   -6.3301877    669.94739  0.031902257  0.031687125            8 
 1751000   0.94125662   -6.3232116     667.1524  0.031751018  0.031679791           14 
 1752000   0.97597789   -6.3249918    667.97971  0.031772246  0.031672304            5 
 1753000   0.96372407   -6.3136513    667.73975  0.031742715  0.031664769            4 
 1754000   0.99022217   -6.2997012    668.89638   0.03177957  0.031657293            9 
 1755000   0.97295476   -6.3120415    668.27563  0.031731986  0.031649822            9 
 1756000   0.98087131   -6.3184781    669.05558  0.031750929  0.031642275            6 
 1757000   0.97105515   -6.3088727      668.322  0.031698065   0.03163491            5 
 1758000   0.97921137    -6.326951    669.75519  0.031747971  0.031627475            4 
 1759000   0.96497384   -6.3309921    668.69576  0.031679731  0.031620066            9 
 1760000   0.96186796   -6.3424397    668.41055  0.031648227    0.0316127            8 
 1761000   0.96255457   -6.3478461    670.62385  0.031734992  0.031605409            5 
 1762000   0.98095796   -6.3183181    670.13438  0.031693832  0.031598031           10 
 1763000   0.98846756   -6.3806623    668.46205  0.031596807  0.031590567            5 
 1764000   0.99440907   -6.3070643    670.25521  0.031663606  0.031583144            7 
 1765000   0.97583452   -6.3256521    669.76787  0.031622657  0.031575759            6 
 1766000   0.98252114   -6.3093796    669.87374  0.031609746  0.031568456            4 
 1767000   0.95231274   -6.3332217    670.39027  0.031616217  0.031561172           16 
 1768000   0.98054228   -6.3717615    669.93487   0.03157687  0.031553804           14 
 1769000   0.97184529   -6.3237518    671.50912  0.031633179  0.031546387            7 
 1770000   0.97739028   -6.3232022    673.91203  0.031728438  0.031539057            5 
 1771000   0.96250897   -6.2955544     672.2675   0.03163314  0.031531698            5 
 1772000   0.95638398    -6.332313    671.62477  0.031585062  0.031524228            8 
 1773000   0.97507901   -6.3266055    672.62006  0.031614028  0.031516938            6 
 1774000   0.95710273   -6.3178164    672.16747  0.031574947  0.031509503            3 
 1775000   0.93425388   -6.3511182     672.0141  0.031549958  0.031502019            5 
 1776000   0.97939524   -6.3340165    673.23912  0.031589673  0.031494556            4 
 1777000   0.95730152   -6.3258917     671.9459   0.03151125  0.031486975            9 
 1778000   0.98549551   -6.3430171    672.38234  0.031513983  0.031479539            6 
 1779000   0.96402522   -6.3036678    672.73364  0.031512724  0.031471977            9 
 1780000    0.9490098   -6.3546754    673.89788  0.031549526  0.031464562           11 
 1781000   0.95630986   -6.3450191    673.15038  0.031496836    0.0314571            4 
 1782000    0.9638347   -6.3293028    673.95479  0.031516778  0.031449561            4 
 1783000   0.97241885   -6.3260696    674.81796  0.031539445  0.031442128            7 
 1784000   0.96505181   -6.3342546    675.33659  0.031545992  0.031434727            4 
 1785000   0.97589188   -6.2833662     674.5144  0.031489934  0.031427294            4 
 1786000   0.96948887   -6.3556176    675.76987  0.031530882  0.031419859            6 
 1787000   0.95710892   -6.3527931    674.76016  0.031466152  0.031412392           13 
 1788000   0.99169696   -6.3133613     676.2875  0.031519738  0.031404968           10 
 1789000   0.97255182   -6.3275423    676.27727  0.031501643  0.031397673            7 
 1790000   0.97823939   -6.3161378    677.09188  0.031521968  0.031390372            6 
 1791000   0.98173765   -6.2965473     677.6969  0.031532519  0.031383035            9 
 1792000   0.98033287   -6.3060623    676.90883  0.031478275   0.03137574            5 
 1793000   0.97119284   -6.3440562    676.58237  0.031445546  0.031368365            4 
 1794000    0.9571882   -6.3558605    677.97939  0.031492911  0.031360967           11 
 1795000   0.95625257   -6.3136964    677.74473  0.031464472  0.031353624            6 
 1796000    0.9455232   -6.3555492    678.06919  0.031462008  0.031346308           11 
 1797000    0.9910468   -6.3524664    677.79594  0.031431828  0.031338982            8 
 1798000   0.98214858   -6.3591776    676.96154  0.031375674  0.031331572           14 
 1799000   0.97506498   -6.3361913    679.02651  0.031453887  0.031324232           13 
 1800000   0.97269837   -6.3597825    679.68995  0.031467127  0.031316986           15 
 1801000   0.98121109   -6.3663658    679.29037  0.031431166   0.03130976            6 
 1802000   0.97009818   -6.3234345    681.49578  0.031515713  0.031302557            3 
 1803000   0.96937134    -6.287078    679.96023  0.031427261  0.031295492           12 
 1804000   0.97756963   -6.3045419    681.79036  0.031494381  0.031288361            4 
 1805000   0.98139483   -6.3387449    680.35501  0.031410665  0.031281203           17 
 1806000   0.97139543   -6.3205073    681.41736  0.031442292  0.031274053           19 
 1807000   0.94569731   -6.3193795    683.46435  0.031519293  0.031266863            9 
 1808000    0.9641595    -6.345047    679.90012  0.031337579  0.031259723            6 
 1809000   0.95765791   -6.3379146     680.8007  0.031361742  0.031252548           13 
 1810000   0.94933812   -6.3470505    682.26465  0.031411816  0.031245365           12 
 1811000    0.9587849   -6.3669391     680.5473  0.031315447  0.031238208           17 
 1812000   0.96746058   -6.3309997    683.01005  0.031411426  0.031231084            7 
 1813000   0.97968992   -6.3430287    683.57569    0.0314201   0.03122406            5 
 1814000   0.94137512   -6.3443026     682.3913  0.031348369  0.031216926            9 
 1815000   0.96034439    -6.329796    682.29183   0.03132653  0.031209722           10 
 1816000   0.96398817   -6.3662916    683.37287  0.031358887  0.031202513           29 
 1817000   0.96296477   -6.3289852    684.86979  0.031410282  0.031195292            8 
 1818000   0.95308509   -6.3568718    684.20816  0.031362677  0.031188196            7 
 1819000   0.96908615   -6.3107882    684.24013    0.0313469  0.031181143            8 
 1820000   0.95522504   -6.3661919    686.60295  0.031437864   0.03117402            5 
 1821000   0.94236605   -6.3642608    684.66947  0.031332119  0.031166928           11 
 1822000   0.95401276    -6.352848    683.96806  0.031282842  0.031159836            7 
 1823000    0.9572006    -6.323379    683.77318  0.031256774  0.031152749            9 
 1824000   0.98852995    -6.331426    686.06248  0.031344229  0.031145726            9 
 1825000   0.94140637   -6.3665648     686.3434  0.031339881  0.031138765            4 
 1826000   0.95299629   -6.3372228    687.04547  0.031354759  0.031131657            6 
 1827000   0.96800983   -6.3445123    685.73733   0.03127793  0.031124566            8 
 1828000   0.96300682   -6.3499471    686.37874  0.031290059  0.031117541           12 
 1829000   0.95005892    -6.380407    687.62189  0.031329592  0.031110564            6 
 1830000   0.98703147   -6.3775667    685.74804  0.031227142  0.031103525            8 
 1831000   0.96371418   -6.3485245    687.88113  0.031307169  0.031096538            8 
 1832000    0.9563782    -6.342851    687.67756   0.03128082  0.031089478            6 
 1833000    0.9747887   -6.3431597    687.54422  0.031257693  0.031082563            6 
 1834000   0.96167802   -6.3487626    690.09523  0.031356562  0.031075583            8 
 1835000   0.96684553   -6.3088775    688.20432  0.031253602  0.031068577            8 
 1836000   0.94697318   -6.3525233    689.18062  0.031280892  0.031061604            3 
 1837000   0.96947163   -6.3554407     688.7497  0.031244316  0.031054597            9 
 1838000   0.93193812   -6.3445798    690.44663  0.031304254  0.031047534            5 
 1839000   0.97422917   -6.3638837    689.65876   0.03125153  0.031040477            7 
 1840000   0.95135806   -6.3621231    688.97124  0.031203407  0.031033478            5 
 1841000   0.93567434   -6.3703341    691.17923  0.031286404  0.031026533            4 
 1842000   0.96376897   -6.3008246    691.01548   0.03126201  0.031019594           21 
 1843000   0.96614872   -6.3420276    692.29373  0.031302845  0.031012598           12 
 1844000   0.97241454   -6.3660397    689.86274  0.031176009  0.031005592           16 
 1845000   0.97201138   -6.3252382    690.50039  0.031187913  0.030998518            8 
 1846000   0.96378665   -6.3756159     689.7764  0.031138335  0.030991332            7 
 1847000   0.96365258   -6.3389514    692.03856  0.031223541  0.030984211            7 
 1848000   0.94319942   -6.3614227    690.74794  0.031148446  0.030977026            6 
 1849000   0.94566062   -6.3443935    691.03425  0.031144504  0.030969881            8 
 1850000   0.93696508   -6.3407133    690.59278  0.031107783  0.030962674           15 
 1851000   0.97443459   -6.3601301    690.19172  0.031072921   0.03095535            8 
 1852000   0.96140198   -6.3379937    690.94713  0.031090134  0.030948058            6 
 1853000   0.96213844    -6.307204    689.88548  0.031025611  0.030940745            6 
 1854000   0.95298405   -6.3650454    689.49319  0.030991244  0.030933366            9 
 1855000   0.95358001   -6.3758975    690.45623    0.0310178   0.03092594           13 
 1856000   0.95435336   -6.3636759    689.41582  0.030954374  0.030918614            6 
 1857000   0.94458657   -6.3733592    691.66558  0.031038664  0.030911344            7 
 1858000   0.96304891    -6.325626    693.84673  0.031119785  0.030904075            5 
 1859000   0.94712127   -6.3642136    691.49232  0.030997504  0.030896869            6 
 1860000    0.9656081   -6.3402586    693.30949  0.031062253  0.030889805            7 
 1861000    0.9392323   -6.3490937      694.455  0.031096857  0.030882611           11 
 1862000   0.94163948    -6.334999    693.75882  0.031048998  0.030875442            8 
 1863000   0.95105572   -6.3767806    693.98582  0.031042486  0.030868255            6 
 1864000   0.94705384   -6.3738261    691.67271  0.030922421  0.030861007            6 
 1865000   0.95343667   -6.3391418    692.19468  0.030929163  0.030853749            8 
 1866000   0.94193336   -6.3559676    693.74863  0.030981986  0.030846446            5 
 1867000   0.94589722   -6.3666173    691.81792  0.030879214  0.030839103            7 
 1868000   0.93497021   -6.3578218    693.24208  0.030926217  0.030831768            4 
 1869000   0.92652686   -6.3542199    692.71968  0.030886378  0.030824452            3 
 1870000   0.94076506   -6.3617679    693.14813  0.030888954  0.030816999           14 
 1871000   0.94990331   -6.3409299      694.523  0.030933681  0.030809619            3 
 1872000   0.94894386   -6.3267619    693.86045  0.030887662  0.030802251           11 
 1873000   0.95014301   -6.3642376    691.90818  0.030784311  0.030794823            9 
 1874000    0.9709878   -6.3851535    694.41518  0.030879366   0.03078736            8 
 1875000   0.94496578   -6.3582049    693.02782  0.030801237  0.030779979           17 
 1876000   0.96581015   -6.3787579    694.37467  0.030844646  0.030772567           16 
 1877000   0.93973905   -6.3533858    695.84161  0.030893341  0.030765245            6 
 1878000   0.94635427   -6.3561021    697.15123  0.030935003  0.030758046            9 
 1879000   0.94697679   -6.3586838    697.12606  0.030917423  0.030750767            7 
 1880000   0.96238101   -6.3585008    696.54039  0.030875017  0.030743452           11 
 1881000   0.94250155   -6.3495059    696.06526  0.030837554  0.030736134            9 
 1882000    0.9533547   -6.3868242    697.06627  0.030865492  0.030728873            8 
 1883000    0.9369347   -6.3568986    696.44857  0.030821764  0.030721514            4 
 1884000   0.93903203   -6.3436834    698.65059  0.030902804  0.030714195            7 
 1885000   0.95728317   -6.3678634     698.0727  0.030860862  0.030706942            7 
 1886000    0.9370787   -6.3633853    696.33417  0.030767681  0.030699623            7 
 1887000   0.95357327   -6.3733214    696.30996  0.030750307  0.030692268            5 
 1888000   0.95473356    -6.371409    698.12452  0.030814112  0.030685045            7 
 1889000   0.95867832   -6.3624667     698.8885  0.030831502  0.030677897            5 
 1890000   0.95439469   -6.3445186    699.54431  0.030844105  0.030670719           10 
 1891000   0.95612847   -6.3927593    698.12876  0.030765414  0.030663484            6 
 1892000    0.9565605   -6.3896563    699.98522   0.03083092  0.030656231            7 
 1893000   0.94327651   -6.3610755     700.7992  0.030850466  0.030649161            4 
 1894000   0.94791703   -6.3715451    700.25791  0.030810362  0.030642079            7 
 1895000   0.94563444   -6.3512481    699.18574  0.030746954  0.030635004           13 
 1896000   0.96365487   -6.3604619    702.36627  0.030870529  0.030628033           15 
 1897000   0.95705933   -6.3371179    701.09616  0.030798461  0.030620984            7 
 1898000   0.94453926   -6.3633791    702.86716  0.030859991  0.030613918            6 
 1899000    0.9475055   -6.3779868    701.29531  0.030774763  0.030606881           19 
 1900000   0.96311191    -6.391025    703.42011  0.030851759  0.030599807            5 
 1901000   0.93855671   -6.3725897    701.43435  0.030748481  0.030592741            4 
 1902000   0.95778601    -6.362257    705.07281  0.030891729  0.030585712            5 
 1903000   0.95123318   -6.3867234    702.30245   0.03075418  0.030578754            6 
 1904000    0.9441349    -6.381841    701.09481  0.030685172   0.03057173            6 
 1905000   0.94396531   -6.3809397    701.75494  0.030697941   0.03056459            4 
 1906000   0.96361019   -6.3741979     702.9813  0.030735454  0.030557457            5 
 1907000   0.93832637   -6.3496924    702.40456  0.030694134  0.030550357           16 
 1908000   0.95618904   -6.3760397    703.54117  0.030727689  0.030543151           13 
 1909000    0.9238227   -6.4009264    701.12963  0.030606322  0.030535833            5 
 1910000   0.96050881   -6.3522021    703.02724  0.030673091  0.030528591            6 
 1911000   0.95574909    -6.351358    704.43733   0.03071853  0.030521428            9 
 1912000   0.94309208   -6.3947693    700.62098  0.030536131  0.030514174           10 
 1913000    0.9452808   -6.3628823    703.66628  0.030652826  0.030506929            8 
 1914000   0.96142164   -6.4110043    701.48759  0.030541954  0.030499625            7 
 1915000   0.95207026   -6.3782169    702.08515  0.030552008  0.030492261            8 
 1916000   0.96411736    -6.352477    703.55753  0.030600101  0.030484876           10 
 1917000   0.93782695   -6.3661571    701.92248  0.030513062  0.030477602            5 
 1918000   0.94296018   -6.3901959    703.68782  0.030573854  0.030470168            6 
 1919000   0.92176516   -6.3506975     704.9485  0.030612667  0.030462844            6 
 1920000   0.91500895   -6.3728193    705.20265  0.030607754  0.030455513            7 
 1921000   0.93202549   -6.3326203    704.09017  0.030543561  0.030448261            5 
 1922000   0.94323044   -6.3985255    705.70875  0.030597847   0.03044099            8 
 1923000    0.9502038   -6.3587684    706.04711  0.030596598  0.030433697           11 
 1924000   0.95061877   -6.3612076    706.20648  0.030587599  0.030426469            5 
 1925000   0.96093051    -6.399593    703.18803   0.03044104  0.030419107            4 
 1926000   0.94473533    -6.365072    705.10088  0.030507999  0.030411785           12 
 1927000    0.9400172   -6.3604793    704.58487  0.030469853  0.030404522            6 
 1928000   0.95022498   -6.3432946    707.69863  0.030588634  0.030397284            3 
 1929000   0.94525704   -6.4037773    704.14511  0.030419264  0.030390003            8 
 1930000   0.95264486   -6.3825362    704.57735  0.030422165  0.030382645            8 
 1931000   0.93320543   -6.3916771     704.8053  0.030416248  0.030375196           11 
 1932000   0.92695598   -6.3960378    705.79688  0.030443275   0.03036776           16 
 1933000   0.94057366   -6.3934396     707.5362  0.030502509  0.030360315            5 
 1934000   0.92621865   -6.3616583    706.41886  0.030438593  0.030352979           12 
 1935000   0.94960601    -6.385551    706.40898  0.030422437  0.030345525            7 
 1936000   0.92812909   -6.3994236     704.8858  0.030341159   0.03033804           10 
 1937000    0.9449448   -6.3510518    705.43994  0.030349335  0.030330666            8 
 1938000   0.91267618   -6.3425571    709.17009   0.03049407  0.030323356            4 
 1939000   0.93823477   -6.3819105    707.96903  0.030426725  0.030316107           20 
 1940000   0.93928499   -6.3693178    708.36772  0.030428167  0.030308748           11 
 1941000   0.95134527   -6.3774422    707.24511  0.030364293   0.03030143            8 
 1942000   0.92216444   -6.4004728    707.97314  0.030379898  0.030294115            8 
 1943000   0.92808867   -6.3498216    707.47631  0.030342954  0.030286743            9 
 1944000   0.92803834   -6.3539765    710.21257   0.03044464  0.030279428            6 
 1945000   0.96374016   -6.3728615    708.89123  0.030372375  0.030271988           11 
 1946000   0.94688058   -6.3773714    708.49966  0.030339999  0.030264607            6 
 1947000   0.92103414   -6.4027929    708.77964    0.0303364   0.03025718           13 
 1948000   0.94366209   -6.3640895     708.4627  0.030307268  0.030249695            8 
 1949000   0.94431611   -6.3681924    707.70965   0.03025952  0.030242134           10 
 1950000   0.94704604   -6.3621095    708.89749  0.030294764  0.030234718           11 
 1951000   0.95075146   -6.3952147    708.69826  0.030270727  0.030227245            6 
 1952000   0.94847188    -6.398065     708.4686  0.030245415  0.030219763            8 
 1953000   0.93263375   -6.3511972     710.2634  0.030306512  0.030212327            9 
 1954000   0.94401289   -6.4140156    708.05066  0.030196633  0.030204898            6 
 1955000   0.93709743   -6.3848519     708.8435  0.030214983  0.030197381            8 
 1956000   0.94053688   -6.3979607    710.01732  0.030249545  0.030189837            7 
 1957000   0.94521418    -6.383737     712.5133  0.030340372  0.030182389            7 
 1958000   0.90489232   -6.4058508    710.26304  0.030229104  0.030174947            8 
 1959000   0.92612051   -6.4103838    710.61916  0.030228823  0.030167457           12 
 1960000    0.9474763   -6.3689042    711.15159  0.030236037  0.030160019           10 
 1961000   0.94231074   -6.4088764      711.708  0.030244263  0.030152631            9 
 1962000   0.93107812    -6.405599    710.85146  0.030192468  0.030145254            8 
 1963000   0.94092518   -6.3722889    712.67459  0.030254483  0.030137838           10 
 1964000   0.96066544   -6.3861238    710.58458  0.030150398  0.030130381           15 
 1965000   0.93374468   -6.3961766    713.47113   0.03025747  0.030122964            5 
 1966000   0.93477098   -6.3843589    712.54334  0.030202753  0.030115487            9 
 1967000   0.94137296   -6.3778938    712.34378  0.030178944  0.030107966           10 
 1968000   0.93068716   -6.4258275    713.30679  0.030204386  0.030100532            3 
 1969000   0.90866817    -6.419609    711.96362    0.0301322  0.030093084           14 
 1970000   0.91872319   -6.3839161    711.38273  0.030092332  0.030085674            7 
 1971000   0.93839004    -6.415761    711.98956  0.030102721  0.030078191            6 
 1972000   0.92007751   -6.4085639    713.26885  0.030141517  0.030070726           11 
 1973000   0.93283168   -6.3853102    713.85617  0.030151046  0.030063331            5 
 1974000   0.93064717   -6.3874305    714.29491  0.030154294  0.030055894            8 
 1975000   0.93551578   -6.4046916    712.71384  0.030072314  0.030048399           15 
 1976000   0.91707306   -6.3751271    714.05612  0.030113703  0.030040933           11 
 1977000   0.93793239   -6.4112403     713.6321  0.030080598  0.030033461            9 
 1978000   0.93802544   -6.4318675    711.44785  0.029973368  0.030025898            5 
 1979000   0.94314622   -6.4143465    713.76501  0.030055795  0.030018427            9 
 1980000   0.95497904   -6.4124128    715.50643  0.030113907  0.030010973            9 
 1981000   0.94032056   -6.4022446    715.20003  0.030085817   0.03000352            6 
 1982000   0.91515953   -6.3966614    714.88212   0.03005727  0.029996009            9 
 1983000   0.93822173   -6.3800513    714.55273  0.030028271  0.029988479            4 
 1984000   0.94813406   -6.4142252    713.34431  0.029962379   0.02998092           11 
 1985000   0.92679224   -6.4266053    714.96135   0.03001517  0.029973376            7 
 1986000   0.94131844   -6.4154728     714.8986  0.029997424  0.029965814           18 
 1987000   0.95305449   -6.3727777    713.44041  0.029921171  0.029958324           11 
 1988000   0.93093593   -6.3835527    715.73918  0.030002481   0.02995077           12 
 1989000   0.93957732   -6.3787258    714.64461  0.029941537  0.029943246            9 
 1990000   0.92014253   -6.4163792    714.02861  0.029900696  0.029935675            7 
 1991000   0.92490007   -6.3756829      716.526  0.029990206  0.029928156           13 
 1992000   0.93355955   -6.4088645     716.2611  0.029964069  0.029920654            6 
 1993000   0.93831039   -6.3765312    716.07789  0.029941373  0.029913067           12 
 1994000    0.9357122    -6.386286    715.58213  0.029905639  0.029905547            7 
 1995000   0.94093071   -6.4077959    715.19395  0.029874434  0.029897946            6 
 1996000   0.94083769   -6.3998851    717.37263  0.029950427  0.029890384           14 
 1997000   0.93586983   -6.4178315    716.04513  0.029880034  0.029882787            9 
 1998000   0.93410015   -6.3817187    717.99627  0.029946458  0.029875209            6 
 1999000   0.92018558    -6.385525    718.04363  0.029933451  0.029867641           12 
 2000000   0.90875934   -6.4209688    715.55891  0.029814955  0.029860047           11 
 2001000   0.92248793    -6.378032    718.18402  0.029909379  0.029852448            8 
 2002000   0.92738009   -6.3865568    716.04091  0.029805233  0.029844794            8 
 2003000   0.93356835   -6.3919894    718.19748  0.029880075  0.029837156            7 
 2004000    0.9329746    -6.408479    718.67894  0.029885186  0.029829541           13 
 2005000   0.90872173   -6.4318241    717.94774  0.029839889  0.029821907            9 
 2006000   0.93761169   -6.3776737     718.0895  0.029830903  0.029814252            5 
 2007000   0.93177354   -6.4107652    718.87185  0.029848524  0.029806693            9 
 2008000   0.94002918   -6.4140129     719.2612  0.029849818   0.02979904            9 
 2009000   0.94054824   -6.4052756    719.26518  0.029835124  0.029791479            4 
 2010000   0.92642813   -6.4096051    720.03584  0.029852232  0.029783931            6 
 2011000   0.96231618   -6.3905507    718.11719  0.029757881  0.029776383            5 
 2012000   0.94250227   -6.4270149    717.73913  0.029727432  0.029768724            5 
 2013000   0.92635317    -6.427486    719.80812  0.029798316  0.029761086            7 
 2014000   0.94043157    -6.383616    720.42273  0.029808951  0.029753482           17 
 2015000   0.92120624   -6.4047078    719.40925  0.029752244  0.029745872            6 
 2016000   0.93362323   -6.4078915    718.19131  0.029687141  0.029738276            8 
 2017000   0.94857356   -6.4029299     719.5461  0.029728396  0.029730688           10 
 2018000   0.92586841   -6.3945872    720.49083  0.029752677  0.029723092           17 
 2019000   0.91903848   -6.4002575    722.00417  0.029800403  0.029715507           13 
 2020000   0.93994022    -6.407949    720.37718  0.029718531  0.029707934            5 
 2021000   0.93824589   -6.3947116     720.5949  0.029712803   0.02970044            9 
 2022000     0.939281   -6.4009728    720.25217  0.029683983  0.029692841            7 
 2023000   0.93607766   -6.4112731     721.6567  0.029727167  0.029685248           16 
 2024000   0.93621828   -6.4095894    722.58634  0.029750755  0.029677617           24 
 2025000   0.94113106   -6.3972409    721.10418  0.029675069  0.029670082            9 
 2026000    0.9195369   -6.4290525    720.84898  0.029649925  0.029662484            5 
 2027000   0.94782522   -6.4203611     721.3315  0.029655135  0.029654817            7 
 2028000   0.92233513   -6.4096782    720.65409  0.029612676  0.029647238            6 
 2029000   0.92077603   -6.4353918    719.37305  0.029545468  0.029639594            9 
 2030000   0.92582871   -6.4369219    720.45089   0.02957516  0.029631832           18 
 2031000   0.91867769   -6.4284879    720.68026  0.029570009  0.029624128           18 
 2032000   0.92448639   -6.4233465    720.68935   0.02955583  0.029616384            5 
 2033000   0.90839099   -6.4060187    722.83702  0.029629325  0.029608766            5 
 2034000    0.9385631   -6.3941215    722.41242  0.029597362  0.029601082            5 
 2035000   0.93272631    -6.440798    721.87608  0.029560855  0.029593379            8 
 2036000   0.93054311   -6.4495928    721.45752  0.029529204  0.029585612           11 
 2037000   0.91495304   -6.4328072    721.94488  0.029534646  0.029577934           25 
 2038000   0.91242548   -6.4147659    721.86471  0.029516875  0.029570237            8 
 2039000   0.94368964   -6.4138318    721.18732  0.029474715  0.029562527            8 
 2040000    0.9145602    -6.437899     722.8657  0.029528828  0.029554867           19 
 2041000   0.92045572   -6.3979536    723.69797  0.029548341  0.029547167            9 
 2042000   0.91150314   -6.4333771    723.14866  0.029511454  0.029539497           13 
 2043000   0.94576657   -6.4183347    722.44037  0.029468117  0.029531717           33 
 2044000   0.93033099   -6.4049549    722.50289  0.029456249  0.029523988           23 
 2045000   0.93157245   -6.4364382    722.57809   0.02944491  0.029516173           10 
 2046000   0.91094662   -6.4361541    726.12423  0.029574952  0.029508324           10 
 2047000   0.92361647   -6.3868229    724.34849  0.029488214  0.029500599           13 
 2048000   0.90549442   -6.4111176    723.83137  0.029452774   0.02949289           10 
 2049000   0.92639345   -6.4006618    725.58166  0.029509584  0.029485318            5 
 2050000   0.91764723   -6.4238249    724.94366  0.029469254  0.029477726           17 
 2051000   0.91525803   -6.4131974     725.4985   0.02947743  0.029470151           10 
 2052000   0.92693361   -6.4217001    727.69029  0.029552075   0.02946264            6 
 2053000   0.91105814    -6.400511    726.58434  0.029492789  0.029455135           12 
 2054000   0.92490538   -6.4128471    725.15558  0.029420463  0.029447555            9 
 2055000   0.93074025     -6.41905    727.30699   0.02949339  0.029439987           11 
 2056000   0.92648027   -6.3780898    726.43388  0.029443656  0.029432519           17 
 2057000    0.9250777   -6.4013602    728.03088   0.02949404  0.029425001            4 
 2058000   0.92225691   -6.4069339    727.27586  0.029449136  0.029417574            5 
 2059000    0.9108273   -6.4078533    727.33142  0.029437082   0.02941009            9 
 2060000   0.90256155   -6.4213981    727.49006   0.02942921  0.029402571            6 
 2061000   0.93352857   -6.4025225    726.23358  0.029364126  0.029395093            7 
 2062000    0.9010646   -6.4321207    729.16008  0.029468157   0.02938759            7 
 2063000   0.92867595   -6.4259776    727.21526  0.029375314  0.029380044           11 
 2064000   0.92776626   -6.4246918    730.79051  0.029505431  0.029372572           13 
 2065000   0.95109365   -6.4427595    730.15539  0.029465512  0.029365088           18 
 2066000   0.90973692   -6.4255664    729.50372  0.029424965  0.029357584           12 
 2067000   0.91004807   -6.4182477    730.84438  0.029464779  0.029350144            4 
 2068000   0.90527301   -6.3929353    729.17871   0.02938341  0.029342707           13 
 2069000   0.93461757   -6.4160854    730.90502  0.029438739   0.02933528            6 
 2070000   0.90449246   -6.4223561    729.13744  0.029353359   0.02932788            4 
 2071000   0.91771077   -6.4418072    729.90676  0.029370141   0.02932044            5 
 2072000   0.91539978   -6.3857736    730.79307  0.029391613   0.02931307           11 
 2073000     0.929369   -6.4323947     730.5781  0.029368793  0.029305654           13 
 2074000   0.91957617   -6.4131311    732.70567  0.029440119  0.029298152            7 
 2075000    0.9164031   -6.4435962     732.2593  0.029408004  0.029290742           12 
 2076000   0.93967192   -6.4331282    731.51388  0.029363916  0.029283324           10 
 2077000   0.92558618   -6.4378766    732.08758  0.029372796  0.029275953            7 
 2078000   0.91185649   -6.4083736    732.64914  0.029381181  0.029268578            7 
 2079000   0.91824519   -6.4335926    730.87793  0.029296053  0.029261271           13 
 2080000   0.90214485   -6.4166007    731.49121  0.029306539  0.029253979           11 
 2081000   0.91274781   -6.4296105    732.36784   0.02932756  0.029246616           10 
 2082000   0.92234376   -6.4081462    734.73298  0.029408141  0.029239294            9 
 2083000   0.91633371    -6.433905    734.38613  0.029380146  0.029231931            5 
 2084000   0.94366107   -6.4336986    735.00974  0.029390984  0.029224647            8 
 2085000   0.91291805   -6.4271743    732.11527  0.029261202  0.029217295            7 
 2086000   0.91906704   -6.4186179    732.69052  0.029270155  0.029209877            6 
 2087000   0.89095594   -6.4122227     732.5767  0.029251585  0.029202451            7 
 2088000   0.93075672   -6.4416548    733.53981  0.029276014  0.029194999            7 
 2089000   0.93333593   -6.4260654    732.84321  0.029234211  0.029187579            8 
 2090000   0.90879387   -6.4360639    732.83246  0.029219795   0.02918017            8 
 2091000   0.91081853   -6.4380012    735.22893  0.029301328   0.02917269           12 
 2092000   0.91973893   -6.4366012    731.46122  0.029137238  0.029165236           25 
 2093000   0.90134089   -6.3987542     734.6957  0.029252098  0.029157775            8 
 2094000   0.91705914   -6.3895916    736.91856   0.02932659  0.029150452            5 
 2095000   0.88479584   -6.4216133    733.84468  0.029190321  0.029143105            5 
 2096000   0.89404172   -6.4463381    735.74977  0.029252138  0.029135685            9 
 2097000   0.91576727   -6.4168722    734.71862  0.029197211   0.02912829           14 
 2098000   0.93262323   -6.4456205    736.43951  0.029251649  0.029120903            9 
 2099000   0.91412056   -6.3908816    736.50635  0.029240366  0.029113408           15 
 2100000    0.9402042   -6.4168804    735.23294   0.02917591  0.029106037            6 
 2101000   0.91881424    -6.400781    736.80797  0.029224495  0.029098648            9 
 2102000   0.91828732   -6.4286648    735.53538   0.02916014  0.029091291           19 
 2103000   0.90990942   -6.4493607    736.24543  0.029174411  0.029083896           14 
 2104000   0.91200342   -6.4545181     736.6364   0.02917603  0.029076499            6 
 2105000   0.91407486   -6.3994998    736.19893  0.029144851  0.029069062            9 
 2106000   0.93186683    -6.423312     736.5726  0.029145798  0.029061692            8 
 2107000   0.89707415   -6.4248244    736.08566  0.029112706  0.029054328           10 
 2108000   0.90040503   -6.4365241    737.86759  0.029169339  0.029046892            6 
 2109000   0.91224859   -6.4255259    734.11284  0.029007146  0.029039456            6 
 2110000   0.91926331   -6.4303615    735.16714  0.029035037  0.029032054            6 
 2111000   0.91860254   -6.4166585    736.48357   0.02907325  0.029024658           19 
 2112000   0.90257024   -6.4436392    736.04294  0.029042098  0.029017256           11 
 2113000   0.92748651   -6.4365301    737.79647   0.02909751  0.029009878           11 
 2114000    0.9284149   -6.4483828    736.86986  0.029047219  0.029002491            9 
 2115000   0.91848798   -6.4461604    739.42648  0.029134219  0.028995068           10 
 2116000   0.90464306   -6.4289806    738.08695  0.029067697  0.028987651            8 
 2117000   0.91355649   -6.3969584     737.3329  0.029024283  0.028980232            8 
 2118000   0.89959364   -6.4509745     738.6202  0.029061229  0.028972828           10 
 2119000   0.89649416    -6.456752    738.60958  0.029047097  0.028965381            7 
 2120000   0.90030185   -6.4216142    740.59295  0.029111358  0.028958006            7 
 2121000   0.92751478   -6.4110379    740.50248  0.029094078  0.028950628            9 
 2122000   0.90852339   -6.4483293    740.08366   0.02906392  0.028943188            7 
 2123000   0.90792467     -6.43901    738.74644  0.028997741  0.028935665           22 
 2124000   0.90969349    -6.439992    738.65122  0.028980352   0.02892813           16 
 2125000   0.90070443   -6.4681077    737.61605   0.02892612  0.028920644            7 
 2126000   0.91592654   -6.4130291    739.42029  0.028983235  0.028913135            7 
 2127000   0.89867196   -6.4448822    737.21565  0.028883234  0.028905636            8 
 2128000   0.93456049   -6.4514905    739.66682  0.028965649  0.028898153           11 
 2129000   0.91101882   -6.4458257    739.55756  0.028947767  0.028890617            7 
 2130000   0.90177171   -6.4436539    739.76347  0.028942233  0.028883146           17 
 2131000   0.91488374   -6.4231719    739.60323  0.028922385  0.028875711            9 
 2132000   0.89281809   -6.4566045    739.42688  0.028901926  0.028868158           16 
 2133000   0.90962251   -6.4194865    738.92253  0.028868672  0.028860646            7 
 2134000   0.91380634   -6.4199833    739.55848  0.028879978  0.028853191            9 
 2135000   0.90063121   -6.4270481    739.80763  0.028876176   0.02884572           10 
 2136000   0.92542705    -6.462492    741.69297  0.028936212  0.028838164            8 
 2137000   0.90292021   -6.4237453    740.44153   0.02887387  0.028830612            7 
 2138000   0.90281429   -6.4346909    742.10552  0.028925223  0.028823103           10 
 2139000   0.91137585    -6.436524     740.8135  0.028861364   0.02881566            7 
 2140000   0.90045667   -6.4599433     742.0233  0.028894988  0.028808204           10 
 2141000   0.89900251   -6.4566905    740.87373  0.028836748  0.028800722           10 
 2142000   0.91360461   -6.4473757     742.5842   0.02888983  0.028793276           10 
 2143000   0.90883193   -6.4409651    741.73242  0.028843227  0.028785809            7 
 2144000    0.9305785     -6.45592    739.04532  0.028725331  0.028778255           21 
 2145000   0.88282697   -6.4467608    741.33974  0.028801078  0.028770725            7 
 2146000   0.90707908   -6.3748753     742.2596  0.028823377  0.028763252            6 
 2147000   0.91139832   -6.4482923    743.12725  0.028843629  0.028755745           13 
 2148000    0.9093422   -6.4377647    743.47154  0.028843558  0.028748228           11 
 2149000   0.90730036   -6.4693907    742.21134  0.028781268    0.0287407            7 
 2150000   0.93184601   -6.4157017    746.57827  0.028937142  0.028733277            9 
 2151000   0.89387873   -6.4505354    742.70447  0.028773612  0.028725852           20 
 2152000   0.89950058   -6.4747792    743.66347  0.028797377  0.028718405            5 
 2153000   0.89424825   -6.4587393    741.98847   0.02871917  0.028710858            6 
 2154000   0.92763052   -6.4576296    743.89488  0.028779592  0.028703337           10 
 2155000   0.89360369   -6.4653836    744.39618  0.028785622  0.028695812            7 
 2156000   0.90069895   -6.4641564    742.70947  0.028707076  0.028688282           15 
 2157000   0.89187583    -6.435453    746.24417  0.028830326  0.028680791            9 
 2158000    0.9072295   -6.4005148    745.10867  0.028773118  0.028673343            6 
 2159000   0.91979157   -6.4415326    743.78386  0.028708656  0.028665936            3 
 2160000   0.90211116   -6.4607618    743.96457  0.028702337  0.028658452            4 
 2161000   0.89758473   -6.4488128    746.37524  0.028782016  0.028650979            7 
 2162000   0.91225437    -6.409921     744.9516   0.02871383  0.028643558            7 
 2163000   0.90462006   -6.4277096     746.3422   0.02875413  0.028636171            5 
 2164000   0.90085697    -6.441404    744.02987  0.028651797  0.028628676           11 
 2165000   0.90754222   -6.4379437    744.87864  0.028671233   0.02862112            8 
 2166000   0.90008651   -6.4697505     744.1464  0.028629825  0.028613529           15 
 2167000   0.89702129   -6.4408184    746.93198  0.028723734  0.028605977            6 
 2168000   0.91370227   -6.4605914    747.02789  0.028714172  0.028598462            8 
 2169000   0.91595097    -6.430651    746.28687  0.028672463  0.028590969            5 
 2170000   0.92475504   -6.4672466    744.09059  0.028574907  0.028583488            6 
 2171000   0.89845133   -6.4572441    746.18996  0.028642329  0.028575968           15 
 2172000   0.90958678   -6.4263401    744.86582  0.028578339  0.028568465           13 
 2173000   0.91068955   -6.4264261     745.4672   0.02858825  0.028560913            8 
 2174000   0.90060612   -6.4282021    745.14375  0.028562701  0.028553453            8 
 2175000   0.91284299   -6.4425698    745.63284  0.028568308  0.028545948            5 
 2176000   0.89584327   -6.4441856    747.23978  0.028616719  0.028538467            7 
 2177000   0.87741733   -6.4499705    748.03239  0.028633915  0.028530997            4 
 2178000   0.90487585   -6.4354156     749.6045  0.028680919  0.028523548           14 
 2179000   0.90641442   -6.4503313    745.92176  0.028526914  0.028516106            9 
 2180000   0.88838965   -6.4638612    748.20687   0.02860118  0.028508694            6 
 2181000   0.88793379   -6.4302953    749.63199  0.028642518  0.028501331           11 
 2182000   0.90651372   -6.4473455    748.68376  0.028593177  0.028493918            5 
 2183000   0.90280704   -6.4508228    749.36559  0.028606108  0.028486538           12 
 2184000   0.88976088    -6.473339    749.10164  0.028582938  0.028479178           13 
 2185000   0.90614406   -6.4482159    748.36579  0.028541792   0.02847173           12 
 2186000   0.90060046   -6.4715082    747.92989  0.028512118  0.028464373            7 
 2187000   0.91140693   -6.4501226    750.70669  0.028604888  0.028457016           14 
 2188000   0.90273354   -6.4420888    748.54021  0.028509301  0.028449687           14 
 2189000   0.89766244   -6.4365321     750.3359  0.028564637  0.028442344            6 
 2190000   0.87629106   -6.5089491    749.71295   0.02852789  0.028434992            7 
 2191000   0.88615399   -6.4815449    749.06674  0.028490291   0.02842759           17 
 2192000   0.89742047   -6.4603745    751.01507  0.028551364  0.028420213           19 
 2193000    0.8846338   -6.5053974    749.81875  0.028492884  0.028412879           11 
 2194000   0.92258227    -6.510664    750.11159  0.028491021  0.028405542            7 
 2195000   0.90630605   -6.4599446    751.70511  0.028538539  0.028398173            9 
 2196000   0.90733295   -6.4673547    753.19583  0.028582113  0.028390926            7 
 2197000   0.90849707   -6.4422007    751.99324  0.028523488  0.028383714            7 
 2198000   0.91308428   -6.4389548    753.67797  0.028574385  0.028376481            6 
 2199000   0.89991235   -6.4812077    752.70646  0.028524574  0.028369235           12 
 2200000   0.88498825   -6.4635106    753.45029  0.028539784  0.028362014            7 
 2201000   0.88857329   -6.4427928    752.71664   0.02849904  0.028354747           30 
 2202000   0.90001446   -6.4594592    752.27875  0.028469526  0.028347529           10 
 2203000   0.88690358   -6.4717963    753.29605  0.028495084  0.028340318           24 
 2204000   0.89499475   -6.4699161    754.85026   0.02854092   0.02833315            9 
 2205000   0.90144641   -6.4525103    754.53259  0.028515971  0.028325915           23 
 2206000   0.90323854   -6.4921455    754.24068  0.028492017  0.028318662            9 
 2207000   0.89068904   -6.4424249    755.14361  0.028513201   0.02831138            8 
 2208000   0.91887661   -6.4725742    752.63615  0.028405652  0.028304141           12 
 2209000   0.90577385   -6.4391865     754.1308  0.028449178  0.028296941           24 
 2210000   0.91925832   -6.4655594    754.99988  0.028469075  0.028289744           10 
 2211000   0.89246104   -6.4203456    755.30631  0.028467749  0.028282569           13 
 2212000   0.88164375   -6.4459345     755.0578  0.028445517  0.028275419            8 
 2213000   0.90734196   -6.4637437     753.7116   0.02838197  0.028268271           11 
 2214000   0.89301091   -6.4889696    755.49551  0.028436296  0.028261132           14 
 2215000   0.88642392   -6.4614686    756.44209   0.02845907  0.028254013            5 
 2216000   0.89571278   -6.4711624    756.21889  0.028437834  0.028246904            6 
 2217000   0.88181852   -6.4795502    756.83432   0.02844814  0.028239821           11 
 2218000   0.91068502   -6.4921158    755.78094  0.028395737   0.02823266           14 
 2219000   0.90536898   -6.4724694    758.34368  0.028479183  0.028225635            8 
 2220000   0.88233314   -6.4471063    759.30253  0.028502347  0.028218639           11 
 2221000   0.90314639   -6.4697503     758.9039  0.028474557  0.028211621            3 
 2222000   0.92059722   -6.4482687    757.68026  0.028415851  0.028204638           11 
 2223000   0.90033477    -6.451747    759.80157   0.02848259  0.028197658           13 
 2224000   0.89716146   -6.4543213    760.00229  0.028477304  0.028190646           17 
 2225000    0.8678813   -6.4534084    760.38846  0.028478969  0.028183689            6 
 2226000   0.91623497   -6.4610496    758.61263  0.028399694  0.028176765            3 
 2227000   0.90155973   -6.4459705    761.14036  0.028481528  0.028169808            5 
 2228000   0.90057572   -6.4701319    760.21329   0.02843407  0.028162789           19 
 2229000   0.90437165   -6.4644986    759.49956   0.02839463  0.028155801           10 
 2230000   0.89624044   -6.4695497    759.29366  0.028374202  0.028148779            5 
 2231000   0.88713866   -6.4596401    758.81176  0.028343484  0.028141769            7 
 2232000   0.89789429   -6.4896159    758.20493  0.028308129  0.028134733           10 
 2233000   0.90265058   -6.4804463    760.58854  0.028384406  0.028127664            7 
 2234000   0.90790018   -6.4735691    757.99002  0.028274769  0.028120597            9 
 2235000   0.89163198   -6.4761925    761.22115  0.028382593  0.028113545            9 
 2236000   0.88404693   -6.4541835    760.58635  0.028346241  0.028106472            9 
 2237000   0.91218978   -6.4374478    762.04338  0.028387847  0.028099428            9 
 2238000     0.876339   -6.4933149    759.54805  0.028282248  0.028092344           11 
 2239000   0.90967386   -6.4752416    759.95741  0.028284852  0.028085247           10 
 2240000   0.88741404   -6.4827808    759.04158  0.028238154  0.028078138            5 
 2241000   0.89335609     -6.49283    757.94413  0.028184744  0.028070995           11 
 2242000   0.88663988   -6.4698528    759.15848  0.028217309  0.028063821           24 
 2243000   0.91326407   -6.4798062    761.42885  0.028289079   0.02805667           10 
 2244000   0.90101176   -6.4582935    759.54019  0.028206335  0.028049544            6 
 2245000   0.88482575   -6.4554943    758.11944  0.028141033  0.028042338            9 
 2246000   0.90318356   -6.4644659    761.16628  0.028241551  0.028035142           16 
 2247000   0.88680664   -6.4737295    760.22374  0.028194027  0.028027922            9 
 2248000   0.87035226   -6.4548228    758.89588  0.028132261  0.028020694           18 
 2249000   0.90525742   -6.4678051     758.6576  0.028110923  0.028013421           10 
 2250000   0.91319199   -6.4777693     759.2473   0.02812027  0.028006197           10 
 2251000   0.87377289   -6.4906767    761.39612  0.028187329  0.027998927            8 
 2252000   0.89030164   -6.4852831     760.4928  0.028141386  0.027991709           10 
 2253000   0.87267086    -6.471212    760.09515  0.028114187  0.027984454           12 
 2254000   0.89787131   -6.4797528    759.80888   0.02809113  0.027977245            7 
 2255000   0.91136725   -6.4807074    760.24736  0.028094876  0.027970014           14 
 2256000   0.88298313   -6.4808566    761.09325  0.028113669  0.027962748           23 
 2257000   0.88347341   -6.4576079    759.83641  0.028054808  0.027955456            6 
 2258000   0.86619654   -6.4827655    760.27985  0.028058748  0.027948145           11 
 2259000   0.90245454   -6.4798177    761.53641  0.028092682  0.027940816            5 
 2260000   0.89196632   -6.4712174    763.48335  0.028152041  0.027933537           15 
 2261000   0.89573063   -6.4480388    761.81583   0.02807813    0.0279263           19 
 2262000    0.9029862   -6.4564325    761.95116  0.028070703  0.027919095           18 
 2263000   0.89418969   -6.4924173    761.62059  0.028046126  0.027911879            9 
 2264000   0.89291461   -6.4601016     762.4698  0.028064995  0.027904653           11 
 2265000   0.88058037   -6.4748621    761.72599  0.028025239  0.027897413           12 
 2266000   0.89301187   -6.4688618    761.95459  0.028021278   0.02789019           10 
 2267000   0.89043519   -6.4840755     762.7976  0.028039906  0.027883012           16 
 2268000   0.91850648   -6.4987755    762.75276  0.028025895  0.027875836            6 
 2269000   0.89151847   -6.5065554    763.78413  0.028051422  0.027868659            4 
 2270000   0.89752062   -6.4766922    761.95824  0.027972035  0.027861532            8 
 2271000   0.88389872   -6.4913737    764.79722  0.028063893  0.027854389           13 
 2272000   0.90875832   -6.4749668    763.80527  0.028015158  0.027847238            7 
 2273000    0.8901857   -6.4984406    762.92471   0.02797055  0.027840095            9 
 2274000   0.88404515   -6.4768977     764.0744  0.028000381  0.027832918           16 
 2275000    0.8893578   -6.4862935    765.07777  0.028024827  0.027825804            6 
 2276000   0.87911404   -6.4762403    763.79976   0.02796572   0.02781861            5 
 2277000   0.88566944   -6.4906756    763.97425  0.027959825  0.027811404           16 
 2278000   0.86185174   -6.4739658    763.48372  0.027929606  0.027804207           11 
 2279000   0.89262198   -6.5049666    765.52323  0.027991927     0.027797            6 
 2280000   0.88752094   -6.5119559     763.2438  0.027896338   0.02778976            8 
 2281000   0.88344732   -6.4866998    765.86986  0.027980047   0.02778255            8 
 2282000   0.89360403    -6.483633    763.76147  0.027890793  0.027775391           12 
 2283000   0.88024164   -6.4669074    763.96168  0.027885884  0.027768231            6 
 2284000   0.88737813   -6.4637276    764.80861  0.027904576  0.027761065            8 
 2285000   0.87066627   -6.4730317    765.24885  0.027908419  0.027753838           31 
 2286000    0.8780483   -6.4910194    764.27199    0.0278606  0.027746609            8 
 2287000   0.90480607   -6.4969573     765.3761   0.02788865  0.027739351            8 
 2288000   0.86567222   -6.4751176     765.1076  0.027866681  0.027732154            6 
 2289000   0.88545393   -6.4911906    765.15311  0.027856164  0.027724905           19 
 2290000   0.88791507   -6.4705048    764.96531  0.027837165  0.027717722            8 
 2291000   0.88237898    -6.488587    767.78903  0.027927726  0.027710539            7 
 2292000   0.89330411   -6.4896283    765.77258  0.027842226  0.027703349           12 
 2293000   0.86396149   -6.5026115    765.36245  0.027815178  0.027696041           12 
 2294000   0.87521152   -6.5259017    763.13604  0.027722175  0.027688704           21 
 2295000   0.88993049   -6.5050293    768.08973  0.027889968  0.027681356           10 
 2296000   0.87480781   -6.4707947    767.14865  0.027843665  0.027674098            7 
 2297000   0.88016367   -6.4726293    767.90807  0.027859094   0.02766689           14 
 2298000   0.88751956   -6.4611446    767.90715  0.027846937  0.027659666           19 
 2299000   0.87084573   -6.4659975     766.2174  0.027773575   0.02765247            8 
 2300000   0.88606514    -6.484528    766.67762  0.027778175  0.027645269            9 
 2301000   0.89174366   -6.5070976    767.14103  0.027782885  0.027637974            9 
 2302000   0.86728159   -6.4808668    768.74065  0.027828723  0.027630756           13 
 2303000   0.88526862   -6.4981298    767.72648  0.027779942  0.027623547            8 
 2304000   0.87750922   -6.4675502     769.8312   0.02784401  0.027616331           14 
 2305000   0.90084438   -6.5025707    766.15274  0.027698942  0.027609067            8 
 2306000   0.87379133   -6.5075474    769.71356   0.02781561  0.027601819            8 
 2307000   0.87557254   -6.4995613    768.50896  0.027760041  0.027594563           15 
 2308000   0.86778879   -6.4614573    770.87419  0.027833412  0.027587281           16 
 2309000   0.88994852   -6.4944006    768.40235  0.027732148  0.027580008           12 
 2310000   0.88446264   -6.5039018    766.47693  0.027650683  0.027572769           20 
 2311000   0.86757313   -6.4918878    768.39467  0.027707871  0.027565527           11 
 2312000   0.87226627   -6.4559083    768.81049  0.027710874  0.027558266           16 
 2313000    0.8591527   -6.5150964    768.43428  0.027685339  0.027551028            8 
 2314000   0.88475339   -6.4688741    769.30993   0.02770491  0.027543782           12 
 2315000   0.88126747   -6.4914828     768.9871  0.027681321  0.027536603           15 
 2316000   0.89681398   -6.4670169    770.71139  0.027731411  0.027529445           12 
 2317000   0.86093927    -6.489683    769.40739  0.027672543  0.027522213            8 
 2318000   0.88214179   -6.4867512    768.80528  0.027638959  0.027514963            5 
 2319000   0.89531276   -6.4466351    771.70621  0.027731285  0.027507765            5 
 2320000   0.86659376   -6.4608623    770.17156  0.027664208  0.027500521           10 
 2321000   0.87917518   -6.4978752    769.80725  0.027639209  0.027493252            8 
 2322000   0.88190019   -6.4602531     770.8255  0.027663849  0.027486036            8 
 2323000   0.90982674   -6.4679584    768.62663   0.02757306  0.027478842           13 
 2324000   0.87761042   -6.4867115    770.28594  0.027620695   0.02747162           12 
 2325000   0.86655894    -6.494936    771.33926  0.027646569  0.027464378            8 
 2326000   0.86721632   -6.4886187    769.48997  0.027568428  0.027457126           11 
 2327000   0.88872157   -6.4991178    770.43604  0.027590461  0.027449787           11 
 2328000   0.88111401   -6.5233785    769.38836  0.027541107  0.027442449           15 
 2329000   0.88267142   -6.5037982     769.6398  0.027538278  0.027435047           67 
 2330000   0.87338314    -6.489302    768.80103   0.02749646  0.027427643           47 
 2331000   0.90054728   -6.4882906    770.03098  0.027528635  0.027420299           26 
 2332000   0.85938444   -6.5003041    770.88444  0.027547329  0.027412976           14 
 2333000   0.89656134   -6.4690488    771.48998   0.02755715  0.027405618            8 
 2334000   0.87105109   -6.4967323    771.82856  0.027557432  0.027398244            9 
 2335000   0.87630089     -6.49405    768.85497  0.027439506   0.02739077           29 
 2336000   0.88259174   -6.5114659    769.37938  0.027446468  0.027383396           28 
 2337000   0.88114539    -6.499239    769.64013  0.027444021  0.027376014           17 
 2338000   0.90092258   -6.4898263    771.38974  0.027494644  0.027368665           15 
 2339000   0.89010101   -6.4925701    771.44863  0.027484987    0.0273613            5 
 2340000   0.87691016   -6.5175788    772.20636  0.027500227  0.027353952            6 
 2341000   0.87548886   -6.4704119     771.8936  0.027477346   0.02734659           12 
 2342000   0.87912454   -6.4934398    771.22521  0.027441831  0.027339195           18 
 2343000   0.88459875   -6.4737503    769.01389  0.027351468  0.027331772           10 
 2344000   0.89508185   -6.5072919    769.54447  0.027358663  0.027324337            7 
 2345000   0.87698288   -6.4903676    769.74806  0.027354231  0.027316898            4 
 2346000   0.87045077   -6.4876646    770.48577  0.027368776  0.027309498           19 
 2347000   0.86614916   -6.4833298     770.7377   0.02736606  0.027302144            8 
 2348000   0.88663069   -6.4931475    771.79182  0.027391816  0.027294681           22 
 2349000   0.87530455    -6.487392    771.12608  0.027356538  0.027287246           16 
 2350000    0.8741421   -6.5179285    771.06278  0.027342652  0.027279831           10 
 2351000   0.86956639    -6.496335    772.00533  0.027364431  0.027272437            6 
 2352000   0.86890079   -6.5038031    770.56719  0.027301842  0.027265011            6 
 2353000   0.87242554   -6.5167123    772.27933  0.027350876  0.027257564           18 
 2354000   0.87580205   -6.5071725    772.09074  0.027332581  0.027250111            7 
 2355000   0.87361199   -6.5043217    772.47159  0.027334451  0.027242671            4 
 2356000   0.88076475   -6.5457585    769.61596  0.027221844  0.027235286            7 
 2357000   0.88136708   -6.5046104      769.807  0.027217048  0.027227848            5 
 2358000   0.85607437   -6.5285284    774.16127  0.027359389  0.027220511           12 
 2359000   0.87735516   -6.5233139    773.55769  0.027326469  0.027213176           15 
 2360000   0.88229601   -6.5093955    773.95606  0.027328957  0.027205796           33 
 2361000   0.85930479   -6.4490876    774.49611  0.027336443  0.027198456           18 
 2362000   0.88171178   -6.4687326    771.10916  0.027205375  0.027191132            7 
 2363000   0.86617041    -6.494363    774.14332  0.027300865  0.027183829           12 
 2364000   0.90781045   -6.4902113     774.9063  0.027316212  0.027176467            5 
 2365000   0.86319887   -6.4965382    773.35436  0.027249978  0.027169104           10 
 2366000   0.86829226    -6.501376    773.72897  0.027251654  0.027161737           12 
 2367000   0.87358367   -6.5212289    773.09112  0.027217685  0.027154386           12 
 2368000   0.89292486   -6.5084121    775.77651  0.027300694  0.027147058           10 
 2369000   0.85212898   -6.4795297    774.15371  0.027232085  0.027139805           13 
 2370000   0.89532977   -6.5057435    773.12129  0.027184293  0.027132527            8 
 2371000   0.86490771    -6.508687    775.14933  0.027244107  0.027125185            7 
 2372000   0.88334515   -6.5086088    775.13341  0.027232062  0.027117902            7 
 2373000   0.85576448   -6.5043564    775.91424  0.027248007   0.02711064            9 
 2374000   0.85947257   -6.4893925    775.58656  0.027225027  0.027103374           20 
 2375000   0.85551748    -6.521333     775.2213  0.027200747  0.027096094            9 
 2376000   0.85738706   -6.5338168    774.38271  0.027159887  0.027088735            6 
 2377000   0.85708812   -6.4733731    777.10873  0.027244031  0.027081371           26 
 2378000   0.86166786   -6.4937332    774.71677  0.027148751  0.027074047            9 
 2379000   0.87622088   -6.4975711    774.76116  0.027138894  0.027066747           11 
 2380000   0.88283801   -6.4976988    775.55456  0.027155272  0.027059368            9 
 2381000   0.86368833   -6.5036446    777.15712  0.027199955  0.027051989            5 
 2382000   0.86850312   -6.5021707    777.48066  0.027199855  0.027044685            7 
 2383000   0.88243968   -6.5177929    774.74159  0.027092656   0.02703737            8 
 2384000   0.86647337    -6.511563    778.15029  0.027200444  0.027030085            9 
 2385000    0.8566484   -6.5189433     777.8731  0.027179353  0.027022843           34 
 2386000   0.85299253   -6.5429162    777.72882  0.027162923  0.027015571           20 
 2387000   0.87785472    -6.492276    776.72117  0.027116365  0.027008306            7 
 2388000   0.89789032   -6.4968476    778.95977   0.02718313  0.027001055           16 
 2389000   0.86881695   -6.5054265    776.30046  0.027078989  0.026993754           16 
 2390000   0.86590263   -6.5157055    778.13882  0.027131758  0.026986471           13 
 2391000   0.86097903   -6.5227459    777.61981  0.027102322  0.026979149            9 
 2392000   0.88303169   -6.4958055    776.67578  0.027058103  0.026971752           10 
 2393000    0.8676794   -6.5137959    780.20455  0.027169681  0.026964529            8 
 2394000   0.87216393   -6.5300884    777.79214  0.027074357   0.02695728           17 
 2395000   0.86533923   -6.4948237    778.80921  0.027098442  0.026950058            9 
 2396000   0.85241095   -6.4996606    779.46443   0.02710992  0.026942798           11 
 2397000   0.87523716   -6.5107904    777.88911  0.027043843  0.026935455           11 
 2398000   0.87729857   -6.5154247    775.93749  0.026964745   0.02692815           24 
 2399000   0.88603101   -6.5214026    777.75141  0.027016514  0.026920847            9 
 2400000   0.88745034   -6.4964133    778.25771  0.027022837  0.026913547            7 
 2401000   0.87638254   -6.5270454    776.82269  0.026961776  0.026906199           15 
 2402000   0.87364834   -6.5009806    776.56658  0.026941666  0.026898881            9 
 2403000   0.84308949   -6.5174043    778.15087  0.026985396  0.026891534           13 
 2404000   0.86026834   -6.5231673    779.02187  0.027004363  0.026884182           19 
 2405000   0.86815194   -6.4977283    776.59261  0.026908961  0.026876858           12 
 2406000   0.85666027   -6.4803894    779.42054  0.026995724   0.02686956           14 
 2407000   0.85599502   -6.5318268    779.83842  0.026998976  0.026862244           10 
 2408000   0.86553409   -6.5104047    779.87578  0.026989057  0.026854903            8 
 2409000    0.8738041   -6.4919257     781.6221  0.027038263  0.026847622            8 
 2410000   0.86823173   -6.5191745     779.5352  0.026954882  0.026840365           25 
 2411000   0.87050946   -6.5187653    778.85738  0.026920275  0.026833066           13 
 2412000   0.87218263   -6.4843547    780.86325  0.026978415  0.026825727           12 
 2413000   0.85964127   -6.5372091    778.55912  0.026887661  0.026818388           33 
 2414000   0.85882488   -6.4769405    780.70938  0.026950752  0.026811039           13 
 2415000   0.84797683   -6.5128457    781.54326  0.026968366  0.026803705           27 
 2416000   0.84854262   -6.5288661     779.2736  0.026878918  0.026796358           17 
 2417000   0.85665903   -6.5224335    781.07704  0.026929976  0.026789032            4 
 2418000   0.87406545   -6.4987819    780.30856  0.026892355  0.026781646           19 
 2419000   0.86395811   -6.5063219    780.82505   0.02689903  0.026774281           10 
 2420000   0.83956884   -6.5379347    780.02501  0.026860365  0.026766931           10 
 2421000   0.89659721   -6.5159846    779.43332  0.026828904  0.026759562            5 
 2422000    0.8599762   -6.5276072    780.92129  0.026869023  0.026752211           11 
 2423000   0.86967414   -6.5178303    780.89291  0.026856958  0.026744824           17 
 2424000   0.87373932   -6.5568337    780.34206  0.026826941  0.026737446           18 
 2425000   0.86523836    -6.552171    779.93856  0.026802012  0.026730076           19 
 2426000   0.85484265   -6.5406017    779.65966  0.026781384  0.026722728           14 
 2427000   0.85657312   -6.5205949    779.12516  0.026751997  0.026715349           59 
 2428000   0.84235367   -6.5473267    779.99779  0.026770929   0.02670794           18 
 2429000   0.86916819   -6.5150812    779.09825  0.026729046   0.02670058            6 
 2430000   0.85499749   -6.5150017    779.97139   0.02674799  0.026693209           12 
 2431000   0.87393902   -6.5286287    780.52386  0.026755926  0.026685793           17 
 2432000   0.86038703    -6.512273    780.06799  0.026729303  0.026678428           13 
 2433000   0.85251619   -6.5293412    784.13542  0.026857632  0.026671086            4 
 2434000   0.83326411   -6.5079483     781.8779  0.026769306  0.026663735            4 
 2435000   0.85119145   -6.5305564    780.78065  0.026720762  0.026656307           21 
 2436000   0.85155901   -6.5111846    781.38438  0.026730445  0.026648919           14 
 2437000   0.84604614   -6.5522897     783.3124  0.026785406  0.026641575            6 
 2438000   0.85699675   -6.5366115    781.81647  0.026723287  0.026634172            4 
 2439000   0.85976655   -6.5096496     781.9331  0.026716315  0.026626872           18 
 2440000   0.87328579    -6.530428    781.46027  0.026689217  0.026619503            9 
 2441000   0.86105487   -6.5297577     781.9649  0.026695511   0.02661209           21 
 2442000   0.83668504   -6.5449037    782.62341   0.02670705  0.026604669            5 
 2443000   0.86638789   -6.5230178    782.89181  0.026705274  0.026597243            8 
 2444000   0.86229108   -6.5570747    780.15789  0.026601128  0.026589762           13 
 2445000   0.86634818   -6.5302357     782.1862   0.02665938  0.026582316           10 
 2446000    0.8760788   -6.5297999    780.59763  0.026594359  0.026574825           10 
 2447000   0.85978301   -6.5484335    779.56462  0.026548312  0.026567297            8 
 2448000   0.85822483    -6.521829    782.30553  0.026630771  0.026559779            6 
 2449000   0.85208128   -6.5251046    781.29595  0.026585543  0.026552277           13 
 2450000   0.84556455   -6.5528857     781.9539  0.026597072  0.026544754            7 
 2451000    0.8609708   -6.5171619    779.73053  0.026510626  0.026537192           14 
 2452000   0.86025882   -6.5259963    780.49793  0.026525895  0.026529613            8 
 2453000    0.8622726   -6.5524472    783.19683  0.026606768  0.026522076           12 
 2454000   0.87072925   -6.5090357    782.61858   0.02657629  0.026514564           19 
 2455000   0.85427926   -6.5200016    783.27911  0.026587886  0.026507052           17 
 2456000   0.84229879   -6.5369171    781.33804  0.026511198  0.026499498           10 
 2457000   0.84550808   -6.5187362    782.58231   0.02654261  0.026491931           10 
 2458000   0.82928384   -6.4950381    782.88362  0.026542027  0.026484392           19 
 2459000   0.87226771   -6.5018407    783.36927  0.026547691  0.026476892            8 
 2460000   0.85201764   -6.5388531    781.03429  0.026457801  0.026469365           31 
 2461000   0.87005233   -6.5223418    782.45472  0.026495148  0.026461849           11 
 2462000   0.84618606   -6.5452161    783.54416  0.026521262  0.026454334           25 
 2463000   0.83701485   -6.5211463    782.68819  0.026481533  0.026446816           17 
 2464000   0.84775206   -6.5190835    781.00537  0.026413872  0.026439293           10 
 2465000    0.8588791   -6.5331536    783.57727  0.026490104  0.026431782            7 
 2466000   0.84904658    -6.545213    782.63328  0.026447461  0.026424217           18 
 2467000   0.86470754   -6.5409213    783.43268  0.026463744  0.026416713           17 
 2468000   0.84203318   -6.5287717     784.6473  0.026494034  0.026409195            8 
 2469000   0.86366224   -6.5609145    784.61788   0.02648231  0.026401736            5 
 2470000   0.85908114   -6.5303262    782.10653   0.02638686  0.026394274           12 
 2471000   0.86258691   -6.5470488    782.50468  0.026389609   0.02638682           12 
 2472000   0.86952826   -6.5411704    783.70047  0.026419245  0.026379321            9 
 2473000    0.8767384   -6.5584291    783.72828  0.026409498  0.026371859           13 
 2474000   0.85412312   -6.5571542    784.21311  0.026415155  0.026364369            7 
 2475000   0.86198002   -6.5394303    784.40303  0.026410876  0.026356897           13 
 2476000   0.85260128   -6.5638937    783.62901  0.026374159  0.026349421           24 
 2477000   0.86444434   -6.5334193    785.49215  0.026426193  0.026341964           18 
 2478000    0.8695701   -6.5604988    783.70843  0.026355543   0.02633455           30 
 2479000   0.84641456   -6.5637539    786.54652  0.026440316  0.026327133           13 
 2480000   0.85530279   -6.5366241    783.97911  0.026343384  0.026319717           15 
 2481000   0.85334549   -6.5519322    787.08344  0.026437036  0.026312368            8 
 2482000   0.84759221   -6.5555369    784.91631  0.026353623  0.026304984            8 
 2483000    0.8585491   -6.5404721    788.17181  0.026452269  0.026297617            7 
 2484000    0.8736141   -6.5115937     785.8724  0.026364479  0.026290238           12 
 2485000   0.83887863   -6.5312548    787.45696  0.026407007  0.026282893            5 
 2486000   0.84642228   -6.5571057      785.388  0.026327031   0.02627554           10 
 2487000   0.86027356   -6.5344017    787.30445  0.026380661  0.026268133           20 
 2488000    0.8434893   -6.5738914    786.52234  0.026343862  0.026260788           14 
 2489000    0.8465893    -6.514567    785.63606  0.026303605  0.026253418           14 
 2490000   0.85643956   -6.5430607    785.43088  0.026286174  0.026246051           19 
 2491000   0.85095629   -6.5197784    787.94193  0.026359625  0.026238654           20 
 2492000   0.84582684    -6.574814    786.56243  0.026302917   0.02623127           21 
 2493000   0.85180688   -6.5449066    788.40707  0.026354027   0.02622381            9 
 2494000    0.8688096   -6.5610192    787.09137  0.026299498  0.026216393            7 
 2495000   0.84287133   -6.5697284    786.98446  0.026285386  0.026208966            5 
 2496000   0.85284645   -6.5347613    786.08605   0.02624486   0.02620152            6 
 2497000   0.85307921   -6.5316456    785.56204  0.026216862  0.026194076           13 
 2498000   0.86615504   -6.5512083    787.95753   0.02628628  0.026186638           14 
 2499000   0.85231823   -6.5339669    787.43423  0.026258311  0.026179204            5 
 2500000   0.84199347   -6.5635317    786.35326  0.026211775  0.026171793           17 
 2501000   0.85935342   -6.5709007    786.96511  0.026221682  0.026164318           15 
 2502000    0.8481107   -6.5388981    787.73848   0.02623696  0.026156884            9 
 2503000   0.84527234     -6.54935    788.54774   0.02625342   0.02614949            9 
 2504000   0.85098669    -6.543126    788.14918  0.026229672   0.02614209           12 
 2505000   0.84204587   -6.5606828    788.09375  0.026217357    0.0261347           14 
 2506000   0.84003537   -6.5079144     788.8619  0.026232439  0.026127319           11 
 2507000   0.84064831   -6.5529738    789.45338  0.026241636  0.026119933           12 
 2508000   0.84584119   -6.5326236    788.62293   0.02620358  0.026112558           18 
 2509000   0.85784396   -6.5373997    789.49229   0.02622201  0.026105168            5 
 2510000     0.851345   -6.5562025    787.41289  0.026142526  0.026097805            9 
 2511000   0.83317279   -6.5142732    788.41493   0.02616537  0.026090441           15 
 2512000   0.84525818   -6.5450334    789.87969  0.026203546  0.026083104            8 
 2513000   0.85730864   -6.5574407    790.20159  0.026203793  0.026075767            9 
 2514000    0.8380015   -6.5452459    790.63036  0.026207583  0.026068422           11 
 2515000   0.84199344   -6.5329253    789.35903  0.026155037  0.026061111            9 
 2516000   0.86833501   -6.5214262    790.41767  0.026179706  0.026053782           17 
 2517000   0.84892483   -6.5662256      790.602  0.026175407  0.026046465            9 
 2518000   0.84294019   -6.5473787    791.24271  0.026186216  0.026039131            9 
 2519000   0.85217817   -6.5451653    791.37658   0.02618025  0.026031855           16 
 2520000   0.84553555   -6.5258145    789.93502   0.02612219  0.026024582           18 
 2521000   0.83747399   -6.5622911    790.52109  0.026131201  0.026017254           18 
 2522000   0.82962732    -6.536474    791.00463  0.026136817  0.026009992           20 
 2523000   0.84601552   -6.5501065    791.05099  0.026127989  0.026002695           19 
 2524000   0.84725571   -6.5708077    790.05724  0.026084827  0.025995368           15 
 2525000   0.83216564   -6.5243835    791.35188  0.026117224  0.025988097           13 
 2526000   0.84577282   -6.5449698    791.46443  0.026110597  0.025980831            9 
 2527000   0.85036705   -6.5420377    791.70084  0.026108061  0.025973561           24 
 2528000   0.84392552   -6.5403567    791.80504  0.026101168  0.025966253            9 
 2529000   0.84573634   -6.5513336    793.11914  0.026134148  0.025959002            5 
 2530000    0.8454552   -6.5169214    792.97552  0.026119088   0.02595173           21 
 2531000   0.85054686   -6.5459672    792.55787  0.026095017   0.02594445           13 
 2532000   0.84634703   -6.5487606    793.91917  0.026129515  0.025937172            7 
 2533000   0.86226806   -6.5765229    792.49918  0.026072483  0.025929936           18 
 2534000   0.84119356   -6.5335222    792.42054  0.026059607  0.025922701            7 
 2535000   0.85023355   -6.5360456    793.86099  0.026096679  0.025915471            9 
 2536000   0.84579326   -6.5406423    793.43335  0.026072337  0.025908228           11 
 2537000   0.85089484   -6.5425022    792.02258   0.02601572  0.025900991           31 
 2538000   0.84224187   -6.5534908     794.0387  0.026071667  0.025893741           14 
 2539000   0.85241008   -6.5587636    793.50009  0.026043721  0.025886535           14 
 2540000   0.85296384   -6.5565558    793.73491  0.026041172  0.025879333           18 
 2541000   0.83345766   -6.5485034     794.2541   0.02604795  0.025872128           18 
 2542000   0.84893531   -6.5493799    794.24109  0.026037277  0.025864941           25 
 2543000   0.83642003   -6.5435037    793.50266   0.02600284  0.025857729           22 
 2544000   0.85028698   -6.5714104    792.60651  0.025963263  0.025850495           13 
 2545000    0.8636475   -6.5821337    792.92077  0.025963352  0.025843229           13 
 2546000   0.85493612   -6.5681406    794.38887  0.026001207  0.025835956           15 
 2547000    0.8395514   -6.5695952    791.77431  0.025905455  0.025828737           26 
 2548000   0.84257447   -6.5574363    794.04725  0.025969625  0.025821535           14 
 2549000   0.85510706   -6.5313721    794.18738  0.025964018   0.02581431           16 
 2550000   0.83692711   -6.5561976    793.20683  0.025921792  0.025807028            8 
 2551000   0.84121258   -6.5651747    791.97557  0.025871409   0.02579972           14 
 2552000   0.83258867   -6.5693129    793.65645  0.025916159  0.025792423           28 
 2553000   0.82553921   -6.5729006    793.22022  0.025891768  0.025785097           10 
 2554000   0.83933361   -6.5939969    793.58852  0.025893648  0.025777742           15 
 2555000   0.83293214   -6.5720505    794.20747  0.025903701  0.025770427           17 
 2556000    0.8355807    -6.566159     793.8791  0.025882861  0.025763156           12 
 2557000   0.83470577   -6.5740094    794.89816   0.02590595  0.025755895            8 
 2558000   0.84552349   -6.5700699    792.44991  0.025816064  0.025748636           10 
 2559000   0.85813277   -6.5398889    793.19841  0.025830351  0.025741363           12 
 2560000   0.86052134   -6.5482481    794.40619  0.025859577  0.025734095           13 
 2561000   0.84251594   -6.5622665    795.31912  0.025879185  0.025726831           16 
 2562000   0.83552965   -6.5576645    795.56483  0.025877076  0.025719556           16 
 2563000   0.84017074   -6.5715311    797.52527  0.025930721  0.025712354           11 
 2564000    0.8394886   -6.6068779    796.78036  0.025896398  0.025705115           20 
 2565000   0.85241035   -6.5737003    795.02047  0.025829125   0.02569789           29 
 2566000   0.85328989   -6.5755023    794.43686  0.025800106  0.025690629           16 
 2567000   0.84634021   -6.5706969    797.48663  0.025889061  0.025683407           18 
 2568000   0.82785594   -6.5529289    797.34948  0.025874529  0.025676189           10 
 2569000   0.85361798   -6.5661934    795.15932  0.025793412   0.02566902           12 
 2570000    0.8457479    -6.573605    797.22981  0.025850513  0.025661887           30 
 2571000   0.85730418   -6.5710145    797.61074  0.025852805  0.025654762            8 
 2572000   0.83884937   -6.5955725    797.50557  0.025839346  0.025647619           19 
 2573000   0.84033376   -6.5722399    796.39007  0.025793175  0.025640435           31 
 2574000     0.821116   -6.5800254    797.29171  0.025812345  0.025633208           30 
 2575000   0.84314293   -6.5931234    795.83165   0.02575507  0.025625938           33 
 2576000   0.84218365   -6.5719298    795.26326  0.025726684  0.025618695           24 
 2577000    0.8304183   -6.5601926    798.39383  0.025817935  0.025611475           28 
 2578000   0.82577855   -6.5785942    794.91235  0.025695382  0.025604211           35 
 2579000   0.83235689   -6.5981625    797.89322  0.025781738   0.02559699           43 
 2580000   0.83748768   -6.5724974    798.63035  0.025795554  0.025589829           17 
 2581000     0.832686   -6.5560707    797.48771  0.025748667  0.025582645           30 
 2582000   0.82584816   -6.5720938    797.17886  0.025728726  0.025575442           39 
 2583000   0.81673258   -6.5728038    797.56367  0.025731181  0.025568216           23 
 2584000   0.84371972   -6.5743082    798.72382  0.025758637  0.025561017           23 
 2585000   0.85359077   -6.5777981    796.80734  0.025686891  0.025553852           14 
 2586000     0.832471   -6.5755725    797.22832  0.025690523  0.025546678           15 
 2587000   0.83381264   -6.6076992    797.20181  0.025679739  0.025539468           14 
 2588000   0.82325047   -6.6042002    798.03338  0.025696593  0.025532234           13 
 2589000   0.83160109   -6.5490987    798.66779  0.025707087  0.025524983           24 
 2590000   0.84851259   -6.5652952    800.02057  0.025740688  0.025517804            8 
 2591000   0.84872014   -6.5799765    797.65247  0.025654589  0.025510661           16 
 2592000   0.82210633   -6.5494353    798.51097  0.025672292  0.025503521           15 
 2593000   0.82842525   -6.5830556    798.10509  0.025649347  0.025496328           11 
 2594000   0.83829789   -6.5797127    796.56852  0.025590096  0.025489096           13 
 2595000    0.8406189   -6.5717913    800.42169  0.025703972  0.025481897           18 
 2596000   0.83480244   -6.5622021    797.84793  0.025611451  0.025474682           10 
 2597000   0.83928853    -6.602158    799.03394  0.025639647  0.025467511           16 
 2598000   0.83997681   -6.5793255    798.67042  0.025618117  0.025460295           10 
 2599000   0.82468408   -6.5998834    799.19378  0.025625041  0.025453116           12 
 2600000   0.82880651   -6.5695293    799.87444  0.025637001  0.025446022           11 
 2601000    0.8445905   -6.5586498    802.36087  0.025706807  0.025438891           13 
 2602000   0.83712647   -6.5614943    800.45485  0.025635884  0.025431748            9 
 2603000   0.85149689   -6.5766304    802.44305  0.025689686  0.025424632           13 
 2604000   0.84494434   -6.5789589    800.91807  0.025631018   0.02541755           10 
 2605000   0.83418705    -6.565483    801.64771   0.02564452  0.025410488           26 
 2606000    0.8463087   -6.5868803    801.88207  0.025642174  0.025403383           15 
 2607000   0.83759681   -6.5919295    799.26252  0.025548604  0.025396288           16 
 2608000    0.8373731   -6.5656296    800.43223  0.025576183  0.025389225           54 
 2609000   0.81864516   -6.6159771    801.06481  0.025586585  0.025382117           55 
 2610000   0.83916244   -6.6350459    799.91244  0.025539988  0.025374953           24 
 2611000   0.82290843   -6.5788199    800.35779  0.025544421  0.025367819           28 
 2612000   0.85792674   -6.5902429    801.93585  0.025584988  0.025360752           18 
 2613000   0.83881478   -6.5938006     800.8096  0.025539278  0.025353632           14 
 2614000   0.81941477   -6.5739575    801.34328  0.025546521  0.025346533           13 
 2615000   0.82254434   -6.5888626     802.5852  0.025576329  0.025339482           18 
 2616000   0.83880953   -6.6205436    801.07263  0.025518369  0.025332396           17 
 2617000   0.82352037   -6.6094009     799.8694  0.025470303  0.025325299           22 
 2618000   0.83266032   -6.5873353    801.40441  0.025509435  0.025318194            8 
 2619000   0.81095783   -6.5892765    802.69589  0.025540788  0.025311077           22 
 2620000   0.82700334   -6.6082872    802.23219  0.025516291  0.025303975           22 
 2621000   0.85235223   -6.5894996    805.38264  0.025606723  0.025296957           15 
 2622000   0.82979758    -6.589426    800.81038  0.025451639  0.025289894           15 
 2623000   0.81424196   -6.5908564    801.27201  0.025456602  0.025282796           10 
 2624000   0.82751507   -6.5876802    802.95027  0.025500199  0.025275731           14 
 2625000   0.84756767   -6.6119646    801.86304   0.02545597  0.025268698           24 
 2626000    0.8360414   -6.6079893    802.21012   0.02545729  0.025261573           24 
 2627000   0.82073112    -6.591619    801.82585  0.025435409  0.025254477           20 
 2628000   0.84223818   -6.5770253    802.15881  0.025436289  0.025247422           11 
 2629000   0.82794141    -6.599452    804.49769  0.025500751  0.025240402            8 
 2630000   0.83800969   -6.5835241    802.98679  0.025443181  0.025233341            6 
 2631000   0.84451747   -6.5969388    801.13796  0.025374951  0.025226265           14 
 2632000   0.83016692   -6.5690073    802.85942  0.025419815  0.025219158           15 
 2633000   0.83040156   -6.5846581    803.40945  0.025427568  0.025212052           29 
 2634000   0.82941007   -6.6047832    803.74002  0.025428373  0.025204971           17 
 2635000   0.82648809   -6.5915315    801.90596   0.02536072  0.025197879           13 
 2636000   0.81111006   -6.5958586    803.68343  0.025407291  0.025190773            6 
 2637000   0.82962178   -6.5569424    802.99895  0.025376026  0.025183664           12 
 2638000   0.83308513    -6.601216    801.66982  0.025324419  0.025176554           18 
 2639000   0.82243999   -6.5837998     805.1288   0.02542405  0.025169466           18 
 2640000   0.84682447   -6.5840699    804.33449  0.025389346  0.025162383           13 
 2641000    0.8203426   -6.5653735     804.3067  0.025378856  0.025155305           11 
 2642000   0.81821946   -6.5978777    803.04841  0.025329561  0.025148215           15 
 2643000   0.83480159   -6.6196961    801.49837  0.025271105  0.025141087           26 
 2644000   0.83383219   -6.5616606    804.59474  0.025359138  0.025134049           26 
 2645000   0.83347085   -6.5810093    803.43548  0.025313027   0.02512702           11 
 2646000   0.82905885   -6.6207918    804.32948  0.025331616  0.025119956           15 
 2647000   0.83559174   -6.5977632    804.61559  0.025331054  0.025112917           34 
 2648000   0.81384971    -6.596958    804.05908  0.025303974  0.025105802           23 
 2649000   0.84207887   -6.5923952    805.06888  0.025326188  0.025098737           22 
 2650000    0.8348838   -6.6055204    802.13409  0.025224343  0.025091651           12 
 2651000   0.83480148    -6.584743    803.63667   0.02526206  0.025084555           15 
 2652000   0.82098291   -6.6132652    804.46966   0.02527871  0.025077407           15 
 2653000   0.82959821   -6.6083277    802.53544  0.025208426  0.025070272           20 
 2654000   0.83401729    -6.618176    803.10678  0.025216867  0.025063153           29 
 2655000   0.81814685   -6.5907019    804.17073  0.025240764  0.025056034           14 
 2656000   0.82929656   -6.5937043    805.02948  0.025258204  0.025048954            8 
 2657000   0.84961517   -6.6067334    805.17134  0.025253147   0.02504187           15 
 2658000   0.83999523    -6.591556    804.92696  0.025235984  0.025034794            8 
 2659000     0.813178   -6.5892234    801.38171  0.025115385   0.02502768           23 
 2660000   0.81548764    -6.593829    805.06822  0.025221435   0.02502055           27 
 2661000   0.83926151   -6.5796285     804.6148  0.025197758  0.025013418           24 
 2662000   0.80644652   -6.6246585    803.87877  0.025165251   0.02500628           20 
 2663000   0.83025744   -6.6167008    803.43611  0.025141949  0.024999114            7 
 2664000   0.83019365   -6.5837758    805.93405   0.02521065  0.024991989           15 
 2665000   0.83334365   -6.6046794        806.4   0.02521576  0.024984885           17 
 2666000   0.80272431   -6.5997216    805.35177  0.025173536  0.024977823            7 
 2667000   0.83355967   -6.5743702    805.32808  0.025163357  0.024970739           17 
 2668000   0.83161318   -6.6063164    806.17719  0.025180447  0.024963713           27 
 2669000   0.83389465    -6.631098    804.76484  0.025126915  0.024956624           37 
 2670000   0.81163459   -6.5994028     806.7299  0.025178836   0.02494958           16 
 2671000   0.82862089   -6.6113593    805.54415  0.025132414  0.024942538           13 
 2672000    0.8278308   -6.6024222    808.87488  0.025226886  0.024935492           18 
 2673000   0.82402411   -6.5937138     808.2031  0.025196505   0.02492846           18 
 2674000   0.82419711   -6.5950509    808.08214  0.025183313  0.024921426           21 
 2675000   0.82946627   -6.6066185    807.01428  0.025140632  0.024914402           25 
 2676000   0.82564023   -6.6056336    806.53876  0.025116429   0.02490738            9 
 2677000   0.81832031   -6.5966965    806.44281   0.02510406  0.024900351           16 
 2678000   0.83781178   -6.5958491    806.69421  0.025102508  0.024893301           10 
 2679000   0.82194503   -6.5950859    808.16923   0.02513902  0.024886292           23 
 2680000   0.81961791   -6.5909966     807.4394  0.025106947  0.024879249            8 
 2681000   0.81464021   -6.5847988    809.64256  0.025166062  0.024872265            9 
 2682000   0.81415772   -6.5723427    808.44765  0.025119552  0.024865297           31 
 2683000   0.81921345   -6.5829566    808.96405  0.025126229  0.024858299           13 
 2684000   0.81260866   -6.6138067    808.61608  0.025106063  0.024851266            9 
 2685000   0.81183633    -6.639904    808.05307  0.025079239  0.024844268           13 
 2686000   0.82880005   -6.5848217    810.28331  0.025139095  0.024837303           16 
 2687000   0.81791147   -6.5979769    808.51287  0.025074832  0.024830319            4 
 2688000    0.8260244   -6.6020958    808.67285  0.025070463  0.024823305           15 
 2689000   0.81683897   -6.6001766    809.41125  0.025084023  0.024816318            8 
 2690000   0.80002021   -6.6100188    808.72144  0.025053328  0.024809292            8 
 2691000   0.82064528   -6.6199921    808.74773  0.025044832  0.024802255           23 
 2692000   0.82737644   -6.5799808    807.64983  0.025001543  0.024795272           20 
 2693000   0.83137103   -6.5798585    809.02358  0.025034769  0.024788268           13 
 2694000   0.81769053   -6.5931349    809.52043  0.025040845   0.02478124           11 
 2695000   0.81851944   -6.6064495    808.78665  0.025008864  0.024774208           23 
 2696000   0.81489827   -6.6290282    808.96618  0.025005137  0.024767151           21 
 2697000   0.80715213   -6.6086532    810.02126  0.025028465  0.024760112           27 
 2698000   0.81566291   -6.6111312    808.43164   0.02497009  0.024753077           21 
 2699000   0.82640901   -6.6002198    809.08804  0.024981105  0.024746101           12 
 2700000   0.82753498   -6.6018981    807.99748  0.024938194  0.024739082           21 
 2701000   0.83517887   -6.5855709    810.12279  0.024994533  0.024732019           12 
 2702000   0.83360042   -6.6001326    808.52429  0.024935982  0.024724971           27 
 2703000   0.82000251   -6.5965039    809.59213  0.024959678  0.024717902           21 
 2704000   0.82386827   -6.6230647    809.07505  0.024934512  0.024710813           42 
 2705000   0.82401369   -6.6482901     807.8355  0.024887107  0.024703686           49 
 2706000   0.82086602   -6.6501479     807.5096  0.024867874  0.024696568           58 
 2707000   0.81684663   -6.5948726    808.96891  0.024903611  0.024689497           46 
 2708000   0.82558118   -6.6334957     809.6844  0.024916433  0.024682513           30 
 2709000   0.80544482   -6.5868529    808.27551  0.024863895   0.02467552           38 
 2710000   0.81400507   -6.6211547    809.49227  0.024892136  0.024668525           26 
 2711000   0.82138214   -6.6269878    810.28537  0.024907334  0.024661495           35 
 2712000   0.79175666   -6.6230841    809.28451  0.024867395  0.024654459            8 
 2713000   0.82309109   -6.6123353    809.30338  0.024858809  0.024647429           16 
 2714000   0.80681051   -6.6160675    810.52416  0.024887133  0.024640436           13 
 2715000   0.81398739   -6.6063774    810.39352  0.024873957  0.024633496           10 
 2716000   0.83295883   -6.6332458     810.2802  0.024861322  0.024626504           11 
 2717000   0.83652858    -6.596135    810.80941  0.024868403  0.024619528            9 
 2718000   0.79156289   -6.5662906    810.13959  0.024838717  0.024612598           10 
 2719000   0.81819864   -6.5914299    810.95122  0.024854457  0.024605673           37 
 2720000   0.81895523   -6.5892575    812.27954  0.024886015  0.024598757           23 
 2721000   0.81399523   -6.5985436    811.54821  0.024854472  0.024591807           25 
 2722000   0.81932465   -6.6207529    811.06617  0.024830583   0.02458484           18 
 2723000   0.81347163   -6.6114916      813.229  0.024887654  0.024577911           29 
 2724000   0.81327132   -6.6134037    812.73793  0.024863495  0.024571011           18 
 2725000   0.79012248   -6.6165732    813.07262  0.024864606  0.024564165           34 
 2726000   0.81611306   -6.6406052    813.39213  0.024865252  0.024557282           16 
 2727000     0.816544   -6.6044719    812.23539  0.024820786  0.024550348           10 
 2728000   0.81406818   -6.6095336    812.23972  0.024811819    0.0245434            8 
 2729000   0.82061624   -6.6171781    811.84553   0.02479069   0.02453651           20 
 2730000   0.82881153   -6.6127171    812.75169   0.02480927  0.024529657           10 
 2731000    0.8142298    -6.630802    813.80058  0.024832191  0.024522779           13 
 2732000   0.81027728   -6.6316265    814.24538   0.02483667  0.024515891           21 
 2733000   0.81589364   -6.6287075    813.66089   0.02480976   0.02450901           16 
 2734000   0.81006018   -6.6183796    814.16453  0.024816037   0.02450214           31 
 2735000   0.81854481   -6.6120473    814.10254  0.024805074  0.024495282           12 
 2736000   0.82757599   -6.6068446    813.42142  0.024775263  0.024488448           16 
 2737000   0.80268333   -6.6444253    814.30351  0.024793068   0.02448155           19 
 2738000   0.81376585   -6.6023984    814.66688  0.024795072  0.024474663           30 
 2739000   0.80113193   -6.6114749    812.65407   0.02472478  0.024467814           14 
 2740000   0.79836497   -6.6239839     814.8187  0.024781591   0.02446098           16 
 2741000   0.81360566    -6.620683    815.27364  0.024786381  0.024454132           11 
 2742000   0.80971888   -6.6211815    815.42351  0.024781896  0.024447298           12 
 2743000   0.82079692   -6.6174036    814.41364  0.024742181  0.024440516           16 
 2744000   0.80853267   -6.6442238    815.40006  0.024763121  0.024433736           27 
 2745000   0.81873124   -6.6382739    815.16867  0.024747075  0.024426943           29 
 2746000   0.81328383   -6.6343918    813.65701  0.024692189  0.024420102           35 
 2747000    0.8185255   -6.6340913    815.53265    0.0247401  0.024413255            8 
 2748000   0.83079519   -6.6261265    818.64126  0.024825366  0.024406428            8 
 2749000   0.80521802   -6.6274608    816.19482  0.024742174  0.024399647           16 
 2750000   0.81204803   -6.6550106     815.0488  0.024698448   0.02439282           33 
 2751000   0.82321466   -6.6148005    818.02641  0.024779668  0.024386023           18 
 2752000    0.8103475   -6.6331283    816.78307  0.024733014  0.024379291           33 
 2753000   0.81580155   -6.6476546    814.89684  0.024666934  0.024372473           27 
 2754000   0.81729832   -6.6421042    815.53025  0.024677144  0.024365633           24 
 2755000   0.81929721   -6.6180509    818.47888  0.024757377  0.024358801           24 
 2756000   0.82591922   -6.6357138    815.81502  0.024667847  0.024351949           24 
 2757000   0.81876617   -6.6022007    814.85473  0.024629873  0.024345112           19 
 2758000   0.80733738   -6.6255306    817.15465  0.024690435  0.024338246           22 
 2759000   0.78735903   -6.5938526    815.97535  0.024645867  0.024331417           16 
 2760000   0.79557793   -6.6019629    815.14881  0.024611981  0.024324573            8 
 2761000   0.83614488   -6.6528237    814.66584   0.02458849  0.024317701           40 
 2762000    0.8234061   -6.6291237    814.52603  0.024575369  0.024310812           40 
 2763000   0.80860653   -6.6371959    816.66956  0.024631124  0.024303937           11 
 2764000   0.80289896   -6.6264064    815.19703  0.024577817  0.024297083           24 
 2765000   0.79999525   -6.6253082     816.0191  0.024593704  0.024290276           16 
 2766000   0.79582462   -6.6018299     816.9779  0.024613699  0.024283518           37 
 2767000   0.81700795   -6.6474019    817.77229  0.024628728  0.024276698           20 
 2768000   0.82263927   -6.6380054    817.08275  0.024599071  0.024269856            9 
 2769000   0.80370027   -6.6619132    817.49427  0.024602572   0.02426303           11 
 2770000   0.79087349   -6.6384892    817.76079  0.024601708  0.024256216           11 
 2771000   0.80776405   -6.6399709    817.45802  0.024583725  0.024249451           13 
 2772000   0.80447209   -6.6395215     817.5149  0.024576566  0.024242673            8 
 2773000   0.81273835   -6.6343093    818.62011  0.024600917  0.024235894           58 
 2774000   0.80426432   -6.6369536    816.29787  0.024522286  0.024229136           26 
 2775000   0.80833008   -6.6437206    818.19223  0.024570337  0.024222362           28 
 2776000   0.81262309   -6.6221775    818.46438  0.024569656  0.024215655           21 
 2777000   0.80010166   -6.6290561    816.94058  0.024515082  0.024208901           19 
 2778000   0.81238514   -6.6453176    817.53994  0.024524236   0.02420217           28 
 2779000   0.79605038   -6.6660619    817.84809  0.024524652  0.024195444           17 
 2780000   0.81207812   -6.6296472     820.3121  0.024589691  0.024188696           17 
 2781000   0.80415333   -6.6303975    821.02467  0.024602202  0.024181983           32 
 2782000   0.80447873   -6.6571913      819.119  0.024536275  0.024175283           12 
 2783000    0.8363774   -6.6398386    819.86348  0.024549751  0.024168555           15 
 2784000   0.80189203   -6.6480984    820.25128  0.024552541   0.02416184           13 
 2785000   0.79817171   -6.6437247     820.9233  0.024563833  0.024155133            9 
 2786000   0.80635878   -6.6498109    818.91165  0.024494845  0.024148409           15 
 2787000   0.79977303   -6.6536379    818.55187  0.024475298  0.024141661           20 
 2788000   0.80418861   -6.6467816    818.91589    0.0244774  0.024134922           28 
 2789000    0.8081879   -6.6627892    818.56053  0.024458006  0.024128166           41 
 2790000   0.80019315   -6.6626124    819.36251  0.024473193  0.024121443           36 
 2791000   0.82321302   -6.6530032    817.92547  0.024421518  0.024114712           54 
 2792000   0.79725852   -6.6413057    819.68167  0.024465188  0.024107991           16 
 2793000    0.8019429   -6.6428136    819.43966  0.024449208  0.024101271           25 
 2794000   0.78816086   -6.6458143    820.54422  0.024473402  0.024094528           24 
 2795000   0.83152768   -6.6504253    821.01364  0.024478641   0.02408781           18 
 2796000   0.80825078    -6.616275    819.11294  0.024413237  0.024081123           36 
 2797000   0.79028217   -6.6335155    819.85122  0.024426505  0.024074408           16 
 2798000   0.79256971   -6.6445544    819.76637  0.024415248  0.024067722            6 
 2799000   0.80238921   -6.6766593    819.73121  0.024405478  0.024060992           25 
 2800000   0.80434126   -6.6503498    821.54634  0.024450784  0.024054247           26 
 2801000   0.81380536   -6.6523917    819.02328   0.02436699  0.024047513           16 
 2802000   0.79270059    -6.652634    821.93739  0.024444962  0.024040813           15 
 2803000   0.79599286   -6.6573361    820.41914  0.024391103  0.024034115           18 
 2804000   0.80640501   -6.6196219    823.55459  0.024475588  0.024027455           18 
 2805000   0.79992817   -6.6290467    820.93741  0.024389109  0.024020782            9 
 2806000   0.79964713   -6.5777586    823.83463   0.02446646  0.024014115            6 
 2807000   0.80555003   -6.6464681    822.49163  0.024417873  0.024007475           29 
 2808000   0.80856893    -6.654888    822.44487  0.024407789  0.024000801           20 
 2809000   0.79483708   -6.6435939    819.62403  0.024315416  0.023994095           17 
 2810000   0.79384023   -6.6234594    822.03639  0.024378303  0.023987421           16 
 2811000    0.8148191   -6.6025274    822.89754   0.02439516  0.023980774           20 
 2812000   0.80292861   -6.6406128    822.79924  0.024383572  0.023974111           31 
 2813000   0.79496552   -6.6480727    822.70772  0.024372192  0.023967442           18 
 2814000   0.80555759   -6.6127283    824.93891  0.024429605  0.023960796           19 
 2815000   0.78964828   -6.6334653    821.55606  0.024320783  0.023954179           29 
 2816000   0.80735041   -6.6518575    820.99148  0.024295439   0.02394752           22 
 2817000   0.78770187   -6.6718122    823.34662  0.024356485  0.023940841           29 
 2818000   0.80601034   -6.6534924     821.8263  0.024302883  0.023934199           25 
 2819000   0.79038469   -6.6562802    823.17308  0.024334075  0.023927535           12 
 2820000   0.81385864   -6.6348773    824.03427  0.024350894  0.023920898           29 
 2821000   0.81777142   -6.6639374    821.63697  0.024271445  0.023914259           18 
 2822000   0.79993174   -6.6836456     822.1736  0.024278691  0.023907575           16 
 2823000   0.79447195   -6.6595601    820.07239  0.024208065  0.023900873           24 
 2824000   0.79593735   -6.6326417     822.7497  0.024278497  0.023894233           20 
 2825000   0.79319673   -6.6526765    824.28841  0.024315292  0.023887565           33 
 2826000   0.79805628     -6.63811    823.17621  0.024273892  0.023880951           18 
 2827000   0.80217272   -6.6491516    824.71564  0.024310684  0.023874333           27 
 2828000   0.79678676    -6.664965    824.06258  0.024282844  0.023867695           25 
 2829000   0.78023979   -6.6702212    823.82246  0.024267187  0.023861074           26 
 2830000   0.80491864   -6.6520377    824.10843  0.024267033  0.023854446           24 
 2831000   0.79302196   -6.6440596    823.83626  0.024250449  0.023847831           45 
 2832000   0.79587989   -6.6239076    823.12358  0.024220915   0.02384121           13 
 2833000   0.80049519   -6.6407451     825.7868  0.024290705  0.023834595           16 
 2834000   0.80103939    -6.625175    823.00404  0.024200307  0.023827953           18 
 2835000   0.78784384   -6.6230425    825.09523   0.02425324  0.023821342           19 
 2836000   0.78478974    -6.624234    823.89913  0.024209542  0.023814754           15 
 2837000   0.79764977   -6.6589405    823.28777   0.02418305  0.023808113           11 
 2838000   0.80620813   -6.6437363    825.56137   0.02424129  0.023801477           17 
 2839000   0.79603928   -6.6333974    824.25764  0.024194483  0.023794863            8 
 2840000   0.79405767   -6.6587714    823.79276  0.024172323  0.023788258           23 
 2841000   0.80008758   -6.6643288     822.7861  0.024134287  0.023781629           17 
 2842000   0.79114206   -6.6641744    823.89384  0.024158276  0.023774986           17 
 2843000   0.79778111   -6.6715936      825.533  0.024197825  0.023768361           17 
 2844000   0.79719085    -6.653913    825.04702  0.024175077  0.023761715           71 
 2845000   0.81606407   -6.6592189    825.09047  0.024167852  0.023755101           32 
 2846000   0.79800456   -6.6511192    824.00621  0.024127612  0.023748488           22 
 2847000   0.78384928   -6.6485059    826.01389  0.024177903   0.02374184           10 
 2848000   0.80909269   -6.6605295    825.35116  0.024150022  0.023735229           14 
 2849000   0.79682414   -6.6398802    824.91977  0.024128927  0.023728612           22 
 2850000   0.80893839   -6.6664767    824.74382  0.024115316  0.023721965           10 
 2851000   0.79254703   -6.6724023    823.80846  0.024079518  0.023715304           18 
 2852000   0.79106458   -6.6749482    824.53198  0.024092215    0.0237087           36 
 2853000    0.7910309   -6.6688204    826.61774  0.024144694  0.023702083           30 
 2854000   0.77969998   -6.6661717    826.57836  0.024135084  0.023695534           12 
 2855000   0.79499232   -6.6475887    825.91374  0.024107231   0.02368896            8 
 2856000   0.78881134   -6.6863097    824.58896  0.024060135   0.02368237           45 
 2857000   0.78898938   -6.6678493    825.80125  0.024087074   0.02367578           23 
 2858000   0.78763148   -6.6428217     826.9105   0.02411099  0.023669183           19 
 2859000   0.78619534   -6.6933126     824.9328  0.024044911  0.023662568           33 
 2860000    0.7906737   -6.6604685    825.51019  0.024053327  0.023655964           13 
 2861000   0.78445292   -6.6796102    825.15305  0.024034517  0.023649332            9 
 2862000   0.77882695   -6.6777403    826.02145  0.024051405  0.023642733           31 
 2863000   0.79740152   -6.6632825    826.18068  0.024047639  0.023636153           24 
 2864000   0.79692089   -6.6686201    827.69292  0.024083244  0.023629575           19 
 2865000    0.7904595   -6.6536545    827.62284  0.024072799  0.023623011           31 
 2866000   0.79951978   -6.6757489    825.15075   0.02399252  0.023616428           57 
 2867000   0.80452907   -6.6502365    826.90332  0.024035092  0.023609856           54 
 2868000   0.77530682   -6.6732743    825.88093  0.023997005  0.023603278           21 
 2869000   0.77361264   -6.7147448    825.49304  0.023977374  0.023596679           10 
 2870000   0.78273059   -6.6434388    827.17926  0.024017981  0.023590118           39 
 2871000   0.78158339   -6.6415257    827.20668  0.024010411   0.02358357           57 
 2872000   0.79073751   -6.6739015    826.93072  0.023994044  0.023576986           44 
 2873000   0.78337199   -6.6795841    826.50114  0.023973232  0.023570402           44 
 2874000   0.79379034   -6.6710945    827.01508  0.023979792   0.02356382           26 
 2875000   0.79988764   -6.6648749    827.39269  0.023982397  0.023557224           22 
 2876000   0.79929259   -6.6587433    824.70807   0.02389627  0.023550661           46 
 2877000   0.78541394   -6.6736035    827.27517  0.023962321  0.023544086           67 
 2878000   0.80397059   -6.6894117    827.38627  0.023957212    0.0235375           33 
 2879000    0.8110655   -6.6550396    828.32021  0.023975924  0.023530969           19 
 2880000   0.80042074   -6.6712528    827.06541  0.023931291  0.023524438           27 
 2881000   0.80598874   -6.6742411    828.11473  0.023953336  0.023517893           28 
 2882000   0.78931387   -6.6715507    829.59236   0.02398775  0.023511322           27 
 2883000   0.79926868   -6.6748377    829.94436  0.023989604  0.023504795           45 
 2884000   0.77542579   -6.6750252     828.5174  0.023940054  0.023498236           29 
 2885000   0.79663537   -6.6867501    829.74938  0.023967342  0.023491685           50 
 2886000   0.78226497   -6.6608418    828.42905  0.023920913  0.023485151           12 
 2887000   0.76644426   -6.6778439     827.2612  0.023878917  0.023478591           16 
 2888000   0.79882868   -6.6719205    829.57258  0.023937344  0.023472024           15 
 2889000     0.777811   -6.6766353    826.66884  0.023845299  0.023465455           16 
 2890000   0.77903338   -6.6440303    828.69629   0.02389551  0.023458902           13 
 2891000   0.79944008    -6.677101    829.11154  0.023899214  0.023452332           16 
 2892000    0.7774036   -6.6637313    829.94733  0.023915034  0.023445796           20 
 2893000   0.79256214   -6.6599799    829.80936  0.023902793  0.023439247           30 
 2894000   0.78970518   -6.6717887    830.24411  0.023907052  0.023432712            9 
 2895000   0.79519633   -6.6460124    828.60604  0.023851642  0.023426188           30 
 2896000   0.77726504   -6.6477517    827.95019  0.023824534  0.023419658           12 
 2897000   0.80306784   -6.6643622    827.30662  0.023797797    0.0234131           12 
 2898000   0.78762846   -6.6379248    830.19834  0.023872738  0.023406565            9 
 2899000   0.78893398   -6.6904658    828.32151  0.023810553  0.023400028           38 
 2900000   0.78439446   -6.6853413    827.56367  0.023780565  0.023393478           47 
 2901000   0.80349886   -6.6789265    828.60059  0.023802154  0.023386884           19 
 2902000    0.7900449   -6.6864341    829.79166  0.023828155  0.023380325           51 
 2903000   0.79888394   -6.6458122    826.93869  0.023738049  0.023373783           24 
 2904000   0.78830907   -6.6507492     831.5184  0.023861295  0.023367329           14 
 2905000     0.789017   -6.6925459    831.17128  0.023843123  0.023360839            9 
 2906000   0.78814474    -6.671785    831.56613  0.023846241   0.02335431           23 
 2907000    0.7926561   -6.6842332    830.71893  0.023813752  0.023347811           24 
 2908000   0.78203671   -6.6620187    830.65817  0.023803822  0.023341295           19 
 2909000   0.75608011   -6.6645705    830.13553  0.023780667  0.023334781           11 
 2910000   0.80344489   -6.6854801    830.92592  0.023795129  0.023328298           14 
 2911000   0.77249498   -6.6629934    830.49833  0.023774714  0.023321804           14 
 2912000   0.77727893   -6.6866194    830.50608  0.023766772  0.023315299           21 
 2913000   0.79454984   -6.6616648    829.96831  0.023743229  0.023308797           20 
 2914000   0.80263833   -6.6601383    830.86332  0.023760676  0.023302332            9 
 2915000    0.7944176   -6.6521582    831.43265  0.023768801  0.023295889           15 
 2916000   0.79175099   -6.7033178    831.04438  0.023749554  0.023289415           20 
 2917000    0.7839051    -6.685853    830.03167  0.023712481  0.023282909           48 
 2918000   0.78311412   -6.6649184    830.07547  0.023705605  0.023276363           22 
 2919000   0.79361569   -6.6827474    831.48234  0.023737648  0.023269835           34 
 2920000   0.78812794    -6.699164    831.27279  0.023723538  0.023263304           30 
 2921000   0.80273242   -6.6958707    830.54332  0.023694606  0.023256776           21 
 2922000    0.7577885   -6.6940152    829.13703   0.02364639  0.023250294           19 
 2923000   0.77909401   -6.6865421    830.97419  0.023690677   0.02324381           21 
 2924000   0.76962732   -6.6999074     830.9165  0.023680931  0.023237332           17 
 2925000   0.78239918   -6.6865498    830.51916  0.023661515  0.023230828            8 
 2926000   0.79740742   -6.6505492    831.40742  0.023678726  0.023224334           18 
 2927000   0.77441267   -6.7096494    831.27327  0.023666817  0.023217863           60 
 2928000   0.80264625   -6.6940849    831.61939  0.023668585  0.023211372           57 
 2929000   0.76763734    -6.685372    833.27639  0.023707647  0.023204875           32 
 2930000   0.78793648   -6.6982546    832.79612  0.023685896   0.02319839           60 
 2931000   0.79276627   -6.6898403    832.14819  0.023659393  0.023191879           37 
 2932000   0.79266675   -6.7008329    831.54822  0.023634272  0.023185335          100 
 2933000   0.78525753    -6.695927    829.89023  0.023579106  0.023178804           50 
 2934000   0.77121482   -6.7106544    831.60583  0.023619797  0.023172296           45 
 2935000     0.784218   -6.7189624    831.14817  0.023598755  0.023165744           55 
 2936000   0.76599776    -6.714603    829.93331  0.023556236  0.023159201           82 
 2937000   0.78292879   -6.6968058    832.13102  0.023610573  0.023152675           19 
 2938000   0.76220403   -6.6733541    834.61239  0.023672918  0.023146196           18 
 2939000   0.77529838   -6.6741511    830.88529  0.023559184  0.023139698           19 
 2940000   0.78739951   -6.6926963    833.39392  0.023622277  0.023133224           15 
 2941000   0.79305519    -6.681497    831.93649  0.023572948  0.023126763           10 
 2942000   0.79141195   -6.6940213     832.2396  0.023573522  0.023120293           39 
 2943000   0.76628861   -6.7098122    831.63029  0.023548258  0.023113774           21 
 2944000   0.77215838   -6.6767204    833.01053  0.023579329   0.02310726           17 
 2945000   0.77940376   -6.7073133    831.59266  0.023531202  0.023100752           42 
 2946000   0.78509506   -6.6818576    831.78663  0.023528701  0.023094234           14 
 2947000   0.79036394   -6.6823438    831.40562  0.023509943  0.023087748           20 
 2948000   0.77751229   -6.6718937    832.33322  0.023528189  0.023081326           14 
 2949000   0.77732708   -6.6903899      833.426  0.023551091  0.023074873           14 
 2950000   0.78917735   -6.6884642    833.79832  0.023553625  0.023068404           27 
 2951000   0.77446144    -6.683128    831.91626  0.023492496  0.023061969           43 
 2952000   0.79491832   -6.6996923    833.82007  0.023538281  0.023055543           22 
 2953000   0.78579871   -6.6686406     833.7493  0.023528313  0.023049106           18 
 2954000   0.78686619   -6.6835138     834.8264  0.023550734  0.023042702           49 
 2955000   0.76960323   -6.6707893    835.24807  0.023554655  0.023036332           31 
 2956000    0.7841925   -6.6969458    833.37392  0.023493852  0.023029922           52 
 2957000   0.77501055   -6.7105322    833.65952  0.023493956  0.023023515           56 
 2958000   0.77644602   -6.6791777    834.28933  0.023503756  0.023017137           45 
 2959000   0.76505617   -6.7007478    832.81293  0.023454234  0.023010726           42 
 2960000   0.77186879   -6.7170842    835.48732  0.023521603  0.023004311           23 
 2961000   0.77861301   -6.7051966    833.35611  0.023453679   0.02299791           30 
 2962000   0.77059453   -6.6975472    833.21626  0.023441826  0.022991498           27 
 2963000   0.79369474    -6.686448    833.90606  0.023453315  0.022985099           59 
 2964000   0.77064818   -6.6680986      835.044  0.023477395  0.022978698           37 
 2965000   0.77385281   -6.7009624    834.12445  0.023443633    0.0229723           78 
 2966000   0.77113165   -6.6915372    832.62834  0.023393694  0.022965925           80 
 2967000   0.78353765   -6.6788258    835.10522  0.023455376  0.022959549           89 
 2968000   0.77795082   -6.7196339    836.65455  0.023490975  0.022953185           44 
 2969000    0.7862975   -6.7123594     835.0514  0.023438066  0.022946826           49 
 2970000   0.78449757   -6.6796126    837.05295  0.023486334  0.022940458           80 
 2971000   0.77639922   -6.7070614    835.51391   0.02343526  0.022934108           52 
 2972000   0.75924851    -6.714754    836.51194   0.02345536  0.022927751           29 
 2973000    0.7686142   -6.6791624    834.21834   0.02338318  0.022921396           24 
 2974000   0.75953422   -6.6819336    834.52211   0.02338383  0.022915046           17 
 2975000   0.77293878   -6.7152918    835.38926  0.023400259  0.022908681           15 
 2976000   0.79563244   -6.7219745    834.91711  0.023379175  0.022902314           75 
 2977000   0.77893499   -6.6953407     837.9096  0.023455089  0.022895953           62 
 2978000   0.77930647      -6.6905    837.00456  0.023421887  0.022889594           18 
 2979000   0.76562338   -6.6851796    835.53314  0.023372864  0.022883191           64 
 2980000   0.78217849   -6.7112808    836.58671  0.023394483  0.022876802           49 
 2981000    0.7644624   -6.6740534    835.54916  0.023357631  0.022870438           12 
 2982000   0.78438646   -6.6792802    834.54523  0.023321742  0.022864093           18 
 2983000   0.76355548   -6.7083083    835.69278  0.023345982  0.022857724           30 
 2984000   0.79401368   -6.7238839    836.14436   0.02335077  0.022851311           64 
 2985000   0.76707641   -6.6951914     835.7797  0.023332767  0.022844895           47 
 2986000   0.78111703   -6.6762019    837.16906  0.023363727  0.022838504           27 
 2987000   0.78064358   -6.7152232    835.55467  0.023310866  0.022832109           35 
 2988000   0.77196384   -6.6918691    838.27795  0.023379015  0.022825716           16 
 2989000    0.7685414   -6.6969672    837.44326  0.023347922  0.022819359           30 
 2990000    0.7847095   -6.6654091    834.53071  0.023258938  0.022812994           22 
 2991000   0.76784546   -6.7005595    834.72797  0.023256658  0.022806607           52 
 2992000   0.79327994   -6.6845963    835.21045  0.023262323   0.02280023           26 
 2993000    0.7839168   -6.6772237    836.61954  0.023293784   0.02279385           34 
 2994000   0.77240038   -6.7272747    835.21309  0.023246857  0.022787458           44 
 2995000   0.77679162   -6.7100529    835.29079  0.023241257  0.022781059           24 
 2996000   0.78075123   -6.7299723    836.54883  0.023268492  0.022774664           33 
 2997000    0.7685031   -6.6888418    835.89116  0.023242441  0.022768259           24 
 2998000   0.75887263   -6.6886636    836.97568  0.023264834  0.022761881           14 
 2999000   0.77444962   -6.6998611    835.70266  0.023221703   0.02275549           11 
 3000000   0.77510881   -6.6989308    835.98844  0.023221901  0.022749116           12 
 3001000   0.76664575   -6.7365693    834.84573  0.023182432   0.02274271           11 
 3002000   0.77061137    -6.675379    838.19077  0.023267565  0.022736323           18 
 3003000   0.76618166   -6.6633502    837.24022  0.023233439  0.022729957           32 
 3004000   0.77042519   -6.6698068    838.78989  0.023268694  0.022723602           25 
 3005000   0.75939355   -6.7045745    838.48266  0.023252431  0.022717246           35 
 3006000   0.75402554   -6.6963351    838.44533  0.023243661  0.022710924           13 
 3007000   0.78130575   -6.6917696    838.29567  0.023231783  0.022704619           44 
 3008000   0.77553866   -6.7034057    838.46712   0.02322881  0.022698293           20 
 3009000   0.77477965   -6.6998831    837.72303  0.023200483  0.022691979           33 
 3010000   0.77081408   -6.6769644    837.34636  0.023182347  0.022685671           31 
 3011000   0.74359998   -6.7088612    837.63131  0.023182534  0.022679351            9 
 3012000   0.77102674   -6.7179337    836.62997  0.023147133  0.022672999           27 
 3013000   0.78251044   -6.6867949    840.53467  0.023247446  0.022666682           37 
 3014000   0.76287178   -6.7165019    839.31678   0.02320606  0.022660398           23 
 3015000   0.77347321   -6.6978949    838.87633  0.023186189   0.02265408           29 
 3016000   0.76051585   -6.6598006    838.74307   0.02317482  0.022647777           15 
 3017000   0.77782455   -6.6842062    837.50241   0.02313287  0.022641459           18 
 3018000   0.77176157    -6.671616    836.90277  0.023108647  0.022635132           12 
 3019000   0.78794677      -6.7116     840.1711  0.023191208  0.022628832           23 
 3020000   0.78729991   -6.6806598    840.44917  0.023191202  0.022622543           16 
 3021000   0.76878534   -6.6983414    840.46901  0.023184073  0.022616275           16 
 3022000   0.76041136    -6.708962    840.26137  0.023170675  0.022609999           16 
 3023000   0.77251622   -6.7160046    838.94679  0.023126772  0.022603706           22 
 3024000   0.77456683   -6.7389293    840.11766  0.023151391  0.022597386           31 
 3025000   0.78747352   -6.6972661    840.45964  0.023153158   0.02259113           13 
 3026000   0.77450826   -6.7231818    840.20305  0.023138441  0.022584886           16 
 3027000   0.78023995   -6.7148353    841.29897  0.023160967  0.022578674           26 
 3028000   0.75776734   -6.6991368    839.83031  0.023112899  0.022572459           15 
 3029000   0.79549299    -6.705883    841.42342  0.023149098  0.022566231           16 
 3030000    0.7788176   -6.7387841    840.22918  0.023108613  0.022559995           26 
 3031000   0.75219243   -6.7121131    840.79719  0.023116606  0.022553756           34 
 3032000   0.76616593   -6.7073604    841.72163   0.02313439  0.022547533           20 
 3033000   0.77137413   -6.6880073     841.9302  0.023132492  0.022541293           31 
 3034000   0.77238402   -6.7242114    841.54684  0.023114339  0.022535053           42 
 3035000   0.76892799   -6.6952819    842.02926  0.023119969  0.022528877           26 
 3036000   0.76097735   -6.7085343    843.45025  0.023151357  0.022522715           54 
 3037000   0.76168016   -6.6818742    844.30956  0.023167313  0.022516567           28 
 3038000   0.76564339   -6.7002592    841.04148  0.023070043  0.022510403           35 
 3039000   0.76756754   -6.7079374    842.20539  0.023094367  0.022504224           20 
 3040000   0.76876735   -6.7031388    841.61208  0.023070507  0.022498059           20 
 3041000   0.76615337   -6.7217705    842.20774  0.023079243   0.02249188           23 
 3042000   0.75643329   -6.7311959    839.77522  0.023005019  0.022485695           49 
 3043000   0.75326302   -6.7272887    841.54602  0.023045953  0.022479514           13 
 3044000   0.77630252   -6.7097096    842.86023   0.02307436  0.022473328           20 
 3045000   0.75904793   -6.6931498    841.75581  0.023036557  0.022467122           22 
 3046000   0.76506755    -6.713497    843.68761  0.023081845  0.022460902           21 
 3047000   0.78354901   -6.7094823    843.12247  0.023058814  0.022454689           19 
 3048000   0.76103144   -6.7164544    842.44412  0.023032702  0.022448472           41 
 3049000   0.77586591   -6.7192967    841.64992  0.023003442  0.022442243           32 
 3050000   0.77472381   -6.7334132    841.09935  0.022980857  0.022435987           20 
 3051000   0.75646235   -6.7102742    839.84364  0.022939027  0.022429741           21 
 3052000   0.76644114   -6.7485793    840.93014  0.022961177  0.022423492           23 
 3053000   0.75709899   -6.7392084    841.45646  0.022968022  0.022417252           17 
 3054000   0.75543778   -6.7226036    840.59399  0.022936968  0.022410997           19 
 3055000   0.77747931   -6.7133487    841.26765  0.022947835   0.02240474           18 
 3056000   0.75225855   -6.7045369    841.57739  0.022948773  0.022398505           20 
 3057000   0.76850955   -6.7190922    840.57025  0.022913811  0.022392254           48 
 3058000   0.77659581   -6.7576929    840.99031  0.022917765  0.022385986           44 
 3059000   0.75066506   -6.7125156    841.36255  0.022920414  0.022379693           63 
 3060000   0.76414375   -6.7134592    842.08075  0.022932482  0.022373424           49 
 3061000   0.75022467    -6.714692    841.68919   0.02291433  0.022367175           27 
 3062000   0.76789658   -6.7095251    841.12742  0.022891558  0.022360922           85 
 3063000   0.76210673   -6.7419977    841.50013  0.022894225  0.022354685           49 
 3064000   0.77051233   -6.7397283    840.24968  0.022852744  0.022348442           31 
 3065000   0.75774073   -6.7413615    839.74493  0.022831564  0.022342162           46 
 3066000   0.76240337   -6.7450407    842.55358  0.022900456   0.02233589           88 
 3067000    0.7682754   -6.7279916     841.9344  0.022876166  0.022329627           22 
 3068000   0.76044583   -6.7134668    839.87847  0.022812866  0.022323348          105 
 3069000   0.75966323   -6.7482077    840.25714  0.022815715  0.022317047          106 
 3070000   0.75724997    -6.737947    842.66854  0.022873739  0.022310765           40 
 3071000   0.74862919   -6.7323563    842.04166   0.02284928  0.022304487           40 
 3072000   0.74687376   -6.7516517     842.8975  0.022865058  0.022298237           17 
 3073000   0.75841159    -6.705566    844.43555  0.022899326  0.022292011           13 
 3074000   0.75870538   -6.7444027    843.57479  0.022868542  0.022285813           27 
 3075000   0.75559621    -6.735401     845.1463  0.022903694  0.022279617           48 
 3076000   0.75385116   -6.7163402    844.54571  0.022879977  0.022273434           18 
 3077000   0.75332058   -6.7318064    842.43031   0.02281525  0.022267233           18 
 3078000   0.74921978   -6.7460523    840.62458   0.02275895  0.022261006           17 
 3079000    0.7667836   -6.7278602    842.59387  0.022804857  0.022254765           24 
 3080000   0.75945134   -6.7049367    844.47563  0.022848367   0.02224854           96 
 3081000   0.76022816    -6.733434    842.47468   0.02278683  0.022242285           59 
 3082000   0.76522631   -6.7350303    842.83976  0.022789308  0.022236022           32 
 3083000   0.75274869   -6.7339196    843.70198  0.022805222  0.022229777           41 
 3084000   0.76425419   -6.7457084    842.54127  0.022766463  0.022223551           20 
 3085000   0.76615436   -6.7294067    842.48511  0.022757566  0.022217307           23 
 3086000   0.77597919   -6.7286368    846.08264  0.022847339  0.022211064            9 
 3087000   0.76347377    -6.706216    843.15912  0.022761017  0.022204868           25 
 3088000   0.76007505   -6.7416572    841.86573  0.022718743  0.022198653           47 
 3089000     0.760356    -6.766356    843.33401  0.022750998  0.022192428           47 
 3090000   0.76367737    -6.713859    842.15959  0.022711963  0.022186181           34 
 3091000   0.76025008   -6.7010539    842.89771  0.022724515   0.02217995           30 
 3092000   0.75174645    -6.725474    842.69051  0.022711581   0.02217374           33 
 3093000   0.75712675   -6.7194341     842.9671   0.02271169  0.022167492           28 
 3094000   0.76084714   -6.7189026     842.5472   0.02269304  0.022161271           38 
 3095000    0.7620561   -6.7176316    842.29904  0.022679026  0.022155027           21 
 3096000   0.74027968   -6.7619369    840.95884  0.022635628  0.022148783           49 
 3097000    0.7458174   -6.7513991    843.02218  0.022683839  0.022142545           47 
 3098000   0.76134388   -6.7254258    842.83408  0.022671457  0.022136275           28 
 3099000   0.76904366   -6.7222927    842.27382  0.022649076  0.022130075           56 
 3100000    0.7719795   -6.7463968    844.02142  0.022688748  0.022123856           50 
 3101000   0.76063185   -6.7308716    844.29685  0.022688833  0.022117636           78 
 3102000   0.76455389   -6.7622935    842.12246  0.022623105  0.022111399           57 
 3103000   0.75621657   -6.7218817    843.63007  0.022656302  0.022105175           43 
 3104000   0.76799384    -6.720905    845.35852  0.022695407  0.022098982           26 
 3105000   0.75450849   -6.7367873    844.96804  0.022677618  0.022092773           27 
 3106000   0.75720816   -6.7324311    844.72184  0.022663711  0.022086572           18 
 3107000   0.74857859   -6.7280956    845.40922  0.022674853  0.022080366           31 
 3108000   0.74692738   -6.7153893    844.39665  0.022640408  0.022074177           39 
 3109000    0.7676093   -6.7717995    845.89103  0.022673181  0.022067995           31 
 3110000   0.75446204   -6.7416176    844.92082  0.022639893  0.022061825           22 
 3111000   0.75942111    -6.719371    846.26094  0.022668513  0.022055644           29 
 3112000   0.75865839   -6.7052953     844.2051  0.022606178  0.022049476           37 
 3113000   0.76093045   -6.7305855    841.98984  0.022539615   0.02204329           32 
 3114000   0.74210109   -6.7258752    846.28383  0.022647287  0.022037068           31 
 3115000    0.7632854   -6.7448098    847.03719  0.022660171  0.022030888           48 
 3116000   0.75843276   -6.7276554    843.28865  0.022552649   0.02202471           51 
 3117000   0.74176661    -6.752196    845.09019  0.022593578  0.022018553           37 
 3118000   0.76317266   -6.7140791    844.90632  0.022581417  0.022012395           42 
 3119000   0.75155329   -6.7301987    843.56423   0.02253832  0.022006223           45 
 3120000   0.76863215   -6.7407665    845.63304  0.022586353  0.022000038           47 
 3121000   0.75080573   -6.7254299    845.56871  0.022577398  0.021993846           88 
 3122000    0.7543754   -6.7629667    846.17407  0.022586325   0.02198766           59 
 3123000    0.7516822   -6.7585896    843.93711  0.022519402  0.021981489          138 
 3124000   0.75223661   -6.7636355    844.78639  0.022534848  0.021975326           57 
 3125000   0.76449074    -6.771023    845.02912   0.02253411   0.02196914           44 
 3126000    0.7463162   -6.7638393    844.93288  0.022524336  0.021962951           93 
 3127000   0.76616366   -6.7655587    844.48615  0.022505227  0.021956759          118 
 3128000   0.74636703   -6.7635083    844.29619  0.022492972   0.02195053           86 
 3129000   0.76015869   -6.7607237    846.02427  0.022531807  0.021944318           49 
 3130000   0.74396057   -6.7414867    847.73567  0.022570172   0.02193812           27 
 3131000   0.75721176    -6.754302     844.1848  0.022468455  0.021931948           33 
 3132000   0.76227471   -6.7506093    846.06966  0.022511432  0.021925761           42 
 3133000   0.74119412   -6.7477902     845.8609  0.022498694  0.021919563           67 
 3134000   0.72889957   -6.7726057    844.55976  0.022456918  0.021913356           69 
 3135000   0.75595482   -6.7661877    843.57146  0.022423484  0.021907108          117 
 3136000   0.73580949    -6.778212    843.67815  0.022419169  0.021900842          224 
 3137000   0.74697069   -6.7711345    842.60575  0.022383534  0.021894563          222 
 3138000   0.74940643   -6.7700038    845.08816  0.022442324  0.021888311          330 
 3139000    0.7394297   -6.7543906    844.25788  0.022413133  0.021882092          308 
 3140000   0.74256829    -6.759482    846.48088  0.022464992  0.021875846          174 
 3141000   0.74642991   -6.7705144    843.88945  0.022389087  0.021869601          282 
 3142000   0.73757152    -6.770458     845.1338  0.022414964  0.021863358          307 
 3143000     0.747178   -6.7345746    846.07952  0.022432907  0.021857143          234 
 3144000   0.76390671   -6.7863709    844.12715  0.022374023  0.021850897          294 
 3145000   0.74836501   -6.7617619    845.04264  0.022391167  0.021844667          321 
 3146000    0.7691761   -6.7803492     843.8239  0.022351767  0.021838423          365 
 3147000   0.76129933   -6.8130896    843.80132  0.022344066  0.021832163          416 
 3148000   0.74545336   -6.7952809    843.80869  0.022337163  0.021825909          467 
 3149000   0.73287277   -6.7856575    844.63375  0.022351904  0.021819639          540 
 3150000    0.7533134   -6.7883322    843.59675  0.022317374  0.021813362          628 
 3151000   0.75240663   -6.7980487    842.19474  0.022273213   0.02180705          676 
 3152000   0.75651257   -6.8226703    840.94395  0.022233078  0.021800731          776 
 3153000   0.75240216   -6.8339729    843.03929  0.022281406  0.021794383          822 
 3154000   0.72970894   -6.8619974    841.68667  0.022238604  0.021787988          905 
 3155000   0.73831989   -6.8598893    841.09065  0.022215812  0.021781571         1034 
 3156000   0.73986561   -6.8707077    840.23592  0.022186204  0.021775143         1137 
 3157000   0.74592136   -6.9147996    838.52315  0.022133965  0.021768693         1190 
 3158000   0.74224033   -6.9033395     839.3452  0.022148649  0.021762201         1284 
 3159000   0.76254272   -6.8937515    840.70342  0.022177467  0.021755715         1279 
 3160000   0.75100974   -6.9246356    839.82678  0.022147331  0.021749194         1408 
 3161000   0.74256952   -6.9222955    839.27293  0.022125723  0.021742616         1470 
 3162000   0.75161654   -6.9291865    838.15693  0.022089314  0.021736025         1670 
 3163000   0.75392975   -6.9509337    836.50533  0.022038817  0.021729404         1888 
 3164000   0.74798796   -6.9935672    836.41329  0.022029427  0.021722706         2075 
 3165000   0.73503949   -7.0220232    833.95407  0.021957716  0.021715937         2289 
 3166000    0.7347259   -7.0672221    833.01681  0.021926111  0.021709065         2586 
 3167000   0.74845849   -7.0971236    832.80816  0.021913697  0.021702141         2792 
 3168000   0.74946247   -7.1645076    828.94034  0.021805038  0.021695121         3026 
 3169000   0.75746771    -7.195433    826.68226  0.021738778  0.021688002         3175 
 3170000    0.7437321    -7.273584    824.22472  0.021667316  0.021680781         3445 
 3171000   0.75265131    -7.282232    821.59137   0.02159128   0.02167345         3619 
 3172000   0.73853211   -7.3494279    821.93063  0.021593385  0.021666044         3793 
 3173000   0.75468906   -7.3479212    820.77641  0.021556267  0.021658561         3859 
 3174000   0.75645853   -7.3979471    820.02299  0.021529694  0.021651034         3946 
 3175000   0.73666366   -7.3881271    819.34784  0.021505193  0.021643482         3947 
 3176000   0.73871922   -7.3994183    818.71095   0.02148171  0.021635921         3971 
 3177000   0.73974028   -7.3913664    820.23051  0.021514807  0.021628362         3963 
 3178000   0.75308864   -7.3829056      819.787  0.021496408  0.021620791         3965 
 3179000   0.74248464   -7.3829165    819.65664  0.021486228  0.021613233         3958 
 3180000   0.74281822   -7.3765619     818.9179  0.021460113  0.021605667         3968 
 3181000   0.73528183   -7.3824438    818.17712   0.02143396  0.021598096         3966 
 3182000   0.74427986   -7.3936572    818.54159  0.021436769  0.021590535         3966 
 3183000   0.73570698   -7.4027006    817.77182  0.021409881  0.021582955         3969 
 3184000   0.74622348   -7.3933998    817.10093  0.021385598  0.021575379         3956 
 3185000   0.74061082   -7.4013579    818.09027  0.021404769  0.021567803         3970 
 3186000   0.73745236   -7.3948321    819.39655  0.021432218  0.021560232         3960 
 3187000   0.73904335   -7.3826633    817.66555  0.021380231  0.021552655         3970 
 3188000   0.73010932   -7.3808465    817.79217  0.021376834  0.021545076         3967 
 3189000   0.73373103   -7.3917775    818.78409  0.021396051  0.021537517         3968 
 3190000   0.74981181   -7.3985526    817.05412  0.021344152  0.021529947         3966 
 3191000   0.73129617    -7.379476    816.96746    0.0213352   0.02152238         3975 
 3192000   0.73187029   -7.4025056     819.6869  0.021399512  0.021514808         3967 
 3193000   0.73380402   -7.3864317    817.92572  0.021346845  0.021507238         3974 
 3194000   0.74284434   -7.4168319    818.07087  0.021343949  0.021499684         3964 
 3195000   0.73471305    -7.399253    818.50533    0.0213486  0.021492122         3968 
 3196000   0.74892598   -7.4145591    818.11586  0.021331765  0.021484557         3975 
 3197000   0.73622588   -7.4099065    818.10063  0.021324696  0.021476991         3974 
 3198000   0.74275905   -7.3568782    819.22247   0.02134726  0.021469422         3956 
 3199000      0.76071   -7.3853325    819.17443  0.021339336  0.021461858         3973 
 3200000   0.73705413   -7.3645087    818.46252  0.021314128  0.021454288         3963 
 3201000   0.73866724   -7.3917882    816.46258  0.021255404  0.021446719         3967 
 3202000   0.75139117   -7.4116346    817.76565  0.021282679  0.021439152         3968 
 3203000   0.73309127   -7.4063971    818.03526  0.021283049  0.021431591         3976 
 3204000   0.73675472     -7.37196    817.61891  0.021265577  0.021424023         3957 
 3205000   0.72959884   -7.4138618     817.9954  0.021268731  0.021416458         3972 
 3206000   0.74086894   -7.4063485    818.95383  0.021287009  0.021408889         3947 
 3207000   0.74346512   -7.3946213    819.03417  0.021282459  0.021401336         3928 
 3208000   0.74560373   -7.4158245    818.84102  0.021270808   0.02139377         3953 
 3209000   0.73921023   -7.4152162    816.80126   0.02121121  0.021386207         3958 
 3210000   0.74308522   -7.3988124    816.20175  0.021189038  0.021378635         3955 
 3211000   0.73306278   -7.4000851    818.96735  0.021254213  0.021371071         3941 
 3212000   0.72899932   -7.4386727     817.2625  0.021203365  0.021363489         3969 
 3213000   0.73469095   -7.4116613    817.44518  0.021201504  0.021355918         3958 
 3214000   0.74651588   -7.4234886    818.51328  0.021222601  0.021348346         3955 
 3215000   0.73277599    -7.418035    816.52396  0.021164437  0.021340779         3960 
 3216000   0.74073992   -7.4076984    816.47209  0.021156512  0.021333205         3969 
 3217000   0.75128679   -7.4008759    817.77325   0.02118364  0.021325635         3971 
 3218000   0.73969586    -7.401374     816.3057  0.021139054  0.021318061         3950 
 3219000   0.74030528    -7.413833    818.75128  0.021195798  0.021310486         3955 
 3220000   0.72892084   -7.4191391    817.67205  0.021161285  0.021302911         3959 
 3221000    0.7210331   -7.4196968    817.37392  0.021147002  0.021295339         3972 
 3222000    0.7314273   -7.4217778    816.73681   0.02112396  0.021287782         3953 
 3223000   0.72238905   -7.4244297    816.81261  0.021119366  0.021280212         3955 
 3224000   0.72835938   -7.4159083    816.11241  0.021094717  0.021272634         3964 
 3225000   0.73926628   -7.4241317    817.75121  0.021130522  0.021265051         3949 
 3226000    0.7256431   -7.4174309    817.08641  0.021106799  0.021257491         3981 
 3227000   0.73212259   -7.3988414    816.80467  0.021092983  0.021249932         3954 
 3228000   0.73598667   -7.4227145     816.5525  0.021079939  0.021242369         3966 
 3229000   0.73742014   -7.3946984    817.52784  0.021098582  0.021234813         3959 
 3230000   0.74025878   -7.4357072    817.53767  0.021092303  0.021227241         3975 
 3231000   0.72339038   -7.4301775    816.29139  0.021053631  0.021219687         3986 
 3232000   0.73163324   -7.4335388    817.66132  0.021082439  0.021212118         3964 
 3233000   0.72559967   -7.3911741    816.47893  0.021045441   0.02120456         3976 
 3234000    0.7406478    -7.425503    817.50063   0.02106526  0.021196993         3968 
 3235000   0.73521843   -7.4386119    818.62001  0.021087584  0.021189432         3981 
 3236000     0.729777   -7.4273954    816.73786  0.021032598  0.021181865         3967 
 3237000   0.75018953   -7.4245135    818.73941  0.021077629  0.021174305         3972 
 3238000    0.7143799   -7.4148349    816.49126  0.021013261  0.021166749         3959 
 3239000   0.73558623   -7.4025649    816.27224  0.021001138  0.021159202         3951 
 3240000   0.72809353   -7.4087595    814.98555  0.020961563  0.021151655         3968 
 3241000   0.73370202   -7.4131091    817.36849  0.021016366  0.021144107         3979 
 3242000   0.73735643    -7.424648    817.32715   0.02100882  0.021136543         3966 
 3243000   0.74361963   -7.4367464    815.68498  0.020960144  0.021128987         3988 
 3244000   0.73230109   -7.4106344    816.10328  0.020964429  0.021121437         3964 
 3245000   0.73683843    -7.418445    817.52355  0.020994441  0.021113886         3951 
 3246000   0.74353502   -7.4366946    816.26366  0.020955629  0.021106325         3968 
 3247000   0.74500561   -7.4232661    814.15809  0.020895136  0.021098767         3975 
 3248000   0.72064586   -7.4533042    816.65681  0.020952812  0.021091214         3969 
 3249000   0.71851379   -7.4084413    815.73699  0.020922771  0.021083658         3984 
 3250000   0.71587055    -7.418433    816.03598     0.020924  0.021076097         3979 
 3251000   0.73995189   -7.4192709    814.93611   0.02088937  0.021068552         3980 
 3252000   0.72361156   -7.4259517    816.45276  0.020921811  0.021061008         3974 
 3253000   0.73129321   -7.4119447    815.31935  0.020886345   0.02105345         3981 
 3254000   0.72079849    -7.412219     815.2123  0.020877184  0.021045902         3975 
 3255000   0.72840134   -7.4222364    815.78508  0.020885435  0.021038351         3974 
 3256000   0.74000776   -7.4494388    816.44604  0.020895937  0.021030798         3985 
 3257000   0.72678906   -7.4105342    815.99626  0.020878013  0.021023254         3972 
 3258000   0.74304744   -7.4405665    817.24357  0.020903509  0.021015697         3973 
 3259000   0.73548177   -7.4284383    815.54826  0.020853745  0.021008151         3971 
 3260000   0.71615738   -7.4436228    817.63979  0.020900813    0.0210006         3971 
 3261000   0.73297242   -7.4188112    818.07473  0.020905518  0.020993062         3983 
 3262000   0.73421631   -7.4502387    815.58838  0.020835591  0.020985512         3972 
 3263000    0.7333788   -7.4230773     816.3914  0.020849714  0.020977976         3965 
 3264000   0.71643364   -7.4542443     816.9044  0.020856424   0.02097043         3971 
 3265000   0.73161563   -7.4454866    816.29195  0.020834404  0.020962886         3969 
 3266000   0.71173317   -7.4420665    817.56508  0.020860509  0.020955352         3981 
 3267000   0.73049075   -7.4328536    814.31365  0.020771188  0.020947818         3982 
 3268000     0.716246   -7.4537203    815.33643  0.020790913  0.020940279         3980 
 3269000   0.72413365    -7.438516    816.70186   0.02081936   0.02093275         3969 
 3270000   0.74178813   -7.4504277    815.39213  0.020779616   0.02092522         3994 
 3271000   0.72031226   -7.4270693    815.92933  0.020786949  0.020917691         3974 
 3272000    0.7275263   -7.4328399    816.30658  0.020790204  0.020910164         3968 
 3273000   0.72474694   -7.4679623    815.14774  0.020754347  0.020902647         3966 
 3274000   0.72215579   -7.4364115    815.53303  0.020757815  0.020895124         3985 
 3275000   0.72054356   -7.4312228    815.57251  0.020752481  0.020887598         3975 
 3276000   0.73991265     -7.42128    816.27261  0.020763955  0.020880076         3981 
 3277000   0.73019998   -7.4338007    815.62407  0.020741127  0.020872554         3974 
 3278000   0.71648392   -7.4347294    816.59188  0.020759403   0.02086503         3972 
 3279000   0.72514783   -7.4409587    815.81279  0.020733272  0.020857505         3978 
 3280000   0.71877224   -7.4542328    814.32048  0.020689037  0.020849977         3978 
 3281000   0.71467607   -7.4427412    815.40608  0.020710304  0.020842454         3976 
 3282000   0.72482338   -7.4328029    816.32321   0.02072728  0.020834932         3980 
 3283000   0.72158774   -7.4364314    814.75924  0.020681268  0.020827424         3982 
 3284000   0.73251185   -7.4192511    816.82829  0.020727474  0.020819923         3972 
 3285000   0.73078305   -7.4534004     813.9407  0.020647912  0.020812415         3989 
 3286000   0.71206582   -7.4454135    815.61836  0.020684174  0.020804909         3957 
 3287000   0.72682108   -7.4466789    815.13931  0.020665737  0.020797411         3984 
 3288000   0.72587027   -7.4467319    815.31631  0.020663937  0.020789914         3979 
 3289000   0.72990248   -7.4344523    818.01238  0.020725965  0.020782408         3985 
 3290000   0.72182776   -7.4333876     815.3795  0.020652976  0.020774908         3976 
 3291000   0.73407087   -7.4565889    815.68173  0.020654353    0.0207674         3981 
 3292000   0.72563381   -7.4437268    813.37077   0.02058958  0.020759898         3979 
 3293000   0.72593189   -7.4340786    816.54879  0.020663751  0.020752391         3984 
 3294000   0.71920907   -7.4430401    814.74219  0.020611774   0.02074488         3988 
 3295000   0.73352934   -7.4445412    815.97578  0.020636717  0.020737372         3974 
 3296000   0.72328061   -7.4328814     816.2755  0.020638034  0.020729867         3992 
 3297000   0.72695664   -7.4397291    815.78226  0.020619307  0.020722363         3985 
 3298000    0.7319102   -7.4791661    815.92964  0.020616779   0.02071486         3989 
 3299000   0.71255822   -7.4572368    816.38177   0.02062195  0.020707362         3979 
 3300000   0.72788863   -7.4617337    814.97358  0.020580141   0.02069985         3988 
 3301000   0.72296617    -7.441105    814.24894  0.020555613  0.020692349         3979 
 3302000   0.72093595   -7.4655289    815.82717  0.020589218  0.020684859         3979 
 3303000   0.73601391   -7.4583908    816.34177  0.020595967  0.020677367         3973 
 3304000    0.7345031   -7.4368495    815.82892  0.020576799   0.02066988         3982 
 3305000   0.72514939   -7.4446528    817.63092  0.020616009   0.02066239         3985 
 3306000   0.71482051   -7.4413141    815.12869    0.0205467  0.020654906         3988 
 3307000   0.71058973   -7.4305166    814.89303  0.020534549   0.02064742         3982 
 3308000   0.73997697   -7.4699252    813.55699  0.020494684  0.020639931         3988 
 3309000   0.70830532   -7.4524544    816.05596  0.020551424  0.020632445         3977 
 3310000   0.73970417   -7.4655415    816.39388  0.020553723  0.020624958         3978 
 3311000   0.71082656   -7.4469323    815.03772  0.020513383  0.020617476         3980 
 3312000   0.70232891   -7.4345473    814.93782  0.020504676  0.020610002         3975 
 3313000   0.71810003   -7.4650573     814.4021  0.020485011  0.020602522         3982 
 3314000   0.72305749   -7.4531635     815.8036  0.020514072  0.020595058         3986 
 3315000   0.71389431   -7.4559694    815.05572  0.020489083  0.020587583         3986 
 3316000   0.74081676   -7.4841551    814.78564  0.020476117  0.020580105         3982 
 3317000   0.71799736   -7.4708432    812.89351  0.020422408  0.020572634         3987 
 3318000   0.70149003   -7.4559456    816.33061  0.020502577  0.020565168         3988 
 3319000   0.73751759   -7.4496856    814.74053  0.020456476  0.020557699         3985 
 3320000   0.71765316   -7.4465038    815.64667  0.020473059  0.020550228         3977 
 3321000   0.72776731   -7.4457289    814.37101  0.020434884  0.020542765         3988 
 3322000   0.70895091   -7.4366826    816.49037  0.020481898  0.020535298         3982 
 3323000    0.7169279   -7.4850194     815.4916  0.020450687  0.020527833         3988 
 3324000   0.72522247   -7.4393341    814.48053  0.020419187  0.020520377         3988 
 3325000   0.72731262   -7.4577421     815.5302  0.020439353  0.020512926         3987 
 3326000   0.72144021   -7.4761711    815.05435  0.020421286  0.020505463         3985 
 3327000    0.7045606   -7.4545224    815.36929  0.020423036  0.020498008         3984 
 3328000   0.72018532   -7.4785144    815.54775  0.020421368  0.020490547         3988 
 3329000   0.70870578   -7.4568699     815.4259  0.020412183  0.020483102         3980 
 3330000   0.70022916   -7.4376052    815.52255  0.020408472  0.020475649         3991 
 3331000   0.70247152   -7.4799155    813.14039   0.02034275  0.020468198         3989 
 3332000   0.72534993   -7.4682854    817.07992  0.020435172  0.020460753         3984 
 3333000   0.72431553    -7.448287    815.61639  0.020392449  0.020453315         3976 
 3334000   0.70521378   -7.4806497    815.02465  0.020371542  0.020445873         3979 
 3335000   0.70428058   -7.4751519    816.37339  0.020399135  0.020438427         3989 
 3336000   0.71160517   -7.4820647    816.28836  0.020390896  0.020430998         3992 
 3337000    0.7057676   -7.4796269    814.97418  0.020351967  0.020423562         3992 
 3338000   0.71748382   -7.4784606    815.62623  0.020362149  0.020416127         3988 
 3339000   0.72194794   -7.4694824    814.69513  0.020332813  0.020408689         3984 
 3340000   0.72283456   -7.4905183    814.20164  0.020314412  0.020401268         3968 
 3341000   0.71010277   -7.4637265    815.73544  0.020346589   0.02039382         3972 
 3342000   0.72636522    -7.522664    814.98663  0.020321829  0.020386365         3979 
 3343000   0.72061032   -7.5164435    812.34233  0.020249834  0.020378869         3989 
 3344000   0.72207305   -7.5110383    815.25876  0.020316456  0.020371383         3998 
 3345000   0.72782477   -7.5144809    815.29712  0.020311338  0.020363891         3989 
 3346000   0.72334721   -7.5175833    813.79706  0.020267908  0.020356402         3987 
 3347000   0.71331841   -7.5286701    812.58157   0.02023159    0.0203489         3994 
 3348000   0.71587527   -7.5357587    813.89186  0.020258161  0.020341409         3993 
 3349000   0.71630381   -7.5512609    813.48133  0.020241896  0.020333911         3994 
 3350000    0.7269974   -7.5042492     813.3909  0.020233605  0.020326424         3989 
 3351000   0.70788201   -7.4978505    813.71159  0.020235541  0.020318947         3993 
 3352000   0.71190349   -7.5163355    812.91151  0.020209614  0.020311463         3996 
 3353000   0.72841117   -7.5201258    811.45674  0.020167431  0.020303975         3987 
 3354000   0.70821655    -7.543071    813.62624  0.020215321  0.020296492         3993 
 3355000   0.71382083   -7.5345065    812.56852  0.020183023  0.020288998         3989 
 3356000   0.71694465   -7.5282632    812.57198  0.020177095  0.020281519         3991 
 3357000   0.71203831   -7.5401326    813.34044  0.020190161  0.020274038         3988 
 3358000   0.72771064   -7.5333195    811.87338  0.020147741  0.020266567         3987 
 3359000   0.70825687   -7.5482415    810.36981  0.020104441  0.020259089         3988 
 3360000   0.70732886   -7.5554874    812.84313    0.0201598  0.020251607         3997 
 3361000   0.71171929   -7.5391458    811.54336  0.020121575  0.020244133         3993 
 3362000   0.70401415   -7.5378576    812.91439  0.020149573  0.020236665         3993 
 3363000   0.71981019   -7.5317101    813.11331  0.020148511  0.020229193         3990 
 3364000   0.71325076   -7.5329589    813.61559  0.020154964  0.020221718         3988 
 3365000   0.71188725   -7.5376928    813.37908  0.020143117  0.020214259         3985 
 3366000   0.70538383    -7.543345    813.10682  0.020130393  0.020206797         3993 
 3367000   0.71390568   -7.5435691    813.66788    0.0201383  0.020199324         3997 
 3368000   0.71707533   -7.5152808    811.36859   0.02007543  0.020191852         3993 
 3369000   0.70948864   -7.5621961    811.20169  0.020065343  0.020184384         3993 
 3370000   0.71568271   -7.5340062    812.14177  0.020082635  0.020176924         3995 
 3371000   0.70073968   -7.5341447    814.36326  0.020131594  0.020169471         3991 
 3372000   0.71571644   -7.5277838    812.42572  0.020077741  0.020162011         3995 
 3373000   0.71738921   -7.5117486    813.21353  0.020091252  0.020154564         3993 
 3374000   0.71090655   -7.5532347    812.58639  0.020069808  0.020147117         3993 
 3375000   0.70551515   -7.5461735    811.61031  0.020039761  0.020139666         3992 
 3376000   0.70940573   -7.5267788    811.41393  0.020028977  0.020132215         3988 
 3377000   0.70799309   -7.5401229    812.25467  0.020043793  0.020124771         3995 
 3378000   0.72610138   -7.5356702    811.37184  0.020016081  0.020117334         3994 
 3379000   0.72152971    -7.538669    813.62224  0.020065657  0.020109894         3993 
 3380000   0.70652136   -7.5300323    811.50177   0.02000744  0.020102464         3989 
 3381000   0.71577775   -7.5259425    811.46732  0.020000673  0.020095032         3994 
 3382000   0.72344328   -7.5427189    812.05819  0.020009319  0.020087592         3998 
 3383000   0.71958878   -7.5296309    811.38218  0.019986752  0.020080161         3994 
 3384000   0.71087479    -7.507906    812.85834  0.020017197  0.020072738         3994 
 3385000   0.69902708   -7.5101599    811.95072   0.01998894  0.020065316         3992 
 3386000   0.71953761   -7.5375225    813.28886  0.020015969  0.020057896         3992 
 3387000   0.71455743   -7.5095935     812.7553  0.019996932  0.020050476         3995 
 3388000   0.71788474   -7.5276835    813.90737  0.020019367  0.020043058         3995 
 3389000   0.71631518   -7.5611796    812.64895  0.019982516  0.020035643         3999 
 3390000   0.69621253   -7.5282194    812.31163  0.019968329  0.020028226         3997 
 3391000   0.69765975   -7.5357037    812.45938  0.019966071  0.020020822         3995 
 3392000   0.71186436   -7.5308251    809.49383  0.019887329   0.02001341         3993 
 3393000   0.70455271   -7.5454652    811.67352  0.019935002  0.020005995         3992 
 3394000   0.72289445   -7.5551306    813.16323  0.019965705  0.019998586         3993 
 3395000   0.69725977   -7.5516399    811.52682  0.019919657  0.019991178         3995 
 3396000   0.70939425   -7.5489722    811.45435  0.019912013  0.019983772         3993 
 3397000    0.7254603   -7.5395758    811.65899  0.019911171  0.019976369         3999 
 3398000     0.707866   -7.5250785    813.81305  0.019958138  0.019968971         3997 
 3399000   0.70014228   -7.5360174    812.52543  0.019920698  0.019961569         3992 
 3400000   0.70782833   -7.5537268    811.84692  0.019898209  0.019954174         3997 
 3401000   0.70788478   -7.5147122    812.18281  0.019900588  0.019946786         3989 
 3402000   0.69959697   -7.5542474    813.10353  0.019917292  0.019939399         3989 
 3403000   0.69989734   -7.5363474    813.26953  0.019915504  0.019932004         3997 
 3404000    0.7143934   -7.5341988    811.08461  0.019856164  0.019924613         3997 
 3405000   0.70593539   -7.5333545    813.07399  0.019899021  0.019917227         3995 
 3406000   0.71897117    -7.545039    812.30217  0.019874295  0.019909838         3996 
 3407000   0.70626976   -7.5535017    813.71528  0.019903025   0.01990245         3998 
 3408000   0.70168052   -7.5622895    811.36594  0.019839738   0.01989507         3997 
 3409000   0.71960948   -7.5587303    813.55425  0.019887412  0.019887691         3993 
 3410000    0.7109417   -7.5563692    810.47667   0.01980637  0.019880317         3989 
 3411000   0.69422936   -7.5354343    810.19769  0.019793748  0.019872941         3994 
 3412000   0.71168442   -7.5253583    811.76441  0.019826212  0.019865573         3996 
 3413000   0.70055108   -7.5266818    813.55341  0.019864084  0.019858206         3994 
 3414000   0.70917759   -7.5637455    811.74951  0.019814233  0.019850834         3995 
 3415000   0.71911368   -7.5265399    810.88953  0.019787446  0.019843468         3994 
 3416000   0.69217103   -7.5370043    812.14269  0.019812224  0.019836112         3993 
 3417000   0.70391381   -7.5471604    811.40717  0.019788488  0.019828751         3995 
 3418000     0.698572   -7.5383346    810.79553  0.019767787  0.019821393         3995 
 3419000   0.71173009   -7.5366717    812.91119  0.019813571  0.019814044         3988 
 3420000   0.69673962    -7.548472    811.44779   0.01977212   0.01980669         3994 
 3421000   0.69871375   -7.5607408    811.59782  0.019769995  0.019799336         3990 
 3422000   0.71384674    -7.529442    811.83185  0.019769917  0.019791983         3998 
 3423000   0.72339742   -7.5525427    811.63819  0.019759426  0.019784639         3993 
 3424000   0.68884311   -7.5637182    811.49284  0.019750118  0.019777298         3997 
 3425000   0.70184667   -7.5378847    812.83243  0.019776945  0.019769951         3997 
 3426000   0.71168311   -7.5647805    812.20644  0.019755946  0.019762616         3997 
 3427000   0.70058263    -7.525471    812.30652  0.019752615  0.019755285         3995 
 3428000   0.70229116   -7.5443978    811.15814  0.019718936  0.019747949         3997 
 3429000   0.71127523   -7.5300988    810.59666   0.01969954  0.019740621         3997 
 3430000   0.69213512   -7.5651438    813.15982  0.019756069  0.019733291         3997 
 3431000   0.69175042   -7.5520897    812.27572  0.019728838  0.019725966         3989 
 3432000   0.72115528   -7.5439302    812.01551  0.019716771  0.019718645         3996 
 3433000   0.72433451   -7.5412148    812.61247  0.019725519  0.019711324         3995 
 3434000   0.72209188    -7.567726    812.35501  0.019713527  0.019704002         3993 
 3435000    0.7021946   -7.5503053    811.05997   0.01967637  0.019696686         3998 
 3436000   0.69155615   -7.5365788    811.46681  0.019680511  0.019689369         3994 
 3437000   0.69985766   -7.5540828    812.18702  0.019692247  0.019682047         3995 
 3438000   0.70431868   -7.5333068     812.0892  0.019684148  0.019674744         3993 
 3439000   0.69539568   -7.5282999    810.75459  0.019646084   0.01966743         3992 
 3440000   0.69805276   -7.5216508    812.07992  0.019672479   0.01966013         3992 
 3441000   0.70443213   -7.5571329    810.46752  0.019627713  0.019652831         3996 
 3442000   0.70554839   -7.5512509    811.29651  0.019642081  0.019645527         3995 
 3443000   0.71154522   -7.5635966     812.6119  0.019668213  0.019638226         3999 
 3444000   0.69678405   -7.5505068    812.03896  0.019648639  0.019630924         3999 
 3445000   0.68857026   -7.5389216    812.63952  0.019657463  0.019623627         3995 
 3446000   0.70254297   -7.5569545    812.15416  0.019640021  0.019616332         3998 
 3447000    0.7094416    -7.563663    811.79259  0.019625582  0.019609042         3997 
 3448000   0.71348023   -7.5507413    811.31131  0.019608259   0.01960176         3995 
 3449000   0.68560949   -7.5420476    810.84564  0.019591322  0.019594476         3997 
 3450000   0.69890747   -7.5703019    810.29716  0.019572395  0.019587188         3995 
 3451000   0.70705988   -7.5527525    812.52902  0.019620618  0.019579906         3994 
 3452000    0.7017958    -7.562974    811.55876  0.019591511  0.019572627         3996 
 3453000   0.68373181   -7.5480791    812.33112  0.019604477  0.019565351         3996 
 3454000   0.70313707   -7.5398026    811.52024  0.019579238  0.019558084         3996 
 3455000   0.69401625   -7.5669324    811.49524  0.019572968  0.019550808         3992 
 3456000   0.69378728   -7.5710735    810.73044  0.019548863  0.019543533         3994 
 3457000   0.72511868   -7.5790514    811.41051  0.019559602  0.019536272         3996 
 3458000   0.71678932   -7.5644209    810.70689  0.019536989  0.019529006         3993 
 3459000   0.69798992   -7.5358214    812.38207  0.019571699  0.019521747         3995 
 3460000    0.7081106   -7.5541784    810.07845   0.01951056  0.019514487         3995 
 3461000   0.70669141   -7.5273369    810.37966  0.019512175  0.019507229         3992 
 3462000   0.69251592   -7.5613588    811.87578  0.019542552  0.019499981         3993 
 3463000   0.68877884   -7.5390689    810.52513  0.019504407  0.019492729         3998 
 3464000    0.6909224   -7.5704415    811.18112  0.019514557   0.01948548         3996 
 3465000   0.70660622   -7.5469523    811.60154  0.019519037  0.019478226         3994 
 3466000   0.68287787   -7.5860848    810.67794  0.019491199   0.01947099         3995 
 3467000   0.69038914   -7.5340239    811.80635  0.019512699   0.01946375         3995 
 3468000   0.69253867   -7.5754661    811.90858  0.019509529  0.019456507         3999 
 3469000   0.71453761   -7.5598268    811.98184  0.019505665  0.019449267         3995 
 3470000   0.68892819   -7.5547926    811.59137  0.019490667  0.019442033         3994 
 3471000   0.70709049   -7.5598452    811.94068  0.019493438    0.0194348         3997 
 3472000   0.68384964   -7.5518783    812.16982  0.019493323  0.019427568         3996 
 3473000   0.69696845     -7.55866     811.9979  0.019483585  0.019420341         3996 
 3474000   0.70497974   -7.5440312    811.76506  0.019472391  0.019413117         3995 
 3475000   0.69319646    -7.553829    812.81285  0.019491915  0.019405901         3992 
 3476000   0.69999583   -7.5602025    811.52316  0.019455388  0.019398682         3998 
 3477000   0.71057429   -7.5507532    812.04913  0.019462399  0.019391471         3997 
 3478000   0.70599292   -7.5585917    811.87884  0.019452723  0.019384256         3994 
 3479000   0.68238069   -7.5857871      810.894  0.019423541  0.019377042         3996 
 3480000   0.70391723   -7.5624132    812.69002  0.019460968  0.019369835         3994 
 3481000   0.68540353   -7.5437469    811.06373  0.019416445  0.019362629         3998 
 3482000   0.68797062   -7.5608067     810.2302   0.01939092  0.019355423         3998 
 3483000   0.69965403   -7.5465229    811.91758  0.019425724  0.019348216         3996 
 3484000    0.6903666   -7.5398403    810.40246  0.019383909  0.019341016         3992 
 3485000   0.68919591   -7.5728908    811.41543  0.019402569  0.019333823         3996 
 3486000   0.69337183   -7.5656442    812.34934  0.019419328  0.019326625         3995 
 3487000   0.69436331   -7.5691629    811.24453  0.019387356  0.019319428         3994 
 3488000   0.67795001   -7.5631914    811.93749  0.019398354  0.019312242         3992 
 3489000   0.69684118   -7.5532357    811.36496  0.019379119  0.019305043         3995 
 3490000   0.69129022   -7.5677367    811.85106  0.019385173  0.019297858         3997 
 3491000   0.69675527   -7.5821053    810.86065  0.019355978  0.019290675         3997 
 3492000   0.67544021   -7.5472019    811.49637  0.019365606  0.019283494         3997 
 3493000   0.67660602   -7.5500843    811.88389  0.019369307  0.019276321         3996 
 3494000   0.68827115   -7.5749586    812.91544  0.019388367  0.019269141         3997 
 3495000   0.68733646   -7.5418001    810.83507  0.019333216  0.019261963         3999 
 3496000   0.68760073   -7.5627388    811.85363  0.019351965  0.019254793         3999 
 3497000   0.69532611   -7.5674063    812.16564  0.019353866  0.019247632         3995 
 3498000    0.6882533   -7.5581148    811.92687  0.019342645  0.019240469         3997 
 3499000   0.68424717   -7.5379919    811.26769  0.019321418  0.019233307         3994 
 3500000   0.69073609   -7.5251484    810.92747  0.019307797  0.019226147         3993 
 3501000   0.69961636   -7.5443803    809.39611  0.019265831  0.019218987         3994 
 3502000    0.6872595   -7.5689935    811.22187  0.019303776  0.019211831         3995 
 3503000   0.69811023   -7.5605658     812.2982   0.01932387  0.019204678         3997 
 3504000   0.68707484   -7.5671334    810.43872  0.019274132  0.019197519         3995 
 3505000   0.70126476   -7.5541746    812.14305  0.019309155  0.019190367         3993 
 3506000   0.68840347   -7.5678923    810.71128  0.019269616  0.019183217         3999 
 3507000   0.68361829    -7.569051    809.99075     0.019247  0.019176069         4000 
 3508000   0.68738218   -7.5679945    811.51303  0.019277675  0.019168922         3997 
 3509000   0.69654002   -7.5587861    811.12084  0.019262868  0.019161778         3999 
 3510000   0.69437558   -7.5620997    811.75893  0.019272529  0.019154644         3991 
 3511000   0.69615924   -7.5470405    810.12834  0.019228338  0.019147504         3995 
 3512000   0.70774248   -7.5660561    811.37608   0.01925247  0.019140366         3998 
 3513000   0.68440866   -7.5522673    810.34745  0.019222589  0.019133231         3994 
 3514000   0.68403813    -7.576099    811.36513  0.019241252  0.019126097         3996 
 3515000   0.70078778   -7.5619187    812.33125  0.019258683  0.019118972         3996 
 3516000   0.67720305   -7.5631673    811.84773  0.019241746  0.019111848         3997 
 3517000   0.70001366   -7.5523942    812.20554  0.019244753  0.019104734         3994 
 3518000   0.68637653    -7.572885    811.54553  0.019223648  0.019097614         3994 
 3519000   0.67481078   -7.5472502    812.30284  0.019236119  0.019090495         3993 
 3520000   0.67049614   -7.5615304    810.02825  0.019176805  0.019083376         3994 
 3521000   0.69252567    -7.578819    811.47225  0.019205535  0.019076264         3997 
 3522000   0.67753202   -7.5622425     810.8703  0.019185839  0.019069159         3992 
 3523000   0.68869738   -7.5538308    810.48595  0.019171302  0.019062047         3994 
 3524000   0.68405769   -7.5685793    810.98806  0.019177735  0.019054946         3994 
 3525000    0.6951731   -7.5740021    810.49275  0.019160585   0.01904784         3996 
 3526000   0.68501037   -7.5865139    810.62026  0.019158165  0.019040741         3994 
 3527000   0.68649192   -7.5580567    810.18749  0.019142507   0.01903364         3998 
 3528000   0.70101153    -7.554646    810.41738  0.019142512  0.019026546         3994 
 3529000   0.68215834   -7.5982719    810.56543  0.019140583  0.019019448         3995 
 3530000   0.68654645   -7.5740274    809.64799  0.019113503  0.019012351         3997 
 3531000   0.68782465    -7.550788    811.23065  0.019145442  0.019005254         3994 
 3532000   0.69534451   -7.5696987    812.14321  0.019161552  0.018998171         3998 
 3533000   0.70201029   -7.5798398    812.34425   0.01916087  0.018991085         3997 
 3534000   0.68135408   -7.5592282    810.51022  0.019112201  0.018984004         4000 
 3535000   0.68657767   -7.5773713    810.77929  0.019113137  0.018976921         3994 
 3536000    0.6792416   -7.5873574    809.14486  0.019069213  0.018969845         3995 
 3537000   0.69075197   -7.5719067    811.33255  0.019115365  0.018962765         3998 
 3538000   0.68386979   -7.5739722    811.80483  0.019121086  0.018955685         3993 
 3539000   0.68126387   -7.5804331    812.88108  0.019141026  0.018948612         3998 
 3540000   0.68398376   -7.5677142    810.63965  0.019082854  0.018941543         3992 
 3541000   0.67895359   -7.5781046    810.25316   0.01906837  0.018934484         3996 
 3542000   0.69036896   -7.5693556     810.6992   0.01907348  0.018927428         3997 
 3543000   0.68136124   -7.5737207    809.74208  0.019045585  0.018920373         3996 
 3544000   0.70052329   -7.5697808    809.45521  0.019033465  0.018913313         3994 
 3545000   0.66084345   -7.5819701    810.50534  0.019052782  0.018906259         3994 
 3546000   0.68562493   -7.5748709    811.38088  0.019067985   0.01889921         3997 
 3547000   0.67902874   -7.5675936    809.90949   0.01902804  0.018892164         3996 
 3548000   0.68064528   -7.5946159    810.84462  0.019044641  0.018885121         3995 
 3549000   0.68072323    -7.566285     810.5962  0.019033441  0.018878069         3996 
 3550000   0.67241464   -7.5822664    809.60002  0.019004695  0.018871024         4000 
 3551000   0.69381739   -7.5610947     809.3269  0.018992934  0.018863978         3995 
 3552000   0.68761562   -7.5697153    810.62088  0.019017945  0.018856943         3997 
 3553000   0.70374487   -7.5961492    811.19162  0.019025978  0.018849913         3996 
 3554000   0.67239032   -7.5507484    809.84166  0.018988972  0.018842888         3998 
 3555000   0.68165443   -7.5807094    809.69517  0.018980196  0.018835868         3996 
 3556000   0.68629677   -7.5887487    810.20578  0.018986825  0.018828847         3994 
 3557000    0.6750487   -7.5722807    810.97437  0.018999493  0.018821828         3990 
 3558000   0.66707922   -7.5494025    811.45541   0.01900542  0.018814814         3997 
 3559000   0.67160544   -7.5654783    810.19802  0.018970638  0.018807797         3995 
 3560000   0.68241273   -7.5796424    811.44067  0.018994398  0.018800787         3995 
 3561000   0.70179463   -7.5614909    812.06278  0.019003622  0.018793777         3994 
 3562000   0.69024076   -7.5770742    810.47233  0.018961078  0.018786766         3997 
 3563000   0.68533146   -7.5786003    812.77121  0.019009524  0.018779754         3994 
 3564000    0.6937386   -7.6048423    808.78616  0.018911012  0.018772747         3997 
 3565000   0.68016058   -7.5624258    810.40048  0.018943443  0.018765743         3999 
 3566000    0.6808421   -7.6002303    811.46242  0.018962947  0.018758741         3992 
 3567000   0.69420018   -7.5860242    810.37922  0.018932325  0.018751746         3993 
 3568000   0.67600861   -7.5878574    811.83405  0.018960997  0.018744751         3996 
 3569000   0.67395031   -7.5693763    810.46534  0.018923726  0.018737749         3994 
 3570000   0.68826256   -7.5717855    810.20906  0.018912443  0.018730756         3997 
 3571000   0.68048016    -7.580709     808.8823  0.018876186  0.018723769         3998 
 3572000   0.69072317   -7.5736001    809.93727  0.018895513  0.018716788         3998 
 3573000   0.68354531   -7.5751904     810.5452  0.018904403  0.018709803         3989 
 3574000   0.67064387   -7.5813888    810.52911  0.018898739  0.018702821         3998 
 3575000   0.68532758   -7.5965114    811.44513  0.018914805  0.018695848         3994 
 3576000   0.67732506   -7.5773179    810.54661  0.018888577  0.018688869         3996 
 3577000   0.69082285   -7.5695264    808.99955  0.018847254   0.01868189         3997 
 3578000   0.68040308   -7.5901388    809.91097  0.018863214   0.01867492         3998 
 3579000   0.67804156   -7.5610057    811.60594  0.018897409  0.018667954         3997 
 3580000   0.66682188   -7.5803319    809.88208  0.018852004  0.018660983         3994 
 3581000   0.69330057   -7.5652023    809.70263  0.018842563  0.018654025         3996 
 3582000   0.67802206   -7.5760827    810.44446  0.018854561  0.018647063         3998 
 3583000   0.68177286   -7.5920348    809.72852  0.018832648  0.018640102         3995 
 3584000   0.67026503   -7.5702718    809.73895  0.018827636  0.018633148         3999 
 3585000   0.68347716    -7.586964    811.51511  0.018863671  0.018626188         3995 
 3586000   0.69497701   -7.5799389    811.05283  0.018847667  0.018619232         3995 
 3587000   0.68203548   -7.5871959    810.08298  0.018819881  0.018612292         3996 
 3588000   0.68388262   -7.5629309    811.31821  0.018843325  0.018605348         3998 
 3589000   0.68039927   -7.5777344    811.72932   0.01884762  0.018598413         3994 
 3590000   0.68335633   -7.5662229    810.69924   0.01881846  0.018591476         3992 
 3591000   0.67079771   -7.5788189    810.30566  0.018804086  0.018584538         3999 
 3592000   0.66629925   -7.5673613    810.67269  0.018807366  0.018577606         3996 
 3593000    0.6872284   -7.5893336    808.50471  0.018751849  0.018570667         3997 
 3594000    0.6800935   -7.5813536    808.81757  0.018753885  0.018563736         3997 
 3595000   0.66240811   -7.5901885    811.06762  0.018800826  0.018556819         3997 
 3596000    0.6896297   -7.5749063    811.79163  0.018812376  0.018549899         3995 
 3597000   0.67436904   -7.6035629    810.23737  0.018771137  0.018542975         3997 
 3598000   0.66860688   -7.5906626    810.24244  0.018766038  0.018536053         3994 
 3599000   0.65881315   -7.5962407    810.78974  0.018773496  0.018529134         4000 
 3600000   0.67751487   -7.5841788    810.48466  0.018761219  0.018522223         3996 
 3601000   0.67770153   -7.5803251    810.52993  0.018757057  0.018515309         3997 
 3602000   0.66868053   -7.5896585    808.35684  0.018701574  0.018508399         3993 
 3603000   0.70241712   -7.5782526    810.25641  0.018740319  0.018501499         3990 
 3604000   0.68643224   -7.5872182    810.54498  0.018741791  0.018494596         3995 
 3605000   0.67503124   -7.5958202    811.54274  0.018759656  0.018487702         3994 
 3606000   0.66853068    -7.577661    812.44281  0.018775254   0.01848081         3995 
 3607000   0.68229855   -7.5623515    808.78184  0.018685469  0.018473915         3997 
 3608000   0.67129309    -7.588943    810.07821  0.018710232  0.018467022         3997 
 3609000   0.68287926   -7.5835748    809.51555  0.018692056  0.018460135         3999 
 3610000   0.67121279   -7.6068512    811.46437  0.018731864  0.018453237         3994 
 3611000   0.67651356   -7.5890277    810.05796   0.01869422   0.01844635         3998 
 3612000   0.68456172   -7.5980527    810.69192  0.018703671  0.018439458         3996 
 3613000   0.67591229   -7.5691537    810.39973  0.018691755  0.018432572         3997 
 3614000   0.67449889   -7.5788442    809.63963  0.018669056   0.01842569         3991 
 3615000   0.66973665   -7.5986374    808.85084  0.018645709  0.018418804         3998 
 3616000   0.67552293   -7.5687824    810.29567  0.018673849  0.018411929         3998 
 3617000   0.67433435   -7.5973368    810.58001  0.018675238  0.018405065         4000 
 3618000   0.67642508   -7.5858725     809.4819  0.018644783  0.018398199         3996 
 3619000   0.65728137   -7.5693461    809.51392  0.018640368  0.018391331         3998 
 3620000   0.67494369   -7.6073382    810.46563  0.018657128  0.018384472         3999 
 3621000   0.65911164   -7.5743686    811.60661  0.018678234  0.018377613         3997 
 3622000   0.67219222    -7.586885    810.23772  0.018641582  0.018370756         3999 
 3623000   0.67233157   -7.5641927    811.17336  0.018657957  0.018363909         3994 
 3624000   0.67846276   -7.5961789    808.77135  0.018597575  0.018357055         3996 
 3625000   0.66910903    -7.576803    809.43427  0.018607684  0.018350207         3994 
 3626000    0.6763753   -7.5938164    808.52497  0.018581655   0.01834336         3997 
 3627000    0.6884416   -7.6135721    809.08167  0.018589322  0.018336517         3994 
 3628000   0.66954656   -7.5995774    809.69022  0.018598177  0.018329676         3994 
 3629000   0.66431731   -7.5894264    811.18713  0.018627426   0.01832284         3998 
 3630000   0.66678903   -7.5621121    810.74167  0.018612068  0.018316011         3995 
 3631000   0.66827574   -7.6005008    810.13399  0.018592995  0.018309173         3992 
 3632000    0.6713418   -7.5919171    810.04142  0.018585752   0.01830234         3994 
 3633000   0.67331388   -7.6090695    808.63254   0.01854832  0.018295513         3996 
 3634000   0.67150047   -7.5811289    809.22213  0.018556736  0.018288687         3992 
 3635000    0.6696533   -7.5896517     809.9672  0.018568712   0.01828186         3999 
 3636000   0.67809598    -7.596975    809.45551  0.018551877  0.018275033         3997 
 3637000   0.68000808   -7.6085716    809.79681  0.018554596  0.018268213         3995 
 3638000   0.66367753   -7.6062903    809.48269  0.018542301  0.018261405         3991 
 3639000   0.66512617    -7.622659    810.83317  0.018568132  0.018254594         3994 
 3640000     0.668889   -7.6072206    810.38067  0.018552671   0.01824778         3991 
 3641000    0.6694109    -7.591555    809.67775  0.018531487  0.018240971         3994 
 3642000   0.68487702   -7.5780758     809.6719  0.018526265  0.018234165         3997 
 3643000   0.67552547   -7.5848244    810.17406  0.018532667  0.018227369         3992 
 3644000   0.67483893   -7.6050609      810.006  0.018523738  0.018220564         3996 
 3645000   0.67254473   -7.5852135    810.94441   0.01854011  0.018213761         3996 
 3646000   0.66979851   -7.5697358    809.96528  0.018512646   0.01820697         3997 
 3647000   0.64957491   -7.5943401     809.8049  0.018503905  0.018200171         3995 
 3648000   0.66824563   -7.5891999    810.67254  0.018518653  0.018193376         3998 
 3649000   0.66177873    -7.591721     808.3592  0.018460747  0.018186585         3997 
 3650000     0.669992   -7.6064105    810.52468   0.01850513  0.018179806         3996 
 3651000   0.67016446   -7.5928549    810.33347  0.018495697  0.018173017         3992 
 3652000   0.68009511   -7.5924837    808.60513  0.018451194  0.018166233         3992 
 3653000   0.66897727   -7.5904228    809.11751  0.018457832  0.018159454         3995 
 3654000   0.65661723   -7.5999931    809.20973  0.018454883  0.018152674         3997 
 3655000   0.65937129   -7.6026624    809.83974  0.018464198  0.018145901         3990 
 3656000   0.67810808   -7.6008439    808.66753  0.018432429  0.018139124         3996 
 3657000   0.67289563    -7.576217    811.18056  0.018484654  0.018132352         3994 
 3658000   0.67673291   -7.6120242    809.52044  0.018441781  0.018125592         3997 
 3659000   0.66296364   -7.6023535    808.47564  0.018412946  0.018118823         3996 
 3660000   0.68059288   -7.5894449    809.16195  0.018423542  0.018112066         3996 
 3661000   0.66333686   -7.5927467    810.15067  0.018441015    0.0181053         3995 
 3662000   0.66071334   -7.6167499    809.17225  0.018413714  0.018098543         3997 
 3663000   0.67994838   -7.6114109    808.74882  0.018399054  0.018091786         3992 
 3664000   0.66722184   -7.6001229    810.77642  0.018440148  0.018085025         3997 
 3665000   0.65744296   -7.5981088    808.55039  0.018384502  0.018078279         3990 
 3666000   0.66899993   -7.6071332    808.91897  0.018387865  0.018071528         3995 
 3667000   0.67188116   -7.6053603     809.1994  0.018389224  0.018064777         3997 
 3668000    0.6535143   -7.5838137    809.16479  0.018383424   0.01805803         3997 
 3669000   0.65710557   -7.6068336    810.23258  0.018402666  0.018051291         3996 
 3670000   0.66958305   -7.6069007    809.75416  0.018386788  0.018044549         3996 
 3671000   0.66734063   -7.6017116    809.74732  0.018381625  0.018037812         3996 
 3672000   0.66755738   -7.6019588    807.25344  0.018320022  0.018031074         3996 
 3673000   0.66828103   -7.5893376    809.19298  0.018359038  0.018024344         3995 
 3674000   0.65979778    -7.611089    808.93526  0.018348196  0.018017614         3994 
 3675000    0.6526117   -7.5995268    809.95473   0.01836632  0.018010889         3994 
 3676000    0.6670836   -7.6076626    809.37838  0.018348258  0.018004161         3993 
 3677000   0.65367497   -7.6051446    810.06494  0.018358828  0.017997444         3996 
 3678000   0.66297875   -7.6083007    808.89856   0.01832741  0.017990727         3996 
 3679000   0.65901112   -7.6015462    809.57418  0.018337732  0.017984001         3997 
 3680000   0.65568047   -7.6223164    808.91599  0.018317844  0.017977286         3992 
 3681000   0.66137281   -7.6052788    808.43917  0.018302073  0.017970571         3996 
 3682000   0.67232853   -7.5946801    808.19978  0.018291684  0.017963858         3997 
 3683000    0.6642011   -7.6055626    809.32789  0.018312243  0.017957151         3993 
 3684000   0.66803916   -7.5955121    808.35014  0.018285155  0.017950449         3995 
 3685000   0.66416884   -7.5979921    809.78803   0.01831271  0.017943748         3995 
 3686000   0.67770109   -7.6172683    808.58298  0.018280498  0.017937049         3995 
 3687000   0.67879719   -7.6153785    809.70131  0.018300816  0.017930356         3995 
 3688000   0.66824625   -7.6065543    808.40118  0.018266476  0.017923667         3998 
 3689000   0.67082914   -7.6214244    808.73652    0.0182691  0.017916977         3999 
 3690000   0.68272373   -7.5898112    808.14283  0.018250741  0.017910289         3997 
 3691000   0.65257981   -7.6117242    809.35815  0.018273236  0.017903601         3998 
 3692000   0.66367502   -7.6031905    809.86203  0.018279659  0.017896927         3993 
 3693000   0.68054304   -7.6055148    809.25649  0.018261045  0.017890245         3994 
 3694000   0.67007923   -7.6032366    808.98114   0.01824989  0.017883566         3998 
 3695000   0.65500111   -7.5844585    810.17302  0.018271832  0.017876889         4000 
 3696000   0.67186101   -7.6147718     808.1594  0.018221487  0.017870218         3997 
 3697000   0.67067153   -7.6111485    809.08973  0.018237529   0.01786355         4000 
 3698000   0.64606633   -7.6000512    809.60761  0.018244267  0.017856888         3997 
 3699000   0.66054286    -7.611956    809.52429  0.018237458  0.017850229         3996 
 3700000   0.66414506   -7.6136947    808.51667  0.018209835  0.017843566         3997 
 3701000    0.6553736   -7.6064716    809.51343  0.018227358  0.017836909         3998 
 3702000   0.65566981   -7.5916947     808.7274  0.018204741  0.017830252         3997 
 3703000   0.66426457   -7.5807314    808.90354  0.018203788  0.017823599         3994 
 3704000   0.66575147   -7.6050951     808.7357  0.018195098  0.017816948         3998 
 3705000   0.65841216   -7.6085056    808.75172  0.018190547  0.017810299         3998 
 3706000   0.66726523   -7.5978711    809.11394  0.018193784  0.017803659         3995 
 3707000   0.64342345   -7.6013807    808.93414  0.018184834  0.017797016         3996 
 3708000   0.66527852   -7.6044842    808.30864  0.018165872   0.01779037         3991 
 3709000   0.66342668   -7.6050735      808.631  0.018168217  0.017783728         3999 
 3710000   0.65553171   -7.6189199    809.48983  0.018182611  0.017777103         3998 
 3711000   0.66457014   -7.6176089    810.84608  0.018208167  0.017770475         3994 
 3712000   0.66600826   -7.6017178    811.17865  0.018210728  0.017763846         3998 
 3713000   0.66782526   -7.6122883    809.65262  0.018171573  0.017757217         3996 
 3714000    0.6477833   -7.6364316    809.35108  0.018159915   0.01775059         3995 
 3715000   0.64395363   -7.5980326    810.13704  0.018172657  0.017743961         3992 
 3716000   0.66271211   -7.6177938    808.50842  0.018131244  0.017737346         3992 
 3717000   0.65058339   -7.5939715    807.50603  0.018103893  0.017730735         3997 
 3718000   0.65243444   -7.6047614    808.35458  0.018118042  0.017724125         3996 
 3719000   0.66619311    -7.619678     810.0052  0.018150157  0.017717517         3995 
 3720000   0.65905917   -7.6146628    808.74313  0.018117006  0.017710912         3998 
 3721000   0.65266926   -7.6002018    808.78656  0.018113109  0.017704309         3995 
 3722000    0.6662021   -7.6191011    810.02831  0.018136045  0.017697704         3997 
 3723000   0.65514955   -7.6159033    808.85038  0.018104808  0.017691105         3999 
 3724000   0.67589895   -7.5821468    808.02114   0.01808139   0.01768451         3995 
 3725000   0.66787331   -7.6151208    808.54783  0.018088318  0.017677918         3998 
 3726000   0.65765294    -7.604052    809.84966   0.01811258  0.017671322         3998 
 3727000   0.64701712   -7.6224002    808.27144  0.018072432  0.017664732         3997 
 3728000   0.66316772    -7.615778    809.48821  0.018094783  0.017658145         3998 
 3729000   0.63661442   -7.6010343    809.56451  0.018091636  0.017651557         3997 
 3730000   0.65879869   -7.6207054    808.62414  0.018065776  0.017644968         3995 
 3731000   0.66440837   -7.6256023    809.34973   0.01807714  0.017638387         4000 
 3732000    0.6729146   -7.6062445    808.75627  0.018059045  0.017631807         3999 
 3733000   0.65509442   -7.6219671    809.65322   0.01807423  0.017625235         3999 
 3734000   0.64941148   -7.6022277    808.59446  0.018045761   0.01761866         3998 
 3735000   0.64477826   -7.6319182    808.79149  0.018045326  0.017612096         3995 
 3736000   0.64951359   -7.6324837    808.79676  0.018040613  0.017605525         3999 
 3737000   0.64868989   -7.6275507    810.42571   0.01807211  0.017598963         3999 
 3738000   0.64316221   -7.6195457    809.20496  0.018040061    0.0175924         3999 
 3739000   0.66523736   -7.6015887    808.23133  0.018013536  0.017585842         3998 
 3740000   0.64916767   -7.6300353    807.46867  0.017991726  0.017579283         3994 
 3741000   0.66243623   -7.6063176    810.12403  0.018046067  0.017572733         3997 
 3742000   0.65565741   -7.6064112    808.70079  0.018009549  0.017566187         3997 
 3743000   0.66204752   -7.6265504    809.15518  0.018014854  0.017559634         3998 
 3744000   0.63801277   -7.6265163    807.56978  0.017974755  0.017553084         3997 
 3745000   0.64756108   -7.5968425    807.99615  0.017979443  0.017546534         3999 
 3746000   0.66066653   -7.6154141    808.02794   0.01797535  0.017539988         3999 
 3747000   0.66481658   -7.6478059    809.49709  0.018003227  0.017533452         3999 
 3748000   0.65870831    -7.613032    808.77976  0.017982474  0.017526917         3995 
 3749000   0.66461142   -7.6176115    809.28688   0.01798895  0.017520386         3999 
 3750000   0.66336895   -7.6285776    808.24519  0.017961004  0.017513862         4000 
 3751000   0.66089982   -7.6165029    809.09477   0.01797509  0.017507337         3998 
 3752000   0.63955231   -7.6198202    809.34621  0.017975884  0.017500814         4000 
 3753000   0.65038328   -7.6167565    808.75874   0.01795805  0.017494295         3997 
 3754000   0.65074076   -7.6299837     808.0118  0.017936685  0.017487772         3999 
 3755000   0.64347696   -7.5943045    810.50129  0.017987157  0.017481257         3992 
 3756000   0.63746649    -7.622552     807.1171  0.017907284  0.017474742         3999 
 3757000    0.6489975    -7.609914     808.7478  0.017938688   0.01746823         3999 
 3758000    0.6502825   -7.6337363    808.43462   0.01792697  0.017461723         4000 
 3759000   0.64452742   -7.6452936    809.15444  0.017938158  0.017455216         3995 
 3760000   0.64404631   -7.6386778    809.49454  0.017940925  0.017448709         3997 
 3761000    0.6483313   -7.6282767    808.62308  0.017916846  0.017442203         3995 
 3762000   0.64837711    -7.597542    809.05335  0.017921614  0.017435699         3998 
 3763000   0.65433878   -7.6116678    809.47862  0.017926269  0.017429203         3999 
 3764000   0.65343681   -7.6155694    807.84452  0.017885329  0.017422707         3999 
 3765000   0.66696149   -7.6206295    809.53806  0.017918062  0.017416217         3997 
 3766000   0.63927955   -7.6249679    808.84093  0.017897879  0.017409731         3997 
 3767000   0.64558723   -7.6100071    808.07761  0.017876241  0.017403251         3998 
 3768000   0.64472656   -7.6219308     808.7553  0.017886485  0.017396763         3995 
 3769000   0.65734434   -7.6397918    809.67556  0.017902086  0.017390286         3997 
 3770000    0.6528172   -7.6093564    810.49707  0.017915497  0.017383812         3994 
 3771000   0.64976898   -7.6339348    808.50702  0.017866769   0.01737734         4000 
 3772000   0.64339551   -7.6199063    808.40357  0.017859747   0.01737087         3998 
 3773000   0.66559652   -7.6438999    808.14523  0.017849307    0.0173644         3998 
 3774000   0.66906198   -7.6204697    807.57397  0.017831964  0.017357933         4000 
 3775000   0.63779976   -7.6313819     809.6729  0.017873574  0.017351464         3998 
 3776000   0.65126455   -7.6222946     808.0747  0.017833569  0.017345001         4000 
 3777000   0.64189301   -7.6374836    807.53923  0.017817034  0.017338545         3999 
 3778000   0.65597718   -7.6433902    809.19372  0.017848812   0.01733209         3996 
 3779000   0.64726474   -7.6433244    808.38619  0.017826281  0.017325637         3992 
 3780000   0.62828005    -7.605078      807.533  0.017802756  0.017319186         3998 
 3781000   0.64885342   -7.6328703    808.96025  0.017829504  0.017312737         3999 
 3782000   0.64456871   -7.6384447    807.98101  0.017803213  0.017306286         3999 
 3783000   0.66121747   -7.6426236    807.68827  0.017792058  0.017299842         3996 
 3784000   0.64922705    -7.633358    808.04059  0.017795115  0.017293402         3998 
 3785000   0.64229268   -7.6511831    807.00593  0.017767634  0.017286965         3999 
 3786000   0.64632718   -7.6311572    808.54688  0.017796859   0.01728053         3998 
 3787000   0.64818407   -7.6315782    807.80935   0.01777593  0.017274098         3995 
 3788000   0.63458948   -7.6141507    808.97021  0.017796775  0.017267669         3999 
 3789000   0.64660557   -7.6170797    807.91253  0.017768816   0.01726124         3997 
 3790000   0.63475949   -7.6256808    808.37853  0.017774374   0.01725481         3998 
 3791000   0.65015963   -7.6171202    807.74229    0.0177557  0.017248383         3997 
 3792000   0.63757932   -7.6149607    809.83629  0.017797035  0.017241959         4000 
 3793000   0.64949896   -7.6581722    807.56949  0.017742541  0.017235539         3998 
 3794000    0.6389327     -7.63406    807.97238  0.017746714  0.017229125         3997 
 3795000   0.65044317   -7.6310481    808.52505  0.017754173  0.017222716         3998 
 3796000   0.65142072   -7.6272462    808.40736  0.017746912    0.0172163         3998 
 3797000   0.64592133   -7.6088749    807.49019  0.017722109  0.017209896         3995 
 3798000   0.65561571   -7.6400927     806.8649  0.017703723  0.017203489         3996 
 3799000   0.64621652   -7.6251939    807.62875  0.017715819  0.017197084         3995 
 3800000   0.64465899   -7.6257064    806.81284  0.017693264  0.017190684         3999 
 3801000   0.65338722   -7.6267342    808.10737  0.017716991   0.01718428         3993 
 3802000   0.64174743   -7.6352863    807.91929  0.017708208  0.017177879         3999 
 3803000   0.65225827    -7.636061    809.13568  0.017730206  0.017171486         3998 
 3804000   0.65386803   -7.6315208    808.15307  0.017704019  0.017165097         3993 
 3805000   0.64310312   -7.6292467    807.05222  0.017675257  0.017158711         3998 
 3806000   0.66072062   -7.6222034    808.94101  0.017711968  0.017152328         3995 
 3807000   0.65078687    -7.629399    807.43999  0.017674459  0.017145946         3991 
 3808000   0.64156012   -7.6171749    808.47757  0.017692524  0.017139565         3991 
 3809000   0.65210472   -7.6348341     806.1111  0.017636105   0.01713319         3996 
 3810000    0.6344439   -7.6157801    808.48214  0.017683336  0.017126808         4000 
 3811000   0.64370891   -7.6435704     806.9836  0.017645928  0.017120437         3999 
 3812000   0.65451809    -7.648955     808.5728  0.017676041  0.017114066         3999 
 3813000   0.63401965   -7.6313832    808.10976  0.017661285    0.0171077         3997 
 3814000   0.65401876    -7.637105    807.10454  0.017634691  0.017101332         3998 
 3815000   0.63754569   -7.6183235    808.61536   0.01766307   0.01709497         3997 
 3816000   0.64298114   -7.6381827    808.51146  0.017656173  0.017088611         3997 
 3817000   0.63436138    -7.605516    806.22763  0.017601686  0.017082257         4000 
 3818000   0.63821802   -7.6339821    808.33502  0.017643073  0.017075907         3996 
 3819000   0.65201436   -7.6411324    808.97579  0.017652435  0.017069561         3998 
 3820000   0.64279372   -7.6153648    807.32276  0.017611753  0.017063216         3996 
 3821000   0.64297255   -7.6468513    809.12581  0.017646467  0.017056872         3992 
 3822000   0.64192163   -7.6495618    808.63667  0.017631185  0.017050527         3998 
 3823000   0.65491542   -7.6423291     807.8885  0.017610265  0.017044191         3996 
 3824000   0.63654804   -7.6274455    806.57301  0.017576992  0.017037856         3993 
 3825000   0.64950962   -7.6315596    806.93193  0.017580216  0.017031524         3999 
 3826000   0.64640376   -7.6555007    809.77636  0.017637575  0.017025191         3997 
 3827000   0.64119715    -7.634588    807.86644  0.017591378  0.017018861         3997 
 3828000   0.65380415   -7.6256068    807.79417  0.017585209  0.017012536         4000 
 3829000   0.63165895   -7.6388614    809.25809  0.017612477  0.017006211         4000 
 3830000   0.64971184   -7.6382311    808.27612  0.017586513  0.016999889         3996 
 3831000   0.63615863    -7.643287    806.43805   0.01754194  0.016993566         3993 
 3832000     0.635336    -7.640523     807.5463  0.017561463  0.016987247         3996 
 3833000   0.62967492   -7.6111832    809.06653  0.017589932  0.016980933         3994 
 3834000   0.64682551   -7.6428053     808.4543  0.017572037  0.016974621         3992 
 3835000   0.63951396   -7.6194625    808.08806  0.017559497  0.016968312         3994 
 3836000   0.64453941   -7.6466656     808.3049   0.01755963  0.016961998         3992 
 3837000   0.64065169   -7.6600421    807.07022  0.017528239  0.016955691         3998 
 3838000    0.6303731   -7.6538881    808.59554   0.01755679   0.01694939         3995 
 3839000   0.63706521   -7.6693797    809.11777  0.017563553  0.016943089         3999 
 3840000   0.63609901    -7.635531    807.24786    0.0175184   0.01693679         3996 
 3841000   0.63753425   -7.6294825    807.17435  0.017512244  0.016930497         3999 
 3842000   0.63383365   -7.6518832    807.99569  0.017525501  0.016924208         3998 
 3843000    0.6456315   -7.6433835    807.31049  0.017506082  0.016917916         3996 
 3844000   0.64793559   -7.6316081    806.89149  0.017492445  0.016911631         3995 
 3845000    0.6576332   -7.6479965    807.94873  0.017510809  0.016905346         3996 
 3846000   0.64243051   -7.6322989    807.47419  0.017495974  0.016899068         3997 
 3847000   0.63566837   -7.6538631    809.32402  0.017531497   0.01689279         3999 
 3848000   0.63118348   -7.6414344    807.32234  0.017483592   0.01688651         3996 
 3849000    0.6304546   -7.6390688    809.21692  0.017520068  0.016880239         3994 
 3850000   0.64191899   -7.6564444    807.96561  0.017488433  0.016873973         3996 
 3851000   0.63674051    -7.663061    807.69439  0.017478023  0.016867706         3998 
 3852000   0.63256777   -7.6236858    806.83634  0.017454923  0.016861437         3997 
 3853000   0.63270961   -7.6240415     808.6481  0.017489577  0.016855168         3997 
 3854000   0.63993897   -7.6447156     806.1384  0.017430773  0.016848913         3995 
 3855000   0.63354064   -7.6418237    807.74422  0.017460965  0.016842661         3999 
 3856000   0.63812495   -7.6363981    807.71241  0.017455749  0.016836408         3999 
 3857000   0.63617483   -7.6453669    807.77208  0.017452512  0.016830157         4000 
 3858000   0.63494147   -7.6477834    808.99023  0.017474301  0.016823906         3999 
 3859000   0.63835375   -7.6417481    808.64386  0.017462293  0.016817655         3994 
 3860000   0.63150623   -7.6411141    807.78715  0.017439273   0.01681141         3997 
 3861000   0.63977586   -7.6611028    806.74158   0.01741219  0.016805168         3999 
 3862000    0.6362028   -7.6304179      808.678  0.017449465  0.016798936         3999 
 3863000   0.63745617    -7.648896    808.78226  0.017447197  0.016792696         3999 
 3864000   0.62745853   -7.6639593    806.05624  0.017383891  0.016786462         3998 
 3865000   0.64449292   -7.6419753    808.15099  0.017424558  0.016780226         3999 
 3866000   0.64678736   -7.6401266    806.43251  0.017383008  0.016774002         3997 
 3867000   0.63768466   -7.6395094    805.99841  0.017369158  0.016767775         4000 
 3868000   0.63410943   -7.6341861    806.28936  0.017370936  0.016761556         3998 
 3869000   0.63207071   -7.6357763    808.02309  0.017403789  0.016755338         3998 
 3870000   0.64431419    -7.645856    806.59255  0.017368487  0.016749116         4000 
 3871000   0.62793318   -7.6538679    807.49443  0.017383416  0.016742902         3997 
 3872000   0.62986671   -7.6438187     807.7806  0.017385085  0.016736686         3999 
 3873000   0.64218573    -7.619816      807.832  0.017381702  0.016730484         3997 
 3874000   0.63332149   -7.6538175     807.6153  0.017372554   0.01672428         3999 
 3875000     0.634575   -7.6338352     807.8145  0.017372355  0.016718081         3997 
 3876000   0.63216941    -7.645131    806.82207  0.017346536   0.01671188         3996 
 3877000   0.62384083   -7.6543449     808.6061  0.017380408  0.016705677         4000 
 3878000   0.62243986   -7.6435207    808.74733  0.017378961  0.016699473         3998 
 3879000   0.63682971   -7.6413927    807.68245  0.017351604  0.016693278         3998 
 3880000   0.63386783   -7.6510722    807.28969  0.017338696  0.016687087         3998 
 3881000    0.6300885   -7.6549976    807.61457  0.017341204  0.016680902         4000 
 3882000   0.63038768    -7.645634    808.15756  0.017348394  0.016674714         3997 
 3883000    0.6458019   -7.6558279    807.39219    0.0173275  0.016668536         3996 
 3884000   0.62113434   -7.6501505      805.372  0.017279694  0.016662353         3997 
 3885000   0.62175486    -7.657896    806.21386  0.017293305  0.016656173         3997 
 3886000   0.64375522   -7.6556925    807.33291  0.017312852  0.016649993         3999 
 3887000   0.61646692   -7.6383202    806.89915  0.017299098  0.016643823         3998 
 3888000   0.63559543   -7.6447838    806.77922  0.017292079  0.016637655         3998 
 3889000   0.63858034   -7.6542039    808.20073  0.017318092  0.016631484         3997 
 3890000   0.62304084   -7.6570166    805.88118   0.01726395  0.016625317         3998 
 3891000   0.62954112   -7.6506203    806.81063  0.017279419  0.016619159         3998 
 3892000   0.62936497   -7.6489902    808.21218  0.017304988  0.016612998         4000 
 3893000   0.61419881   -7.6416438    807.10507  0.017276845   0.01660684         3996 
 3894000   0.63357032   -7.6430912    806.60805  0.017261771  0.016600687         3995 
 3895000   0.63941082   -7.6506389     806.4838  0.017254681  0.016594534         3997 
 3896000   0.63212801   -7.6650439    807.51517  0.017272313  0.016588389         3998 
 3897000   0.63909558   -7.6617928    807.66731  0.017271134  0.016582244         3996 
 3898000   0.62578888   -7.6514828    807.48006    0.0172627  0.016576098         3999 
 3899000   0.62350644   -7.6637235    807.77901  0.017264662   0.01656996         3997 
 3900000   0.63063288   -7.6484162    808.81796  0.017282435  0.016563824         3998 
 3901000   0.62575434   -7.6525215    807.23897  0.017244274  0.016557691         3996 
 3902000   0.61022322   -7.6446728    806.72379  0.017228852  0.016551561         3996 
 3903000   0.64197947   -7.6390797    807.08163  0.017232078  0.016545435         3999 
 3904000   0.62635682   -7.6526507    806.06928  0.017206055  0.016539305         3998 
 3905000   0.62885265    -7.654613    807.23366  0.017226497  0.016533185         3998 
 3906000    0.6232477   -7.6648877    806.93256  0.017215663  0.016527062         4000 
 3907000    0.6174122   -7.6457392    807.04177  0.017213586  0.016520944         3997 
 3908000   0.63747974   -7.6687697    807.24041  0.017213417  0.016514828         3998 
 3909000    0.6367303   -7.6608236    807.05467  0.017205054  0.016508716         3999 
 3910000   0.63317997   -7.6278824     807.7121  0.017214665  0.016502604         3997 
 3911000   0.62416166   -7.6690522     806.4307   0.01718296  0.016496496         3999 
 3912000   0.61681441   -7.6643469     807.9722  0.017211405   0.01649039         3996 
 3913000   0.62219487   -7.6647041     807.6633  0.017200428   0.01648429         4000 
 3914000   0.61864958   -7.6637933    808.15079  0.017206413   0.01647819         3997 
 3915000   0.62257466   -7.6510452    806.82277   0.01717375  0.016472091         3999 
 3916000   0.62766401   -7.6588425    806.64033  0.017165482  0.016465989         3998 
 3917000   0.62489449   -7.6653982    808.46006  0.017199814  0.016459898         4000 
 3918000   0.61867416   -7.6396752    807.42365   0.01717338  0.016453806         3995 
 3919000    0.6280892   -7.6398105    807.01903  0.017160395  0.016447717         3996 
 3920000   0.63553574   -7.6389294    806.14828  0.017137506  0.016441632         3995 
 3921000   0.60338043   -7.6128166    808.10188  0.017174655   0.01643555         3999 
 3922000   0.62197384   -7.6466866    807.71717  0.017162102  0.016429467         3998 
 3923000   0.63170092   -7.6599379    807.90001  0.017161611  0.016423393         4000 
 3924000   0.63005474   -7.6622867    808.84705   0.01717735  0.016417319         3996 
 3925000   0.61370182   -7.6578495    808.29967  0.017161352  0.016411242         3997 
 3926000   0.63052138   -7.6447895    807.77212  0.017145783  0.016405175         3997 
 3927000   0.62335604   -7.6391059    806.58431  0.017116211   0.01639911         4000 
 3928000   0.63671402    -7.665904    806.49809  0.017110024  0.016393045         3999 
 3929000   0.61197288   -7.6576002    808.66202  0.017151566  0.016386985         3999 
 3930000   0.61746565   -7.6516609    806.06757  0.017092188  0.016380925         3999 
 3931000   0.63027525   -7.6588605    807.95307   0.01712781  0.016374869         4000 
 3932000   0.63289213   -7.6384212    807.14235  0.017106272  0.016368815         3997 
 3933000   0.62235137   -7.6614041    806.32487  0.017084602  0.016362765         3995 
 3934000    0.6161384   -7.6630138    806.49198  0.017083799  0.016356715         3996 
 3935000   0.61463916   -7.6753099    805.43493  0.017057072  0.016350662         3999 
 3936000   0.60933911   -7.6884689    806.36437  0.017072416  0.016344611         3998 
 3937000   0.62277864    -7.639768    805.19567  0.017043342  0.016338564         3994 
 3938000   0.63107717   -7.6496126    807.31949  0.017083957  0.016332525         3999 
 3939000   0.62750654   -7.6582131    807.67379  0.017087116  0.016326487         3998 
 3940000   0.61683833   -7.6621355    807.00287  0.017068589  0.016320452         4000 
 3941000   0.61735391   -7.6526081    807.24044  0.017069281  0.016314418         3998 
 3942000   0.60312112   -7.6390382    806.69908  0.017053507  0.016308383         3999 
 3943000   0.60448157   -7.6712282    806.66496  0.017048461  0.016302352         3999 
 3944000   0.62297985   -7.6615326    807.62116  0.017064342  0.016296322         3999 
 3945000   0.63061114   -7.6901164    806.35237  0.017033214  0.016290293         3999 
 3946000   0.62372988   -7.6597118     808.0808    0.0170654   0.01628427         3998 
 3947000   0.62955267   -7.6488054    805.64832  0.017009719  0.016278251         3999 
 3948000   0.61908126   -7.6743044    807.44391  0.017043311  0.016272236         3998 
 3949000   0.62914995   -7.6461729    805.12829   0.01699013  0.016266224         3999 
 3950000   0.61127612   -7.6725965    806.82625  0.017021651  0.016260207         3999 
 3951000   0.62563832   -7.6731265    807.57876  0.017033214  0.016254194         3998 
 3952000   0.62522749   -7.6735842    807.21283  0.017021188   0.01624819         3999 
 3953000   0.61876965   -7.6695622    806.27439  0.016997099  0.016242189         3992 
 3954000   0.59755185   -7.6780514    807.80441  0.017025047  0.016236188         3996 
 3955000   0.61900905   -7.6718176    807.79636  0.017020572  0.016230192         3999 
 3956000   0.61338747   -7.6739788    805.85819  0.016975442  0.016224196         4000 
 3957000   0.61987718    -7.661382    807.25791   0.01700063  0.016218209         3997 
 3958000   0.61979732   -7.6495746    807.72382  0.017006144  0.016212219         3996 
 3959000   0.62213087   -7.6673814    807.63066  0.016999888  0.016206232         3995 
 3960000   0.62196711   -7.6555497    806.74809  0.016977022  0.016200241         3999 
 3961000   0.62166067    -7.676674    807.79757  0.016994816  0.016194259         4000 
 3962000   0.61377827   -7.6584869    807.18823   0.01697771  0.016188281         3999 
 3963000   0.61757698   -7.6657584    808.06298   0.01699182  0.016182301         3997 
 3964000   0.61945391   -7.6749336    806.65798  0.016957997   0.01617632         3996 
 3965000   0.61293771   -7.6731537    807.16274  0.016964328  0.016170346         3998 
 3966000   0.61973467   -7.6637389    806.53061  0.016946769  0.016164377         3999 
 3967000   0.62677698   -7.6563086    806.56393  0.016943197  0.016158407         3999 
 3968000   0.61666618   -7.6744923    805.45164  0.016915567  0.016152444         3996 
 3969000   0.61512583   -7.6505608    806.09432  0.016924799  0.016146476         3996 
 3970000   0.61443796   -7.6630826    806.26088  0.016924032  0.016140515         3997 
 3971000    0.6038374   -7.6772498    806.71049  0.016929205   0.01613455         3997 
 3972000   0.61626021   -7.6634295    806.96318  0.016930245  0.016128597         3999 
 3973000   0.60868762   -7.6727561    807.63823  0.016940142  0.016122652         3997 
 3974000   0.62486495   -7.6770802    806.28087  0.016907416  0.016116702         3996 
 3975000   0.60492926   -7.6648626    807.01356  0.016918523   0.01611076         3997 
 3976000   0.61506801   -7.6714975    804.97677  0.016871579  0.016104815         3998 
 3977000   0.61412633   -7.6522268    807.54224  0.016921093  0.016098877         3994 
 3978000   0.63559183   -7.6757049    806.48847  0.016894764  0.016092936         3995 
 3979000   0.61960679   -7.6728035    807.36653  0.016908908     0.016087         4000 
 3980000   0.60964666   -7.6661162    805.80928  0.016872054  0.016081072         3996 
 3981000   0.61224706   -7.6650907    805.76325  0.016866852  0.016075139         3997 
 3982000   0.60744441   -7.6624196    806.67497  0.016881696  0.016069214         3999 
 3983000   0.60993741   -7.6616101    807.56041  0.016895983   0.01606329         3993 
 3984000   0.61315665   -7.6755547    806.26458  0.016864637  0.016057366         4000 
 3985000   0.62189423   -7.6662673    806.81078  0.016871827  0.016051447         3998 
 3986000   0.61381117   -7.6745053    805.71748  0.016844738   0.01604553         3999 
 3987000   0.61495487   -7.6779969     806.1194  0.016848913  0.016039617         3999 
 3988000   0.62123674   -7.6500272    806.19716  0.016846313  0.016033706         3998 
 3989000   0.60339231    -7.668878    806.35839  0.016845458  0.016027798         3995 
 3990000   0.61188213   -7.6724299    805.50844  0.016823485  0.016021882         3997 
 3991000   0.61620154    -7.679204    806.18598  0.016833416  0.016015977         3997 
 3992000   0.60944677   -7.6515028    805.12119  0.016806972  0.016010074         4000 
 3993000   0.61210128   -7.6535091    806.54107  0.016832396  0.016004179         3995 
 3994000   0.61299424   -7.6797045    806.00519     0.016817   0.01599828         3997 
 3995000   0.60978928   -7.6781292    806.42414   0.01682153  0.015992386         3997 
 3996000   0.60783587   -7.6801731    806.44507  0.016817757  0.015986495         3999 
 3997000   0.61838407   -7.6842691    806.66792  0.016818195  0.015980606         3997 
 3998000   0.60109107   -7.6910747    805.88993  0.016797772  0.015974719         3997 
 3999000   0.60411589   -7.6487174    806.08232  0.016797581   0.01596883         4000 
 4000000    0.6164511   -7.6706349    806.44943   0.01680103  0.015962948         3999 
 4001000   0.61768347   -7.6669608    807.77996  0.016824543  0.015957068         3998 
 4002000   0.60630585   -7.6779628    807.06322  0.016805414   0.01595119         4000 
 4003000   0.61278785   -7.6536529    806.26702  0.016784641  0.015945313         3996 
 4004000   0.61151639    -7.660187    807.16992  0.016799241  0.015939441         3999 
 4005000   0.61135744   -7.6937619    805.34408  0.016757055  0.015933571         3997 
 4006000   0.61305427   -7.6701983    806.42686  0.016775397  0.015927707         4000 
 4007000   0.60693007   -7.6715023    807.79026  0.016799564  0.015921845         4000 
 4008000   0.61249658   -7.6602673    806.61884  0.016771017  0.015915984         3999 
 4009000   0.60777765   -7.6735758     806.6463  0.016767405  0.015910121         3996 
 4010000   0.62425533   -7.6958462    807.09214  0.016772488  0.015904268         3996 
 4011000   0.60124245   -7.6856084    806.35178  0.016752925  0.015898414         3999 
 4012000   0.60948785   -7.6890678    804.17351  0.016703504  0.015892557         3998 
 4013000   0.60716074   -7.6769592    806.72082  0.016752239  0.015886702         3997 
 4014000   0.61327737   -7.6799408    807.50884  0.016764425   0.01588085         3995 
 4015000    0.6237898   -7.6573826    805.07058  0.016709643  0.015875002         4000 
 4016000   0.59391884   -7.6808667    807.35083  0.016752798  0.015869156         3998 
 4017000   0.60664595   -7.6687492    805.68673  0.016714105  0.015863312         3997 
 4018000   0.61074395   -7.6993597    805.75338  0.016711328  0.015857471         3997 
 4019000   0.59748421   -7.6725922    804.03578  0.016671556  0.015851631         3997 
 4020000   0.60916524   -7.6698909    807.58725  0.016741029  0.015845797         3999 
 4021000   0.60402117   -7.6756064    806.24266     0.016709  0.015839965         3999 
 4022000   0.60649451   -7.6724615    806.31464  0.016706337  0.015834141         3998 
 4023000   0.60181462   -7.6607021    807.62685  0.016729366  0.015828314         4000 
 4024000   0.60156266   -7.6745342    805.94806  0.016690442  0.015822488         4000 
 4025000   0.59755161   -7.6820969    804.65701  0.016659566  0.015816659         3999 
 4026000   0.60741565   -7.6804793     806.8273   0.01670035  0.015810842         3998 
 4027000   0.60416889   -7.6820531     804.8292  0.016654855  0.015805022         3997 
 4028000   0.61423704   -7.6739031    805.17817   0.01665794  0.015799209         3997 
 4029000   0.62787723   -7.6628256    805.37212  0.016657817  0.015793402         3998 
 4030000   0.60597567   -7.6895342    806.45604  0.016676097  0.015787594         3998 
 4031000    0.6075198   -7.6886571    805.55165  0.016653263  0.015781795         3999 
 4032000   0.61998961   -7.6628872    807.56848  0.016690817  0.015775993         3996 
 4033000   0.60439428   -7.6868371    806.13346  0.016657027  0.015770196         3998 
 4034000   0.61189325   -7.6806186    805.40824  0.016637916  0.015764396         4000 
 4035000   0.59326471   -7.6768287    804.66633   0.01661847  0.015758596         3996 
 4036000   0.61497327   -7.6732154    804.81944  0.016617514  0.015752803         4000 
 4037000   0.59698036   -7.6748592    806.48154  0.016647707   0.01574701         3999 
 4038000   0.61750014   -7.6725473    804.19951   0.01659649  0.015741219         3999 
 4039000   0.62126287   -7.6793659    805.69234  0.016623181  0.015735437         3992 
 4040000   0.59727277   -7.6779661    807.37427   0.01665376  0.015729652         3999 
 4041000    0.6068193   -7.6825298    805.41591  0.016609253  0.015723867         4000 
 4042000   0.60563901   -7.6762085    805.73442  0.016611711  0.015718086         3998 
 4043000   0.61796629   -7.6707932    806.32288  0.016619731  0.015712313         4000 
 4044000   0.60862669   -7.6656363    807.78523  0.016645756  0.015706543         3993 
 4045000   0.60221151    -7.674318    805.41207   0.01659275  0.015700772         3998 
 4046000   0.60433372   -7.6932676    805.80962  0.016596837  0.015694998         3998 
 4047000   0.59532863   -7.6723439    805.14945  0.016579142  0.015689236         4000 
 4048000   0.60445023     -7.68909    806.21742  0.016597032  0.015683471         3997 
 4049000    0.5960569   -7.6816588    805.89999    0.0165864  0.015677708         3999 
 4050000   0.60545186   -7.6962536    806.38864  0.016592359  0.015671951         4000 
 4051000   0.61297063   -7.6807998    806.35439  0.016587558    0.0156662         3999 
 4052000   0.60960318    -7.695776    804.78707  0.016551231  0.015660444         3997 
 4053000    0.6103115   -7.6933776    806.54644  0.016583322  0.015654693         3995 
 4054000   0.60826464   -7.6808925    805.19573  0.016551466   0.01564894         3997 
 4055000   0.59872707   -7.6665653    806.03963  0.016564727   0.01564319         3995 
 4056000   0.60113898   -7.6959577     804.6784  0.016532676  0.015637449         3995 
 4057000   0.61386179   -7.6779462    805.98779  0.016555496  0.015631711         3996 
 4058000    0.6187344   -7.6813647    805.44764  0.016540324  0.015625974         3994 
 4059000   0.60467061   -7.6932426    806.11076  0.016549864  0.015620238         3999 
 4060000   0.60509537    -7.710363    806.74783  0.016558863   0.01561451         3998 
 4061000   0.60671783   -7.6900228    805.54382  0.016530079  0.015608783         3994 
 4062000   0.60863662   -7.6927641    805.98654  0.016535092  0.015603055         3996 
 4063000   0.61445218   -7.6833119    806.19652  0.016535329  0.015597329         3993 
 4064000   0.61845356    -7.682532    805.06411   0.01650804  0.015591606         3999 
 4065000   0.60728937   -7.6832855    804.92353  0.016501097  0.015585884         4000 
 4066000   0.59624175   -7.6951169    805.86974  0.016516432  0.015580163         3997 
 4067000   0.60162872   -7.6909916    804.93435  0.016493204  0.015574448         3998 
 4068000   0.60259809   -7.6832061    805.57049  0.016502181  0.015568734         3993 
 4069000   0.59361398   -7.6923144    804.55535  0.016477336   0.01556302         3995 
 4070000    0.6092859    -7.685885     806.1603  0.016506149   0.01555731         3997 
 4071000   0.60079582   -7.6977334     805.4936  0.016488447  0.015551603         3995 
 4072000   0.59060764   -7.6989025    805.87424  0.016492187  0.015545899         3998 
 4073000   0.60118864   -7.6751408    805.38508   0.01647813  0.015540199         3993 
 4074000   0.60701286   -7.6764259    803.46173  0.016434743  0.015534499         3998 
 4075000   0.60518774   -7.6992265    805.12936  0.016464813  0.015528801         3997 
 4076000   0.59424012   -7.6826017    805.81741  0.016474841  0.015523098         3994 
 4077000    0.5958629   -7.7029321    804.38168  0.016441454  0.015517403         3996 
 4078000   0.59282221   -7.6848221    806.77697  0.016486369  0.015511713         3996 
 4079000   0.59591649   -7.7038236     806.8557  0.016483936  0.015506026         3999 
 4080000   0.59719813   -7.6967597    805.47311  0.016451657  0.015500345         4000 
 4081000   0.58719399   -7.6789178    804.99032  0.016437767  0.015494659         3999 
 4082000    0.6089342   -7.6844007    805.73522  0.016448947  0.015488976         3998 
 4083000   0.59859648   -7.6969246    804.58727  0.016421489  0.015483301         3998 
 4084000   0.60238547    -7.698575    804.65024  0.016418753  0.015477629         3998 
 4085000     0.596027   -7.7032454    806.15191  0.016445367  0.015471958         3998 
 4086000   0.59640372   -7.6682127    805.28611  0.016423685  0.015466287         3999 
 4087000   0.60950852   -7.6963611    805.93949  0.016432989   0.01546062         3999 
 4088000   0.59008334   -7.6860954    806.63811   0.01644321  0.015454954         3995 
 4089000   0.59675141   -7.6905829    805.67547   0.01641957  0.015449292         4000 
 4090000   0.59614318   -7.6937493    805.89121  0.016419951  0.015443632         3996 
 4091000   0.60023903   -7.6873351     804.9996  0.016397776  0.015437973         3997 
 4092000   0.59478725   -7.7105725    805.70724  0.016408179  0.015432314         3997 
 4093000   0.60917094    -7.695055    805.46929  0.016399326  0.015426663         3999 
 4094000    0.6008776   -7.6930736    805.04185   0.01638662  0.015421007         3996 
 4095000   0.59775358   -7.7063484    805.55796  0.016393121  0.015415359         4000 
 4096000   0.59960698   -7.6918511    804.94432  0.016376634  0.015409714         4000 
 4097000   0.59943404   -7.7041164    806.11368  0.016396422  0.015404074         3998 
 4098000   0.60389529     -7.68047    805.70249  0.016384059  0.015398433         3999 
 4099000   0.58791331   -7.7108422    805.23474  0.016370553  0.015392792         4000 
 4100000   0.60640986   -7.7010168    805.86522  0.016379374  0.015387153         3998 
 4101000   0.58387162    -7.680363     805.5349  0.016368668  0.015381518         3999 
 4102000   0.59221296   -7.6797322    804.22838  0.016338136  0.015375887         3994 
 4103000   0.59794382   -7.6988855    804.75598  0.016344869  0.015370255         3998 
 4104000   0.58883018   -7.6911387    805.20125  0.016349928  0.015364629         3995 
 4105000   0.59122646   -7.6974773    805.89106  0.016359949  0.015359004         4000 
 4106000   0.58746262   -7.6918749    804.72582  0.016332315  0.015353378         3997 
 4107000   0.58627644    -7.693396      805.338   0.01634076  0.015347756         3997 
 4108000   0.59533338   -7.6951459    804.84266  0.016326734  0.015342133         4000 
 4109000   0.58376311   -7.7061854    805.01713  0.016326299  0.015336517         3999 
 4110000   0.58875247   -7.6956994    804.40027  0.016309819  0.015330906         3999 
 4111000   0.58373059    -7.689718    805.08125  0.016319656  0.015325299         3994 
 4112000   0.60536384   -7.6823669    804.32777  0.016300417  0.015319694         3996 
 4113000   0.58803009   -7.6990564    806.26479    0.0163357  0.015314087         3999 
 4114000   0.58749585   -7.7084726    805.28447  0.016311871  0.015308487         3997 
 4115000   0.59284715   -7.6946601    805.27298  0.016307675  0.015302889         3998 
 4116000   0.59532186   -7.6920959      805.303  0.016304321  0.015297286         4000 
 4117000   0.59583224   -7.6997839    805.24842  0.016299255  0.015291692         3998 
 4118000   0.59358297   -7.7004183    805.62924  0.016303004    0.0152861         3994 
 4119000   0.58263774   -7.7058546    804.92204  0.016284738  0.015280511         3998 
 4120000   0.58776555   -7.7136911    804.14422  0.016265053  0.015274923         3998 
 4121000   0.59517431   -7.7008977    804.88595  0.016276105  0.015269337         3996 
 4122000   0.58947884   -7.7058562    805.44383  0.016283435  0.015263754         3999 
 4123000   0.58329233   -7.6831076    805.14344  0.016273414  0.015258172         3999 
 4124000   0.59936018   -7.7055942    805.70535  0.016280823  0.015252597         3996 
 4125000   0.59439118   -7.6985979     805.5217  0.016273166  0.015247023         3997 
 4126000   0.60207279   -7.6942879    803.11767  0.016220667  0.015241452         4000 
 4127000    0.5893509   -7.7075324    804.48048  0.016244255  0.015235891         3999 
 4128000   0.60052046   -7.6911608    805.29703  0.016256804  0.015230323         3999 
 4129000   0.59666789   -7.6818616    804.92097  0.016245277   0.01522476         3996 
 4130000   0.60629214   -7.6897749    804.83026  0.016239513  0.015219197         3998 
 4131000   0.60002466   -7.7125137    805.50406  0.016249174  0.015213642         3996 
 4132000   0.58784567   -7.6980983    804.78882  0.016230817  0.015208086         3998 
 4133000   0.59028552   -7.6960396    804.75172  0.016226142  0.015202531         4000 
 4134000   0.58874955    -7.718401     804.2253  0.016211605  0.015196978         3999 
 4135000   0.58378666   -7.7113845    805.36408  0.016230634  0.015191427         4000 
 4136000   0.59500545   -7.6907131    803.82142  0.016195628  0.015185881         3997 
 4137000    0.5956298   -7.7110883    804.50019  0.016205386  0.015180335         3999 
 4138000   0.58962826   -7.7024188    804.32666  0.016197975   0.01517479         3994 
 4139000   0.57845603   -7.7007203    804.33444  0.016194218   0.01516925         3998 
 4140000   0.58783401   -7.7007809    805.45686    0.0162129  0.015163718         3999 
 4141000   0.58247317   -7.7152296    806.07581   0.01622144   0.01515818         3995 
 4142000   0.59436895   -7.7074097    803.89545  0.016173657  0.015152649         3999 
 4143000   0.58173379   -7.7000333    804.68215  0.016185577  0.015147118         3999 
 4144000   0.60218984   -7.6899148    804.49229  0.016177853  0.015141594         3999 
 4145000   0.57808991   -7.7123051     805.7395  0.016199025  0.015136064         3998 
 4146000   0.59595922   -7.7117063    805.82051  0.016196746  0.015130544         3998 
 4147000   0.58928727   -7.7000705    805.63858  0.016189185  0.015125023         4000 
 4148000   0.58794113   -7.6958682    804.14675  0.016155311  0.015119506         3997 
 4149000   0.58065521   -7.6988023    805.49271  0.016178451  0.015113987         3998 
 4150000    0.5915748   -7.7029682    805.63691  0.016177448  0.015108473         3998 
 4151000   0.59145304   -7.6896562     805.1739  0.016164256   0.01510296         3998 
 4152000   0.57669391   -7.6965847    804.33328  0.016143491   0.01509745         3996 
 4153000   0.59422038   -7.7191012     805.0657    0.0161543  0.015091943         3999 
 4154000   0.57853706   -7.6938589    805.29979  0.016155107  0.015086439         3999 
 4155000   0.58880904   -7.7003844    805.44141   0.01615406  0.015080938         3999 
 4156000   0.58586508   -7.6960493    804.41751  0.016129642   0.01507544         3998 
 4157000   0.59274917   -7.7048639    804.84913  0.016134414  0.015069948         3997 
 4158000   0.59556339   -7.7291056    805.74111  0.016148411  0.015064457         3998 
 4159000   0.59751854   -7.7185862    804.32821  0.016116218  0.015058967         3997 
 4160000   0.57940788   -7.7061957    805.35272  0.016132867  0.015053482         3998 
 4161000   0.57501995   -7.7156339    804.61251  0.016114166  0.015047996         3998 
 4162000   0.58385135   -7.6888242    804.43375  0.016106715  0.015042512         3995 
 4163000   0.59790938   -7.6818759    803.94306  0.016093023  0.015037028         3998 
 4164000   0.57695033   -7.7265967    804.15862  0.016093472  0.015031551         4000 
 4165000   0.58014586     -7.72241      804.723    0.0161009  0.015026077         3994 
 4166000   0.58519765   -7.7136709    804.07098  0.016083993  0.015020603         3997 
 4167000   0.59529905   -7.7115491    803.84038  0.016075522  0.015015136         3999 
 4168000   0.58300532   -7.6982023    805.33714   0.01610159  0.015009665         3997 
 4169000   0.58623898   -7.7043404    804.60599  0.016083113  0.015004198         3999 
 4170000    0.5878104   -7.7089803    805.62601   0.01609964  0.014998733         4000 
 4171000   0.59026422   -7.7359593    806.83804  0.016119996   0.01499327         3997 
 4172000   0.57782968   -7.6925235    804.15769  0.016062594  0.014987811         3998 
 4173000   0.60083305   -7.6985155    806.02856  0.016096105  0.014982357         3997 
 4174000   0.58090607   -7.7034205    804.02553  0.016052259  0.014976902         3998 
 4175000   0.58800938   -7.7167651    805.54918  0.016078826   0.01497145         3997 
 4176000   0.58748206   -7.6958821    804.50823  0.016054203  0.014965999         3995 
 4177000   0.59381903   -7.7123817     805.1713  0.016063588  0.014960552         3996 
 4178000   0.57938266   -7.7274021    804.82666  0.016052869  0.014955108         3998 
 4179000    0.5638736   -7.7144182    803.92635  0.016031075  0.014949664         3998 
 4180000   0.57848923   -7.7232456     804.7721  0.016044101  0.014944224         3998 
 4181000   0.57457757   -7.7171853    803.77179  0.016020326  0.014938784         3997 
 4182000   0.58457981   -7.7050648     805.9482  0.016059864  0.014933354         3994 
 4183000   0.58884729   -7.6980554    804.72386  0.016031633  0.014927923         3997 
 4184000   0.59081487   -7.7232869    805.58212  0.016044896  0.014922495         3997 
 4185000   0.57973172   -7.7155313    805.94669  0.016048321  0.014917069         3999 
 4186000    0.5720595   -7.7075114    804.01937  0.016006119  0.014911647         3996 
 4187000    0.5775611    -7.722867    804.88496  0.016019524  0.014906227         3999 
 4188000   0.58916522    -7.695377    805.33669  0.016024687  0.014900811         3998 
 4189000   0.58368625   -7.7148067    803.71058  0.015988513  0.014895392         3999 
 4190000   0.57142069   -7.7056797    804.50619  0.016000521   0.01488998         4000 
 4191000    0.5929841   -7.7034483    804.81983  0.016002939  0.014884572         3999 
 4192000   0.58405886    -7.705649    802.86674  0.015960296  0.014879159         3999 
 4193000   0.57065885   -7.6972226    805.06499  0.016000179  0.014873751         3995 
 4194000   0.57812782   -7.7143096    803.82659  0.015971757  0.014868346         3999 
 4195000   0.57157494   -7.7178823    805.78994  0.016006952  0.014862944         3996 
 4196000   0.57771664   -7.7105759    805.61262  0.015999615  0.014857542         3995 
 4197000   0.58221562   -7.7297558    805.18897  0.015987391  0.014852145         3996 
 4198000   0.58009635   -7.7198083    805.00534  0.015979938  0.014846752         3997 
 4199000   0.59058584    -7.732027    805.96845  0.015995246  0.014841355         3999 
 4200000   0.57164785   -7.7281419    805.24625  0.015977108  0.014835964         4000 
 4201000   0.58099954     -7.71243    804.44889  0.015957488  0.014830575         3999 
 4202000   0.57902266   -7.7202956    804.28574  0.015950455  0.014825192         3999 
 4203000   0.57536368   -7.7099431    804.38089  0.015948546   0.01481981         3999 
 4204000   0.58290972   -7.7183273    804.88085  0.015954663  0.014814431         3999 
 4205000    0.5798163   -7.7257679    805.73981  0.015967892   0.01480905         3995 
 4206000   0.58878172   -7.7122032    803.88423  0.015927331  0.014803669         3999 
 4207000   0.57713393   -7.7032386    804.05013  0.015926831  0.014798296         3997 
 4208000   0.56304355   -7.7008535    803.56318  0.015913403  0.014792925         3998 
 4209000   0.57174529   -7.7072821    804.90683  0.015936224  0.014787554         3999 
 4210000   0.57588425   -7.6968155    804.41655  0.015922734  0.014782187         3996 
 4211000   0.56578623    -7.708842    804.06615  0.015912019  0.014776821         4000 
 4212000   0.56029334   -7.6925641    802.59578   0.01587915  0.014771459         3999 
 4213000   0.58299704   -7.7221048     805.2973  0.015928817  0.014766097         3999 
 4214000   0.57911095   -7.7047674    803.47295   0.01588896  0.014760741         3998 
 4215000    0.5836577   -7.7169686    805.75663  0.015930341  0.014755391         3996 
 4216000   0.58390253   -7.7090191    803.17732  0.015875579   0.01475004         3999 
 4217000   0.57156209   -7.7219569      804.454  0.015897044  0.014744692         3999 
 4218000   0.57723704    -7.732286    804.53293  0.015894834  0.014739347         3998 
 4219000    0.5723787   -7.7232021    805.48232  0.015909819  0.014734005         3997 
 4220000    0.5831473   -7.7244421    804.50809  0.015886811  0.014728661         3996 
 4221000   0.57281275   -7.6938799    803.53754  0.015863886  0.014723316         3997 
 4222000   0.58024081   -7.7162086    803.94504  0.015868171  0.014717976         3997 
 4223000   0.56811867   -7.7369476    804.85193   0.01588231  0.014712641         3995 
 4224000   0.57470961   -7.7120116     802.6505  0.015835119  0.014707304         3999 
 4225000   0.57720581    -7.708166    804.89027  0.015875548  0.014701975         3998 
 4226000   0.57857747     -7.71956     803.9345  0.015852944  0.014696645         4000 
 4227000   0.58773058   -7.7079226    804.03383  0.015851152   0.01469132         3999 
 4228000   0.57350618   -7.7173148    805.02745  0.015866987  0.014685999         3996 
 4229000   0.57378362   -7.7212875    803.44307  0.015832014  0.014680677         4000 
 4230000   0.57549476   -7.7201703    804.12191  0.015841645  0.014675361         3998 
 4231000   0.57492415   -7.7173456    804.53086  0.015845956  0.014670043         3999 
 4232000   0.57323875   -7.7122979    804.07384  0.015833212  0.014664733         3997 
 4233000   0.56782251   -7.7371309    804.88419  0.015845425  0.014659422         4000 
 4234000   0.56720499   -7.7290577    803.32707  0.015811035  0.014654111         4000 
 4235000   0.56680541    -7.703976    803.32798   0.01580732  0.014648802         3998 
 4236000   0.56788616   -7.7017699    804.75979  0.015831755  0.014643501         3997 
 4237000    0.5678594   -7.7173106    803.71482  0.015807466  0.014638201         3999 
 4238000   0.57941968   -7.7292322     804.2362  0.015813988  0.014632905         3999 
 4239000   0.58279309   -7.7151129    804.65867  0.015818563  0.014627608         3999 
 4240000   0.57699002   -7.7346008     803.0654  0.015783518  0.014622314         3999 
 4241000   0.57049588   -7.7286469    803.18746  0.015782195   0.01461702         3999 
 4242000   0.55822472    -7.741349    804.42217   0.01580273   0.01461173         3999 
 4243000    0.5684859   -7.7333591    804.50286   0.01580059  0.014606443         4000 
 4244000    0.5731249   -7.7104549    803.11912  0.015769697  0.014601159         3998 
 4245000   0.58587507   -7.7268888    803.85849  0.015780496  0.014595874         3996 
 4246000   0.57453157   -7.7267801    805.11321  0.015801405  0.014590596         4000 
 4247000   0.57197579   -7.7273141    803.70422  0.015770038  0.014585316         4000 
 4248000   0.56992248   -7.7291937    803.77874  0.015767788  0.014580036         3999 
 4249000   0.56486034   -7.7184327    804.82889  0.015784673  0.014574761         3995 
 4250000   0.57140478    -7.729577    802.91736  0.015743478  0.014569491         3998 
 4251000   0.57606355   -7.7307677    802.64791  0.015734492  0.014564219         4000 
 4252000   0.56290751   -7.7122586    804.06871  0.015758637  0.014558951         3999 
 4253000   0.58296482   -7.7069447    803.31985  0.015740259  0.014553689         3997 
 4254000   0.57087008   -7.7270602    803.49001  0.015739892   0.01454843         3994 
 4255000   0.55768804   -7.7205292    804.01775  0.015746529   0.01454317         3998 
 4256000    0.5733856   -7.7158211    804.85548  0.015759232  0.014537917         3996 
 4257000   0.56566524   -7.7102304    803.97634   0.01573832  0.014532661         3996 
 4258000   0.58039798   -7.7253099    803.81721   0.01573151  0.014527406         3999 
 4259000   0.56799236   -7.7215882    804.35553  0.015738349  0.014522154         3998 
 4260000   0.56394607   -7.7245297    803.21975  0.015712436  0.014516907         3997 
 4261000   0.57109475   -7.7347164    804.57462  0.015735246  0.014511663         3994 
 4262000   0.57061771   -7.7252916    803.06947  0.015702125  0.014506421         3996 
 4263000   0.57298172   -7.7282868    803.49554   0.01570677  0.014501182         3998 
 4264000   0.58186598   -7.7392879    804.47523  0.015722233  0.014495942         3998 
 4265000   0.57429893   -7.7103786    803.75906  0.015704554  0.014490705         3998 
 4266000   0.56354183   -7.7265916    803.73146  0.015700333   0.01448547         3996 
 4267000   0.57103541   -7.7436777    803.18014  0.015685887  0.014480242         3997 
 4268000   0.57374935   -7.7367853    802.46282  0.015668206  0.014475013         3995 
 4269000   0.56116493   -7.7144513    804.36198  0.015701608  0.014469782         3996 
 4270000   0.57665114   -7.7334496     805.0971  0.015712278  0.014464557         3994 
 4271000   0.57298114    -7.740599    804.85975  0.015703968  0.014459337         3999 
 4272000   0.57342676   -7.7225144    804.17801  0.015686993  0.014454118         3997 
 4273000   0.57577086    -7.733893    804.63816  0.015692296  0.014448899         3995 
 4274000   0.57072616   -7.7382466    803.94472  0.015675104  0.014443686         3997 
 4275000   0.56577247    -7.719998    803.69723  0.015666613  0.014438472         3996 
 4276000   0.56942978   -7.7272267    804.47042  0.015678017   0.01443326         3992 
 4277000   0.57050473   -7.7209309    802.12283  0.015628611   0.01442805         3999 
 4278000   0.56742604   -7.7376615     804.2243  0.015665893  0.014422841         3998 
 4279000   0.55308677   -7.7098378    804.24156  0.015662568  0.014417635         3998 
 4280000   0.56452844   -7.7373174    802.86697  0.015632145   0.01441243         3992 
 4281000   0.55863798   -7.7420997    801.58925  0.015603622   0.01440723         3996 
 4282000   0.57222156   -7.7380899    803.08229  0.015629034  0.014402034         3999 
 4283000   0.55435052   -7.7456789    803.88014  0.015640909  0.014396838         3995 
 4284000   0.57230278   -7.7376929    803.47809  0.015629437  0.014391644         3995 
 4285000   0.56482906   -7.7331988    803.86063  0.015633229  0.014386454         3998 
 4286000    0.5440348   -7.7261222    804.11893  0.015634603  0.014381266         3996 
 4287000   0.55521803   -7.7318259    803.01956  0.015609586  0.014376079         3995 
 4288000   0.55448775   -7.7363587    803.05181  0.015606573  0.014370893         3997 
 4289000   0.55257508    -7.726524    804.04156  0.015622164  0.014365711         3994 
 4290000   0.56892342   -7.7368563    803.58815  0.015609715  0.014360531         3997 
 4291000    0.5685195   -7.7282793     802.1915  0.015578954  0.014355351         3998 
 4292000   0.56711561   -7.7253102    803.16899  0.015594303  0.014350172         3996 
 4293000   0.56763731   -7.7374465     803.2722  0.015592674  0.014344997         3998 
 4294000   0.56190219   -7.7341619     803.7737  0.015598775  0.014339828         4000 
 4295000   0.55462354   -7.7503517    803.95012  0.015598566  0.014334662         3995 
 4296000   0.55859336   -7.7345982    803.81758  0.015592365  0.014329492         4000 
 4297000   0.54989651   -7.7356567    804.00482  0.015592367  0.014324331         3998 
 4298000   0.57486816   -7.7110324    803.45727  0.015578123  0.014319173         3999 
 4299000   0.55548447   -7.7470386    803.60115  0.015577288  0.014314014         3993 
 4300000   0.56991785   -7.7450409     804.3243   0.01558768  0.014308857         3999 
 4301000   0.55556226   -7.7511411    803.74779  0.015572886  0.014303702         3998 
 4302000   0.56286593   -7.7442895    804.52812  0.015584382  0.014298548         4000 
 4303000   0.56747494    -7.738962    803.02787  0.015551706  0.014293399         3997 
 4304000   0.57210815   -7.7702884    803.87875  0.015564567  0.014288252         3999 
 4305000   0.56282368   -7.7496576    804.10046  0.015565243  0.014283103         3999 
 4306000   0.55488353   -7.7237947    803.23718  0.015544921  0.014277963         3997 
 4307000   0.56605234   -7.7429853    803.83389  0.015552858  0.014272823         3999 
 4308000    0.5679364   -7.7353943    803.10539  0.015535155  0.014267685         3996 
 4309000   0.56197402    -7.744028    803.68267  0.015542714  0.014262551         3999 
 4310000   0.55806301   -7.7328831    803.98886  0.015545028  0.014257418         4000 
 4311000   0.55802474    -7.740898    804.40359  0.015549439  0.014252289         3997 
 4312000   0.57472752   -7.7317958    803.07036  0.015520067   0.01424716         3996 
 4313000    0.5646914   -7.7435534    802.87184  0.015512633  0.014242035         3996 
 4314000   0.56764127   -7.7562352    802.69169  0.015505557  0.014236916         4000 
 4315000   0.56034904   -7.7373869    803.66952  0.015520848  0.014231792         4000 
 4316000   0.55532016   -7.7381284    803.77199   0.01551923   0.01422667         3997 
 4317000   0.56056775   -7.7438944    804.21304  0.015524149  0.014221554         3999 
 4318000   0.56896522   -7.7553884    803.38662  0.015504605  0.014216441         4000 
 4319000   0.56671913    -7.729115    802.58427  0.015485534  0.014211328         3999 
 4320000   0.56980225   -7.7242228    802.57318  0.015481736  0.014206219         3997 
 4321000   0.56066014    -7.749412    803.41323  0.015494354  0.014201111         3997 
 4322000   0.55966169   -7.7519242    803.64312  0.015495201  0.014196004         3991 
 4323000   0.54479585   -7.7506467    803.71272  0.015492959  0.014190898         3999 
 4324000   0.55964266   -7.7484344    803.99528  0.015494821  0.014185795         3999 
 4325000   0.57116316   -7.7558955    804.00401  0.015491407    0.0141807         3998 
 4326000    0.5621949    -7.738574    801.85476  0.015446424  0.014175602         3996 
 4327000   0.55611124   -7.7271358    803.98324  0.015483846  0.014170509         3999 
 4328000   0.56306694   -7.7307899    803.73592  0.015475507  0.014165415         3998 
 4329000   0.55090883   -7.7316219    803.16754  0.015460991  0.014160325         4000 
 4330000    0.5669912   -7.7433821    804.47047  0.015482496  0.014155235         3999 
 4331000    0.5598587    -7.751834    803.49066  0.015460068  0.014150145         3994 
 4332000   0.55531658   -7.7569806     803.8779  0.015463948  0.014145062         3999 
 4333000   0.56232807   -7.7417466    802.57712  0.015435363  0.014139984         3999 
 4334000   0.56626368   -7.7310769    802.13954  0.015423388  0.014134906         3995 
 4335000   0.56437996    -7.744672    803.08046  0.015437917  0.014129834         3998 
 4336000    0.5595951   -7.7442326    803.03174  0.015433421  0.014124759         3999 
 4337000    0.5493603   -7.7329148    803.18825  0.015432869  0.014119686         4000 
 4338000   0.56104547   -7.7487231    804.28884  0.015450454  0.014114615         3999 
 4339000   0.54438891   -7.7381952    803.74112  0.015436374  0.014109546         3998 
 4340000   0.55410607   -7.7353777    803.51415  0.015428459  0.014104479         3998 
 4341000   0.55659095    -7.772093    803.26876  0.015420194  0.014099411         4000 
 4342000   0.56800367    -7.747884    803.50909  0.015421255  0.014094352         3998 
 4343000   0.56856628    -7.765051    804.04094   0.01542791  0.014089296         3997 
 4344000   0.56313418   -7.7598747    802.69048  0.015398452  0.014084244         3998 
 4345000   0.56336815   -7.7613573     805.0819  0.015440773  0.014079188         3994 
 4346000   0.55552248   -7.7526849    802.39797  0.015385756  0.014074138         3996 
 4347000   0.55877338   -7.7458135    800.94981  0.015354455  0.014069087         3996 
 4348000   0.56558508   -7.7465615    801.87143  0.015368588  0.014064042         3999 
 4349000   0.54298507   -7.7327411    803.24505  0.015391374  0.014058999         3995 
 4350000   0.55194184   -7.7548921    803.02106  0.015383545  0.014053953         4000 
 4351000   0.55855766   -7.7439861     802.5928  0.015371807  0.014048911         3997 
 4352000   0.55622708   -7.7501703    802.50813  0.015366654  0.014043873         3997 
 4353000   0.56094732   -7.7516886    802.75071  0.015367768  0.014038837         3996 
 4354000   0.55343407   -7.7495088     803.2971  0.015374696  0.014033801         3997 
 4355000   0.55553869    -7.754867    802.02971  0.015346914  0.014028769         3994 
 4356000   0.56421068   -7.7605248    803.71814  0.015375691  0.014023741         3997 
 4357000   0.55078148   -7.7492996    802.59529  0.015350686  0.014018716         3997 
 4358000   0.54322175   -7.7608275    803.51186  0.015364691  0.014013691         3999 
 4359000   0.56902958   -7.7493516    802.65559  0.015344796  0.014008667         3994 
 4360000   0.55922005   -7.7622535    803.52269   0.01535785  0.014003641         3996 
 4361000   0.55364424   -7.7634077    802.47771   0.01533436   0.01399862         3997 
 4362000   0.55249195   -7.7439009    802.62218  0.015333604  0.013993601         3996 
 4363000   0.55634722   -7.7571254    802.56574  0.015329012  0.013988586         3998 
 4364000   0.56652964   -7.7729342    802.96435  0.015333111  0.013983577         3994 
 4365000   0.55891324   -7.7292528     802.8772  0.015327934  0.013978568         3998 
 4366000   0.56686345   -7.7359209    803.56673  0.015337585  0.013973563         3996 
 4367000   0.56087823   -7.7182141    802.17296  0.015307476  0.013968563         3995 
 4368000    0.5513281   -7.7643653    803.47702   0.01532885  0.013963563         3998 
 4369000   0.55147803   -7.7509634    803.03539  0.015316918  0.013958562         3995 
 4370000   0.56113546   -7.7552198    803.41118  0.015320579  0.013953564         3995 
 4371000   0.55950661   -7.7600727    802.44871  0.015298725  0.013948568         3997 
 4372000   0.55981027   -7.7578718    804.27807  0.015330094  0.013943575         3998 
 4373000   0.55708683    -7.756915    803.10909  0.015304312  0.013938578         3998 
 4374000   0.54169878   -7.7544936    803.01048  0.015298935   0.01393359         3998 
 4375000   0.56061547   -7.7732032    803.42441  0.015303322  0.013928604         3997 
 4376000   0.53511249   -7.7323205    803.54226  0.015302069  0.013923621         3994 
 4377000    0.5568228   -7.7485499    801.84339  0.015266229  0.013918639         3992 
 4378000   0.55416216   -7.7396894    803.59499  0.015296082  0.013913656         3995 
 4379000   0.55899499   -7.7647724    802.74622  0.015276437  0.013908681         3999 
 4380000   0.56123889   -7.7370098    802.85634  0.015275045  0.013903708         3997 
 4381000   0.53416571   -7.7700406    802.65775   0.01526778  0.013898732         3999 
 4382000   0.54318212   -7.7510981    800.88231  0.015230532  0.013893756         3995 
 4383000   0.54458965   -7.7471504    802.40276  0.015255966  0.013888786         3997 
 4384000   0.54604433   -7.7475073    802.89058  0.015261758  0.013883819         4000 
 4385000   0.55655061   -7.7508605    801.92119  0.015239855  0.013878858         4000 
 4386000   0.55387815   -7.7483102    802.77556  0.015252614  0.013873894         3999 
 4387000   0.56804431   -7.7679031    804.53492  0.015282557  0.013868937         4000 
 4388000   0.54401981   -7.7561515    801.09728  0.015213789  0.013863978         3999 
 4389000   0.54342821   -7.7652624    802.55008  0.015237907  0.013859022         3996 
 4390000   0.54492482   -7.7515683    802.30792  0.015229839  0.013854067         3999 
 4391000    0.5515677    -7.743855    802.53688  0.015230716  0.013849117         3995 
 4392000   0.55822774   -7.7535602     804.1046  0.015256994  0.013844169         3999 
 4393000   0.55332571   -7.7631084    802.25648  0.015218463  0.013839225         3999 
 4394000   0.54367105   -7.7377529     803.7049  0.015242469   0.01383428         3995 
 4395000    0.5525977   -7.7475315    802.05561  0.015207729  0.013829336         3998 
 4396000   0.55267768   -7.7362202    801.71172   0.01519775  0.013824395         3999 
 4397000   0.55383612   -7.7602557    802.00731  0.015199896  0.013819458         3996 
 4398000   0.54680247   -7.7650712    802.38276  0.015203554   0.01381452         3997 
 4399000   0.55610701   -7.7468304    802.29783  0.015198489  0.013809585         3994 
 4400000   0.54684557   -7.7537448    804.05362  0.015228288   0.01380465         3999 
 4401000    0.5495757   -7.7440252    802.83471  0.015201748   0.01379972         3997 
 4402000   0.55388406   -7.7611209    804.27091  0.015225483  0.013794794         3999 
 4403000   0.55298267   -7.7603736    802.60886  0.015190568  0.013789868         3999 
 4404000   0.53582055   -7.7613924    802.21807  0.015179724  0.013784946         3996 
 4405000   0.54039333   -7.7785685    802.45387  0.015180739  0.013780022         3995 
 4406000    0.5482272   -7.7658603    801.77754  0.015164502  0.013775102         4000 
 4407000   0.55209788   -7.7610754    801.37849  0.015153515  0.013770189         4000 
 4408000   0.55811479   -7.7510272     802.7352  0.015175726  0.013765274         4000 
 4409000   0.54861727   -7.7424221    801.63274  0.015151447  0.013760363         4000 
 4410000   0.55327974   -7.7735315    802.29471   0.01516052  0.013755453         4000 
 4411000   0.55216782    -7.771148    802.89716  0.015168464  0.013750544         3998 
 4412000    0.5398109    -7.744048    804.04282  0.015186666  0.013745638         3999 
 4413000   0.55256477   -7.7682792    802.17102  0.015147878  0.013740739         4000 
 4414000   0.54783435   -7.7674812    802.80779  0.015156468  0.013735837         3999 
 4415000   0.54631667    -7.781074     804.0751  0.015176956  0.013730941         3998 
 4416000     0.548273   -7.7497116     802.8206  0.015149845  0.013726045         3998 
 4417000   0.54808866   -7.7664899    801.43244  0.015120226  0.013721151         3997 
 4418000   0.54092025    -7.780099    802.63882  0.015139558  0.013716259         3998 
 4419000   0.54992253   -7.7578018    802.84766  0.015140071  0.013711368         3999 
 4420000   0.53845317   -7.7542143    804.34699  0.015164913   0.01370648         4000 
 4421000   0.54727464   -7.7737906    803.38837  0.015143413  0.013701596         3998 
 4422000   0.54840019   -7.7530013     802.8777  0.015130365  0.013696716         3997 
 4423000   0.54892299   -7.7559807    802.42465  0.015118408  0.013691837         3999 
 4424000   0.53922341   -7.7450422    802.96907  0.015125246  0.013686962         3998 
 4425000   0.54088727   -7.7558061    802.00216  0.015103619  0.013682086         4000 
 4426000   0.54087914   -7.7494273    802.51773  0.015109913  0.013677211         4000 
 4427000   0.53805333   -7.7664678    803.15704  0.015118535  0.013672339         3998 
 4428000   0.53600923   -7.7582814    801.80235  0.015089626  0.013667469         3998 
 4429000   0.54958928   -7.7533221    802.13949  0.015092562    0.0136626         4000 
 4430000   0.54934584   -7.7675551    802.19397   0.01509018  0.013657733         3996 
 4431000   0.54492566    -7.757658    802.21466  0.015087164  0.013652869         3999 
 4432000   0.54487698   -7.7582244    803.43862  0.015106773  0.013648005         4000 
 4433000   0.54523661   -7.7560975    802.44725  0.015084729  0.013643146         4000 
 4434000   0.54760906   -7.7603411    801.65804  0.015066495  0.013638287         3999 
 4435000   0.53417255   -7.7572576    801.94611   0.01506851  0.013633432         3996 
 4436000   0.55985549   -7.7655534    801.10291  0.015049273  0.013628581         4000 
 4437000   0.53334317   -7.7661143    802.43697  0.015070937  0.013623731         4000 
 4438000   0.55159567   -7.7694855    802.67785  0.015072064  0.013618882         3997 
 4439000    0.5427011   -7.7679579    802.55971  0.015066451  0.013614034         3997 
 4440000   0.53743399   -7.7581723    802.73829  0.015066409  0.013609194         3999 
 4441000   0.53100994   -7.7827654    802.15137  0.015052003   0.01360435         3999 
 4442000   0.54170669   -7.7566181    802.54003  0.015055906  0.013599508         3998 
 4443000   0.53412678   -7.7817658    802.96535  0.015060495  0.013594672         4000 
 4444000   0.53739824   -7.7768182    801.82268  0.015035679  0.013589838         3998 
 4445000    0.5393876   -7.7538539    802.59491  0.015046774  0.013585005         3997 
 4446000   0.54463432   -7.7722633    801.85845  0.015029586  0.013580175         3999 
 4447000   0.53516671   -7.7911755     802.0733  0.015030232  0.013575348         3998 
 4448000   0.54891998   -7.7649239    801.52224  0.015016529  0.013570523         3999 
 4449000   0.54603931   -7.7704651    801.99615   0.01502203  0.013565699         3999 
 4450000   0.53426568   -7.7743551    802.65078  0.015030913  0.013560879         3999 
 4451000   0.52142982   -7.7658771    801.85785  0.015012691   0.01355606         4000 
 4452000   0.53828799   -7.7658886    802.10443  0.015013934  0.013551241         3999 
 4453000   0.55192947   -7.7644154    802.61225  0.015020066  0.013546425         3995 
 4454000   0.54036514   -7.7706529     801.8965  0.015003302  0.013541611         3998 
 4455000   0.54682153   -7.7667608    801.21274  0.014987144  0.013536799         3999 
 4456000     0.550703   -7.7795703    804.21198  0.015039871  0.013531993         3998 
 4457000   0.54312729   -7.7624932    802.85271  0.015011082  0.013527185         3999 
 4458000   0.53179622    -7.754938    801.94731   0.01499079  0.013522379         4000 
 4459000   0.53876516    -7.763257    801.27141  0.014974796  0.013517576         4000 
 4460000   0.53386292    -7.774351    802.32906  0.014991201  0.013512781         3996 
 4461000   0.53431034   -7.7724748    803.75212  0.015014424  0.013507984         3997 
 4462000   0.54081739   -7.7591406    802.46609   0.01498704  0.013503187         3999 
 4463000   0.54427058   -7.7539111    802.04286   0.01497578  0.013498397         4000 
 4464000   0.54255744   -7.7696939    802.78003  0.014986186  0.013493604         3999 
 4465000   0.54672762   -7.7729182    802.72438  0.014981791  0.013488815         3999 
 4466000   0.53034944   -7.7728604    802.72896  0.014978522  0.013484027         3999 
 4467000   0.53806852    -7.781313    802.77292  0.014975989  0.013479243         3998 
 4468000   0.53654633   -7.7751278    800.30409  0.014926591  0.013474457         3998 
 4469000   0.52506815   -7.7722249    802.76223  0.014969088  0.013469676         3997 
 4470000   0.53750247   -7.7624585    801.84292    0.0149486  0.013464897         3998 
 4471000   0.52972591   -7.7640119    800.73382  0.014924585  0.013460121         4000 
 4472000   0.53548081   -7.7914227    800.88718  0.014924105  0.013455346         3999 
 4473000   0.53536196    -7.753913    802.13011  0.014943925  0.013450574         4000 
 4474000   0.53760411   -7.7649011    802.78856  0.014952849  0.013445806         3998 
 4475000   0.54175624   -7.7667535    801.73859  0.014929955  0.013441035         3998 
 4476000    0.5285549   -7.7726448    801.79269  0.014927627  0.013436271         3998 
 4477000   0.54554115   -7.7648034    801.32906  0.014915663  0.013431509         3999 
 4478000   0.54026922   -7.7599461    803.14637  0.014946151  0.013426747         3999 
 4479000   0.53405072    -7.757875    802.46263  0.014930093  0.013421988         4000 
 4480000   0.53525663   -7.7823237    802.33526  0.014924391  0.013417234         3999 
 4481000   0.54072952   -7.7592915    800.68575  0.014890384  0.013412479         3999 
 4482000   0.53206111   -7.7818272     801.8575  0.014908848  0.013407726         3997 
 4483000   0.53034998    -7.761848    800.73212  0.014884603  0.013402973         3998 
 4484000   0.52687591   -7.7682295    801.89215  0.014902843  0.013398224         3996 
 4485000   0.53363715   -7.7831679    801.82191  0.014898215  0.013393474         4000 
 4486000   0.53239128   -7.7634973    799.80986  0.014857517  0.013388729         3999 
 4487000   0.53487485   -7.7707261    801.70578  0.014889417  0.013383988         3999 
 4488000   0.52970427   -7.7779855    801.66425  0.014885328  0.013379243         3997 
 4489000   0.53221835   -7.7778105    800.44944  0.014859461  0.013374503         4000 
 4490000   0.54452356   -7.7747222    801.12515  0.014868692  0.013369768         4000 
 4491000   0.52917033     -7.75885    801.46753  0.014871735  0.013365034         3999 
 4492000   0.53929656   -7.7832197    802.16639  0.014881389  0.013360306         3996 
 4493000   0.54695568   -7.7891339     801.3708  0.014863321  0.013355577         4000 
 4494000   0.53216685   -7.7717114      801.223  0.014857273  0.013350848         3999 
 4495000   0.53246164    -7.779271    801.28737  0.014855161  0.013346126         3999 
 4496000   0.55636214   -7.7757794    802.06498   0.01486627  0.013341405         3996 
 4497000   0.53852495   -7.7676547    802.51781  0.014871355  0.013336682         3997 
 4498000   0.52998816   -7.7853918    802.47019  0.014867167   0.01333196         3998 
 4499000   0.53536665   -7.7810606     802.2361  0.014859526  0.013327242         4000 
 4500000   0.55106725   -7.7692063    801.63954  0.014845177  0.013322526         4000 
 4501000   0.52875547   -7.7765179    802.02775  0.014849066  0.013317813         4000 
 4502000   0.53260392   -7.7789296    801.69012  0.014839518  0.013313104         3998 
 4503000    0.5379099    -7.767657    802.07171  0.014843284  0.013308397         3998 
 4504000   0.53119541   -7.7768191    800.39017  0.014808877  0.013303688         4000 
 4505000   0.52895768   -7.7661889    801.64223   0.01482875  0.013298982         3994 
 4506000   0.52972548   -7.7797058    802.08915  0.014833725  0.013294283         3996 
 4507000   0.53517384   -7.7723419    801.02181  0.014810698  0.013289582         4000 
 4508000   0.52350797   -7.7975033    801.86445   0.01482299  0.013284884         3996 
 4509000   0.51872992   -7.7774517     801.5682  0.014814227  0.013280186         4000 
 4510000   0.51954927   -7.7700148    802.15044  0.014821701   0.01327549         4000 
 4511000   0.52177083    -7.783706    801.83907  0.014812663  0.013270795         3996 
 4512000   0.53509919   -7.7848535    801.22815  0.014798097  0.013266102         3999 
 4513000    0.5331817   -7.7830248    801.80111  0.014805398  0.013261416         3999 
 4514000   0.52624113   -7.7757636    802.30999  0.014811512   0.01325673         4000 
 4515000   0.53028383    -7.799438    802.79119  0.014817113  0.013252049         4000 
 4516000   0.53262879   -7.7900268    801.55128  0.014790952  0.013247368         4000 
 4517000   0.53332197   -7.7918714    801.15929  0.014780446  0.013242691         3998 
 4518000   0.54130941   -7.7857359    801.49196   0.01478331  0.013238015         4000 
 4519000   0.55225893   -7.7710732    801.65445  0.014783035  0.013233341         4000 
 4520000   0.52760423   -7.7939193     801.5376  0.014777611  0.013228667         3999 
 4521000    0.5282531   -7.7993346    801.23651  0.014768792  0.013223997         3999 
 4522000   0.51504022   -7.7762524    800.23464  0.014747063  0.013219328         4000 
 4523000   0.51971253   -7.7922191    801.09739  0.014759698  0.013214659         3996 
 4524000   0.52025075   -7.7861596    801.51918  0.014764205  0.013209994         3999 
 4525000   0.51859255   -7.7842129    801.40476  0.014758835  0.013205332         3999 
 4526000   0.51760701   -7.7689828     800.5467  0.014739776   0.01320067         3996 
 4527000   0.52146873   -7.7902145    801.11766   0.01474703  0.013196011         3996 
 4528000   0.51820712   -7.7760801    800.94935  0.014740676  0.013191355         4000 
 4529000   0.52601506   -7.7862342    801.63406   0.01475002  0.013186698         3999 
 4530000   0.52439932   -7.7884381    801.68291  0.014747662  0.013182043         3999 
 4531000   0.51965977    -7.786908    801.46213  0.014740347  0.013177395         3997 
 4532000   0.52601916   -7.7916906    800.62643  0.014721727  0.013172749         4000 
 4533000   0.52597607   -7.8111461    801.61472  0.014736648  0.013168103         3998 
 4534000   0.52811215   -7.7941442    801.56027  0.014732397  0.013163458         3998 
 4535000   0.52466739   -7.7969124    800.85399   0.01471617  0.013158817         3999 
 4536000   0.52976144   -7.7809272    800.20582  0.014701018  0.013154174         3999 
 4537000     0.525344   -7.7982436    801.95653  0.014729934  0.013149533         3999 
 4538000   0.52395552   -7.7916579    800.33912  0.014696987  0.013144893         3999 
 4539000   0.53136909   -7.7682078    801.94112  0.014723161  0.013140259         4000 
 4540000    0.5312871   -7.7784128    801.49657  0.014711758  0.013135628         4000 
 4541000   0.52301883   -7.7651319    800.43094  0.014688962  0.013130995         4000 
 4542000   0.53140208   -7.7879456    801.09618  0.014697934  0.013126367         3997 
 4543000   0.52313681   -7.7931716    801.22409  0.014697045  0.013121743         3999 
 4544000   0.53945225   -7.7753142    800.63478  0.014683003  0.013117119         4000 
 4545000   0.51723349   -7.7810134    800.97265  0.014685967  0.013112497         3998 
 4546000    0.5106497   -7.7866268    800.91308  0.014681645  0.013107879         3999 
 4547000   0.51552535    -7.793172    800.90423  0.014678254  0.013103262         3999 
 4548000   0.52516525   -7.7840938    801.65418  0.014688768  0.013098647         3998 
 4549000   0.50882536   -7.7915131    800.71021  0.014668246  0.013094031         4000 
 4550000   0.52034721   -7.7853258    801.40668  0.014677778   0.01308942         3998 
 4551000   0.51709678   -7.7741678     801.2443   0.01467158   0.01308481         4000 
 4552000   0.52043469   -7.8085976    800.69505  0.014658301  0.013080202         4000 
 4553000   0.52292669   -7.7778926    800.98651  0.014660416  0.013075597         3999 
 4554000    0.5343129   -7.8000948    800.56422   0.01464947  0.013070995         3999 
 4555000   0.51958096   -7.7872754    801.08564  0.014655793  0.013066394         3994 
 4556000   0.53324232   -7.8062792    801.98373  0.014669003  0.013061797         3999 
 4557000   0.51523323   -7.7785214    801.21808  0.014651783  0.013057199         3998 
 4558000   0.51508459   -7.7913229    800.71511  0.014639372  0.013052602         3998 
 4559000   0.52971845   -7.7624587    801.05188  0.014642317  0.013048011         4000 
 4560000   0.53009293   -7.7809593    800.93123  0.014636901  0.013043421         3998 
 4561000   0.52191959   -7.7956906    800.86922  0.014632559  0.013038831         4000 
 4562000   0.52182685   -7.7906491    800.24848  0.014618012  0.013034243         4000 
 4563000   0.52611456    -7.785806    801.68998  0.014641135  0.013029658         3999 
 4564000   0.52271442   -7.8195463    802.00498  0.014643678  0.013025078         3999 
 4565000   0.52660275   -7.7894079    801.64314  0.014633865  0.013020498         3999 
 4566000   0.51844905   -7.8098197    802.09573   0.01463892  0.013015922         3999 
 4567000   0.53009649   -7.8030983    802.81147  0.014648775  0.013011346         3999 
 4568000   0.52908125   -7.8004608    800.54215  0.014604169  0.013006774         3997 
 4569000   0.52708331   -7.7989941    801.71681  0.014622398  0.013002202         3996 
 4570000   0.51800183   -7.7806855    801.46219  0.014614555   0.01299763         4000 
 4571000   0.52809013   -7.7769615    800.71955  0.014597819  0.012993061         3998 
 4572000   0.51200588   -7.7711671    800.87767  0.014597508  0.012988495         3999 
 4573000   0.52672241   -7.7981058    800.52389  0.014587869  0.012983929         3999 
 4574000   0.52304584   -7.7876026    800.16795  0.014578195  0.012979369         3996 
 4575000   0.52743932   -7.8004512    800.82106  0.014586905   0.01297481         3999 
 4576000   0.51615046   -7.7901115    801.81142  0.014601752  0.012970247         3997 
 4577000   0.53409301   -7.7975144    800.53061  0.014575242  0.012965689         3998 
 4578000   0.51463986   -7.8125257    800.34174  0.014568621  0.012961134         3998 
 4579000   0.51930361   -7.7960707    801.12678  0.014579726  0.012956584         3996 
 4580000   0.51957209   -7.7992757    801.42807  0.014582025  0.012952037         3995 
 4581000   0.52547525   -7.8093368    800.70634  0.014565712   0.01294749         3999 
 4582000   0.52154177   -7.7805534    801.35505  0.014574332  0.012942947         3995 
 4583000   0.52071542   -7.8136818    800.96306  0.014564024  0.012938403         3996 
 4584000    0.5153365   -7.7924402    800.12039  0.014545528  0.012933861         3993 
 4585000   0.50827632   -7.7987057    801.32167  0.014564189  0.012929323         3999 
 4586000   0.52238693    -7.798883    800.50802  0.014546228  0.012924786         3999 
 4587000   0.51553091   -7.7846894    799.96286  0.014533153   0.01292025         3999 
 4588000   0.51811811   -7.7790151    801.16298  0.014551783  0.012915718         3999 
 4589000   0.51192929   -7.7817443    801.03105  0.014546217  0.012911187         3998 
 4590000   0.50758229   -7.8220879    801.45272  0.014550703  0.012906656         4000 
 4591000   0.51346675   -7.7990421    801.07837  0.014540739  0.012902126         3998 
 4592000   0.51259817   -7.8016153     801.6343  0.014547661  0.012897602         4000 
 4593000   0.51057963   -7.7913921    800.25151  0.014519405  0.012893081         4000 
 4594000    0.5188547   -7.8001652    800.62579  0.014523033   0.01288856         4000 
 4595000   0.51694543   -7.7962342      799.713  0.014503319  0.012884041         3999 
 4596000   0.52336302   -7.7968489    800.79066  0.014519703  0.012879524         3999 
 4597000   0.51626578   -7.7914687     800.2964  0.014507585   0.01287501         4000 
 4598000   0.51618251   -7.7793415    801.02765  0.014517682  0.012870499         3999 
 4599000   0.52476179   -7.7925127    800.05214   0.01449685  0.012865987         3999 
 4600000   0.51493079   -7.8037615      800.597  0.014503569   0.01286148         4000 
 4601000    0.5106533   -7.7730022    800.20979  0.014493403  0.012856975         4000 
 4602000   0.52263925   -7.7957951    800.87195  0.014502244  0.012852472         3999 
 4603000   0.51102878   -7.8061797    800.71961  0.014496336   0.01284797         4000 
 4604000   0.50749234   -7.7977296    801.24877  0.014502765  0.012843468         4000 
 4605000   0.52408133   -7.8051148     799.9518  0.014476146  0.012838971         4000 
 4606000   0.51168439   -7.7840525    800.76166  0.014487655  0.012834476         3999 
 4607000   0.52132963   -7.8073152    802.23874  0.014511228   0.01282998         3999 
 4608000   0.51169532   -7.7915595    801.12778  0.014487988  0.012825486         4000 
 4609000   0.51030202   -7.7985558    800.78776  0.014478697  0.012820996         3995 
 4610000   0.52065151   -7.8061158    801.16411  0.014482359  0.012816506         4000 
 4611000   0.51113071   -7.7984816    800.95919  0.014475515  0.012812016         3999 
 4612000   0.50885705    -7.809337    800.42008  0.014462635  0.012807533         3997 
 4613000   0.50365041   -7.7876992    801.03809  0.014470664   0.01280305         4000 
 4614000   0.51536476   -7.7928688    800.71171  0.014461633   0.01279857         3998 
 4615000   0.52403337   -7.7992468    800.87578  0.014461462  0.012794088         3996 
 4616000   0.51714322   -7.7934085    799.61831  0.014435628  0.012789613         3999 
 4617000    0.5145121   -7.7931061    799.39714  0.014428509  0.012785139         4000 
 4618000   0.52580216   -7.8126591    801.45714  0.014462558  0.012780666         3997 
 4619000    0.5121548   -7.7904271    800.90026   0.01444938  0.012776195         3999 
 4620000   0.52068304   -7.8044661    802.28842  0.014471292  0.012771729         3999 
 4621000   0.51710334   -7.7920137    800.13677  0.014429358  0.012767264         3994 
 4622000   0.51620028   -7.8091171    801.23304  0.014446002  0.012762799         3998 
 4623000   0.50795713   -7.7905998    800.67008  0.014432729  0.012758337         3994 
 4624000   0.50267068    -7.800255     800.0182   0.01441786  0.012753878         3997 
 4625000   0.50894473   -7.7947523    800.85212  0.014429768  0.012749423         3997 
 4626000   0.50928188   -7.8084871    800.99967  0.014429307  0.012744962         3997 
 4627000   0.50291148   -7.8181199    800.44174   0.01441614  0.012740506         3996 
 4628000   0.51802643   -7.7878012    800.25134  0.014409596  0.012736049         3996 
 4629000   0.51692505   -7.7963678    801.46632  0.014428356  0.012731598         3998 
 4630000   0.51205821    -7.792443    800.24378  0.014403236  0.012727151         3998 
 4631000   0.51666662   -7.7950682    800.09366  0.014397424  0.012722704         3998 
 4632000   0.50414236   -7.8071936    800.25834  0.014397279  0.012718259         3998 
 4633000   0.51375796    -7.797252    800.22813  0.014393628  0.012713815         3994 
 4634000   0.51481137   -7.7952156    799.86871  0.014384058  0.012709373         3996 
 4635000   0.50189994   -7.8056548    800.96936  0.014400744  0.012704934         3999 
 4636000   0.50776447   -7.8063064    800.44427  0.014388199  0.012700493         4000 
 4637000    0.5091167   -7.7884694    799.63166  0.014370492   0.01269606         3999 
 4638000   0.50743345   -7.8087403    800.23912  0.014378308  0.012691624         4000 
 4639000   0.50849399   -7.8188748    800.33219  0.014376881  0.012687191         4000 
 4640000   0.49990557   -7.8020592    800.54066  0.014377526  0.012682762         3999 
 4641000    0.4979286   -7.8062126    799.72609  0.014359802  0.012678331         3997 
 4642000   0.51237249   -7.8008315     800.9946  0.014379481  0.012673906         4000 
 4643000   0.51937645   -7.7978469    799.34372  0.014346754  0.012669481         3996 
 4644000    0.4992972    -7.815175    800.88218  0.014371271   0.01266506         3998 
 4645000   0.50246407   -7.8093836    800.91184  0.014368709  0.012660641         3995 
 4646000   0.50826565   -7.7957241    800.95056  0.014366311  0.012656225         3996 
 4647000   0.50410656   -7.8088854    801.12425  0.014366334  0.012651811         3996 
 4648000   0.50743002   -7.8042256    800.07228  0.014344383    0.0126474         3996 
 4649000   0.50368343   -7.8024594     801.7133  0.014370712   0.01264299         3999 
 4650000   0.49862768     -7.79819     800.3343  0.014342909  0.012638581         3996 
 4651000   0.49638283    -7.803756    799.18015  0.014319146  0.012634171         3998 
 4652000   0.51008393   -7.8129885    800.47034  0.014339179  0.012629766         3997 
 4653000   0.51101615   -7.8169892    800.34291  0.014333815  0.012625363         3997 
 4654000   0.51237301   -7.8076001    800.12249  0.014326789  0.012620962         3998 
 4655000   0.50834196   -7.8034946     800.0022  0.014321558  0.012616561         3997 
 4656000   0.51380492   -7.7942664    800.17667  0.014321604  0.012612165         3997 
 4657000   0.50787924   -7.8065604    800.38541  0.014322264  0.012607772         3998 
 4658000   0.51623113   -7.8006478    801.36539  0.014336722   0.01260338         3996 
 4659000   0.50363979   -7.8229764    800.33977    0.0143153  0.012598988         3997 
 4660000   0.51961605   -7.8181341    800.20547  0.014309826  0.012594599         3999 
 4661000   0.50458787   -7.8170059    800.21222  0.014306876  0.012590211         4000 
 4662000   0.50039709   -7.8020109    798.18244  0.014267525  0.012585825         3998 
 4663000   0.49909071   -7.8068714    799.80387  0.014293443  0.012581441         3996 
 4664000   0.49786562   -7.7968059    800.08054  0.014295321  0.012577061         4000 
 4665000   0.50544101   -7.8063085    799.97317  0.014290339  0.012572682         3999 
 4666000   0.51201379   -7.8138562    800.99281  0.014305487  0.012568302         3999 
 4667000   0.50814945   -7.8187989     799.7624  0.014280451  0.012563923         3996 
 4668000   0.49857198   -7.8109128    799.89438  0.014279748  0.012559551         3998 
 4669000   0.49912884   -7.7995618    800.95817  0.014295677  0.012555178         3998 
 4670000   0.50550698   -7.8272489    800.61411  0.014286476  0.012550808         3997 
 4671000   0.50139752   -7.8009103    798.95109  0.014253748  0.012546438         3999 
 4672000   0.50515378   -7.8159474     800.5679  0.014279536  0.012542071         3998 
 4673000   0.51503803   -7.8205633    800.97311  0.014283706  0.012537709         3998 
 4674000   0.50109874   -7.8083149    800.21253   0.01426709  0.012533346         3996 
 4675000    0.4977068    -7.824833    801.12149  0.014280241  0.012528985         4000 
 4676000   0.49798898   -7.8064113    800.31871   0.01426288  0.012524626         3999 
 4677000     0.506382   -7.8099024    799.90277  0.014252419  0.012520268         3994 
 4678000   0.49905063   -7.8208619    800.08153  0.014252557  0.012515911         3998 
 4679000     0.512396   -7.8142062    799.69077  0.014242551  0.012511557         3996 
 4680000   0.50860455   -7.8231648     800.5144  0.014254174  0.012507207         3997 
 4681000   0.50419239   -7.8208089    800.81267  0.014256439  0.012502863         3995 
 4682000   0.50399574   -7.8102106    799.55091  0.014230936  0.012498515         3997 
 4683000   0.50981247   -7.8191092    800.34119   0.01424196  0.012494171         3998 
 4684000   0.49737753   -7.8279646     801.9138  0.014266898  0.012489831         3997 
 4685000   0.50594696   -7.8085291    798.91826   0.01421057  0.012485491         3998 
 4686000   0.49297213   -7.8139406    800.50871  0.014235821  0.012481154         3996 
 4687000   0.50017494   -7.8120154    799.63777  0.014217299  0.012476816         3998 
 4688000   0.49498068   -7.8012605    800.50412  0.014229667  0.012472482         3995 
 4689000   0.49276077   -7.8127941    799.09308  0.014201555  0.012468147         4000 
 4690000   0.50903609   -7.8308542    800.22323  0.014218608  0.012463816         4000 
 4691000   0.50508704   -7.8099464    801.03553  0.014230007  0.012459487         4000 
 4692000   0.49549341   -7.8195043    800.15923   0.01421141   0.01245516         3999 
 4693000   0.50148063   -7.8142614    799.20567  0.014191449  0.012450833         3998 
 4694000   0.49874892   -7.8219941    800.10959  0.014204474  0.012446507         3999 
 4695000   0.49366365   -7.8075942     799.9642  0.014198868  0.012442187         3999 
 4696000   0.48851692   -7.8155235    799.96187  0.014195803  0.012437865         4000 
 4697000   0.49579977   -7.7994969    800.45874  0.014201596  0.012433548         4000 
 4698000    0.4959179   -7.8191505    800.33436  0.014196366  0.012429232         4000 
 4699000    0.4962986   -7.8154937    800.47201  0.014195786  0.012424917         3999 
 4700000   0.49463894   -7.8243185     800.0842   0.01418589  0.012420602         3998 
 4701000   0.49423497   -7.8161524    799.23993  0.014167906  0.012416291         3999 
 4702000   0.49627229   -7.8261919    800.00323  0.014178421  0.012411985         4000 
 4703000   0.49779781   -7.8202748    799.31817  0.014163268  0.012407682         4000 
 4704000   0.50259396   -7.8092117    800.42758   0.01417991   0.01240338         3997 
 4705000   0.49294676   -7.8164057    801.34202  0.014193093  0.012399078         3999 
 4706000   0.49767297    -7.833861    800.39986  0.014173393  0.012394779         4000 
 4707000   0.49989155   -7.8111659    799.64394  0.014156999  0.012390478         3996 
 4708000   0.48797422   -7.8132778    800.26096  0.014164914   0.01238618         4000 
 4709000   0.49834322   -7.8192856    799.05418   0.01414055  0.012381886         4000 
 4710000   0.49706626   -7.8289115     799.2208  0.014140495  0.012377594         4000 
 4711000   0.49466818   -7.8235427    798.80847    0.0141302  0.012373304         3999 
 4712000   0.49205382   -7.8170277    799.89019  0.014146332   0.01236902         4000 
 4713000     0.496919   -7.8410636    799.54018  0.014137142  0.012364734         4000 
 4714000    0.4849859   -7.8256395    798.90563  0.014122925  0.012360447         3999 
 4715000   0.49094598   -7.8249577    799.97778  0.014138879  0.012356163         4000 
 4716000   0.49268827   -7.8054569    799.06679  0.014119784  0.012351884         3997 
 4717000   0.49515552   -7.8147687    800.08721  0.014134818  0.012347605         4000 
 4718000     0.502551    -7.834342    800.52047  0.014139474  0.012343326         4000 
 4719000   0.51232592   -7.8207899     799.8578  0.014124776  0.012339053         4000 
 4720000   0.50968997   -7.8188251    798.70236  0.014101383   0.01233478         4000 
 4721000   0.50245793    -7.801307    800.12884  0.014123576   0.01233051         4000 
 4722000   0.50467768   -7.8318563    799.51174  0.014109695  0.012326241         4000 
 4723000   0.48815496   -7.8092766    799.37439  0.014104284  0.012321975         4000 
 4724000   0.48533189   -7.8216466    800.36101  0.014118703  0.012317711         3999 
 4725000   0.49945852   -7.8251101    801.18838  0.014130307  0.012313446         3999 
 4726000   0.48655512   -7.8194042    800.37066  0.014112898  0.012309186         3997 
 4727000   0.49063551   -7.8355928    799.16251  0.014088614  0.012304927         4000 
 4728000   0.49243581   -7.8242535    800.29136   0.01410553  0.012300668         3998 
 4729000   0.49227937   -7.8102657    799.30755  0.014085211  0.012296411         3997 
 4730000   0.50075637   -7.8116674    799.33355  0.014082691  0.012292156         3997 
 4731000   0.48325592   -7.8248748    799.90029  0.014089697  0.012287903         3999 
 4732000   0.49974502   -7.8225491    800.54914  0.014098146  0.012283653         3999 
 4733000   0.50322161   -7.8143816    799.94325    0.0140845  0.012279404         4000 
 4734000   0.49530151    -7.824252    799.69159  0.014077095  0.012275158         4000 
 4735000   0.49269709   -7.8144668    799.43342  0.014069578  0.012270912         3999 
 4736000   0.47705659    -7.818788    799.75528  0.014072271   0.01226667         3998 
 4737000   0.48778156   -7.8171052    799.85463  0.014071048  0.012262429         4000 
 4738000   0.49014615   -7.8306737    800.15329  0.014073331  0.012258187         3999 
 4739000   0.49582084   -7.8051938    798.69573   0.01404473  0.012253948         4000 
 4740000   0.49365404   -7.8161255    800.09176  0.014066311  0.012249712         3999 
 4741000   0.49924854   -7.8351386    799.55474  0.014053905  0.012245479         3999 
 4742000   0.49188309   -7.8364227    800.28796  0.014063826  0.012241249         3998 
 4743000   0.48401874   -7.8455336    800.00649  0.014055915  0.012237018         4000 
 4744000   0.50104159   -7.8252551    798.20033  0.014021226  0.012232789         3996 
 4745000   0.50353947   -7.8164537    800.20113  0.014053409  0.012228564         3999 
 4746000   0.49634363   -7.8362624    799.03019  0.014029888  0.012224342         3999 
 4747000   0.49383824   -7.8147067    799.76738  0.014039874  0.012220119         4000 
 4748000   0.49305409   -7.8418037    799.56841  0.014033425    0.0122159         3999 
 4749000   0.50027045   -7.8220015    800.26338  0.014042665   0.01221168         4000 
 4750000   0.49349603    -7.824296    798.98074  0.014017206  0.012207466         3999 
 4751000   0.48819521   -7.8341488    799.32113  0.014020226  0.012203251         4000 
 4752000    0.4920305   -7.8395545    800.69779  0.014041417   0.01219904         4000 
 4753000   0.49162579   -7.8233959    798.12928   0.01399343  0.012194829         3998 
 4754000   0.49670646   -7.8190622    798.27472  0.013993036  0.012190621         4000 
 4755000   0.48320176   -7.8229808    799.04296  0.014003557  0.012186412         3999 
 4756000   0.48854677   -7.8259165    798.67814   0.01399422  0.012182207         4000 
 4757000   0.48895086   -7.8328547     799.8605  0.014011991  0.012178006         3999 
 4758000   0.47797887   -7.8124073      797.572  0.013968964  0.012173806         4000 
 4759000   0.48742767    -7.840729    798.53743  0.013982935  0.012169604         3999 
 4760000   0.47791382   -7.8441539    799.29655  0.013993287  0.012165404         3999 
 4761000   0.49053944   -7.8179539     799.4063  0.013992269  0.012161206         3999 
 4762000   0.48580265   -7.8122261    798.77214  0.013978233  0.012157011         3998 
 4763000    0.4786903   -7.8045003    799.24007  0.013983485  0.012152817         4000 
 4764000   0.49544339   -7.8207262    798.72465  0.013971534  0.012148628         3999 
 4765000   0.50197281   -7.8230057    798.58081  0.013966086   0.01214444         3999 
 4766000   0.48518165   -7.8268722    799.69697  0.013982672  0.012140252         4000 
 4767000   0.48559863   -7.8384156    800.24468  0.013989313  0.012136067         3997 
 4768000   0.49393307   -7.8354463    799.27248  0.013969388  0.012131882         3996 
 4769000   0.48446556   -7.8265546    797.70762  0.013939114    0.0121277         4000 
 4770000   0.48582345   -7.8316678    798.06388  0.013942416  0.012123519         3997 
 4771000    0.4868599   -7.8539857    798.95567   0.01395507  0.012119341         3999 
 4772000   0.48768652   -7.8299858    798.78995  0.013949252  0.012115162         3998 
 4773000   0.49673975   -7.8478301    799.47414  0.013958275  0.012110991         3999 
 4774000    0.4881193   -7.8221361    798.90498  0.013945416  0.012106816         4000 
 4775000   0.48096801   -7.8400936    799.70015  0.013956373  0.012102644         4000 
 4776000   0.48271418    -7.836765    799.07123  0.013942477  0.012098474         3999 
 4777000   0.48156975   -7.8368308    798.67976  0.013932729  0.012094305         3999 
 4778000   0.49453133   -7.8374387    800.27924   0.01395771  0.012090143         3996 
 4779000   0.47793106   -7.8277548    799.30815  0.013937856  0.012085982         4000 
 4780000   0.49915531   -7.8333635    799.01357  0.013929804  0.012081823         4000 
 4781000   0.48987357   -7.8321601    799.06838  0.013927846  0.012077667         3999 
 4782000   0.48568364   -7.8365133      800.578  0.013951241  0.012073511         3998 
 4783000   0.47399891   -7.8382097    797.74826  0.013899022  0.012069355         3998 
 4784000   0.48708387   -7.8177328    799.24474  0.013922184    0.0120652         3998 
 4785000   0.47934881   -7.8415886     799.5069   0.01392384  0.012061046         3999 
 4786000   0.49937527   -7.8268402    798.84166  0.013909348  0.012056898         4000 
 4787000   0.49513797   -7.8513558    798.42127  0.013899124   0.01205275         3999 
 4788000   0.48435561   -7.8272761    798.73117  0.013901615  0.012048604         4000 
 4789000   0.47288124   -7.8390804    800.19603  0.013924202  0.012044463         4000 
 4790000   0.48562857   -7.8293174    800.52696  0.013927052  0.012040321         4000 
 4791000   0.48401163   -7.8263213    798.17347  0.013883209  0.012036181         3999 
 4792000   0.49887445    -7.839393     797.4957  0.013868526  0.012032042         4000 
 4793000   0.48868366   -7.8152471    799.44152  0.013899463  0.012027906         3999 
 4794000   0.47124406   -7.8385935    797.88448  0.013869498  0.012023772         4000 
 4795000   0.48287357   -7.8393337     799.0811  0.013887402  0.012019639         3999 
 4796000   0.49002104   -7.8267432    798.65235  0.013877056   0.01201551         3998 
 4797000     0.497405   -7.8500706    799.72004  0.013892711   0.01201138         4000 
 4798000   0.47992954   -7.8373993    798.00051   0.01385995  0.012007251         3999 
 4799000   0.47735753   -7.8392087    799.05148  0.013875312  0.012003128         3999 
 4800000   0.48697475    -7.843738    799.22766   0.01387548  0.011999005         4000 
 4801000   0.49199216   -7.8619757     799.7256  0.013881233  0.011994885         3996 
 4802000   0.46897863   -7.8233454    799.08164  0.013867167  0.011990766         3999 
 4803000   0.48869371   -7.8598372    799.21667  0.013866623  0.011986647         3997 
 4804000   0.48116598   -7.8484371    798.16503  0.013845494   0.01198253         4000 
 4805000   0.48577981   -7.8370474    798.81862  0.013853948  0.011978413         4000 
 4806000   0.48462943   -7.8518642    799.37667  0.013860741  0.011974299         3999 
 4807000   0.47432607   -7.8418742    799.03032  0.013851854  0.011970191         3997 
 4808000   0.46741474   -7.8372124    798.23799   0.01383524  0.011966084         3997 
 4809000   0.47410258   -7.8356796    799.19625  0.013848968  0.011961977         3999 
 4810000   0.47384214   -7.8452239    799.43248  0.013850182  0.011957872         3999 
 4811000     0.488935   -7.8452213    799.60479  0.013850287  0.011953769         3999 
 4812000   0.47292828   -7.8413769    799.32657  0.013842591  0.011949669         3999 
 4813000   0.47794922   -7.8366168    798.41804  0.013823984  0.011945569         3999 
 4814000      0.48574   -7.8441074    800.12439  0.013850651  0.011941474         4000 
 4815000   0.47941263   -7.8352304     798.5027  0.013819708  0.011937379         3999 
 4816000   0.47926089   -7.8446076    799.76601  0.013838698  0.011933287         3997 
 4817000   0.50032417    -7.851404    799.57123  0.013832455  0.011929195         3998 
 4818000   0.48784936   -7.8376336     799.0365  0.013820335  0.011925105         3999 
 4819000     0.467924   -7.8513554    799.81015  0.013830846  0.011921016         3998 
 4820000   0.48315244   -7.8346061    798.75782  0.013809782  0.011916931         4000 
 4821000   0.49205778   -7.8501523    799.82612  0.013825384  0.011912844         3999 
 4822000   0.47561422   -7.8304353    800.01967  0.013825862  0.011908761         3999 
 4823000   0.47869397   -7.8502042     799.2715  0.013810068   0.01190468         3997 
 4824000   0.47626464   -7.8307874    797.81833  0.013782102  0.011900601         3999 
 4825000   0.47340976   -7.8564935    798.30045  0.013787573  0.011896523         4000 
 4826000   0.48360446   -7.8452885    798.55858  0.013789173  0.011892447         3999 
 4827000   0.46921807   -7.8522354    798.05489   0.01377762  0.011888373         4000 
 4828000   0.48528419   -7.8439222    799.66486  0.013802556    0.0118843         3998 
 4829000   0.48099487   -7.8315905    798.71813   0.01378336   0.01188023         4000 
 4830000   0.48229416   -7.8339953    799.10025  0.013787099   0.01187616         3998 
 4831000   0.48813228   -7.8378744    799.21765   0.01378627  0.011872096         3998 
 4832000   0.48831824   -7.8521867    799.09954   0.01378138  0.011868031         4000 
 4833000   0.47435995   -7.8562249       798.56  0.013769225  0.011863968         4000 
 4834000   0.47090781   -7.8510646    799.33384  0.013779717  0.011859909         4000 
 4835000   0.48022425   -7.8484971     798.7913  0.013767516   0.01185585         3998 
 4836000   0.48451573   -7.8417678    798.70175  0.013763126  0.011851795         3998 
 4837000   0.47883386   -7.8667684    799.48246  0.013773731  0.011847738         4000 
 4838000   0.48580335    -7.831319    799.13452  0.013764891  0.011843685         3999 
 4839000   0.48415246   -7.8533887    799.68183  0.013771472  0.011839636         4000 
 4840000   0.48466006   -7.8528209    798.47783  0.013747897  0.011835585         3999 
 4841000   0.46119357   -7.8438588    798.99072  0.013753885  0.011831535         3997 
 4842000   0.48104763   -7.8507991    799.11124  0.013753119  0.011827487         4000 
 4843000   0.47857121   -7.8566068    799.95416  0.013764784  0.011823441         4000 
 4844000   0.47755119   -7.8430776     797.9148  0.013726858  0.011819394         3998 
 4845000   0.47911904   -7.8253961    799.49585  0.013751219  0.011815355         4000 
 4846000   0.47357355   -7.8511948     800.2394  0.013761167  0.011811316         3997 
 4847000   0.48015405   -7.8543208    799.59676  0.013747279  0.011807278         3999 
 4848000   0.47458448   -7.8336102    798.03624   0.01371762  0.011803243         3999 
 4849000   0.47329972   -7.8554923    799.47448  0.013739508   0.01179921         4000 
 4850000   0.47243096   -7.8468591    799.31959  0.013734014  0.011795178         4000 
 4851000   0.46777127   -7.8621027     798.2785  0.013713298  0.011791145         4000 
 4852000   0.47982503   -7.8558819    797.84952  0.013703104  0.011787117         3998 
 4853000   0.48961765   -7.8481919     799.6588  0.013731348  0.011783089         3998 
 4854000   0.46376324   -7.8394791     798.2896  0.013705013  0.011779063         3996 
 4855000    0.4699989   -7.8502586    797.86545   0.01369491  0.011775039         3999 
 4856000   0.46589898   -7.8682253    798.34341  0.013700292  0.011771015         3999 
 4857000   0.47599764   -7.8582729    797.98596  0.013691338  0.011766993         4000 
 4858000   0.47368246   -7.8389794    798.41072  0.013695806  0.011762976         4000 
 4859000    0.4666493   -7.8427192    798.69704  0.013697898  0.011758957         3999 
 4860000   0.48057188   -7.8577378     798.6663  0.013694553  0.011754941         4000 
 4861000   0.47456791   -7.8356503    797.17578  0.013666183  0.011750927         3998 
 4862000    0.4856703   -7.8700897    799.50599  0.013703311  0.011746916         3997 
 4863000   0.47312395   -7.8676343    799.97784  0.013708579  0.011742904         4000 
 4864000   0.47934249   -7.8568267    798.13965  0.013674268  0.011738899         4000 
 4865000   0.47229163   -7.8566288    798.40706  0.013676037  0.011734896         4000 
 4866000   0.46846395   -7.8497646     797.5192  0.013658022  0.011730894         4000 
 4867000   0.47926877   -7.8558204    797.64521  0.013657373  0.011726892         3998 
 4868000   0.47248717   -7.8484146    798.45133  0.013668367  0.011722891         3998 
 4869000   0.47561681   -7.8385049    797.48694  0.013649054  0.011718892         3999 
 4870000   0.46794529   -7.8517749    799.11523  0.013674114  0.011714892         3998 
 4871000   0.47658545   -7.8531709    799.45057  0.013677044  0.011710897         3999 
 4872000   0.47604465   -7.8467313     798.4882  0.013657776  0.011706904         3999 
 4873000   0.46507671   -7.8480016    797.52983  0.013638584  0.011702913         4000 
 4874000   0.46999802   -7.8453654    798.85477  0.013658439  0.011698925         3999 
 4875000    0.4634546   -7.8513585    799.56355  0.013667753  0.011694937         4000 
 4876000   0.47037252   -7.8502608    799.17794   0.01365836  0.011690951         4000 
 4877000   0.47680638   -7.8670139    798.05496  0.013636371  0.011686967         4000 
 4878000   0.47297645   -7.8582665    798.97165  0.013649236  0.011682982         3999 
 4879000   0.46774046   -7.8607981     798.4337   0.01363725  0.011678999         3998 
 4880000   0.46147407     -7.84485    799.15373  0.013646751  0.011675021         4000 
 4881000   0.46095689   -7.8540605    799.68299  0.013652991  0.011671042         4000 
 4882000   0.46436791   -7.8424242    797.85305  0.013618958  0.011667066         4000 
 4883000   0.46767757    -7.867637    798.51728  0.013627505  0.011663093         3997 
 4884000   0.47075852   -7.8566509    799.24791  0.013637181  0.011659119         3997 
 4885000   0.45813943    -7.849951    797.84477  0.013610453  0.011655149         3999 
 4886000   0.47199736   -7.8478053    798.33608  0.013616047  0.011651178         3999 
 4887000   0.46711298   -7.8419138    799.09119  0.013626137   0.01164721         3999 
 4888000   0.46997256   -7.8612346    799.61077  0.013632208  0.011643244         3995 
 4889000   0.46178026   -7.8643972    798.96335  0.013618384   0.01163928         4000 
 4890000   0.46245383   -7.8709208    797.73225  0.013594619  0.011635315         3995 
 4891000   0.47944085   -7.8488284    798.68331  0.013608044  0.011631354         3999 
 4892000   0.46001781   -7.8390191     797.5781  0.013586435  0.011627396         3997 
 4893000   0.46307217     -7.85296     798.3358  0.013596563  0.011623439         3998 
 4894000   0.47232965   -7.8521605    798.92876  0.013603882  0.011619483         3998 
 4895000   0.47155736   -7.8458737    797.86714  0.013583029  0.011615528         3999 
 4896000   0.46383075   -7.8574505    798.44252  0.013590048  0.011611575         3998 
 4897000   0.46487864   -7.8664408    798.92715   0.01359552  0.011607626         3999 
 4898000   0.47567216   -7.8630851    797.93726  0.013575903  0.011603675         3998 
 4899000   0.47125164   -7.8630155    797.52645  0.013566144  0.011599727         4000 
 4900000   0.46508183   -7.8742911    798.28767  0.013576321  0.011595782         3999 
 4901000   0.46510914   -7.8520803    799.14147  0.013588068  0.011591839         4000 
 4902000   0.47888554   -7.8455318    797.67386  0.013560347    0.0115879         4000 
 4903000    0.4563568   -7.8518197    797.41757  0.013553225   0.01158396         3998 
 4904000   0.46907621   -7.8537431    798.41653  0.013567437  0.011580024         3999 
 4905000   0.46909798   -7.8646598    799.21821  0.013578291   0.01157609         3999 
 4906000   0.45658173   -7.8620132    798.11159  0.013556726  0.011572156         3999 
 4907000   0.46212952   -7.8462765    798.50913  0.013560715  0.011568223         3999 
 4908000   0.47270325   -7.8389317    796.91641  0.013530909  0.011564293         3999 
 4909000   0.45958866    -7.856207    798.38455  0.013553075  0.011560365         3998 
 4910000    0.4586988   -7.8618239    797.94202  0.013542804  0.011556438         4000 
 4911000   0.47685233   -7.8500478    797.50132  0.013532568  0.011552511         4000 
 4912000   0.46119945   -7.8637909    798.14062  0.013540659  0.011548588         4000 
 4913000   0.47340586   -7.8699451     798.2333  0.013539475  0.011544668         3999 
 4914000   0.46584526   -7.8677072    798.04534  0.013533532  0.011540749         4000 
 4915000   0.45752151   -7.8714912    798.38432  0.013536526  0.011536831         3998 
 4916000   0.47630494   -7.8603286    798.01261  0.013527472  0.011532915         3998 
 4917000   0.46832877   -7.8424737    797.78786  0.013520911  0.011528999         3999 
 4918000   0.46725736   -7.8779667    797.97027  0.013521253  0.011525088         3996 
 4919000   0.47102596   -7.8747339    798.10458   0.01352078  0.011521178         3999 
 4920000   0.46208496   -7.8505115    798.23957  0.013520318   0.01151727         3999 
 4921000   0.46470758   -7.8625305    797.30545  0.013501752  0.011513362         3998 
 4922000   0.45977672   -7.8584793    797.24729  0.013498024  0.011509456         3999 
 4923000   0.45287316   -7.8666504    798.44273  0.013515518  0.011505553         4000 
 4924000   0.46506251   -7.8600156    796.99396  0.013488254   0.01150165         3998 
 4925000   0.45820068   -7.8651052    797.22691  0.013489457  0.011497749         3999 
 4926000   0.46387337   -7.8567825    799.23078  0.013520618  0.011493851         4000 
 4927000   0.47195267    -7.864778    796.60063  0.013473389  0.011489953         3999 
 4928000   0.46323434   -7.8722967    797.91754  0.013492924  0.011486057         3998 
 4929000   0.45092972     -7.87116    797.83084  0.013488721  0.011482165         3998 
 4930000   0.46970634   -7.8540845    796.65977   0.01346619  0.011478273         3997 
 4931000   0.46223707   -7.8698372    797.65695  0.013480311  0.011474382         4000 
 4932000   0.46692065   -7.8624154    798.78229  0.013496592  0.011470496         4000 
 4933000   0.46818645   -7.8615359    797.58694  0.013473663  0.011466607         3999 
 4934000   0.46783134    -7.863229    797.49692  0.013469412  0.011462723         3998 
 4935000   0.47210886   -7.8612823      797.871  0.013472999   0.01145884         4000 
 4936000   0.46431963   -7.8674631    797.54714  0.013464802   0.01145496         3999 
 4937000   0.46190846   -7.8674081    797.80176  0.013466372  0.011451079         3996 
 4938000   0.46279261   -7.8619815    798.08707   0.01346846  0.011447201         4000 
 4939000   0.47209252   -7.8754721    797.81269  0.013461104  0.011443326         3998 
 4940000   0.45669057   -7.8619605    796.03148  0.013428331   0.01143945         4000 
 4941000   0.45940639   -7.8583926    797.94016  0.013457805  0.011435577         3999 
 4942000   0.46150126   -7.8686887    797.42238  0.013446351  0.011431706         4000 
 4943000    0.4594573   -7.8754945    798.47891  0.013461442  0.011427838         4000 
 4944000   0.46156124   -7.8674873    798.13512  0.013452925  0.011423972         3999 
 4945000   0.45415059    -7.868253    797.49966  0.013439495  0.011420107         4000 
 4946000   0.46573647   -7.8861281    798.18253  0.013448284  0.011416243         3999 
 4947000   0.46107592   -7.8607539    796.91104  0.013424147  0.011412379         3999 
 4948000   0.47042985   -7.8592051    798.45189  0.013447384  0.011408518         3999 
 4949000   0.45933121   -7.8654559     797.9558  0.013436314  0.011404659         3999 
 4950000   0.46798752   -7.8710915    797.31574  0.013422824  0.011400801         4000 
 4951000   0.45057677   -7.8715172    798.33985   0.01343735  0.011396942         4000 
 4952000   0.45756688   -7.8554316    797.55647  0.013421454  0.011393086         3998 
 4953000   0.45503266   -7.8628233    797.76163  0.013422196  0.011389231         3999 
 4954000   0.47385608   -7.8682933    797.80396  0.013420199   0.01138538         4000 
 4955000   0.46818728   -7.8714822    796.99436  0.013403874  0.011381531         3999 
 4956000   0.45409065   -7.8688163    797.89983  0.013416395  0.011377683         3998 
 4957000   0.45024606   -7.8737198    797.61912  0.013408969  0.011373835         4000 
 4958000   0.46099431   -7.8784924    797.58402  0.013405675  0.011369988         3998 
 4959000   0.46639871   -7.8742217    798.51127  0.013418553  0.011366145         4000 
 4960000   0.45898749   -7.8683839      796.857  0.013388054  0.011362305         4000 
 4961000   0.44723091   -7.8735465    799.15221   0.01342391  0.011358466         4000 
 4962000   0.46578461   -7.8885513    798.37829  0.013408207  0.011354628         3999 
 4963000   0.46279153   -7.8635961    797.43063  0.013389593  0.011350792         3999 
 4964000    0.4572451   -7.8668077    797.28279  0.013384414  0.011346958         3999 
 4965000   0.46464043   -7.8777137    797.02859  0.013377452  0.011343125         3998 
 4966000   0.46493698   -7.8716338    796.71145  0.013369436  0.011339296         3998 
 4967000   0.45373237   -7.8825792    797.37624  0.013377898  0.011335465         3999 
 4968000   0.46180617   -7.8823505    796.68266  0.013363571  0.011331635         4000 
 4969000   0.45765047   -7.8752472    798.50435  0.013391433  0.011327809         4000 
 4970000   0.46780492   -7.8769253    797.25729  0.013367828  0.011323985         3999 
 4971000   0.46587975   -7.8689026    797.68398  0.013372292  0.011320161         3997 
 4972000   0.45999829    -7.866192    797.20169  0.013361519   0.01131634         3999 
 4973000   0.44577546   -7.8802755    797.81541  0.013369117   0.01131252         4000 
 4974000   0.45551861   -7.8620135    797.77934  0.013365825  0.011308703         3998 
 4975000   0.46148879   -7.8762654    798.60231  0.013376923   0.01130489         4000 
 4976000   0.45571076   -7.8876034    798.20916  0.013367651  0.011301077         3999 
 4977000   0.45696331    -7.860101    798.23272  0.013365359  0.011297267         3997 
 4978000   0.45062909   -7.8815361     797.0687  0.013343188  0.011293457         3999 
 4979000   0.45400333   -7.8667215    796.34124  0.013328333  0.011289646         3998 
 4980000   0.46091446   -7.8742826    797.68928  0.013348214  0.011285836         4000 
 4981000    0.4485322    -7.875898    797.81752   0.01334768  0.011282032         3999 
 4982000   0.45258043   -7.8828037    797.11179  0.013333196  0.011278228         4000 
 4983000   0.44667043   -7.8675505     796.8859  0.013326743  0.011274424         3999 
 4984000   0.44236039   -7.8727557    796.89532  0.013324226  0.011270624         4000 
 4985000   0.45528392   -7.8594979    798.51133  0.013348568  0.011266824         3998 
 4986000   0.44177574   -7.8773472    797.69478  0.013332243  0.011263028         4000 
 4987000   0.44985635   -7.8824222    797.55292  0.013327199  0.011259231         3999 
 4988000   0.44772171   -7.8842498    798.26777   0.01333647  0.011255439         4000 
 4989000   0.44276252   -7.8591653    797.06137  0.013313646  0.011251648         3998 
 4990000   0.46219916   -7.8625631    797.24505  0.013314046  0.011247857         3999 
 4991000   0.45053274   -7.8817427    798.32937  0.013329483   0.01124407         3999 
 4992000   0.44854576   -7.8852732     798.4191   0.01332831  0.011240282         3999 
 4993000   0.45193477   -7.8800468    797.24175  0.013305991  0.011236496         3998 
 4994000   0.44832742   -7.8768953    797.68004   0.01331064  0.011232715         3999 
 4995000   0.44897676    -7.860231     795.4874  0.013271395  0.011228932         4000 
 4996000   0.44718145    -7.878964    798.13605  0.013312918  0.011225152         3999 
 4997000    0.4556472   -7.8634212    796.63204  0.013285172  0.011221375         3999 
 4998000   0.45196133    -7.870848    797.95999  0.013304655  0.011217599         3998 
 4999000   0.44202967    -7.881861    798.23445  0.013306569  0.011213825         4000 
 5000000   0.45903146   -7.8807638    796.73448  0.013278908  0.011210054         3998 
 5001000   0.45203508   -7.8722436    798.72384  0.013309402  0.011206282         4000 
 5002000   0.45157881   -7.8735284    797.12875  0.013280167  0.011202513         3997 
 5003000   0.45607071   -7.8787947    796.96152  0.013274727  0.011198744         4000 
 5004000   0.45837346   -7.8704324    795.95504  0.013255313  0.011194975         4000 
 5005000   0.45526645   -7.8872119    797.94053  0.013285723  0.011191208         3999 
 5006000   0.46006017   -7.8880539    797.88658  0.013282171  0.011187443         4000 
 5007000    0.4641969   -7.8763229    797.24664  0.013268868  0.011183681         3998 
 5008000   0.45696233   -7.8712963    797.95425  0.013277993  0.011179922         3999 
 5009000   0.45396834   -7.8720677    798.61364  0.013286312  0.011176165         3999 
 5010000   0.44719593   -7.8717523    796.92064    0.0132555   0.01117241         3999 
 5011000   0.45556764   -7.8867479    796.83445  0.013251421  0.011168655         3999 
 5012000   0.44523384   -7.8802785    796.10974  0.013236728    0.0111649         3998 
Loop time of 10583.2 on 48 procs for 5000000 steps with 4000 atoms

Performance: 81639.058 tau/day, 472.448 timesteps/s
99.4% CPU use with 48 MPI tasks x no OpenMP threads

MPI task timing breakdown:
Section |  min time  |  avg time  |  max time  |%varavg| %total
---------------------------------------------------------------
Pair    | 647.54     | 690.8      | 724.3      |  61.8 |  6.53
Neigh   | 66.484     | 67.824     | 72.12      |  11.8 |  0.64
Comm    | 557.27     | 599.85     | 633.69     |  69.8 |  5.67
Output  | 15.399     | 15.404     | 15.492     |   0.3 |  0.15
Modify  | 9068       | 9101.3     | 9140.1     |  19.5 | 86.00
Other   |            | 108        |            |       |  1.02

Nlocal:        83.3333 ave          88 max          78 min
Histogram: 1 0 3 9 8 5 5 6 7 4
Nghost:        1759.67 ave        1776 max        1747 min
Histogram: 2 4 7 6 11 9 6 0 1 2
Neighs:        10640.4 ave       11451 max        9782 min
Histogram: 2 0 6 5 12 5 9 3 4 2
FullNghs:      21279.5 ave       22531 max       19908 min
Histogram: 1 2 3 13 6 4 6 7 4 2

Total # of neighbors = 1021418
Ave neighs/atom = 255.35450
Neighbor list builds = 269972
Dangerous builds = 0

#clear
#
#next RN
#
#jump SELF
Total wall time: 2:56:26
