
units lj                  # Use reduced LJ style units
atom_style atomic         # Uncharged point particles
atom_modify map hash      # Needed for indexing of clusters etc
                          # Used to be able to find where atoms are in relation to each other.

lattice fcc 1.0 spacing 1 1 1
Lattice spacing in x,y,z = 1.5874011 1.5874011 1.5874011
region box block 0 10 0 10 0 10 units lattice
create_box 2 box
Created orthogonal box = (0.0000000 0.0000000 0.0000000) to (15.874011 15.874011 15.874011)
  3 by 4 by 4 MPI processor grid
create_atoms 1 box
Created 4000 atoms
  using lattice units in orthogonal box = (0.0000000 0.0000000 0.0000000) to (15.874011 15.874011 15.874011)
  create_atoms CPU = 0.002 seconds
set type 1 type/fraction 2 0.86 78393
Setting atom values ...
  3427 settings made for type/fraction
mass 1 1.0
mass 2 1.0
pair_style lj/cut  3.5
pair_modify tail  yes
pair_coeff 1  1  1.0  1.0   # Intearaction between 1 and 1 set with epsilon = 1 and sigma = 1
pair_coeff 1  2  1.5  0.8
pair_coeff 2  2  0.5  0.88

write_data data.0
System init for write_data ...
Neighbor list info ...
  update every 1 steps, delay 10 steps, check yes
  max neighbors/atom: 2000, page size: 100000
  master list distance cutoff = 3.8
  ghost atom cutoff = 3.8
  binsize = 1.9, bins = 9 9 9
  1 neighbor lists, perpetual/occasional/extra = 1 0 0
  (1) pair lj/cut, perpetual
      attributes: half, newton on
      pair build: half/bin/atomonly/newton
      stencil: half/bin/3d
      bin: standard
WARNING: Not all mixed pair coeffs generated from mixing. Use write_data with 'pair ij' option to store all pair coeffs. (../write_data.cpp:312)


#############################
#   M E L T   S Y S T E M   #
#############################

velocity all create 2.4 1741580 mom yes dist gaussian # Assign velocities
                                                    # Temperature 2.4, random number seed, zero linear momentum
                                                                                # Gaussian distribution

timestep 0.002   # simulation timestep
thermo 1000       # output thermodynamic data every 1000 steps bf 100

# Define a fix  in this case with index 1 applied to all
# particles in the simulation. This fix is for simulations
# in the anisotropic NPT ensemble. Note that we use the MTK
# correction.
fix 1 all npt temp 2.4 2.4 0.1 iso 5.68 5.68 0.5 mtk yes tchain 5 pchain 5 # Use NPT ensemble
                                                                         # Set temperature and pressure and damping
                                                                         # Numbers of thermostats in chain and in barostat
run 10000          # run for 10000 steps
Per MPI rank memory allocation (min/avg/max) = 3.642 | 3.644 | 3.648 Mbytes
Step Temp E_pair E_mol TotEng Press Volume 
       0          2.4   -3.3969599            0   0.20214005   -2.8933285         4000 
    1000    2.4238437   -2.5709622            0    1.0638945    5.6613752    3907.2735 
    2000    2.3414276   -2.6142618            0   0.89700154    5.5179335    3881.5525 
    3000    2.3961197   -2.5761291            0     1.017152    5.9771239    3874.8728 
    4000    2.4106289   -2.5714312            0    1.0436082    5.9892084    3882.1162 
    5000    2.3777348   -2.5772755            0   0.98843502    5.9206289    3875.4736 
    6000    2.3827825   -2.5575408            0    1.0157394     5.533274    3939.8246 
    7000    2.3960927   -2.5743651            0    1.0188753     5.457442    3943.1918 
    8000    2.4195673   -2.5540999            0    1.0743437    5.7949713    3918.7227 
    9000    2.3787331   -2.4765866            0    1.0906211    5.7702064    3958.3405 
   10000    2.3844607   -2.5715826            0    1.0042143    5.4766586    3930.3685 
Loop time of 2.52657 on 48 procs for 10000 steps with 4000 atoms

Performance: 683930.102 tau/day, 3957.929 timesteps/s
99.6% CPU use with 48 MPI tasks x no OpenMP threads

MPI task timing breakdown:
Section |  min time  |  avg time  |  max time  |%varavg| %total
---------------------------------------------------------------
Pair    | 1.104      | 1.1717     | 1.2454     |   3.1 | 46.38
Neigh   | 0.20876    | 0.21686    | 0.22803    |   0.9 |  8.58
Comm    | 0.79613    | 0.86352    | 0.93176    |   3.6 | 34.18
Output  | 0.0002412  | 0.00024706 | 0.00031274 |   0.0 |  0.01
Modify  | 0.23542    | 0.25924    | 0.2832     |   2.3 | 10.26
Other   |            | 0.01498    |            |       |  0.59

Nlocal:        83.3333 ave          91 max          74 min
Histogram: 3 5 3 1 3 8 11 6 6 2
Nghost:        1662.69 ave        1683 max        1636 min
Histogram: 2 3 6 2 4 10 5 4 6 6
Neighs:        9712.46 ave       11028 max        8311 min
Histogram: 2 5 2 6 2 8 15 5 2 1

Total # of neighbors = 466198
Ave neighs/atom = 116.54950
Neighbor list builds = 910
Dangerous builds = 219

# Equilibrate just above the melting temperature to avoid step fn in T

fix 1 all npt temp 1.25 1.25 0.1 iso 5.68 5.68 0.5 mtk yes tchain 5 pchain 5
run 2000
Per MPI rank memory allocation (min/avg/max) = 3.643 | 3.645 | 3.649 Mbytes
Step Temp E_pair E_mol TotEng Press Volume 
   10000    2.3844607   -2.5715826            0    1.0042143    5.4766586    3930.3685 
   11000    1.2577973   -3.7942217            0   -1.9079975    5.7217735     3024.147 
   12000    1.2421884   -3.8081283            0   -1.9453116    5.5604224    3034.7932 
Loop time of 0.61188 on 48 procs for 2000 steps with 4000 atoms

Performance: 564816.549 tau/day, 3268.614 timesteps/s
99.6% CPU use with 48 MPI tasks x no OpenMP threads

MPI task timing breakdown:
Section |  min time  |  avg time  |  max time  |%varavg| %total
---------------------------------------------------------------
Pair    | 0.27864    | 0.29748    | 0.32644    |   1.9 | 48.62
Neigh   | 0.039969   | 0.041661   | 0.044833   |   0.5 |  6.81
Comm    | 0.19078    | 0.22415    | 0.24735    |   2.6 | 36.63
Output  | 5.1235e-05 | 5.2461e-05 | 6.9243e-05 |   0.0 |  0.01
Modify  | 0.040419   | 0.043758   | 0.046629   |   0.9 |  7.15
Other   |            | 0.004778   |            |       |  0.78

Nlocal:        83.3333 ave          91 max          74 min
Histogram: 1 1 5 5 8 9 4 8 6 1
Nghost:        1986.60 ave        2012 max        1955 min
Histogram: 1 3 2 3 7 11 8 10 0 3
Neighs:        12581.9 ave       14571 max       11376 min
Histogram: 7 1 8 12 4 10 4 0 1 1

Total # of neighbors = 603929
Ave neighs/atom = 150.98225
Neighbor list builds = 143
Dangerous builds = 19

#############################
# L I N E A R  Q U E N C H  #
#############################

# Define solid atoms. This closely follows ten Wolde  Ruiz-Montero and Frenkel  Faraday Discuss  1996  104  93-110
# Compute components of the per-atom q6 vector
compute q6 all orientorder/atom degrees 1 6 components 6 nnn NULL cutoff 1.3 # compute the Q6 parameter.
                                                                             # Use all neighbours within 1.3 unit cell.

# get number of connections
compute coord_number all coord/atom orientorder q6 0.5

# An atom is solid if it has 8 or more connections (of a possible 14)
variable is_solid atom c_coord_number>=8
group solid dynamic all var is_solid    # Must be dynamic to update
dynamic group solid defined

# do clustering
compute cluster solid cluster/atom 1.3 # Create a cluster where all atoms within are solid and max 1.3 units from another member

# define chunks one chunk per cluster
compute clus_chunks solid chunk/atom c_cluster nchunk every compress yes  # Says which atoms are in which chunk

# count the size of each chunk
compute size_chunks solid property/chunk clus_chunks count


# Find the maximum entry in the vector of chunk sizes
variable max_n equal max(c_size_chunks)


# Thermo style which includes this variable
# thermo_style custom step temp pe vol v_max_n

thermo ${N}  # Print the thermo information every 100 steps
thermo 1000  

# Reset the npt fix at a lower temperature (below freezing)
fix 1  all npt temp  ${temp} ${temp}  0.1  iso  5.68  5.68  0.5  mtk yes tchain  5  pchain  5
fix 1  all npt temp  0.45 ${temp}  0.1  iso  5.68  5.68  0.5  mtk yes tchain  5  pchain  5
fix 1  all npt temp  0.45 0.45  0.1  iso  5.68  5.68  0.5  mtk yes tchain  5  pchain  5

dump dmp2 all dcd ${N} traj.dcd
dump dmp2 all dcd 1000 traj.dcd


compute msd all msd com yes
variable twopoint equal c_msd[4]/6/(step*dt+1.0e-6)
fix 9 all vector 10 c_msd[4]
variable fit equal slope(f_9)/6/(10*dt)
thermo_style custom step temp pe c_msd[4] v_twopoint v_fit v_max_n

fix 1 all npt temp 1.25 ${temp} 0.1 iso 5.68 5.68 0.5 mtk yes tchain 5 pchain 5
fix 1 all npt temp 1.25 0.45 0.1 iso 5.68 5.68 0.5 mtk yes tchain 5 pchain 5
run 500000 # 5000000  # Run for this many steps
Neighbor list info ...
  update every 1 steps, delay 10 steps, check yes
  max neighbors/atom: 2000, page size: 100000
  master list distance cutoff = 3.8
  ghost atom cutoff = 3.8
  binsize = 1.9, bins = 8 8 8
  4 neighbor lists, perpetual/occasional/extra = 1 3 0
  (1) pair lj/cut, perpetual
      attributes: half, newton on
      pair build: half/bin/atomonly/newton
      stencil: half/bin/3d
      bin: standard
  (2) compute orientorder/atom, occasional
      attributes: full, newton on
      pair build: full/bin/atomonly
      stencil: full/bin/3d
      bin: standard
  (3) compute coord/atom, occasional
      attributes: full, newton on
      pair build: full/bin/atomonly
      stencil: full/bin/3d
      bin: standard
  (4) compute cluster/atom, occasional
      attributes: full, newton on
      pair build: full/bin/atomonly
      stencil: full/bin/3d
      bin: standard
Per MPI rank memory allocation (min/avg/max) = 9.828 | 9.834 | 9.839 Mbytes
Step Temp PotEng c_msd[4] v_twopoint v_fit v_max_n 
   12000    1.2421884   -3.8081283 9.973174e-31 6.925815e-33 8.3333333e+20            1 
   13000      1.24098   -3.8085083   0.94417086 0.0060523771  0.080481712            2 
   14000    1.2390049   -3.8123267    1.9254671  0.011461113  0.080874904            1 
   15000    1.2454721   -3.8174867    2.9299864  0.016277702  0.081715088            1 
   16000    1.2376954   -3.8167036    3.9557057  0.020602633  0.082452511            2 
   17000    1.2442637   -3.8170049    4.9296673  0.024165035  0.082588035            2 
   18000    1.2215686    -3.837359    5.9118904  0.027369862  0.083078102            2 
   19000    1.2484097    -3.819044    6.8959667  0.030245467  0.082863824            1 
   20000    1.2403033   -3.8265325    7.9089683  0.032954034  0.082904243            1 
   21000    1.2255992   -3.8579414    8.8986552  0.035312123  0.082841577            1 
   22000    1.2501439   -3.8105544    9.9478145  0.037681115  0.082820055            2 
   23000    1.2141228   -3.8486564    10.885617  0.039440641  0.082844925            1 
   24000    1.2396279   -3.8306553    11.864874  0.041197477  0.082815054            4 
   25000    1.2073266   -3.8402141    12.969806  0.043232687  0.082922742            3 
   26000    1.2434218   -3.8916877    13.781687  0.044172074  0.083025361            3 
   27000    1.2237361   -3.8628014    14.702496  0.045378072  0.082837102            3 
   28000    1.2432674   -3.8848207    15.622141  0.046494467    0.0824233            4 
   29000    1.2389568   -3.8496197    16.601307  0.047704905  0.082112716            1 
   30000    1.2051128   -3.8542318     17.54203  0.048727861  0.081897714            2 
   31000    1.2226504   -3.8651104    18.528271   0.04980718  0.081687954            1 
   32000    1.2209938   -3.8133576    19.422683  0.050579904   0.08138394            2 
   33000    1.2079154   -3.8510502    20.296622  0.051254095  0.081126496            1 
   34000    1.2230261    -3.895046    21.122806  0.051771582  0.080843661            2 
   35000    1.1947383   -3.8752081    22.110533  0.052644127  0.080553248            1 
   36000    1.2083173   -3.8860377    22.939464  0.053100611  0.080359139            2 
   37000    1.1991533   -3.8820038    24.028383  0.054117979  0.080122954            3 
   38000    1.1937062   -3.8679171    24.881261  0.054564167  0.079940296            2 
   39000    1.2350514   -3.8582087    25.675582  0.054862354  0.079746804            1 
   40000    1.2364601   -3.8812657    26.538207  0.055287931  0.079518214            3 
   41000    1.2169206   -3.9135353    27.484268  0.055862332  0.079287274            2 
   42000     1.192062   -3.9033268    28.393142  0.056335598   0.07908545            4 
   43000    1.2178429    -3.900349    29.485651  0.057142735  0.078954992            3 
   44000    1.2312095   -3.9101758    30.073172  0.056956764  0.078784443            4 
   45000    1.2193783   -3.9009163    30.910527  0.057241716  0.078558026            3 
   46000    1.2006061   -3.9204134    31.345631  0.056785563  0.078238604            3 
   47000    1.1984733   -3.8883072    32.274134  0.057223642  0.077886707            2 
   48000    1.1635375   -3.8809715    33.071757  0.057416243  0.077541883            3 
   49000    1.1980133   -3.8812736    33.804552  0.057490734  0.077131291            3 
   50000    1.1920902    -3.914571    34.539989  0.057566648  0.076731839            3 
   51000    1.1955849   -3.8962607    35.296247  0.057673606  0.076416073            2 
   52000    1.1792277   -3.8914585    36.392884  0.058321929  0.076139693            2 
   53000    1.1902323   -3.9306525    37.283781  0.058622297  0.075915759            1 
   54000    1.1924789   -3.9131673    38.167596  0.058900611  0.075694851            2 
   55000    1.1870573   -3.8924331    39.415305  0.059720159  0.075517999            2 
   56000    1.1834891   -3.9166202    40.177453  0.059787876  0.075420216            2 
   57000    1.1691871   -3.9091941    41.324016  0.060415227  0.075316337            1 
   58000     1.179926   -3.8947008    41.985338  0.060323762  0.075218591            3 
   59000    1.1613776   -3.9212691    43.016261   0.06075743  0.075108663            1 
   60000    1.1830391   -3.9476989    43.828077  0.060872328  0.075019311            2 
   61000    1.1689772    -3.933809    44.389678  0.060641637  0.074936425            3 
   62000    1.1821694   -3.9395929    45.617044   0.06131323  0.074861657            2 
   63000     1.172613   -3.9327473    46.174258  0.061077061  0.074795539            1 
   64000    1.1496094   -3.9635524    47.019355  0.061223118  0.074685216            3 
   65000    1.1549666   -3.9426821    47.573811  0.060992065  0.074537924            2 
   66000     1.155776   -3.9612046    48.053468   0.06067357  0.074367832            2 
   67000    1.1416856   -3.9816645    48.849858  0.060758529  0.074180559            3 
   68000    1.1440844   -3.9356301    49.862829  0.061106408  0.074013283            3 
   69000    1.1580406   -3.9590029    50.993176   0.06158596  0.073881798            1 
   70000    1.1676621   -3.9469123    51.752863  0.061610551  0.073760368            6 
   71000    1.1575151   -3.9861338    52.276967  0.061357942   0.07363318            2 
   72000    1.1680514   -3.9803659    52.830225  0.061146093   0.07348199            1 
   73000    1.1656543    -3.966197    53.491164  0.061062973  0.073312143            4 
   74000    1.1254819   -3.9912858    54.311658  0.061161777  0.073141932            3 
   75000     1.130152   -3.9943803    54.996265   0.06110696  0.072963537            2 
   76000    1.1510549   -3.9989408    55.929269  0.061325952  0.072788269            1 
   77000    1.1334681   -4.0242428    56.267019  0.060895042  0.072618282            1 
   78000    1.1340355   -3.9504716    57.361443  0.061283592    0.0724538            2 
   79000    1.1521049   -3.9615372    58.361377  0.061562633  0.072291254            3 
   80000    1.1412881   -3.9373377    59.503611  0.061982927   0.07216604            3 
   81000    1.1439503   -3.9791394     60.27369  0.062009969  0.072068227            4 
   82000    1.1647098   -4.0296801    61.238009  0.062233748  0.071972692            5 
   83000    1.1196445    -3.993635    61.984637  0.062233571  0.071878797            3 
   84000    1.1377516   -3.9910616    62.392321  0.061897144  0.071768633            2 
   85000    1.1182088   -3.9787219    63.206141  0.061966805  0.071657199            1 
   86000    1.1205805   -3.9799604    64.058255  0.062071952  0.071549542            2 
   87000    1.1169118   -4.0046116    65.029429  0.062288724  0.071466938            1 
   88000    1.1317526   -4.0060486    65.923383  0.062427446  0.071379144            2 
   89000    1.1292238   -4.0182485     66.78928  0.062536778  0.071281891            2 
   90000    1.1269867   -4.0124271    67.256982  0.062274983  0.071185152            3 
   91000    1.1088927   -3.9585309    68.104414  0.062366679  0.071082375            2 
   92000    1.1311126   -3.9938891    69.027159    0.0625246  0.070985541            2 
   93000    1.1233009   -3.9770093    69.792492  0.062538075  0.070884261            1 
   94000    1.1277867   -3.9696308    70.980654  0.062926111  0.070808273            3 
   95000    1.1151616   -3.9793126    72.015656  0.063171628  0.070748844            2 
   96000    1.0935371   -4.0317717    72.482763  0.062919065  0.070694624            2 
   97000    1.1250585   -4.0215495    72.928959  0.062653745  0.070622797            2 
   98000    1.1171694   -4.0152099    73.804015  0.062758516  0.070555884            6 
   99000    1.1086257   -3.9822586    74.548317  0.062751108  0.070481275            3 
  100000    1.1121508   -4.0426312    75.328833  0.062774027  0.070408489            4 
  101000    1.1190206   -4.0306646    76.319287  0.062969708  0.070332792            2 
  102000    1.1104105   -4.0593655    76.452488  0.062461182  0.070262665            3 
  103000    1.0971811   -4.0373923    77.479183  0.062685423  0.070175147            3 
  104000    1.0903614   -4.0349271    77.562187  0.062149188  0.070072405            2 
  105000    1.1018622   -4.0499425    78.884503  0.062606748  0.069979661            2 
  106000    1.1020489   -4.0352946    79.887328  0.062804503  0.069894332            2 
  107000     1.127084   -4.0761179    80.688739  0.062841696    0.0698243            5 
  108000    1.0781787    -4.048629    81.640845  0.062994479  0.069758432            1 
  109000    1.0911281   -4.0495177    82.050453  0.062729704  0.069696264            1 
  110000    1.0654692   -4.0585123    82.846224  0.062762291  0.069625305            4 
  111000    1.1069576   -4.0639778     83.56418  0.062735871  0.069546179            2 
  112000    1.1194953   -4.0599667    84.006731  0.062505008  0.069466638            3 
  113000    1.0899502   -4.0623486    84.847223  0.062571698  0.069383218            4 
  114000    1.0827853    -4.055534    85.184098  0.062269077  0.069290778            1 
  115000    1.0872595   -4.0605626    85.781214    0.0621603  0.069194096            2 
  116000    1.0872512   -4.0546792    86.588587  0.062204444  0.069092011            2 
  117000    1.0843237   -4.0850145    87.137381  0.062063661  0.068990498            3 
  118000    1.0623714   -4.0717407    88.005184  0.062150553  0.068884866            4 
  119000    1.0914657   -4.0447383    88.773538  0.062166343  0.068780564            3 
  120000    1.0840771   -4.0761918    89.650423  0.062257238  0.068685487            2 
  121000    1.0663557   -4.0945121    90.252881  0.062157631  0.068594493            5 
  122000    1.0719741   -4.0798979    91.058962  0.062198745  0.068502968            2 
  123000     1.085492   -4.1184824    91.885092  0.062252772  0.068412371            4 
  124000    1.0689482   -4.0891968    92.601307  0.062232061  0.068320662            2 
  125000    1.0676864   -4.0907271    93.233171  0.062155447  0.068236301            1 
  126000    1.0618668   -4.0878097    94.448162  0.062465715  0.068152495            2 
  127000    1.0642506   -4.1012632    95.319391  0.062545532  0.068082603            7 
  128000    1.0515318     -4.10215    95.570489   0.06222037  0.068009511            5 
  129000    1.0652229   -4.1128658    96.662483  0.062443464  0.067935384            2 
  130000    1.0768671    -4.082673    97.491367  0.062494466  0.067861276            1 
  131000    1.0547467   -4.1234611    97.311563   0.06190303  0.067784246            1 
  132000    1.0406436   -4.1385631    97.968123  0.061848562  0.067695388            2 
  133000     1.064138   -4.1006752    98.292407  0.061586721  0.067597918            2 
  134000    1.0578298   -4.1256225    99.093423  0.061625263  0.067506488            3 
  135000    1.0338319   -4.1435892    99.872008  0.061649387  0.067408497            2 
  136000     1.043884   -4.0990584    100.55136  0.061612354  0.067309101            1 
  137000    1.0598678   -4.1015266    101.00056  0.061435866   0.06719503            1 
  138000    1.0379807   -4.1102679     101.7107  0.061419503  0.067090654            2 
  139000    1.0436242   -4.1244155    101.86833  0.061072139  0.066980787            2 
  140000    1.0198089    -4.135766    102.67977   0.06111891  0.066866506            2 
  141000    1.0368311   -4.1482763    103.07453  0.060918751  0.066751822            6 
  142000    1.0306918   -4.1137823    103.85216  0.060946105  0.066637156            1 
  143000    1.0453633   -4.1349818      104.495  0.060894524  0.066510778            4 
  144000    1.0455973   -4.1315936    104.31162  0.060365521  0.066386418            5 
  145000     1.029601   -4.1516816    105.02504  0.060359219  0.066257489            3 
  146000    1.0254342   -4.1525477    105.45998  0.060194052  0.066126519            2 
  147000    1.0233455   -4.1274444    106.14196  0.060171178  0.065994206            4 
  148000    1.0497955   -4.1306569    106.93189  0.060209396  0.065863727            3 
  149000    1.0299818   -4.1379435    107.43205  0.060085038  0.065736479            1 
  150000    1.0233556   -4.1577682    107.54348  0.059746377  0.065605261            5 
  151000    1.0199741   -4.1621649    108.74665  0.060014708   0.06546958            4 
  152000    1.0127261   -4.1426562    109.24877  0.059895156  0.065338592            3 
  153000    1.0211209   -4.1246999    109.72496  0.059763048  0.065209265            3 
  154000    1.0290227   -4.1977527    110.03509  0.059542798  0.065077787            3 
  155000    1.0389701   -4.1733848    110.87981  0.059612802  0.064948598            6 
  156000    1.0200687   -4.1942796    111.38635  0.059501254  0.064822223            4 
  157000    1.0312693   -4.1761043    112.09988  0.059500998  0.064698289            1 
  158000    1.0239132   -4.1365238    112.85146  0.059520814  0.064578643            4 
  159000    1.0311608   -4.1915483     112.8096  0.059124528  0.064455746            4 
  160000    1.0360797   -4.1959508    113.94922  0.059348552  0.064331014            3 
  161000    1.0095497   -4.2117237    114.58229  0.059307602  0.064210412            4 
  162000    1.0221556   -4.1725524     115.7948  0.059565226  0.064096209            6 
  163000   0.98722797   -4.1597445    115.66607  0.059133981  0.063984517            2 
  164000    1.0113513   -4.2115246    116.20624  0.059047884   0.06386686            3 
  165000    1.0078238   -4.1771766    117.00524  0.059093555  0.063748721            2 
  166000   0.99907303   -4.1850139    117.30775  0.058889434  0.063627149            2 
  167000   0.98864975   -4.1991989     118.2424  0.059003193  0.063508563            3 
  168000    1.0030383   -4.2027695    119.11114  0.059082904  0.063393071            3 
  169000    0.9883214   -4.2009916     119.1783  0.058766422   0.06327691            2 
  170000   0.99285368   -4.2265031    119.73826  0.058695224  0.063162231            2 
  171000   0.97908703   -4.2048825    120.62366  0.058783461  0.063051424            3 
  172000    1.0121457   -4.2360144    120.99104  0.058619688  0.062934351            2 
  173000   0.97447502   -4.2205619    121.03966  0.058304266  0.062817744            2 
  174000   0.99701574   -4.2275261    121.36947   0.05812714  0.062691925           10 
  175000    1.0034377   -4.2059382     122.0482  0.058118189  0.062565533            1 
  176000    1.0017948   -4.2443705    122.56564  0.058032974  0.062441393            2 
  177000   0.99127246   -4.2451892    122.87511  0.057850803  0.062313357            2 
  178000     1.000907   -4.2238569    123.31216  0.057730412  0.062183341            3 
  179000   0.96738645   -4.2014748    123.38262  0.057440696  0.062052347            9 
  180000   0.97622912   -4.2314669    123.78695  0.057308774  0.061921316            2 
  181000   0.98053887   -4.2353022    124.72638  0.057424669  0.061787538            2 
  182000   0.97005758   -4.2560671    124.94325  0.057208449   0.06165307            2 
  183000   0.97159805   -4.2670631    125.19401   0.05701002  0.061518533            5 
  184000   0.98482287    -4.227376     125.5806  0.056875271  0.061382454            5 
  185000   0.96202244   -4.2564334    125.72994  0.056635106  0.061244008            4 
  186000    0.9739209   -4.2483511    126.74088  0.056783547  0.061106645            6 
  187000   0.95794355    -4.270521    127.15068  0.056662511  0.060971915            2 
  188000    0.9694809   -4.2586199    127.12038  0.056347684  0.060837299            3 
  189000   0.96442421   -4.2556783    127.69072  0.056301023  0.060700871            5 
  190000   0.97227768   -4.2826073    127.98605  0.056134232  0.060562447            4 
  191000   0.96759811   -4.2703845    128.27232  0.055965234  0.060424523            2 
  192000   0.95502763   -4.2653411    129.54802  0.056227438  0.060289213            7 
  193000   0.93942641   -4.2790743    129.80525  0.056047172  0.060156534            4 
  194000    0.9688179   -4.2682496    130.20127   0.05592838  0.060022966            3 
  195000   0.96316561   -4.2508483    130.73293  0.055868772  0.059888538            2 
  196000   0.98277666   -4.3035789    130.42617  0.055453305  0.059753434            2 
  197000   0.97360687   -4.2661637    131.39192  0.055580338  0.059619862            6 
  198000    0.9598022   -4.2457458    131.55418  0.055367922  0.059484759            3 
  199000   0.95694976   -4.2961607    131.99031  0.055272326  0.059347196            4 
  200000   0.94965913   -4.2941906    133.06082  0.055442008  0.059214474            9 
  201000   0.94922225     -4.28728    133.65287  0.055411637  0.059083241            4 
  202000   0.92146369   -4.2630239    134.18985  0.055358848  0.058951606            3 
  203000   0.94937639   -4.3150771     133.8131  0.054931485  0.058821563            3 
  204000    0.9536267   -4.3197849    134.43442   0.05491602  0.058687762            5 
  205000   0.93948107   -4.3169932    134.62674  0.054726319   0.05855611            3 
  206000    0.9750935   -4.2929571    135.07618  0.054642467  0.058422655            6 
  207000   0.92266825   -4.2738256    135.83676  0.054684685  0.058294744            4 
  208000      0.93199   -4.3035372    136.45345  0.054668851  0.058167794            6 
  209000   0.92777126   -4.3063131    136.48984  0.054421786  0.058038065            5 
  210000    0.9283523   -4.3223257    136.83926  0.054301294    0.0579081            7 
  211000   0.93196644   -4.3212815    137.73363  0.054397167  0.057776704            2 
  212000   0.94124275   -4.3287083    137.49337  0.054046137    0.0576457            3 
  213000   0.91904171   -4.3205767    138.14304  0.054046571  0.057513919            4 
  214000   0.92247378   -4.3076314    138.79496  0.054047882  0.057385211            3 
  215000   0.92808211   -4.3302976     139.1997  0.053953372  0.057257481            4 
  216000   0.91731759   -4.3437158    139.57725  0.053849247   0.05712762            4 
  217000    0.9158579   -4.3477311    139.95471   0.05374605  0.057002232            2 
  218000   0.93569141   -4.3179077    140.57553  0.053736823  0.056878716            4 
  219000   0.91181933   -4.3336943    140.84037  0.053592224  0.056755484            2 
  220000   0.93425324   -4.3455242    141.14269  0.053463138  0.056633717            2 
  221000   0.92492814   -4.3296166    141.59698  0.053392526  0.056511871            3 
  222000   0.91908078   -4.3477725    142.07991  0.053333298  0.056387622            1 
  223000   0.93937748   -4.3825573    142.39783  0.053212939  0.056264913            3 
  224000   0.91971392   -4.3584922    142.89335  0.053159727  0.056145778           10 
  225000   0.91402992   -4.3746597     143.9157  0.053302112  0.056028712            4 
  226000   0.90982964   -4.3578015    144.10266  0.053135198  0.055912601            2 
  227000   0.90767384   -4.3827619    144.47785  0.053038857  0.055796503            5 
  228000   0.88037121      -4.3755    144.67496  0.052878273  0.055678726            3 
  229000   0.89934281   -4.3911138    145.12305  0.052810425  0.055563114            5 
  230000   0.89014749    -4.372291    145.43324  0.052693204  0.055447181            4 
  231000    0.8824357   -4.3864676    145.56437    0.0525124   0.05533101            2 
  232000   0.88818545   -4.3924064    146.40372  0.052587541  0.055214475            2 
  233000   0.91012818    -4.390906    146.75291  0.052486736  0.055099018            4 
  234000   0.90787243   -4.3640859    146.78421  0.052273578  0.054984237            3 
  235000   0.90317457   -4.4169642    146.76944    0.0520459  0.054867215            3 
  236000   0.89591267    -4.402862    148.17925  0.052323183  0.054750973            2 
  237000   0.88927114   -4.4370363    147.71504  0.051939186  0.054636851            3 
  238000   0.88517699   -4.3990711    148.09494  0.051853972  0.054522126            3 
  239000   0.89740883   -4.3824744    149.23093  0.052033101  0.054410114            4 
  240000   0.89935787   -4.3979092    149.43919  0.051888609  0.054297528            5 
  241000   0.89914608   -4.4132414    149.77839  0.051790592   0.05418554            5 
  242000   0.89699769   -4.3853806    149.98883  0.051649047  0.054072267            4 
  243000   0.85450635   -4.4287696    150.44902  0.051594315  0.053958948            6 
  244000   0.87070467   -4.3992058    150.76268  0.051489986  0.053844354            5 
  245000   0.90355092   -4.4393541     150.8326  0.051303605  0.053730827            4 
  246000   0.87031713   -4.4191112    151.70027  0.051388979  0.053617049            4 
  247000   0.87356677   -4.4217328    151.62043  0.051153991  0.053503395            2 
  248000   0.87015463   -4.4505779    151.09597  0.050771495  0.053388147            2 
  249000   0.87683626   -4.4439037    151.77747  0.050795671  0.053273752            5 
  250000   0.86431317   -4.4057997    152.45722  0.050819075  0.053156886            5 
  251000   0.87205156   -4.4378144    152.34179  0.050578285  0.053041838            4 
  252000   0.85571537   -4.4126975    153.10794  0.050630932  0.052926072            5 
  253000   0.87762037   -4.4363007     153.1581  0.050447332   0.05280945            9 
  254000   0.86027344   -4.4399727    153.54153  0.050374518  0.052691983            4 
  255000   0.85632949   -4.4249469    154.16144  0.050379554  0.052577379            3 
  256000   0.85149424   -4.4569342    154.42008  0.050266951  0.052463118            4 
  257000   0.86382099   -4.4502851    154.98181  0.050253506  0.052348242            5 
  258000   0.85812292   -4.4623843     155.1105   0.05010029  0.052234412           13 
  259000   0.85655043   -4.4735171     155.0592  0.049890346   0.05211907            7 
  260000   0.85251108   -4.4507107    155.89961  0.049967823   0.05200425            3 
  261000   0.86043126   -4.4446506    156.35618  0.049922153  0.051889869            6 
  262000   0.84227463   -4.4620416    156.28843  0.049710061  0.051776877            4 
  263000   0.81166836   -4.4880544    157.06812  0.049768098  0.051662109            3 
  264000   0.84240365    -4.477853    156.74481  0.049477528  0.051548845            6 
  265000   0.84435029    -4.487592    157.19999   0.04943396  0.051436788            5 
  266000   0.84829572   -4.4797381    157.24254  0.049261446  0.051324651            5 
  267000   0.82110483   -4.4732143    157.79445  0.049249204  0.051212154            4 
  268000   0.82587163   -4.4813133    158.24245  0.049204741  0.051100453            4 
  269000     0.832759   -4.5067147    158.39946  0.049070464   0.05098987            7 
  270000   0.84973726   -4.5005342    158.13464  0.048806986  0.050878499           14 
  271000   0.82401789    -4.464214    158.92432  0.048869718  0.050766426            3 
  272000   0.84720503   -4.4919729    159.09912  0.048743604   0.05065257            5 
  273000   0.84090432   -4.4834666    159.11503  0.048569911  0.050539223            4 
  274000   0.82215909   -4.5107704     159.4034  0.048480353  0.050426538           10 
  275000   0.83317198   -4.4944164    159.56871  0.048354155  0.050313903            4 
  276000   0.83567632   -4.5178977    160.24862  0.048384245  0.050200015            4 
  277000   0.84897992   -4.5109323    159.89596  0.048103477  0.050088402            4 
  278000    0.8252409   -4.5219538     160.6645  0.048160821    0.0499766            8 
  279000    0.8393936   -4.5097162    161.22867  0.048156711  0.049865118            3 
  280000   0.80645591   -4.5139991    161.02372  0.047923726  0.049754334            7 
  281000   0.84095432   -4.5188115    161.97804  0.048036193   0.04964427            4 
  282000   0.82487807   -4.5376054    162.35411  0.047976984  0.049534956            6 
  283000     0.808861   -4.5327142    161.91158  0.047677142  0.049426438            2 
  284000   0.83087017   -4.5595915    162.55853  0.047699098  0.049317559            8 
  285000   0.80805179   -4.5519976    163.42473  0.047785007  0.049210197            9 
  286000   0.81208711    -4.546789     163.1104  0.047526341   0.04910318            4 
  287000   0.80115077   -4.5596719    163.21717  0.047391745  0.048995461            5 
  288000   0.81506016   -4.5259553    164.26599  0.047530669  0.048890335            3 
  289000   0.80882886   -4.5771938     163.5976  0.047173471   0.04878453            4 
  290000    0.7954586    -4.535194    164.04669  0.047139854  0.048677821            4 
  291000   0.78568455    -4.549532    164.54586  0.047120808  0.048571205            4 
  292000   0.81091808   -4.5613055    164.99295  0.047087029  0.048464651            4 
  293000   0.80203815    -4.558847    164.87736  0.046893447  0.048357164            5 
  294000   0.80820758   -4.5734834    164.15456   0.04652907  0.048248675            7 
  295000   0.78444832   -4.5691928    164.66792  0.046516361  0.048139525            4 
  296000   0.80380167   -4.5812963    164.84544  0.046409189  0.048030421            4 
  297000   0.80705903   -4.5852749    165.31147  0.046383689  0.047921486            8 
  298000    0.7922002   -4.5733519    165.85684  0.046380549  0.047813335            5 
  299000   0.79666676   -4.6128666      165.811  0.046212654  0.047705004            8 
  300000   0.78255143   -4.6046851    166.31578  0.046198827  0.047596799            3 
  301000   0.79261187   -4.6140519    165.88441  0.045925916    0.0474884            6 
  302000   0.76355269   -4.5799172    165.80954  0.045753186  0.047380964            7 
  303000   0.78530467   -4.6024671    166.25919   0.04572585  0.047271742            6 
  304000   0.76878582   -4.6212291    166.41737  0.045618797  0.047161128            4 
  305000   0.78569312   -4.6246335    166.61347  0.045522807   0.04705139            8 
  306000   0.77426846   -4.6110272     167.0915  0.045504222  0.046942571            3 
  307000   0.77970359   -4.5973169    167.32472  0.045419306   0.04683414            5 
  308000   0.77969797   -4.6149254    167.55977  0.045335435  0.046724604            3 
  309000   0.76525987   -4.6349522    167.19025  0.045089065  0.046614493            6 
  310000    0.7789435    -4.589618    168.04513  0.045173421  0.046504725            9 
  311000   0.75675645    -4.604134    168.85852   0.04524612  0.046397192            7 
  312000   0.76392361   -4.6333391    168.09949  0.044898368  0.046289613            5 
  313000   0.76259167   -4.6297567    168.27632  0.044802001  0.046181173            9 
  314000   0.77373696   -4.6226901    168.33379  0.044674572    0.0460719            5 
  315000    0.7634586   -4.6236967    169.16222  0.044751909   0.04596424            3 
  316000   0.75051788   -4.6563866    168.83363  0.044523636  0.045856815            7 
  317000    0.7675332   -4.6226474    168.96497   0.04441771  0.045750493            5 
  318000      0.75419    -4.634227    169.79341  0.044495127  0.045644904            5 
  319000   0.75851965   -4.6514544    170.15806  0.044450905  0.045538251            5 
  320000   0.75133042   -4.6334283    169.98988  0.044268199  0.045432353            7 
  321000   0.75420209   -4.6503952      170.452   0.04425026  0.045327533            3 
  322000   0.75244601   -4.6387382    171.10082  0.044280749  0.045223058            4 
  323000   0.75491588   -4.6527909    170.35539   0.04395134  0.045119565            6 
  324000   0.73828227   -4.6701644    171.50958  0.044112545  0.045016055            5 
  325000   0.75779015   -4.6479769    171.48687  0.043970993  0.044913413            4 
  326000   0.74775524   -4.6375458     171.6446  0.043876431  0.044810872            3 
  327000   0.73731199   -4.6779906    170.99551  0.043576838  0.044707939            3 
  328000   0.73660085   -4.6570566    171.31016  0.043523924   0.04460441            5 
  329000   0.75014003   -4.6601045    171.17159  0.043356534  0.044500887            8 
  330000   0.72116716   -4.6619537    171.68533  0.043354882  0.044396218            8 
  331000   0.74617497   -4.6724391    172.57915  0.043448929  0.044293957            4 
  332000   0.73836548   -4.6785633    172.30635  0.043249586  0.044192209            6 
  333000   0.74682346   -4.7057982    171.97881   0.04303774  0.044088914            8 
  334000   0.73688207   -4.6935603    172.53932  0.043048734   0.04398521            9 
  335000   0.73621126   -4.7079369    172.45895  0.042900237  0.043882492            8 
  336000   0.71901265   -4.6760692    173.23535  0.042965117  0.043780513            2 
  337000   0.72793327   -4.6845395     173.6272  0.042934521  0.043680035            5 
  338000   0.71983608   -4.6902678     173.6141  0.042804265  0.043580751            8 
  339000   0.72507122   -4.7169257    173.28489  0.042597073  0.043480359            4 
  340000   0.71911659   -4.6820968    173.44246  0.042510406  0.043379033            6 
  341000   0.71881392   -4.7125816    173.81036  0.042475649  0.043277218            4 
  342000   0.72084108    -4.726577    173.77517  0.042342878  0.043175918            7 
  343000   0.72258011   -4.7017321    173.76793   0.04221767  0.043072746           13 
  344000   0.72076367   -4.7322194    173.55797  0.042044081  0.042970403            5 
  345000   0.71211566   -4.7110825    174.23314  0.042085299  0.042869049           10 
  346000   0.73078837   -4.7604693    173.67966  0.041830362   0.04276629           10 
  347000   0.70196638   -4.7344551    174.09768  0.041810202  0.042662796            8 
  348000   0.70565433   -4.7266154    174.20325  0.041715337  0.042560549            5 
  349000   0.71174081   -4.7407271    174.34161  0.041628847  0.042459691            5 
  350000   0.70497071   -4.7376863    174.90237  0.041643421  0.042359304            8 
  351000   0.71132603    -4.727123    175.24104  0.041605184   0.04225987            7 
  352000   0.71696548    -4.734697    175.51102  0.041550903  0.042160128           16 
  353000   0.69515079   -4.7792459    175.50235  0.041431148  0.042059968           10 
  354000   0.70094637   -4.7366638    175.84617  0.041395048  0.041959986            9 
  355000   0.68841796   -4.7450859    175.27412  0.041144161  0.041859907            6 
  356000   0.70474771   -4.7493707    175.59321   0.04110328   0.04176048            4 
  357000   0.70022977   -4.7617541    175.26542  0.040911628  0.041660884            6 
  358000   0.69480969       -4.762    175.69781  0.040898001  0.041561384            9 
  359000    0.7050559   -4.7817535    175.99614  0.040853328  0.041462384            5 
  360000   0.70555578    -4.745907    176.65705  0.040892835  0.041363988            8 
  361000   0.69876536   -4.7625117    177.01529  0.040862256   0.04126669           11 
  362000   0.68595676    -4.775414     176.8467  0.040710566   0.04116944            8 
  363000   0.69124742    -4.789653    176.55145  0.040530637  0.041071914            6 
  364000   0.69328023    -4.795177    176.92136  0.040503975  0.040975522           11 
  365000   0.69494703   -4.7846372    177.46811  0.040517834  0.040879594            4 
  366000   0.68259818   -4.7926557    177.00605  0.040301924  0.040782836           19 
  367000    0.6617903   -4.8054031    177.04457  0.040200855  0.040685904           17 
  368000   0.68863141   -4.7854912    177.32554   0.04015524  0.040589336           17 
  369000   0.66686463   -4.8018331    177.54647  0.040096312  0.040493981           20 
  370000   0.67285036   -4.7876058    178.05068  0.040101506  0.040398698            6 
  371000   0.67720412   -4.7969867    177.89058  0.039957453  0.040303348            6 
  372000   0.68725026   -4.8145489    178.47982  0.039982039  0.040208543            6 
  373000   0.66799739   -4.8197459    178.17374  0.039806465  0.040113374            7 
  374000   0.69408479   -4.8228252    178.36561  0.039742782   0.04001857            7 
  375000   0.67567566   -4.7936237     178.6518    0.0397004  0.039924536            6 
  376000   0.67561133   -4.8235064    178.36351   0.03953092  0.039830294            6 
  377000   0.67010325   -4.8275812    178.41451  0.039437336  0.039734917            7 
  378000   0.66351485    -4.817948    178.70474  0.039396988  0.039640731            8 
  379000   0.66423096   -4.8416901     178.6364  0.039278012  0.039545953            5 
  380000   0.66449841   -4.8442789    178.83729  0.039218704  0.039451408            9 
  381000   0.65631651   -4.8606986    179.13476  0.039180831  0.039357265           10 
  382000    0.6651046   -4.8585824    179.38282  0.039132378  0.039263033           10 
  383000   0.64593973   -4.8504396    179.05767  0.038959457  0.039169469            8 
  384000   0.66063201   -4.8470313    179.44028  0.038941034  0.039076309            4 
  385000   0.65440029   -4.8619559    179.30685  0.038811006  0.038983848           29 
  386000    0.6498888   -4.8597066    179.70349  0.038796089  0.038891486           11 
  387000   0.64925151   -4.8621446    179.65895  0.038686251  0.038798769            9 
  388000   0.64359851   -4.8782388    179.76133  0.038608533  0.038706311            7 
  389000   0.64413631   -4.8771653    180.01687  0.038564026   0.03861394           14 
  390000   0.64705326   -4.8644812    180.09038   0.03848085  0.038521918           10 
  391000   0.65482883   -4.8623477     179.7932  0.038319097  0.038429989            8 
  392000   0.64123351   -4.8774632    180.26562  0.038321773  0.038337602            6 
  393000     0.658419   -4.9109207    179.72489  0.038109603   0.03824524           13 
  394000   0.63368917   -4.8821565    180.09933  0.038092076  0.038152697           21 
  395000   0.63982642   -4.8894763    180.07497    0.0379905  0.038059808           11 
  396000    0.6321633   -4.8806679    180.31697   0.03794549  0.037968226           13 
  397000   0.62613129   -4.8794244    180.42835  0.037873288  0.037877567           10 
  398000   0.61699745   -4.9202441    180.31886  0.037755204  0.037786487            6 
  399000   0.62529102   -4.9033818    180.13874  0.037622961  0.037695145           12 
  400000   0.62503292   -4.8938351    180.41682  0.037586837   0.03760363            7 
  401000   0.64243178    -4.877274      180.728  0.037557771  0.037513034           10 
  402000   0.64129833   -4.9192435    180.62192  0.037442356    0.0374226            8 
  403000   0.62723342   -4.9166825    180.80391  0.037387078  0.037332091           17 
  404000   0.62079232   -4.9047372    180.72982  0.037279254   0.03724158           11 
  405000   0.63441995   -4.9181005     180.9735  0.037237345  0.037151508           15 
  406000    0.6209281   -4.9280839        180.8  0.037110016  0.037061437           13 
  407000   0.62166412   -4.9123579    181.08985  0.037078184  0.036972182           23 
  408000   0.61601311   -4.9470707    181.24282   0.03701855  0.036882497            7 
  409000   0.61952051    -4.921862    181.54187  0.036988972  0.036793267           19 
  410000   0.61282272   -4.9321833    181.19374  0.036827995  0.036704005            6 
  411000   0.60929712   -4.9396596    181.33226  0.036766476  0.036614773            9 
  412000   0.58882672   -4.9347082    181.42784   0.03669657  0.036525775           33 
  413000   0.61909143   -4.9355079    181.44039  0.036610248  0.036436771            6 
  414000   0.61494175   -4.9659586    180.89551  0.036412139  0.036347845            8 
  415000    0.5965295    -4.971292     181.0896  0.036363374  0.036258009            6 
  416000   0.60029722   -4.9545429    181.05342  0.036268714  0.036168436           15 
  417000   0.59179207   -4.9687038    181.53266   0.03627751  0.036079439            7 
  418000   0.59435597   -4.9743611    181.94477  0.036272881  0.035990191            7 
  419000   0.61432835   -4.9461316    181.49845  0.036097543   0.03590126            5 
  420000   0.60814436   -4.9544999    181.85927  0.036083189   0.03581277            7 
  421000   0.59563265   -4.9681593    181.15859  0.035858786  0.035724388           12 
  422000   0.57489714   -4.9492094    182.39604  0.036018176  0.035636431           10 
  423000   0.58518579   -4.9950991    181.62086  0.035780312  0.035548453            9 
  424000   0.58835791   -4.9940869    181.92187  0.035755084   0.03546034           12 
  425000   0.59559848   -5.0000336    181.62813   0.03561336   0.03537209            5 
  426000   0.58784674   -4.9937671      181.478  0.035500391  0.035284022           11 
  427000   0.58879333   -4.9969795    182.44135  0.035605259    0.0351963           13 
  428000   0.58321971   -5.0041121    181.89782  0.035416243  0.035108034           10 
  429000   0.59183051   -4.9882529    181.99702  0.035352956  0.035020292            8 
  430000   0.56892052   -5.0189354    181.58588  0.035191061  0.034932698           13 
  431000   0.57599469   -5.0023494    182.21763  0.035231561  0.034845066           16 
  432000   0.56043978     -5.01442    181.76266  0.035062242  0.034757291           17 
  433000   0.57434209   -5.0216631    181.60018  0.034949997  0.034669794           21 
  434000   0.57547008   -5.0177676    182.37842  0.035018899  0.034582922            6 
  435000   0.56510832   -5.0378539    182.52141  0.034965788  0.034496369           59 
  436000     0.571496   -5.0415706    181.69046  0.034726769   0.03440993           17 
  437000   0.56373994   -5.0318032    182.14697  0.034734357  0.034323365           35 
  438000   0.55245046    -5.031753    182.33935  0.034691657  0.034237447           11 
  439000   0.56124019   -5.0179027    182.58496  0.034659256  0.034151765           16 
  440000   0.56421447   -5.0406603    182.43077  0.034551282   0.03406642           15 
  441000   0.56880603   -5.0478883    182.33572  0.034454974  0.033981297           11 
  442000   0.55466687   -5.0508377    182.27271  0.034365142  0.033895657           25 
  443000   0.55727868   -5.0573844    182.14495  0.034263534  0.033809872           16 
  444000   0.56503533   -5.0682114    181.74224   0.03411078  0.033724197           25 
  445000    0.5578158    -5.073055    182.27984  0.034134801   0.03363862           15 
  446000   0.56694877   -5.0531227     182.1802   0.03403965    0.0335533           10 
  447000   0.54791949   -5.0731261    182.03553  0.033936528  0.033467612           23 
  448000   0.56487607   -5.0857241     182.1522  0.033882479  0.033382048           21 
  449000   0.53305663    -5.069854    182.24428  0.033824106  0.033296813           15 
  450000   0.55243294   -5.0552441    182.06758  0.033716219  0.033211988           17 
  451000    0.5452292   -5.0636751      182.189  0.033663896  0.033127802           11 
  452000   0.55322921   -5.0849502     182.4043  0.033629111   0.03304332            8 
  453000   0.53841366   -5.0746295    182.29367  0.033534523  0.032959234           22 
  454000   0.55030465   -5.0933635    182.06238  0.033418204  0.032874508           19 
  455000   0.54443836    -5.085877    181.96469  0.033326866  0.032789816           24 
  456000   0.54953827   -5.1148074    181.87613  0.033237597   0.03270509           25 
  457000   0.54056666   -5.1188614    181.58574  0.033111915  0.032620101           18 
  458000   0.54079914   -5.1161765    181.45895  0.033016549  0.032535354           45 
  459000   0.53866212    -5.124355    182.01374  0.033045341  0.032450543           10 
  460000   0.53187448    -5.100908    181.86015   0.03294568  0.032366097           20 
  461000    0.5347577   -5.1197679    181.13671   0.03274344  0.032281671           20 
  462000   0.53190431    -5.128014    181.63588  0.032762604    0.0321973           21 
  463000   0.53136753   -5.1257744    181.85353  0.032731017   0.03211315           22 
  464000   0.53443278   -5.1274747    181.56915  0.032609401  0.032029101           12 
  465000   0.53349744   -5.1196802    181.43543   0.03251531  0.031945319           35 
  466000   0.51892989   -5.1455124    181.51875  0.032460434  0.031861715           30 
  467000    0.5329417   -5.1489237    181.56742  0.032399611  0.031778231           13 
  468000   0.52975624   -5.1413816    181.86419  0.032383225  0.031694578           18 
  469000   0.52299081   -5.1619019    181.21407  0.032198662  0.031610802           30 
  470000   0.50236615    -5.161068    181.34898  0.032154075   0.03152702           45 
  471000   0.51476534   -5.1693345    181.56937    0.0321248  0.031443309           28 
  472000   0.50311005   -5.1894482    181.41541  0.032029556  0.031359571           53 
  473000   0.51980129   -5.1708871    181.12489  0.031910658  0.031276287           51 
  474000   0.50375535   -5.1444758    181.49897  0.031909102  0.031192991           49 
  475000   0.51690647   -5.1544897    181.14946  0.031780608  0.031110268           25 
  476000   0.51413519   -5.1820416    181.32542  0.031744647   0.03102749           41 
  477000   0.49918693   -5.1768044    180.92423  0.031608007  0.030945027           35 
  478000   0.50227734   -5.1690319    181.49871  0.031642034   0.03086258           49 
  479000   0.51704031   -5.1683672    181.23427   0.03152997   0.03078068           42 
  480000   0.49590697   -5.1735618    181.50043  0.031510492  0.030698794           18 
  481000   0.50887851    -5.190704    181.27139    0.0314053  0.030616828           14 
  482000   0.48935599   -5.2011335    181.31586  0.031347833  0.030534926           13 
  483000    0.4884471   -5.1844454    181.23808   0.03126951  0.030453168           24 
  484000   0.49733883   -5.2007473    180.95955  0.031156947  0.030371551           35 
  485000   0.49410637   -5.1924248    181.31702  0.031154127  0.030290204           30 
  486000   0.49570733   -5.2118539    181.01316  0.031037921  0.030209325           25 
  487000   0.49067164    -5.200569    181.27348  0.031018733  0.030128398           37 
  488000   0.48304205   -5.1976421    180.94627  0.030899295  0.030047739           92 
  489000   0.49128836    -5.198029    181.37593  0.030909327  0.029967508           35 
  490000   0.47818957   -5.2265936    181.14289  0.030806614  0.029887246           76 
  491000   0.48385707   -5.2091779    180.75608  0.030678222  0.029807319           18 
  492000   0.47743909   -5.2188862    180.98116  0.030653991  0.029727363           79 
  493000   0.48133889   -5.2193084    180.79734   0.03056074   0.02964763           63 
  494000     0.470441   -5.2223924    181.04841   0.03054123  0.029568054           53 
  495000   0.48878725   -5.2084206    180.88765  0.030452466  0.029488801           30 
  496000   0.47507214   -5.2420081    181.17422  0.030439218  0.029409796           51 
  497000   0.48123567   -5.2233753    180.74567  0.030306115  0.029330912           53 
  498000   0.46209278   -5.2453097    180.59802  0.030220552   0.02925218           68 
  499000   0.46832502   -5.2577492    181.17335   0.03025607  0.029173604           58 
  500000   0.46414604   -5.2402091    181.21699  0.030202832  0.029095328           47 
  501000   0.46858306    -5.246026    181.01457  0.030108878  0.029017414           51 
  502000   0.45951705   -5.2448184    181.13249  0.030068474  0.028939525          101 
  503000   0.46548122    -5.277362    180.76532  0.029947867  0.028862038          194 
  504000   0.45900649   -5.2503288    180.97101  0.029922455  0.028784669           91 
  505000   0.46035763   -5.2795037    180.80138  0.029835211  0.028707541          134 
  506000   0.46024143   -5.2535246    180.86841  0.029787287  0.028630566           91 
  507000   0.46449947   -5.2578247    180.90036  0.029733787  0.028553965           72 
  508000   0.46221733    -5.270594    180.96201   0.02968537  0.028477499          110 
  509000   0.46326807   -5.2833799    181.02722  0.029637724  0.028401164           82 
  510000   0.45550599   -5.2727587    180.94443  0.029566084  0.028324925           75 
  511000   0.44496889   -5.2779725     181.1249  0.029537656  0.028248722          137 
  512000   0.45328505   -5.2758708    180.63674  0.029400512  0.028172784          100 
Loop time of 1250.75 on 48 procs for 500000 steps with 4000 atoms

Performance: 69078.462 tau/day, 399.760 timesteps/s
99.4% CPU use with 48 MPI tasks x no OpenMP threads

MPI task timing breakdown:
Section |  min time  |  avg time  |  max time  |%varavg| %total
---------------------------------------------------------------
Pair    | 85.068     | 90.891     | 97.828     |  32.0 |  7.27
Neigh   | 8.3864     | 8.7778     | 9.1464     |   6.7 |  0.70
Comm    | 80.898     | 86.594     | 93.808     |  34.5 |  6.92
Output  | 0.96977    | 0.97064    | 0.99725    |   0.4 |  0.08
Modify  | 1047.7     | 1051.9     | 1054.3     |   4.6 | 84.10
Other   |            | 11.64      |            |       |  0.93

Nlocal:        83.3333 ave          91 max          75 min
Histogram: 2 2 1 6 7 14 9 0 5 2
Nghost:        2300.56 ave        2319 max        2276 min
Histogram: 1 1 3 5 11 4 10 4 4 5
Neighs:        15603.6 ave       17195 max       13532 min
Histogram: 2 0 4 5 7 6 12 5 3 4
FullNghs:      31206.6 ave       33926 max       27843 min
Histogram: 2 1 2 5 7 14 6 4 2 5

Total # of neighbors = 1497917
Ave neighs/atom = 374.47925
Neighbor list builds = 26963
Dangerous builds = 0

#clear
#
#next RN
#
#jump SELF
Total wall time: 0:20:54
