
units lj                  # Use reduced LJ style units
atom_style atomic         # Uncharged point particles
atom_modify map hash      # Needed for indexing of clusters etc
                          # Used to be able to find where atoms are in relation to each other.

lattice fcc 1.0 spacing 1 1 1
Lattice spacing in x,y,z = 1.5874011 1.5874011 1.5874011
region box block 0 10 0 10 0 10 units lattice
create_box 2 box
Created orthogonal box = (0.0000000 0.0000000 0.0000000) to (15.874011 15.874011 15.874011)
  3 by 4 by 4 MPI processor grid
create_atoms 1 box
Created 4000 atoms
  using lattice units in orthogonal box = (0.0000000 0.0000000 0.0000000) to (15.874011 15.874011 15.874011)
  create_atoms CPU = 0.013 seconds
set type 1 type/fraction 2 0.45 78393
Setting atom values ...
  1799 settings made for type/fraction
mass 1 1.0
mass 2 1.0
pair_style lj/cut  3.5
pair_modify tail  yes
pair_coeff 1  1  1.0  1.0   # Intearaction between 1 and 1 set with epsilon = 1 and sigma = 1
pair_coeff 1  2  1.5  0.8
pair_coeff 2  2  0.5  0.88

write_data data.0
System init for write_data ...
Neighbor list info ...
  update every 1 steps, delay 10 steps, check yes
  max neighbors/atom: 2000, page size: 100000
  master list distance cutoff = 3.8
  ghost atom cutoff = 3.8
  binsize = 1.9, bins = 9 9 9
  1 neighbor lists, perpetual/occasional/extra = 1 0 0
  (1) pair lj/cut, perpetual
      attributes: half, newton on
      pair build: half/bin/atomonly/newton
      stencil: half/bin/3d
      bin: standard
WARNING: Not all mixed pair coeffs generated from mixing. Use write_data with 'pair ij' option to store all pair coeffs. (../write_data.cpp:312)


#############################
#   M E L T   S Y S T E M   #
#############################

velocity all create 2.4 5833274 mom yes dist gaussian # Assign velocities
                                                    # Temperature 2.4, random number seed, zero linear momentum
                                                                                # Gaussian distribution

timestep 0.002   # simulation timestep
thermo 1000       # output thermodynamic data every 1000 steps bf 100

# Define a fix  in this case with index 1 applied to all
# particles in the simulation. This fix is for simulations
# in the anisotropic NPT ensemble. Note that we use the MTK
# correction.
fix 1 all npt temp 2.4 2.4 0.1 iso 5.68 5.68 0.5 mtk yes tchain 5 pchain 5 # Use NPT ensemble
                                                                         # Set temperature and pressure and damping
                                                                         # Numbers of thermostats in chain and in barostat
run 10000          # run for 10000 steps
Per MPI rank memory allocation (min/avg/max) = 3.642 | 3.644 | 3.648 Mbytes
Step Temp E_pair E_mol TotEng Press Volume 
       0          2.4   -5.5879345            0   -1.9888345   -4.1997978         4000 
    1000    2.4082271   -4.9774226            0    -1.365985    5.7986622     3780.045 
    2000    2.3900417   -5.0640998            0   -1.4799336    5.2105114    3788.5219 
    3000    2.4127035    -4.979957            0   -1.3618066    5.6903109    3786.4344 
    4000    2.4026161   -5.0295414            0   -1.4265182    5.8018045    3755.5357 
    5000    2.3946611   -4.9982345            0   -1.4071408    5.6904497    3784.9717 
    6000    2.4119919   -4.9726179            0   -1.3555345    5.5403033    3808.9994 
    7000      2.36503   -4.9099179            0   -1.3632598    5.2491555     3858.628 
    8000    2.3902733   -4.9869912            0   -1.4024776    5.4001124    3814.5912 
    9000    2.4086692   -5.0379868            0   -1.4258862    5.5891097     3774.837 
   10000    2.3684775   -5.0138043            0   -1.4619762    5.6903771    3771.9444 
Loop time of 2.61516 on 48 procs for 10000 steps with 4000 atoms

Performance: 660762.014 tau/day, 3823.854 timesteps/s
99.6% CPU use with 48 MPI tasks x no OpenMP threads

MPI task timing breakdown:
Section |  min time  |  avg time  |  max time  |%varavg| %total
---------------------------------------------------------------
Pair    | 1.1642     | 1.2227     | 1.3565     |   3.3 | 46.76
Neigh   | 0.21158    | 0.21885    | 0.23303    |   0.9 |  8.37
Comm    | 0.76324    | 0.88996    | 0.977      |   4.0 | 34.03
Output  | 0.00024429 | 0.00025145 | 0.00031239 |   0.0 |  0.01
Modify  | 0.24361    | 0.26748    | 0.3062     |   3.6 | 10.23
Other   |            | 0.01588    |            |       |  0.61

Nlocal:        83.3333 ave          90 max          74 min
Histogram: 3 1 2 7 4 7 9 2 5 8
Nghost:        1708.38 ave        1736 max        1684 min
Histogram: 2 4 1 8 11 11 6 3 0 2
Neighs:        10136.9 ave       11271 max        8571 min
Histogram: 1 3 2 4 5 9 9 4 8 3

Total # of neighbors = 486571
Ave neighs/atom = 121.64275
Neighbor list builds = 898
Dangerous builds = 158

# Equilibrate just above the melting temperature to avoid step fn in T

fix 1 all npt temp 1.25 1.25 0.1 iso 5.68 5.68 0.5 mtk yes tchain 5 pchain 5
run 2000
Per MPI rank memory allocation (min/avg/max) = 3.644 | 3.645 | 3.649 Mbytes
Step Temp E_pair E_mol TotEng Press Volume 
   10000    2.3684775   -5.0138043            0   -1.4619762    5.6903771    3771.9444 
   11000    1.2734342   -7.0674549            0   -5.1577812    5.9893322      2966.52 
   12000    1.2494611    -7.068628            0   -5.1949049    5.8674184    2970.7411 
Loop time of 0.641459 on 48 procs for 2000 steps with 4000 atoms

Performance: 538771.417 tau/day, 3117.890 timesteps/s
99.7% CPU use with 48 MPI tasks x no OpenMP threads

MPI task timing breakdown:
Section |  min time  |  avg time  |  max time  |%varavg| %total
---------------------------------------------------------------
Pair    | 0.28004    | 0.30874    | 0.3644     |   3.0 | 48.13
Neigh   | 0.039793   | 0.042634   | 0.048876   |   0.9 |  6.65
Comm    | 0.17803    | 0.23992    | 0.27259    |   3.8 | 37.40
Output  | 5.1072e-05 | 5.2554e-05 | 6.8664e-05 |   0.0 |  0.01
Modify  | 0.041679   | 0.045161   | 0.049105   |   1.0 |  7.04
Other   |            | 0.00495    |            |       |  0.77

Nlocal:        83.3333 ave          90 max          75 min
Histogram: 4 4 1 3 7 1 13 2 8 5
Nghost:        1999.81 ave        2022 max        1979 min
Histogram: 3 4 6 5 5 8 6 7 2 2
Neighs:        12856.3 ave       14463 max       11302 min
Histogram: 3 3 2 9 9 8 6 4 0 4

Total # of neighbors = 617101
Ave neighs/atom = 154.27525
Neighbor list builds = 142
Dangerous builds = 8

#############################
# L I N E A R  Q U E N C H  #
#############################

# Define solid atoms. This closely follows ten Wolde  Ruiz-Montero and Frenkel  Faraday Discuss  1996  104  93-110
# Compute components of the per-atom q6 vector
compute q6 all orientorder/atom degrees 1 6 components 6 nnn NULL cutoff 1.3 # compute the Q6 parameter.
                                                                             # Use all neighbours within 1.3 unit cell.

# get number of connections
compute coord_number all coord/atom orientorder q6 0.5

# An atom is solid if it has 8 or more connections (of a possible 14)
variable is_solid atom c_coord_number>=8
group solid dynamic all var is_solid    # Must be dynamic to update
dynamic group solid defined

# do clustering
compute cluster solid cluster/atom 1.3 # Create a cluster where all atoms within are solid and max 1.3 units from another member

# define chunks one chunk per cluster
compute clus_chunks solid chunk/atom c_cluster nchunk every compress yes  # Says which atoms are in which chunk

# count the size of each chunk
compute size_chunks solid property/chunk clus_chunks count


# Find the maximum entry in the vector of chunk sizes
variable max_n equal max(c_size_chunks)


# Thermo style which includes this variable
# thermo_style custom step temp pe vol v_max_n

thermo ${N}  # Print the thermo information every 100 steps
thermo 1000  

# Reset the npt fix at a lower temperature (below freezing)
fix 1  all npt temp  ${temp} ${temp}  0.1  iso  5.68  5.68  0.5  mtk yes tchain  5  pchain  5
fix 1  all npt temp  0.45 ${temp}  0.1  iso  5.68  5.68  0.5  mtk yes tchain  5  pchain  5
fix 1  all npt temp  0.45 0.45  0.1  iso  5.68  5.68  0.5  mtk yes tchain  5  pchain  5

dump dmp2 all dcd ${N} traj.dcd
dump dmp2 all dcd 1000 traj.dcd


compute msd all msd com yes
variable twopoint equal c_msd[4]/6/(step*dt+1.0e-6)
fix 9 all vector 10 c_msd[4]
variable fit equal slope(f_9)/6/(10*dt)
thermo_style custom step temp pe c_msd[4] v_twopoint v_fit v_max_n

fix 1 all npt temp 1.25 ${temp} 0.1 iso 5.68 5.68 0.5 mtk yes tchain 5 pchain 5
fix 1 all npt temp 1.25 0.45 0.1 iso 5.68 5.68 0.5 mtk yes tchain 5 pchain 5
run 2000000 # 5000000  # Run for this many steps
Neighbor list info ...
  update every 1 steps, delay 10 steps, check yes
  max neighbors/atom: 2000, page size: 100000
  master list distance cutoff = 3.8
  ghost atom cutoff = 3.8
  binsize = 1.9, bins = 8 8 8
  4 neighbor lists, perpetual/occasional/extra = 1 3 0
  (1) pair lj/cut, perpetual
      attributes: half, newton on
      pair build: half/bin/atomonly/newton
      stencil: half/bin/3d
      bin: standard
  (2) compute orientorder/atom, occasional
      attributes: full, newton on
      pair build: full/bin/atomonly
      stencil: full/bin/3d
      bin: standard
  (3) compute coord/atom, occasional
      attributes: full, newton on
      pair build: full/bin/atomonly
      stencil: full/bin/3d
      bin: standard
  (4) compute cluster/atom, occasional
      attributes: full, newton on
      pair build: full/bin/atomonly
      stencil: full/bin/3d
      bin: standard
Per MPI rank memory allocation (min/avg/max) = 9.832 | 9.837 | 9.842 Mbytes
Step Temp PotEng c_msd[4] v_twopoint v_fit v_max_n 
   12000    1.2494611    -7.068628  7.79789e-31 5.4152012e-33 8.3333333e+20            2 
   13000    1.2475749   -7.1490916    0.4520088 0.0028974922  0.036826289            1 
   14000    1.2624474   -7.1128892   0.84830702 0.0050494464  0.033814983            1 
   15000     1.253512   -7.1647561    1.2318798 0.0068437762  0.033378935            1 
   16000    1.2246498    -7.154469    1.6700619 0.0086982385   0.03364229            2 
   17000    1.2683124   -7.1934639    2.0467867  0.010033268  0.033803222            2 
   18000    1.2550308   -7.1795221    2.4676631  0.011424366  0.033592376            1 
   19000    1.2255527   -7.1593603    2.8926594  0.012687102  0.033845103            1 
   20000    1.2502501   -7.1234639    3.3284812  0.013868671  0.034043963            1 
   21000    1.2296649   -7.2086025    3.7171177  0.014750467  0.034224546            1 
   22000    1.2381393   -7.0979059    4.1260902  0.015629129  0.034099165            3 
   23000    1.2283792   -7.1691326    4.5230503  0.016387863  0.034000509            2 
   24000    1.2378941   -7.1067031    4.9174481  0.017074472  0.034022075            2 
   25000    1.2151852   -7.1255834    5.3196911  0.017732303  0.033914773            2 
   26000    1.2295223   -7.0988668    5.7088822  0.018297699  0.033853952            1 
   27000    1.2392193   -7.1332888    6.0846476  0.018779776  0.033806386            1 
   28000    1.2446468   -7.1974037    6.3833738  0.018998136  0.033645419            2 
   29000    1.2383509   -7.1501304    6.8730111  0.019750032  0.033451981            2 
   30000    1.2496788   -7.1328683    7.2316427  0.020087896   0.03337427            2 
   31000    1.2099121   -7.1716548    7.6336543  0.020520576  0.033320354            2 
   32000    1.2233729   -7.1586547    8.0612778  0.020992911  0.033294712            3 
   33000    1.2555838   -7.1496266    8.4678941  0.021383571  0.033329121            2 
   34000    1.2410096   -7.1700145    8.7607472  0.021472419  0.033274645            3 
   35000    1.2493133   -7.2408225    9.2112636   0.02193158  0.033214281            4 
   36000     1.242751   -7.1846277    9.5952314  0.022211183  0.033184117            1 
   37000    1.2373143   -7.1389417    10.001531   0.02252597  0.033135708            3 
   38000    1.2499965   -7.1251435    10.533436   0.02309964  0.033152945            2 
   39000    1.2594003   -7.1439458    10.969805  0.023439755  0.033220137            2 
   40000    1.2227481   -7.1477294    11.371274  0.023690154  0.033311655            1 
   41000    1.2442231   -7.2023077    11.846065  0.024077368  0.033395115       -1e+20 
   42000    1.2754429   -7.1919369     12.33143  0.024467122  0.033529189            3 
   43000     1.228243   -7.1839444    12.772618  0.024753135  0.033648489            1 
   44000    1.2244277   -7.1638605    13.126716  0.024861205  0.033756838            2 
   45000    1.2196301   -7.1565763    13.486274  0.024974582  0.033809048            2 
   46000    1.2213791   -7.1613859    13.707543  0.024832506  0.033799727            3 
   47000    1.2136271   -7.1272936    14.068814  0.024944706  0.033738223            1 
   48000    1.2269989   -7.1455847    14.267985  0.024770806  0.033642464            1 
   49000    1.2479224   -7.2193502    14.663169  0.024937362  0.033530354            1 
   50000    1.2189422   -7.2381165     15.00341  0.025005683  0.033426403            2 
   51000    1.2368304   -7.1785654    15.559725  0.025424387  0.033361051            1 
   52000     1.238374   -7.2159563    15.984708   0.02561652  0.033322539            3 
   53000     1.215285   -7.1941932     16.40485  0.025793789  0.033295904            3 
   54000    1.2531493    -7.168022    16.791357  0.025912587  0.033275535            3 
   55000    1.2617119   -7.1218696    17.320771  0.026243592  0.033271362            2 
   56000    1.2221341   -7.2042732    17.660877  0.026281066  0.033277562            3 
   57000    1.2255285   -7.1765441    18.124226  0.026497406  0.033283542            2 
   58000    1.2567224   -7.1510412    18.637504  0.026778022  0.033306456            1 
   59000    1.2581647   -7.1661502    19.118277  0.027003216  0.033352575            1 
   60000    1.2195651   -7.2053698    19.351998  0.026877774  0.033382752            2 
   61000    1.2340025   -7.1880211     19.91266  0.027203087  0.033404267            3 
   62000    1.2349301   -7.2067778    20.127459  0.027053036  0.033431003            2 
   63000    1.2288002   -7.2229127     20.54915  0.027181415  0.033441582            2 
   64000    1.2251799   -7.2145031    20.933476   0.02725713  0.033456738            1 
   65000    1.2490945   -7.2108784     21.30208  0.027310359  0.033460684            2 
   66000    1.2317085   -7.2007111    21.661355  0.027350195  0.033457468            1 
   67000    1.2457624   -7.2317617    22.126229  0.027520186  0.033449591            1 
   68000    1.2132308   -7.1723928    22.628014  0.027730409  0.033453294            1 
   69000    1.1937364   -7.1836174    23.074339  0.027867559  0.033468327            2 
   70000    1.2105098   -7.1676061    23.445696  0.027911542  0.033494316            2 
   71000    1.2234171   -7.1502519    23.810193  0.027946236   0.03350122            2 
   72000    1.1988805   -7.2031485    24.128106  0.027926048  0.033499902            1 
   73000    1.2230239   -7.2002815    24.335277  0.027779997  0.033479541            3 
   74000    1.2234444   -7.1641667    24.691023  0.027805206  0.033435627            4 
   75000    1.2213475   -7.1507742    25.220003  0.028022226   0.03340356            2 
   76000    1.2304309   -7.2569054    25.608587  0.028079591   0.03338956            3 
   77000    1.2224086    -7.202133    26.037671  0.028179297  0.033387747            1 
   78000    1.2398664   -7.2281077    26.371457  0.028174634  0.033379184            1 
   79000    1.1891433   -7.1891799    26.612663   0.02807243  0.033355889            6 
   80000    1.2396935   -7.2106252    27.049753  0.028176826  0.033329995            3 
   81000    1.2290027   -7.2069591     27.30032  0.028086749   0.03329386            1 
   82000    1.2251728   -7.1638294    27.764683  0.028216141  0.033262007            5 
   83000    1.2067812   -7.2093187    28.229793  0.028343165  0.033242149            1 
   84000     1.235266   -7.1736676    28.458957  0.028233092  0.033217685            2 
   85000    1.2011206   -7.1896319    28.905536  0.028338761  0.033181854            1 
   86000    1.2237184   -7.2205063    29.215713    0.0283098   0.03315014            2 
   87000    1.2175213   -7.1775541    29.685256  0.028434153  0.033112593            1 
   88000    1.2236156   -7.2312641    29.967719  0.028378522  0.033077029            3 
   89000    1.2326769    -7.249785     30.50421  0.028561994  0.033051168            1 
   90000    1.2184977   -7.2216675    31.060206   0.02875945  0.033037582            1 
   91000    1.2032122   -7.2294214    31.363653  0.028721294  0.033022838            2 
   92000    1.2152089   -7.2254392    31.719243  0.028731198  0.033016017            1 
   93000    1.2165353   -7.2050193    32.167214  0.028823669  0.033009278            2 
   94000     1.235813   -7.1987712    32.675086  0.028967274  0.033002681            1 
   95000    1.2208061    -7.239223    32.961298  0.028913419  0.033001821            5 
   96000    1.2052006   -7.2462637    33.291617  0.028898973  0.032991462            1 
   97000    1.2070288   -7.2256452     33.45318  0.028739846  0.032975762            2 
   98000    1.2404239   -7.2158603     34.06196  0.028964251  0.032961423            3 
   99000    1.1980606   -7.2323761    34.500229  0.029040596  0.032954431            1 
  100000    1.2260404   -7.2547087     34.86027  0.029050225  0.032947353            1 
  101000      1.21508   -7.2213892    35.426371  0.029229679  0.032944702            1 
  102000    1.2043828   -7.2696248    35.738968  0.029198503  0.032942201            3 
  103000    1.2132965   -7.2006793    36.326502  0.029390373  0.032944642            2 
  104000    1.2376869   -7.2238849    36.645268  0.029363195  0.032946699            1 
  105000    1.2364338   -7.2143775    36.941017  0.029318267  0.032949273            1 
  106000    1.1993861   -7.2394018    37.098155  0.029165216  0.032944999            1 
  107000    1.1950298   -7.2354384     37.29409  0.029045241  0.032922308            2 
  108000    1.2083782   -7.2013773    37.782663   0.02915329  0.032899679            2 
  109000    1.2223125   -7.2135905    37.892764  0.028970003   0.03287255            2 
  110000     1.205603   -7.2262092    38.440491  0.029121584  0.032844276            5 
  111000    1.1910496   -7.2369166     38.47816  0.028887507  0.032811873            1 
  112000    1.1946273   -7.2438167    38.868131   0.02891974  0.032779478            2 
  113000    1.2119807   -7.2831772    39.294099  0.028977949  0.032745186            1 
  114000    1.2173107   -7.2953129    39.563609  0.028920767  0.032712406            2 
  115000    1.2147696   -7.1791567    40.122456  0.029074243  0.032680862            4 
  116000    1.2042684   -7.2248216    40.418975   0.02903662  0.032648966            2 
  117000    1.2031308   -7.2428195    40.740007  0.029017099  0.032617963            2 
  118000    1.2180976   -7.2772126    40.861598  0.028857061  0.032584461            3 
  119000    1.1671914   -7.2695309    41.464601  0.029036835  0.032546282            2 
  120000    1.2368306   -7.2492507    41.671908  0.028938825  0.032511982            1 
  121000    1.1898307   -7.2608552    41.977142  0.028909877  0.032477549            3 
  122000    1.2009402   -7.2833805    42.172641  0.028806449  0.032435007            2 
  123000    1.1941477   -7.2475552    42.616521  0.028872981  0.032395232            1 
  124000    1.2087451   -7.2624275    42.942352  0.028859107  0.032358608            1 
  125000    1.2266779   -7.2553106    43.254073  0.028836048  0.032322355            4 
  126000    1.2037718   -7.2388494    43.519708  0.028782875  0.032285793            4 
  127000    1.2230275   -7.2430396    44.217633  0.029014194  0.032246242            2 
  128000    1.2109911   -7.2348062    44.200256  0.028776208  0.032209388            2 
  129000    1.2139466   -7.2554026    44.823222   0.02895557  0.032172179            2 
  130000    1.2037942   -7.2370534    44.896705  0.028779939   0.03213292            3 
  131000    1.2326851   -7.2318871    45.508952  0.028949715  0.032097885            1 
  132000    1.2105134   -7.2570126    45.651245   0.02882023   0.03206307            1 
  133000    1.1721479   -7.2620347    46.097865  0.028883374  0.032028482            2 
  134000    1.2210826   -7.2981547    46.329415  0.028811825  0.031991518            2 
  135000    1.2048855   -7.3301626     46.63687  0.028788192  0.031954425            2 
  136000    1.2127197   -7.2508957     47.19689  0.028919663  0.031921275            1 
  137000    1.1985663   -7.2716082    47.660877  0.028990801  0.031891983            2 
  138000      1.20929   -7.2514071    48.135195  0.029067146  0.031868769            3 
  139000    1.1821077   -7.2980793    48.488169  0.029069646  0.031844818            1 
  140000    1.1872736   -7.2157154    48.774617   0.02903251  0.031823039            1 
  141000    1.1988698    -7.288775     48.97572  0.028945461  0.031797181            2 
  142000    1.1879337   -7.2365429    49.525055  0.029063999   0.03177395            2 
  143000    1.1861236   -7.2713394    49.937188  0.029100926   0.03175423            1 
  144000    1.2129939    -7.290938    50.384449  0.029157667  0.031732311            2 
  145000    1.2274443   -7.2955989    50.718342  0.029148472  0.031714469            3 
  146000    1.2078972   -7.2824091    51.043252  0.029134276  0.031696257            1 
  147000    1.2059961   -7.2926911    51.401864  0.029139378  0.031676694            2 
  148000    1.2018197   -7.2750895    51.684912  0.029101865  0.031660642            2 
  149000    1.1854165    -7.240997    52.197173   0.02919305  0.031642143            3 
  150000    1.1901519   -7.2743036    52.480568  0.029155871  0.031623219            2 
  151000    1.2168625   -7.2547192    52.703845  0.029086007  0.031603764            2 
  152000    1.2094191   -7.2378866    53.211877  0.029173178  0.031582245            1 
  153000    1.1829972   -7.2603818     53.37783  0.029072892   0.03155883       -1e+20 
  154000    1.1916662   -7.2706996    53.573401  0.028989936  0.031533623            1 
  155000    1.2073808   -7.2913087    53.770519  0.028908881  0.031505206            2 
  156000    1.1361396   -7.2678574    54.199572  0.028952762  0.031474675            1 
  157000    1.1727955    -7.259929    54.347559    0.0288469  0.031442809            1 
  158000    1.1632718   -7.3290403    54.349447   0.02866532  0.031409853            2 
  159000    1.1894368   -7.3118272    54.750057  0.028694998  0.031373723            2 
  160000    1.1937174    -7.290351    55.044531  0.028669027  0.031339393            1 
  161000    1.2053281   -7.2714869    55.655616  0.028807254  0.031305921            3 
  162000    1.1958709   -7.2807945    56.006892  0.028810129  0.031277233            2 
  163000    1.1916386   -7.2961431    56.221962  0.028743335  0.031245853            1 
  164000    1.1723553   -7.3000965    56.268626  0.028591781  0.031213119            4 
  165000    1.1871084   -7.2480426    56.766088  0.028669741  0.031179674            2 
  166000    1.1927922   -7.3012111    57.062239  0.028645702  0.031148249            1 
  167000    1.1883576   -7.2986166    57.210593    0.0285482  0.031111635            1 
  168000    1.2008896   -7.2816232    57.453204  0.028498613  0.031073372            2 
  169000     1.184479   -7.3150203    57.844184  0.028522773  0.031037352            4 
  170000    1.1828685   -7.3272622    58.038341  0.028450167  0.031001483            1 
  171000    1.1741334   -7.2932695    58.411374  0.028465582  0.030964114            2 
  172000    1.1499184   -7.2449665     58.75225  0.028465237  0.030928676            2 
  173000    1.2161301     -7.31982    58.955521  0.028398613  0.030891188            6 
  174000    1.1655222   -7.2862351    59.409617  0.028452882  0.030857711            1 
  175000    1.1936157   -7.3086618    59.577903   0.02837043  0.030820981            2 
  176000    1.1651024   -7.3740948    59.803402  0.028316004  0.030785881            1 
  177000    1.2034376   -7.3056775    60.541543  0.028503551  0.030752366            5 
  178000       1.1784   -7.3093967    60.708172  0.028421429  0.030719741            2 
  179000    1.1847459   -7.3012765    61.262638  0.028520781  0.030688841            1 
  180000    1.2032774   -7.3348526    61.526471  0.028484477  0.030658745            2 
  181000    1.1741609   -7.2892934    61.946188  0.028520344  0.030628529            1 
  182000    1.1849882   -7.3299977    62.341186  0.028544499  0.030599653            1 
  183000    1.1755041   -7.3082876    62.691678  0.028548123  0.030571452            1 
  184000    1.1760245   -7.3469846    62.764654  0.028426021  0.030544324            1 
  185000    1.1804127   -7.3217195    63.271255  0.028500565  0.030515984            2 
  186000    1.1789943   -7.2930852    63.808865  0.028588201  0.030491568            3 
  187000    1.1819346    -7.276478    64.232055   0.02862391  0.030466635            2 
  188000    1.1901304   -7.3195858    64.484519  0.028583563  0.030443593            1 
  189000    1.1602488    -7.331467    64.680855  0.028518896  0.030421912            1 
  190000    1.1720544   -7.3200275    65.279657  0.028631429  0.030400731            1 
  191000    1.1796795   -7.3435326    65.534388  0.028592665  0.030382249            2 
  192000    1.1790255    -7.293006    66.058054   0.02867103  0.030363692            2 
  193000    1.1892477   -7.2931096     66.64117  0.028774253  0.030347919            3 
  194000    1.1561518   -7.3438501    66.889589  0.028732641  0.030333302            2 
  195000    1.1614225   -7.3105541    67.141781  0.028693069  0.030320118            4 
  196000    1.1477391   -7.3295095    67.762152  0.028810439  0.030306417            2 
  197000    1.1592223   -7.3091908    68.098305  0.028806389  0.030293209            4 
  198000    1.1631429   -7.3162322    68.651861  0.028893881  0.030281454            1 
  199000    1.1890985   -7.3662371    68.836371  0.028825951  0.030269932            2 
  200000    1.2012455   -7.3414391    69.304945   0.02887706  0.030261818            4 
  201000    1.1674028   -7.3025156    69.825114  0.028949052  0.030254837            3 
  202000    1.1720449   -7.3359723    70.077807  0.028909986  0.030247438            1 
  203000    1.1842642   -7.3325905     70.29424   0.02885642   0.03023885            3 
  204000    1.1623721   -7.3292464    70.875752  0.028952513  0.030229921            3 
  205000    1.2103318   -7.3534489    71.041556  0.028878681  0.030223606            4 
  206000    1.2173603   -7.3401165    71.360536  0.028867531  0.030217003            1 
  207000     1.179929   -7.3141988    71.921649  0.028953965  0.030208996            3 
  208000    1.1555255   -7.3464556    71.564666  0.028671741  0.030198743            1 
  209000    1.1636714   -7.3449199    72.413088  0.028872842  0.030186728            3 
  210000    1.1702626   -7.3306928    72.213847  0.028656289  0.030174573            2 
  211000    1.1759387   -7.3695801    72.358313  0.028577533  0.030160658            1 
  212000    1.1614602   -7.3479832    72.973411  0.028684517  0.030144695            1 
  213000    1.1802732   -7.3216395    73.105904  0.028601684  0.030129513            2 
  214000    1.1612043   -7.3456766    73.614012  0.028665893   0.03011425            1 
  215000    1.1614813   -7.3312513    74.187778  0.028754952  0.030102461            4 
  216000    1.1809152   -7.3275108    74.424232  0.028713053  0.030088388            2 
  217000    1.1743608   -7.3362927    74.609183   0.02865176  0.030072656            2 
  218000    1.1573806   -7.3820048    74.687172  0.028550142  0.030057946            1 
  219000    1.1676402   -7.3345338    75.256329   0.02863635  0.030042162            1 
  220000    1.1543258    -7.330066    75.680735  0.028666945  0.030026605            3 
  221000    1.1708865   -7.3186416    76.017144  0.028664081  0.030011981            3 
  222000    1.1623851   -7.3479076    76.451297  0.028697934  0.029999665            1 
  223000    1.1697501   -7.3245415    77.050245  0.028793066  0.029987747            2 
  224000    1.1845564   -7.3698411    77.104591  0.028684744  0.029977505            1 
  225000    1.1407288   -7.3602983    77.242609  0.028608374  0.029965715            1 
  226000    1.1668077   -7.3510933    78.087989  0.028793506  0.029955631            3 
  227000    1.1516175   -7.3222009    78.430481  0.028792394  0.029945975            1 
  228000    1.1882749   -7.3503254    78.299266  0.028618153  0.029935997            2 
  229000    1.1876034   -7.3359815    79.059841  0.028769956  0.029926156            1 
  230000     1.174974   -7.3278721    79.324124  0.028740625  0.029916653            2 
  231000    1.1538632     -7.37922    79.758379  0.028772864  0.029905617            2 
  232000    1.1695005   -7.3484831    80.024455  0.028744416  0.029895984            2 
  233000    1.1801212   -7.3507622    80.145892  0.028664482  0.029887475            2 
  234000    1.1549296   -7.3513227    80.578091  0.028695901  0.029877741            1 
  235000    1.1670232   -7.3712991    80.907827  0.028690719  0.029867445            1 
  236000    1.1549644   -7.3553201    81.527886  0.028788095   0.02985942            1 
  237000    1.2008504   -7.3406645    81.903455  0.028798683  0.029851633            2 
  238000     1.166781    -7.374446    82.152013   0.02876471  0.029843835            2 
  239000    1.1522196   -7.3579443    82.922369   0.02891296  0.029835621            2 
  240000    1.1633312   -7.3842099    82.878146  0.028777134  0.029828609            3 
  241000    1.1396543   -7.3500341    83.289528  0.028799975  0.029821272            2 
  242000    1.1640301   -7.3690828    83.510353  0.028757009  0.029815265            1 
  243000    1.1563868   -7.3529977    84.227792  0.028884702  0.029808269            1 
  244000    1.1358385   -7.3671815    84.344234  0.028806091  0.029803362            2 
  245000    1.1155775   -7.3815443    84.932584  0.028888634  0.029799186            2 
  246000    1.1580651   -7.3412049     85.32646  0.028904627  0.029795112            5 
  247000    1.1486018   -7.3368788    85.693191  0.028911333  0.029790195            1 
  248000    1.1719947   -7.3743538    85.779164  0.028823644  0.029785811            2 
  249000    1.1641581   -7.3540065    86.519308  0.028955592  0.029781227            2 
  250000    1.1796512   -7.4109218    86.391048  0.028797016  0.029776911            2 
  251000    1.1405842   -7.3664845    87.093879   0.02891563  0.029771018            3 
  252000    1.1412386   -7.4125315    87.110959  0.028806534   0.02976645            3 
  253000    1.1206436   -7.4405773    87.310079  0.028758261  0.029761033            2 
  254000    1.1703333    -7.404783    88.001003   0.02887172  0.029755345            3 
  255000    1.1344376   -7.3873216    88.294556   0.02885443  0.029751119            1 
  256000    1.1423144   -7.3596733    88.614022   0.02884571  0.029744677            2 
  257000    1.1546604   -7.4253182    88.750297  0.028777658  0.029739482            2 
  258000    1.1465114    -7.408786    88.801982  0.028682811   0.02973223            1 
  259000    1.1387456   -7.3690765    89.722396   0.02886821  0.029725426            2 
  260000    1.1418656   -7.3863697    89.726088  0.028758361   0.02971898            2 
  261000    1.1607024   -7.4029194    89.799217  0.028671525  0.029712284            4 
  262000    1.1689738   -7.3522385     90.28362  0.028716164  0.029704586            1 
  263000    1.1447051   -7.3910075    90.369562  0.028634208  0.029695684            3 
  264000    1.1507082   -7.3775922    91.020799  0.028731313  0.029686815            1 
  265000    1.1401967   -7.4158284    90.812702  0.028557454  0.029677406            1 
  266000    1.1449171   -7.3250396    91.558682  0.028683798  0.029666276            2 
  267000    1.1341758   -7.3783635    91.788881  0.028648215  0.029655981            3 
  268000    1.1549421    -7.357219    92.533139  0.028772742  0.029647023            2 
  269000    1.1476652   -7.3909986    92.395419  0.028623116  0.029637557            1 
  270000    1.1349279   -7.3612116     92.68544  0.028606617  0.029626829            2 
  271000     1.149991    -7.402158    92.521556  0.028450663  0.029616775            2 
  272000    1.1181539   -7.4395384    93.006167  0.028494536  0.029605345            2 
  273000     1.179902   -7.4145758    93.224036  0.028456665  0.029593712            2 
  274000    1.1675495   -7.3694004    94.036324  0.028599855  0.029583178            4 
  275000    1.1458173   -7.4097591     94.16579  0.028535088  0.029572649            2 
  276000    1.1245274   -7.4147478    94.292049  0.028469821  0.029560937            2 
  277000    1.1519341   -7.3724984    94.824389  0.028527193  0.029549833            1 
  278000    1.1471961   -7.3936313    95.141547  0.028519648  0.029538952            2 
  279000    1.1560437   -7.3839983    95.468981  0.028515227  0.029527901            3 
  280000    1.1658936   -7.3859666    95.875436  0.028534356  0.029517081            1 
  281000    1.1687925   -7.4173869    95.893111  0.028438052   0.02950633            2 
  282000    1.1553485   -7.4102171    96.498885  0.028516219   0.02949445            3 
  283000    1.1916204   -7.4008124    96.476578  0.028408886  0.029482283            3 
  284000    1.1370732   -7.4224481    96.757918  0.028391408  0.029470527            2 
  285000    1.1485997   -7.4278822    96.951381  0.028348357  0.029459155            2 
  286000     1.142016   -7.3640953    98.000809  0.028555014  0.029449198            1 
  287000     1.167069   -7.4228063    98.228851  0.028521734  0.029439473            2 
  288000    1.1536375   -7.4106258    98.467856  0.028491856  0.029429405            3 
  289000    1.0882906    -7.391902    98.816801  0.028493887  0.029419215            5 
  290000    1.1416959   -7.3554195    98.911008  0.028422703  0.029408287            2 
  291000    1.1588036   -7.4107691    98.915502  0.028326318  0.029396658            2 
  292000    1.1391059   -7.4291157    99.473897  0.028388669  0.029384931            2 
  293000    1.1491412   -7.4008343    99.899666  0.028412874  0.029373692            2 
  294000    1.1571966   -7.4188035    100.02443  0.028351595   0.02936231            2 
  295000     1.161005   -7.4137547    100.72191  0.028452517  0.029351002            2 
  296000    1.1424877   -7.3931051    100.92937  0.028414799  0.029340569            3 
  297000    1.1488557   -7.4555242    100.77782  0.028276605  0.029330109            4 
  298000    1.1168625    -7.383155    101.65007  0.028425634  0.029319356            1 
  299000    1.1136277   -7.4205269    101.68414  0.028340061  0.029308302            1 
  300000    1.1362625   -7.4537493    101.62113   0.02822809  0.029296591            1 
  301000    1.1401042   -7.4335481    102.26419  0.028312344  0.029285562            5 
  302000    1.1673469   -7.4467897    102.43907  0.028266851   0.02927416            2 
  303000    1.1607517   -7.4462592     102.7369  0.028255474  0.029262021            2 
  304000    1.1499076   -7.4574693     103.1235  0.028268505  0.029248842            1 
  305000    1.1572202   -7.4368004    103.39034  0.028248726  0.029235615            1 
  306000    1.1439428   -7.4136686    103.65511  0.028228515  0.029223291            2 
  307000    1.1265532   -7.3898958    103.87244   0.02819556  0.029211528            1 
  308000    1.1421052   -7.4235999     104.2224  0.028198702  0.029198707            2 
  309000    1.1134622    -7.440082    104.42549  0.028162213  0.029186029            1 
  310000    1.1199109   -7.3951965    104.46871  0.028082988  0.029172528            2 
  311000    1.1274216   -7.4251816    105.07248   0.02815447  0.029159165            5 
  312000    1.1208869   -7.4383687    104.72771  0.027972143  0.029144633            1 
  313000    1.1128029   -7.4173228    105.46667  0.028079517  0.029129292            3 
  314000    1.1368877   -7.4611624    105.52071  0.028004434  0.029113556            3 
  315000    1.1250572   -7.4774176    105.60516  0.027937873  0.029098126            2 
  316000    1.1117539   -7.4279882    106.58644  0.028108238  0.029083342            2 
  317000    1.1083028   -7.4333194    107.20678  0.028182644  0.029070567            2 
  318000    1.1432901   -7.4461854    107.23219  0.028100678  0.029058087            2 
  319000    1.1416194   -7.4439965     107.4365   0.02806596  0.029044104            3 
  320000    1.1038873   -7.4609795    107.56699  0.028012237    0.0290301            2 
  321000    1.1244148    -7.409002    108.21334  0.028092767  0.029017176            3 
  322000    1.1043722   -7.4718098     108.2477  0.028014416  0.029004002            1 
  323000    1.1282061   -7.4733819    108.81374  0.028073721  0.028991032            2 
  324000    1.1433504   -7.4595846    108.80954  0.027985993  0.028978012            3 
  325000     1.102425   -7.4514226    109.30833  0.028027776  0.028965164            1 
  326000    1.1371851   -7.4461691    109.70774  0.028043902  0.028952928            2 
  327000    1.1072562   -7.5062571    109.48645  0.027901745  0.028940407            3 
  328000    1.1189175   -7.4357395    110.53707  0.028083605  0.028927795            4 
  329000    1.1247957   -7.4652817    110.45889  0.027978442  0.028915128            3 
  330000    1.1233588   -7.4456934    111.01868   0.02803502  0.028901657            4 
  331000    1.1181806   -7.4183851    111.23381  0.028004483  0.028889574            2 
  332000    1.1346244   -7.4615709    111.21864  0.027916326  0.028876315            3 
  333000    1.1313154   -7.4454778    111.63247  0.027936053  0.028863212            1 
  334000     1.123364   -7.4611951    112.13112  0.027976825  0.028850092            1 
  335000    1.1129513   -7.4511157    112.17334  0.027903815  0.028837202            4 
  336000     1.137164   -7.4800101     112.0613  0.027792981  0.028823268            3 
  337000    1.1126458   -7.4421598    113.12191  0.027972778  0.028809047            1 
  338000    1.1322074   -7.4747629    113.46388   0.02797433  0.028797029            3 
  339000    1.0979302   -7.4729242    113.72748  0.027956607  0.028785631            1 
  340000    1.1156143   -7.4342516     113.8769  0.027911004  0.028773333            2 
  341000    1.1473771   -7.4697649    114.01124  0.027861983  0.028760868            2 
  342000    1.1198081   -7.4327762    114.49582   0.02789859  0.028748283            4 
  343000    1.1227709   -7.4320463    114.84167  0.027901281  0.028735592            1 
  344000    1.1341882   -7.5037725    114.39504  0.027711976  0.028722024            2 
  345000    1.1001682   -7.4792916    115.04606  0.027788903  0.028707757            3 
  346000    1.1435238   -7.4778937    114.98499  0.027693881  0.028694029            1 
  347000    1.1186789   -7.4865457    115.99202  0.027855913  0.028680538            4 
  348000    1.1092323   -7.4542152    116.01292  0.027780873  0.028667782            2 
  349000    1.1169206    -7.487975    116.51004  0.027819971  0.028655019            3 
  350000    1.1333548   -7.4588741    116.49907  0.027737875  0.028642265            2 
  351000    1.1159426   -7.4889747    116.76893  0.027722919   0.02862929            3 
  352000    1.1163223   -7.4616563    117.23301  0.027754028  0.028616397            3 
  353000     1.125349   -7.5062455    117.31547  0.027694871  0.028602907            2 
  354000    1.1128024   -7.4775132    117.60312   0.02768435  0.028589356            1 
  355000    1.1215695   -7.4579375    118.04806  0.027710813  0.028575992            2 
  356000    1.1321367   -7.4874031    118.06644  0.027637275  0.028562335            1 
  357000    1.0987236   -7.4989022    118.21853  0.027595362  0.028548319            3 
  358000    1.1329149   -7.4808134     118.7424  0.027640225  0.028534051            2 
  359000    1.0958849   -7.5139806    118.89593  0.027598869  0.028520683            2 
  360000    1.1101802   -7.4926929    119.19373  0.027591142  0.028506966            3 
  361000    1.1379761   -7.4791547    119.62165  0.027613493  0.028492923            3 
  362000    1.1167054   -7.5416631    119.28107  0.027458809  0.028479248            5 
  363000    1.0914979   -7.5077196    119.86101  0.027516301  0.028464453            4 
  364000    1.1024234   -7.4471113    120.50375  0.027587855  0.028450631            4 
  365000    1.0882635   -7.5306926    120.73214  0.027564415  0.028436633            4 
  366000    1.0975306   -7.4859718    120.71537  0.027485285  0.028422181            4 
  367000    1.1218245   -7.4804247    121.05574  0.027487678   0.02840781            1 
  368000    1.0889343   -7.4627085    121.38361   0.02748723   0.02839358            3 
  369000    1.0946684   -7.4789877    121.58391  0.027457975  0.028378374            1 
  370000    1.1283292   -7.5050469    121.64231  0.027396916  0.028362912            1 
  371000    1.0955895    -7.496615     121.9111  0.027383445  0.028346869            1 
  372000     1.116694   -7.4577702    122.09095  0.027350123  0.028331103            4 
  373000    1.1134588   -7.4898244    122.82697  0.027441235  0.028315299            2 
  374000    1.0871061   -7.5218666    122.23422   0.02723579   0.02829941            4 
  375000    1.0897308   -7.4801641    122.81092  0.027291316  0.028283555            2 
  376000    1.1112374   -7.4880329    123.24848  0.027315709  0.028267937            3 
  377000    1.1280893   -7.5435842    123.31296  0.027257506  0.028251942            2 
  378000    1.1137389   -7.4609495    123.99552  0.027335873  0.028236126            1 
  379000    1.1110522   -7.4748387    123.80906  0.027222748  0.028219688            2 
  380000    1.1104002   -7.5547265    124.05198  0.027204382  0.028202153            3 
  381000    1.1090535   -7.5059914     123.9246  0.027105118  0.028185111            3 
  382000    1.1051724   -7.5027375    124.26191  0.027107746  0.028167291            1 
  383000    1.0772368   -7.5151157    123.67556   0.02690939   0.02814782            7 
  384000    1.1067102   -7.5189176    124.27779  0.026970006  0.028128398            1 
  385000    1.1040514   -7.5494633    124.83107  0.027019713  0.028108911            1 
  386000     1.092726   -7.4805547    124.92906  0.026970867  0.028090271            2 
  387000    1.1051605    -7.473057    125.47563   0.02701887  0.028071601            1 
  388000    1.0745406   -7.5411134    125.17438  0.026884533  0.028052249            2 
  389000     1.116853   -7.5317024    125.43724  0.026871731  0.028032806            3 
  390000    1.1119088   -7.5435679    125.80356  0.026881103  0.028015148            3 
  391000    1.1151683   -7.5277697    126.47173   0.02695476  0.027997445            3 
  392000    1.0926791   -7.4826505    127.04289  0.027007418  0.027979839            3 
  393000    1.1040869   -7.5193508    126.97717   0.02692476  0.027961601            1 
  394000    1.1193923   -7.6143474    126.62931  0.026782848  0.027942606            1 
  395000     1.116263   -7.5274707      127.439  0.026885865  0.027924757            2 
  396000    1.0793115   -7.5353226    127.90583  0.026916209   0.02790736            1 
  397000    1.1200713   -7.5344722    128.11992  0.026893349  0.027889879            1 
  398000    1.1017387   -7.5130931    128.33861  0.026871567  0.027872673            1 
  399000    1.0824306   -7.5061447    129.10025  0.026963294  0.027855455            1 
  400000      1.08011   -7.5062295    129.58687  0.026997265  0.027839262            4 
  401000    1.1155596   -7.5130186    128.93001  0.026793436  0.027822875            1 
  402000    1.1081687   -7.5059449    130.00937  0.026950533  0.027806324            5 
  403000    1.0677437   -7.5201022     129.9443  0.026870202  0.027789548            1 
  404000    1.0710667   -7.5268033    130.06349  0.026828277  0.027771983            2 
  405000     1.097946   -7.5206446    130.57214  0.026866696  0.027754707            3 
  406000    1.0860277   -7.5478414    130.37702  0.026760472  0.027737646            3 
  407000    1.0885605   -7.5430607    130.78296  0.026777838  0.027720331            3 
  408000    1.0665147   -7.5566615    130.49079  0.026652531  0.027702998            4 
  409000    1.0604644   -7.5322707    131.18943  0.026729713  0.027684999            2 
  410000    1.0681538   -7.5376435    131.06623  0.026639477  0.027666475            3 
  411000    1.1124343    -7.521639    131.33931   0.02663003  0.027648037            1 
  412000    1.0701758   -7.5088938    131.43337   0.02658442  0.027629236            4 
  413000     1.065263   -7.5402421    131.36916  0.026507095  0.027610434            1 
  414000     1.082527   -7.5511859    131.63996  0.026497577  0.027591526            3 
  415000    1.1002667   -7.5620338    132.04246  0.026514551  0.027572491            3 
  416000    1.1011107   -7.5467993    132.47664  0.026537789  0.027553286            1 
  417000    1.0857298   -7.5324988    132.93165  0.026565079  0.027535403            2 
  418000    1.0833961   -7.5289224    132.75873  0.026467051  0.027516661            2 
  419000    1.0942689   -7.5516858    133.27384  0.026506332  0.027497644            2 
  420000    1.0970275   -7.4882351    133.99448  0.026586206  0.027478971            3 
  421000    1.0842868   -7.5087067     133.6268  0.026450277  0.027459801            2 
  422000    1.0816592   -7.5324834    133.43334  0.026349396  0.027439758            1 
  423000    1.0905678   -7.5614247    133.66638  0.026333014   0.02741979            3 
  424000    1.0992013   -7.5357809    133.68405  0.026274382  0.027399389            1 
  425000    1.0654245   -7.5750164     133.9869  0.026271941  0.027378991            2 
  426000    1.0945681   -7.6037806    133.83775  0.026181094  0.027358006            1 
  427000    1.0753593   -7.5539177    134.28946  0.026207935  0.027336773            2 
  428000    1.0910981   -7.5450356    134.56382  0.026200121   0.02731564            1 
  429000    1.0727011   -7.5470694    134.77409  0.026179893  0.027294941            1 
  430000    1.0895941    -7.572574    134.99777  0.026162358  0.027274461            1 
  431000    1.0621974   -7.5526644    135.33723  0.026167291   0.02725404            4 
  432000    1.1071632   -7.6097778    135.40091  0.026119003  0.027233715            3 
  433000    1.0717806   -7.5504787    136.43146  0.026257018  0.027213516            1 
  434000    1.0872245   -7.5298756    136.50058  0.026209789  0.027193836            3 
  435000    1.1004523   -7.5219579    136.47219  0.026144098  0.027173676            2 
  436000    1.0873065   -7.6116787    135.93726  0.025981893  0.027152919            1 
  437000    1.0602171   -7.5419679    136.57171  0.026043423  0.027132055            2 
  438000    1.0744819   -7.5323144    136.94459  0.026054906  0.027111263            2 
  439000     1.097616   -7.5873553    136.69991  0.025949109  0.027089604            1 
  440000    1.1017288   -7.5197036    137.34162   0.02601167  0.027067969            1 
  441000    1.0883278   -7.5505961    137.26337  0.025937901  0.027047042            2 
  442000    1.0786683   -7.5477067    137.61043   0.02594465  0.027026519            4 
  443000    1.0642781   -7.5803909    137.90557  0.025941604   0.02700501            5 
  444000    1.0556115   -7.5441536    138.36581  0.025969559  0.026983482            2 
  445000    1.0751896   -7.5438124    138.61098  0.025957112  0.026962825            3 
  446000    1.0763212   -7.5522498     139.0332  0.025977802   0.02694247            2 
  447000     1.054323   -7.5454051    138.77066  0.025870741  0.026922612            4 
  448000    1.0632927   -7.5208574    139.75247  0.025995623  0.026902815            3 
  449000     1.046287   -7.5619312    139.52978  0.025896396  0.026882786            2 
  450000     1.083706   -7.5844729    139.93287  0.025913495  0.026862365            2 
  451000    1.0697107   -7.5762564    139.80182  0.025831822  0.026842656            3 
  452000     1.062004   -7.5895556    139.88027  0.025789134  0.026822986            4 
  453000    1.0645198   -7.5988933    140.27908  0.025805571  0.026803193            1 
  454000    1.0574499   -7.5575298      140.826  0.025849118    0.0267835            2 
  455000    1.0612065   -7.5981791    141.03391  0.025830387  0.026763713            4 
  456000    1.0539418   -7.5453938    141.72772  0.025900533  0.026744206            6 
  457000    1.0796775   -7.5782616    141.91987  0.025878896  0.026725046            1 
  458000    1.0882028   -7.6017278    141.82956   0.02580596  0.026705481            1 
  459000    1.0671276   -7.6022226    142.48754  0.025869197  0.026686638            1 
  460000    1.0718011   -7.5971335    142.33402  0.025785148  0.026668041            3 
  461000    1.0686098   -7.6046189    142.48916  0.025757259  0.026649314            7 
  462000    1.0928993   -7.5868059    142.57907  0.025717725  0.026630828            2 
  463000    1.0605697   -7.5949979    143.03511   0.02574426  0.026611556            3 
  464000    1.0864172   -7.5969139    143.23564  0.025724791  0.026591719            3 
  465000    1.0744592   -7.5844735     143.6045  0.025735574  0.026572714            1 
  466000    1.0808764    -7.618662    143.52395  0.025665942  0.026553772            1 
  467000    1.0714919   -7.6299585    143.70173  0.025642708  0.026534505            5 
  468000    1.0651505   -7.5534434    143.91887  0.025626579  0.026515051            1 
  469000    1.0622225   -7.6030007    143.91072   0.02557049  0.026495704            2 
  470000    1.0635684   -7.6115747    144.24275  0.025574956  0.026476399            1 
  471000    1.0526305   -7.5708145    144.98393  0.025651793  0.026457276            1 
  472000    1.0635921   -7.5892266    144.95981  0.025593187   0.02643831            2 
  473000    1.0740484   -7.5791165    145.13797  0.025570466  0.026420165            4 
  474000    1.0824441   -7.5860358    145.38719  0.025560335  0.026401883            7 
  475000    1.0647959   -7.5541712    146.13217  0.025637223  0.026383825            2 
  476000       1.0638   -7.6130788    145.66267  0.025501168  0.026365348            3 
  477000    1.0587996   -7.6185744    145.88949  0.025487332  0.026346438            1 
  478000    1.0598996   -7.6018181    146.11121  0.025472665  0.026327734            1 
  479000    1.0456216   -7.6036571    146.27663  0.025448265  0.026309105            1 
  480000    1.0756367   -7.6558794    146.03685   0.02535362  0.026289932            3 
  481000    1.0600639   -7.5909687    147.25373  0.025511734  0.026271123            1 
  482000    1.0580666   -7.5613856    147.56666  0.025512908  0.026252258            1 
  483000    1.0526602   -7.6246547     146.9873  0.025360128  0.026233198            3 
  484000    1.0616906   -7.6063885    147.19412  0.025343339  0.026214099            1 
  485000    1.0428696   -7.5815583    148.43776  0.025504769  0.026195465            3 
  486000    1.0526635   -7.5918459     147.8782  0.025356345  0.026177202            3 
  487000    1.0555916   -7.5987253    148.07541  0.025338024  0.026158879            3 
  488000    1.0618411   -7.5965297    147.91321  0.025258403  0.026139701            3 
  489000    1.0421464   -7.5964675    148.50394  0.025307419  0.026120467            3 
  490000    1.0572551   -7.6084148    148.90378  0.025323772  0.026101663            1 
  491000    1.0296362   -7.5967434    148.95453   0.02528081  0.026082568            2 
  492000    1.0617839   -7.5967797    148.84021  0.025210063  0.026063562            3 
  493000    1.0428412   -7.5889171    149.38268  0.025250621  0.026044547            2 
  494000    1.0432442    -7.611886    149.48219  0.025216293  0.026024744            1 
  495000    1.0578096   -7.6060938     149.2278  0.025122525  0.026005278            3 
  496000    1.0462143   -7.6421362    149.73994   0.02515792  0.025985162            2 
  497000    1.0479651   -7.6265736    149.76834  0.025112063   0.02596521            1 
  498000    1.0522136   -7.6082418    149.61015  0.025035166  0.025945064            2 
  499000     1.041903   -7.6955688    150.03875  0.025056572  0.025925005            3 
  500000    1.0617474   -7.6081365    150.18149  0.025030249  0.025904841            3 
  501000    1.0323372   -7.6117186    150.39397  0.025015631  0.025884947            4 
  502000    1.0390851     -7.63073    150.33731  0.024956392  0.025864747            3 
  503000    1.0564378   -7.6450175    150.08485  0.024864952  0.025843916            2 
  504000    1.0276145   -7.6361605    150.46479  0.024878437  0.025822565            3 
  505000     1.022959   -7.6314048    150.86856  0.024895803   0.02580157            3 
  506000    1.0474992   -7.6405338    150.50575  0.024786849  0.025780641            6 
  507000    1.0643373   -7.6144408      151.392  0.024883629   0.02575998            2 
  508000    1.0698142   -7.6459056    151.06413  0.024780861  0.025739135           10 
  509000    1.0420677   -7.6251661     151.3276  0.024775312  0.025717542            1 
  510000    1.0371685   -7.6742773    151.26633   0.02471672  0.025696358            2 
  511000    1.0170161   -7.6856143    150.92763  0.024613116  0.025674651            1 
  512000    1.0489765   -7.6535703    151.51739  0.024661034  0.025652803            2 
  513000    1.0504937   -7.6605459    151.65132  0.024634718  0.025631053            2 
  514000    1.0463293   -7.6592542    151.84366  0.024617974  0.025609438            2 
  515000    1.0735505   -7.6858464    152.00068  0.024595579  0.025588119            4 
  516000     1.027766   -7.6531853    152.59632  0.024644108  0.025566527            2 
  517000    1.0462203   -7.6680139    152.17619  0.024528722  0.025545163            3 
  518000    1.0358109   -7.6780197    152.70352  0.024566204  0.025523687            4 
  519000    1.0557318   -7.6124395    153.02416  0.024570354  0.025502408            4 
  520000    1.0383574   -7.6449546    153.07485  0.024531225  0.025481003            1 
  521000     1.031553   -7.6603097    153.24161  0.024510813  0.025459685            3 
  522000    1.0553401   -7.6758825    153.21072  0.024458928  0.025438312            1 
  523000    1.0470405   -7.6688557     153.6376  0.024480178  0.025416952            2 
  524000    1.0533073   -7.6499215    154.28119  0.024535812  0.025395546            3 
  525000    1.0418489   -7.6597902    154.10878  0.024461712  0.025374771            2 
  526000    1.0341529   -7.6557193    154.52506  0.024481157  0.025353676            1 
  527000    1.0180702   -7.6651387    154.63014  0.024451319  0.025332477            2 
  528000    1.0570446    -7.663763    155.04678  0.024470766  0.025311495            6 
  529000    1.0454692   -7.6819536    154.98848  0.024415324  0.025290504            3 
  530000    1.0482134   -7.6878772     154.9223  0.024358853  0.025269445            3 
  531000    1.0226674   -7.6523912    155.59668  0.024418813  0.025248685            4 
  532000    1.0365431   -7.6625379    155.70159  0.024389347  0.025228176            3 
  533000    1.0503124   -7.6493306    155.71251  0.024345296  0.025207598            1 
  534000    1.0558795   -7.6686561    156.03128  0.024349451   0.02518713            3 
  535000    1.0452002   -7.6364375    156.67535   0.02440426  0.025166671            3 
  536000     1.054611   -7.7125783     156.0796  0.024266107  0.025145805            2 
  537000    1.0380629    -7.723721    155.96344  0.024202892  0.025125091            7 
  538000    1.0480995   -7.6343862    156.79248  0.024286319  0.025104647            1 
  539000    1.0483392   -7.6353657    156.83474  0.024247795  0.025084206            3 
  540000    1.0153831   -7.6899084    156.36112  0.024129802  0.025063155            2 
  541000    1.0285615   -7.7142609    157.12542   0.02420293  0.025042256            3 
  542000    1.0496666     -7.67603    157.33601  0.024190654  0.025021311            1 
  543000    1.0595122   -7.6630978    157.52317  0.024174827  0.025000658            1 
  544000    1.0520859   -7.6827737     157.6254  0.024146048  0.024980305            5 
  545000    1.0439644   -7.6606773    158.20705  0.024190681  0.024960307            3 
  546000    1.0633034   -7.7077655    158.39805  0.024175526  0.024939998            2 
  547000    1.0515961    -7.659114     158.7122  0.024179189  0.024920032            3 
  548000    1.0440443   -7.6568837    159.23395  0.024214409  0.024900344            3 
  549000    1.0391702   -7.6649846    159.25089  0.024172873  0.024880692            1 
  550000    1.0300405   -7.6424738     159.2845  0.024134015  0.024861065            4 
  551000    1.0540514   -7.6807211    159.62558    0.0241418  0.024841641            3 
  552000    1.0330044   -7.7143273    159.56199  0.024088465  0.024822018            3 
  553000    1.0333604   -7.6785925    159.40344  0.024021012  0.024802428            2 
  554000    1.0218671   -7.6730699    159.97232  0.024063226  0.024782774            2 
  555000    1.0253529   -7.6830813    160.20717  0.024055131  0.024763637            3 
  556000       1.0288   -7.6535961    160.69012  0.024084251  0.024744904            2 
  557000     1.037952   -7.6802879     160.8334  0.024062448   0.02472618            3 
  558000    1.0300968     -7.64831    161.25561  0.024082379  0.024707346            6 
  559000    1.0621724   -7.7386799     160.7322   0.02396127  0.024687866            3 
  560000    1.0148934   -7.7196999    160.77361  0.023924644  0.024668491            2 
  561000      1.01746    -7.698643    161.44088  0.023981117   0.02464883            3 
  562000    1.0106851   -7.6674787     161.4045  0.023933052  0.024629386            3 
  563000    1.0412054   -7.6940374    161.81177  0.023950825  0.024610107            2 
  564000    1.0441269   -7.7070009    161.41623  0.023849916  0.024590515            2 
  565000      1.03098   -7.7079232    162.05683  0.023902187  0.024570883            2 
  566000    1.0279398   -7.6960619    162.37104   0.02390622  0.024551708            4 
  567000    1.0194601   -7.7365775    161.94606  0.023801596  0.024532503            5 
  568000    1.0119315   -7.6981545    162.78111  0.023882205   0.02451338            2 
  569000    1.0293423   -7.7248051    162.69645  0.023827833  0.024494374            2 
  570000    1.0493728   -7.6347175     163.7842  0.023945059  0.024475657            1 
  571000     1.025111    -7.695696     163.1712   0.02381366  0.024456997            7 
  572000    1.0269311   -7.6653641    163.34486  0.023797328  0.024438208            2 
  573000    1.0142641    -7.664892    164.04565  0.023857715  0.024419428            1 
  574000    1.0336603   -7.7147987    163.80908  0.023781807  0.024400304            7 
  575000    1.0194483   -7.7291333    163.67133  0.023720483  0.024381049            2 
  576000    1.0223994   -7.7005763    163.78733  0.023696084  0.024361988            6 
  577000    1.0254317   -7.6871633    164.47921   0.02375494  0.024343143            2 
  578000    1.0299126   -7.6557986    164.89367  0.023773597  0.024324243            2 
  579000    1.0085734   -7.6813433    164.61159  0.023691938  0.024305497            2 
  580000    1.0344684   -7.7025309    165.27462  0.023746354  0.024286878            3 
  581000    1.0094573   -7.7077886    164.96067  0.023660452  0.024267874            3 
  582000    1.0404236   -7.6466604    166.05086  0.023775896  0.024249227            3 
  583000    1.0330625   -7.7168768    164.98834   0.02358324  0.024230443            5 
  584000    1.0183203   -7.6976653    165.03695  0.023549792  0.024211414            1 
  585000    1.0322822    -7.747197    165.28395  0.023544722  0.024192585            3 
  586000   0.99469049   -7.6799121    166.03076  0.023610745  0.024173722            1 
  587000    1.0238959   -7.7168761    165.37631  0.023477614  0.024154649            3 
  588000    1.0203664   -7.7495528    165.13053  0.023402853  0.024134988            6 
  589000    1.0181261   -7.7294954    165.64922  0.023436505  0.024115716            5 
  590000    1.0107526   -7.6986863     166.4324  0.023507401  0.024096799            2 
  591000    1.0214722   -7.7841368    166.16642  0.023430121   0.02407783            4 
  592000   0.99669089   -7.7403296    166.95681  0.023501803  0.024058337            7 
  593000    1.0241765   -7.7392391     166.4468    0.0233905  0.024038874            3 
  594000     1.030824   -7.7285192    166.57809  0.023369542  0.024019509            2 
  595000      1.00651   -7.7597424    166.33974  0.023296882  0.024000005            3 
  596000    1.0219916   -7.7137883    167.07705  0.023360885  0.023980508            2 
  597000   0.99986185   -7.7195844    167.70986  0.023410087  0.023961373            1 
  598000    1.0192034   -7.7837906    167.00684  0.023272971  0.023941654            7 
  599000     1.019565   -7.7535218    166.96187  0.023227862  0.023922026            3 
  600000    1.0068078   -7.7200372    167.73147  0.023296037  0.023902684            3 
  601000   0.99699957    -7.739279    167.53101  0.023229479  0.023883017            1 
  602000    1.0260514   -7.7299242    167.69365  0.023213407  0.023863423            2 
  603000    1.0077497   -7.7651643    167.61606  0.023164188  0.023843829            1 
  604000    1.0161045   -7.7443517    168.23218  0.023210842   0.02382459            3 
  605000    1.0024742   -7.7730064    168.04135  0.023146191  0.023805115            1 
  606000    1.0303407   -7.7089466    168.10859  0.023117243  0.023785833            3 
  607000   0.98831668   -7.7157644    168.52782  0.023136713  0.023766636            3 
  608000    1.0057675   -7.7898545    168.81621  0.023138187  0.023747255            2 
  609000    1.0018058   -7.7808936    168.87262  0.023107912  0.023727949            2 
  610000    1.0316615   -7.7316135    169.76888   0.02319247  0.023709016            2 
  611000    1.0260743   -7.7789963    169.20942  0.023078208  0.023690116            4 
  612000     1.012666   -7.7912173    169.63928  0.023099031  0.023670723            3 
  613000    1.0095134   -7.7564635    169.69942  0.023069524  0.023651501            3 
  614000    1.0075438   -7.7520042    169.51775  0.023007296   0.02363258            4 
  615000   0.99896526   -7.7684134    170.00415  0.023035793  0.023613403            2 
  616000    1.0128144   -7.7024311    170.44168  0.023057587  0.023594502            5 
  617000    1.0162257   -7.7551753    170.56229  0.023036506  0.023575492            2 
  618000   0.99538097   -7.7507344    170.02729  0.022927088  0.023556344            3 
  619000   0.98662805   -7.8064489    169.87069  0.022868968  0.023536939            1 
  620000    1.0080983   -7.7722877    170.72375  0.022946741  0.023517581            3 
  621000    1.0004671   -7.7561028    171.12467  0.022963589  0.023498454            1 
  622000   0.98933865    -7.771616    171.23785  0.022941835  0.023479479            2 
  623000    1.0207226   -7.7515407     171.1378  0.022891627  0.023460723            3 
  624000   0.97803266   -7.7456764    171.49671  0.022902873  0.023441953            2 
  625000    1.0266938   -7.7482506    172.02785  0.022937047  0.023423508            2 
  626000    1.0112219   -7.7623666    171.52303  0.022833204  0.023404582            1 
  627000    1.0198191   -7.7353023    171.43737  0.022785402  0.023385578            3 
  628000   0.99600116   -7.7673233    172.09498  0.022836383  0.023366724            2 
  629000    1.0115303   -7.7539903    172.21565  0.022816063  0.023347744            3 
  630000    1.0155865   -7.7719218    172.50469  0.022818081  0.023329119            5 
  631000    1.0107668   -7.7972456    172.05736  0.022722842  0.023310312            3 
  632000    1.0026551   -7.7773883    172.34794  0.022725203  0.023291383            1 
  633000    1.0285774    -7.730012    172.78144  0.022746372  0.023272724            2 
  634000    1.0028284   -7.7666879     172.9719  0.022735528  0.023254031            2 
  635000    1.0013286   -7.7384143    173.08725  0.022714862  0.023235161            3 
  636000    1.0072253   -7.7774714    173.16638  0.022689515  0.023216281            6 
  637000   0.98279467   -7.7808703    173.04169  0.022637583  0.023197204            4 
  638000     1.004085   -7.7616052    173.22635  0.022626221   0.02317829            4 
  639000   0.99681465   -7.8098678    173.16272  0.022582514  0.023159152            2 
  640000   0.99464885   -7.7575976    174.02356  0.022659318  0.023140213            2 
  641000   0.99433015   -7.7620451    173.50015  0.022555921  0.023121516            3 
  642000   0.98640078   -7.7957804     173.3831  0.022505595  0.023102574            5 
  643000   0.98478375    -7.778399    173.87304  0.022534091  0.023083823            1 
  644000   0.99809885   -7.7193373    174.96328  0.022640175  0.023065256            2 
  645000   0.99617411   -7.7694746    174.43163  0.022536387  0.023046686            3 
  646000   0.97762422   -7.7655384    174.56248  0.022518379  0.023027841            2 
  647000   0.97038542   -7.7994643    174.47882    0.0224728  0.023009131            1 
  648000    0.9918989   -7.7824102    174.83624  0.022484084  0.022990145            2 
  649000   0.98128411   -7.8008687     174.5631  0.022414368  0.022971134            4 
  650000   0.97701404   -7.7867236    175.12602  0.022452053  0.022952353            4 
  651000    1.0176753   -7.7924505    174.71233   0.02236461   0.02293358            6 
  652000   0.98609761   -7.7640159     175.0145  0.022368928  0.022914638            1 
  653000     1.011048    -7.801188    175.73371  0.022426456  0.022895737            4 
  654000     1.001462   -7.7907988     175.9294  0.022417099  0.022877322            3 
  655000   0.98422551   -7.7700781    175.98371  0.022389786  0.022858864            7 
  656000    0.9919631   -7.7905107     175.7612  0.022327388  0.022840187            2 
  657000   0.98425191   -7.7897012    176.04758  0.022329729  0.022821738            4 
  658000   0.98087061    -7.836911    175.75599  0.022258863  0.022803409            2 
  659000    1.0095242   -7.8184766    176.49892  0.022319034  0.022784942            1 
  660000   0.97904243   -7.7609674    176.90931  0.022337034  0.022766553            2 
  661000   0.99446027   -7.7818748    177.29363  0.022351693  0.022748206            3 
  662000   0.99006008   -7.7888784    177.07559  0.022290482  0.022729979            2 
  663000    0.9688108   -7.8485568    176.20729  0.022147723  0.022711199            2 
  664000   0.98739539   -7.8113497    177.05806  0.022221142  0.022692538            3 
  665000   0.97141245   -7.7793576    177.49717  0.022242754   0.02267427            2 
  666000   0.98088026   -7.8175894    177.13878  0.022164512  0.022655727            4 
  667000   0.99778134    -7.785663    177.27947  0.022148859  0.022637044            3 
  668000   0.98796237   -7.7904305    177.32686  0.022121615  0.022618194            3 
  669000   0.99438689   -7.8375908    177.13262  0.022064353  0.022599445            3 
  670000   0.99270853    -7.783919    177.53451  0.022081407  0.022580732            2 
  671000   0.97851486   -7.8296266    177.81324  0.022083115  0.022561822            3 
  672000   0.94781326   -7.7697559    178.57914  0.022145231  0.022543106            5 
  673000    0.9766916    -7.798013    178.42668  0.022093448  0.022524414            1 
  674000    0.9833991   -7.8110251    179.01236  0.022133082  0.022505643            1 
  675000   0.98189702   -7.8177802    178.93044  0.022090178  0.022487172            2 
  676000   0.98809917   -7.7837293     178.5356  0.022008826  0.022468583            2 
  677000   0.96921234    -7.840017    178.27874  0.021944699  0.022450001            4 
  678000   0.99837069   -7.8019909    179.02957  0.022004618   0.02243135            2 
  679000   0.99851436   -7.8068189    178.87371  0.021953082  0.022412593            3 
  680000   0.98666989   -7.8205918    179.21637  0.021962791  0.022394095            3 
  681000   0.98915478   -7.8029884    179.43851  0.021957722  0.022375753            2 
  682000   0.99722301   -7.8123157    179.73532  0.021961794  0.022357597            4 
  683000   0.99214731   -7.8599918    179.63212  0.021917047  0.022339294            3 
  684000   0.96879479   -7.7871813    179.73309  0.021897307  0.022320968            1 
  685000   0.97666107   -7.8134846    179.77995   0.02187104  0.022302855            2 
  686000   0.96679158   -7.7958671     179.6935  0.021828657  0.022284333            2 
  687000   0.95088588   -7.7878455     180.5781  0.021904185  0.022266003            2 
  688000   0.97320368   -7.8651709    179.76234  0.021773539  0.022247469            3 
  689000   0.96912891   -7.7985246    180.81286  0.021868997  0.022229026            3 
  690000   0.95665666   -7.8174186    180.58445  0.021809716  0.022210835            4 
  691000   0.95821308   -7.8567298    180.34134  0.021748835  0.022192566            1 
  692000   0.97851647   -7.8447457    180.28342  0.021710432   0.02217426            4 
  693000   0.98546035   -7.8193245     180.5778  0.021714502  0.022155698            3 
  694000   0.97947702    -7.864402    180.68291  0.021695834   0.02213738            4 
  695000   0.98279921   -7.8242218    180.98138  0.021700406  0.022119174            2 
  696000   0.95336439   -7.8173414    181.40406  0.021719835  0.022101085            2 
  697000   0.97637583   -7.8848683     180.8932  0.021627594  0.022082581            2 
  698000   0.98813132   -7.8040674    180.96113  0.021604719  0.022064166            2 
  699000   0.96102634   -7.7832039    181.33841   0.02161879  0.022045946            6 
  700000   0.99397072   -7.8109528    182.10482  0.021679145  0.022027854            4 
  701000    0.9935338   -7.8705314    181.34376  0.021557746  0.022009539            2 
  702000   0.99611772   -7.8332442     181.7481  0.021575035  0.021991352            3 
  703000     0.970208   -7.8137243    182.48118  0.021631245  0.021973169            1 
  704000   0.97557214   -7.8485988    181.73769  0.021512511  0.021954852            3 
  705000   0.96322493   -7.8494877    182.24733  0.021542238  0.021936442            3 
  706000   0.97685717   -7.8633953     182.1436  0.021499481  0.021917962            5 
  707000   0.99659243   -7.8760322    182.26816  0.021483753  0.021899416            4 
  708000   0.95525788   -7.8560855    182.28641  0.021455557  0.021880883            2 
  709000   0.95522255   -7.8170721    182.48636  0.021448796  0.021862179            2 
  710000   0.96141444   -7.8616766     182.0392  0.021366103  0.021843663            2 
  711000   0.97668909   -7.8309235    182.69701  0.021413151  0.021825228            3 
  712000   0.97194564   -7.8379529    182.55175  0.021366075  0.021806674            4 
  713000   0.96477891   -7.8923605    182.54321  0.021335111  0.021787986            4 
  714000   0.97396714   -7.8285406    182.44423  0.021293678  0.021769369            2 
  715000   0.98336298   -7.8769875    182.91024   0.02131821  0.021750653            3 
  716000   0.96989017   -7.8913706    182.69399  0.021263267  0.021732069            3 
  717000   0.97626955   -7.8558116     183.0227  0.021271816  0.021713398            8 
  718000   0.95712632   -7.8396369    183.41025   0.02128717  0.021694867            2 
  719000   0.98200257   -7.9034285    182.89333  0.021197651  0.021676229            4 
  720000   0.96932662   -7.9008976    183.19045  0.021202598  0.021657575            3 
  721000   0.95406243   -7.8909361    182.96881  0.021147574  0.021638818            1 
  722000   0.96944508   -7.8540145    183.55014  0.021185381  0.021619961            1 
  723000   0.97818803   -7.8889083    183.46375  0.021146121  0.021601041            1 
  724000   0.96419771    -7.930436    183.26251  0.021093751  0.021582288            2 
  725000   0.95825328   -7.8875748    183.31657   0.02107087  0.021563404           10 
  726000    0.9487069   -7.8902158    183.83512  0.021101368  0.021544405            2 
  727000   0.96200844   -7.8806808    184.19339  0.021113411  0.021525639            3 
  728000   0.99176814    -7.889393     184.2867  0.021095089  0.021506945            2 
  729000   0.97167163    -7.870706     183.9895  0.021032178  0.021488357            2 
  730000   0.96451795   -7.8589399    184.27873  0.021036384  0.021469799            5 
  731000   0.94358031   -7.8732697    184.66717  0.021051889  0.021451446            3 
  732000   0.97023836   -7.8729807    184.50586  0.021004766  0.021432997            2 
  733000   0.96456756   -7.8891055    184.62622  0.020989793  0.021414561            4 
  734000   0.96253907   -7.8716628    184.92546   0.02099517  0.021395994            2 
  735000   0.95757263   -7.8456953    185.69335  0.021053668  0.021377643            2 
  736000   0.96398493   -7.8482725    185.42709  0.020994915  0.021359722            5 
  737000   0.96263718   -7.8355988    186.40226  0.021076692  0.021341946            3 
  738000   0.95202494   -7.8440257     185.7514  0.020974639  0.021324176            3 
  739000   0.95995665   -7.8815197    185.98533  0.020972635  0.021306266            1 
  740000   0.96652988   -7.8995135    185.76255  0.020919206  0.021288147            1 
  741000   0.94382496   -7.8412607    186.23472  0.020944076  0.021269899            2 
  742000   0.94696022   -7.8613172    186.73103  0.020971589  0.021251958            3 
  743000   0.97859503   -7.8863072     186.8131  0.020952568  0.021234286            5 
  744000   0.97674592   -7.9303903    186.67471  0.020908906  0.021216538            3 
  745000   0.93961199   -7.8931754    187.10956  0.020929481  0.021198847            3 
  746000   0.97521775   -7.9062007    187.11837   0.02090241  0.021181123            4 
  747000   0.94750188   -7.8787264    186.44785  0.020799627  0.021163334            7 
  748000    0.9608435   -7.8829822    187.35913  0.020873344  0.021145556            2 
  749000   0.93439799   -7.9148468     187.0131  0.020806976  0.021127927            5 
  750000   0.94871579   -7.8825445    186.72519  0.020747243  0.021110255            4 
  751000     0.941432   -7.8989898      188.001  0.020861185  0.021092589            2 
  752000   0.93426443   -7.8928816    187.86844  0.020818754  0.021074862            4 
  753000   0.97610705   -7.8792331    187.80825  0.020784445  0.021057437            7 
  754000   0.95550475   -7.8689186    188.58589  0.020842826  0.021040017            5 
  755000   0.93246984   -7.8538401    188.12011  0.020763809  0.021022525            5 
  756000   0.96275187   -7.8751272    187.85393  0.020707003  0.021005017            2 
  757000   0.96141558   -7.8904599    188.15313  0.020712586  0.020987316            7 
  758000   0.93596431   -7.8792295    188.14136  0.020683966  0.020969839            3 
  759000   0.94505293    -7.919522    188.04573  0.020646215  0.020952238            2 
  760000   0.94815119   -7.9651758    187.65025  0.020575685  0.020934639            2 
  761000    0.9513788   -7.9035595    188.42078  0.020633025  0.020916886            3 
  762000   0.94186514    -7.899039    188.41933  0.020605789  0.020899258            1 
  763000   0.96564409   -7.8686402    189.11472  0.020654731  0.020881746            2 
  764000   0.97381372    -7.936677    189.07732  0.020623617  0.020864214            2 
  765000   0.95296298   -7.9116276    189.11977  0.020601282  0.020846611            4 
  766000   0.95029969   -7.9197663    188.56258  0.020513771   0.02082879            2 
  767000   0.92812048   -7.8971067    189.04051  0.020538951  0.020811026            2 
  768000   0.93337081   -7.8930313    189.10068  0.020518737  0.020793521            2 
  769000   0.93542505   -7.9326807    189.05763  0.020487389  0.020776113            3 
  770000   0.95000847    -7.913807    190.02737  0.020565732  0.020758729            4 
  771000   0.93865114   -7.9267416    189.40709  0.020472016  0.020741472            5 
  772000   0.94671408   -7.9182456    190.05796  0.020515756  0.020724242           12 
  773000   0.94687832    -7.929856      189.562  0.020435748  0.020706799            3 
  774000   0.95363882   -7.9183943    190.03188  0.020459935  0.020689395            3 
  775000    0.9592969   -7.9412062    189.89705  0.020419037  0.020672044            2 
  776000   0.94429222   -7.9044304    190.48037  0.020455367  0.020654721            1 
  777000   0.94794411   -7.9551047    190.00645  0.020378212  0.020637521            3 
  778000   0.94823418   -7.9029981    190.45399  0.020399956  0.020620223            3 
  779000    0.9311282   -7.9077509    190.45403  0.020373773  0.020602965            3 
  780000   0.94574196   -7.8953913    191.11328  0.020418085  0.020585718            2 
  781000   0.96217584   -7.9110175    190.94729   0.02037423  0.020568536            1 
  782000   0.94132598    -7.919869    190.42295    0.0202923  0.020551145            3 
  783000    0.9580378   -7.9190864    191.15224  0.020344002  0.020533883            5 
  784000   0.93403508   -7.9411116    191.02988  0.020305046  0.020516773            3 
  785000   0.96458417   -7.9540308    191.50832  0.020329971  0.020499582            6 
  786000   0.93612018   -7.9063979     191.8891  0.020344476  0.020482421            2 
  787000   0.96728425   -7.9359176    191.22361  0.020248158   0.02046525            2 
  788000   0.95411362    -7.985576    190.66198  0.020163069  0.020447932            2 
  789000   0.95139724   -7.9314354    190.84006  0.020156322  0.020430519            3 
  790000   0.94168712   -7.9338737     191.7262  0.020224283  0.020413164            3 
  791000   0.92243704   -7.9047987    191.90953  0.020218029  0.020395917            5 
  792000   0.91825411   -7.9286974     191.4627  0.020145486  0.020378697            3 
  793000    0.9337419   -7.9034433    192.02703  0.020179385  0.020361385            3 
  794000   0.93265237    -7.952509    191.78666  0.020128742  0.020344237            2 
  795000   0.93989916   -7.9110388    191.75934   0.02010056  0.020326778            2 
  796000   0.92833524   -7.9173891    191.42101  0.020039888  0.020309324            2 
  797000   0.92567655   -7.9449345    191.15029  0.019986438  0.020291775            3 
  798000   0.94774286   -7.9454067    191.72905   0.02002183  0.020274124            8 
  799000   0.94945595   -7.8999699    192.43175  0.020070061  0.020256625            3 
  800000    0.9280667   -7.9405648    192.42533  0.020044305  0.020239162            1 
  801000   0.91111692   -7.9233907    192.36062  0.020012549  0.020221668            1 
  802000   0.91804202   -7.9529743    191.65917   0.01991471  0.020204245            2 
  803000     0.935587   -7.9947012    191.58514  0.019882227  0.020186578            2 
  804000   0.94676748   -7.9802122    192.12532  0.019913487  0.020168949            5 
  805000   0.92788606   -7.9542557    192.56266  0.019934023  0.020151395            4 
  806000   0.93829808   -7.9683042    192.22934  0.019874829  0.020133981            4 
  807000   0.91278902   -7.9560855    192.68629  0.019897386  0.020116292            4 
  808000   0.92921204    -7.958694    192.24611  0.019827363  0.020098695            2 
  809000   0.94168638   -7.9882853    192.44206  0.019823039  0.020081202            2 
  810000   0.91431405   -7.9678471    192.66016  0.019821004  0.020063742            2 
  811000   0.92948623   -7.9635046    192.48825    0.0197789  0.020046282            3 
  812000   0.93768332   -7.9924209    193.05008    0.0198122  0.020028602            6 
  813000   0.92507365   -7.9790984    191.90134  0.019670084  0.020010683            5 
  814000   0.91721596   -7.9857746    192.91582  0.019749776  0.019992897            2 
  815000   0.94486362    -7.955991    192.54315  0.019687439  0.019975131            3 
  816000   0.91802537   -7.9935757     192.8678  0.019696467  0.019957462            6 
  817000   0.93490669   -7.9590311    193.14736  0.019700873  0.019939746            4 
  818000   0.92192559   -7.9457968    193.42117  0.019704683  0.019922237            5 
  819000   0.92686281   -7.9618666    193.10489  0.019648442  0.019904551            2 
  820000   0.92847166   -7.9824979    193.24773  0.019638997   0.01988697            3 
  821000    0.9301275   -7.9577554    193.32547  0.019622966  0.019869409            2 
  822000   0.93913531   -7.9531862    193.94689  0.019662094  0.019852014            2 
  823000   0.91655477   -7.9725832    194.34633  0.019678648  0.019834852            4 
  824000   0.90566122   -7.9887149    193.65605  0.019584956  0.019817526            3 
  825000    0.9314234   -7.9724593    194.01194  0.019597166  0.019800251            1 
  826000   0.92970161   -7.9728624    194.59826  0.019632593  0.019782887            3 
  827000    0.9182311   -7.9706073     194.5755   0.01960656  0.019765783            3 
  828000   0.91568603   -7.9414531    194.65819  0.019591202  0.019748841            3 
  829000   0.92463849   -7.9913348     194.3715  0.019538751  0.019731702            2 
  830000   0.89897908   -8.0131834    194.73255  0.019551461   0.01971449            5 
  831000   0.93224673   -7.9676832    194.90816  0.019545543  0.019697328            3 
  832000    0.9264683   -7.9907004    194.55126  0.019486304  0.019680156            3 
  833000   0.91448936   -7.9646061    194.63697  0.019471485  0.019662916            4 
  834000   0.92524513   -8.0013851    195.11354  0.019495757  0.019645853            6 
  835000   0.92109812   -7.9756781    194.80662  0.019441779  0.019628794            2 
  836000   0.92407675   -7.9867024    195.46903  0.019484552  0.019611604            3 
  837000   0.91706325   -7.9702771    195.98833  0.019512976   0.01959465            3 
  838000   0.93164472   -8.0518399    195.15301  0.019406623  0.019577801            3 
  839000   0.92592991   -8.0053763     195.2264  0.019390783  0.019560811            5 
  840000   0.91179562   -8.0044486    195.62548   0.01940729  0.019543996            2 
  841000   0.92081594   -8.0073612    196.03935  0.019425223  0.019527206            3 
  842000    0.9354396   -7.9985364    195.37893   0.01933679  0.019510466            5 
  843000   0.93278787   -8.0169734    195.61651  0.019337338  0.019493624            5 
  844000   0.91192378   -8.0131025    195.94134  0.019346499  0.019476812            2 
  845000   0.92919446   -8.0321651    196.02001  0.019331362  0.019460103            3 
  846000   0.92648137   -8.0368181    196.27344  0.019333475  0.019443264            3 
  847000   0.90972624   -7.9556089    196.39565  0.019322673  0.019426719            3 
  848000   0.92578237   -8.0163986    196.47571  0.019307754  0.019410015            3 
  849000   0.90395718   -7.9791366    196.79371  0.019316226  0.019393406            3 
  850000   0.91467793   -7.9728412    197.22635  0.019335917  0.019376773            2 
  851000   0.91524049   -7.9871216    196.80022  0.019271467  0.019360216            5 
  852000   0.89449448   -7.9919262    197.22461  0.019290357  0.019343812            2 
  853000   0.93338941   -8.0076039    196.62657  0.019209317  0.019327278            2 
  854000   0.88470253   -8.0200461    196.85177  0.019208799   0.01931067            5 
  855000   0.89990217   -8.0224227     197.5565   0.01925502  0.019294139            2 
  856000   0.92293883   -7.9918045    197.49154  0.019226201  0.019277611            3 
  857000   0.90178904    -7.998408       197.08  0.019163749  0.019261142            4 
  858000   0.88846684   -8.0146646    197.38128  0.019170676  0.019244579            3 
  859000   0.90428707   -8.0329416    197.27922  0.019138458  0.019227963            2 
  860000   0.91437931   -8.0295632    197.62729  0.019149931  0.019211466            2 
  861000   0.89308166   -7.9919552    198.05212  0.019168807  0.019194954            2 
  862000   0.91271238   -8.0463606    197.54003  0.019097064  0.019178466            2 
  863000   0.90761968   -8.0153312    197.55173  0.019076065  0.019162022            3 
  864000   0.91285291   -8.0211212    197.57414  0.019056148  0.019145683            4 
  865000   0.91299759   -8.0070214    197.41402  0.019018692  0.019129246            3 
  866000   0.90473886   -7.9871655    197.99582  0.019052716   0.01911276            2 
  867000   0.91140828   -8.0111032    198.05096   0.01903604   0.01909636            2 
  868000   0.90663806   -8.0249293    197.87978  0.018997675  0.019079879            6 
  869000   0.91286773   -8.0171081    197.85621  0.018973553  0.019063396            1 
  870000   0.89497783   -8.0029481    198.65031  0.019027807  0.019047021            2 
  871000   0.91321739   -8.0257803    198.12068  0.018955289  0.019030602            3 
  872000   0.89902563   -8.0079735    198.17468  0.018938711  0.019014266            3 
  873000   0.88132559    -8.035131    198.26167  0.018925322  0.018997867            2 
  874000   0.88500646    -8.033566    198.42787  0.018919514  0.018981398            4 
  875000   0.90330347   -8.0152528    198.92728  0.018945455  0.018965066            8 
  876000   0.91150094   -8.0186264    198.94412   0.01892543  0.018948726            2 
  877000   0.92069716   -8.0400485    198.65736  0.018876602  0.018932467            3 
  878000   0.89815349   -8.0582501    199.21372  0.018907908   0.01891625            2 
  879000   0.90440744     -8.06221    199.13985  0.018879395  0.018899946            8 
  880000   0.88681662   -8.0760319    198.88318  0.018833635  0.018883562            6 
  881000   0.91992869   -8.0539002    198.87768  0.018811736  0.018867143            3 
  882000   0.92120712   -8.0465383    199.53063    0.0188521   0.01885081            4 
  883000   0.89553859   -8.0432589    199.29741   0.01880874  0.018834631            3 
  884000   0.90123502   -8.0328961     199.3277  0.018790318  0.018818485            3 
  885000   0.90843021   -8.0227553    198.96515  0.018734948  0.018802315            8 
  886000   0.89146782   -8.0124246    199.76612  0.018789139  0.018786274            2 
  887000   0.89664101   -8.0254197    199.73909  0.018765416  0.018770296            4 
  888000   0.90175919   -8.0274639    199.95017  0.018764093   0.01875414            3 
  889000   0.91051736    -8.076926    198.89316  0.018643903  0.018737863            2 
  890000   0.89906054   -8.0839212    198.84426  0.018618377  0.018721508            7 
  891000   0.90367826   -8.0726515     199.1348  0.018624654  0.018705257            3 
  892000   0.89019096   -8.0755078    200.01297  0.018685816  0.018689021            4 
  893000    0.8909646    -8.074575     200.2455  0.018686591  0.018672818            3 
  894000    0.8958833   -8.0793129    200.12448  0.018654407  0.018656889            3 
  895000   0.88148927   -8.0492374    200.70841  0.018687934  0.018641011            3 
  896000   0.89485286   -8.1176316    199.63754   0.01856748  0.018624987            6 
  897000   0.89732629   -8.0752405     200.5363  0.018630277  0.018609016            6 
  898000   0.89251286   -8.0614957    200.44552  0.018601106  0.018593151            5 
  899000   0.89009184   -8.0529485    200.63937  0.018598384  0.018577244            3 
  900000   0.90440917   -8.0639749    200.91706  0.018603432  0.018561451            4 
  901000    0.8844059   -8.0588921    201.05784  0.018595805  0.018545717            2 
  902000   0.90272589   -8.0646557    201.21442  0.018589654  0.018530021            4 
  903000    0.8924043     -8.06315     201.3713  0.018583545  0.018514436            6 
  904000    0.8926707   -8.0433194    201.73809    0.0185968  0.018498778            3 
  905000   0.87204672   -8.0322579    201.84033  0.018585666  0.018483335            7 
  906000   0.88684591   -8.0231172    201.78213  0.018559798  0.018468014            6 
  907000    0.8884048   -8.0605981    201.08984   0.01847573  0.018452425            1 
  908000   0.88044534   -8.0719175    201.48545   0.01849169  0.018436833            6 
  909000   0.88741348   -8.0732082    202.02237   0.01852057  0.018421326            4 
  910000   0.87523627   -8.0743661    202.02979  0.018500897  0.018405869            5 
  911000   0.90892251   -8.0514728    201.85803  0.018464877    0.0183904            5 
  912000   0.89020241   -8.1057252    202.52969  0.018506002  0.018375085            2 
  913000   0.88758575   -8.0681836    202.49366  0.018482444  0.018359821            4 
  914000   0.89160184   -8.0923292    202.56697  0.018468907  0.018344626            9 
  915000   0.89546862   -8.0943271    202.49214  0.018441907  0.018329394            8 
  916000   0.88834615   -8.0886696    202.97837  0.018466009  0.018314183            1 
  917000   0.88079891   -8.0735682    202.79593  0.018429292  0.018299097            3 
  918000   0.88681028   -8.1030288    202.79664  0.018409281  0.018283914            6 
  919000    0.9104801   -8.1032564    202.60779  0.018372124  0.018268507            4 
  920000   0.88295069   -8.0766172    202.86211  0.018375191  0.018253262            3 
  921000   0.89782107    -8.104486    202.79525   0.01834919  0.018238034            1 
  922000   0.87568675   -8.0913863    203.38014  0.018382153  0.018222901            3 
  923000   0.89114159    -8.102495    203.14089  0.018340637  0.018207876            5 
  924000    0.8735333   -8.0902157    203.77352  0.018377843  0.018192879            3 
  925000   0.87567699   -8.0689705    203.53434  0.018336427  0.018177867            2 
  926000   0.89028319   -8.0756762    203.37595  0.018302372  0.018162824            6 
  927000   0.86468872   -8.0843982    203.50062  0.018293835   0.01814782            2 
  928000   0.89243632   -8.1088609    203.52963  0.018276727  0.018132713            5 
  929000   0.88637325   -8.0989313    203.20895  0.018228288  0.018117737            7 
  930000   0.87463606   -8.0902611    203.80427  0.018262032  0.018102821            1 
  931000   0.89134953   -8.0919141    204.37631  0.018293619  0.018088073            3 
  932000   0.88709219   -8.0693325    203.99986  0.018240331  0.018073312            5 
  933000   0.88719346   -8.0993872     204.3937  0.018255957   0.01805853            1 
  934000   0.87974562   -8.0783654    204.62139  0.018256726  0.018043782            2 
  935000   0.88605423   -8.0759324     204.2532  0.018204385   0.01802906            5 
  936000   0.86964733   -8.0946896    204.40889  0.018198797  0.018014311            2 
  937000    0.8783816   -8.0894114     204.1026  0.018152134  0.017999619            3 
  938000   0.88093012   -8.0969275    204.78562  0.018193463  0.017984889            3 
  939000   0.89487275   -8.0663692    205.08077  0.018200282  0.017970102            2 
  940000   0.88605934   -8.0968927    204.33769  0.018115043  0.017955277            4 
  941000   0.88400537   -8.1416504    203.95881   0.01806224  0.017940462            5 
  942000   0.87628423   -8.0746457    205.10389  0.018144364  0.017925713            4 
  943000   0.87318017   -8.0710962    205.80647   0.01818721  0.017911071            2 
  944000   0.87207169   -8.0971369    204.72932  0.018072856  0.017896431            4 
  945000   0.87859169   -8.1322345    204.91867  0.018070429  0.017881748           15 
  946000   0.86912448   -8.1060308    204.88307  0.018048191  0.017867038            6 
  947000   0.87452125   -8.1367454    204.79117  0.018021047  0.017852135           11 
  948000   0.88060041   -8.1293042    205.00534  0.018020863  0.017837254            6 
  949000   0.88074623   -8.0840389    205.16312  0.018015729  0.017822543            4 
  950000   0.87437647   -8.1259795    204.77176  0.017962435  0.017807876            2 
  951000   0.88635162   -8.1049119    205.81842  0.018035263  0.017793101            4 
  952000   0.87902244   -8.1288444    205.36096  0.017976275  0.017778416           10 
  953000   0.88497463   -8.1322395     205.1218  0.017936498  0.017763747           12 
  954000   0.87811885   -8.1424833    205.00296  0.017907316  0.017748968            2 
  955000   0.88095667   -8.1602848    205.08655  0.017895859  0.017734179            5 
  956000   0.87639781   -8.1235295    205.55451  0.017917932  0.017719399            2 
  957000   0.86100179   -8.1216344    205.61528    0.0179045  0.017704606            4 
  958000   0.87650663   -8.1030185    205.11034  0.017841888  0.017689851            4 
  959000   0.87130836   -8.1122225    205.95721  0.017896873  0.017675091            2 
  960000   0.89831783   -8.1596553    205.73789  0.017859192  0.017660342            3 
  961000   0.88363673   -8.1473232    205.63955   0.01783208  0.017645578            9 
  962000   0.85256636    -8.144252    205.42979  0.017795373  0.017630782            3 
  963000   0.86538873   -8.1183186    206.15486  0.017839638  0.017616099            8 
  964000   0.87090048   -8.1637799    205.75059  0.017786185  0.017601416            4 
  965000   0.86731884   -8.1645655    206.47355  0.017830185  0.017586595            5 
  966000   0.86280817   -8.1387243    205.58857  0.017735384   0.01757183            2 
  967000   0.85222587   -8.1536869    205.97756  0.017750566  0.017557117            3 
  968000   0.85772007   -8.1551919    205.73046  0.017710955  0.017542365            2 
  969000   0.88184866   -8.0987783    206.30241  0.017741865   0.01752765            3 
  970000   0.86704933   -8.1157927    206.31238  0.017724431  0.017513081            2 
  971000   0.86154162   -8.0931682    206.73559  0.017742498  0.017498565            2 
  972000    0.8552256    -8.118125    207.05067  0.017751258  0.017484022            2 
  973000   0.87267055   -8.1197125    206.86034  0.017716713   0.01746949            3 
  974000   0.85876437   -8.1540838    206.69536  0.017684408  0.017454958            5 
  975000   0.85912249    -8.159272    206.91784  0.017685285  0.017440505            4 
  976000   0.86223314   -8.1162072    206.76855  0.017654418   0.01742601            7 
  977000   0.86458704   -8.1505472     206.8306  0.017641641  0.017411481           12 
  978000   0.86963361   -8.1217005    206.94539  0.017633383  0.017396791            3 
  979000   0.86819563   -8.1389241    206.16768  0.017549173  0.017382082           13 
  980000   0.86475964   -8.1538301     206.0242  0.017519064   0.01736733            4 
  981000   0.87037133   -8.1743118    206.13299  0.017510447  0.017352459            5 
  982000   0.85505542   -8.1511751    206.08867  0.017488855   0.01733762            4 
  983000    0.8616908   -8.1819975    206.45439  0.017502068  0.017322801            2 
  984000   0.86127004   -8.1766839    206.30628  0.017471738  0.017308085            4 
  985000   0.87246129   -8.1358268    206.14905  0.017440698   0.01729341            3 
  986000   0.84932226   -8.1414744    206.56082  0.017457811  0.017278603            5 
  987000   0.87186173    -8.174867     206.5684  0.017440763  0.017263869            3 
  988000   0.85964133   -8.1674626    206.71381  0.017435375  0.017249244            3 
  989000   0.87315437   -8.1449468     206.8884  0.017432457  0.017234524            1 
  990000   0.85260572   -8.1306136    207.46803  0.017463639  0.017219942            3 
  991000   0.85374005   -8.1770134    206.61672   0.01737443  0.017205279            6 
  992000   0.86360513   -8.1463118    207.26279  0.017411189  0.017190672            4 
  993000   0.87528789   -8.1789124    206.48084  0.017328033  0.017176068            3 
  994000   0.86032467   -8.1766579     207.2026   0.01737111  0.017161357            2 
  995000   0.84765438   -8.1649303    207.41737  0.017371639   0.01714662            9 
  996000   0.85802037   -8.1926199    206.88665  0.017309793   0.01713186            4 
  997000   0.86410874   -8.1767565    207.14414  0.017313953  0.017117133            4 
  998000   0.85365001   -8.1851515    207.24106  0.017304698  0.017102485            1 
  999000   0.86167982    -8.169497    207.11952  0.017277237  0.017087887            2 
 1000000   0.85901295   -8.1531516    207.32267  0.017276889  0.017073282            4 
 1001000   0.84954489   -8.1784491    207.50424  0.017274745  0.017058623            3 
 1002000   0.85501415   -8.1918201    207.70529  0.017274226  0.017044049            3 
 1003000   0.85201172   -8.1867585      207.325  0.017225407  0.017029382            4 
 1004000    0.8497619   -8.1992846    207.11186  0.017190559  0.017014681            6 
 1005000   0.84966437   -8.1826041    207.10493   0.01717288  0.017000026            2 
 1006000   0.85784547   -8.1691475    207.70639  0.017205632   0.01698541            6 
 1007000   0.84614088   -8.1635433    208.11233  0.017222139  0.016970851            3 
 1008000   0.84455943    -8.169959    207.53204   0.01715708  0.016956301            9 
 1009000   0.86529158   -8.1920903     207.9546  0.017174975  0.016941683            3 
 1010000   0.85533122   -8.1956351     207.6883  0.017135998  0.016927122            2 
 1011000   0.85323613   -8.1705389    208.89467  0.017218486  0.016912689            5 
 1012000   0.82686786   -8.1577235    208.17516  0.017142224  0.016898259            6 
 1013000   0.84764092   -8.2022334    207.94574  0.017106428  0.016883759            1 
 1014000   0.84478231   -8.1726988    208.29027  0.017117873  0.016869243            3 
 1015000   0.86219156    -8.208209    208.06672  0.017082653  0.016854822            3 
 1016000   0.85152285   -8.2214765    208.37161  0.017090847  0.016840369            7 
 1017000   0.85736589    -8.212168    208.34644   0.01707198  0.016825967            2 
 1018000    0.8536485   -8.2346352    207.92857  0.017021003  0.016811634            4 
 1019000   0.84056633   -8.1811167     208.4076  0.017043474  0.016797249            3 
 1020000   0.85928098    -8.199442    208.47265  0.017032079  0.016782898            2 
 1021000   0.84936775   -8.1749761    209.07581  0.017064627  0.016768624            2 
 1022000   0.86073158   -8.1902558    208.77398  0.017023319  0.016754321            3 
 1023000   0.84809896   -8.1757208    209.00296  0.017025331  0.016740064            4 
 1024000   0.85219156   -8.2061169    208.61424   0.01697707  0.016725873            5 
 1025000   0.85159885    -8.211026    208.89074  0.016982987  0.016711606            5 
 1026000   0.84002168   -8.1842383    208.93641  0.016970144  0.016697413            5 
 1027000   0.82875035   -8.2150044    208.93877  0.016953812  0.016683166            8 
 1028000   0.86516876   -8.2381008    208.53008  0.016904189  0.016668822            7 
 1029000   0.85859797   -8.2003993    208.79151  0.016908933  0.016654464            5 
 1030000   0.83041652   -8.2261366    208.32658  0.016854901  0.016640022            4 
 1031000   0.84034407   -8.2346009    208.68637  0.016867634  0.016625507            7 
 1032000   0.83690209    -8.262196    208.43832  0.016831259  0.016611048            7 
 1033000   0.86546685   -8.2062393    208.89206   0.01685157  0.016596568           13 
 1034000   0.85750696   -8.2296103    208.44702  0.016799406  0.016582147            3 
 1035000   0.82501459   -8.1854215    209.44196  0.016863282  0.016567705            6 
 1036000    0.8375121   -8.2146277    208.84264  0.016798797  0.016553397            3 
 1037000   0.82973708   -8.2126101    208.83376  0.016781883  0.016539109           12 
 1038000   0.84243377   -8.1987755    209.37013  0.016808778  0.016524859            3 
 1039000   0.82431124   -8.1923526    209.67499  0.016817051  0.016510678            6 
 1040000   0.86143068   -8.1985682    210.00762  0.016827534  0.016496553            1 
 1041000   0.83615175   -8.2110569    209.31594  0.016755999  0.016482338            7 
 1042000   0.84804901   -8.2129375    209.45329  0.016750903  0.016468141            4 
 1043000   0.83587503   -8.2222362    209.92997  0.016772928  0.016454052            5 
 1044000    0.8519413   -8.2508924    209.05961  0.016687389  0.016439923            2 
 1045000   0.82491071   -8.2014753    209.87629  0.016736546  0.016425776            4 
 1046000    0.8363257   -8.2435496    209.36238  0.016679603  0.016411674            2 
 1047000   0.83508913   -8.2210339    209.49098  0.016673908  0.016397559            2 
 1048000   0.83060361   -8.2382397    209.81515  0.016683775   0.01638335            2 
 1049000   0.82796218   -8.2396892    209.52111  0.016644512  0.016369127            2 
 1050000   0.82199098   -8.2511281    210.03941  0.016669794  0.016354925            7 
 1051000   0.82789973   -8.2598775    209.05101  0.016575563  0.016340722            2 
 1052000   0.84124464   -8.2469081    209.25757   0.01657617  0.016326463            3 
 1053000   0.80807425   -8.2178679     209.5429  0.016583009  0.016312093            2 
 1054000   0.83695101   -8.2586182    209.13558  0.016535071   0.01629776            3 
 1055000   0.82674957   -8.2508967    209.69334  0.016563455  0.016283423            2 
 1056000   0.82766701   -8.2300502    209.76547  0.016553462   0.01626912            4 
 1057000   0.82259267   -8.2713393    209.27519  0.016499148   0.01625481            3 
 1058000   0.82591053   -8.2635794    209.52366  0.016503124  0.016240477            4 
 1059000   0.81886719   -8.2154473    209.47795  0.016483943  0.016226265            8 
 1060000   0.84289556   -8.2469652     209.5757  0.016476077  0.016212143            5 
 1061000   0.82836972    -8.288528    209.45171   0.01645081  0.016197933            4 
 1062000   0.82646623   -8.2021666    209.99171  0.016477692  0.016183771            5 
 1063000   0.82256696   -8.2302143    210.07632  0.016468824  0.016169588            5 
 1064000   0.81536029   -8.2516255    209.64591  0.016419635  0.016155474            3 
 1065000   0.81576845   -8.2341507    210.40381  0.016463522  0.016141315            7 
 1066000   0.82315078   -8.2288515    210.00076   0.01641657  0.016127141            7 
 1067000   0.83623501    -8.192027    210.40531  0.016432779  0.016112953            5 
 1068000   0.82761775   -8.2749809    209.90503  0.016378358  0.016098799            3 
 1069000    0.8400905   -8.2588643    210.09131  0.016377558    0.0160847            5 
 1070000   0.83627367   -8.2344061    210.50261  0.016394284  0.016070639            5 
 1071000   0.82291415   -8.2393275    210.17147  0.016353211  0.016056589            5 
 1072000   0.81932839   -8.2613623    210.19566  0.016339837  0.016042524            5 
 1073000   0.83030625   -8.2549009     210.3206  0.016334312  0.016028428            4 
 1074000    0.8210164   -8.2573657    210.57052  0.016338495  0.016014403            6 
 1075000   0.82202208   -8.2342193    210.46905   0.01631543  0.016000412            5 
 1076000   0.80620678   -8.2661932    210.35735  0.016291617   0.01598632            3 
 1077000   0.82152844   -8.2881012    210.99651  0.016325945  0.015972281            4 
 1078000   0.83421952   -8.2832763    210.40569  0.016265128   0.01595815            4 
 1079000   0.81808812   -8.2864754    210.02654   0.01622077   0.01594402            3 
 1080000   0.83502515   -8.2572982    210.32824  0.016229031   0.01592991            9 
 1081000   0.83135721   -8.2522512    210.11099   0.01619727  0.015915914            1 
 1082000   0.82343992   -8.2666491    210.62454  0.016221853  0.015901897            8 
 1083000   0.81830346   -8.2682705    210.52495  0.016199211  0.015887891            6 
 1084000   0.82697595   -8.2872527     210.7207  0.016199315  0.015873867            2 
 1085000   0.81543045   -8.2550837    210.54223  0.016170678  0.015859953            5 
 1086000   0.83634207   -8.2820399    210.75778  0.016172328  0.015846079            3 
 1087000   0.81472909   -8.2809892    210.62654  0.016147389  0.015832179            8 
 1088000   0.83438615   -8.3061856    210.36424  0.016112457  0.015818254            2 
 1089000   0.81400116   -8.3056322    210.46028   0.01610501   0.01580427            9 
 1090000   0.82383547   -8.3144235    210.13709  0.016065526  0.015790292            3 
 1091000   0.79858518   -8.3318471    210.63137  0.016088555  0.015776346           10 
 1092000   0.80916733   -8.3180113    210.67934  0.016077483  0.015762386            5 
 1093000    0.8229955    -8.297696    210.36913  0.016039122  0.015748468            7 
 1094000   0.81132847   -8.3252287    210.78179  0.016055895  0.015734518           10 
 1095000   0.81392402    -8.318437    210.71954  0.016036495  0.015720543            6 
 1096000   0.83827058   -8.2885798    210.21392  0.015983418  0.015706615            6 
 1097000   0.81721293   -8.3240304    210.58048  0.015996694  0.015692711            7 
 1098000   0.83036764   -8.2909846    210.61295   0.01598459  0.015678849            5 
 1099000   0.82039076   -8.2819871    211.21341  0.016015575  0.015664999            8 
 1100000   0.81372063   -8.2853804    211.23022  0.016002289    0.0156512            4 
 1101000   0.80189284   -8.3299819     211.3257  0.015994982  0.015637359            6 
 1102000   0.81516468   -8.3116459    210.90307  0.015948508  0.015623535            7 
 1103000     0.815078   -8.2777158     211.4094  0.015972303  0.015609747            6 
 1104000   0.82581044   -8.2816661    211.63109  0.015974569   0.01559609            5 
 1105000   0.82818237   -8.2886199    211.54987  0.015953987  0.015582418            2 
 1106000   0.80614604   -8.2895722    211.66922  0.015948555  0.015568787            3 
 1107000   0.82282301   -8.2773726    211.78889  0.015943156  0.015555233            7 
 1108000   0.81235484   -8.2755593    211.38743  0.015898573  0.015541683            5 
 1109000   0.80257283   -8.2915555    211.50721  0.015893238  0.015528057            4 
 1110000   0.81270378   -8.2940134    211.54586  0.015881822  0.015514458            6 
 1111000   0.79816881   -8.2613326     211.7909  0.015885906  0.015500913            3 
 1112000   0.80764166   -8.3321995    212.10853  0.015895424  0.015487419            4 
 1113000   0.80213503   -8.2890192    212.21323  0.015888981  0.015473862            7 
 1114000   0.80371026   -8.3119752    212.32906  0.015883383  0.015460511            2 
 1115000   0.80172061   -8.3006308    212.39621  0.015874156  0.015447084            3 
 1116000   0.79240223   -8.3388253    211.62763  0.015802541  0.015433651            5 
 1117000   0.80663006   -8.3015841    212.08974  0.015822869  0.015420211            4 
 1118000   0.79217116   -8.3179518    211.78662  0.015786123  0.015406747            4 
 1119000   0.80342801   -8.3049879    212.36636  0.015815189  0.015393359            6 
 1120000   0.83109703   -8.3335182    211.96804  0.015771431  0.015380036            4 
 1121000   0.81356014    -8.284011    212.94172  0.015829744  0.015366711            3 
 1122000   0.81129794   -8.2830398    212.93897  0.015815431  0.015353409            5 
 1123000   0.80113348   -8.3032315    211.99035  0.015730955  0.015340097            5 
 1124000   0.80748173   -8.3100008    212.15545    0.0157292  0.015326786            2 
 1125000   0.79353933   -8.3024778    212.22389  0.015720288  0.015313477            8 
 1126000   0.81521364   -8.2851044    212.45225  0.015723228  0.015300226           14 
 1127000   0.79546145   -8.3128584    212.60656  0.015720686  0.015286976            4 
 1128000   0.79240846   -8.2862561    212.55217  0.015702731  0.015273674            2 
 1129000   0.80658486   -8.3319266    212.16869  0.015660517  0.015260353            5 
 1130000   0.78587368    -8.306404    212.33626  0.015659016  0.015247036            8 
 1131000   0.81794498   -8.2821891    213.07657  0.015699718  0.015233752            8 
 1132000   0.80358041    -8.307554    212.45483  0.015640078  0.015220492            5 
 1133000   0.80399637   -8.3010543    212.42915  0.015624386  0.015207186            4 
 1134000   0.80237924   -8.3203777     212.1328   0.01558883  0.015193817            8 
 1135000    0.7995725   -8.3012392    212.67331  0.015614781  0.015180414            9 
 1136000    0.7887718   -8.3336367    212.56522  0.015593106  0.015167038            6 
 1137000   0.79310541   -8.3486571    212.52545  0.015576477  0.015153699            7 
 1138000   0.79346895   -8.3166258    212.18802   0.01553808  0.015140315            7 
 1139000   0.80321617   -8.3465116    212.13887  0.015520842   0.01512686            3 
 1140000   0.79004078    -8.326467    212.31979  0.015520453  0.015113398            2 
 1141000    0.7982585   -8.3598086    212.40168  0.015512831  0.015099988            3 
 1142000   0.78298004   -8.3462002    212.23167  0.015486841  0.015086533           10 
 1143000   0.79496998   -8.3639879    211.85029  0.015445486  0.015073044            6 
 1144000   0.79026116   -8.3636014    212.18575  0.015456421  0.015059619            9 
 1145000   0.80181711   -8.3648078    212.53842   0.01546859  0.015046222           28 
 1146000   0.81855956   -8.3359715    212.88082   0.01547999   0.01503285            9 
 1147000   0.80261964   -8.3538182    212.75154  0.015457101  0.015019504            4 
 1148000   0.76797458   -8.3532314    212.30585  0.015411284  0.015006191            5 
 1149000   0.81683099    -8.373161    212.22387  0.015391925  0.014992809            2 
 1150000   0.79731119   -8.3469945    212.10533  0.015369952  0.014979421            3 
 1151000   0.78262161   -8.3521241    212.38134  0.015376581  0.014966059            6 
 1152000   0.79382888   -8.3458023     212.4919  0.015371231  0.014952721            3 
 1153000    0.7953253   -8.3261821    212.83811  0.015382922  0.014939456            6 
 1154000   0.78983411   -8.3589088    212.62133  0.015353937  0.014926201            4 
 1155000   0.81198824   -8.3598401    212.76731  0.015351177  0.014912885            5 
 1156000   0.79901636   -8.3701513    212.07814  0.015288217  0.014899533            4 
 1157000   0.79987818   -8.3400234    212.61769  0.015313864  0.014886227            6 
 1158000    0.7901942   -8.3756849    212.72033  0.015308026  0.014872906            5 
 1159000   0.76968466   -8.3821235    212.26361  0.015261979   0.01485958            4 
 1160000   0.77475417    -8.409796     212.5571  0.015269906   0.01484621            4 
 1161000   0.78846268   -8.3827437    212.86433  0.015278806  0.014832891            6 
 1162000    0.7908166   -8.3825906    212.43446  0.015234829  0.014819658            2 
 1163000   0.79425888   -8.3716285    212.72166  0.015242309  0.014806419            5 
 1164000   0.78485556   -8.3582595    212.76366  0.015232221  0.014793196            5 
 1165000   0.79856674   -8.3997557    212.55319  0.015204091  0.014780018            4 
 1166000   0.79130659   -8.3615092    213.01843  0.015224302  0.014766879            5 
 1167000   0.78752044   -8.3938261    212.67498  0.015186731  0.014753784            7 
 1168000   0.78310072   -8.3736109    213.12504  0.015205839  0.014740654            3 
 1169000   0.80723208   -8.3603594    212.91637  0.015177956    0.0147275            7 
 1170000    0.7695167   -8.3327814    213.27487  0.015190518  0.014714373            6 
 1171000   0.80407298   -8.3758698    212.58841  0.015128694  0.014701313            5 
 1172000   0.79259648   -8.3919527    212.74865   0.01512718  0.014688224            6 
 1173000    0.7781453   -8.3881461    212.90504  0.015125393   0.01467512            4 
 1174000   0.78898755    -8.368617    213.17201   0.01513146   0.01466199            5 
 1175000   0.78164454   -8.3774093    213.42738  0.015136693  0.014648993           10 
 1176000   0.79661213   -8.4210059     212.4904  0.015057426  0.014635915            3 
 1177000   0.78352719   -8.3814827    212.79018  0.015065858  0.014622804            6 
 1178000   0.77101947   -8.4036473    212.64644  0.015042901  0.014609662            9 
 1179000   0.78045833   -8.3857664    212.43615  0.015015277  0.014596489            5 
 1180000    0.7831391   -8.3885936    212.75449  0.015025035  0.014583363            2 
 1181000   0.76542651   -8.3898646    213.18533  0.015042713  0.014570319            6 
 1182000   0.77077265    -8.384943    213.11774  0.015025221  0.014557225            6 
 1183000   0.79318702   -8.3974575    212.85335  0.014993896  0.014544144           11 
 1184000   0.77869062   -8.3624352     213.1871  0.015004723  0.014531057            9 
 1185000   0.79940719   -8.3802604    213.60479  0.015021434  0.014517995            8 
 1186000   0.76017343    -8.413493     212.8919  0.014958678  0.014504964            4 
 1187000   0.77439621    -8.384614    213.08868  0.014959891  0.014491935            4 
 1188000   0.78547498    -8.392835    212.88638  0.014933107  0.014478864            8 
 1189000   0.77888165    -8.373705    212.73921  0.014910233  0.014465831            5 
 1190000   0.75824169   -8.4018952    213.22228  0.014931532  0.014452809            6 
 1191000   0.77106364   -8.4249265    212.87108  0.014894422  0.014439785            2 
 1192000     0.782117   -8.3985392    212.81008  0.014877662  0.014426743            4 
 1193000   0.77610603    -8.428167    212.59008  0.014849824  0.014413674            5 
 1194000   0.76763406   -8.3735877    213.20634  0.014880398  0.014400677            5 
 1195000   0.78350291   -8.3835371     212.8101  0.014840314  0.014387651            3 
 1196000   0.79320333   -8.4291658     213.0879  0.014847262  0.014374641            4 
 1197000   0.77146104   -8.4111628    212.91169  0.014822591  0.014361612            9 
 1198000   0.76371248   -8.4211145    212.71326  0.014796415  0.014348559            4 
 1199000   0.76900648   -8.4045136    212.59843  0.014776094  0.014335507            5 
 1200000   0.77888688   -8.4327169    212.33446  0.014745448  0.014322422            2 
 1201000   0.78297258   -8.4113812    212.72219  0.014760074  0.014309359            4 
 1202000   0.78328503   -8.4103258    213.41233  0.014795641  0.014296364            6 
 1203000   0.77840696   -8.4333496     212.9071  0.014748345  0.014283331           14 
 1204000   0.76834998   -8.3968708    212.92992  0.014737675  0.014270363            7 
 1205000   0.76709249   -8.4196578    213.13536  0.014739651    0.0142574            3 
 1206000   0.78180188   -8.4234418    213.18473  0.014730841    0.0142445            3 
 1207000   0.79866405   -8.3991077    212.95805  0.014702986  0.014231632            5 
 1208000   0.76083861    -8.395375    212.96241  0.014691116  0.014218795            4 
 1209000   0.77326547   -8.4050776    213.13371  0.014690771  0.014205936            3 
 1210000   0.75456217   -8.4003316    213.67121  0.014715648  0.014193058            2 
 1211000   0.76965761   -8.3941425    213.31412  0.014678924  0.014180227            5 
 1212000   0.76614415    -8.411006    213.49139  0.014679001  0.014167404            3 
 1213000   0.77136339    -8.407987    213.44946  0.014664019  0.014154626            2 
 1214000   0.77419998   -8.4184632    212.96423  0.014618632  0.014141829            5 
 1215000   0.76386754   -8.4456933    212.92709  0.014604053  0.014129035            5 
 1216000   0.76288114    -8.423411    213.06855  0.014601738  0.014116229            8 
 1217000   0.77280384   -8.4324899    213.33192  0.014607773  0.014103389            3 
 1218000   0.77256605   -8.3888519    213.53478  0.014609659   0.01409059            4 
 1219000   0.76524012   -8.4383245    213.51809  0.014596534   0.01407781            5 
 1220000   0.77859685   -8.4513011    212.71853  0.014529954  0.014065018            2 
 1221000   0.76815203   -8.4280154    213.25051  0.014554362  0.014052189           11 
 1222000    0.7663887   -8.4352855    212.83271   0.01451396  0.014039398            8 
 1223000   0.76386979    -8.436674     213.0481  0.014516769  0.014026617            5 
 1224000   0.76142475   -8.4498744    213.38768  0.014528029  0.014013872            4 
 1225000   0.76425187   -8.4151779    213.76357  0.014541739  0.014001123            5 
 1226000   0.76422831   -8.4401618    213.42304  0.014506732  0.013988389            5 
 1227000   0.77958392   -8.4391269    213.74881  0.014517034  0.013975669            6 
 1228000   0.75524074   -8.4256872    213.46389  0.014485877  0.013962932            2 
 1229000   0.76555221   -8.4413643    213.61685  0.014484462  0.013950242            2 
 1230000   0.76638361   -8.4517565    213.22792  0.014446336   0.01393755            4 
 1231000   0.76936833   -8.4155235    213.51135  0.014453787  0.013924874            5 
 1232000   0.75842744   -8.4626594     212.7187   0.01438844  0.013912157            3 
 1233000   0.75723315   -8.4616198     213.2404   0.01441203  0.013899391            5 
 1234000    0.7610164   -8.4412438    213.49187  0.014417333  0.013886668           10 
 1235000    0.7840511   -8.4534287     213.0353  0.014374851  0.013873889            9 
 1236000   0.76614331   -8.4286731    213.01091  0.014361577   0.01386115           11 
 1237000   0.76643768    -8.485937    212.87693  0.014340941  0.013848446           21 
 1238000   0.75629916    -8.452641     213.3309  0.014359915  0.013835732           12 
 1239000   0.74967658   -8.4631507    212.98595  0.014325124  0.013822999            6 
 1240000   0.76486458   -8.4753746    213.20452  0.014328261  0.013810304            2 
 1241000   0.76031809   -8.4384655     213.2736  0.014321354  0.013797647            6 
 1242000    0.7637791   -8.4582784    213.23015  0.014306908  0.013784983            4 
 1243000   0.74871682   -8.4865863    213.20972  0.014294028  0.013772327            8 
 1244000   0.77418724   -8.4718269    213.12606  0.014276934  0.013759689            6 
 1245000    0.7624339   -8.4691259    213.11683  0.014264848  0.013747064            5 
 1246000   0.75620846   -8.4720007    213.75912  0.014296356  0.013734491           10 
 1247000     0.766588   -8.4466137    213.43074  0.014262947  0.013721945            9 
 1248000   0.77058842   -8.4701571    213.63265  0.014265001  0.013709419           16 
 1249000   0.74624402    -8.485569    213.41744  0.014239221  0.013696866            9 
 1250000   0.74716333   -8.4707569    213.22913  0.014215275  0.013684308            5 
 1251000   0.75051396   -8.4620275    213.63756  0.014231119  0.013671782           13 
 1252000   0.76033921   -8.4846501    213.47724  0.014209082  0.013659256            4 
 1253000   0.75833965   -8.4758979    213.68544  0.014211588  0.013646729            6 
 1254000   0.74919599   -8.4971792    213.24503  0.014170988  0.013634218           12 
 1255000   0.75241454   -8.5072445    213.05081    0.0141468  0.013621683            3 
 1256000   0.75062993   -8.4737402    213.38179  0.014157497  0.013609148            4 
 1257000   0.74461184   -8.4908239    213.03334  0.014123133   0.01359666            9 
 1258000    0.7703675   -8.4905681    213.07366  0.014114578  0.013584168            4 
 1259000   0.75393334   -8.4723154    213.66674  0.014142622  0.013571714            9 
 1260000   0.74277096   -8.4761769    213.62739  0.014128796   0.01355927           11 
 1261000   0.75909551   -8.4882147    213.78866  0.014128249  0.013546791            8 
 1262000   0.75726812   -8.5029114    213.53833  0.014100523  0.013534353            5 
 1263000   0.75328516    -8.511436    213.58389  0.014092366  0.013521911            1 
 1264000   0.73996853   -8.4905374    214.27403  0.014126716  0.013509521           10 
 1265000   0.74831694   -8.5074963    213.74752  0.014080864  0.013497135            6 
 1266000   0.75854743   -8.5030707    214.00471  0.014086671  0.013484757            9 
 1267000   0.74451866   -8.4860072    213.68616  0.014054601  0.013472427            3 
 1268000   0.75038237   -8.4730993    213.84003   0.01405363  0.013460083            5 
 1269000   0.74610568   -8.4879324     213.9711  0.014051163  0.013447767            5 
 1270000   0.75112794   -8.4819724    213.17915  0.013988133  0.013435495            5 
 1271000   0.72836047   -8.4717989    213.90439  0.014024678  0.013423266            5 
 1272000   0.76126147    -8.470199    213.57328   0.01399196  0.013411031            7 
 1273000   0.75045488   -8.4854767     213.7817  0.013994612  0.013398812            2 
 1274000   0.74470026   -8.4882638    214.01927  0.013999167  0.013386601            5 
 1275000   0.73177468   -8.4708228    214.13095  0.013995487  0.013374438            4 
 1276000   0.74537625   -8.5024512    213.36707  0.013934631  0.013362266            4 
 1277000   0.74059258   -8.4848706    214.29211  0.013984085   0.01335013            6 
 1278000   0.73300931   -8.5027906     214.0086  0.013954655  0.013337976            8 
 1279000   0.74694849   -8.5252646    213.79224  0.013929648  0.013325812            3 
 1280000   0.74524678   -8.4737457    214.05563  0.013935913   0.01331363            4 
 1281000   0.75571769   -8.4910604    214.13366  0.013930111  0.013301471            3 
 1282000   0.75053805   -8.4755674    213.96464  0.013908258  0.013289385            4 
 1283000   0.73293892   -8.4907487    213.88125  0.013892001  0.013277275            7 
 1284000   0.74192146   -8.5082498     213.8817  0.013881211   0.01326518            7 
 1285000   0.73245148   -8.5081899    214.01947  0.013879343  0.013253086            3 
 1286000   0.73067142   -8.5027705    214.08299  0.013872667  0.013241014            4 
 1287000   0.75511381   -8.4897965    214.06659  0.013860825  0.013228963            4 
 1288000   0.72706776   -8.4714181    214.21499  0.013859666  0.013216912            5 
 1289000   0.72545078   -8.4946404    213.68183  0.013814445  0.013204909            3 
 1290000   0.74678792   -8.5064933    213.92832  0.013819659  0.013192876           11 
 1291000   0.74095281   -8.4805918    214.19232  0.013825995  0.013180825            8 
 1292000   0.73268652   -8.4991928    214.47291  0.013833392  0.013168818            9 
 1293000   0.74300838   -8.4725335     214.7413  0.013839991  0.013156844            4 
 1294000   0.73944115   -8.4818615    213.56791   0.01375373  0.013144864            3 
 1295000   0.72549079   -8.5322475     213.8744  0.013762831  0.013132863            3 
 1296000   0.74385543   -8.5067245     214.3369  0.013781951  0.013120881            4 
 1297000   0.73459779   -8.5142897    214.28278  0.013767848  0.013108898            5 
 1298000    0.7412078    -8.529957     213.8043  0.013726522  0.013096916            4 
 1299000   0.73473372   -8.5387506    214.05537  0.013732061  0.013084915            5 
 1300000   0.74298093   -8.5270377    214.48217  0.013748857  0.013072943            9 
 1301000   0.75014994   -8.5139584    214.05562  0.013710967  0.013060993            3 
 1302000   0.72313671   -8.5418686    213.91918  0.013691703   0.01304901            5 
 1303000   0.73262825   -8.4779747    213.74521  0.013670069  0.013037061            7 
 1304000   0.73472884   -8.5580353    213.48468  0.013642937  0.013025089            3 
 1305000   0.73417909   -8.5171317    214.06889  0.013669789  0.013013132            2 
 1306000   0.73866086   -8.5396181     213.4928  0.013622562  0.013001146            4 
 1307000   0.72197616   -8.5321619    213.18119  0.013592272  0.012989161            2 
 1308000   0.72564243   -8.5387793    213.88691  0.013626842  0.012977209            8 
 1309000   0.72902293   -8.5464691    213.96748  0.013621561  0.012965268            2 
 1310000   0.71451967   -8.5551984    213.56877  0.013585799  0.012953315            4 
 1311000   0.74236192   -8.5557366    213.46752  0.013569001  0.012941347            2 
 1312000   0.73327239    -8.537131    214.00076  0.013592528  0.012929433            7 
 1313000   0.73644127   -8.5659494     213.9038  0.013576022  0.012917517           10 
 1314000   0.73154858    -8.522885    213.92236  0.013566867  0.012905601            6 
 1315000   0.73202904   -8.5304082     213.3401  0.013519651  0.012893706            6 
 1316000   0.72912224   -8.5547667    213.92928  0.013546687  0.012881779            4 
 1317000   0.73027396   -8.5448724    213.56228  0.013513179  0.012869875            7 
 1318000   0.72195404   -8.5309409    213.85971  0.013521732  0.012857963            5 
 1319000   0.72161815   -8.5230331     213.6052  0.013495401  0.012846113            4 
 1320000   0.72710518   -8.5149741    213.88708  0.013502972  0.012834246            3 
 1321000   0.72275646   -8.5327881    213.81059  0.013487925    0.0128224            4 
 1322000   0.70505088   -8.5240852     214.1219  0.013497346  0.012810597            4 
 1323000   0.72293606   -8.5160907    214.39555  0.013504381  0.012798823            3 
 1324000   0.73019592   -8.5251443    213.78204  0.013455566  0.012787042            4 
 1325000   0.72639529   -8.5275385    214.16389  0.013469427  0.012775272           10 
 1326000   0.71763329   -8.5239628    213.89459  0.013442345  0.012763498            6 
 1327000   0.71757472   -8.5615674    214.09768  0.013444969  0.012751735            6 
 1328000   0.72030279   -8.5097473     213.8925  0.013421969  0.012739972            6 
 1329000   0.72152571   -8.5606303    213.54543  0.013390107  0.012728261            6 
 1330000   0.71268138   -8.5308833    213.51282  0.013377996   0.01271655            7 
 1331000   0.73275727   -8.5857272    213.83553   0.01338815  0.012704866            5 
 1332000   0.71531233   -8.5272113    213.79417  0.013375511  0.012693163            5 
 1333000   0.71117464   -8.5507816    213.47181  0.013345325  0.012681452            3 
 1334000   0.70644789   -8.5498259    213.73183  0.013351564  0.012669755            4 
 1335000   0.72525666   -8.5582128    213.64774  0.013336313  0.012658037            2 
 1336000   0.70407443    -8.552444    213.72704  0.013331278  0.012646351            4 
 1337000   0.71733149   -8.5436993    213.76664  0.013323775  0.012634651            5 
 1338000   0.72151485   -8.5470573    214.29685  0.013346839  0.012622973            5 
 1339000   0.72136437   -8.5518089    213.86709  0.013310125  0.012611282            3 
 1340000    0.7310678   -8.5654171    213.82717   0.01329771  0.012599617            7 
 1341000   0.72699002   -8.5600623    214.40679  0.013323813  0.012587991            4 
 1342000   0.70945798   -8.5364473    213.71714  0.013271059  0.012576385            5 
 1343000   0.71756936   -8.5523934    213.39055  0.013240913  0.012564835           14 
 1344000   0.72436795   -8.5635712    213.85193  0.013259669  0.012553253            8 
 1345000    0.7286141    -8.531693    213.89628  0.013252558  0.012541669            5 
 1346000   0.70080792   -8.5486477    213.91678  0.013243981   0.01253008            8 
 1347000    0.7255989   -8.5568609    214.01936  0.013240495  0.012518514           16 
 1348000   0.69864159   -8.5733327    213.83422  0.013219227  0.012506947            3 
 1349000   0.71709665   -8.5590903    214.05403  0.013223007  0.012495394           14 
 1350000    0.7062398   -8.5997319    213.28408  0.013165684  0.012483818            6 
 1351000   0.72032624   -8.5408434    213.59985  0.013175416  0.012472271           17 
 1352000   0.71654549   -8.5377607    213.98577  0.013189458  0.012460764           14 
 1353000   0.71983457   -8.5605929     213.8947  0.013174101   0.01244925           14 
 1354000   0.71811655   -8.5742221    213.61819  0.013147353  0.012437731           17 
 1355000   0.71801449   -8.5644308    213.83024  0.013150691  0.012426226           11 
 1356000   0.69259516   -8.5500782    213.94654   0.01314814  0.012414744           19 
 1357000   0.71835908   -8.5259373    214.78629   0.01319002  0.012403285            8 
 1358000   0.72273123   -8.5948595    213.87374  0.013124309  0.012391827            6 
 1359000   0.71060861     -8.59483    213.82981  0.013111958  0.012380376            6 
 1360000   0.70005534   -8.5928886    213.58547  0.013087345  0.012368902            4 
 1361000   0.71654573   -8.5831502    213.74249  0.013087343  0.012357456            6 
 1362000   0.71254539   -8.5773507    214.17295  0.013104072  0.012346009            8 
 1363000   0.72435145   -8.5763992    213.95533  0.013081153  0.012334579            5 
 1364000   0.70309079   -8.6040108    213.73013  0.013057804  0.012323129            6 
 1365000   0.71007124   -8.5693264    213.41197  0.013028814   0.01231171            5 
 1366000   0.69878816   -8.6123731    214.07885  0.013059959  0.012300303            4 
 1367000   0.72779382   -8.6046618    213.54732  0.013018003    0.0122889            6 
 1368000   0.69986616   -8.6212184    213.57153  0.013009961  0.012277479            4 
 1369000   0.70707734   -8.6211827     213.7332  0.013010299  0.012266089            8 
 1370000   0.70124658   -8.6204161    213.56632  0.012990652  0.012254704            6 
 1371000   0.70774011   -8.6107777    213.92041  0.013002699  0.012243339           10 
 1372000   0.69647317    -8.594101    214.11483  0.013005031  0.012231978           14 
 1373000   0.69181997    -8.601414    213.96498  0.012986464  0.012220655            6 
 1374000    0.7112631   -8.5819337    214.03011  0.012980962  0.012209325            5 
 1375000   0.71844865   -8.6115767    213.54535  0.012942142  0.012197998            7 
 1376000   0.70899989   -8.5941969    213.63337  0.012938068  0.012186668            6 
 1377000   0.70308841   -8.5981605    213.38288  0.012913512  0.012175358           20 
 1378000   0.69977739   -8.5937425    213.75673  0.012926749  0.012164036           10 
 1379000   0.70434322   -8.6044925    213.86198  0.012923736  0.012152753           23 
 1380000   0.70035943   -8.6271242    213.68822  0.012903878  0.012141456           17 
 1381000   0.70958563   -8.5840485    214.28748  0.012930695  0.012130158           20 
 1382000   0.71886438   -8.5980258    213.71128  0.012886594  0.012118868           14 
 1383000   0.69501797   -8.6153684    213.71933  0.012877762  0.012107572           20 
 1384000   0.70054982   -8.6289434    213.10006  0.012831169  0.012096281           19 
 1385000    0.6974754   -8.6403148    213.72813  0.012859695  0.012084994           13 
 1386000   0.70156749   -8.6322441    213.65373  0.012845943  0.012073713           17 
 1387000   0.71602129    -8.637785    212.88196  0.012790312  0.012062419           23 
 1388000   0.70792756   -8.6400822    213.17254  0.012798543  0.012051136           12 
 1389000   0.71298883   -8.6361547    213.92935  0.012834734   0.01203987            9 
 1390000    0.6984949   -8.6084431    213.30665  0.012788168  0.012028635           25 
 1391000   0.70190702   -8.6265971    213.19755  0.012772439    0.0120174           16 
 1392000   0.69759349   -8.6129013    213.32026   0.01277061  0.012006182           29 
 1393000   0.68840116   -8.6295479    213.42687   0.01276782  0.011994966           10 
 1394000   0.69626817   -8.6441873    213.48364  0.012762054  0.011983791           28 
 1395000   0.70175616   -8.6390138     213.3312  0.012743799  0.011972642           17 
 1396000   0.69436259   -8.6224733    213.73192  0.012758591  0.011961476            9 
 1397000   0.69094924   -8.6085684    213.64563  0.012744311  0.011950342            9 
 1398000   0.69559438   -8.6373694    213.32212  0.012715911  0.011939213           16 
 1399000   0.68039512   -8.6335266    213.65612  0.012726716  0.011928078           10 
 1400000   0.69435377   -8.6093165    213.77465  0.012724682  0.011916938            6 
 1401000   0.70421241   -8.6172366    213.47999  0.012698072  0.011905848           13 
 1402000   0.69313086    -8.624165    213.63174  0.012698035  0.011894757            9 
 1403000   0.71134079   -8.6674892    212.90233   0.01264566  0.011883687            5 
 1404000   0.69191289   -8.6382105    213.66297    0.0126818  0.011872612            6 
 1405000   0.70091507    -8.628356    214.01887  0.012693883  0.011861565            7 
 1406000   0.70490137   -8.6401635    213.61394  0.012660855  0.011850517           21 
 1407000   0.68551435   -8.6186503    213.63674  0.012653206  0.011839479            7 
 1408000   0.67744477   -8.6185383    213.49866  0.012636047  0.011828467            8 
 1409000   0.68917151   -8.6503078    213.40626  0.012621615  0.011817441            8 
 1410000    0.6970569   -8.6561681    213.67847  0.012628751  0.011806435           17 
 1411000    0.6921116   -8.6417325    213.46458  0.012607169  0.011795424           24 
 1412000   0.68429763   -8.6444631    213.50958  0.012600896  0.011784441           18 
 1413000   0.68279494    -8.675537      213.042  0.012564402  0.011773447            4 
 1414000   0.67941043   -8.6645913    213.45613  0.012579923  0.011762477            6 
 1415000   0.68280351   -8.6535104    213.72478  0.012586854  0.011751504            6 
 1416000   0.69001379    -8.629876    213.79568  0.012582137  0.011740559            6 
 1417000   0.67654894   -8.6456997    213.32139  0.012545365  0.011729611            9 
 1418000   0.70137019    -8.652937     213.4256  0.012542642  0.011718672           11 
 1419000   0.69032396   -8.6379456    213.54936  0.012541071  0.011707746            8 
 1420000   0.67922348   -8.6756466    213.42005  0.012524651  0.011696816           11 
 1421000   0.69751655   -8.6592478     212.9176  0.012486371   0.01168586            8 
 1422000   0.67699736   -8.6629058    213.27104  0.012498303  0.011674917            5 
 1423000   0.68425518   -8.6559111    213.44845  0.012499909  0.011663998            5 
 1424000   0.69621857   -8.6489182     213.2182  0.012477657  0.011653088           15 
 1425000   0.69230097   -8.6416612    213.27343   0.01247213  0.011642209           16 
 1426000   0.67663911   -8.6708595    213.53805  0.012478848  0.011631327           11 
 1427000   0.67598267   -8.6567013    213.37978  0.012460861  0.011620469           17 
 1428000   0.68777828   -8.6487491    213.36095  0.012451036  0.011609611           26 
 1429000   0.69367758   -8.6541156     213.0287  0.012422947  0.011598731           31 
 1430000   0.68385311   -8.6705826    212.99764   0.01241245  0.011587863           14 
 1431000   0.67331879   -8.6345727     213.1881  0.012414867  0.011577013           12 
 1432000   0.66892888   -8.6614938     213.5325  0.012426239  0.011566187           18 
 1433000   0.68473485   -8.6632462    212.99976  0.012386588  0.011555349            6 
 1434000    0.6803582   -8.6648106    212.91855  0.012373231  0.011544527           10 
 1435000    0.6810409   -8.6449511    213.07909  0.012373931  0.011533712            9 
 1436000   0.66944989   -8.6781289    213.45865  0.012387341  0.011522921           14 
 1437000   0.67581033   -8.6727134    213.49525  0.012380842   0.01151214            4 
 1438000    0.6604296   -8.6717102    212.75458  0.012329311  0.011501359           16 
 1439000   0.68196067   -8.6646703    213.05822  0.012338327  0.011490613           21 
 1440000   0.67185069   -8.6691816    213.20538  0.012338274  0.011479865           14 
 1441000   0.68778931   -8.6770355    213.49672  0.012346561  0.011469118           17 
 1442000   0.66504648   -8.6587327    213.33696  0.012328766  0.011458383           13 
 1443000   0.67806506   -8.6777476    213.18692  0.012311557  0.011447683            5 
 1444000   0.67709556   -8.6737425    213.19454  0.012303471  0.011437016            8 
 1445000   0.67985073   -8.6656927    213.07526  0.012288077  0.011426335            5 
 1446000   0.68021698   -8.6637206    213.08759   0.01228029   0.01141566            3 
 1447000    0.6763178   -8.6885365    212.76432  0.012253186  0.011405015            7 
 1448000   0.68354176   -8.6500327    213.44765   0.01228405  0.011394388           11 
 1449000   0.67459109   -8.6756719    213.50404  0.012278815  0.011383763            9 
 1450000   0.67911797   -8.6799206    213.46869  0.012268316  0.011373169            6 
 1451000   0.66292685   -8.6633432    213.29026  0.012249613  0.011362573           10 
 1452000   0.69538448   -8.6837427    213.26686  0.012239834  0.011351995            6 
 1453000    0.6696649   -8.6949759    213.24186  0.012229976  0.011341448            9 
 1454000   0.68925922   -8.6361095    213.18614  0.012218371  0.011330908            5 
 1455000   0.67655505   -8.6904723    213.43617  0.012224294  0.011320367            5 
 1456000   0.67006448   -8.6961471     213.0828  0.012195673  0.011309825           10 
 1457000   0.66814732    -8.694523    213.23554  0.012196038  0.011299284            9 
 1458000   0.67061524   -8.6777652    213.16384  0.012183576  0.011288757           11 
 1459000   0.66519875   -8.6896196    213.08227  0.012170566  0.011278224            7 
 1460000   0.66635842   -8.6840444    213.15467  0.012166363  0.011267689            9 
 1461000   0.66335612   -8.6911097     212.9628  0.012147091  0.011257148            8 
 1462000   0.67791478   -8.6929187     212.9635  0.012138822  0.011246648            5 
 1463000   0.66801494   -8.6868842    213.09573  0.012138057  0.011236167           10 
 1464000   0.66402166   -8.6928796    213.15337  0.012133047  0.011225676            8 
 1465000   0.67566717   -8.7057787    213.20283  0.012127578  0.011215207            9 
 1466000    0.6571489    -8.694093    212.96255  0.012105648  0.011204728            4 
 1467000   0.67419637   -8.7159855     213.2811  0.012115491  0.011194272            4 
 1468000   0.66230867   -8.6915477    213.21434  0.012103448  0.011183836           11 
 1469000   0.66751588   -8.6968882    213.24504   0.01209695  0.011173416            4 
 1470000   0.66521776    -8.721724    212.77017  0.012061801  0.011162976            9 
 1471000   0.65601356   -8.7151011     213.0304  0.012068344  0.011152555            4 
 1472000   0.66632726   -8.7035026    213.37279  0.012079528  0.011142158            6 
 1473000    0.6764335   -8.7220948    213.18641  0.012060784  0.011131769            3 
 1474000   0.67877573   -8.7096505    213.13816  0.012049873  0.011121359            4 
 1475000    0.6678897    -8.694404    212.95917  0.012031592  0.011110972            4 
 1476000   0.66446602   -8.7416649    213.23202  0.012038845  0.011100622            7 
 1477000   0.65984032   -8.7084565    213.29983   0.01203452   0.01109027            5 
 1478000   0.67532542   -8.6956662    213.17379  0.012019271  0.011079906           16 
 1479000   0.66773849   -8.7175945    212.69879  0.011984381  0.011069569           10 
 1480000   0.65136554   -8.7199801    213.38603  0.012014979  0.011059229            4 
 1481000   0.65195602   -8.6985937    213.27114  0.012000402   0.01104892            3 
 1482000   0.64391958   -8.7036655    213.35961  0.011997279  0.011038626            9 
 1483000   0.65790156    -8.718981    212.89219  0.011962923  0.011028319            5 
 1484000   0.65242238   -8.7046136     213.0672   0.01196469  0.011018027            2 
 1485000   0.66452831   -8.7095428    212.90675  0.011947629  0.011007751            2 
 1486000   0.65466553    -8.717525    213.20895  0.011956536  0.010997494            4 
 1487000   0.66568913   -8.7068351    213.07846  0.011941182  0.010987252            2 
 1488000   0.67397746    -8.724049    212.64159  0.011908691  0.010977022            6 
 1489000   0.64764691   -8.7180684    213.22489  0.011933338  0.010966799            5 
 1490000   0.66294028   -8.7057786    213.60763  0.011946735   0.01095659            4 
 1491000   0.64754249   -8.7197976    213.12467   0.01191173  0.010946404            3 
 1492000   0.65016139   -8.7187499    213.23865  0.011910112  0.010936218            5 
 1493000    0.6688736    -8.723566    213.26196  0.011903436  0.010926047            4 
 1494000    0.6594342   -8.7226382    213.09596  0.011886209    0.0109159            6 
 1495000   0.67127742   -8.7253418    212.85186  0.011864652  0.010905742            2 
 1496000   0.66022606   -8.7401809    212.55424  0.011840142   0.01089557           10 
 1497000   0.64474634    -8.738678    212.69404  0.011840015  0.010885421           15 
 1498000   0.66356011    -8.732949    212.87705  0.011842292  0.010875286            6 
 1499000   0.64475903   -8.7254115    212.93451  0.011837587  0.010865161            4 
 1500000   0.64972535   -8.7332445    212.89038  0.011827243  0.010855036            7 
 1501000   0.66544009   -8.7341174    213.38309  0.011846718  0.010844934           10 
 1502000   0.64734551   -8.7652346    212.53484  0.011791769  0.010834825            9 
 1503000    0.6449404   -8.7421615    213.28035  0.011825258  0.010824722           10 
 1504000   0.64832431   -8.7289236    213.25026  0.011815728  0.010814624            8 
 1505000   0.66747134   -8.7397922    212.51721  0.011767287  0.010804538           10 
 1506000    0.6545944   -8.7568007    213.03607  0.011788185  0.010794474            5 
 1507000   0.65042982   -8.7396685    212.84139  0.011769597  0.010784423            4 
 1508000   0.66029497   -8.7518589    212.71514  0.011754816  0.010774374            9 
 1509000   0.64579458   -8.7435474    212.95416  0.011760225  0.010764356           15 
 1510000   0.65914322   -8.7309631    212.64394  0.011735317  0.010754327           14 
 1511000   0.65034175   -8.7608815    212.59048  0.011724602  0.010744294            5 
 1512000   0.63800952   -8.7399827    213.31746  0.011756914   0.01073429           16 
 1513000   0.64533984    -8.776263    212.52793  0.011705658  0.010724298           11 
 1514000   0.63715303   -8.7504358    213.30914  0.011740926  0.010714316            4 
 1515000    0.6469555    -8.772088    212.85984  0.011708462  0.010704339            5 
 1516000   0.63997841   -8.7496335    212.91811  0.011703942  0.010694389            8 
 1517000   0.65422218   -8.7680321    212.86891  0.011693524  0.010684447           14 
 1518000   0.65817176   -8.7458225    212.81638  0.011682937  0.010674501            7 
 1519000   0.65150896   -8.7894751    212.51288  0.011658595  0.010664559            7 
 1520000   0.65475608   -8.7545165    213.50307  0.011705212  0.010654642           10 
 1521000   0.64246293   -8.7523573    212.80399  0.011659215  0.010644741            5 
 1522000   0.64055559   -8.7550504    212.85875  0.011654553  0.010634842           11 
 1523000   0.62758003   -8.7615468    212.98303    0.0116537  0.010624931            7 
 1524000   0.65622141   -8.7621776    213.13723  0.011654486  0.010615047            6 
 1525000    0.6597556   -8.7565546    213.19361  0.011649924  0.010605177            9 
 1526000   0.64996299   -8.7843147    213.13656  0.011639175   0.01059532           10 
 1527000   0.63736897   -8.7602114     213.0143   0.01162488  0.010585483            6 
 1528000   0.64820376   -8.7675666    212.70117  0.011600195  0.010575612            8 
 1529000   0.63888653   -8.7946673    212.67152  0.011590992  0.010565766            9 
 1530000   0.64685699   -8.7606491    212.74505  0.011587421  0.010555933            5 
 1531000   0.64761013   -8.7514105    213.34268  0.011612382  0.010546122            9 
 1532000   0.65056422   -8.7756894    212.36113  0.011551411  0.010536306            7 
 1533000   0.64441092   -8.7409677    212.77135  0.011566175  0.010526513            7 
 1534000   0.64997426   -8.7759132    212.68016  0.011553681  0.010516736            4 
 1535000   0.64544953   -8.7659311    212.72078  0.011548359  0.010506947            6 
 1536000   0.63314866   -8.7619371     212.9666  0.011554177  0.010497184            4 
 1537000   0.63666068   -8.7650087    212.83129  0.011539324  0.010487439            7 
 1538000   0.63794798   -8.7803562    212.75013  0.011527424  0.010477703            7 
 1539000   0.64150008   -8.7658322    212.91574  0.011528901  0.010467983            4 
 1540000   0.63363938   -8.7770301    212.91086   0.01152115  0.010458285           11 
 1541000   0.64371241   -8.7830636     212.4742  0.011490061  0.010448566            7 
 1542000   0.64941183   -8.7741086    212.81247   0.01150089   0.01043886            7 
 1543000   0.64157736   -8.7768887    212.79646  0.011492572  0.010429182            5 
 1544000   0.63092126   -8.7613469    212.94879   0.01149335  0.010419508           13 
 1545000   0.63616981   -8.7808861    212.45687  0.011459378  0.010409847            4 
 1546000   0.62471688   -8.7751091    212.81791  0.011471427  0.010400189            3 
 1547000    0.6475104   -8.7776504    212.58496  0.011451463   0.01039055            9 
 1548000   0.64280891   -8.8043181    213.03201  0.011468131  0.010380923           10 
 1549000   0.62915055   -8.7742181    212.78326  0.011447345  0.010371308            9 
 1550000   0.62084723   -8.7637028    212.82847  0.011442391  0.010361707            7 
 1551000   0.64068927    -8.793744    212.73218   0.01142984  0.010352088            6 
 1552000    0.6426799   -8.7886973    212.71896  0.011421765  0.010342474            7 
 1553000    0.6408972   -8.8044098    212.32291  0.011393159  0.010332865            9 
 1554000   0.63782385   -8.7851008    212.37134  0.011388424  0.010323262            4 
 1555000   0.62735047   -8.7821129    212.73988  0.011400851  0.010313676            8 
 1556000     0.630327   -8.7850173    212.99732  0.011407312  0.010304089            6 
 1557000   0.66479561   -8.8008596     212.6065  0.011379068  0.010294527            8 
 1558000    0.6381997   -8.7720688    212.77902  0.011380992  0.010284986            4 
 1559000    0.6316148    -8.787376    212.29329  0.011347728  0.010275458            7 
 1560000   0.63954101   -8.7746287    212.84523  0.011369938  0.010265933            5 
 1561000   0.63163184   -8.7974973    212.57809  0.011348393  0.010256406            5 
 1562000   0.63704317   -8.8023348    212.58829  0.011341671  0.010246874            3 
 1563000   0.64642621   -8.7921439    212.75993  0.011343567   0.01023737            9 
 1564000   0.62692563   -8.7865121    212.79875  0.011338382  0.010227865            4 
 1565000   0.64012653   -8.8093232    212.43864  0.011311962  0.010218382            5 
 1566000   0.63298869   -8.8047781    212.67251  0.011317183  0.010208904            4 
 1567000   0.64024662   -8.7835237    212.48557   0.01130002  0.010199435            5 
 1568000   0.63972149   -8.7875946    212.57487  0.011297559  0.010189974            4 
 1569000   0.61830707   -8.7954797    212.36435  0.011279177   0.01018052            4 
 1570000   0.63365424   -8.7934199    212.70218  0.011289925  0.010171091            8 
 1571000   0.62765053   -8.7872605    212.53268  0.011273747   0.01016165            3 
 1572000   0.62850167   -8.7883104    212.39165  0.011259099   0.01015224            4 
 1573000    0.6168637   -8.8223308    212.23973  0.011243893  0.010142827            7 
 1574000   0.62100336    -8.793487    212.44279  0.011247501  0.010133431            3 
 1575000   0.61912675   -8.8060599    212.36213  0.011236092  0.010124044            3 
 1576000   0.62896836   -8.8294022     212.4118  0.011231588  0.010114659            9 
 1577000   0.61795172   -8.8033687    212.66159  0.011237666  0.010105289            4 
 1578000   0.62867118   -8.7861776    212.73193  0.011234259  0.010095936            6 
 1579000   0.61692037   -8.8007848    212.38501  0.011208835  0.010086586            3 
 1580000   0.60518608    -8.794766    212.46509  0.011205965  0.010077248            8 
 1581000   0.62945195   -8.7918779    212.34918  0.011192767  0.010067919            7 
 1582000   0.62623145     -8.79908    213.12325  0.011226467  0.010058616            3 
 1583000   0.60555866   -8.8312645    212.15818  0.011168571    0.0100493            8 
 1584000   0.60769149   -8.8095286    212.58381  0.011183913  0.010040008            7 
 1585000   0.62762733   -8.7976728    212.54149  0.011174631  0.010030733            3 
 1586000    0.6142136   -8.8329667    212.52945  0.011166953  0.010021453           11 
 1587000   0.61838095   -8.8095821    212.42965  0.011154676  0.010012197            3 
 1588000   0.61792076   -8.7981814    212.39283   0.01114572  0.010002949            3 
 1589000   0.61887448   -8.8293373    212.13335  0.011125097 0.0099937036            3 
 1590000   0.62345255   -8.8182336    212.44678  0.011134527 0.0099844697            3 
 1591000    0.6328568   -8.8254105    212.40779  0.011125487 0.0099752487            3 
 1592000   0.62758083   -8.8241023    212.49767  0.011123203 0.0099660473            9 
 1593000   0.62255945   -8.8156348     212.0098  0.011090699 0.0099568578            7 
 1594000   0.61867401   -8.8237497    212.45687  0.011107114 0.0099476626            7 
 1595000   0.61496019   -8.8105649    212.12845  0.011082991 0.0099384938            8 
 1596000   0.63222615   -8.8271375    212.39129  0.011089771 0.0099293331            3 
 1597000   0.62142379    -8.819094    212.45666  0.011086238 0.0099201733            3 
 1598000   0.61182433   -8.8145687    212.58629   0.01108606 0.0099110292            2 
 1599000   0.61602315   -8.8386288    212.61043  0.011080385 0.0099019078            4 
 1600000   0.62111162   -8.8398987      212.677  0.011076927 0.0098927802            2 
 1601000   0.60454366   -8.8264915    211.90134  0.011029635 0.0098836538            4 
 1602000    0.6196396    -8.831091    212.36379  0.011046805 0.0098745538            3 
 1603000   0.61085484   -8.8262286    212.51267  0.011047654 0.0098654573            2 
 1604000    0.6068725   -8.8309968    212.01505  0.011014913 0.0098563677            2 
 1605000   0.60844579   -8.8389234     212.3717  0.011026568 0.0098472925            3 
 1606000   0.60676931   -8.8338174    212.57692  0.011030351 0.0098382247            5 
 1607000   0.62686016   -8.8261551    212.02773  0.010995008 0.0098291721            3 
 1608000   0.61919238   -8.8442891    212.38933   0.01100691 0.0098201124            3 
 1609000   0.61555752   -8.8292999    212.09778  0.010984969 0.0098110609            4 
 1610000   0.61748555     -8.81949    212.61266  0.011004796 0.0098020278            4 
 1611000   0.61629216   -8.8347952    212.25169  0.010979293 0.0097930092            3 
 1612000   0.59696204    -8.835022     212.1334  0.010966367 0.0097839881            8 
 1613000   0.60476945   -8.8450816    212.30336  0.010968349 0.0097749865            6 
 1614000   0.61173371   -8.8181029    212.21315  0.010956895 0.0097659977            3 
 1615000   0.59913488   -8.8501154    212.47483  0.010963614 0.0097570006            4 
 1616000   0.60805621   -8.8253842    212.44428  0.010955254 0.0097480158            3 
 1617000    0.5959139   -8.8445128    212.06576  0.010928971 0.0097390354            3 
 1618000    0.6076978   -8.8228358    212.34521  0.010936609 0.0097300731            4 
 1619000   0.60374515   -8.8379868    212.23788   0.01092433 0.0097211156            4 
 1620000   0.60895502   -8.8394262    211.94589  0.010902566 0.0097121716            7 
 1621000   0.60480875   -8.8356306    212.15653  0.010906669 0.0097032361            3 
 1622000   0.60466005   -8.8296536    212.27769   0.01090617 0.0096943025            5 
 1623000   0.60650772   -8.8636659    212.56762  0.010914337 0.0096853874            3 
 1624000   0.59943495   -8.8475872    212.33848  0.010895858  0.009676473            2 
 1625000    0.6068609   -8.8502889    212.19626  0.010881859 0.0096675794            3 
 1626000   0.59122545   -8.8545475     212.3621  0.010883666 0.0096586881            5 
 1627000   0.60449766   -8.8275396    212.52774  0.010885461 0.0096498069            3 
 1628000   0.60091702   -8.8584362     212.1775  0.010860847 0.0096409451            4 
 1629000   0.59370352    -8.857584    212.04549  0.010847427 0.0096320881            4 
 1630000   0.58256945   -8.8448773     212.5026  0.010864141  0.009623242            7 
 1631000   0.60074026   -8.8517062    212.30497  0.010847383 0.0096144121            8 
 1632000   0.60273495    -8.865928    212.00381  0.010825358 0.0096055983            4 
 1633000    0.5939206   -8.8469929    212.39306  0.010838593 0.0095967691            5 
 1634000   0.60781551   -8.8464317    211.93087  0.010808388  0.009587977            2 
 1635000   0.59951419    -8.847059    212.50839  0.010831212 0.0095791936            4 
 1636000   0.59910634   -8.8530946    212.41524  0.010819847 0.0095704199            3 
 1637000   0.59443499   -8.8697497    212.07726  0.010796032 0.0095616493            3 
 1638000   0.60297266   -8.8624031    212.38843  0.010805272 0.0095528721            3 
 1639000    0.5948868   -8.8595903    212.42756  0.010800669 0.0095441118            2 
 1640000   0.61473277   -8.8459974    212.05908   0.01077536 0.0095353621            3 
 1641000   0.59233897   -8.8653391    212.29383  0.010780714 0.0095266198            3 
 1642000   0.59330302   -8.8557814    212.30663  0.010774798 0.0095178919            3 
 1643000   0.61091385   -8.8749697    211.75232  0.010740126 0.0095091582            3 
 1644000   0.58417076    -8.878442    211.92808  0.010742502 0.0095004555            3 
 1645000   0.59585031   -8.8627548    211.96194  0.010737687 0.0094917688            5 
 1646000   0.61321559   -8.8377754    212.40255   0.01075347 0.0094830745            4 
 1647000   0.58639535   -8.8672422    212.38565  0.010746086 0.0094743897            4 
 1648000   0.60189681   -8.8535968    212.52794  0.010746761 0.0094657172            3 
 1649000    0.6103096   -8.8663077    212.35947   0.01073173 0.0094570632            4 
 1650000   0.59827126   -8.8401651     212.3691  0.010725712 0.0094484057            4 
 1651000   0.59608261    -8.855077    211.84492  0.010692758 0.0094397422            3 
 1652000    0.5874075   -8.8558221    211.86069  0.010687081  0.009431087            4 
 1653000   0.59548437   -8.8707333    211.83694  0.010679418 0.0094224534            7 
 1654000   0.57877683   -8.8629399    212.14477  0.010688471 0.0094138202            4 
 1655000   0.58352691   -8.8609403    212.11415  0.010680471 0.0094052086            3 
 1656000   0.58487244   -8.8572496    212.15114  0.010675883 0.0093966097            3 
 1657000   0.59310256   -8.8819528    211.48779  0.010636079 0.0093880086            4 
 1658000   0.59432032   -8.8877856    212.17163  0.010664034 0.0093794176            7 
 1659000   0.58510036   -8.8698102    212.01983  0.010649981 0.0093708501            5 
 1660000    0.5826189   -8.8646739    212.25615  0.010655429 0.0093622875            3 
 1661000   0.58297351   -8.8688392    211.91005   0.01063165 0.0093537257            4 
 1662000   0.58490071   -8.8914497    211.78265  0.010618865 0.0093451793            3 
 1663000   0.57589866   -8.8578296    212.21822  0.010634307 0.0093366516            4 
 1664000   0.58520334   -8.8614355    212.51078  0.010642567 0.0093281454            4 
 1665000   0.57205682   -8.8501552    212.23503  0.010622374 0.0093196286            5 
 1666000   0.60284038   -8.8682752    212.05629  0.010607058 0.0093111355            5 
 1667000   0.58171148   -8.8681816     211.8617  0.010590967  0.009302637            3 
 1668000   0.58650313   -8.8854054    211.71973  0.010577524 0.0092941505            6 
 1669000   0.57795336   -8.8753372    211.54111  0.010562268 0.0092856644            4 
 1670000   0.57923305   -8.8852614     211.7325  0.010565494 0.0092771962            6 
 1671000   0.57600607   -8.8768997     211.9265  0.010568846 0.0092687305            3 
 1672000   0.57098501   -8.8491418    211.96658  0.010564523 0.0092602677            5 
 1673000   0.59281447   -8.8813541    211.95071  0.010557417 0.0092518205            5 
 1674000   0.58115281   -8.8989316    211.99842  0.010553486 0.0092433773            6 
 1675000   0.58927076    -8.882643    211.91274  0.010542923 0.0092349325            5 
 1676000   0.58711425   -8.8718507     211.7117  0.010526636  0.009226508            4 
 1677000   0.58548346   -8.8898461    211.54309   0.01051198 0.0092180861            5 
 1678000   0.58598119   -8.8866694    211.68256  0.010512642 0.0092096765            5 
 1679000   0.59624444   -8.8821415    212.15655  0.010529906 0.0092012886            5 
 1680000   0.58778401   -8.8682117    211.76537  0.010504235 0.0091928986            7 
 1681000   0.57844455   -8.8964658    211.58167  0.010488879 0.0091845264            3 
 1682000   0.58962876   -8.8564184    212.16762  0.010511674 0.0091761583            2 
 1683000   0.57614732   -8.8942624     211.3483   0.01046486 0.0091677909            3 
 1684000   0.58347415   -8.8787258    211.77419  0.010479721 0.0091594389            6 
 1685000   0.57874432   -8.9008841    211.77675  0.010473627 0.0091510937            4 
 1686000   0.58186709   -8.9004713    211.62289  0.010459811 0.0091427663            4 
 1687000   0.58789438   -8.8877926    211.37087  0.010441161 0.0091344431           10 
 1688000   0.57477343   -8.8943982    211.55017  0.010443828 0.0091261253            4 
 1689000   0.55962176   -8.8843006    211.71622  0.010445837 0.0091178217            4 
 1690000    0.5928521   -8.9012771    211.68919  0.010438323 0.0091095269            6 
 1691000   0.57243433   -8.9105237    211.40538  0.010418164 0.0091012285            3 
 1692000   0.58914656   -8.8927076    211.56667   0.01041995 0.0090929302            3 
 1693000   0.57327491   -8.8963509    211.74571  0.010422609 0.0090846639            3 
 1694000   0.58649365   -8.8833547    211.84988   0.01042158 0.0090764007            3 
 1695000   0.56976615   -8.8908036    211.87869  0.010416848 0.0090681493            5 
 1696000   0.58809307   -8.8966455    212.08258  0.010420724 0.0090599066            4 
 1697000   0.56357367    -8.878575    212.40828  0.010430577 0.0090516765            4 
 1698000   0.56353572   -8.8924244    211.61639  0.010385571 0.0090434491            5 
 1699000   0.57349257   -8.8822265    211.31717  0.010364782 0.0090352243            4 
 1700000   0.56887643   -8.9040571     211.6544  0.010375216 0.0090270188            6 
 1701000    0.5746441   -8.8885106    211.65627  0.010369208 0.0090188193            7 
 1702000   0.58984548   -8.8926432    211.23779  0.010342626 0.0090106407            4 
 1703000   0.57652538   -8.9184184    211.39179  0.010344089 0.0090024657           10 
 1704000   0.56906531   -8.8892418    211.43314   0.01034004 0.0089942843            9 
 1705000   0.57480241    -8.881185    211.81763  0.010352768 0.0089861254            7 
 1706000   0.57189919   -8.9002385    211.33864  0.010323302 0.0089779721            5 
 1707000    0.5634756   -8.8957654    211.68037  0.010333937 0.0089698335            4 
 1708000   0.57124363   -8.8896395    211.60649  0.010324283 0.0089616915            8 
 1709000    0.5782433   -8.8855391    211.75482  0.010325474 0.0089535653            3 
 1710000   0.57436046   -8.8993083    211.84215  0.010323691 0.0089454462            6 
 1711000   0.56784478   -8.8892147    211.49571  0.010300784  0.008937338           12 
 1712000   0.55433815   -8.8987613    211.90073  0.010314483 0.0089292425            6 
 1713000   0.55564433   -8.8949706    211.51182  0.010289542 0.0089211513            3 
 1714000   0.56120537   -8.8874638    211.25343  0.010270976 0.0089130676            3 
 1715000   0.55130177   -8.9148251    211.23676  0.010264177 0.0089049924            5 
 1716000   0.56049231   -8.9180175    211.71693  0.010281514 0.0088969296            6 
 1717000   0.56474884   -8.9064137    211.46462   0.01026328  0.008888877            7 
 1718000   0.58031513   -8.8820268    211.59538  0.010263649 0.0088808257           11 
 1719000   0.56280024   -8.9148992    211.75032  0.010265189 0.0088727922            7 
 1720000   0.57512349   -8.9146296    211.19692  0.010232409 0.0088647706            5 
 1721000   0.55917486   -8.9122568    211.63928  0.010247883 0.0088567515            5 
 1722000   0.56675502   -8.9218738    211.73835  0.010246726 0.0088487481            4 
 1723000    0.5719381   -8.9093437    211.82266  0.010244857 0.0088407476            3 
 1724000   0.56947738   -8.9018652    211.90553   0.01024292 0.0088327638            7 
 1725000   0.56201227   -8.9279914    211.26889  0.010206227 0.0088247895            4 
 1726000   0.57155625   -8.9091025    211.55185  0.010213975 0.0088168163            3 
 1727000    0.5552289   -8.9042754    211.64686  0.010212645 0.0088088611            9 
 1728000   0.56525631   -8.9048803    211.67348  0.010208019 0.0088009156            5 
 1729000   0.57238051   -8.9410442    211.45231  0.010191455   0.00879297            7 
 1730000   0.56736647   -8.9158917    211.42235  0.010184121 0.0087850404            6 
 1731000   0.56561581    -8.911737    211.76316  0.010194645  0.008777117            7 
 1732000   0.56093398   -8.9084598    211.51463  0.010176801 0.0087691985           11 
 1733000   0.55812392    -8.913613    211.70591  0.010180126 0.0087612825            3 
 1734000   0.55367489   -8.9175143    211.77455  0.010177554 0.0087533904            3 
 1735000   0.56169313   -8.9281832    211.64542  0.010165486  0.008745511            3 
 1736000   0.56159815   -8.9234563    212.00087  0.010176693 0.0087376276            4 
 1737000   0.56310617   -8.9298656    211.22705   0.01013371 0.0087297604            7 
 1738000   0.55765948   -8.9118017    211.25749  0.010129339 0.0087218917            5 
 1739000   0.57512911   -8.9102385    211.38503  0.010129626 0.0087140353            3 
 1740000   0.54269779   -8.9409123    211.59321  0.010133774 0.0087061951            5 
 1741000   0.55835278   -8.9343019    211.30551  0.010114183 0.0086983567            3 
 1742000   0.56167544   -8.9245305    211.36982  0.010111453 0.0086905294            3 
 1743000   0.55148164   -8.9406891    211.30071  0.010102348 0.0086827129            5 
 1744000   0.54773459   -8.9244801    211.27571  0.010095361 0.0086749012            7 
 1745000   0.55803827    -8.933968    211.46806  0.010098761 0.0086671054            4 
 1746000    0.5643525   -8.9494794    211.02777  0.010071963 0.0086593213            3 
 1747000   0.54416983   -8.9234262    210.81849  0.010056215 0.0086515428            5 
 1748000   0.56725584   -8.9297089    211.12754  0.010065196 0.0086437649            5 
 1749000   0.56082914   -8.9068008    211.56537  0.010080302 0.0086359966            4 
 1750000   0.54209679   -8.9201812     211.2837  0.010061128 0.0086282425            5 
 1751000    0.5495158   -8.9147269    211.46545  0.010064033 0.0086204913            5 
 1752000   0.55652462   -8.9286912    211.30558  0.010050684 0.0086127454            7 
 1753000   0.54861585   -8.9320695    211.29316   0.01004436 0.0086050085            5 
 1754000   0.56267966   -8.9281579    211.48532  0.010047763 0.0085972828            2 
 1755000   0.55516428   -8.9533965     211.2693  0.010031781 0.0085895628            8 
 1756000   0.55672659   -8.9161829    211.14958  0.010020387  0.008581855            7 
 1757000   0.54427231   -8.9213954    211.25862  0.010019855 0.0085741582            4 
 1758000   0.54076086    -8.933821    210.93649 0.0099988854 0.0085664612            4 
 1759000   0.53583351   -8.9304596      211.292  0.010010044 0.0085587742            7 
 1760000   0.55008617   -8.9489142    211.38776   0.01000889 0.0085510968            8 
 1761000   0.56351007   -8.9299644     211.5435  0.010010576 0.0085434328            7 
 1762000   0.55241147   -8.9285531    211.44209  0.010000099 0.0085357722            6 
 1763000   0.55712999   -8.9469771    211.41831 0.0099933024 0.0085281167            8 
 1764000   0.55570197   -8.9424347    211.51047  0.009991991  0.008520471            5 
 1765000   0.54007798   -8.9307953    211.26219 0.0099746075 0.0085128368            8 
 1766000   0.55560724   -8.9462433    211.14906 0.0099636212 0.0085052084            8 
 1767000   0.54402812   -8.9216259    211.08324 0.0099548785 0.0084975836            4 
 1768000   0.55257002    -8.927948    211.50777 0.0099692575 0.0084899747            5 
 1769000   0.54799087   -8.9483465    211.03547  0.009941373 0.0084823832            8 
 1770000   0.55393408   -8.9428015    211.31088 0.0099487233 0.0084747911            7 
 1771000   0.54629623   -8.9347015     211.3715  0.009945958 0.0084672033            7 
 1772000   0.53776983   -8.9209472    211.01613 0.0099236327 0.0084596286            3 
 1773000   0.53682601    -8.958611     211.5074  0.009941126 0.0084520598            7 
 1774000   0.54599105   -8.9368352    211.41492 0.0099311781 0.0084444927            4 
 1775000   0.54943304   -8.9406771    211.01951 0.0099070195 0.0084369403            6 
 1776000   0.54820691   -8.9417756    211.15714 0.0099078987 0.0084293967            5 
 1777000   0.53912804   -8.9775144    211.15317 0.0099021371 0.0084218591            3 
 1778000   0.55024915   -8.9450858    210.71636 0.0098760949 0.0084143387            5 
 1779000   0.54194237   -8.9466583    211.03563 0.0098854991 0.0084068248           10 
 1780000   0.54698853   -8.9693402     211.3226 0.0098933802 0.0083993151            4 
 1781000    0.5437909   -8.9556799    211.41083 0.0098919536 0.0083918191            8 
 1782000   0.54176176   -8.9427759    211.22187  0.009877566 0.0083843231            3 
 1783000   0.53962803   -8.9657306    210.93742 0.0098587315 0.0083768319           10 
 1784000   0.53912441   -8.9586647    211.23497 0.0098671045  0.008369347            2 
 1785000   0.53683772   -8.9540299    211.27876  0.009863621 0.0083618733            5 
 1786000   0.54419756   -8.9688379    211.81238 0.0098829966 0.0083544135            5 
 1787000   0.54665587   -8.9575535    211.30301 0.0098537123 0.0083469613            2 
 1788000   0.53208467   -8.9540683    210.89134 0.0098290146 0.0083395186            7 
 1789000   0.54246922   -8.9443419    211.36497 0.0098455828 0.0083320838            5 
 1790000   0.55972213   -8.9661452     211.1481 0.0098299861 0.0083246586            4 
 1791000   0.52927476   -8.9746083    211.23328 0.0098284611  0.008317242            6 
 1792000   0.54733215   -8.9658381    211.30942 0.0098265168 0.0083098395            5 
 1793000   0.54240887   -8.9843365    211.30479  0.009820821 0.0083024357            4 
 1794000   0.53056785   -8.9482385    210.81306 0.0097925058  0.008295031            5 
 1795000   0.53387918   -8.9530344    211.13894 0.0098021794 0.0082876342           11 
 1796000   0.52689338   -8.9692278    211.16034 0.0097977144 0.0082802479            7 
 1797000   0.53545429   -8.9721589    210.66034 0.0097690755 0.0082728658            6 
 1798000   0.53172701   -8.9538211    210.95562 0.0097773275 0.0082654923            4 
 1799000   0.54161627   -8.9694299    210.87717 0.0097682586 0.0082581201            5 
 1800000   0.52430658    -8.953208    211.05577 0.0097711003 0.0082507639           11 
 1801000   0.53885747   -8.9641264    210.80466 0.0097540559  0.008243421            6 
 1802000    0.5430609   -8.9597666    210.87148 0.0097517331 0.0082360812            6 
 1803000   0.53152575   -8.9843226      210.863 0.0097459326 0.0082287475            5 
 1804000    0.5389752   -8.9623807    210.95694 0.0097448696 0.0082214298            9 
 1805000    0.5342432   -8.9704871    210.89519 0.0097366198 0.0082141204            5 
 1806000   0.53729681   -8.9703974    211.08007 0.0097397598 0.0082068248            8 
 1807000   0.53197471   -8.9739524    211.03957 0.0097325019 0.0081995342            7 
 1808000   0.53406154   -8.9762569    211.18343 0.0097337497 0.0081922535            7 
 1809000   0.54202398   -8.9776665    210.72421 0.0097072143 0.0081849694            5 
 1810000   0.52770949   -8.9710198    211.08706 0.0097185571 0.0081776965            7 
 1811000   0.53677803    -8.984637    210.77597  0.009698876 0.0081704198            6 
 1812000   0.52435071    -8.963149    210.62515 0.0096865873 0.0081631539            5 
 1813000   0.51996019   -8.9781649    211.12751  0.009704335 0.0081559046            5 
 1814000   0.52878478   -8.9642861    210.91027 0.0096890055 0.0081486603            4 
 1815000   0.52357033    -8.979806    210.99573 0.0096875908 0.0081414179            6 
 1816000   0.53339748   -8.9721711    210.65062 0.0096664197 0.0081341952            5 
 1817000   0.53510096   -8.9828493     210.8547 0.0096704596 0.0081269821            9 
 1818000   0.54167398   -8.9778163    211.05644 0.0096743876 0.0081197796            5 
 1819000   0.53732038   -8.9857837    210.59368 0.0096478688 0.0081125773            7 
 1820000   0.51770514   -8.9662965    210.95984 0.0096593331 0.0081053743            3 
 1821000   0.51374835   -8.9824645    211.04059 0.0096577242 0.0080981772            6 
 1822000   0.53287273    -8.977245    210.43599  0.009624771 0.0080909806            5 
 1823000   0.53652789   -8.9777256    210.94719 0.0096428593  0.008083801            5 
 1824000    0.5201446   -9.0105199    210.50483 0.0096173623 0.0080766182            6 
 1825000   0.51440702   -8.9826564    210.67177 0.0096197154 0.0080694524            5 
 1826000   0.52794706   -8.9825889    210.98587  0.009628782 0.0080622943            8 
 1827000   0.52858854   -8.9912483    210.60168 0.0096059878 0.0080551365            3 
 1828000   0.52778237   -8.9863127    210.26233  0.009585263  0.008047995            5 
 1829000   0.51588756   -8.9986155    210.79313 0.0096042069 0.0080408629            7 
 1830000   0.52373675   -8.9858219    210.54269 0.0095875544 0.0080337334            3 
 1831000   0.50818518   -9.0061319      210.651 0.0095872474 0.0080266074            6 
 1832000   0.51676975   -8.9977547    210.55116 0.0095774726 0.0080194895            4 
 1833000   0.52290582    -9.002609    210.18565 0.0095556305 0.0080123776            4 
 1834000   0.52181999   -8.9891444    210.60907 0.0095696599 0.0080052702            8 
 1835000    0.5212461   -8.9984518    210.83828  0.009574854 0.0079981811            8 
 1836000   0.51914099   -8.9818698    210.75748 0.0095659711 0.0079911023            8 
 1837000   0.52641458   -8.9891375    210.67502 0.0095570233 0.0079840269            5 
 1838000   0.51870907   -8.9905492    211.01324 0.0095671582 0.0079769582            5 
 1839000   0.51516252   -8.9880098    210.62046 0.0095441571 0.0079698989            6 
 1840000   0.51276002   -8.9962511     210.4429 0.0095309284 0.0079628459            4 
 1841000   0.51380364   -8.9878276    210.32171 0.0095202657 0.0079558083            5 
 1842000   0.51642723   -8.9855746    210.88728 0.0095406839 0.0079487722            5 
 1843000   0.52032393   -8.9907232    210.33793 0.0095106678 0.0079417424            4 
 1844000   0.51804647   -8.9965819    210.76543 0.0095248296  0.007934723            7 
 1845000   0.50843687   -8.9976576    210.72723 0.0095179419 0.0079277245            5 
 1846000   0.51891769   -9.0116332    210.59475 0.0095068055 0.0079207275            3 
 1847000    0.5124787    -8.994524    210.61353 0.0095025056 0.0079137411            5 
 1848000   0.51593519   -9.0004829    210.19544 0.0094785102 0.0079067522            7 
 1849000   0.51506094   -9.0090104    210.45423 0.0094850475 0.0078997798            5 
 1850000   0.51310156   -9.0121391    210.28589 0.0094723374 0.0078928121            5 
 1851000    0.5176357   -8.9985297    210.70095 0.0094859064 0.0078858482            4 
 1852000   0.51315002   -9.0080659    210.67317 0.0094795343 0.0078788952            5 
 1853000   0.51792696   -9.0158526    210.30381 0.0094578076 0.0078719427            9 
 1854000    0.5124297   -8.9980554    210.75856 0.0094731464 0.0078650151            3 
 1855000   0.51203334   -9.0312635    210.34419 0.0094494244 0.0078580806            5 
 1856000   0.51172101   -8.9984686    210.47475 0.0094501954 0.0078511575            4 
 1857000   0.50996846    -9.005562    210.65231 0.0094530743  0.007844244            8 
 1858000   0.51042627   -9.0013071    210.26709  0.009430709  0.007837338            6 
 1859000   0.51860622   -8.9841205    210.39525 0.0094313813 0.0078304383            4 
 1860000   0.51620554   -8.9976293     210.5701 0.0094341443 0.0078235431            5 
 1861000   0.51030829   -9.0074524    210.45592 0.0094239621 0.0078166605            5 
 1862000   0.51400073   -9.0184288    210.81116 0.0094347994 0.0078097864            4 
 1863000   0.51672736   -8.9956028    210.21619 0.0094031216 0.0078029156            7 
 1864000   0.51062196   -9.0164944    210.64407 0.0094172061 0.0077960586            3 
 1865000   0.51126227   -9.0004628    210.54535 0.0094077456 0.0077892099            5 
 1866000     0.500695   -9.0260709    210.53844 0.0094023955 0.0077823695            3 
 1867000   0.50212805   -9.0114567    210.56171 0.0093983982 0.0077755384            5 
 1868000   0.51795196   -9.0096701    210.41252 0.0093867112 0.0077687089            4 
 1869000   0.50383549   -9.0074505    210.37609 0.0093800649 0.0077618852            5 
 1870000   0.51060289   -9.0328054    210.13529 0.0093643178 0.0077550762            4 
 1871000   0.50690767    -9.035977    210.42386 0.0093721657 0.0077482746            3 
 1872000   0.50217601   -8.9955747    210.17258 0.0093559729 0.0077414782            4 
 1873000   0.51201696   -9.0210815    210.19423  0.009351941 0.0077346954            5 
 1874000   0.50372308   -9.0127215    210.59566 0.0093648015 0.0077279193            9 
 1875000   0.49371859   -9.0166145    210.45681 0.0093536359 0.0077211436            5 
 1876000   0.49865212    -9.023061    210.26526 0.0093401412 0.0077143701            4 
 1877000   0.49644185   -9.0009403    210.78146 0.0093580831 0.0077076134            4 
 1878000    0.5070285   -8.9963966    210.33165 0.0093331404 0.0077008693            7 
 1879000   0.49910593   -9.0231348    210.43952 0.0093329573 0.0076941227            8 
 1880000   0.50132664   -9.0110417    210.41569 0.0093269367 0.0076873817            6 
 1881000   0.50851357   -9.0248784     210.5635 0.0093285263 0.0076806522            8 
 1882000   0.49301344   -9.0277965    210.46019 0.0093189952   0.00767393            6 
 1883000   0.50845695   -9.0056043    210.65702 0.0093227571 0.0076672135            5 
 1884000   0.49143865    -9.032486    210.25608 0.0093000742  0.007660502            4 
 1885000   0.50391067   -9.0357221    210.33274 0.0092985294  0.007653806            7 
 1886000    0.4940933   -9.0145302    210.35986 0.0092947977 0.0076471155            7 
 1887000   0.50771662    -9.026578     210.5109 0.0092965422 0.0076404313            4 
 1888000   0.49910452   -9.0281133    210.00588 0.0092693275 0.0076337589            4 
 1889000   0.49943435   -9.0430696    210.61137 0.0092911315 0.0076270978            8 
 1890000   0.50389588   -9.0211967    210.31723 0.0092732464 0.0076204356            9 
 1891000   0.49669349   -9.0196353    209.93818 0.0092516385 0.0076137832            5 
 1892000   0.49923941   -9.0338223    210.36054 0.0092653514 0.0076071305            6 
 1893000    0.5118456   -9.0365172    210.35386  0.009260163 0.0076004876            6 
 1894000   0.51009114   -9.0072163    210.57551  0.009265026 0.0075938526            5 
 1895000   0.50468185   -9.0219936    210.43606 0.0092540044 0.0075872294            6 
 1896000   0.49500145   -9.0220623    210.61752 0.0092570993 0.0075806082            4 
 1897000   0.48774217   -9.0201317    210.27703 0.0092372619 0.0075739939            6 
 1898000   0.50031679   -9.0301407    210.28689 0.0092328278 0.0075673849            7 
 1899000   0.50727752   -9.0405455    210.39056 0.0092325153 0.0075607822            4 
 1900000   0.49537006   -9.0365643    210.06457 0.0092133583 0.0075541928            8 
 1901000   0.50384601    -9.029058    210.28966  0.009218379 0.0075476038            4 
 1902000   0.49670488   -9.0260229     210.2275 0.0092108089 0.0075410254            4 
 1903000   0.49837397   -9.0295619    210.49702 0.0092177709 0.0075344523            4 
 1904000    0.4928828    -9.029622    210.32139 0.0092052427 0.0075278927            4 
 1905000   0.48579681   -9.0340577    210.38178 0.0092030523 0.0075213381            5 
 1906000   0.48987807    -9.025432    210.13411 0.0091873956 0.0075147924            9 
 1907000     0.493862   -9.0309913    210.05379 0.0091790677 0.0075082445            4 
 1908000   0.48765401   -9.0290846    210.03145 0.0091732812 0.0075017066           13 
 1909000   0.48991525   -9.0353815    210.19578 0.0091756496 0.0074951707            5 
 1910000   0.48838524   -9.0512603    209.83961 0.0091553057 0.0074886462            8 
 1911000   0.49529643   -9.0621279    210.23517 0.0091677644 0.0074821297            5 
 1912000   0.49266002   -9.0482897    209.74831 0.0091417498 0.0074756226            6 
 1913000   0.49396924   -9.0395043    210.00488 0.0091481479 0.0074691164            7 
 1914000   0.49652487   -9.0470797    209.88514 0.0091381547 0.0074626219            4 
 1915000     0.492993   -9.0554003     210.2445 0.0091490207 0.0074561311            6 
 1916000   0.47916693   -9.0301291    210.19235 0.0091419777 0.0074496455            5 
 1917000   0.48347095    -9.040575    210.20089 0.0091375801 0.0074431712            6 
 1918000   0.48124303   -9.0447992    209.89441 0.0091194998 0.0074367031            5 
 1919000    0.4815176   -9.0336061    210.09513 0.0091234641 0.0074302438           16 
 1920000    0.4854401   -9.0654827    209.66607 0.0091000899 0.0074237862            8 
 1921000   0.48699844   -9.0226088    210.43931 0.0091288961 0.0074173466            2 
 1922000   0.49242194   -9.0579357    209.89065 0.0091003575 0.0074109097            3 
 1923000   0.48971384   -9.0496016     209.9521 0.0090982884 0.0074044789            3 
 1924000   0.49159135   -9.0442278    209.98361 0.0090949243 0.0073980614           20 
 1925000   0.47841733    -9.049138    210.36929 0.0091068958 0.0073916459            3 
 1926000   0.47875415   -9.0520388    209.50266 0.0090646703 0.0073852368            9 
 1927000   0.49447679    -9.064708    209.98722 0.0090809213 0.0073788238            5 
 1928000   0.47293305   -9.0407642    209.98996 0.0090763297 0.0073724282            6 
 1929000   0.48866014   -9.0430578    210.01661 0.0090727758 0.0073660367            5 
 1930000   0.48929533    -9.056556     210.1001 0.0090716796  0.007359651            5 
 1931000   0.49404081    -9.059719     209.6223 0.0090463622 0.0073532704            7 
 1932000   0.47939859   -9.0466999    210.34144 0.0090726982  0.007346904            5 
 1933000   0.48600726   -9.0538572    210.07785 0.0090566413 0.0073405425            8 
 1934000    0.4748005    -9.057855    209.50252 0.0090271684 0.0073341914            6 
 1935000    0.4839482   -9.0502036    210.07011 0.0090469471 0.0073278427            4 
 1936000   0.48731994   -9.0604427    210.19501 0.0090476504 0.0073215136            4 
 1937000   0.47977462   -9.0619048    209.91334 0.0090308612 0.0073151821            7 
 1938000    0.4809626   -9.0557621    209.92974 0.0090269067 0.0073088592            4 
 1939000   0.48105795   -9.0629223    210.14508  0.009031506 0.0073025483            8 
 1940000   0.48367418   -9.0644244    209.75899  0.009010266 0.0072962359            4 
 1941000   0.46779084   -9.0555729    210.26285 0.0090272561 0.0072899356            3 
 1942000   0.48692596   -9.0656805    209.96528 0.0090098387 0.0072836484           17 
 1943000   0.47519696   -9.0625146    209.77052 0.0089968483 0.0072773631            7 
 1944000   0.47412282   -9.0593118    209.97409 0.0090009468 0.0072710805            6 
 1945000   0.48500903   -9.0650687    209.84433 0.0089907594 0.0072648074            3 
 1946000   0.47045702   -9.0621845     209.9295 0.0089897865 0.0072585445            5 
 1947000   0.47489529   -9.0503407    210.24108 0.0089985053 0.0072522845            6 
 1948000   0.46732698   -9.0567729    209.81271 0.0089755609 0.0072460285            7 
 1949000   0.47356573   -9.0405058    210.05051  0.008981123 0.0072397843            6 
 1950000   0.46984074   -9.0444852    209.81424 0.0089664207 0.0072335445            5 
 1951000   0.47193671   -9.0707466    209.85203 0.0089634386 0.0072273102            8 
 1952000   0.47071225   -9.0706717    209.99472 0.0089649384 0.0072210896            6 
 1953000   0.48766251   -9.0734383    209.91928  0.008957129 0.0072148683            4 
 1954000   0.48629184   -9.0661169     210.0024 0.0089560901 0.0072086592            5 
 1955000   0.46922282   -9.0566511    209.82175 0.0089438088 0.0072024578            4 
 1956000   0.48045207   -9.0626369    210.02701 0.0089479809 0.0071962607            7 
 1957000   0.47396353   -9.0553083    209.77266 0.0089325781  0.007190067           10 
 1958000   0.47608111   -9.0466228    209.88797 0.0089329234  0.007183886            5 
 1959000     0.471922    -9.048248    209.98113 0.0089323264 0.0071777081            8 
 1960000   0.47652924    -9.078161    209.87202 0.0089231303 0.0071715435            7 
 1961000   0.47887063   -9.0638096     209.5865 0.0089064466 0.0071653848            5 
 1962000   0.47392676   -9.0653422    210.15112 0.0089258886 0.0071592262            7 
 1963000   0.47002597   -9.0511409     209.9588  0.008913177 0.0071530787            5 
 1964000   0.46785921   -9.0731931    209.74415 0.0088995311 0.0071469329            7 
 1965000   0.47592469   -9.0719728    210.08633 0.0089095136 0.0071407925            5 
 1966000   0.46672101   -9.0761473    209.40727 0.0088761982 0.0071346594            4 
 1967000    0.4727266   -9.0669097    209.91108 0.0088930298 0.0071285289            3 
 1968000   0.47074356   -9.0752069    209.44592 0.0088688143 0.0071224056            6 
 1969000   0.47065979   -9.0769371    209.60052 0.0088708531 0.0071162914            6 
 1970000   0.46423016   -9.0838187    209.90729 0.0088793271 0.0071101809            3 
 1971000   0.45223243   -9.0642243    209.58018  0.008860992 0.0071040757            4 
 1972000   0.48327763   -9.0862376    209.72311 0.0088625385 0.0070979818            6 
 1973000   0.45112569   -9.0787995    209.58067 0.0088520304 0.0070918925            8 
 1974000   0.47376243   -9.0748435    209.45823  0.008842377 0.0070858096            5 
 1975000   0.46725119   -9.0816819    209.80265 0.0088524323  0.007079738            6 
 1976000   0.46332754   -9.0733887    210.05652 0.0088586587 0.0070736729           10 
 1977000   0.46861536   -9.0740227    209.96046  0.008850129 0.0070676141            6 
 1978000   0.45912776   -9.0916553    209.78428 0.0088382324 0.0070615621            5 
 1979000   0.46310475   -9.0848593     209.6462 0.0088279518 0.0070555195            5 
 1980000   0.47327606   -9.0893878    209.05538 0.0087986272 0.0070494771            3 
 1981000   0.46054191   -9.0926625    209.63656 0.0088186335 0.0070434438            3 
 1982000   0.47108759   -9.0880379    209.61267 0.0088131797 0.0070374154            4 
 1983000   0.45216631   -9.0715368    209.66518 0.0088109421 0.0070313945            8 
 1984000   0.46259172   -9.0955088     209.4688 0.0087982526 0.0070253782            7 
 1985000   0.45776562   -9.0791648     209.7055 0.0088037575 0.0070193745            6 
 1986000   0.46852752   -9.0715211    209.79266 0.0088029818 0.0070133708            5 
 1987000   0.46205819   -9.0931523    209.50276 0.0087863933 0.0070073771            4 
 1988000   0.45292425   -9.0995619    209.40197 0.0087777487 0.0070013918            4 
 1989000   0.46743653   -9.0878833    209.54355  0.008779267 0.0069954055            5 
 1990000   0.46429872   -9.0884568    209.55848 0.0087754808 0.0069894279            5 
 1991000   0.45231326   -9.0793613     209.7477 0.0087789929 0.0069834562           12 
 1992000   0.46558373   -9.0934481    209.73906 0.0087742243 0.0069774957            5 
 1993000   0.45992133   -9.0854693    209.94322 0.0087783583 0.0069715375            4 
 1994000   0.45246659    -9.115225    209.66138 0.0087621775 0.0069655865            4 
 1995000   0.46198083    -9.096188    209.51681 0.0087517466 0.0069596381            5 
 1996000   0.44895103   -9.1001732    209.41691 0.0087431911 0.0069537036            6 
 1997000   0.46161962   -9.0900506    209.86605 0.0087575549  0.006947768            4 
 1998000   0.45353799   -9.0974383    209.65106 0.0087442052 0.0069418421            6 
 1999000   0.45145837   -9.1025027    209.60806 0.0087380381 0.0069359286            8 
 2000000   0.45984633    -9.104966    209.39071 0.0087246129 0.0069300195            7 
 2001000   0.44983389   -9.0891187    209.38806 0.0087201425 0.0069241185            4 
 2002000   0.46187765   -9.0811449    209.76765 0.0087315873 0.0069182199            4 
 2003000   0.44946248   -9.1191392    209.19793  0.008703525 0.0069123217            3 
 2004000   0.45137186   -9.1008418    209.23496 0.0087007218 0.0069064272            5 
 2005000    0.4536719   -9.0939177    209.25068 0.0086970359 0.0069005455            6 
 2006000    0.4489531   -9.0972206    209.36727 0.0086975437 0.0068946744            5 
 2007000   0.45070513   -9.1010245    209.30595 0.0086906639 0.0068888065            5 
 2008000   0.44208088   -9.0983203    209.26775 0.0086847507 0.0068829443            6 
 2009000   0.44889442   -9.1050913    209.47171 0.0086888877 0.0068770962            5 
 2010000   0.45294329   -9.0959422    209.14978 0.0086712182 0.0068712509            4 
 2011000   0.44548024   -9.0891893    209.58711 0.0086850287 0.0068654068            5 
 2012000   0.44684112   -9.1075039    209.62289 0.0086821937 0.0068595717            5 
Loop time of 5067.61 on 48 procs for 2000000 steps with 4000 atoms

Performance: 68197.820 tau/day, 394.663 timesteps/s
99.4% CPU use with 48 MPI tasks x no OpenMP threads

MPI task timing breakdown:
Section |  min time  |  avg time  |  max time  |%varavg| %total
---------------------------------------------------------------
Pair    | 350.33     | 375.44     | 400.4      |  69.2 |  7.41
Neigh   | 33.614     | 34.987     | 36.499     |  10.7 |  0.69
Comm    | 317.23     | 345.67     | 375.66     |  80.1 |  6.82
Output  | 4.1788     | 4.1807     | 4.2261     |   0.3 |  0.08
Modify  | 4250.1     | 4261.7     | 4278.3     |   9.9 | 84.10
Other   |            | 45.66      |            |       |  0.90

Nlocal:        83.3333 ave          90 max          78 min
Histogram: 5 3 2 7 7 15 6 1 0 2
Nghost:        2256.06 ave        2269 max        2241 min
Histogram: 2 1 4 5 7 7 13 2 6 1
Neighs:        15152.2 ave       16845 max       13510 min
Histogram: 1 2 5 8 9 11 4 7 0 1
FullNghs:      30303.1 ave       32635 max       28182 min
Histogram: 4 4 2 7 8 7 10 4 0 2

Total # of neighbors = 1454549
Ave neighs/atom = 363.63725
Neighbor list builds = 106682
Dangerous builds = 0

#clear
#
#next RN
#
#jump SELF
Total wall time: 1:24:31
