
units lj                  # Use reduced LJ style units
atom_style atomic         # Uncharged point particles
atom_modify map hash      # Needed for indexing of clusters etc
                          # Used to be able to find where atoms are in relation to each other.

lattice fcc 1.0 spacing 1 1 1
Lattice spacing in x,y,z = 1.5874011 1.5874011 1.5874011
region box block 0 10 0 10 0 10 units lattice
create_box 2 box
Created orthogonal box = (0.0000000 0.0000000 0.0000000) to (15.874011 15.874011 15.874011)
  3 by 4 by 4 MPI processor grid
create_atoms 1 box
Created 4000 atoms
  using lattice units in orthogonal box = (0.0000000 0.0000000 0.0000000) to (15.874011 15.874011 15.874011)
  create_atoms CPU = 0.002 seconds
set type 1 type/fraction 2 0.71 78393
Setting atom values ...
  2865 settings made for type/fraction
mass 1 1.0
mass 2 1.0
pair_style lj/cut  3.5
pair_modify tail  yes
pair_coeff 1  1  1.0  1.0   # Intearaction between 1 and 1 set with epsilon = 1 and sigma = 1
pair_coeff 1  2  1.5  0.8
pair_coeff 2  2  0.5  0.88

write_data data.0
System init for write_data ...
Neighbor list info ...
  update every 1 steps, delay 10 steps, check yes
  max neighbors/atom: 2000, page size: 100000
  master list distance cutoff = 3.8
  ghost atom cutoff = 3.8
  binsize = 1.9, bins = 9 9 9
  1 neighbor lists, perpetual/occasional/extra = 1 0 0
  (1) pair lj/cut, perpetual
      attributes: half, newton on
      pair build: half/bin/atomonly/newton
      stencil: half/bin/3d
      bin: standard
WARNING: Not all mixed pair coeffs generated from mixing. Use write_data with 'pair ij' option to store all pair coeffs. (../write_data.cpp:312)


#############################
#   M E L T   S Y S T E M   #
#############################

velocity all create 2.4 1741580 mom yes dist gaussian # Assign velocities
                                                    # Temperature 2.4, random number seed, zero linear momentum
                                                                                # Gaussian distribution

timestep 0.002   # simulation timestep
thermo 1000       # output thermodynamic data every 1000 steps bf 100

# Define a fix  in this case with index 1 applied to all
# particles in the simulation. This fix is for simulations
# in the anisotropic NPT ensemble. Note that we use the MTK
# correction.
fix 1 all npt temp 2.4 2.4 0.1 iso 5.68 5.68 0.5 mtk yes tchain 5 pchain 5 # Use NPT ensemble
                                                                         # Set temperature and pressure and damping
                                                                         # Numbers of thermostats in chain and in barostat
run 10000          # run for 10000 steps
Per MPI rank memory allocation (min/avg/max) = 3.642 | 3.644 | 3.648 Mbytes
Step Temp E_pair E_mol TotEng Press Volume 
       0          2.4   -4.1166387            0   -0.5175387   -3.7043072         4000 
    1000    2.3893226   -3.7126036            0  -0.12951564    5.3100359    3697.8028 
    2000    2.4665088   -3.7470126            0 -0.048174331    5.7891278    3648.8328 
    3000    2.3518833   -3.6945434            0  -0.16760038     5.645074    3683.6444 
    4000    2.4152664   -3.6814399            0 -0.059445977    5.5438072    3698.5806 
    5000    2.4717211   -3.7203996            0  -0.01374477    5.5517489    3692.0114 
    6000    2.4575274   -3.7213875            0 -0.036018019    5.7057706    3656.6773 
    7000    2.3893445   -3.6613761            0 -0.078255421    5.9705313    3673.5537 
    8000    2.3337786   -3.6845621            0   -0.1847694    5.4993818    3688.2109 
    9000    2.3418977   -3.7166614            0  -0.20469306    5.5525423    3664.7216 
   10000    2.3499703   -3.7053039            0  -0.18122962    5.6807006    3665.0396 
Loop time of 2.74282 on 48 procs for 10000 steps with 4000 atoms

Performance: 630008.195 tau/day, 3645.881 timesteps/s
99.5% CPU use with 48 MPI tasks x no OpenMP threads

MPI task timing breakdown:
Section |  min time  |  avg time  |  max time  |%varavg| %total
---------------------------------------------------------------
Pair    | 1.2109     | 1.2679     | 1.4585     |   3.7 | 46.23
Neigh   | 0.2152     | 0.22267    | 0.25102    |   1.2 |  8.12
Comm    | 0.74709    | 0.91123    | 0.98929    |   4.8 | 33.22
Output  | 0.00025173 | 0.00025575 | 0.00032301 |   0.0 |  0.01
Modify  | 0.26938    | 0.32479    | 0.37905    |   6.2 | 11.84
Other   |            | 0.01601    |            |       |  0.58

Nlocal:        83.3333 ave          93 max          67 min
Histogram: 1 0 0 3 5 12 11 6 8 2
Nghost:        1741.33 ave        1770 max        1708 min
Histogram: 1 2 1 5 13 11 5 8 0 2
Neighs:        10423.7 ave       11898 max        7831 min
Histogram: 1 0 0 1 9 10 9 11 3 4

Total # of neighbors = 500338
Ave neighs/atom = 125.08450
Neighbor list builds = 896
Dangerous builds = 151

# Equilibrate just above the melting temperature to avoid step fn in T

fix 1 all npt temp 1.25 1.25 0.1 iso 5.68 5.68 0.5 mtk yes tchain 5 pchain 5
run 2000
Per MPI rank memory allocation (min/avg/max) = 3.644 | 3.646 | 3.649 Mbytes
Step Temp E_pair E_mol TotEng Press Volume 
   10000    2.3499703   -3.7053039            0  -0.18122962    5.6807006    3665.0396 
   11000    1.2631075   -5.4474814            0   -3.5532938    5.9723105    2795.9757 
   12000    1.2314124    -5.520658            0   -3.6740011    5.2816697      2798.95 
Loop time of 0.762815 on 48 procs for 2000 steps with 4000 atoms

Performance: 453058.869 tau/day, 2621.868 timesteps/s
99.3% CPU use with 48 MPI tasks x no OpenMP threads

MPI task timing breakdown:
Section |  min time  |  avg time  |  max time  |%varavg| %total
---------------------------------------------------------------
Pair    | 0.3037     | 0.32574    | 0.35929    |   2.4 | 42.70
Neigh   | 0.04187    | 0.04353    | 0.046262   |   0.5 |  5.71
Comm    | 0.24875    | 0.28719    | 0.31317    |   2.9 | 37.65
Output  | 5.2256e-05 | 5.4092e-05 | 7.0985e-05 |   0.0 |  0.01
Modify  | 0.069064   | 0.10123    | 0.10552    |   2.2 | 13.27
Other   |            | 0.005078   |            |       |  0.67

Nlocal:        83.3333 ave          92 max          72 min
Histogram: 1 0 1 3 6 17 10 4 3 3
Nghost:        2083.50 ave        2107 max        2060 min
Histogram: 3 0 4 6 11 9 8 5 1 1
Neighs:        13636.2 ave       15151 max       11893 min
Histogram: 1 3 4 4 7 11 6 6 4 2

Total # of neighbors = 654539
Ave neighs/atom = 163.63475
Neighbor list builds = 141
Dangerous builds = 12

#############################
# L I N E A R  Q U E N C H  #
#############################

# Define solid atoms. This closely follows ten Wolde  Ruiz-Montero and Frenkel  Faraday Discuss  1996  104  93-110
# Compute components of the per-atom q6 vector
compute q6 all orientorder/atom degrees 1 6 components 6 nnn NULL cutoff 1.3 # compute the Q6 parameter.
                                                                             # Use all neighbours within 1.3 unit cell.

# get number of connections
compute coord_number all coord/atom orientorder q6 0.5

# An atom is solid if it has 8 or more connections (of a possible 14)
variable is_solid atom c_coord_number>=8
group solid dynamic all var is_solid    # Must be dynamic to update
dynamic group solid defined

# do clustering
compute cluster solid cluster/atom 1.3 # Create a cluster where all atoms within are solid and max 1.3 units from another member

# define chunks one chunk per cluster
compute clus_chunks solid chunk/atom c_cluster nchunk every compress yes  # Says which atoms are in which chunk

# count the size of each chunk
compute size_chunks solid property/chunk clus_chunks count


# Find the maximum entry in the vector of chunk sizes
variable max_n equal max(c_size_chunks)


# Thermo style which includes this variable
# thermo_style custom step temp pe vol v_max_n

thermo ${N}  # Print the thermo information every 100 steps
thermo 1000  

# Reset the npt fix at a lower temperature (below freezing)
fix 1  all npt temp  ${temp} ${temp}  0.1  iso  5.68  5.68  0.5  mtk yes tchain  5  pchain  5
fix 1  all npt temp  0.45 ${temp}  0.1  iso  5.68  5.68  0.5  mtk yes tchain  5  pchain  5
fix 1  all npt temp  0.45 0.45  0.1  iso  5.68  5.68  0.5  mtk yes tchain  5  pchain  5

dump dmp2 all dcd ${N} traj.dcd
dump dmp2 all dcd 1000 traj.dcd


compute msd all msd com yes
variable twopoint equal c_msd[4]/6/(step*dt+1.0e-6)
fix 9 all vector 10 c_msd[4]
variable fit equal slope(f_9)/6/(10*dt)
thermo_style custom step temp pe c_msd[4] v_twopoint v_fit v_max_n

fix 1 all npt temp 1.25 ${temp} 0.1 iso 5.68 5.68 0.5 mtk yes tchain 5 pchain 5
fix 1 all npt temp 1.25 0.45 0.1 iso 5.68 5.68 0.5 mtk yes tchain 5 pchain 5
run 5000000 # 5000000  # Run for this many steps
Neighbor list info ...
  update every 1 steps, delay 10 steps, check yes
  max neighbors/atom: 2000, page size: 100000
  master list distance cutoff = 3.8
  ghost atom cutoff = 3.8
  binsize = 1.9, bins = 8 8 8
  4 neighbor lists, perpetual/occasional/extra = 1 3 0
  (1) pair lj/cut, perpetual
      attributes: half, newton on
      pair build: half/bin/atomonly/newton
      stencil: half/bin/3d
      bin: standard
  (2) compute orientorder/atom, occasional
      attributes: full, newton on
      pair build: full/bin/atomonly
      stencil: full/bin/3d
      bin: standard
  (3) compute coord/atom, occasional
      attributes: full, newton on
      pair build: full/bin/atomonly
      stencil: full/bin/3d
      bin: standard
  (4) compute cluster/atom, occasional
      attributes: full, newton on
      pair build: full/bin/atomonly
      stencil: full/bin/3d
      bin: standard
Per MPI rank memory allocation (min/avg/max) = 9.842 | 9.847 | 9.850 Mbytes
Step Temp PotEng c_msd[4] v_twopoint v_fit v_max_n 
   12000    1.2314124    -5.520658 1.6826403e-30 1.1685002e-32 8.3333333e+20            4 
   13000    1.2304286   -5.5184712   0.63073886 0.0040431977  0.052327043            1 
   14000    1.2361559   -5.4939277    1.2885913 0.0076701858  0.052627469            8 
   15000    1.2301413   -5.5294693    1.9036043  0.010575579  0.053226792            3 
   16000    1.2534623   -5.5374964    2.5265476  0.013159102  0.052994888            4 
   17000    1.2756388   -5.4873633      3.12793   0.01533299  0.052558343            5 
   18000    1.2772024   -5.5134873     3.808106   0.01763012  0.052450007            2 
   19000    1.2408613    -5.545813    4.4031426  0.019312029  0.052599622            2 
   20000    1.2762932   -5.5319136    5.0217556  0.020923981  0.052552338            2 
   21000    1.2785548    -5.478866    5.7026175  0.022629434  0.052506276            2 
   22000    1.2484615   -5.4716257     6.306304  0.023887515  0.052393874            2 
   23000    1.2693815   -5.4951661    6.8181372  0.024703395  0.052164091            2 
   24000    1.2314399    -5.544164     7.542062  0.026187715  0.052056141            2 
   25000    1.2390328    -5.495087    8.1827286  0.027275761  0.052226874            2 
   26000    1.2341839   -5.4797927    8.7409768  0.028015951  0.052118593            2 
   27000    1.2717081   -5.4879753    9.3396823  0.028826179  0.051956612            2 
   28000    1.2553773   -5.5007788    10.048001  0.029904763  0.051988268            2 
   29000    1.2511876   -5.5417831    10.580578  0.030403958  0.051989804            2 
   30000    1.2580139   -5.5412114    11.186152  0.031072643  0.051946841            1 
   31000    1.2547263   -5.5372539     11.79166  0.031698011  0.051880058            2 
   32000    1.2515345   -5.4878194    12.575574   0.03274889  0.051891761            2 
   33000     1.241819   -5.4693867    13.356704  0.033729051   0.05202761            2 
   34000     1.244509   -5.4832651    13.946364  0.034182263  0.052254257            3 
   35000    1.2574744   -5.5383645    14.479853  0.034475839  0.052366695            2 
   36000    1.2558829   -5.5397196    15.013055  0.034752442  0.052395598            2 
   37000    1.2630435   -5.5382217    15.592289  0.035117766  0.052346446            3 
   38000    1.2607787   -5.4692986    16.207655  0.035543103  0.052261688            2 
   39000    1.2305469   -5.5249215    16.720461  0.035727481  0.052166455            2 
   40000    1.2257172   -5.4896156    17.322546  0.036088638  0.052003341            2 
   41000    1.2742695   -5.5478915    18.044705  0.036676229  0.051961671            2 
   42000    1.2425287   -5.5757795    18.802598  0.037306741  0.051981644            2 
   43000    1.2359772   -5.5339603    19.414521   0.03762504  0.052005033            2 
   44000    1.2426644   -5.5224951    20.077639   0.03802583  0.052027185            2 
   45000    1.2695045   -5.5323969    20.635057  0.038213068  0.052037067            2 
   46000     1.235995    -5.500481    21.259159  0.038512969  0.052024275            3 
   47000    1.2385386   -5.5531811    21.868259  0.038773508  0.052034112            2 
   48000    1.2434373   -5.4880965     22.73308  0.039467153  0.052074913            1 
   49000    1.2436062    -5.476525      23.1573  0.039383164  0.052104317            1 
   50000    1.2370752   -5.5199945    23.621062  0.039368437  0.052084519            1 
   51000    1.2530219   -5.5195511    24.185671   0.03951907   0.05202744            1 
   52000    1.2358717   -5.5089405    24.857442  0.039835644  0.051980138            4 
   53000    1.2668823   -5.5174755    25.606883  0.040262394  0.051941446            2 
   54000     1.269183   -5.5301219    25.992613  0.040112056  0.051914185            1 
   55000     1.247438   -5.5296261    26.496759  0.040146604  0.051834638            3 
   56000    1.2487595   -5.5223873    27.135574  0.040380318  0.051757921            3 
   57000    1.2319138   -5.4874213    27.786245  0.040623166  0.051691442            2 
   58000    1.2557465   -5.5256743    28.434354  0.040853957  0.051641347            1 
   59000    1.2379873   -5.4890889    29.036826  0.041012466  0.051593801            1 
   60000    1.2500347   -5.5123433    29.719979  0.041277748  0.051547772            2 
   61000     1.210597   -5.4842702    30.105852  0.041128212  0.051480412            1 
   62000    1.2275277    -5.524188    30.719269   0.04128934  0.051414461            3 
   63000    1.2479117   -5.5228546    31.150476  0.041204333  0.051335922            1 
   64000    1.2270517   -5.4842631    31.909471   0.04154879  0.051261724            2 
   65000    1.2181277   -5.5096654    32.653406  0.041863341  0.051207431            4 
   66000     1.240901   -5.5567278    32.970604   0.04162955  0.051157925            4 
   67000    1.2535749   -5.5326023    33.723818  0.041945047  0.051108901            2 
   68000    1.2362711   -5.5388491     34.16487  0.041868713  0.051066801            4 
   69000    1.2491197   -5.5000842    35.041119  0.042320192  0.051027609            2 
   70000    1.2365516   -5.5153403    35.447645  0.042199577    0.0510006            3 
   71000    1.2471194   -5.5285264    36.368758  0.042686335  0.050994123            2 
   72000     1.225627   -5.5263845    37.071651  0.042907003  0.051001659            3 
   73000    1.2293439   -5.5264259    37.749735  0.043093305  0.051021092            2 
   74000    1.2388596    -5.521369    38.375822  0.043216016  0.051036296            1 
   75000    1.2658967   -5.5074995    38.705217  0.043005797  0.051047944            2 
   76000    1.2344574   -5.5084614    39.560119  0.043377323  0.051055378            5 
   77000    1.2217247    -5.481624    40.145508  0.043447519  0.051068348            3 
   78000     1.242733   -5.5342918    40.767828  0.043555372   0.05107325            3 
   79000     1.231008   -5.5298078    41.263497  0.043526896  0.051076653            1 
   80000    1.2511549   -5.5578762    42.009134  0.043759514  0.051085956            1 
   81000    1.2310471   -5.5540307    42.690152  0.043919909  0.051097808            7 
   82000    1.2544877   -5.5053465    43.164448  0.043866308  0.051109926            7 
   83000    1.2426464   -5.5228029    43.916157  0.044092527  0.051124206            1 
   84000    1.2468514   -5.5099852    44.224487  0.043873498  0.051128922            3 
   85000    1.2211295   -5.5481363    44.866966  0.043987222  0.051130855            1 
   86000    1.2368773   -5.5502578    45.409123  0.044001088   0.05112534            1 
   87000    1.2505548   -5.5417531    45.843659   0.04391155  0.051108852            4 
   88000    1.2456293   -5.5416564    46.384192  0.043924424  0.051078982            2 
   89000    1.2334346   -5.5632182    46.808559  0.043828238  0.051047304            4 
   90000    1.2372163   -5.5377513    47.455936  0.043940681  0.050999842            2 
   91000    1.2317914   -5.5400915    47.711811  0.043692134  0.050947776            2 
   92000    1.2286433   -5.5027391     48.77521  0.044180444  0.050909617            2 
   93000    1.2440164   -5.4682124    49.201318  0.044087203  0.050872577            2 
   94000    1.1984246   -5.5739054    49.748762  0.044103512  0.050831904            3 
   95000    1.2269146   -5.5314858    50.316938  0.044137664  0.050792265            1 
   96000    1.2512728   -5.4962854    51.180624  0.044427624  0.050760127            2 
   97000    1.2271715   -5.5574623    51.322002  0.044091067  0.050729513            2 
   98000    1.2308785   -5.5124536    52.364288  0.044527456  0.050706675            2 
   99000    1.2138614   -5.5362297    52.797555  0.044442386  0.050685248            2 
  100000    1.2329265   -5.5518894    53.476121  0.044563434   0.05066356            2 
  101000    1.2245975   -5.5535803    53.922723  0.044490695  0.050645803            2 
  102000    1.2478417    -5.515327    54.908477  0.044859867  0.050629367            2 
  103000    1.2101218   -5.5143855    55.302087  0.044742788  0.050621058            2 
  104000    1.2308484   -5.5682979    56.148583  0.044990851  0.050607281            4 
  105000    1.2038608     -5.56473    56.706717  0.045005331  0.050601791            1 
  106000    1.2331796   -5.5321653    57.460589  0.045173419  0.050594198            1 
  107000    1.2699883   -5.5508692    57.690691  0.044930445  0.050580758            2 
  108000    1.2199726   -5.5297984    58.287244  0.044974725  0.050566752            1 
  109000    1.2346704   -5.5445421    59.045204  0.045141593  0.050557497            4 
  110000    1.2318972   -5.5402693    59.698639  0.045226241  0.050547068            4 
  111000    1.2560777   -5.5669797    60.405671  0.045349603  0.050540477            2 
  112000    1.2145877   -5.5169508    61.115836  0.045473092  0.050538469            1 
  113000    1.1777859   -5.5468275    61.892581  0.045643496  0.050548612            3 
  114000    1.2260501   -5.5713355    62.454029   0.04565353  0.050566701            1 
  115000    1.2084794   -5.5522949    63.428326  0.045962555  0.050583648            2 
  116000    1.2270665   -5.5281025    63.732164    0.0457846  0.050599318            2 
  117000    1.2569829   -5.5372136    64.256172  0.045766504  0.050609257            2 
  118000    1.2256547   -5.4729826    65.390001  0.046179379  0.050623739            1 
  119000    1.2622213   -5.5705527    65.605119   0.04594196  0.050640929            4 
  120000    1.2559577   -5.5512941    66.301704   0.04604285  0.050658369            2 
  121000     1.244934   -5.5275627    67.233319  0.046303938  0.050679385            2 
  122000    1.2317592   -5.5639094    67.801496  0.046312497  0.050702892            2 
  123000    1.2180278   -5.5308629    68.540862  0.046436898  0.050728868            5 
  124000    1.2116869   -5.5485405    69.322454   0.04658767  0.050764673            5 
  125000     1.252779   -5.5296384    69.957012  0.046638008  0.050800079            2 
  126000    1.2622259   -5.5307452    70.628237  0.046711797  0.050829062            2 
  127000    1.2283933   -5.5547231    71.283236  0.046773777  0.050856303            1 
  128000    1.2581311   -5.5671665    71.605012  0.046617846  0.050873903            4 
  129000    1.2480919   -5.5227075    72.107918  0.046581342   0.05088613            2 
  130000    1.2091272   -5.6106067    72.353069  0.046380172  0.050895157            3 
  131000    1.2272831   -5.5515482    72.925692  0.046390389  0.050904322            2 
  132000    1.2320857   -5.5369091    73.729817  0.046546601  0.050915049            1 
  133000    1.2409501   -5.5433381    74.318287  0.046565343  0.050918402            1 
  134000    1.2122179    -5.558061    74.890564  0.046573734  0.050919013            4 
  135000    1.2386502   -5.5613933    75.598343  0.046665644  0.050926432            2 
  136000     1.211222   -5.5432936    76.197758  0.046689802  0.050931835            3 
  137000    1.2625181   -5.5629216     76.86753  0.046756405  0.050937861            3 
  138000    1.2397611   -5.5098154    77.460902  0.046775907   0.05094319            2 
  139000     1.225939   -5.5768366    77.832387  0.046662102   0.05095102            3 
  140000    1.2448164    -5.602024    78.377535  0.046653294  0.050959395            1 
  141000    1.2302738   -5.5226126    79.565151  0.047024321  0.050967676            2 
  142000    1.2346498   -5.5871666    79.770139  0.046813462  0.050975241            1 
  143000    1.2165044   -5.5330054    80.906174   0.04714812  0.050983404            2 
  144000    1.2519904   -5.5190196    81.581754  0.047211663  0.050999409            2 
  145000    1.2083845   -5.5683561    82.271509  0.047282476  0.051021306            1 
  146000    1.2467763   -5.5258481    82.972085  0.047358496   0.05104532            1 
  147000    1.1909688   -5.5421048    83.297093  0.047220574  0.051061591            1 
  148000    1.2497756   -5.5525324    84.090853  0.047348453  0.051078641            3 
  149000    1.2205757   -5.5635604    84.823359  0.047440357  0.051096408            5 
  150000    1.2418419   -5.5539871    85.461836  0.047478797  0.051112544            1 
  151000    1.2088023   -5.5291434    86.477449  0.047724861  0.051133106            2 
  152000    1.2333005   -5.5075389    87.169321  0.047790198  0.051161494            2 
  153000    1.2243986   -5.5648317    87.767254  0.047803515  0.051188618            2 
  154000    1.2246441    -5.578874    88.306833  0.047785083  0.051214336            3 
  155000      1.23303   -5.5402148    88.905742  0.047798786  0.051236972            2 
  156000    1.2261857   -5.5877125    89.151271  0.047623542  0.051253929            3 
  157000    1.2401106   -5.5694819    90.173713  0.047862905  0.051270848            3 
  158000    1.2344084   -5.5581906    90.663267  0.047818179  0.051287325            1 
  159000    1.2188378   -5.5718345    90.851568  0.047616125  0.051300302            4 
  160000     1.212697    -5.550224    92.132721  0.047985792  0.051312912            4 
  161000     1.237224   -5.5755408    92.428759  0.047840973  0.051328721            2 
  162000    1.2133303   -5.5364357    92.854885  0.047764858  0.051344676            2 
  163000    1.2537473   -5.5459373    93.460045  0.047781209  0.051359859            3 
  164000    1.2257529   -5.5824818    94.311683  0.047922603  0.051373561            2 
  165000    1.2525913   -5.5590924    95.278124  0.048120264  0.051384717            1 
  166000    1.2084873   -5.5661808    95.176952  0.047779594  0.051394582            2 
  167000    1.2100698   -5.5117329    95.911423  0.047859991  0.051396861            2 
  168000    1.2261093   -5.5193043    96.011496   0.04762475  0.051398274            2 
  169000    1.2200938   -5.5629978    96.503666  0.047585634  0.051397691            2 
  170000    1.2275162   -5.5672584    97.735462   0.04790954  0.051399398            4 
  171000    1.2097925   -5.5686653    97.996358   0.04775651  0.051401939            3 
  172000    1.2176996    -5.559533    98.866674   0.04790052  0.051403494            3 
  173000    1.2288712   -5.5530284    99.721625  0.048035465  0.051405468            4 
  174000    1.2203963   -5.5310909    99.696729  0.047747475  0.051404318            2 
  175000    1.2363674   -5.5720008    100.08363  0.047658871  0.051401212            3 
  176000    1.2537041   -5.5913147     100.5465  0.047607244  0.051395919            3 
  177000    1.2113079     -5.56027    101.50289  0.047788553  0.051392974            1 
  178000    1.2022448   -5.5425672    102.22375  0.047857559  0.051385817            1 
  179000    1.2264778   -5.5239686    102.51036  0.047723633   0.05137934            4 
  180000    1.2079116   -5.5506814    103.05568  0.047710961  0.051369467            3 
  181000    1.2156162   -5.5511868    104.10023  0.047928284  0.051363395            2 
  182000    1.2094252   -5.5460207    104.97305  0.048064581  0.051361696            2 
  183000     1.236859   -5.4887662    105.42678  0.048008551  0.051363539            2 
  184000    1.2007942   -5.5545449    106.14636  0.048073532  0.051363501            6 
  185000     1.221026   -5.5639511    106.90554   0.04815565  0.051361534            4 
  186000    1.2169128   -5.5649493    107.11533  0.047990741   0.05135558            4 
  187000    1.2203388   -5.5906353    107.47551   0.04789461  0.051349506            3 
  188000    1.2283916   -5.5583407    108.53816  0.048110886  0.051348077            3 
  189000    1.2260657   -5.5541929    109.06212  0.048087356  0.051350803            2 
  190000    1.2237073   -5.5966023    109.00581  0.047809565  0.051351132            5 
  191000    1.2157598   -5.5675588    109.84742  0.047926447  0.051350624            2 
  192000    1.2268646   -5.6083127    110.87376   0.04812229  0.051352453            4 
  193000    1.2443827   -5.5808641    111.51001  0.048147673  0.051354764            1 
  194000    1.1917185   -5.5331759    112.07254  0.048141126  0.051355965            2 
  195000    1.2244577    -5.579048    113.05255  0.048313057  0.051359125            3 
  196000    1.2206022   -5.5454854    113.66249  0.048325888  0.051361754            3 
  197000    1.2119872   -5.5912832    114.27881  0.048341291  0.051370654            3 
  198000     1.205937   -5.5434456    115.37026  0.048556506  0.051377685            2 
  199000    1.2506055   -5.5989137    115.54798  0.048386925  0.051386522            3 
  200000    1.2153479   -5.6214751    115.71046  0.048212691  0.051391838            2 
  201000    1.1748906   -5.5511759    117.17622  0.048580524  0.051397177            2 
  202000     1.262897   -5.6051781    117.50277  0.048474739  0.051401778            2 
  203000    1.2219255   -5.5977127    117.76434  0.048343324  0.051401197            5 
  204000    1.1858299    -5.545193    118.93682  0.048585302  0.051404814            2 
  205000    1.2432077   -5.5955774    119.04235  0.048391197  0.051408415            2 
  206000    1.2404867   -5.5701353    119.66217  0.048407025  0.051408977            1 
  207000     1.227442   -5.6015291    120.02703  0.048320062  0.051410113            2 
  208000    1.2427186   -5.5582679    121.19143  0.048554257  0.051410916            2 
  209000    1.2342953   -5.5595758    122.18388  0.048717654   0.05141262            2 
  210000     1.207315   -5.5927551    122.40224  0.048572319  0.051416347            3 
  211000    1.2408765   -5.5945831    123.07561   0.04860806  0.051420922            2 
  212000    1.1893303   -5.5698395    123.84432  0.048680945  0.051424848            1 
  213000     1.224334   -5.5398016    124.13422  0.048565814  0.051426681            3 
  214000    1.1830619   -5.6045383    124.29232  0.048400436  0.051423248            3 
  215000    1.1984757   -5.5981258    124.68296  0.048326729  0.051417343            3 
  216000    1.1902477   -5.5630313    125.44583   0.04839731  0.051412617            2 
  217000    1.2321313   -5.5611849    125.70099   0.04827227  0.051406257            2 
  218000    1.2069403   -5.6316043    125.59374  0.048009838  0.051394908            3 
  219000    1.2159018   -5.6148285    126.46125  0.048120718  0.051382128            4 
  220000    1.2204962   -5.5917417     127.4328  0.048270002  0.051374705            2 
  221000    1.1770413   -5.5892991    128.31181  0.048383034  0.051369009            1 
  222000    1.2122138    -5.573027    129.11123  0.048465178  0.051363145            2 
  223000    1.2179344   -5.5662965    129.40264  0.048356743  0.051355035            2 
  224000    1.2017126   -5.5852789    129.21861  0.048072398  0.051340796            6 
  225000    1.2348138   -5.5538868    129.84805   0.04809187  0.051325737            1 
  226000    1.2371668   -5.5761763    131.18699  0.048372784  0.051312749            2 
  227000    1.2045373   -5.5837881    130.97076  0.048080308   0.05129827            2 
  228000    1.2035852   -5.5842785    131.45315   0.04804574  0.051286278            4 
  229000    1.1962903   -5.5467011    132.89066  0.048359047   0.05127352            3 
  230000    1.2063458   -5.5751739    132.83729  0.048129452  0.051261081            3 
  231000    1.2491024   -5.5542809    134.27018  0.048438016  0.051248601            2 
  232000    1.1954058    -5.553265    134.65109  0.048366052  0.051239921            1 
  233000    1.2216792   -5.5682235    134.88688  0.048242805   0.05122816            1 
  234000    1.2052662   -5.6160684    135.05316  0.048095855  0.051212939            8 
  235000    1.2109766   -5.6012621     135.2213  0.047950815  0.051198833            2 
  236000    1.2223699   -5.5757297     136.1148  0.048063135  0.051183568            4 
  237000    1.1965546   -5.5849596     136.5364   0.04800858  0.051166322            1 
  238000    1.2264049   -5.5601929    137.27985  0.048067174  0.051151881            3 
  239000    1.1933042   -5.6133934    137.12143   0.04781082  0.051135574            2 
  240000     1.186987   -5.5805012    138.26308  0.048008013  0.051117813            3 
  241000    1.2240516   -5.5915543    139.30693  0.048169754   0.05110301            5 
  242000    1.1976497   -5.5940362    139.55416  0.048055839   0.05108899            1 
  243000    1.2086655     -5.56585     140.3196  0.048120578  0.051075986            4 
  244000    1.2219251   -5.5815605    141.12139  0.048197195   0.05106174            7 
  245000    1.2054538   -5.5830139    141.64811  0.048179629  0.051050048            3 
  246000    1.2238481   -5.5415531    142.40243  0.048239307  0.051036464            2 
  247000    1.2257659   -5.6048654    142.23204  0.047986518  0.051022144            5 
  248000    1.2408287   -5.5966964    142.49152  0.047880216  0.051009073            2 
  249000     1.246964   -5.5932105     144.2841  0.048287851  0.050995618            1 
  250000    1.2270343   -5.5805196    144.40089  0.048133629  0.050985489            3 
  251000    1.2334257    -5.572226    145.74505   0.04838813  0.050973507            3 
  252000     1.215269    -5.588929    145.76925  0.048204117  0.050964476            3 
  253000    1.2099026   -5.5966431    146.51662  0.048259755  0.050955948            1 
  254000     1.206312   -5.5643259    147.67196  0.048448805  0.050949027            3 
  255000    1.2234815    -5.616105    148.26912  0.048453961  0.050944183            2 
  256000    1.1919991    -5.627989    148.74141  0.048418429  0.050937312            1 
  257000    1.2142005   -5.5601925    149.00869  0.048316696  0.050929764            1 
  258000    1.2125168   -5.6228139    148.99255   0.04812421   0.05091916            1 
  259000    1.2138767   -5.5929689    149.85668  0.048216435  0.050908448            1 
  260000    1.2260236   -5.5525661     150.4619  0.048224968  0.050896687            1 
  261000    1.2160069   -5.5730463    149.80523  0.047830533  0.050881252            1 
  262000    1.2065296   -5.5744438    151.11287  0.048063891  0.050865135            5 
  263000    1.2133513   -5.6267719    151.64723  0.048050453  0.050850145            3 
  264000    1.1849695   -5.6164647    152.39604  0.048104812  0.050833734            2 
  265000    1.1935062   -5.5441794    153.38015  0.048232751   0.05081949            2 
  266000    1.2131391   -5.6005102    153.97503  0.048237792  0.050808123            1 
  267000     1.209494   -5.6145299    153.59907  0.047939783   0.05079572            2 
  268000    1.1834717   -5.6317478    154.54996  0.048056578  0.050782701            2 
  269000     1.236941   -5.6055539    155.18232   0.04807383  0.050770046            4 
  270000     1.199197   -5.6030445    155.54687  0.048008292  0.050757604            5 
  271000    1.2312205    -5.581885    156.00436  0.047971819  0.050744175            2 
  272000    1.2156689   -5.6000451    157.19232  0.048159411  0.050732226            5 
  273000    1.2291377   -5.5704348    158.49469  0.048380553  0.050719877            1 
  274000    1.2091539   -5.5639318    158.71341  0.048270501  0.050707545            2 
  275000     1.176944   -5.5565545    158.71746    0.0480962  0.050694395            2 
  276000    1.2177079   -5.5679896    159.38456  0.048123358  0.050680552            1 
  277000    1.2090821   -5.6365842    159.82023  0.048080695  0.050667985            3 
  278000    1.1931244   -5.5927864    160.94477  0.048244834  0.050655085            3 
  279000    1.1743751   -5.6387467     160.4936  0.047937157  0.050640266            3 
  280000    1.2099056   -5.5848321    162.38947    0.0483302  0.050625902            3 
  281000    1.1916349    -5.573622    162.21732  0.048107152  0.050612257            2 
  282000    1.2052417   -5.5811649    162.85564   0.04812519  0.050597946            2 
  283000    1.2280902    -5.587009    163.77317  0.048225315  0.050582898            2 
  284000    1.1979738   -5.5931975    163.51429  0.047979544  0.050569545            3 
  285000    1.2039498   -5.6057344    164.52598   0.04810701  0.050555834            2 
  286000    1.1979535   -5.6138524    164.89372  0.048045955  0.050541089            3 
  287000    1.1617398   -5.6281516    165.23277  0.047976995  0.050528612            3 
  288000    1.1988491   -5.5941478    166.64973  0.048220407  0.050516719            2 
  289000    1.2081629   -5.5859809    166.83484  0.048106931  0.050503739            5 
  290000    1.1908989   -5.5741132    167.03322  0.047998052  0.050489514            2 
  291000    1.2034935   -5.6130104    168.01432  0.048114066  0.050475613            2 
  292000    1.1955345   -5.6083583     168.4829  0.048083021  0.050462412            4 
  293000     1.203301     -5.61141    168.68117  0.047975304  0.050449812            2 
  294000    1.2367746   -5.6001591    169.02538  0.047909689  0.050438626            2 
  295000    1.2254189    -5.602314    170.09331  0.048048958  0.050425636            1 
  296000    1.1790776   -5.6434035    169.87673  0.047825657  0.050410371            2 
  297000    1.1888922   -5.6039427     170.5519  0.047854068   0.05039371            2 
  298000    1.1990964   -5.6227791    172.05528  0.048113893   0.05037862            1 
  299000     1.223109   -5.6276826    172.27061   0.04801299  0.050363587            3 
  300000    1.2366846   -5.5444551    172.53263  0.047925729  0.050347705            2 
  301000    1.2001363    -5.598324     173.1374  0.047933943  0.050331099            4 
  302000    1.2149113   -5.6071639    173.27419  0.047812966  0.050314376            3 
  303000    1.2029095   -5.6426653    173.08006  0.047601776  0.050297088            3 
  304000    1.1990987   -5.5625652    174.44349   0.04781894  0.050277842            1 
  305000     1.198226   -5.5940145    174.50178  0.047678083  0.050257835            2 
  306000    1.2123946   -5.6016624    175.48976  0.047791328  0.050238827            2 
  307000    1.1794955   -5.7068659    174.81389  0.047452197  0.050217663            3 
  308000    1.2071663   -5.6186934    175.93085  0.047600338  0.050198083            3 
  309000    1.2201253   -5.6228665    176.97962  0.047729132  0.050180543            6 
  310000    1.1730761   -5.6035712    177.23452  0.047643689  0.050160408            3 
  311000    1.2079762   -5.6269892    177.75687  0.047630459  0.050141081            3 
  312000    1.1979843   -5.6031787     178.3518  0.047636698  0.050122161            2 
  313000    1.1814681   -5.6260028     178.4134  0.047500904  0.050101583            3 
  314000    1.1741509   -5.5958545    178.98869  0.047502307  0.050081082            2 
  315000    1.1821887   -5.5834161    180.49274  0.047749403   0.05006204            3 
  316000     1.202536   -5.6354126    179.73722  0.047399056  0.050041318            4 
  317000    1.2064577   -5.5863148     180.4283  0.047431203  0.050018849            2 
  318000    1.1908787   -5.6404825    180.64988  0.047340115  0.049996822            5 
  319000    1.2096907   -5.6292246    181.26346  0.047352002  0.049976702            4 
  320000    1.1923102   -5.6089016      182.729  0.047585676  0.049957785            4 
  321000    1.2229273   -5.5842866    182.77701  0.047449898  0.049938513            3 
  322000    1.1863334   -5.5504792    184.48028  0.047743344  0.049919585            3 
  323000    1.2080083   -5.5809563    184.76372  0.047668659  0.049901914            1 
  324000    1.2100842   -5.6035388    185.15272  0.047621585  0.049886468            2 
  325000    1.1888817   -5.6053304    185.17323  0.047480316  0.049871826            2 
  326000    1.1981117   -5.6345985    186.11145  0.047574502  0.049855518            4 
  327000    1.1905641   -5.5991008    186.70275  0.047579703  0.049838878            5 
  328000    1.1769522   -5.6193532    186.83644  0.047468608   0.04982292            2 
  329000    1.2039214   -5.6206126    187.81438  0.047572031   0.04980723            2 
  330000     1.239904   -5.6185193    188.69109  0.047649264  0.049792573            2 
  331000    1.1645981    -5.602939    189.03327  0.047591459   0.04977733            1 
  332000     1.193857   -5.5968425    190.04886  0.047703026  0.049763052            1 
  333000     1.216753    -5.611394    190.80242  0.047748354   0.04974985            1 
  334000    1.1945995   -5.6398264    191.02838  0.047661772  0.049735585            3 
  335000    1.1521176   -5.6172572    191.48906  0.047634096  0.049721555            4 
  336000    1.2018661   -5.5640401    192.58159  0.047763291  0.049707861            2 
  337000    1.1995185   -5.5990536    192.34741  0.047563652  0.049693086            2 
  338000    1.2013978   -5.5986432    193.15099  0.047621053  0.049677617            2 
  339000    1.1880376   -5.6329773    192.78625  0.047390917  0.049661289            4 
  340000    1.2028957   -5.6086719    193.96098  0.047539455  0.049645331            2 
  341000    1.1937679   -5.6105512    193.91266  0.047388235  0.049628338            2 
  342000     1.187233   -5.6397013    193.72842   0.04720478  0.049609585            4 
  343000     1.183681   -5.5819582    194.59801  0.047278429  0.049589408            5 
  344000    1.2065049   -5.5941166    194.88039  0.047209396  0.049570358            1 
  345000    1.2207441   -5.6295916    195.59388  0.047244898  0.049549382            1 
  346000    1.1980795   -5.6142293    196.41819  0.047306886  0.049529537            5 
  347000    1.2102557   -5.6298696    196.88764  0.047283295  0.049509594            1 
  348000    1.1804293    -5.678948    196.24003  0.046992345  0.049489072            4 
  349000    1.1996407   -5.6170756    197.93959  0.047263513  0.049468651            1 
  350000    1.1787445   -5.6067468    198.41678  0.047242089  0.049449392            2 
  351000    1.1899112   -5.5981039    198.37798  0.047098285  0.049428706            2 
  352000    1.1796083   -5.6086813    198.72445  0.047046508   0.04940676            1 
  353000    1.2076176   -5.5978144    199.85823  0.047180886  0.049385645            3 
  354000    1.1934466   -5.6640541    200.28567  0.047148226  0.049365719            4 
  355000    1.1728966   -5.6245469    200.92545  0.047165598  0.049347113            4 
  356000    1.1825036   -5.6331356    201.47229  0.047161116  0.049325812            3 
  357000    1.1996805   -5.6238787    201.40216  0.047012642  0.049304438            1 
  358000    1.2066303   -5.6795899    201.55157  0.046916101  0.049283104            6 
  359000    1.1839565   -5.6172977    202.79146  0.047073225  0.049260872            7 
  360000    1.1943166   -5.6304975    202.70182  0.046921719  0.049239204            2 
  361000    1.1744862   -5.6470797    203.08393  0.046879946  0.049217334            2 
  362000    1.1910105   -5.6114364    204.61326  0.047102499  0.049197468            3 
  363000    1.1752299   -5.6114462    204.71516  0.046996134  0.049177285            3 
  364000    1.1780381   -5.6100679    204.78645  0.046883345  0.049158066            2 
  365000     1.204624   -5.6196235    206.70024  0.047191836  0.049139054            4 
  366000    1.1703602   -5.6355014    206.31459  0.046975089  0.049121403            4 
  367000    1.1938755   -5.6408481    208.09821  0.047252091  0.049103696            3 
  368000    1.1924932    -5.643064    208.70901  0.047262005  0.049087504            4 
  369000    1.1876155   -5.6292456    208.46496  0.047078807  0.049071831            6 
  370000    1.1857585    -5.625325    209.09037  0.047092425  0.049055897            4 
  371000    1.2119025    -5.633585    208.82556  0.046906012  0.049037842            4 
  372000    1.1961949   -5.6669572     209.5236  0.046936291  0.049018395            2 
  373000    1.1752841   -5.6062298    210.50691  0.047030141   0.04899933            5 
  374000    1.1899486    -5.658696    211.06155  0.047027975  0.048980234            3 
  375000    1.2057431   -5.6157757    210.31941  0.046737646  0.048959982            2 
  376000    1.1909192   -5.6503163    210.59668  0.046674796  0.048941509            2 
  377000    1.2367143   -5.6502463    211.03564  0.046648019  0.048921545            1 
  378000    1.2098831   -5.6647444     212.6188  0.046873634  0.048901627            2 
  379000    1.2052077   -5.6190778    212.83369  0.046797205  0.048882516            5 
  380000    1.1918615   -5.6367354    213.01575  0.046713981  0.048863641            2 
  381000    1.1942907   -5.6374227    214.14709   0.04683882  0.048844457            4 
  382000    1.1899982   -5.6586379     214.3363  0.046757483  0.048825626            2 
  383000    1.1841785   -5.6404824    215.14664  0.046811715  0.048807987            2 
  384000    1.2325018   -5.6177754    216.43321  0.046969013  0.048791061            3 
  385000    1.1940375   -5.6479391    215.57701   0.04666169  0.048771209            3 
  386000    1.1824852   -5.6342039    216.63222  0.046768614  0.048751094            2 
  387000    1.1878885   -5.6304927    216.85575  0.046695898  0.048733039            3 
  388000     1.170629   -5.5806541     218.1174  0.046846521  0.048713531            2 
  389000    1.1912734   -5.6195904    218.36271  0.046778643  0.048695298            4 
  390000    1.1800166   -5.6446341    218.96053  0.046786438  0.048677472            1 
  391000    1.1991255   -5.6618937    218.50219  0.046569095  0.048658253            2 
  392000    1.1795325    -5.652479    219.42149  0.046645724  0.048640186            3 
  393000    1.1905702   -5.6567975    219.44614  0.046532261   0.04862002            3 
  394000    1.1787901   -5.6370086    220.51845  0.046640957  0.048599462            3 
  395000    1.1984409   -5.6341572    220.80564  0.046583467  0.048578655            6 
  396000    1.1893462   -5.6474355    220.72058  0.046447934  0.048558773            2 
  397000    1.1984927   -5.6826245    221.77912  0.046553132  0.048538564            4 
  398000     1.181748   -5.6354286    223.20952  0.046735663  0.048518888            2 
  399000     1.178786   -5.6644544    222.23809  0.046415641  0.048497926            1 
  400000     1.187751   -5.6508223    223.38873  0.046539319  0.048478587            2 
  401000    1.1949636   -5.6408821    224.61326  0.046677734  0.048459667            2 
  402000    1.1868983   -5.6368649     224.5591  0.046550394   0.04843971            4 
  403000    1.1522736   -5.6851414    225.55378  0.046640567  0.048421051            7 
  404000    1.1735361   -5.6605535    224.51807  0.046311484  0.048401035            2 
  405000    1.1967168   -5.6356002    225.73385  0.046447294  0.048382311            4 
  406000    1.1796174   -5.6589317     226.6575  0.046522474  0.048363135            2 
  407000    1.1683322   -5.6353778    226.85277  0.046448152  0.048343772            4 
  408000    1.1800459   -5.6055932    228.64073  0.046699496  0.048326099            2 
  409000    1.1909407   -5.6552788    228.07212  0.046469461  0.048307858            3 
  410000    1.1642409   -5.5925008    228.37594  0.046417875  0.048289589            2 
  411000    1.2022625   -5.6081143    228.42569  0.046315023  0.048269443            3 
  412000    1.1686031    -5.629134    229.21316  0.046361885  0.048248676            4 
  413000    1.2056895   -5.6282073    228.78353  0.046162939  0.048227523            4 
  414000    1.1821595   -5.7019179    229.58495  0.046212751  0.048206633            2 
  415000    1.1553181   -5.6305426     230.7819  0.046341747  0.048186609            2 
  416000    1.2111241   -5.6153357    231.20971  0.046316047  0.048166284            3 
  417000    1.1610086   -5.6428131    231.42734  0.046248469  0.048146618            3 
  418000    1.2172266   -5.6143551    231.64475  0.046181171  0.048127293            2 
  419000    1.1775617     -5.61286    232.99442  0.046339384  0.048107601            3 
  420000    1.1820112   -5.6120895     233.5997  0.046349147  0.048088886            2 
  421000    1.2097898   -5.6650728    234.14196  0.046346389  0.048069937            2 
  422000     1.186293   -5.6379685    235.05341  0.046416551  0.048052209            3 
  423000    1.1950787    -5.618766    235.84861  0.046463477  0.048033903            4 
  424000    1.1669512   -5.6445225    235.93979  0.046371813  0.048017518            8 
  425000    1.1734281   -5.6396321    236.12498  0.046299016  0.048000068            3 
  426000     1.191624   -5.6305222    237.03865  0.046369062  0.047982393            2 
  427000    1.2108848   -5.6187265    237.03015  0.046258811  0.047966255            2 
  428000    1.2159956   -5.6420949     238.8965  0.046514116  0.047948609            3 
  429000    1.1667261    -5.666691    238.73155  0.046373649   0.04793137            2 
  430000    1.1781486   -5.5989002    239.60295   0.04643468  0.047915776            5 
  431000    1.1928695   -5.6435141    239.48507  0.046304152  0.047900057            2 
  432000    1.2051794   -5.6544616    241.19764  0.046527323  0.047884207            3 
  433000    1.1635981   -5.6365557    241.65435  0.046507766  0.047868495            2 
  434000    1.1780255   -5.6628269    242.11678  0.046489396  0.047854808            4 
  435000    1.1772296   -5.6778514     241.5699  0.046277758  0.047840362            2 
  436000    1.1752947   -5.6339705    244.13429  0.046661752  0.047825087            2 
  437000    1.1677696   -5.6317958    243.37716  0.046410595  0.047811107            2 
  438000      1.18835   -5.6313464    243.77766  0.046380834   0.04779722            2 
  439000    1.1715933   -5.6360112     244.1181  0.046339806  0.047783741            2 
  440000    1.1912331   -5.6656375     244.2988  0.046268712  0.047769576            7 
  441000    1.1900179   -5.6674761    244.47154  0.046196436  0.047754926            5 
  442000    1.1826734   -5.6518524    245.62579  0.046309538  0.047740069            4 
  443000    1.1557163   -5.6696606    246.46238  0.046362373  0.047727184            2 
  444000    1.1850322   -5.6556241    247.63077  0.046477247  0.047713887            2 
  445000    1.1906193   -5.6791956    248.08905  0.046458624  0.047700814            2 
  446000    1.1667084    -5.696361    247.65209  0.046272811  0.047688529            3 
  447000    1.1709381   -5.6769007    249.03321  0.046426773  0.047675759            2 
  448000    1.1864474   -5.6175075     250.0883    0.0465194  0.047665061            3 
  449000     1.179854   -5.6511116    250.50447  0.046493034  0.047653936            2 
  450000    1.1808525   -5.6476011    251.02258  0.046485663  0.047643282            3 
  451000    1.1847005   -5.5976124    252.79692  0.046710443  0.047634219            3 
  452000    1.1925016   -5.6653423    252.42555  0.046538633  0.047624347            1 
  453000    1.1772892   -5.6762335    253.25879  0.046589181  0.047614789            2 
  454000    1.1813978   -5.6831721    252.88027  0.046417083  0.047604558            4 
  455000    1.2147364      -5.6218    254.07944  0.046534696  0.047594324            1 
  456000    1.2142571    -5.630708    253.59287  0.046343727  0.047584064            2 
  457000    1.1735929   -5.6281957    254.89841   0.04648038  0.047573788            3 
  458000    1.1744508   -5.6503456    254.62048  0.046328326  0.047563295            4 
  459000    1.1788896   -5.6789273    255.28126   0.04634736  0.047552716            2 
  460000    1.1806104   -5.6704625    255.70332  0.046323065   0.04754147            2 
  461000    1.1627893   -5.6610797    256.67746  0.046398673  0.047531038            1 
  462000    1.1720417   -5.6594076    257.33613   0.04641705  0.047520254            3 
  463000    1.1659574   -5.6566093    258.50179    0.0465266  0.047509879            3 
  464000    1.1650445   -5.6646261    258.81796   0.04648311  0.047499388            2 
  465000    1.1770898   -5.6605472    259.49345  0.046504203  0.047490001            2 
  466000    1.1965456   -5.6609079    258.75304  0.046272003  0.047480017            1 
  467000    1.1756729    -5.641655    260.70979   0.04652209  0.047469968            3 
  468000    1.1725794   -5.6516499    260.80793  0.046440158  0.047460884            5 
  469000    1.1555533   -5.6576384    261.21632  0.046413703  0.047452185            1 
  470000    1.1839389   -5.6250944    261.90442  0.046436953   0.04744337            3 
  471000    1.1716432   -5.6399609     262.7548  0.046488817  0.047433642            2 
  472000      1.17164    -5.648569    262.76548  0.046392211  0.047423755            2 
  473000    1.1760408   -5.6664179     262.3528  0.046221423  0.047413103            2 
  474000    1.1997733   -5.6485315    263.45074  0.046316938  0.047402699            3 
  475000    1.1674983   -5.6777945    264.40404  0.046386674  0.047391311            2 
  476000    1.1704685   -5.7425997    263.89155  0.046199501  0.047380823            2 
  477000    1.2085076   -5.6323786    266.13209  0.046494075  0.047370543            3 
  478000    1.1919077     -5.67343    266.66561  0.046489821  0.047359592            1 
  479000    1.1999089   -5.6284016    266.82305  0.046420156  0.047349382            4 
  480000     1.214273   -5.6609193    266.53342  0.046273162  0.047338244            2 
  481000    1.1802754   -5.6351489    266.41823  0.046157005  0.047327587            1 
  482000    1.1641105   -5.7093702    267.16865  0.046190984  0.047315762            4 
  483000     1.177214   -5.6649139    267.67494  0.046182702  0.047304312            1 
  484000    1.1493572   -5.6810871    268.38797   0.04621005  0.047294217            3 
  485000    1.1998899   -5.6607479    269.25299    0.0462634  0.047283702            5 
  486000    1.1511294   -5.7024644    268.76942  0.046085292  0.047274536            2 
  487000    1.1671624   -5.6710785    270.73743  0.046327417  0.047264167            3 
  488000    1.1676307   -5.6933133    270.66723  0.046220496  0.047253407            2 
  489000    1.1674233   -5.6505913    270.43947  0.046087163  0.047243029            2 
  490000    1.1606366   -5.6342923    271.44116  0.046163463   0.04723226            3 
  491000    1.1786736   -5.7055752    270.43692  0.045899001  0.047220631            8 
  492000    1.1693094   -5.6700329    271.57958  0.045999252  0.047208669            2 
  493000    1.1484477   -5.6687164    274.02618  0.046319502  0.047196881            2 
  494000    1.1777863   -5.6424782    273.78717   0.04618542  0.047184418            4 
  495000    1.1751985   -5.6771283    273.58845  0.046058662   0.04717342            6 
  496000     1.175688   -5.6319599      274.416  0.046104838  0.047161035            1 
  497000    1.1554549   -5.6523166    274.91487  0.046095719  0.047148622            3 
  498000    1.1562836   -5.6935945    273.79849  0.045816347  0.047135224            4 
  499000    1.1834078    -5.660405    276.04988  0.046100515  0.047121926            8 
  500000    1.1608111   -5.6295392    276.59554  0.046099257  0.047108801            4 
  501000    1.1781088   -5.6596688    276.86462     0.046052  0.047095954            3 
  502000    1.1801098   -5.6628604    276.56963  0.045911294  0.047082949            3 
  503000    1.1730952   -5.6839378    276.57808  0.045821418  0.047070155            3 
  504000    1.1691129   -5.6396425    278.13585   0.04598807  0.047057353            3 
  505000    1.1763248   -5.6952824    276.92143  0.045696606    0.0470439            2 
  506000    1.1784429    -5.639793    277.73023  0.045739497  0.047029974            2 
  507000    1.1703596   -5.6757352    277.75755  0.045653772  0.047015418            3 
  508000     1.161656   -5.6736501    278.68031  0.045715274  0.047000072            3 
  509000    1.2103118   -5.6550537     279.4779  0.045756041  0.046985387            3 
  510000    1.1746608   -5.6885466     279.6935  0.045701553  0.046971647            2 
  511000    1.1878738    -5.674872    280.57398  0.045755704  0.046957586            2 
  512000    1.1779158   -5.6924544    280.53918  0.045660673  0.046944229            3 
  513000    1.1690256   -5.6955592    281.88801  0.045790776  0.046930546            4 
  514000    1.1707691   -5.6522502    282.13803  0.045742223  0.046916608            2 
  515000    1.1608594   -5.6669343    282.67038  0.045739544  0.046902729            1 
  516000    1.1669696   -5.7442749    282.88145  0.045684988  0.046889063            3 
  517000    1.1500741   -5.6736027    284.86922  0.045917025  0.046876623            2 
  518000    1.1287239   -5.6786192    284.61969  0.045788239  0.046864035            3 
  519000    1.1644716   -5.6655601    285.80145  0.045889763  0.046851393            2 
  520000    1.1603675   -5.6801972    285.84861  0.045809072  0.046839769            2 
  521000     1.151739   -5.7375491    286.87712  0.045885655  0.046828799            4 
  522000    1.1499893   -5.6655089     288.8571  0.046113842  0.046818229            4 
  523000    1.1444795   -5.7108852     287.5858  0.045823103  0.046807658            4 
  524000    1.1756457   -5.6386585    288.73096  0.045917773  0.046797115            1 
  525000    1.1742508   -5.6130709    290.72491  0.046146811  0.046786644            3 
  526000    1.1710396   -5.6884967     289.9998  0.045944202  0.046777242            5 
  527000    1.1548067   -5.6658383    289.56943  0.045788968  0.046767353            3 
  528000    1.1612251   -5.6944619    290.32047  0.045820782  0.046757626            2 
  529000    1.1754546    -5.669532    291.61311  0.045937793  0.046747868            2 
  530000    1.1763129   -5.6787246    292.37201  0.045970441  0.046738124            1 
  531000    1.1698942    -5.691965     292.1226  0.045844727  0.046728037            2 
  532000    1.1604599   -5.6636882    293.23335  0.045932542  0.046717538            3 
  533000     1.158416   -5.6908345    293.98331   0.04596362  0.046707596            4 
  534000    1.1741491    -5.717212    294.82197  0.046008422  0.046698355            3 
  535000    1.1913135   -5.7053431    294.28763  0.045839195  0.046689332            3 
  536000       1.1539   -5.6839574    295.24637  0.045902731  0.046679839            2 
  537000    1.1729719   -5.6669157    296.37009  0.045991633  0.046670716            1 
  538000    1.1563937   -5.6779078    297.97624  0.046154932  0.046661459            4 
  539000    1.1710511   -5.7184475    295.96873  0.045758925  0.046651972            3 
  540000    1.1675299   -5.7821976    296.62185  0.045774976  0.046643015            1 
  541000    1.1649161   -5.6575126    299.02839  0.046061058  0.046634198            3 
  542000    1.1582343   -5.6197283    300.33776  0.046177393  0.046626119            3 
  543000    1.1594148   -5.6746984    299.94064  0.046031405  0.046618789            3 
  544000    1.1732484   -5.6866036    299.86868  0.045935765  0.046610844            3 
  545000    1.1346165   -5.6839614    301.72556  0.046135407  0.046604225            3 
  546000    1.1709218   -5.6665355    303.32326  0.046294758  0.046597387            4 
  547000    1.1816542   -5.6935436     302.4567  0.046078108  0.046590673            2 
  548000    1.1391518   -5.7029693    302.12751  0.045943964   0.04658288            3 
  549000    1.1757874   -5.7086462    302.67897  0.045943984   0.04657449            4 
  550000    1.1835131   -5.6669661    304.22655  0.046094931  0.046566906            2 
  551000     1.148029   -5.6761681    304.40761  0.046038658  0.046560144            3 
  552000    1.1495022   -5.6808281    304.82793  0.046018709  0.046553777            2 
  553000     1.163753   -5.6647659      305.473  0.046032701   0.04654696            4 
  554000    1.1645283   -5.6671797    307.27783  0.046221093  0.046541545            1 
  555000    1.1714924   -5.6996312    306.72177   0.04605432  0.046535706            2 
  556000    1.1558525    -5.691092    307.85516  0.046141362  0.046530286            2 
  557000    1.1674948   -5.6737853    309.36598  0.046284557  0.046524605            2 
  558000    1.1602511   -5.6985195    308.51483  0.046074496  0.046519677            6 
  559000    1.1628185   -5.6861113    309.15892  0.046088092  0.046514639            3 
  560000    1.1737971   -5.7254821    309.28557  0.046024638  0.046508907            3 
  561000    1.2012788   -5.7109947    310.48098  0.046120169  0.046503326            2 
  562000    1.1532631   -5.6941415    310.89459  0.046099435  0.046497828            3 
  563000    1.1546269   -5.6631742     311.2996  0.046077502  0.046492487            2 
  564000    1.1464629   -5.6647227    312.32354  0.046147095  0.046487893            1 
  565000    1.1447417   -5.7025713    311.69628  0.045972903  0.046482673            2 
  566000    1.1552889   -5.7297946    312.05544  0.045944558  0.046477451            1 
  567000    1.1551423   -5.7107568    313.56144  0.046084868  0.046472084            5 
  568000     1.174225    -5.722799    313.59503  0.046008661  0.046465836            3 
  569000    1.1644904    -5.699412     315.5183  0.046209475  0.046460919            3 
  570000    1.1654621   -5.7266581    314.69943  0.046008689  0.046455567            3 
  571000    1.1699447   -5.7088817     315.3146  0.046017892  0.046450307            2 
  572000    1.1549233   -5.7167325    316.09698  0.046051424   0.04644549            3 
  573000     1.176624   -5.6723903    316.97987  0.046099457  0.046440323            2 
  574000    1.1597783   -5.7109315    316.84267  0.045999227  0.046434078            3 
  575000    1.1747686   -5.6939377    317.28793  0.045983758  0.046428219            4 
  576000    1.1510783   -5.6923874       317.35  0.045912905  0.046422053            2 
  577000    1.1455207   -5.7210503    318.46322  0.045994111  0.046417142            1 
  578000      1.15977   -5.7030916    319.50036  0.046064066  0.046412027            3 
  579000    1.1594962   -5.6866719    320.58543  0.046140677  0.046407025            7 
  580000    1.1419751   -5.7511731    318.90528  0.045819724  0.046400783            2 
  581000    1.1700394   -5.6696106    320.34699  0.045947646  0.046394655            1 
  582000    1.1518036   -5.7213112    320.11347  0.045835262  0.046388414            4 
  583000    1.1442927   -5.7312071    319.68865  0.045695919  0.046381106            7 
  584000    1.1442669   -5.7338385    320.81743  0.045778743   0.04637339            2 
  585000    1.1282942   -5.7092951    321.58012  0.045809133  0.046366262            4 
  586000    1.1623858   -5.7417406    320.75941   0.04561425  0.046359046            2 
  587000    1.1656817   -5.7355808    321.99819  0.045712406  0.046351556            2 
  588000    1.1576577   -5.7284114    321.60421  0.045578828  0.046343985            3 
  589000    1.1539215    -5.717002    322.66915  0.045652116  0.046336101            6 
  590000    1.1633557   -5.7489472    322.73032  0.045583378  0.046328118            4 
  591000    1.1278976   -5.7578012    322.96058  0.045538717  0.046319938            5 
  592000    1.1586983   -5.7052407     324.6909  0.045705363  0.046312085            2 
  593000    1.1764401   -5.7054387    324.32811  0.045577306  0.046304292            3 
  594000    1.1670385   -5.6447651    326.68343  0.045831009  0.046297284            2 
  595000    1.1646845   -5.7275043    325.44041  0.045579889  0.046289021            2 
  596000    1.1640803   -5.6889352    326.72824  0.045683478  0.046280429            6 
  597000    1.1602385   -5.7189718    325.25308  0.045401045  0.046271597            2 
  598000    1.1470049    -5.707853    326.91279  0.045556409   0.04626207            2 
  599000    1.1717914   -5.6898603    327.83118  0.045608122  0.046252924            1 
  600000    1.1459284   -5.6818446    328.81124  0.045668227  0.046244582            1 
  601000    1.1535532   -5.6892251    327.30135  0.045382883  0.046235423            3 
  602000    1.1606126   -5.6891304    330.03035  0.045685264  0.046226721            2 
  603000    1.1644207   -5.6711349    330.01879  0.045607904  0.046218448            3 
  604000    1.1844656   -5.7267496     328.8622   0.04537282  0.046209528            2 
  605000    1.1493413   -5.7032849    329.91958  0.045443469  0.046200844            5 
  606000    1.1751023   -5.6953854    330.99043  0.045515735  0.046192654            5 
  607000    1.1220733   -5.6750404    333.34159  0.045763535  0.046184517            6 
  608000    1.1507831   -5.7236042    331.56134  0.045444262  0.046176426            4 
  609000     1.158358   -5.7021743    334.31095  0.045745888  0.046168792            4 
  610000    1.1527182   -5.7317001    331.54687  0.045293289  0.046160974            2 
  611000    1.1558989   -5.6662444    334.44801  0.045614841  0.046153003            3 
  612000    1.1108423   -5.6760904    334.86173  0.045596641  0.046144507            3 
  613000    1.1727117   -5.7058804    334.38272  0.045457139  0.046135955            3 
  614000    1.1478024   -5.7380212    335.84945  0.045582173  0.046127491            2 
  615000     1.162327   -5.6748998    337.18338  0.045688804  0.046119608            3 
  616000    1.1681175   -5.6877285    338.40052  0.045779291  0.046113288            1 
  617000    1.1587807   -5.6787486    337.90762  0.045638522  0.046105862            3 
  618000    1.1278691   -5.7333024     336.9946  0.045441558   0.04609796            4 
  619000     1.145978   -5.7324552    338.39849  0.045557147  0.046090891            2 
  620000    1.1553695   -5.6748851    339.83326  0.045676514  0.046084288            2 
  621000    1.1311334   -5.7371429    338.88499   0.04547571  0.046077628            4 
  622000    1.1427043   -5.6941576    340.07639  0.045562217  0.046070128            3 
  623000    1.1412706   -5.6930962    339.85452  0.045459406  0.046061996            2 
  624000     1.155064   -5.7469659    340.14864  0.045425833  0.046053582            5 
  625000    1.1344894   -5.6994626     342.4503   0.04566004  0.046045538            1 
  626000    1.1528668   -5.7042833    341.38054  0.045444694  0.046037829            3 
  627000     1.164522   -5.7309177    340.89815    0.0453081  0.046029953            1 
  628000    1.1315259   -5.7598444    342.35316  0.045429028  0.046022044            2 
  629000    1.1710136   -5.7395204    342.63297  0.045393876  0.046013931            3 
  630000    1.1435114   -5.7397053    343.31853  0.045412504  0.046006234            1 
  631000    1.1838146   -5.7220118    344.01664  0.045432732  0.045998898            3 
  632000      1.12971   -5.7306375    344.82632  0.045467605  0.045991162            2 
  633000    1.1472382   -5.7234447    345.63971  0.045502858  0.045983906            3 
  634000    1.1455313   -5.7229634     346.8489  0.045590024  0.045975976            3 
  635000    1.1580322   -5.7360544    345.86285  0.045388825  0.045968026            4 
  636000    1.1322917   -5.7161756    347.36265  0.045513974  0.045960488            4 
  637000    1.1576386   -5.7327746    346.19263   0.04528946  0.045952874            2 
  638000     1.161036    -5.698235    348.23434  0.045485155   0.04594536            2 
  639000    1.1289328   -5.6798911    348.85802  0.045495307  0.045938309            4 
  640000    1.1558329   -5.7422165     348.7389  0.045408711   0.04593013            3 
  641000    1.1599793   -5.6839908    349.54164  0.045442231  0.045922119            2 
  642000    1.1476846   -5.7172901    348.56338  0.045244467  0.045913836            3 
  643000    1.1562402   -5.7021844    350.11231  0.045374845   0.04590518            5 
  644000    1.1412824   -5.7161468    350.20356  0.045316196   0.04589629            2 
  645000    1.1521701   -5.7410365    349.23252   0.04512048  0.045887497            1 
  646000    1.1391716   -5.7310502    349.90561  0.045137463   0.04587853            2 
  647000     1.173625   -5.7071435    351.14482  0.045227308  0.045869568            2 
  648000    1.1635465   -5.7324926    350.08204  0.045020838  0.045860618            3 
  649000    1.1553284    -5.743537    351.22861  0.045098692  0.045851361            7 
  650000    1.1295111   -5.7460205    351.77547   0.04509942  0.045840848            2 
  651000    1.1607802   -5.7423124    351.97395  0.045055549  0.045829848            5 
  652000    1.1519766   -5.7224504     352.7107  0.045080611  0.045819957            2 
  653000    1.1203308   -5.7041976    353.16367  0.045069381  0.045810511            3 
  654000    1.1448114   -5.6887105    353.90162  0.045094498   0.04580096            2 
  655000    1.1628307   -5.7248085    354.63799  0.045119337  0.045791359            3 
  656000    1.1521666   -5.6997545    356.22456  0.045252103  0.045782137            6 
  657000    1.1341158    -5.719453      353.959  0.044895865  0.045772405            2 
  658000    1.1441008   -5.7150329    356.47715  0.045146549  0.045762617            1 
  659000     1.173443   -5.7244285    356.67951  0.045103631  0.045753324            4 
  660000    1.1602236   -5.7294085    354.99276  0.044822318  0.045743221            2 
  661000    1.1241352   -5.7176668    356.95511  0.045001905   0.04573295            2 
  662000    1.1442691    -5.695204    357.98134   0.04506311  0.045722893            1 
  663000    1.1586107   -5.7441949    357.58139   0.04494487  0.045713095            1 
  664000    1.1279243   -5.7075767    357.40472   0.04485501  0.045702321            5 
  665000    1.1717973   -5.7202687    358.13038  0.044878494  0.045692231            2 
  666000    1.1533778   -5.7425545    360.42028  0.045097633  0.045682792            4 
  667000    1.1483725   -5.7176923    360.83801   0.04508221  0.045673296            3 
  668000    1.1474746   -5.7112215    361.60744  0.045110708  0.045664306            5 
  669000    1.1398534   -5.7480518    361.24571   0.04499822  0.045655944            3 
  670000    1.1674074   -5.7658184     361.2414  0.044930523  0.045646905            4 
  671000    1.1434196   -5.7496513    363.24191  0.045112011  0.045637558            3 
  672000    1.1195037     -5.74626    363.45093    0.0450708  0.045628544            3 
  673000    1.1594111   -5.7264315    363.58576  0.045020526  0.045619551            4 
  674000    1.1792035   -5.7296395    363.54804  0.044949066  0.045610304            3 
  675000    1.1377677   -5.7320607    363.90669  0.044926752  0.045601202            2 
  676000    1.1353129   -5.7283729    364.61524  0.044947638  0.045592501            2 
  677000    1.1680364   -5.7151899    363.57029  0.044752621  0.045583783            2 
  678000    1.1547259   -5.7519728    366.59262   0.04505809  0.045574847            3 
  679000    1.1409022   -5.7505648    366.71067  0.045006219  0.045565724            5 
  680000    1.1560999   -5.7437603    367.42146  0.045027139  0.045556853            2 
  681000    1.1298541   -5.7195836    367.18222  0.044931744  0.045548356            6 
  682000    1.1496485   -5.7917142    368.36098  0.045009895  0.045540315            2 
  683000    1.1397136   -5.7770136     368.1807  0.044921998  0.045531879            3 
  684000    1.1279591   -5.7291714     369.7588  0.045048587  0.045523196            3 
  685000    1.1379917   -5.7273633     370.3596  0.045055912  0.045514632            4 
  686000    1.1193793   -5.7308204     369.6105  0.044899234  0.045506277            5 
  687000    1.1538291   -5.7469237    369.68202  0.044842554  0.045497666            4 
  688000    1.1445928   -5.7698621    369.06595  0.044702755  0.045488944            2 
  689000     1.134095   -5.7226789    371.45519   0.04492685  0.045480738            2 
  690000     1.138137   -5.7567942    370.91004  0.044795898  0.045472298            3 
  691000    1.1650392    -5.755069    371.31259  0.044779617  0.045463193            3 
  692000    1.1525141   -5.7247738    373.48354  0.044976342  0.045454097            3 
  693000    1.1487127   -5.7368639    373.37788  0.044898734  0.045445164            4 
  694000    1.1729449   -5.7491836    373.41218  0.044838158  0.045436301            4 
  695000    1.1331058   -5.7797115    371.21823  0.044510579  0.045427167            3 
  696000     1.138836   -5.7432248      375.033  0.044903376  0.045418212            3 
  697000    1.1286907   -5.7375265    374.28241  0.044749212  0.045409706            4 
  698000    1.1583163   -5.7683453     373.0917  0.044542944  0.045400162            6 
  699000    1.1513712   -5.7723859    375.72615  0.044793294  0.045390151            1 
  700000     1.153465   -5.7059365    376.00863  0.044762932  0.045380614            4 
  701000    1.1051249   -5.7309028    377.27797  0.044849972  0.045371471            3 
  702000    1.1166826   -5.7249966    377.87365  0.044856796  0.045362634            1 
  703000    1.1566983   -5.7508511    377.26614  0.044720974  0.045353657            3 
  704000    1.1309751   -5.7293634    378.32672  0.044782993  0.045344961            1 
  705000    1.1395767   -5.7216175    378.24173  0.044709424  0.045335935            1 
  706000    1.1370054   -5.7420811    377.89758  0.044605474  0.045326773            2 
  707000     1.117516   -5.7786141    379.00786  0.044673251  0.045317604            3 
  708000    1.1359019   -5.7622237    380.66183  0.044804829  0.045308742            6 
  709000    1.1330222    -5.765398    381.12617  0.044796212   0.04530006            4 
  710000    1.1292948   -5.7344537     381.6733  0.044797335  0.045291932            3 
  711000    1.1587923   -5.7463348    381.74755  0.044743033  0.045283357            4 
  712000    1.1466237   -5.7565975    382.77799  0.044800794  0.045275262            2 
  713000     1.131068   -5.7597357    382.24016    0.0446751    0.0452666            2 
  714000     1.142461   -5.7545789    382.19078  0.044606767  0.045257647            2 
  715000    1.1155608   -5.7505577    384.61681  0.044827134  0.045249328            3 
  716000     1.114709   -5.7288164    385.75745  0.044897283  0.045241402            2 
  717000    1.1329136   -5.7669689    385.21264  0.044771343  0.045233194            5 
  718000     1.136792   -5.7868805    384.24104  0.044596221  0.045224617            5 
  719000     1.146949   -5.7439971    386.56566  0.044803623  0.045216623            2 
  720000    1.1119758    -5.737973    387.01646  0.044793572  0.045208288            5 
  721000    1.1376636    -5.731269    387.64518  0.044804112  0.045200654            1 
  722000    1.1287522   -5.7470424    388.29697  0.044817287  0.045193319            4 
  723000    1.1490855   -5.7214055    389.15514  0.044854212  0.045186466            6 
  724000    1.1470397   -5.7409184    390.49397   0.04494636  0.045179827            1 
  725000    1.1305302    -5.708834    390.92421  0.044933817  0.045173006            2 
  726000    1.1286573   -5.7456087    390.67702  0.044843551  0.045165977            3 
  727000    1.1213604   -5.7125296    391.97965  0.044931184  0.045159212            4 
  728000    1.1189348   -5.7204544    393.01625  0.044988124  0.045153183            2 
  729000    1.1221064   -5.7630353    391.94213  0.044803627  0.045146532            4 
  730000     1.105349   -5.7677129    392.09686  0.044759915  0.045139416            2 
  731000    1.1326863   -5.7521787    391.63718  0.044646281  0.045132211            2 
  732000    1.1364277   -5.7388865     393.8461  0.044836759  0.045124665            8 
  733000     1.153959   -5.7341445    394.01366  0.044794641  0.045117624            1 
  734000    1.1136639   -5.7152674    395.69716  0.044924746  0.045110515            2 
  735000    1.1388882   -5.7211058    394.80109  0.044762028  0.045102911            2 
  736000     1.123704   -5.7357009    394.35344  0.044650525  0.045095182            1 
  737000    1.1361331   -5.7597499    394.23899     0.044577  0.045087759            2 
  738000    1.1470292   -5.7429543    396.65299  0.044789181  0.045080522            2 
  739000    1.1251418   -5.7317725    395.24588  0.044569901   0.04507363            3 
  740000    1.1395121   -5.7200584    397.44872  0.044757739  0.045066607            4 
  741000    1.1615188   -5.7532222    396.99764  0.044646608  0.045060114            4 
  742000    1.1414327   -5.7407728    398.45997   0.04475067  0.045053039            3 
  743000    1.1374392   -5.7662142    398.98814  0.044749679  0.045046506            2 
  744000    1.1427544   -5.7248037    400.83983  0.044896935  0.045039516            3 
  745000    1.1272569   -5.7260187    399.05286  0.044636785  0.045032456            4 
  746000    1.1426271   -5.7505901    399.45649  0.044622038  0.045025072            5 
  747000    1.1325706   -5.7511493    400.13391  0.044637874  0.045018058            3 
  748000    1.1287784   -5.7730727    401.13534  0.044689766  0.045010601            4 
  749000    1.1316371   -5.7468919    400.22575  0.044528899  0.045003427            3 
  750000    1.1322577   -5.7811867    400.34389  0.044482655  0.044996462            4 
  751000    1.1418668    -5.802922    400.49651  0.044440359  0.044988583            8 
  752000    1.1620246   -5.7642757    400.89252  0.044425146  0.044981182            3 
  753000    1.1403167   -5.8020235    402.29335  0.044521176  0.044973922            2 
  754000     1.124851   -5.7672097    404.64706  0.044722266  0.044966855            4 
  755000    1.1681486   -5.7504016    403.27099  0.044511147  0.044959986            2 
  756000    1.1432568   -5.7853059    405.02041  0.044645107  0.044952446            1 
  757000    1.1115961   -5.7529539    404.39649  0.044517447  0.044944792            8 
  758000    1.1301249   -5.8125132    404.34782  0.044453366  0.044937042            6 
  759000    1.1350046   -5.7291857    405.50822  0.044522203  0.044929009            1 
  760000    1.1386296   -5.7625218    406.05295   0.04452335  0.044921636            1 
  761000     1.122326   -5.7336515    407.03123   0.04457197  0.044913017            3 
  762000     1.121419    -5.806514    404.66228  0.044254405  0.044904488            2 
  763000    1.1268245   -5.7962988    405.85007  0.044326133  0.044895156            3 
  764000    1.1285208   -5.7318598    407.34267  0.044430919   0.04488566            2 
  765000    1.1445106   -5.7121488    409.98342  0.044660504  0.044877061            2 
  766000     1.128386   -5.8123132    405.58157  0.044123321  0.044868503            4 
  767000    1.1239595    -5.789483    406.49018  0.044164514  0.044859171            2 
  768000    1.1195983   -5.7657958    408.24329  0.044297232  0.044850836            2 
  769000    1.0987133    -5.769827    408.56907  0.044274932  0.044841905            1 
  770000    1.1516795   -5.7306486    409.45699  0.044313527  0.044833812            2 
  771000    1.1210475   -5.7327528    410.69492  0.044389853  0.044825735            5 
  772000    1.1285398   -5.8012333    409.15302  0.044165913  0.044817157            3 
  773000    1.1182675   -5.7929536    409.53685  0.044150157  0.044808364            2 
  774000    1.1363703   -5.7931586    411.09852  0.044261254  0.044799364            3 
  775000    1.1252244   -5.7547045    410.98194  0.044191606  0.044791042            2 
  776000    1.1525531   -5.7670908    412.29043  0.044275175  0.044782609            8 
  777000    1.1134381   -5.8037156    411.66299    0.0441509  0.044774023            2 
  778000    1.1395144   -5.7933635      413.735  0.044316088  0.044765871            3 
  779000    1.1426384   -5.8022289    413.10388  0.044191686   0.04475703            2 
  780000    1.1580751   -5.7994702    414.96392  0.044333752  0.044748652            5 
  781000    1.1498844   -5.7730344    413.40341  0.044110479  0.044740101            2 
  782000    1.1374068   -5.7916364    414.24588  0.044143849  0.044731356            5 
  783000    1.1231344   -5.7556868    415.76365  0.044249005  0.044722731            5 
  784000    1.0862988   -5.7561853    416.04593  0.044222569  0.044714021            3 
  785000    1.1342282   -5.7613199    416.30883  0.044194143  0.044705495            7 
  786000     1.132312   -5.7577509     416.5175   0.04416004  0.044697104            2 
  787000    1.1131905   -5.7851835    416.69849  0.044123093  0.044688215            3 
  788000    1.1378498   -5.7867981    417.79792  0.044183367  0.044679658            5 
  789000    1.1351667   -5.7783216     417.8659  0.044134548   0.04467108            2 
  790000    1.1458654    -5.758459      418.325   0.04412711  0.044663143            3 
  791000    1.1342824   -5.7943599    420.83826    0.0443361  0.044654797            3 
  792000    1.1462209   -5.7447346     421.0944  0.044307071  0.044646756            4 
  793000    1.1284144   -5.8278251    421.23525  0.044265999  0.044638904            3 
  794000    1.0961072   -5.7936183     420.8432  0.044169101   0.04463129            5 
  795000    1.1183456   -5.7703921    422.71326  0.044309566   0.04462315            6 
  796000    1.1240321    -5.790078    422.60645  0.044242719  0.044615352            2 
  797000    1.1190086   -5.7417052    424.08141  0.044341428   0.04460785            3 
  798000    1.1142836   -5.7463774     425.8644  0.044472055  0.044601061            3 
  799000    1.1010393    -5.773875    425.48022  0.044376326  0.044593775            3 
  800000    1.1245858   -5.7657472    425.42948  0.044315571  0.044586204            8 
  801000    1.1331367   -5.7873882    423.35717  0.044044649  0.044578569            2 
  802000     1.112109   -5.7761907    423.28901  0.043982649  0.044570589            4 
  803000    1.1278871   -5.7590265    425.90587  0.044199447    0.0445634            1 
  804000    1.0986615   -5.7791993    426.93739  0.044251388  0.044556219            2 
  805000    1.1267529    -5.800205    425.54133  0.044051897    0.0445488            3 
  806000    1.0764226   -5.8527122    424.35502  0.043874588  0.044540489            4 
  807000    1.1279467   -5.7576855    428.42373  0.044240369  0.044531967            3 
  808000    1.1362504   -5.7902398    427.20807  0.044060239  0.044524286            3 
  809000    1.1470152   -5.7938988    428.13744  0.044101508  0.044516482            2 
  810000    1.1246943   -5.7423039    430.67704  0.044308337  0.044509035            9 
  811000    1.1237617   -5.7912223    429.90599  0.044174475  0.044501594            1 
  812000    1.0990674   -5.7956993    429.96334  0.044125958  0.044493741            3 
  813000    1.0978841   -5.7977153    429.09509  0.043982687  0.044485805            6 
  814000    1.1263723   -5.7235812    433.57261  0.044387041  0.044478482            7 
  815000    1.1098322   -5.7967689    431.12446  0.044082256  0.044471869            3 
  816000    1.1083617   -5.7963225    431.73027  0.044090101  0.044464731            2 
  817000    1.1204556   -5.7630393    432.16175  0.044080145  0.044457193            3 
  818000    1.1344517   -5.7916795    431.45896  0.043954662  0.044449955            2 
  819000    1.1074977   -5.7592355    434.36027  0.044196202   0.04444259            8 
  820000    1.1125051   -5.8112224    432.23592  0.043926414  0.044435282            6 
  821000    1.1418789   -5.8021853     434.0808  0.044060171  0.044427181            9 
  822000    1.1106972   -5.7951503     434.0448   0.04400292  0.044419693            2 
  823000    1.1211525   -5.8077596    434.95769  0.044041888  0.044412358            7 
  824000    1.1185722   -5.7604313    436.58802  0.044153319  0.044405378            2 
  825000    1.1255941   -5.7245225    439.10645  0.044354187  0.044398786            1 
  826000    1.1063803   -5.7220406    438.26263  0.044215358  0.044391688            2 
  827000    1.1129468   -5.8184595     435.9374   0.04392759  0.044384054            2 
  828000    1.1049281   -5.7679504    436.65072  0.043946328  0.044376558            2 
  829000    1.1245848   -5.7891655     437.9085  0.044019752  0.044368978            3 
  830000    1.1469879   -5.8012868    438.56773  0.044032905  0.044361602            3 
  831000    1.1003177   -5.7967234    438.33243  0.043956321  0.044354164            3 
  832000    1.1103683   -5.7694472    439.57674  0.044028118   0.04434641            4 
  833000    1.1198495    -5.769414     441.2191  0.044139566  0.044338842            1 
  834000    1.1275559   -5.8281678    439.77856  0.043942702  0.044330808            2 
  835000    1.1229895   -5.7504245    439.77689  0.043889909  0.044322862            2 
  836000    1.1085923   -5.7943156    440.26789  0.043886352  0.044315113            2 
  837000    1.1075352   -5.7885474    440.89904  0.043896758  0.044306415            2 
  838000    1.1469304   -5.7607619    440.47305  0.043802014  0.044297659            2 
  839000    1.0903171   -5.8059611    439.38475  0.043641711  0.044288714            2 
  840000    1.1235932   -5.8185498     440.8527  0.043735387  0.044280126            2 
  841000    1.0992411    -5.801888    442.25052  0.043821891  0.044271264            4 
  842000    1.1137145   -5.7601832    441.14995  0.043660921  0.044262587            3 
  843000    1.1253121   -5.7995732    442.50987  0.043743562  0.044253837            3 
  844000    1.1176123   -5.7894082    442.44955  0.043685777  0.044245378            5 
  845000     1.102054   -5.8249211    441.90363   0.04358024   0.04423638            2 
  846000    1.1186114    -5.790705    445.18801  0.043852247  0.044228223            3 
  847000    1.1330892   -5.7887789    445.28958  0.043810466  0.044219975            2 
  848000    1.1162593   -5.7604749    446.12318  0.043840722  0.044211793            2 
  849000    1.1060621   -5.7726433    447.59353  0.043933405   0.04420335            3 
  850000    1.1320857   -5.7950057    446.08794  0.043734112  0.044194819            4 
  851000    1.1139081    -5.778382    446.62415  0.043735228   0.04418641            5 
  852000    1.1149578   -5.7626937    447.36564   0.04375642  0.044178444            4 
  853000     1.114037   -5.7829388    449.15316  0.043879754  0.044171123            3 
  854000    1.0960154   -5.8016075    450.95319  0.044004019   0.04416355            7 
  855000    1.1157011   -5.7941214    448.91586  0.043753982  0.044155713            2 
  856000    1.1096707   -5.7953777    449.52897  0.043762556  0.044147912            4 
  857000    1.1431811   -5.7657674    450.11728  0.043768697  0.044140034            3 
  858000    1.0979903   -5.8238448     450.1413  0.043720018  0.044132109            4 
  859000    1.1222385   -5.8438356    450.22859  0.043677589  0.044124068            2 
  860000     1.109461   -5.8164581    449.40697  0.043547187  0.044115744            3 
  861000    1.1135088   -5.8320267    448.85248  0.043442943   0.04410733            5 
  862000    1.1258919   -5.8075472    451.07645  0.043607546  0.044098853            5 
  863000    1.1137045       -5.793    452.88002  0.043731173  0.044090614            2 
  864000    1.0937484   -5.7827207    452.88378  0.043680921  0.044081822            2 
  865000    1.1269266   -5.7905258    452.04956  0.043550054  0.044073509            6 
  866000    1.1209859   -5.8157072     453.1299  0.043603724  0.044065119            6 
  867000    1.1181917   -5.8172189    453.15658  0.043555996  0.044056141            4 
  868000    1.1272192   -5.8160796    454.05015  0.043591604  0.044047582            3 
  869000    1.1083878   -5.7546388    455.94513  0.043723161  0.044038801            5 
  870000    1.1452548   -5.7964569    455.76742  0.043655884  0.044030277            4 
  871000    1.0933497   -5.7834732    457.58209  0.043779381  0.044021822            3 
  872000     1.107263   -5.8520604    453.54172  0.043343054  0.044013365            4 
  873000    1.0902447   -5.8110999    457.31985  0.043654052  0.044005132            3 
  874000    1.1225696   -5.8408033    457.51974  0.043623163  0.043997075            2 
  875000    1.0992691   -5.8198487    459.28041  0.043740991  0.043989255            5 
  876000     1.113189    -5.817818    458.26571  0.043594531   0.04398126            2 
  877000    1.1078796    -5.821025    460.16846  0.043725624  0.043973304            4 
  878000    1.1184771   -5.8211895    457.56442  0.043428666  0.043965058            5 
  879000     1.108502   -5.8251082    458.27855  0.043446962  0.043957371            3 
  880000    1.0844221   -5.7808405     460.9347  0.043649119  0.043949932            3 
  881000    1.0958536   -5.7901072    462.70484  0.043767011  0.043942609            3 
  882000    1.1165257   -5.7788632    462.47486  0.043695659  0.043935474            2 
  883000    1.1178018   -5.8130877    462.66357  0.043663984  0.043928281            3 
  884000    1.1140764   -5.8287546    463.52055  0.043695377   0.04392108            2 
  885000    1.0941827   -5.8164078    464.29264  0.043718704  0.043913659            3 
  886000     1.134246   -5.7939066    464.69815  0.043707501   0.04390603            3 
  887000    1.1167631   -5.7575787    465.73494  0.043755631  0.043899293            3 
  888000    1.1176315   -5.8074661    464.82198  0.043620682  0.043892061            2 
  889000    1.0989267   -5.8069424     466.4074  0.043720229  0.043884659            4 
  890000    1.0971294   -5.7954128    466.32379  0.043663276  0.043877556            3 
  891000    1.1214606   -5.7883709    467.65251  0.043738544   0.04387024            3 
  892000    1.0997154     -5.84324    466.37385  0.043570053  0.043863176            3 
  893000    1.1288279   -5.8062323    467.60439  0.043636095  0.043856227            3 
  894000    1.1215584   -5.8117579    468.21367  0.043644079  0.043849259            2 
  895000    1.1168257   -5.8378231    468.18152   0.04359232  0.043842106            5 
  896000    1.1246478   -5.8031843    469.23098  0.043641274  0.043835206            3 
  897000    1.1006047    -5.785422    469.99585   0.04366368  0.043828679            6 
  898000    1.1165463   -5.8238879    470.04195  0.043619335  0.043821957            7 
  899000    1.0797401   -5.8348651    469.64431  0.043533955  0.043815084            5 
  900000    1.1209202   -5.7682197    473.62968    0.0438546  0.043808508            1 
  901000    1.0951689   -5.8444491    470.20817  0.043489472   0.04380183            2 
  902000    1.1076895   -5.8111757    472.70308  0.043671755   0.04379493            4 
  903000    1.1135306    -5.798048    473.27763  0.043676415  0.043788137            2 
  904000    1.1109214   -5.8172075    472.22078  0.043530676  0.043781434            7 
  905000    1.1070722   -5.8143538    472.47606  0.043506083  0.043774059            6 
  906000    1.1628681   -5.8347143    471.02776  0.043324849  0.043766924            3 
  907000     1.072802   -5.8391217    474.31464  0.043579074  0.043759413            2 
  908000    1.1348967   -5.8118829    473.03149  0.043413316  0.043752044            3 
  909000    1.1266814   -5.8228753    472.98865  0.043361629  0.043744879            3 
  910000    1.1113284   -5.7708234    476.91952  0.043673948  0.043737915            1 
  911000    1.0977152   -5.8066781    477.08653  0.043641285  0.043730775            5 
  912000     1.115975   -5.8159557    478.81745  0.043751595  0.043724244            4 
  913000    1.0804129   -5.8331729    476.77958  0.043517669  0.043717364            5 
  914000    1.0670817   -5.8260945    475.53094  0.043356213  0.043710446            3 
  915000     1.092419   -5.7903755    478.12421   0.04354501  0.043703348            2 
  916000    1.0929134   -5.8357765    477.86374  0.043473775  0.043696278            6 
  917000     1.086929   -5.7867799     478.6904   0.04350149  0.043689603            5 
  918000    1.1116846   -5.7998972    478.22134  0.043411523  0.043682885            4 
  919000    1.0754891   -5.8209612    479.75744  0.043503576  0.043675142            2 
  920000    1.1272323   -5.8201972    479.26161  0.043411377  0.043667607            6 
  921000    1.1111255    -5.845541    479.17964  0.043356826  0.043659854            6 
  922000    1.1206369   -5.8313222    480.13468  0.043396121  0.043651952            5 
  923000    1.1043117   -5.8247422     479.3119   0.04327482  0.043643666            2 
  924000     1.117076   -5.7934277    481.11363  0.043390479  0.043635811            2 
  925000     1.102233   -5.8430191    479.27906  0.043178294  0.043627575            6 
  926000    1.1016946   -5.8595068     480.5523  0.043246248   0.04361893            3 
  927000    1.1102474   -5.8161524    483.55977  0.043469954  0.043610918            3 
  928000     1.139153   -5.7744938    482.55815  0.043333167  0.043603187            3 
  929000    1.1099883   -5.8391567    479.57362  0.043018803   0.04359493            4 
  930000    1.0763423     -5.80186    484.49809  0.043413808  0.043587211            4 
  931000    1.1415395   -5.7956509    484.26021  0.043345883  0.043579689            1 
  932000    1.1196732   -5.8098918     484.9949  0.043365066  0.043571889            3 
  933000    1.0983521   -5.8880285    480.58743  0.042924922  0.043563641            3 
  934000    1.0864654      -5.8264    484.71641   0.04324736  0.043555111            1 
  935000     1.122415    -5.870061    482.32017  0.042987537  0.043547037            2 
  936000    1.0838879   -5.8374426    485.67946  0.043240693  0.043538872            3 
  937000    1.1129774   -5.8254492    486.19167  0.043240099  0.043530965            2 
  938000    1.0931855   -5.7939182    486.76209  0.043244677  0.043523515            4 
  939000    1.0979763   -5.8149856    486.85838  0.043207169  0.043516466            1 
  940000    1.1189321   -5.8296092    488.03804  0.043265784  0.043509438            5 
  941000    1.1210339   -5.8309722    486.43478  0.043077823  0.043501612            4 
  942000    1.0979734   -5.8243188    488.37567  0.043203792  0.043494047            3 
  943000    1.1107675   -5.8333578    488.10386  0.043133957  0.043486487            3 
  944000    1.0750707   -5.8599636    487.61259  0.043044897   0.04347851            4 
  945000    1.1137247   -5.8006831    491.59677  0.043350685  0.043471066            3 
  946000    1.1234444   -5.8495014    489.28801  0.043101481  0.043463475            3 
  947000    1.0918843   -5.7896837    490.45243  0.043158433  0.043455297            3 
  948000    1.0877645   -5.8659601    489.73529  0.043049867  0.043447426            6 
  949000    1.1255912   -5.8097012    490.80739  0.043098647  0.043439199            3 
  950000     1.085159   -5.8143239    491.01393  0.043071397  0.043431019            3 
  951000    1.1191206   -5.8448381    491.73396  0.043089201   0.04342276            7 
  952000    1.1091647   -5.8182884    491.55523  0.043028294  0.043414387            3 
  953000    1.1061309   -5.8452985    491.12444  0.042945474  0.043406149            5 
  954000    1.1020432   -5.8591441    492.08065  0.042983984  0.043397787            3 
  955000     1.111023    -5.842514     494.7545  0.043172295  0.043389534            8 
  956000    1.1097438   -5.7871423     494.2766  0.043085477  0.043381342            4 
  957000    1.1030203   -5.8398106    493.49928  0.042972769  0.043373393            3 
  958000    1.0796887   -5.8530938     493.5863  0.042935482  0.043365379            3 
  959000    1.1071643   -5.8082402     494.9767  0.043011531  0.043357201            4 
  960000    1.1011561   -5.8139416    495.67459  0.043027308   0.04334879            4 
  961000    1.0869503   -5.8116387     493.9012  0.042828755  0.043340147            2 
  962000    1.1008026   -5.8016682    496.31717  0.042993518  0.043331847            2 
  963000     1.095941   -5.8141308    496.70346    0.0429823  0.043323553            2 
  964000    1.0920606   -5.8505435    497.24297  0.042984351  0.043315079            3 
  965000      1.09353   -5.8327513     498.7954  0.043073869  0.043306932            4 
  966000    1.0662378    -5.823038    499.85416  0.043120615  0.043299321            2 
  967000    1.0904823    -5.867975    497.71365  0.042891559  0.043291579            2 
  968000    1.1214147   -5.8828113    498.30719  0.042898347  0.043283776            1 
  969000    1.1094689   -5.8433211    499.17224  0.042928469   0.04327613            7 
  970000    1.0804576   -5.8449652    500.42369  0.042991726  0.043268467            4 
  971000    1.0742749   -5.8297874    499.97244  0.042908723  0.043261102            3 
  972000    1.1232385   -5.8504343    500.13649  0.042878643  0.043253067            3 
  973000    1.1162512   -5.8504839    500.40322  0.042857418  0.043244961            6 
  974000     1.107317   -5.8523157    501.49295  0.042906652  0.043236847            3 
  975000    1.0945565   -5.8533569    501.32152  0.042847993  0.043228893            6 
  976000    1.0727603   -5.8401646    502.09645  0.042870257  0.043220732            4 
  977000    1.1002929   -5.7878955    503.37999  0.042935857  0.043212748            3 
  978000    1.0889352   -5.8382623    502.30926  0.042800721  0.043205114            3 
  979000    1.1087044   -5.8249248    501.85555  0.042718382  0.043196485            7 
  980000     1.092973   -5.8303526    502.34479  0.042716394  0.043187606            2 
  981000    1.0833882    -5.870388    503.38355   0.04276109  0.043178825            4 
  982000     1.095045   -5.8476191     503.7329  0.042747191  0.043169978            6 
  983000    1.0839949   -5.8820814    503.76637  0.042706542  0.043161322            2 
  984000     1.087544   -5.8625424    503.65901  0.042654049    0.0431526            6 
  985000    1.1076234   -5.8446141    504.54745   0.04268591  0.043144076            2 
  986000    1.1107213   -5.8131125    506.64613  0.042819991  0.043136096            2 
  987000    1.1155714   -5.8881244    505.43908  0.042674695  0.043127912            3 
  988000    1.0743265   -5.8701383    508.38919  0.042880329  0.043119571           10 
  989000    1.1026125   -5.8494647    508.49337  0.042845751   0.04311149            2 
  990000    1.0839282   -5.8510292    507.85307  0.042748575  0.043103099            3 
  991000     1.070152   -5.8201551    507.08175  0.042640577     0.043095            2 
  992000    1.1050077    -5.872228    506.94442  0.042586056  0.043086878            2 
  993000    1.0936958   -5.8481665    510.70169  0.042858484  0.043078882            2 
  994000    1.1094211   -5.8468166    510.57312  0.042804587  0.043070723            2 
  995000    1.1138078   -5.8546981    511.58282  0.042846132  0.043062838            2 
  996000    1.0915716   -5.8618922    510.76569  0.042734746  0.043054835            6 
  997000    1.1046117   -5.8707564     512.0114  0.042796005  0.043046824            2 
  998000    1.1102788     -5.88243    511.94074  0.042747222  0.043038747            2 
  999000    1.1159638   -5.8449954    513.20348  0.042809766  0.043030746            2 
 1000000    1.1077362   -5.8407527     513.2369  0.042769741  0.043023286            4 
 1001000    1.0962572   -5.8490244    514.40609   0.04282435  0.043016066            2 
 1002000    1.1090799   -5.8326825    515.79826  0.042897393  0.043008858            5 
 1003000    1.1004403   -5.8262552    516.29548  0.042895935  0.043001697            4 
 1004000    1.0824226    -5.854551    514.28132  0.042686033  0.042994432            3 
 1005000    1.1130298   -5.8533792    516.46092  0.042824289  0.042987232            2 
 1006000     1.113956   -5.8702687    514.60927  0.042628336  0.042979849            2 
 1007000     1.092413   -5.8272573    516.78508  0.042766061  0.042972759            4 
 1008000    1.0676829   -5.8530559    517.30404  0.042766538  0.042965386            2 
 1009000    1.1012923   -5.8646051    516.31759  0.042642682  0.042958125            3 
 1010000    1.0969063   -5.8514742    518.84342  0.042808863  0.042950977            2 
 1011000    1.1282522   -5.8393835    519.13905  0.042790888   0.04294343            2 
 1012000    1.0833853   -5.8574318     519.3969  0.042769837   0.04293599            4 
 1013000    1.0755202   -5.8796871    517.49541  0.042571192  0.042928607            3 
 1014000    1.1011825   -5.8829716     515.7037  0.042381961  0.042920614            3 
 1015000    1.0903308   -5.8499903     519.5296  0.042654319  0.042912618            4 
 1016000    1.0810277   -5.8970485    517.96437  0.042483954  0.042904878            6 
 1017000    1.1034809   -5.8405729    520.97495  0.042688869  0.042897384            3 
 1018000    1.0806566   -5.8708314     521.7165  0.042707638  0.042889947            2 
 1019000    1.1150836   -5.8477059    522.26422  0.042710518   0.04288223            1 
 1020000    1.0860934   -5.9127679    519.74143  0.042462535  0.042874783            3 
 1021000    1.0827435   -5.8699063    521.37714  0.042554452  0.042867091            2 
 1022000    1.0892384   -5.8448313    524.26939  0.042748645  0.042859711            3 
 1023000     1.096937   -5.8596264    523.59315  0.042651772  0.042852535            4 
 1024000    1.0947848   -5.8742508      525.252  0.042745117  0.042845699            3 
 1025000    1.1027297   -5.8904065    523.29672  0.042544449  0.042838662            2 
 1026000    1.0816941   -5.8772803    526.83011   0.04278997  0.042831659            2 
 1027000    1.0848663   -5.8669881    525.06874  0.042605383  0.042824665            6 
 1028000    1.1047634   -5.8348307    527.31056  0.042745668  0.042817739            2 
 1029000    1.0998092   -5.8546476    525.62243  0.042567414  0.042810321            3 
 1030000    1.0882719   -5.8738218    525.54286  0.042519649   0.04280326            3 
 1031000    1.0944136   -5.8869573    527.66317  0.042649787   0.04279626            3 
 1032000    1.0570131   -5.8880179    527.47703  0.042593429  0.042788766            2 
 1033000    1.0619851   -5.8534652    529.61167    0.0427244  0.042781122            5 
 1034000    1.0902861   -5.8764003    527.70104  0.042529097  0.042774237            3 
 1035000    1.1011568   -5.8786442    528.55706  0.042556929   0.04276724            4 
 1036000    1.0907806   -5.8582597    530.47021   0.04266974   0.04276023            2 
 1037000    1.0907318   -5.8871163    529.43312  0.042545252  0.042753264            3 
 1038000     1.077815   -5.8800548    531.71389  0.042687371  0.042746426            5 
 1039000    1.1058659   -5.8723939    531.32636  0.042615203  0.042739596            7 
 1040000    1.0875309   -5.8776832     530.9332  0.042542725  0.042732531            2 
 1041000    1.1077166   -5.8411478     534.3214  0.042773087     0.042726            3 
 1042000     1.096315   -5.8089587    535.12365  0.042796197  0.042719628            3 
 1043000    1.0880975   -5.8658305    533.09876  0.042593381  0.042713306            2 
 1044000     1.093539   -5.8364776    533.75087  0.042604635  0.042707004            2 
 1045000     1.108585   -5.8474795    534.30683    0.0426082  0.042699688            2 
 1046000    1.0780795   -5.8979075    532.44441  0.042419089  0.042692508            3 
 1047000    1.0716719   -5.8658741    534.34103  0.042529532  0.042685672            3 
 1048000    1.0794116   -5.9043357    532.92044   0.04237599  0.042678702            7 
 1049000    1.0742144   -5.8766128    535.02019  0.042502398  0.042671289            2 
 1050000    1.0784622   -5.8452461    535.20738  0.042476776   0.04266422            2 
 1051000    1.1045283   -5.8830006    534.33594  0.042367264  0.042656984            6 
 1052000     1.073134   -5.8261516    535.96062  0.042455689  0.042650071            2 
 1053000    1.0873896   -5.8677131    538.04189   0.04258008  0.042643158            3 
 1054000    1.0623376   -5.8472769    537.29608  0.042480715  0.042636135            2 
 1055000    1.0674465   -5.8810452    537.36202  0.042445657  0.042629053            4 
 1056000    1.0760717   -5.8921492    537.01201  0.042377842  0.042621517            4 
 1057000    1.0987068   -5.8518572    539.47849  0.042532205  0.042614256            4 
 1058000    1.0629862   -5.8898085    538.85774  0.042443111  0.042607063            2 
 1059000    1.0894014   -5.8767639    538.32444  0.042361067  0.042599734            4 
 1060000    1.0972508   -5.8535278      540.436  0.042487107  0.042592577            2 
 1061000    1.0892315   -5.8694996    539.14042  0.042345305   0.04258531            3 
 1062000    1.0830434   -5.8727966     539.8471  0.042360883  0.042577892            3 
 1063000    1.0719461   -5.8900871    538.41416  0.042208699  0.042570337            3 
 1064000    1.0672963   -5.8948679    541.24132  0.042390455  0.042562794            2 
 1065000    1.1047276   -5.8374656    543.26151  0.042508725  0.042555448            4 
 1066000    1.0824513    -5.912845    540.67146  0.042266374  0.042548152            4 
 1067000    1.0764395   -5.8579428    541.25134  0.042272051  0.042540536            6 
 1068000    1.0985623   -5.8904763    543.16719   0.04238196  0.042532916            3 
 1069000    1.0719151   -5.8830199    540.72444   0.04215189  0.042525452            2 
 1070000    1.0764865   -5.8655482    542.60826   0.04225921  0.042517943            3 
 1071000    1.1151123   -5.8504659    544.31277  0.042352378  0.042510111            3 
 1072000    1.0523488   -5.8705711    543.24385  0.042229777   0.04250229            2 
 1073000    1.0841329   -5.8483599    543.76627  0.042230993  0.042494239            3 
 1074000     1.095925    -5.803427    543.73397  0.042189166  0.042486213            3 
 1075000    1.0775172   -5.8946894    543.83189  0.042157511  0.042478347            3 
 1076000    1.0979653   -5.9016661    542.71213  0.042031608  0.042470457            4 
 1077000    1.0682781   -5.8738568    544.28282  0.042114115  0.042462069            3 
 1078000    1.0582235   -5.8821351    545.09891  0.042138134   0.04245397            2 
 1079000    1.0846607   -5.8784497    545.22918  0.042109143  0.042445528            2 
 1080000    1.0464083   -5.8623431    546.30009  0.042152785  0.042437094            3 
 1081000    1.0810436    -5.901109    543.60475  0.041906009  0.042428572            2 
 1082000    1.0591638   -5.8613206    545.21859  0.041991574  0.042419707            4 
 1083000    1.0938473   -5.8869428    542.93995  0.041777466  0.042410823            2 
 1084000    1.0573686   -5.9076511     545.7462  0.041954658  0.042401537            4 
 1085000    1.0524004   -5.8460799    546.91293  0.042005601  0.042392779            2 
 1086000    1.0814336   -5.8636398    547.82066  0.042036576  0.042384418            3 
 1087000    1.0744589    -5.893049    545.84814  0.041846683   0.04237533            4 
 1088000    1.0718423   -5.8867365    544.35662  0.041693981  0.042365893            4 
 1089000    1.0938258   -5.8484925    545.90195  0.041773948  0.042356757            2 
 1090000    1.0619624   -5.9319415     545.1177  0.041675665  0.042347196            3 
 1091000    1.0812471   -5.8704876    547.95384  0.041854097  0.042337544            3 
 1092000     1.065679   -5.8845665    546.33756  0.041692426  0.042327733            8 
 1093000    1.0651422   -5.8754145    545.46177  0.041587509  0.042317472            4 
 1094000    1.0954633   -5.8764115    546.21682  0.041607009  0.042307232            2 
 1095000    1.0941414   -5.8646342    546.78744  0.041612438  0.042297163            2 
 1096000    1.0662738   -5.8048292    549.55249  0.041784709  0.042287405            7 
 1097000    1.0853609   -5.8852589    547.89787  0.041620926  0.042277457            3 
 1098000     1.073436   -5.8824786    548.16905  0.041603602   0.04226794            3 
 1099000     1.072833   -5.8627838    548.48352  0.041589591  0.042258119            2 
 1100000    1.0382883   -5.9076043    549.02508  0.041592809  0.042248334            3 
 1101000    1.0492112   -5.8753956     550.2636  0.041648774  0.042238455            3 
 1102000    1.0800256   -5.8823037    550.47008  0.041626594  0.042228626            5 
 1103000    1.0751557   -5.9386507    548.60039  0.041447597  0.042218373            3 
 1104000     1.068739   -5.8927237      550.513  0.041554423  0.042207896            3 
 1105000    1.0714596   -5.8868188    552.33274  0.041654053   0.04219794            4 
 1106000    1.0744938   -5.8813922    550.70595  0.041493818  0.042187952            4 
 1107000    1.0846813   -5.9027019    550.92447  0.041472784  0.042177532            4 
 1108000    1.0884055   -5.8598365    550.81848  0.041427383   0.04216727            3 
 1109000    1.0568505   -5.8956931    553.12227   0.04156314  0.042157276            4 
 1110000    1.0734005   -5.8879636    553.19751  0.041531345  0.042147472            7 
 1111000    1.0698648   -5.8875092    553.28117  0.041500238  0.042137392            3 
 1112000    1.0750084   -5.9039736     554.2686  0.041536916  0.042127519            2 
 1113000    1.0777941   -5.9001916    553.46249   0.04143924  0.042117677            6 
 1114000    1.0631509    -5.897535     555.8106  0.041577693  0.042107848            4 
 1115000    1.0848494   -5.9012472      554.215  0.041421151  0.042098214            2 
 1116000    1.0819297   -5.8855512    554.41518  0.041398983  0.042088419            4 
 1117000    1.0687097   -5.9254251    554.13728  0.041341187  0.042078395           17 
 1118000    1.0839377   -5.9238352    555.84517  0.041431512  0.042068263            1 
 1119000    1.0643878   -5.9034067    555.40996  0.041362076  0.042058187            4 
 1120000    1.0978349   -5.8648555    557.62673  0.041490084  0.042048159            4 
 1121000    1.0722859   -5.8656875    558.84265  0.041543462  0.042038647            2 
 1122000    1.0627718   -5.8895817    557.68458  0.041420423  0.042028931            3 
 1123000    1.0640583   -5.9032068    557.17671  0.041345853  0.042019202            5 
 1124000    1.0475596   -5.9007385    559.09208  0.041451074  0.042009334            3 
 1125000    1.0704588   -5.8926424    559.04061  0.041410416   0.04199965            4 
 1126000    1.0913353   -5.9166053    558.14627   0.04130745  0.041990006            2 
 1127000    1.0580912   -5.9046964    560.49442  0.041444426  0.041980331            2 
 1128000    1.0660758   -5.8727467    561.20217  0.041459971  0.041970955            3 
 1129000    1.0694396   -5.9558821    558.86393  0.041250659  0.041961066            4 
 1130000    1.0962368   -5.8635155    562.83169  0.041506762  0.041951516            4 
 1131000    1.0780082   -5.8601743    563.42596  0.041513849  0.041942342            9 
 1132000    1.0908869   -5.9370055    563.25706  0.041464742  0.041932855            9 
 1133000    1.0647958   -5.9717842    560.53598  0.041228007  0.041923258            4 
 1134000    1.0645177   -5.9062762    562.46015   0.04133305  0.041913572            4 
 1135000    1.1014036   -5.8795428    564.76658  0.041465975  0.041904282            7 
 1136000    1.0643467   -5.8762143    565.30222  0.041468766  0.041895054            2 
 1137000    1.0845636   -5.9160549    561.95797  0.041187186  0.041885409            4 
 1138000    1.0861013   -5.8833856    565.41459  0.041404114  0.041875916            3 
 1139000    1.0601039   -5.9420343    562.51825  0.041155857  0.041866287            3 
 1140000    1.0411405   -5.9333224    563.08893  0.041161471  0.041856606            7 
 1141000    1.0663084   -5.8830079    566.88406  0.041402575  0.041846642            7 
 1142000    1.0522787   -5.9118993    566.44929  0.041334595  0.041837027            5 
 1143000    1.0772557   -5.8684522    568.51106  0.041448751  0.041827426            5 
 1144000    1.0721429   -5.9043141    565.74126  0.041210756  0.041818156            2 
 1145000    1.0495326    -5.850178    569.66578  0.041460391  0.041808865            3 
 1146000    1.0709134   -5.9174633    567.70031  0.041281291  0.041799367            4 
 1147000    1.0591931   -5.9198822    567.79004  0.041251819  0.041789836            4 
 1148000    1.0491495   -5.8627081    569.63117  0.041349533  0.041780565            7 
 1149000    1.0938098   -5.8942361    570.23036  0.041357003   0.04177157            3 
 1150000    1.0778365   -5.9095176     568.9123  0.041225529  0.041762341            6 
 1151000     1.064509   -5.9061053    568.13324  0.041133307  0.041753292            3 
 1152000    1.0588113   -5.9218791    571.74647  0.041358975  0.041744232            4 
 1153000    1.0688493   -5.9144088    572.32231  0.041364723  0.041734928            3 
 1154000    1.0509928   -5.9269049    570.94294   0.04122927  0.041725419            4 
 1155000     1.075624    -5.888446    573.37675  0.041369174  0.041716113            6 
 1156000    1.0633899   -5.9063213     571.6524  0.041209083  0.041706959            3 
 1157000    1.0626816   -5.9315143    569.70432  0.041033154  0.041697232            4 
 1158000    1.0926855   -5.8948285    571.92396  0.041157452  0.041687618            8 
 1159000    1.0914931    -5.911723    572.55653  0.041167424  0.041677963            2 
 1160000    1.0580016   -5.9305421    571.44277  0.041051923  0.041668596            3 
 1161000    1.0668772   -5.9039101    572.16571  0.041068455  0.041659169            5 
 1162000    1.0575418   -5.9147789    572.37318  0.041047991  0.041649135            3 
 1163000    1.0712956   -5.9029087    573.07765  0.041063174  0.041639242            3 
 1164000    1.0783078   -5.9287076    573.21711   0.04103788  0.041629555            2 
 1165000    1.0617698   -5.9062785    574.29683  0.041079888   0.04161945            2 
 1166000    1.0557639   -5.8923257    575.32633  0.041118234   0.04160985            1 
 1167000    1.0658289   -5.9002661    574.30025  0.041009729  0.041600041            7 
 1168000    1.0626557   -5.9075435    574.80476  0.041010614  0.041590407            4 
 1169000    1.0514439   -5.9089679    575.64841  0.041035672  0.041580757            3 
 1170000    1.0579903   -5.8903314    576.92069  0.041091217  0.041571085            3 
 1171000    1.0484579   -5.8967123    576.50551   0.04102658  0.041561342            7 
 1172000    1.0771542   -5.9015203    574.26519   0.04083228  0.041551357            4 
 1173000    1.0493168   -5.9030579     576.8748  0.040982864  0.041541466            4 
 1174000    1.0553598   -5.8844031    574.63112  0.040788694  0.041531532            5 
 1175000    1.0498268   -5.9002624    577.42017  0.040951785  0.041521128            3 
 1176000    1.0751912   -5.9107523    575.27911  0.040765243  0.041510694            4 
 1177000     1.059603   -5.8824971    576.91228  0.040846239  0.041500341            6 
 1178000    1.0673523   -5.9079137    576.92568  0.040812513  0.041489823            3 
 1179000    1.0746707   -5.9187304    576.99102  0.040782514  0.041479122            3 
 1180000    1.0759565   -5.9711804    576.05517  0.040681862  0.041468662            3 
 1181000    1.0654001     -5.94848    575.24004  0.040589898  0.041458275            4 
 1182000    1.0479909   -5.9403912    577.40423  0.040708138  0.041447642            2 
 1183000    1.0505702   -5.9234736    575.59633  0.040546375  0.041436845            4 
 1184000    1.0887494   -5.9337997    577.31673  0.040633216  0.041426049            3 
 1185000    1.0945406   -5.9280726    579.05324  0.040721044  0.041415416            2 
 1186000      1.06133   -5.8966359    578.44573  0.040644023  0.041404873            6 
 1187000    1.0626449   -5.9201406    579.46842   0.04068158  0.041394139            4 
 1188000    1.0440839   -5.8831289     581.3276  0.040777749  0.041384032            5 
 1189000    1.0556655   -5.9127744     580.8485  0.040709875  0.041373803            4 
 1190000    1.0710155   -5.9422189    579.87067   0.04060719  0.041363225            3 
 1191000    1.0586436   -5.9068876    581.60457  0.040694414  0.041352442            4 
 1192000    1.0556851   -5.8842087    583.70079  0.040806822  0.041341868            4 
 1193000    1.0691878   -5.9081584    581.04593   0.04058717  0.041331208            7 
 1194000    1.0473399    -5.939804    580.63091  0.040524212  0.041320304            2 
 1195000    1.1104242   -5.9272361     581.4509  0.040547482  0.041309665            5 
 1196000    1.0464586   -5.9332341    580.84355  0.040471262  0.041299055            6 
 1197000    1.0579873   -5.9241963    582.48047  0.040551411  0.041288369            5 
 1198000    1.0481624   -5.9559044    582.06501  0.040488663  0.041277537            3 
 1199000    1.0640486   -5.9392848    583.45455   0.04055147  0.041266909            4 
 1200000    1.0450108   -5.9380746    582.54323  0.040454391  0.041256311            5 
 1201000     1.074996    -5.925374    581.67813  0.040360681  0.041245649            3 
 1202000    1.0564212   -5.9172139    584.74331  0.040539609  0.041234411            3 
 1203000    1.0547319   -5.8904865    585.88382  0.040584914  0.041223106            4 
 1204000      1.06252   -5.9200569    583.19439   0.04036506  0.041212158            4 
 1205000    1.0680469   -5.8995916    585.76729  0.040509495  0.041201562            2 
 1206000    1.0543917   -5.9163835    585.46909  0.040455299  0.041190981            3 
 1207000    1.0591621    -5.907339    587.15336  0.040538067  0.041180248            2 
 1208000     1.078178    -5.921671    584.35482  0.040311453  0.041169667            4 
 1209000    1.0485879    -5.938211    585.83686  0.040380263  0.041158879            3 
 1210000    1.0741749   -5.9326953    588.25556  0.040513468  0.041148063            3 
 1211000    1.0497024   -5.8795342    588.76386  0.040514992  0.041137498            2 
 1212000    1.0548115   -5.9107966    590.52422    0.0406026  0.041127158            2 
 1213000    1.0928534   -5.9683041     586.0528   0.04026194  0.041116812            4 
 1214000    1.0351654   -5.9496358    587.44011  0.040324006  0.041106091            4 
 1215000    1.0678241   -5.8981405    590.43359  0.040496131  0.041095701            2 
 1216000    1.0663579   -5.9489908    588.77382  0.040349083  0.041085162            5 
 1217000    1.0846663   -5.9599437    588.46633  0.040294874  0.041074718            2 
 1218000    1.0505857   -5.9648328    588.55015  0.040267525  0.041063966            5 
 1219000    1.0625958   -5.9350359    591.51048  0.040436866  0.041053484            3 
 1220000    1.0751989   -5.9172609    592.05822  0.040441135  0.041043028            3 
 1221000     1.052018   -5.8927295     592.4715   0.04043622  0.041032612            4 
 1222000    1.0610358   -5.9206551    591.37484  0.040328344  0.041022087            5 
 1223000    1.0420444   -5.9341664    592.03436  0.040340308   0.04101164            3 
 1224000    1.0747295   -5.9515084    592.48476  0.040338015  0.041001066            5 
 1225000     1.059228    -5.903049    592.54801  0.040309389  0.040990768            8 
 1226000    1.0557331   -5.9072447    593.86935  0.040366323   0.04098033            2 
 1227000    1.0572051   -5.9515293    590.35385  0.040094665  0.040969801            6 
 1228000    1.0614878   -5.8869008    595.24273  0.040393779  0.040959327            4 
 1229000    1.0276516   -5.9229669    592.90716  0.040202547  0.040948849            2 
 1230000    1.0565683   -5.9485924    594.79095   0.04029749   0.04093846            3 
 1231000    1.0439036   -5.9831373    594.24392  0.040227723   0.04092814            3 
 1232000    1.0457223   -5.9163772    595.93313  0.040309329  0.040917632            3 
 1233000    1.0510746   -5.9648989    594.43471  0.040175366  0.040907224            8 
 1234000    1.0724431   -5.9401817    595.33359  0.040203511  0.040896611            2 
 1235000    1.0578833   -5.9394242    596.47648  0.040248076  0.040886191            1 
 1236000    1.0667215    -5.923151    597.14524  0.040260601  0.040876069            2 
 1237000    1.0554087   -5.9530935    595.94674  0.040147315  0.040865721            6 
 1238000    1.0305821   -5.8845955    599.38143  0.040346084  0.040855564            2 
 1239000     1.050628   -5.9142451     599.3921  0.040314238  0.040845483            3 
 1240000    1.0483537   -5.9457083    600.16718  0.040333816  0.040835485            3 
 1241000    1.0511349   -5.9765181    597.89019  0.040148415  0.040825409            3 
 1242000    1.0529185    -5.909714    599.83121  0.040246323   0.04081518            7 
 1243000      1.05179   -5.9451367    598.76811  0.040142673  0.040805137            3 
 1244000    1.0615402   -5.9428164    601.05227  0.040263416   0.04079473            4 
 1245000    1.0616234   -5.9325646    599.53828  0.040129737  0.040784376            6 
 1246000    1.0607624   -5.9433942    599.92414  0.040123337  0.040773978            4 
 1247000    1.0372283   -5.9699123    599.32723  0.040051271  0.040763606            4 
 1248000    1.0373204   -5.9503424    599.12443  0.040005637  0.040753094            3 
 1249000    1.0520628   -5.9392641    599.99174  0.040031475   0.04074276            6 
 1250000    1.0489788   -5.9222712    604.23509  0.040282339  0.040732791            2 
 1251000    1.0405742   -5.9638331    600.15811  0.039978558  0.040722894            2 
 1252000    1.0601207   -5.9479858    603.23818  0.040151636    0.0407127            3 
 1253000    1.0685402   -5.9445011    603.56041  0.040141022  0.040702536            3 
 1254000    1.0640178   -5.9312624     603.5755  0.040110014  0.040692411            4 
 1255000    1.0340336   -5.9641719    603.65378  0.040083252  0.040682511            4 
 1256000     1.037129    -5.956476    605.23129  0.040156004  0.040672394            2 
 1257000    1.0550524   -5.9416109    601.84483  0.039899551  0.040662056            2 
 1258000    1.0866647   -5.9355027    606.03174  0.040145186  0.040652062            4 
 1259000     1.050397   -5.9706638    604.37296  0.040003505  0.040641968            5 
 1260000    1.0451142   -5.9592054    605.59938  0.040052869   0.04063164            7 
 1261000    1.0776012   -5.9319046    603.22614   0.03986427  0.040621184            2 
 1262000    1.0611406   -5.9348489     606.7267  0.040063834  0.040610978            3 
 1263000    1.0604764   -5.9607907    608.49281  0.040148641  0.040601001            3 
 1264000       1.0616   -5.9491932    607.43032   0.04004683  0.040591092            2 
 1265000      1.05406   -5.9023165    611.73686  0.040298871  0.040581442            2 
 1266000    1.0545199   -5.9454764     610.1555  0.040162947   0.04057218            6 
 1267000    1.0545869   -5.9510083    610.42177  0.040148761   0.04056265            6 
 1268000     1.073347   -5.9699886    608.51651  0.039991884  0.040552784            3 
 1269000     1.037368   -5.9657163    610.22796  0.040072758  0.040543172            2 
 1270000    1.0597314   -5.9322316    612.65813  0.040200665   0.04053384            4 
 1271000    1.0539826   -5.9841025    611.21508  0.040074422  0.040524512            2 
 1272000     1.057147   -5.9834863    609.82338  0.039951741  0.040514982            3 
 1273000    1.0351241   -5.9289115    611.42031  0.040024896  0.040505351            3 
 1274000    1.0484311   -5.9290889    612.04785  0.040034527  0.040496027            5 
 1275000    1.0293174   -5.9432365    612.93058  0.040060822   0.04048672            2 
 1276000    1.0507206   -5.9270934     616.0311  0.040231916  0.040477665            3 
 1277000    1.0537146    -5.955343    612.36804  0.039961371  0.040468388            2 
 1278000    1.0416125   -6.0200619    611.94406  0.039902455  0.040458976            7 
 1279000    1.0619193   -5.9421779    613.24222  0.039955839  0.040449578           10 
 1280000    1.0311281   -5.9731328    615.09938  0.040045533  0.040440325            2 
 1281000    1.0445053   -5.9575968    614.47364  0.039973565  0.040430731            4 
 1282000    1.0298426   -5.9491742    616.03874   0.04004412  0.040421438            3 
 1283000    1.0273456   -5.9287584    618.65782  0.040183023  0.040412155            4 
 1284000    1.0469911   -5.9157443    619.48921  0.040205686  0.040403372            2 
 1285000    1.0318877   -5.9798104    616.29892  0.039967504  0.040394432            2 
 1286000    1.0466056   -5.9180713    618.74741  0.040095089  0.040385295            3 
 1287000    1.0696453   -5.9778353    618.06213  0.040019563  0.040376081            4 
 1288000    1.0457865   -5.9503293    619.07074  0.040053749  0.040367057            3 
 1289000    1.0491978   -5.9376545    620.05359  0.040086216  0.040357968            4 
 1290000      1.06856   -5.9473238    621.51662  0.040149653  0.040349377            4 
 1291000    1.0504941   -5.9699822    621.11656  0.040092729  0.040340735            3 
 1292000     1.057065   -5.9634494    620.64449  0.040031249  0.040331876            3 
 1293000    1.0580813    -5.970373    621.47632  0.040053901  0.040322887           10 
 1294000    1.0462983    -5.976075    619.59299  0.039901661  0.040314006            2 
 1295000    1.0589162   -5.9820331     619.2265  0.039847265  0.040304822            4 
 1296000    1.0198704   -5.9930216    620.45217   0.03989533  0.040295694            4 
 1297000    1.0403358   -5.9934525    620.41404   0.03986212  0.040286525            2 
 1298000    1.0351372   -5.9842515    621.47954  0.039899817  0.040277493            6 
 1299000    1.0199939   -5.9390633     623.9761   0.04002926  0.040268455            3 
 1300000    1.0366095   -6.0098335    622.03043  0.039873745  0.040259644            5 
 1301000    1.0714346   -5.9867555    621.17333  0.039788197  0.040250508            4 
 1302000     1.043469   -5.9475349    625.00256  0.040002724  0.040241391            2 
 1303000    1.0390755   -5.9885503    622.47196  0.039810179  0.040232319            5 
 1304000    1.0398564   -5.9824495    624.74129  0.039924673  0.040223203            5 
 1305000   0.99834821   -5.9690914    623.22117   0.03979701  0.040213919            2 
 1306000    1.0413261   -5.9434872    626.05606  0.039947426  0.040204813            2 
 1307000    1.0326724   -5.9814858    625.27105   0.03986681  0.040195548            5 
 1308000     1.029714   -5.9850332    623.90869  0.039749534  0.040186517            5 
 1309000    1.0361678   -5.9667432    627.85719  0.039970537  0.040177265            2 
 1310000    1.0429308   -5.9781625    626.12346  0.039829737  0.040168016            4 
 1311000    1.0556935   -5.9480684     624.4677  0.039694108  0.040158584            6 
 1312000    1.0338931   -5.9939027    624.27482  0.039651602  0.040149165            6 
 1313000    1.0417357    -5.960963    626.83009   0.03978358  0.040139758            4 
 1314000    1.0578387   -5.9888024    626.40945  0.039726626  0.040130402            2 
 1315000    1.0385108    -5.966477      627.932  0.039792902  0.040121123            2 
 1316000    1.0289483   -5.9269837    626.32053  0.039660621  0.040111648            4 
 1317000    1.0472723   -5.9599437    628.22601  0.039751076  0.040102358            2 
 1318000    1.0316439   -5.9506068    630.70776   0.03987783  0.040093072            4 
 1319000    1.0319581   -5.9634256    630.10301  0.039809389  0.040084077            3 
 1320000    1.0142095   -5.9677347    628.25319  0.039662449   0.04007497            3 
 1321000    1.0254569   -5.9697435    627.80781  0.039604328  0.040065847            3 
 1322000    1.0555869    -5.952001    631.23883  0.039790647  0.040056877            4 
 1323000    1.0176324   -5.9732707    631.27824  0.039763054  0.040047882            3 
 1324000    1.0383978   -5.9187056    632.21161  0.039791768  0.040039143            5 
 1325000    1.0502154   -5.9930472    631.71417  0.039730451  0.040030472            7 
 1326000    1.0555316   -5.9917618    631.35297  0.039677788  0.040021636            3 
 1327000    1.0291672   -5.9734091    631.42271  0.039652268   0.04001272            7 
 1328000    1.0474402   -5.9299945    635.20945  0.039860031  0.040004037            3 
 1329000    1.0486604   -5.9539719    634.25409  0.039770133  0.039995439            6 
 1330000    1.0449344   -5.9839855    635.65822  0.039828209  0.039986846            5 
 1331000    1.0282101   -5.9999702    634.86532  0.039748643   0.03997812            5 
 1332000    1.0446757   -5.9659365    633.70027  0.039645912  0.039969094            7 
 1333000    1.0352954   -5.9600429    635.88874  0.039752985  0.039960112            1 
 1334000    1.0338397   -5.9752875    635.83658  0.039719927  0.039951527            5 
 1335000    1.0707256   -5.9899285    635.92059  0.039695418  0.039942658            3 
 1336000    1.0174195   -6.0028331    637.70158  0.039776795    0.0399339            4 
 1337000    1.0117712   -5.9631629    637.56736  0.039738678  0.039925119            3 
 1338000    1.0485969   -5.9392968    638.01317  0.039736745  0.039916388            6 
 1339000    1.0362548   -5.9830343    637.18345   0.03965543  0.039907505            2 
 1340000    1.0488373   -5.9585783     638.0391  0.039679049  0.039898688            5 
 1341000    1.0327701   -5.9713377    635.84707  0.039513241  0.039889869            8 
 1342000    1.0167094   -5.9641046    638.31422  0.039636998  0.039881101            3 
 1343000    1.0499816   -5.9592073    638.44954  0.039615881  0.039872545            3 
 1344000    1.0454239   -5.9337238    640.04599  0.039685391  0.039863925            3 
 1345000    1.0544145   -6.0173108    636.90158  0.039461064  0.039854963            3 
 1346000    1.0503312   -5.9686085    638.34292  0.039520983  0.039845962            4 
 1347000    1.0416202   -6.0248794    639.02473  0.039533824  0.039836832            4 
 1348000    1.0328904   -5.9854567    638.98718  0.039502175  0.039827607            4 
 1349000    1.0195627   -5.9767448    639.91589  0.039530262  0.039818608            5 
 1350000    1.0187846   -6.0007555    637.48665  0.039351028  0.039809496            6 
 1351000    1.0328285   -5.9990658    640.45872  0.039505225  0.039800446            4 
 1352000      1.04735   -6.0017576     640.4784  0.039477219  0.039791318            7 
 1353000    1.0408782   -6.0038771    639.99745  0.039418419  0.039782225            5 
 1354000    1.0293461    -5.956542    641.85474  0.039503615  0.039773202            2 
 1355000    1.0330417   -5.9525876    642.32871  0.039503611  0.039764437            6 
 1356000    1.0399632    -5.960017    644.32997  0.039597466  0.039755576            3 
 1357000    1.0089137   -5.9596332    642.99061  0.039486036  0.039746954            4 
 1358000       1.0147   -5.9648586    643.31665  0.039476966  0.039737976            4 
 1359000    1.0393906   -6.0062345    641.77853  0.039353601  0.039728771            6 
 1360000    1.0259072   -5.9900616    642.39863  0.039362661  0.039719758            5 
 1361000    1.0659242   -5.9622285    645.78356  0.039540997  0.039710837            2 
 1362000    1.0571088   -5.9804329    643.63658  0.039380603   0.03970186            9 
 1363000    1.0020115   -5.9905169    644.92506  0.039430488  0.039693114            4 
 1364000    1.0328473    -5.988244    643.09355  0.039289684   0.03968419            2 
 1365000    1.0336614   -6.0080525    645.11332  0.039384207  0.039675026            4 
 1366000    1.0471035    -5.995726     644.5141   0.03931882  0.039666048            4 
 1367000    1.0399898   -5.9523412    646.90349  0.039435716  0.039657211            3 
 1368000    1.0263397   -5.9974523    646.80132  0.039400665  0.039648334            3 
 1369000     1.019516   -5.9626857    644.98868  0.039261546  0.039639177            1 
 1370000    1.0223935   -6.0039874    645.57262  0.039268408  0.039630039            2 
 1371000    1.0473049   -5.9623499    647.58846  0.039362294  0.039620932            5 
 1372000    1.0349554   -5.9695657    646.36526  0.039259309  0.039611983            3 
 1373000    1.0378119   -5.9819375    649.03491  0.039392747  0.039603085            8 
 1374000     1.034854   -6.0048581    647.43155  0.039266834  0.039594018            2 
 1375000     1.011982   -6.0080829    646.77398  0.039198423  0.039585225            3 
 1376000    1.0433373   -6.0201312    647.88632  0.039237302  0.039576204            9 
 1377000    1.0355005   -5.9742471    651.15749  0.039406771  0.039567148            3 
 1378000    1.0481772   -5.9597671    650.50675  0.039338821  0.039558383           11 
 1379000    1.0433219   -5.9559992    649.09953  0.039225256  0.039549576            3 
 1380000    1.0351943   -5.9969027    649.57696  0.039225662  0.039540496            3 
 1381000    1.0414363   -5.9730356    651.31774  0.039302301  0.039531535            2 
 1382000    1.0088369   -5.9760155    651.77975  0.039301721  0.039522811            4 
 1383000    1.0291017   -5.9999928     650.6531  0.039205417  0.039513746            3 
 1384000    1.0279282   -5.9760567    651.73249  0.039242082  0.039504564            3 
 1385000    1.0221893   -5.9587506    651.03101  0.039171541  0.039495482            3 
 1386000    1.0303067   -5.9742838    652.44845  0.039228502  0.039486334            4 
 1387000    1.0333009   -5.9929067    650.36208  0.039074867  0.039477216            4 
 1388000    1.0371061   -5.9607689    654.72525  0.039308673   0.03946807            4 
 1389000    1.0493741   -5.9465539    655.56899  0.039330993  0.039459004            4 
 1390000    1.0305214   -5.9903256    652.19357  0.039100334   0.03945015            2 
 1391000    1.0394637   -6.0170817     653.8847  0.039173538  0.039441031            4 
 1392000     1.013179   -5.9780657    652.31939  0.039051688   0.03943204            3 
 1393000    1.0388134   -5.9782024    654.05671  0.039127585  0.039422716            3 
 1394000    1.0396675   -5.9993612    652.55547  0.039009772  0.039413537            2 
 1395000    1.0359197   -5.9585031    655.03975  0.039130212  0.039404408            4 
 1396000    1.0273921   -6.0013056    651.71302  0.038903595  0.039395163            5 
 1397000    1.0350597   -5.9877057    654.34728  0.039032885  0.039385892            4 
 1398000    1.0423685   -5.9567565    655.07879  0.039048569  0.039376591            2 
 1399000    1.0228342   -6.0132717    654.37915  0.038978982  0.039367237            3 
 1400000    1.0394343   -5.9816911    656.33959  0.039067833  0.039358011            4 
 1401000    1.0178017   -5.9954473    654.22879  0.038914394  0.039348415            6 
 1402000    1.0393151   -5.9913825    653.92418  0.038868532  0.039338844            3 
 1403000    1.0215399   -6.0033557    653.40507  0.038809995  0.039329192            3 
 1404000     1.041227   -5.9872023    655.22654  0.038890464  0.039319463            3 
 1405000    1.0387767   -6.0005931    655.16558  0.038859168  0.039310099            7 
 1406000    1.0390631   -6.0371672    652.73048  0.038687202  0.039300347            6 
 1407000    1.0144288   -5.9964474    655.51459  0.038824603  0.039290273            3 
 1408000    1.0035495   -5.9616676    657.53069  0.038916352   0.03928056            7 
 1409000    1.0363516     -6.02793    655.87424  0.038790764  0.039270971            6 
 1410000    1.0231879    -6.010205    657.82039  0.038878273  0.039261259            2 
 1411000    1.0546266   -6.0006892    656.87009  0.038794595  0.039251452            4 
 1412000    1.0280199   -5.9683859    658.79467  0.038880705  0.039241568            2 
 1413000    1.0463833   -5.9822592    656.19988  0.038700158  0.039231846            8 
 1414000    1.0255366   -6.0560565    653.73396  0.038527461  0.039221804            6 
 1415000    1.0377562   -5.9970884     657.8641  0.038743469  0.039211656            4 
 1416000    1.0125744   -6.0267741    656.84806  0.038656313  0.039201495            4 
 1417000    1.0170167   -5.9867599    656.97266   0.03863636  0.039191233            4 
 1418000    1.0133753   -6.0135843    657.63713  0.038648162   0.03918111            3 
 1419000     1.031977   -6.0201404    655.09833  0.038471831  0.039170749            2 
 1420000    1.0388774   -5.9607129    661.19729  0.038802658   0.03916065            4 
 1421000    1.0356652   -6.0018939    656.72912  0.038513319  0.039150558            2 
 1422000   0.99378684   -5.9674389    660.95351  0.038733797  0.039140417            2 
 1423000    1.0130775   -5.9846645    661.09633  0.038714941  0.039130402            7 
 1424000     1.022833   -5.9653243    658.64349  0.038544212  0.039120261            4 
 1425000    1.0141846   -6.0119282    658.45171  0.038505948  0.039110126            3 
 1426000    1.0389523   -6.0101601    658.51121  0.038482422  0.039099902            6 
 1427000    1.0423154   -5.9904648    660.00239  0.038542536  0.039089822            2 
 1428000    1.0177148   -6.0231034     659.7876  0.038503011  0.039079837            2 
 1429000    1.0146722   -6.0013507     662.2073  0.038617174  0.039070002            4 
 1430000    1.0080149    -6.020476    663.64029  0.038673676  0.039060366            5 
 1431000    1.0209743   -5.9891412    663.51367  0.038639277  0.039050766            3 
 1432000    1.0306398   -5.9863993    665.68637  0.038738732  0.039041105            4 
 1433000     1.024655    -5.994052    664.51753  0.038643727  0.039031485            2 
 1434000    1.0515037   -5.9837501    666.25274  0.038717616  0.039022114            5 
 1435000    1.0292101   -6.0294811    661.66752  0.038424362  0.039012304            3 
 1436000    1.0182336   -6.0073339    665.05449  0.038594155  0.039002551           10 
 1437000    1.0276904    -6.024974    663.43094  0.038473147  0.038993006            4 
 1438000    1.0392958   -6.0083519    664.70053  0.038519966  0.038983429            8 
 1439000    1.0256431   -6.0090269    666.74234   0.03861144  0.038973366            3 
 1440000    1.0435351   -6.0047898    666.98097  0.038598436  0.038963731            6 
 1441000    1.0235338   -5.9805801    666.21199   0.03852718  0.038954083            5 
 1442000    1.0255412   -5.9832516    664.06908  0.038376623  0.038944323            5 
 1443000    1.0171668      -6.0028    665.95918  0.038459181  0.038934662            3 
 1444000    1.0336139   -5.9915741    668.01832   0.03855138  0.038924847            5 
 1445000   0.98938022   -6.0257194    662.49051  0.038205911  0.038914747            2 
 1446000    1.0112046   -6.0079031    665.45189  0.038350155  0.038904693            5 
 1447000    1.0447113   -6.0264374    668.47073  0.038497508   0.03889456            3 
 1448000    1.0166456   -6.0041178    667.97542  0.038442416  0.038884836            3 
 1449000    0.9882377   -6.0142558     666.5184  0.038332091  0.038874749            5 
 1450000    1.0091554   -6.0260147    667.08221  0.038338058  0.038864747            4 
 1451000     1.005556   -6.0544534    664.56447  0.038167038    0.0388548            5 
 1452000    1.0047604   -6.0172794    669.12379  0.038402422  0.038844847            3 
 1453000    1.0485048   -6.0287675    668.73038  0.038353429  0.038834922            6 
 1454000    1.0441217   -6.0189761    668.29532  0.038302116  0.038824812            4 
 1455000    1.0153358   -6.0113893    670.55885  0.038405432  0.038814988            5 
 1456000    1.0269343   -6.0233674    670.19707  0.038358348  0.038805087            4 
 1457000    1.0086983   -6.0298618    668.47728  0.038233658  0.038795314           10 
 1458000    1.0086594   -6.0358815    667.49167  0.038151102  0.038785405            4 
 1459000       1.0139   -6.0345316    668.72163  0.038195204  0.038775462            2 
 1460000    1.0272577   -6.0437457    669.66302  0.038222775  0.038765711            3 
 1461000    1.0086253   -5.9932523    672.84285  0.038377986  0.038755738            2 
 1462000     1.001863   -5.9689295    671.17928  0.038256913  0.038745682            4 
 1463000    1.0180829   -6.0759005    666.92037  0.037988173  0.038735323            5 
 1464000    1.0261629   -6.0319548    668.36291  0.038044337  0.038724949            2 
 1465000    1.0391354   -6.0260161    669.77753  0.038098836  0.038714546            4 
 1466000    1.0191047    -6.031218    671.90006  0.038193501  0.038704296            5 
 1467000    1.0259273   -5.9974271    671.76536  0.038159814  0.038693978            6 
 1468000    1.0136631   -6.0281602    671.39646  0.038112878  0.038683531            3 
 1469000   0.98621554   -6.0202135    670.40727  0.038030818  0.038673222            8 
 1470000      1.00449   -6.0145511    671.29111  0.038055052  0.038662995            2 
 1471000    1.0254566   -6.0086986    671.52483  0.038042422  0.038652778            4 
 1472000    1.0195136   -6.0076981    672.60941  0.038077978  0.038642629            4 
 1473000    1.0054565   -6.0279672    672.70249  0.038057393   0.03863246            2 
 1474000     1.035443   -6.0248063    671.59014  0.037968687  0.038622123            3 
 1475000    1.0312359   -6.0156426    673.91642  0.038074374  0.038611995            6 
 1476000    1.0224487   -6.0016171    674.32648   0.03807173  0.038601897            3 
 1477000    1.0030685    -5.996891      677.481  0.038223934  0.038591885            3 
 1478000    1.0371934   -5.9912117     676.2499  0.038128659   0.03858184            9 
 1479000    1.0135523   -6.0238678    676.55207  0.038119905  0.038571695            5 
 1480000    1.0086465   -6.0485144    675.21656   0.03801895    0.0385616            4 
 1481000     1.030905   -6.0298904    673.68653  0.037907187  0.038551475            7 
 1482000    1.0239853   -6.0218244    677.46169  0.038093887  0.038541365            4 
 1483000   0.99624498   -6.0195396    677.94306  0.038095249  0.038531571            5 
 1484000    1.0162345   -6.0543626    678.23706  0.038086088  0.038521775            3 
 1485000     1.009281   -6.0348329    679.12279  0.038110145    0.0385122            2 
 1486000   0.99908259    -6.001812    679.69212  0.038116427   0.03850269            6 
 1487000    1.0198117   -6.0371911    679.48613   0.03807925  0.038492978            3 
 1488000    1.0243097   -6.0517475    678.49037  0.037997893  0.038483039            3 
 1489000    1.0102873   -6.0373171    680.32741  0.038075185  0.038473065            5 
 1490000    1.0350669   -6.0461883     679.3546  0.037995224    0.0384632            3 
 1491000    1.0384183   -6.0536401    679.55727  0.037981068  0.038453026            3 
 1492000   0.99981605   -6.0287601    678.39884  0.037890909  0.038442868            3 
 1493000    1.0166081   -5.9931698    680.43587  0.037979229  0.038432824            4 
 1494000    1.0236539   -6.0128386    681.24061  0.037998695  0.038423021            4 
 1495000   0.99141113   -6.0307803    678.85281  0.037840179   0.03841308            2 
 1496000    1.0331144   -6.0635135    679.57028  0.037854851  0.038403018            9 
 1497000   0.98930459   -6.0238144    680.14926  0.037861794  0.038393097            6 
 1498000    1.0068997   -6.0098525    680.81233  0.037873405  0.038383241            3 
 1499000    1.0183193   -6.0563578     681.5168  0.037887303  0.038373288            4 
 1500000   0.99149525   -5.9959867    683.78657  0.037988143  0.038363419            3 
 1501000    1.0147224   -6.0478938    682.05609   0.03786676  0.038353481            7 
 1502000   0.99699633   -6.0127164    682.21669   0.03785046  0.038343472            5 
 1503000    1.0100307   -6.0358223    683.00725  0.037869109  0.038333591            4 
 1504000    1.0176162   -6.0694869    684.55117  0.037929475  0.038323412            4 
 1505000    1.0198471   -6.0779382    682.35082  0.037782438  0.038313068            3 
 1506000    1.0079426   -6.0166973    684.16391  0.037857676  0.038302889            3 
 1507000    1.0237159   -6.0208275    683.28015  0.037783684  0.038292795            2 
 1508000    1.0080198   -6.0617459    684.19722  0.037809307  0.038283034            7 
 1509000    1.0245439   -6.0547803     682.3806   0.03768393  0.038273132            3 
 1510000     1.004715   -6.0761838    682.54681  0.037668146  0.038263103            6 
 1511000    1.0122247   -6.0503297    683.39802  0.037690162  0.038253072            5 
 1512000    1.0205486    -6.030131    687.18966  0.037874209  0.038243261            3 
 1513000    1.0231537   -6.0579934    684.77638  0.037716258  0.038233408            5 
 1514000   0.99847038   -6.0154771    686.13429  0.037766088  0.038223537            3 
 1515000    1.0243042    -5.993551     688.2454  0.037857283  0.038213677            2 
 1516000    1.0122734   -6.0478997    686.65056  0.037744644  0.038203973            3 
 1517000    1.0408859   -6.0601762    685.80159  0.037673126  0.038194112            3 
 1518000   0.98889733   -6.0488675    686.40865  0.037681634  0.038183973            3 
 1519000    1.0225675   -6.0630495    685.99653  0.037634218  0.038173833            5 
 1520000    1.0347716   -6.0421193    688.42555  0.037742629  0.038164062            2 
 1521000    1.0115317   -6.0400179    688.64067    0.0377296   0.03815436            3 
 1522000    0.9853455   -6.0518007    688.79997  0.037713533  0.038144644            2 
 1523000     1.037443   -6.0569051    687.57907  0.037621967  0.038134779            6 
 1524000    1.0194146    -6.028071     690.3553  0.037749087   0.03812505            7 
 1525000    1.0046417   -6.0295299    688.89425  0.037644495  0.038115315            2 
 1526000    1.0068254   -6.0763383    689.81837  0.037670291  0.038105557            4 
 1527000    1.0079547   -6.0416934    692.98777  0.037818586  0.038095661            4 
 1528000    1.0295189   -6.0627137    692.99726  0.037794353   0.03808589            3 
 1529000    1.0041409   -6.0406796    689.49405  0.037578704   0.03807618            4 
 1530000     1.014873   -6.0154004    692.48325  0.037716953  0.038066589            6 
 1531000     1.001476   -6.0313462    692.94678  0.037717547  0.038057036            3 
 1532000    1.0008011    -6.043349    694.22637  0.037762531  0.038047776            4 
 1533000   0.98600647   -6.0594083    692.88345  0.037664897   0.03803834            2 
 1534000    1.0146675   -6.0146545     696.4952   0.03783655  0.038028986            2 
 1535000    1.0136912   -6.0708854    692.89163  0.037616267   0.03801944            3 
 1536000    0.9903085    -6.067149    692.80949   0.03758732  0.038009998            4 
 1537000    1.0331379   -6.0676218    694.48574  0.037653749  0.038000519            3 
 1538000    1.0162701   -6.0370157    696.00104  0.037711369  0.037990941            2 
 1539000     0.988943   -6.0165003    695.98744   0.03768613  0.037981484            5 
 1540000    1.0001516   -6.1013346    692.70988  0.037484301  0.037972006            3 
 1541000    1.0290819   -6.0552172    693.97583  0.037528436  0.037962287            4 
 1542000   0.98439355   -6.0282521    695.85385  0.037605591  0.037952592            2 
 1543000    1.0023223   -6.0570709    694.95279  0.037532555  0.037943075            3 
 1544000    0.9980656   -6.0595674    695.97201  0.037563256  0.037933255            5 
 1545000   0.99782307   -6.0975019    696.64131  0.037575044  0.037923489            2 
 1546000    1.0234531   -6.0225758    695.98893  0.037515574  0.037913699            3 
 1547000    1.0080959     -6.05667    695.13839  0.037445507  0.037903894            3 
 1548000   0.99972082   -6.0810454    695.34614  0.037432501   0.03789405            4 
 1549000    1.0145848   -6.0441522    696.72502  0.037482517  0.037884288            6 
 1550000     1.024246   -6.0603076     698.0538  0.037529774  0.037874627            4 
 1551000    1.0064419     -6.10381    693.02174   0.03723521  0.037864604            4 
 1552000    1.0161936   -6.0640894    696.57434  0.037401973  0.037854782            4 
 1553000    1.0056408     -6.06173    694.95708  0.037291107  0.037844767            5 
 1554000   0.99555794   -6.0242899    699.42077  0.037506477  0.037834928            4 
 1555000   0.99821083   -6.0377246    698.73239  0.037445466  0.037825187            3 
 1556000   0.98962563   -6.0842866    696.81287  0.037318599  0.037815424            3 
 1557000    1.0015379   -6.0459425    700.26657  0.037479478  0.037805467            2 
 1558000    1.0032206   -6.0406914    696.68917  0.037264076  0.037795758            4 
 1559000   0.99908911   -6.0400692    697.91546  0.037305723  0.037786066            3 
 1560000   0.99047465   -5.9981248    701.94346   0.03749698  0.037776306            4 
 1561000   0.99721324   -6.0843853    699.09262  0.037320768  0.037766765            5 
 1562000    1.0106997   -6.0582593    701.57997  0.037429576  0.037757138            5 
 1563000    1.0224704   -6.0394126    701.26512  0.037388842  0.037747521            2 
 1564000   0.98973437   -6.0376843    703.36188  0.037476656  0.037738009            3 
 1565000   0.98198837   -6.0742634    702.42242  0.037402685  0.037728364           11 
 1566000   0.98570002   -6.0746211    702.53217  0.037384641  0.037718859            4 
 1567000    1.0128251   -6.0504727    703.93798  0.037435544  0.037709213            4 
 1568000   0.98196308   -6.0507953    703.64766   0.03739624   0.03769991            3 
 1569000     0.995172   -6.0788736    703.41001  0.037359784  0.037690536            4 
 1570000   0.99608823   -6.0622914    700.46152  0.037179486  0.037681109            4 
 1571000   0.99484689   -6.0487972    706.29214  0.037465104  0.037671744            3 
 1572000   0.99783124   -6.0492317    705.37444  0.037392623  0.037662273            3 
 1573000   0.99044488   -6.0948244    704.01518  0.037296841  0.037652763            5 
 1574000    1.0043826   -6.0999387     703.1649  0.037228129  0.037643139            4 
 1575000    1.0167594    -6.043173    705.44465  0.037325114  0.037633605            2 
 1576000   0.98826589   -6.0252362    708.38931  0.037457133  0.037624289            7 
 1577000    1.0157908   -6.0533559    705.97308  0.037305701  0.037614957            4 
 1578000    1.0026023   -6.0759966    704.17408  0.037187055  0.037605448            4 
 1579000    1.0102984   -6.0726224    702.87631  0.037095013  0.037595909            5 
 1580000    1.0132361   -6.0212872    707.64875  0.037323246  0.037586345            7 
 1581000    1.0193734    -6.051582    704.97984  0.037158962  0.037576791            2 
 1582000    1.0024549   -6.0390782    707.05245  0.037244651  0.037567143            9 
 1583000   0.99361508   -6.0792901    704.69575   0.03709706  0.037557431            9 
 1584000    1.0050833   -6.0177392    708.45649   0.03727149  0.037547907            4 
 1585000   0.99254679   -6.0545309    708.24794  0.037237011   0.03753832            6 
 1586000   0.98147043   -6.0301471    707.53451  0.037176046  0.037528617            5 
 1587000    1.0193857   -6.0401291    709.17387  0.037238703  0.037518915            2 
 1588000   0.97839492   -6.0609247      708.209   0.03716462  0.037509289            8 
 1589000   0.99016613   -6.0275014    708.94491  0.037179825  0.037499397            5 
 1590000    1.0070461   -6.0684137    709.44312  0.037182553  0.037489502            3 
 1591000    1.0125143   -6.1201411    705.53475  0.036954471  0.037479585            5 
 1592000    1.0081078   -6.0817758      706.849  0.037000052  0.037469558           14 
 1593000    1.0033402   -6.0596669    707.48937  0.037010325  0.037459683            3 
 1594000   0.99873545   -6.0732131    708.41975  0.037035746  0.037449879            5 
 1595000    1.0210893   -6.0402583    710.35979  0.037113887  0.037440197            2 
 1596000   0.98518328   -6.0983186    708.42141  0.036989422  0.037430513            4 
 1597000   0.98452151   -6.0957518    708.52016  0.036971413  0.037420549            7 
 1598000   0.98685713   -6.0819061    709.12274  0.036979701  0.037410666            3 
 1599000   0.98353928   -6.0761472    708.15627  0.036906205  0.037400766            4 
 1600000   0.99318533   -6.1058681    709.51831  0.036954079  0.037390881            3 
 1601000   0.96942635   -6.0622902    707.90772  0.036847164    0.0373809            5 
 1602000    1.0009395   -6.0929287    708.36512  0.036847957  0.037371042            2 
 1603000    1.0088992   -6.0791702    709.65608  0.036892082   0.03736106            4 
 1604000   0.98276278   -6.0369711    712.95949  0.037040705  0.037351231            7 
 1605000   0.99645096   -6.0837029    711.07895  0.036919987  0.037341268            2 
 1606000   0.99785583   -6.0367154    714.09594  0.037053546  0.037331299            8 
 1607000   0.99945034   -6.0553998    711.51335  0.036896564    0.0373216            7 
 1608000    1.0051996   -6.0831957    712.83869  0.036942304  0.037311845            4 
 1609000    1.0024465    -6.049841    714.90629  0.037026429  0.037302219            4 
 1610000   0.98897876   -6.0917102    710.74867  0.036788233  0.037292416            4 
 1611000   0.98131317   -6.0832171    712.67729  0.036865161  0.037282692            3 
 1612000    0.9936966   -6.0622674    713.59156  0.036889556   0.03727296            5 
 1613000    1.0104882    -6.090654    712.55599  0.036813184  0.037263452            5 
 1614000   0.98776815   -6.0787327    712.34117  0.036779284   0.03725387            6 
 1615000   0.99922195   -6.1249756    715.26262  0.036907256  0.037244176            3 
 1616000   0.99877871   -6.0951789    715.66972  0.036905411  0.037234354            5 
 1617000   0.99578747   -6.0944735    715.90296  0.036894607  0.037224732            3 
 1618000   0.99140315   -6.0720204    716.01725  0.036877691  0.037214998            3 
 1619000   0.98456554   -6.0784989    717.21565  0.036916597  0.037205266            5 
 1620000   0.99873485   -6.0921255    714.60132  0.036759327  0.037195508            4 
 1621000   0.98001031   -6.0804849    714.59771  0.036736465  0.037185757            6 
 1622000   0.98976486   -6.0853662    716.30437  0.036801499  0.037175756            4 
 1623000   0.99570253    -6.081548     717.7809  0.036854636  0.037165883            6 
 1624000   0.96929048   -6.0657767    715.17025  0.036697981  0.037156149            9 
 1625000   0.99600455   -6.1226505     715.3884  0.036686585  0.037146243            5 
 1626000    0.9812935   -6.1242563     715.2235  0.036655571  0.037136316            3 
 1627000   0.98884583   -6.0754099    716.41326   0.03669398  0.037126393            4 
 1628000   0.98468555   -6.0934074    716.52253  0.036677034  0.037116545           15 
 1629000   0.97589336   -6.0434376    720.82226  0.036874476  0.037106806            4 
 1630000     1.000117   -6.0758998    718.84544  0.036750789  0.037097099            5 
 1631000   0.99009003   -6.1108931    717.66513   0.03666795  0.037087546            3 
 1632000   0.97404306   -6.1123139    718.19221  0.036672397  0.037077944            3 
 1633000    1.0022139   -6.0644592    719.37419  0.036710257  0.037068389            4 
 1634000   0.98542479   -6.0859233    718.46549  0.036641447  0.037058797            3 
 1635000   0.97171824   -6.0864418    720.15957  0.036705381  0.037049246            3 
 1636000   0.98934213    -6.074081    723.26702   0.03684123  0.037039833            3 
 1637000    1.0136182   -6.0758206    722.79736  0.036794816  0.037030319            4 
 1638000    1.0075768   -6.0939239    720.37958  0.036649348  0.037020811            5 
 1639000   0.98073776   -6.1141314     720.7159  0.036644087  0.037011254            2 
 1640000    0.9998971   -6.0826394    723.04533  0.036740108  0.037001766            5 
 1641000   0.98323722     -6.12109    720.74598  0.036600953  0.036991883            2 
 1642000   0.99407119   -6.1429567     720.7026  0.036576462  0.036982203            6 
 1643000    1.0104518   -6.1029335    720.37022  0.036537341  0.036972481            5 
 1644000     1.010734   -6.0809632    722.70485  0.036633458  0.036962952            5 
 1645000    1.0052926    -6.091054    723.86928  0.036670176  0.036953417            2 
 1646000   0.99034418   -6.0568476    723.62527  0.036635544  0.036943951            6 
 1647000     0.972636   -6.0802455    724.25939  0.036645385   0.03693453            5 
 1648000    1.0105351   -6.1047812    724.15921  0.036618083  0.036925125            4 
 1649000    1.0020776   -6.1238343     722.8582  0.036530129  0.036915615            3 
 1650000   0.98065871   -6.1123943     722.1155   0.03647048  0.036905952            7 
 1651000   0.99488604    -6.096081    723.84607  0.036535739  0.036896544            7 
 1652000   0.97667065   -6.1141735    722.91242  0.036466526  0.036886882            6 
 1653000    0.9913207   -6.1106282    724.68053  0.036533602  0.036877253            5 
 1654000   0.99270957   -6.0770256    727.62341  0.036659785  0.036867767            4 
 1655000   0.97723175   -6.1010187    725.27504  0.036519388  0.036858071            9 
 1656000    1.0130718    -6.077201    726.43134  0.036555522  0.036848418            2 
 1657000    0.9897273   -6.0976811    726.36809   0.03653028  0.036839009            3 
 1658000   0.98991206   -6.0957181    727.74424  0.036577415  0.036829635            8 
 1659000   0.99829604    -6.124561    724.46765   0.03639078  0.036820026            7 
 1660000   0.97766039   -6.0850673     730.5371  0.036673549  0.036810426            5 
 1661000   0.99393193   -6.0933021    726.27881  0.036437829  0.036801071            6 
 1662000    1.0075538   -6.0956019    727.02531  0.036453335  0.036791474            4 
 1663000   0.95948978   -6.0791871    730.23976  0.036592492  0.036782144            6 
 1664000   0.98083978    -6.105067    730.00054  0.036558521  0.036772756            3 
 1665000   0.96824555   -6.0858982    729.93614   0.03653334  0.036763205            5 
 1666000   0.98222122   -6.0896241    729.87774  0.036508491  0.036753809            5 
 1667000   0.98836009   -6.1328793    725.32128  0.036258812  0.036744492            4 
 1668000   0.97690089   -6.0848911    728.62923   0.03640234  0.036735119            3 
 1669000    1.0085176    -6.092308    729.79392  0.036438682  0.036725806            4 
 1670000   0.97852999   -6.1133553    730.05606  0.036429943  0.036716296            7 
 1671000   0.97515605    -6.083733    731.24886  0.036467627  0.036706947            2 
 1672000   0.98274047   -6.1139587    728.95688  0.036331583  0.036697586            3 
 1673000   0.98457127   -6.1231155     730.5991  0.036391667  0.036688301            4 
 1674000   0.99393267   -6.1103738    732.32124  0.036455657  0.036679092            4 
 1675000   0.94917381    -6.118926    732.36354  0.036435997  0.036669854            3 
 1676000    0.9733559    -6.062384    736.42755  0.036616326  0.036660644            4 
 1677000    0.9546191   -6.1000979    732.30482  0.036389625  0.036651529            7 
 1678000   0.98784096   -6.1054645    732.20979  0.036363219  0.036642128            5 
 1679000   0.96746555   -6.1044956     733.7436  0.036417689  0.036632579            1 
 1680000   0.98286902   -6.0777575    733.58349   0.03638807  0.036622985            4 
 1681000   0.98314703   -6.0987281    732.27139  0.036301378   0.03661353            6 
 1682000   0.97845116   -6.0702152    733.31564  0.036331532  0.036604122            5 
 1683000   0.96033988   -6.0949158    731.92146  0.036240912  0.036594667            3 
 1684000   0.99644602   -6.0997065    733.54547  0.036299756  0.036585006            8 
 1685000   0.97806794   -6.0803896    735.44726  0.036372268  0.036575431            3 
 1686000   0.97704784   -6.1289275    732.10978  0.036185735  0.036566041            2 
 1687000    1.0034156   -6.1393531    732.80868  0.036198809  0.036556539            6 
 1688000   0.98367872   -6.1358641    734.55407   0.03626353  0.036547076            4 
 1689000   0.95909595   -6.1173213    734.78363  0.036253386  0.036537606            2 
 1690000   0.96192476   -6.1012587    734.23641  0.036204951   0.03652805            4 
 1691000   0.98628644   -6.1179635    734.23712  0.036183576  0.036518546            4 
 1692000   0.97793412   -6.0699915    737.69052  0.036332275  0.036509271            4 
 1693000    0.9682057   -6.0666825    737.84402  0.036318371  0.036500029            3 
 1694000    0.9883781   -6.1375678    735.63175  0.036188103  0.036490939            4 
 1695000   0.98043552   -6.0818976    738.39395  0.036302554  0.036481664            5 
 1696000    0.9687124   -6.1147591    738.39291  0.036281098  0.036472379            4 
 1697000   0.98772778   -6.1229289    738.65788  0.036272731  0.036463059            2 
 1698000   0.96912618   -6.0696274    740.42092  0.036337894  0.036454051           11 
 1699000   0.98373204   -6.1216602    736.41076  0.036119814  0.036444914            3 
 1700000    0.9768844   -6.1671469    736.36376  0.036096263  0.036435673            5 
 1701000   0.98540354   -6.1214811     737.8514  0.036147923  0.036426365            3 
 1702000   0.97991003   -6.1264441    738.85007  0.036175581  0.036417226            3 
 1703000   0.95705976   -6.0890211    740.24888  0.036222787  0.036408167            6 
 1704000   0.98699871   -6.1245272    739.14841  0.036147712  0.036399026            2 
 1705000   0.97095997   -6.1131462    740.90274  0.036212255  0.036389752            3 
 1706000   0.97375795   -6.1206402     737.8642  0.036042605  0.036380672            9 
 1707000   0.98985979   -6.1083306    742.00323  0.036223551  0.036371523            4 
 1708000   0.97851975   -6.1325607    741.30416  0.036168236  0.036362304            7 
 1709000   0.95964111   -6.0807574    741.47219  0.036155266  0.036353206           16 
 1710000   0.98439657   -6.1507935    742.18121  0.036168675  0.036343965            6 
 1711000   0.98246826   -6.0885012    742.47202    0.0361617  0.036334848            2 
 1712000   0.99904006   -6.1563264     740.9631  0.036067129   0.03632547           12 
 1713000   0.97477666   -6.1278823    743.38681  0.036163982  0.036316407            3 
 1714000   0.96452604   -6.1070399    742.96931  0.036122584  0.036307308            5 
 1715000   0.95801965    -6.140165    741.04116  0.036007831  0.036298126            2 
 1716000   0.97619484   -6.1468739    744.62197   0.03616074  0.036289017            5 
 1717000   0.98945852   -6.1627643    743.60301  0.036090226  0.036279928            6 
 1718000   0.97824536   -6.1222093    744.93715  0.036133932  0.036270934            4 
 1719000   0.97150707   -6.0975879    744.68143  0.036100515  0.036261909            4 
 1720000   0.96602909   -6.1064952    743.31524  0.036013335  0.036252642           10 
 1721000   0.97701124   -6.1225504    745.27838  0.036087467  0.036243609            5 
 1722000   0.99067614   -6.1208871    747.04327   0.03615192   0.03623461            6 
 1723000   0.94532043   -6.1162879    746.05359  0.036083072  0.036225442            4 
 1724000   0.98450523   -6.1274777     747.0328  0.036109474  0.036216482            4 
 1725000    0.9680961    -6.138969    744.62783  0.035972359  0.036207436            3 
 1726000   0.98006911   -6.1257364    745.19287  0.035978798  0.036198354            9 
 1727000   0.97536358   -6.1184344    745.73394  0.035984073  0.036189323            8 
 1728000    1.0153504   -6.0997981    748.68845  0.036105732    0.0361805            6 
 1729000   0.98165469   -6.1103846    746.58554  0.035983494  0.036171496            4 
 1730000    0.9643323   -6.1258278    747.18791  0.035991711  0.036162578            5 
 1731000   0.96643534   -6.1005697    748.49382  0.036033787  0.036153696            3 
 1732000   0.96321205   -6.1332686    748.28529  0.036002949  0.036144587            3 
 1733000   0.98179008   -6.0998727    749.67443  0.036048972  0.036135507            3 
 1734000   0.97928412   -6.1422481    746.78473  0.035889309   0.03612625            3 
 1735000   0.98425009   -6.1052243    749.06012  0.035977912  0.036116942            4 
 1736000   0.97349475   -6.1124099    748.79325  0.035944376  0.036107873            4 
 1737000   0.99451227   -6.1372658    748.34957  0.035902397  0.036098781            3 
 1738000   0.96860859   -6.1152729     751.5749  0.036036388  0.036089774            6 
 1739000   0.94937165   -6.0889788    749.35613  0.035909341  0.036080814            5 
 1740000   0.96317971   -6.1049976    750.03845  0.035921381  0.036071961            3 
 1741000   0.97265755   -6.1400299    749.35355  0.035867966  0.036062921            4 
 1742000   0.96252362   -6.1167438    750.66444  0.035910086  0.036053838            5 
 1743000   0.98008886   -6.1474444    749.91144  0.035853483  0.036044902            4 
 1744000   0.98093086   -6.1527298    749.84054  0.035829537  0.036035902            3 
 1745000   0.96544245   -6.1398158    752.39197  0.035930849  0.036026707            6 
 1746000    0.9682956   -6.1286527    752.23317  0.035902691  0.036017873            6 
 1747000   0.98153352   -6.1056139    751.16091  0.035830992  0.036008872            8 
 1748000   0.96573022   -6.1142969    753.44556  0.035919411  0.036000004            2 
 1749000   0.98622419   -6.1093323    752.19579  0.035839327  0.035991185            6 
 1750000   0.99134524   -6.1016281    753.73546  0.035892165  0.035982319            4 
 1751000   0.95434487   -6.1020678    754.82128  0.035923343  0.035973506            3 
 1752000   0.97012538   -6.1316879    750.35412  0.035690359  0.035964633            7 
 1753000   0.95211103   -6.1006455    754.27705  0.035856487  0.035955674            8 
 1754000   0.98220567   -6.1388032    751.93071  0.035724568  0.035946517           12 
 1755000   0.98459612   -6.1569425    750.82338  0.035651633  0.035937317            5 
 1756000   0.97060583   -6.1365273    753.87365  0.035776084  0.035928207            5 
 1757000   0.97676809   -6.1248982    754.63244  0.035791711  0.035919164            3 
 1758000   0.95763934   -6.1453156    753.08415  0.035697959  0.035909915            5 
 1759000   0.99504249    -6.134034    752.18359     0.035635  0.035900557            5 
 1760000   0.98162139   -6.1339095    754.59049  0.035728716  0.035891277            5 
 1761000   0.96879145   -6.1377666    753.69848  0.035666216  0.035882107            5 
 1762000   0.97898748   -6.1336254    753.21411  0.035623066  0.035872984            3 
 1763000   0.96973124   -6.1447696    753.05984  0.035595568  0.035863765            3 
 1764000   0.95204982   -6.1224043    755.60769  0.035695753  0.035854576            4 
 1765000    0.9688537   -6.1561606    754.71338  0.035633304  0.035845196            4 
 1766000   0.96370109   -6.1379508    755.22147  0.035637102  0.035836088           13 
 1767000   0.96077578   -6.1183504    757.48386   0.03572363   0.03582698            6 
 1768000   0.98284426   -6.1601096    755.63929  0.035616482  0.035817826            5 
 1769000   0.96821049   -6.1199618    756.22672  0.035624021  0.035808533            7 
 1770000   0.98272467   -6.1465963      755.475  0.035568503   0.03579919            3 
 1771000   0.97522655   -6.1469079     755.6112  0.035554828  0.035789947            5 
 1772000   0.93908181   -6.1663383    756.13593   0.03555944  0.035780677            3 
 1773000   0.96716938   -6.1399362     758.8154  0.035665323  0.035771659            3 
 1774000   0.97221725   -6.0980071    756.43616  0.035533454  0.035762577            2 
 1775000   0.97727978   -6.1246732    757.81114  0.035577988   0.03575357            8 
 1776000   0.96359836   -6.1579234    759.40262   0.03563263  0.035744502           11 
 1777000    0.9527239   -6.1290314    757.70862  0.035533137  0.035735321           10 
 1778000   0.96259569   -6.1459666    758.04971  0.035529139  0.035726078            6 
 1779000   0.97808096   -6.1239033    757.33858  0.035475856  0.035716874            8 
 1780000   0.96863828   -6.1189925    758.87023  0.035527633  0.035707693            5 
 1781000   0.97841655   -6.1446887     759.8954  0.035555652  0.035698588            4 
 1782000   0.97869447   -6.1698142     756.4039  0.035372423  0.035689455            4 
 1783000   0.96658681   -6.1560649    759.28123  0.035487064  0.035680141            4 
 1784000   0.97510573   -6.1699236    759.78296  0.035490609  0.035670867            6 
 1785000   0.95589513   -6.1552214    758.00131  0.035387549  0.035661514            4 
 1786000   0.97555901   -6.1797007    755.93109  0.035271141  0.035652048            6 
 1787000   0.94163681   -6.1378369    760.00527  0.035441395  0.035642727            4 
 1788000   0.96793373   -6.1402348    762.81952  0.035552737   0.03563362            9 
 1789000   0.95609169   -6.1687916    760.09151   0.03540579   0.03562444            6 
 1790000   0.98629482   -6.1136047    761.03048  0.035429724  0.035615377            5 
 1791000   0.99799168   -6.1673179    758.78975  0.035305683  0.035606259            3 
 1792000   0.96842845    -6.135079    762.52514  0.035459688  0.035597219            2 
 1793000   0.94785687   -6.1509369    762.68318  0.035447257  0.035588135            3 
 1794000   0.95512354   -6.1555464    762.87188  0.035436263  0.035579143            3 
 1795000    0.9706486   -6.1837231    759.99531  0.035282976  0.035569981            4 
 1796000    0.9526414   -6.1408163    764.11467  0.035454467   0.03556081            3 
 1797000   0.98138403   -6.1222862    765.64229  0.035505578  0.035551835            6 
 1798000   0.95729488   -6.1434386    764.44129  0.035430167  0.035542951            5 
 1799000   0.97730674   -6.1235661    765.07035  0.035439612  0.035533844            4 
 1800000    0.9679022   -6.1571176    762.31212  0.035292228  0.035524764            6 
 1801000   0.95666516   -6.1828561    763.75785  0.035339527  0.035515488            6 
 1802000   0.97350717   -6.2015031    760.90689  0.035188073  0.035506281            4 
 1803000   0.95054558   -6.1653698    764.70884   0.03534428  0.035497118            2 
 1804000   0.97531424    -6.161026    763.88672  0.035286711  0.035487917            3 
 1805000   0.94433761   -6.1677016    764.52198   0.03529649  0.035478634            5 
 1806000   0.95342885   -6.1508528    763.34738  0.035222747  0.035469408            6 
 1807000    0.9896021   -6.1764847    764.04532  0.035235442  0.035460145            5 
 1808000   0.96006007   -6.1638089    763.90812   0.03520963  0.035450832            2 
 1809000   0.98661251   -6.1615799    765.04677  0.035242619  0.035441622            5 
 1810000   0.97079368   -6.1723454    762.81001  0.035120166  0.035432453            6 
 1811000   0.95445677   -6.1464341    766.88551  0.035288308  0.035423193            8 
 1812000   0.95700648   -6.1520895    766.19449  0.035237053  0.035414084            4 
 1813000   0.95730487   -6.1440403    766.89915  0.035250007  0.035404917            5 
 1814000   0.97828864   -6.1836987    764.67899  0.035128583  0.035395808            5 
 1815000   0.94824969   -6.1582112     764.7236  0.035111276  0.035386553            2 
 1816000   0.96416646   -6.1578966    766.44268  0.035170828  0.035377198            7 
 1817000   0.95358452   -6.1874392    764.33832  0.035054959  0.035367921            7 
 1818000   0.96014881   -6.1356303    766.77371   0.03514731  0.035358767            7 
 1819000   0.96293538   -6.1369789    767.84469  0.035177052  0.035349687            2 
 1820000   0.96464518   -6.1411197    766.88728  0.035113887  0.035340527            6 
 1821000   0.95219975   -6.1602918    765.46233  0.035029395  0.035331261            4 
 1822000   0.97660847   -6.1724817    768.35707  0.035142566  0.035322026            3 
 1823000   0.96167231   -6.1646685    768.88548  0.035147444  0.035312745            4 
 1824000   0.95495516   -6.1869971    767.99448  0.035087467  0.035303325            4 
 1825000   0.96160911   -6.1954029    767.48202  0.035044841  0.035293951            4 
 1826000   0.95030275   -6.1527097    770.00785  0.035140921  0.035284691            7 
 1827000   0.96898048   -6.1638945    767.06082  0.034987266  0.035275538            4 
 1828000     0.944041    -6.141585    769.87161  0.035096262  0.035266339            4 
 1829000   0.96430811   -6.1804338    768.69851  0.035023624  0.035257187            4 
 1830000   0.95152538   -6.1680984    768.46129  0.034993684  0.035247951            5 
 1831000   0.96810678   -6.1890429    768.30044  0.034967251   0.03523857            4 
 1832000   0.98944328   -6.1769712    768.18655  0.034942983  0.035229202            8 
 1833000   0.96767085   -6.1824325    768.82279  0.034952846  0.035219868            5 
 1834000   0.97288085   -6.1921999    770.03796  0.034989002  0.035210614            4 
 1835000   0.95823595   -6.1771022    773.49662  0.035127004  0.035201359            8 
 1836000   0.96982862     -6.16792    771.59996  0.035021785  0.035192177            4 
 1837000   0.95508382   -6.1725744    770.63174  0.034958798   0.03518303            2 
 1838000   0.97028484   -6.1390105    773.29158  0.035060373  0.035173854            3 
 1839000   0.95005271   -6.0992757    773.29707  0.035041556    0.0351647            5 
 1840000   0.94651247   -6.1949642    770.25276  0.034884636  0.035155445            2 
 1841000    0.9706645   -6.1724161    770.90199  0.034895074  0.035146079            4 
 1842000   0.95081998   -6.1862851     771.5556    0.0349057  0.035136799            9 
 1843000   0.96446977   -6.1537301    772.63122  0.034935396  0.035127634            2 
 1844000   0.95399057   -6.1854988    772.30777  0.034901833  0.035118503            3 
 1845000   0.95885418   -6.1536797    772.63511  0.034897702  0.035109304            4 
 1846000   0.97379184    -6.143422    774.39701  0.034958334  0.035100051            5 
 1847000   0.96855642   -6.1308231    772.67333  0.034861637  0.035090754            5 
 1848000   0.95532285   -6.1837078    771.54033  0.034791681  0.035081328            4 
 1849000   0.94537924   -6.1658726    774.54515  0.034908291  0.035071977            3 
 1850000   0.95818152   -6.1656844    775.46352  0.034930789  0.035062673            3 
 1851000   0.93593961   -6.1767575    774.42608  0.034865212  0.035053512            4 
 1852000   0.95888784    -6.206053    770.78527  0.034682562  0.035044213            4 
 1853000   0.96446044   -6.1012399    775.61707  0.034881142  0.035034912            2 
 1854000    0.9422268   -6.1801119    773.44262  0.034764591  0.035025597            3 
 1855000   0.95730475    -6.177888    773.71988  0.034758305  0.035016211            7 
 1856000   0.94121835   -6.1698967    773.84317  0.034745114  0.035006847            7 
 1857000   0.97605659   -6.1751099     774.3029  0.034747034  0.034997517           10 
 1858000   0.94725858   -6.1416006    777.43729  0.034868913  0.034988257            3 
 1859000   0.95555166   -6.1735031    775.83122  0.034778161  0.034979037            4 
 1860000    0.9516975   -6.1513123    777.08143  0.034815476  0.034969758            8 
 1861000   0.96107985   -6.1709131    774.91401  0.034699714  0.034960562            5 
 1862000    0.9442287   -6.1491615    777.90583  0.034814976   0.03495127            4 
 1863000   0.97737181    -6.154393      776.965  0.034754204  0.034942156            5 
 1864000   0.95861742   -6.1876067    775.91039  0.034688411  0.034932977            4 
 1865000   0.95003811   -6.1985462    776.83824  0.034711271  0.034923572            4 
 1866000   0.95841792    -6.174925    778.75741  0.034778377  0.034914295            5 
 1867000   0.93726446    -6.195829    775.40116  0.034609943  0.034905034            8 
 1868000   0.96437063     -6.16975    774.99135  0.034573133  0.034895601            4 
 1869000   0.94723993   -6.1526008    777.93812  0.034686023  0.034886324            2 
 1870000   0.96976403   -6.2067653    777.10186  0.034630208  0.034877059            2 
 1871000   0.94492756   -6.1797107    777.38197  0.034624175    0.0348677            8 
 1872000   0.95284971   -6.1801591    778.32712  0.034647753  0.034858464            5 
 1873000   0.95837643    -6.170964    780.35723  0.034719578   0.03484928            3 
 1874000   0.96289848   -6.1508391    781.37778  0.034746433  0.034840115            7 
 1875000   0.93602889    -6.197924    781.77368  0.034745497   0.03483101            3 
 1876000   0.96091226   -6.1734078     779.3127  0.034617657  0.034821763            3 
 1877000   0.91924591   -6.1369472     779.3218  0.034599618  0.034812632           11 
 1878000   0.96118727   -6.2156817     779.3125  0.034580782  0.034803514            2 
 1879000   0.94435832   -6.1785784    782.07463  0.034684878   0.03479422            5 
 1880000   0.95554701    -6.221755    778.16892  0.034493303  0.034785021            4 
 1881000   0.94881431   -6.1888628    779.25525  0.034523093  0.034775822            1 
 1882000   0.96121202   -6.1423591    784.21441  0.034724336  0.034766765            2 
 1883000   0.95081294   -6.1801943    783.16025  0.034659243  0.034757665            5 
 1884000   0.94176082   -6.1805704     783.1044  0.034638376  0.034748602            4 
 1885000   0.95229128   -6.1495263    786.75952  0.034781588  0.034739608            3 
 1886000   0.94759803   -6.1785938    782.16232  0.034560018  0.034730642            7 
 1887000   0.95393921   -6.1866683    784.35575  0.034638569  0.034721582            7 
 1888000   0.93729859   -6.2153246    783.67986  0.034590389    0.0347126            4 
 1889000   0.96323859    -6.196256    783.37421  0.034558594  0.034703466            5 
 1890000   0.95629345   -6.1517892    786.18969  0.034664449  0.034694496            4 
 1891000   0.94778417   -6.2007649    783.82779  0.034542032  0.034685673            5 
 1892000   0.95782236   -6.2337858    784.24214  0.034542025  0.034676716            5 
 1893000   0.96668652   -6.2013251    783.31251  0.034482854  0.034667757            6 
 1894000   0.98829142   -6.2064527    786.69183  0.034613333   0.03465889            5 
 1895000   0.96089716   -6.1792827    786.25979  0.034576068  0.034650121            5 
 1896000   0.93528876   -6.1674498    786.32091  0.034560518   0.03464127            5 
 1897000   0.95316498   -6.1718087    785.88185  0.034523012  0.034632437            3 
 1898000   0.97092109   -6.2027154    787.08628  0.034557705  0.034623563            9 
 1899000   0.95278811   -6.1537016    789.32224  0.034637627  0.034614715            2 
 1900000    0.9539611   -6.1977315    786.18918  0.034481981  0.034605879            6 
 1901000   0.95231302   -6.1658019    789.10222   0.03459154  0.034597033            6 
 1902000   0.94528668   -6.1669026    788.93262  0.034565923   0.03458833            3 
 1903000    0.9561227   -6.2181274    789.70678  0.034581659  0.034579504            5 
 1904000   0.94497397   -6.2153114    786.64321  0.034429412   0.03457053            5 
 1905000   0.94198941   -6.1959952    786.05368   0.03438555  0.034561573            6 
 1906000   0.97106484   -6.1939941    790.36061  0.034555815  0.034552644            6 
 1907000   0.95361662   -6.1720642    787.56769  0.034415648  0.034543668            4 
 1908000   0.93377987    -6.152998     790.5113  0.034526175  0.034534733            6 
 1909000   0.93974636   -6.2189278    788.48157  0.034419485  0.034525795            2 
 1910000   0.94980137   -6.2163196    790.68436  0.034497572     0.034517            5 
 1911000   0.93860315   -6.1969867    788.43931   0.03438162  0.034508164            3 
 1912000    0.9651015   -6.1806798    791.76726  0.034508685  0.034499411            3 
 1913000   0.93743272   -6.1667192    791.47883  0.034478081  0.034490683            5 
 1914000   0.95009415   -6.1937129    790.19837  0.034404318  0.034481933            5 
 1915000   0.95741762   -6.1670555    792.78827  0.034499054  0.034473215            4 
 1916000   0.92622973   -6.1648167    793.26341  0.034501714  0.034464602            4 
 1917000   0.93601136    -6.181959    791.16357  0.034392435  0.034455837            6 
 1918000   0.94289094   -6.2058843    792.99644  0.034454138  0.034447026            3 
 1919000   0.94829013   -6.1549449    793.99903  0.034479722  0.034438251            6 
 1920000   0.90518014   -6.1621598    793.49785  0.034440011  0.034429599            3 
 1921000   0.93289032   -6.2107697     792.2153  0.034366445  0.034420924           10 
 1922000   0.94307397   -6.1843185    791.99669  0.034339086  0.034412194            4 
 1923000   0.94538171   -6.2300605    794.62335  0.034435056  0.034403617            6 
 1924000   0.94246841   -6.1999349     793.8791  0.034384923  0.034395034            3 
 1925000   0.93947608    -6.184134     793.7451   0.03436126  0.034386392            6 
 1926000   0.95761147   -6.2072716    791.67187  0.034253716  0.034377673            7 
 1927000   0.94911472   -6.2208763     793.7144  0.034324269   0.03436899            9 
 1928000   0.94570265   -6.2514791    794.43917  0.034337793  0.034360344            7 
 1929000   0.94405507   -6.2149786    793.66765  0.034286662  0.034351672            4 
 1930000   0.95613138   -6.1900887    796.44106  0.034388647  0.034342913            5 
 1931000   0.93406418   -6.1655439    794.11985  0.034270665  0.034334182            4 
 1932000   0.94012079   -6.1536296    796.92002  0.034373707  0.034325644            3 
 1933000   0.94188301   -6.2002354    797.29191  0.034371957  0.034317082            6 
 1934000   0.96014222   -6.2104513    796.43861  0.034317417  0.034308356            4 
 1935000   0.93874036   -6.1529491     800.6985   0.03448314  0.034299725            3 
 1936000   0.96782242   -6.1912239     795.0825  0.034223592  0.034291198            3 
 1937000   0.95674818   -6.1920482    796.15722   0.03425216  0.034282581           11 
 1938000   0.96934891   -6.2452278     793.6162  0.034125223   0.03427398           10 
 1939000   0.94276035   -6.2341114    793.63642  0.034108493  0.034265126            5 
 1940000   0.95267729   -6.1868249    797.03224   0.03423678  0.034256392            3 
 1941000    0.9326989   -6.1948053    798.10806   0.03426533  0.034247703            6 
 1942000   0.94848019    -6.225838     794.7953  0.034105531  0.034238954            3 
 1943000   0.92903029    -6.202579    796.78758  0.034173425  0.034230164            3 
 1944000   0.92745227   -6.2212661    797.16211  0.034171901  0.034221466            6 
 1945000   0.92554683   -6.1741552    799.70253  0.034263176  0.034212847           11 
 1946000   0.94022549   -6.1911993    797.96499  0.034171163  0.034204096            4 
 1947000   0.95059199   -6.2055994     797.4902   0.03413329  0.034195447            5 
 1948000   0.94928629   -6.1952811    796.56366  0.034076132  0.034186757            6 
 1949000   0.93273811   -6.1847376    798.54179  0.034143227  0.034177885            6 
 1950000   0.93244798    -6.203969    797.51997   0.03408205  0.034169138            4 
 1951000   0.95184629   -6.2063927    799.76526  0.034160484  0.034160322            5 
 1952000   0.94494586   -6.1992873    798.09399  0.034071636  0.034151571            7 
 1953000   0.95972287   -6.1908211     799.1357  0.034098639  0.034142752            6 
 1954000    0.9542439   -6.1814483    799.45505  0.034094807  0.034133931            7 
 1955000    0.9577241   -6.2430055    798.97468  0.034056892  0.034125108            7 
 1956000   0.93882583   -6.1925594    799.65578  0.034068498  0.034116242            4 
 1957000   0.94027903   -6.2187126    799.41959  0.034041032  0.034107393           10 
 1958000   0.93007556   -6.2124805    799.04115  0.034007539    0.0340986            3 
 1959000   0.94353761   -6.2086977    802.14263  0.034122113  0.034089792            5 
 1960000   0.93199704   -6.2465329    800.01342  0.034014176  0.034081002            2 
 1961000   0.91847067   -6.2342412    796.88132  0.033863731  0.034072159            5 
 1962000   0.94421893   -6.2459847    798.22506  0.033903545  0.034063235            2 
 1963000   0.92124444   -6.1957943    800.24473  0.033972013  0.034054318            2 
 1964000     0.930772    -6.212092    802.38397  0.034045484  0.034045468            3 
 1965000   0.94606783   -6.2196968    802.37419  0.034027743  0.034036698           10 
 1966000   0.95123993   -6.2229951    802.17904  0.034002163  0.034027895            3 
 1967000    0.9343403   -6.2609378    801.57922  0.033959465  0.034019041            8 
 1968000   0.94409528   -6.2499689    802.72039  0.033990531  0.034010211            8 
 1969000   0.95023325   -6.2067526    804.92878  0.034066733  0.034001292            5 
 1970000   0.92906748   -6.2060949    801.90938  0.033921716  0.033992574            4 
 1971000   0.92828449   -6.2257882    800.32979  0.033837722  0.033983761           16 
 1972000   0.94166438   -6.2371648    801.71049  0.033878909  0.033974846            3 
 1973000   0.94547786   -6.2002342    805.91054  0.034039134  0.033965992            7 
 1974000    0.9234119   -6.2293406    805.41777  0.034001088  0.033957256            6 
 1975000   0.94507239   -6.1869053    804.45888  0.033943413  0.033948464            3 
 1976000   0.92849903   -6.1733628    806.64136  0.034018276  0.033939817            7 
 1977000   0.92863042   -6.2357088    804.07842  0.033893037  0.033930992            3 
 1978000   0.92341515   -6.2227086    805.06703  0.033917553   0.03392228            4 
 1979000   0.94424859   -6.2281978    805.42958  0.033915681  0.033913606            6 
 1980000   0.94074354   -6.2097274     802.7954  0.033787685  0.033904899            6 
 1981000    0.9306962   -6.2153002    806.44508  0.033924158  0.033896229            7 
 1982000   0.94126211   -6.1996476    805.47313  0.033866176  0.033887561            6 
 1983000   0.93826681   -6.2327563    805.11129  0.033833892  0.033878787            5 
 1984000   0.90574711   -6.2070561    805.02073  0.033813035  0.033869995            4 
 1985000     0.909318   -6.2164448    806.89678   0.03387476  0.033861378            5 
 1986000    0.9388091   -6.2019527    808.11523   0.03390883  0.033852682            6 
 1987000   0.93954647   -6.2325173    802.68108   0.03366386  0.033843954            3 
 1988000   0.94575411   -6.2175799    807.66339  0.033855776  0.033835261            6 
 1989000   0.92531614   -6.2297925    804.13242  0.033690817   0.03382659            7 
 1990000   0.92708468   -6.2246809    804.90217  0.033706121  0.033817843            3 
 1991000   0.93461657   -6.1884827    810.94213  0.033941994  0.033809223            3 
 1992000   0.91851554   -6.2252908    807.40047  0.033776793  0.033800637            6 
 1993000    0.9335048   -6.1952416    810.83876  0.033903611  0.033792079            3 
 1994000   0.93161732   -6.2432294    808.45426  0.033786955   0.03378353            4 
 1995000   0.92266692    -6.235812    805.42694  0.033643565  0.033774803            9 
 1996000   0.94352961   -6.1909395    811.18189  0.033866979  0.033766066            3 
 1997000   0.95997082   -6.2151954    808.40273  0.033734048  0.033757383            5 
 1998000   0.92702235   -6.2400065    810.44915  0.033802517  0.033748752            8 
 1999000   0.93482905   -6.2052734    808.63233  0.033709869  0.033740138            6 
 2000000   0.92774417   -6.2363417    807.74779  0.033656158  0.033731483            6 
 2001000   0.94200312   -6.2435001    806.73625  0.033597212  0.033722796            7 
 2002000   0.94089449   -6.2659853    808.72224  0.033663097  0.033714032            4 
 2003000   0.94007054   -6.2594101    809.44726  0.033676454  0.033705379            3 
 2004000   0.93646317   -6.2317883    811.71106  0.033753787  0.033696837            4 
 2005000   0.93246817    -6.203756    811.49602  0.033728014  0.033688113            8 
 2006000   0.93746624   -6.2306211    812.45217  0.033750921   0.03367943            4 
 2007000   0.90855206   -6.1968064    810.90784  0.033669982  0.033670807            3 
 2008000   0.91291865   -6.1946495     812.3108  0.033711437  0.033662279            6 
 2009000   0.92814141   -6.2561122     809.3829  0.033573208  0.033653797            6 
 2010000   0.92484469     -6.23092    812.38769  0.033681082  0.033645188           13 
 2011000   0.93114617   -6.2551642    809.72027  0.033553799  0.033636399            5 
 2012000   0.91746188   -6.2655935    809.73468  0.033537719  0.033627606            6 
 2013000    0.9212339   -6.2668076    808.68385  0.033477556  0.033618787            2 
 2014000   0.92045844   -6.2109425    811.64337   0.03358339  0.033610087            7 
 2015000   0.93764608   -6.2374842    811.56019  0.033563283  0.033601256            7 
 2016000   0.95365438   -6.2389468    811.74379  0.033554224  0.033592482            7 
 2017000   0.92938771   -6.2572078    809.71298  0.033453684  0.033583727            4 
 2018000   0.92787406   -6.2185519    814.12977  0.033619498  0.033575091            4 
 2019000   0.93982642   -6.2821008    810.59866  0.033457102    0.0335664            4 
 2020000   0.92538758   -6.2398104    815.39521  0.033638416  0.033557722            3 
 2021000   0.93305308   -6.2325673    814.37966  0.033579897  0.033549158            3 
 2022000   0.91498096   -6.2780065    812.76772  0.033496856  0.033540536            3 
 2023000   0.91274062   -6.2678174     811.6003  0.033432209  0.033531828            7 
 2024000   0.95316417   -6.2550098     811.9145  0.033428627  0.033523165            5 
 2025000   0.92833868   -6.2549813    813.07405  0.033459838  0.033514478           16 
 2026000   0.92709216   -6.2445143    813.40172    0.0334568  0.033505875           10 
 2027000   0.94053347   -6.2214791      816.732  0.033577208  0.033497219            2 
 2028000     0.925316   -6.2813217    813.78823  0.033439687  0.033488679            4 
 2029000   0.90846052   -6.2442569    816.88653  0.033550457  0.033480177            4 
 2030000   0.92369054   -6.2227517    817.74752  0.033569274  0.033471672            7 
 2031000   0.92202935   -6.2347025    816.81009  0.033514282  0.033463138            4 
 2032000   0.93377879   -6.2533126    817.16194  0.033512219  0.033454667            4 
 2033000   0.91323748   -6.2242998    819.53181  0.033592876  0.033446336            6 
 2034000    0.9026506   -6.2502225    817.50676  0.033493394  0.033437943            3 
 2035000   0.94128496   -6.2817335    816.64044   0.03344146  0.033429522            5 
 2036000   0.91157778   -6.2750156     816.1894  0.033406573  0.033421075            8 
 2037000   0.94266943   -6.2740937    816.50668  0.033403154  0.033412634            2 
 2038000   0.93567423   -6.2131097    819.45315  0.033507244  0.033404198            2 
 2039000   0.91791441   -6.2315668    819.79894  0.033504943  0.033395891            4 
 2040000   0.92271769   -6.1988724    822.42257  0.033595693  0.033387528            3 
 2041000   0.92965105   -6.2538624    819.38174  0.033455077  0.033379055            7 
 2042000   0.93496689   -6.2572137    820.41392  0.033480816  0.033370697            2 
 2043000   0.92911634   -6.2704988    818.65122  0.033392528  0.033362257            3 
 2044000   0.93200634   -6.2314067    822.81902  0.033546111  0.033353882            5 
 2045000   0.92341565    -6.235002    823.09244  0.033540849  0.033345439            4 
 2046000   0.92183639   -6.2758061    818.40631   0.03333359  0.033336928            2 
 2047000   0.94703828   -6.2695761    821.48244  0.033442535  0.033328525            3 
 2048000   0.93498557   -6.2029249    822.44771  0.033465483  0.033320118            9 
 2049000    0.9153836   -6.2643852    822.26176  0.033441588   0.03331174            4 
 2050000   0.92502639   -6.2615028    819.58763   0.03331657  0.033303296            4 
 2051000   0.92963144   -6.2651714    819.62599  0.033301885  0.033294766            5 
 2052000   0.92506973   -6.2398979    821.42108  0.033358556  0.033286186            4 
 2053000   0.90619045   -6.2267475    822.72242   0.03339513  0.033277665            3 
 2054000    0.9257985   -6.2494875    820.62436   0.03329375  0.033269153            4 
 2055000   0.92269301   -6.2689677    820.49105  0.033272143  0.033260658            8 
 2056000   0.90825708   -6.2539895    821.88381  0.033312411  0.033252121            6 
 2057000   0.91165659   -6.2488382    822.41062  0.033317559  0.033243684            2 
 2058000   0.91685696   -6.2855641    820.59264  0.033227755  0.033235345            3 
 2059000   0.93270126      -6.2677    822.58938  0.033292431  0.033226984            4 
 2060000   0.92815876   -6.2443948    825.16584  0.033380495  0.033218701            3 
 2061000   0.90706757   -6.2226771    827.79339   0.03347054  0.033210395           10 
 2062000   0.93777605   -6.2184972    827.50226  0.033442542  0.033202287            2 
 2063000   0.92561151   -6.2734974     826.2434  0.033375481  0.033194075            3 
 2064000   0.92439564   -6.2945028    823.92151  0.033265565   0.03318581            4 
 2065000   0.91707656   -6.2654505     824.9434  0.033290694  0.033177463           12 
 2066000   0.90430461   -6.2531827     824.6471  0.033262629  0.033169202            8 
 2067000   0.93700198   -6.2892196    825.61996  0.033285759  0.033161002            7 
 2068000   0.90394924   -6.2546955    826.99709  0.033325157  0.033152809            6 
 2069000   0.92653664   -6.2821819    827.32228  0.033322147  0.033144643            3 
 2070000   0.90822983    -6.247984    826.27055   0.03326371  0.033136451            7 
 2071000   0.91925306   -6.2287758    829.10962  0.033361887  0.033128248            6 
 2072000   0.94141919    -6.240021    829.74913  0.033371506  0.033120068            9 
 2073000   0.90626025   -6.2781005    826.58405  0.033228174  0.033111866            4 
 2074000   0.91229199   -6.2837571    825.94417  0.033186442  0.033103458            4 
 2075000   0.91479934   -6.2671555    830.25372  0.033343523  0.033095144           10 
 2076000   0.92273246   -6.2813106    828.55046   0.03325909  0.033086905            7 
 2077000   0.90716935   -6.2676524    829.93128  0.033298479  0.033078673            8 
 2078000   0.93597879   -6.2609403    829.87735  0.033280292  0.033070449           10 
 2079000   0.90737655   -6.2645299    827.94198  0.033186708  0.033062172            5 
 2080000   0.91808381   -6.2658392    828.66604  0.033199761  0.033053806            7 
 2081000   0.90057592   -6.2684864    828.06788  0.033159854  0.033045467            6 
 2082000   0.95274801   -6.3096567    827.01704  0.033101867  0.033037145            6 
 2083000   0.92562082   -6.2913039    827.78256  0.033116601  0.033028854            3 
 2084000   0.91360044   -6.2823273    828.99362  0.033149137  0.033020622            8 
 2085000   0.90816806   -6.2458954    829.62939  0.033158649  0.033012342            3 
 2086000   0.91187053   -6.2260059    829.46503  0.033136187  0.033004091            6 
 2087000   0.90831969   -6.2704493    827.15008  0.033027874   0.03299578            9 
 2088000   0.92286415   -6.2690608    828.48059  0.033065158  0.032987488            5 
 2089000   0.89756252   -6.2689701    827.75237   0.03302028  0.032979122            5 
 2090000   0.91423068   -6.2745559    829.42247  0.033071072  0.032970773            8 
 2091000   0.90403287   -6.2423685    831.40115  0.033134113  0.032962479            4 
 2092000   0.93654506   -6.3011571    829.70881  0.033050861  0.032954136            5 
 2093000   0.92917824   -6.2701624    830.81385  0.033079067   0.03294577            3 
 2094000   0.92798308   -6.2294532    831.39707   0.03308648  0.032937451            4 
 2095000    0.9232745   -6.3086429    828.59206  0.032959112   0.03292912            8 
 2096000   0.90858771   -6.2635646     830.6391  0.033024773   0.03292074            6 
 2097000    0.9032419   -6.2908336    830.48851   0.03300304   0.03291236            8 
 2098000   0.93080045   -6.2809064    831.26764  0.033018257  0.032904135            7 
 2099000   0.91493515   -6.2422245    831.32162   0.03300467   0.03289581            5 
 2100000   0.91008251   -6.2359278      835.431  0.033152024  0.032887668            7 
 2101000   0.89128451   -6.2650543    834.07425  0.033082431  0.032879456            7 
 2102000   0.92412032   -6.2644306    832.00574  0.032984687  0.032871172            4 
 2103000   0.90919263   -6.2339327    833.96211  0.033046525  0.032862825            7 
 2104000   0.89876605   -6.2676807    835.84897  0.033105552  0.032854669           10 
 2105000     0.913327   -6.2908298     832.0051  0.032937652  0.032846328            4 
 2106000   0.91567309   -6.2575435    831.80111  0.032913941  0.032837965            6 
 2107000   0.90381075   -6.2706567     831.9675    0.0329049  0.032829552            4 
 2108000   0.90842121   -6.2432155    831.97559  0.032889611  0.032821144            4 
 2109000   0.90472488   -6.2647545    834.60285  0.032977827  0.032812706            4 
 2110000    0.9221727    -6.292386     832.3478  0.032873136   0.03280435            4 
 2111000   0.90264034   -6.2759294    833.84376  0.032916618  0.032796123            4 
 2112000   0.90473354   -6.2625564      833.281  0.032878827  0.032787857            6 
 2113000   0.92425512   -6.2546967    832.97678  0.032851269  0.032779557            7 
 2114000   0.90698929   -6.2653616    833.85776  0.032870457  0.032771374            5 
 2115000   0.92334778   -6.2665913    834.82821  0.032893153   0.03276315            7 
 2116000    0.9100993   -6.2409358    836.87316  0.032958143  0.032754881            6 
 2117000   0.92022397   -6.2560006    835.98419  0.032907581   0.03274666            8 
 2118000   0.90756799   -6.2561721    835.69679  0.032880736  0.032738362            8 
 2119000    0.9012178   -6.2561952    834.91865  0.032834617  0.032730051            4 
 2120000   0.91159378   -6.2724774    835.40931  0.032838416  0.032721717           14 
 2121000   0.91996294   -6.2745172    835.04676  0.032808689  0.032713299            4 
 2122000   0.90856793   -6.2610245    838.32894  0.032922123  0.032704931            6 
 2123000   0.90646244   -6.2439346    835.88125  0.032810537  0.032696507            5 
 2124000    0.9117389   -6.2770255    833.60503  0.032705784  0.032688155            5 
 2125000   0.91954731   -6.3112237    835.03755  0.032746571  0.032679811            5 
 2126000   0.90109865   -6.2749932    836.13625  0.032774234  0.032671449            6 
 2127000   0.92682204    -6.259954    837.04122  0.032794281  0.032663238            4 
 2128000   0.91665584   -6.2755307    837.89106   0.03281215  0.032655038            2 
 2129000   0.90366428   -6.2740983    837.32196  0.032774462   0.03264683            7 
 2130000   0.91132679   -6.2867304    836.90376  0.032742714  0.032638489            9 
 2131000    0.8986383   -6.2617717    836.58622  0.032714931  0.032630197           11 
 2132000   0.90971693   -6.2576175    839.37016  0.032808402  0.032622001            6 
 2133000   0.90606923   -6.3189931    834.73913  0.032612093  0.032613634            9 
 2134000   0.89354753    -6.290829    839.39142  0.032778484  0.032605274            2 
 2135000   0.91804786   -6.2583773    840.30463  0.032798776     0.032597            4 
 2136000   0.90802189   -6.3150475    837.58811  0.032677439  0.032588691            6 
 2137000   0.91017409   -6.3076011    839.99358   0.03275595  0.032580321            3 
 2138000   0.91081334   -6.2774063    839.78497  0.032732498  0.032572042            4 
 2139000   0.91304032   -6.2404806    841.06591  0.032767099  0.032563865            4 
 2140000   0.89356135   -6.2909881    839.95453   0.03270851  0.032555628            4 
 2141000   0.90428567   -6.2863736    841.17753  0.032740835  0.032547438            6 
 2142000    0.9318974   -6.3077932    839.07248  0.032643654  0.032539053            4 
 2143000   0.91908889   -6.2918222    836.56233  0.032530811  0.032530706            5 
 2144000   0.93307494   -6.2585839    837.33989   0.03254586  0.032522351            3 
 2145000   0.91307837   -6.2953851    838.06147  0.032558721  0.032513942            5 
 2146000    0.9219478    -6.289417    840.41708  0.032635022  0.032505596            6 
 2147000   0.91416669   -6.2749989    839.63552  0.032589486  0.032497172            8 
 2148000   0.90151748   -6.2674696    841.21063  0.032635422  0.032488883            4 
 2149000   0.91136013   -6.2911074    838.31749  0.032508046  0.032480455            6 
 2150000   0.90615953    -6.276591    839.22828  0.032528228  0.032472026            6 
 2151000   0.92348217   -6.2669244    841.02259   0.03258262  0.032463709            7 
 2152000   0.90654327   -6.2684269    839.87026  0.032522857  0.032455475            6 
 2153000   0.92702106   -6.2847547    841.03554  0.032552854  0.032447118            6 
 2154000   0.90356362   -6.2745591    841.87072  0.032570052  0.032438901            7 
 2155000   0.93160022   -6.3013262    839.42555  0.032460385  0.032430626            5 
 2156000    0.8911968   -6.3270915    840.40951  0.032483361  0.032422334            9 
 2157000   0.88064565   -6.3268972    840.85512  0.032485517  0.032413911           10 
 2158000   0.92256206   -6.3165454    842.90529  0.032549633  0.032405563            4 
 2159000   0.90791316   -6.3026431     840.8602   0.03245562  0.032397191            3 
 2160000   0.90256061   -6.2523753    843.09287  0.032526731  0.032388781            3 
 2161000   0.89787701   -6.2989722    843.06214  0.032510494   0.03238041            5 
 2162000   0.88786876   -6.2895858    842.52464   0.03247474  0.032372064            4 
 2163000   0.90886087   -6.2870969    843.65293  0.032503195  0.032363774            5 
 2164000    0.9149353   -6.3018198    841.95974  0.032422972  0.032355505            3 
 2165000   0.89007406   -6.2679216    844.39059  0.032501562  0.032347193            5 
 2166000   0.91715205   -6.2938834    844.01079  0.032471945  0.032338938            9 
 2167000   0.90319816   -6.2607794    844.85986  0.032489611  0.032330685            3 
 2168000   0.90310255   -6.2664159    844.73238  0.032469726  0.032322423            6 
 2169000   0.91144686   -6.2917914    844.72461  0.032454457  0.032313999            2 
 2170000   0.90763514   -6.3161956    843.10543   0.03237732  0.032305635            4 
 2171000   0.91162602   -6.3189775    842.36325  0.032333919   0.03229712            3 
 2172000   0.90323683    -6.310304    843.75511  0.032372434  0.032288473            7 
 2173000   0.91159492    -6.323838    841.56541  0.032273562  0.032279854            6 
 2174000   0.90636832   -6.3246461    839.13259  0.032165463  0.032271334           10 
 2175000   0.89854234   -6.2694693    843.68277  0.032325011  0.032262914            4 
 2176000   0.89341758   -6.2726909    844.76091  0.032351444  0.032254443            5 
 2177000   0.89805415   -6.2845519    843.09286  0.032272732  0.032246004            4 
 2178000   0.90429714   -6.3008855    842.30118  0.032227624  0.032237443            3 
 2179000   0.91441624   -6.3262378    845.09758  0.032319779  0.032228901           10 
 2180000   0.89761945   -6.2941563    843.16196  0.032230962   0.03222033            5 
 2181000   0.88518495   -6.3336792    841.70214  0.032160406  0.032211714            2 
 2182000   0.90517297   -6.3139184    841.12352  0.032123569  0.032203022            4 
 2183000    0.9038973   -6.2988817    843.98674  0.032218153  0.032194292            4 
 2184000   0.89646034   -6.3087142    844.78488  0.032233855  0.032185797            3 
 2185000   0.90155067   -6.2777442    845.67525   0.03225306  0.032177248            3 
 2186000   0.90847781   -6.2693603    845.16036  0.032218678  0.032168822            2 
 2187000   0.90824014   -6.2875165    846.29461  0.032247165  0.032160418            4 
 2188000   0.90035952   -6.3217798    844.49339  0.032163825  0.032151884            7 
 2189000   0.90810096   -6.3455206    844.52692  0.032150408   0.03214321            5 
 2190000   0.89229857   -6.3222231    845.10702  0.032157801  0.032134665            7 
 2191000   0.89098808   -6.3399764    841.42478  0.032003073  0.032126065            5 
 2192000   0.91383983   -6.3137042    846.85986  0.032195098  0.032117395            9 
 2193000   0.89187001   -6.3108587    844.92194  0.032106777   0.03210892            8 
 2194000    0.8944365   -6.3362002    844.22987  0.032065857  0.032100421            9 
 2195000   0.90049602   -6.3037059    847.50982  0.032175772  0.032091983            5 
 2196000   0.90453963   -6.2949088    847.61915  0.032165268  0.032083488            5 
 2197000   0.91504261   -6.2795893    848.22858  0.032173744  0.032074984            8 
 2198000   0.89926707   -6.3086144    845.96142  0.032073151  0.032066485            6 
 2199000    0.9110968   -6.3190973    846.26362  0.032070017  0.032058075           14 
 2200000   0.90635306   -6.3026082    848.26685   0.03213132  0.032049669            5 
 2201000   0.91056723   -6.3222481    848.65299  0.032131341  0.032041314            5 
 2202000   0.88911375   -6.3010929    847.70411   0.03208084  0.032032851            7 
 2203000   0.90202043   -6.3020745    848.50156  0.032096443  0.032024485            2 
 2204000   0.89200121   -6.2837049    849.62522  0.032124366  0.032016232            6 
 2205000   0.90906355   -6.2948187    850.09359  0.032127498  0.032007903            3 
 2206000    0.9136916     -6.25962     853.5479  0.032243423   0.03199961            6 
 2207000   0.93702541    -6.302173    853.01672  0.032208757  0.031991462           11 
 2208000   0.90907824   -6.3122687    849.30005  0.032053897  0.031983235            5 
 2209000   0.90492383   -6.3515455    848.92284  0.032025156  0.031974768            4 
 2210000   0.90674467   -6.3226519     850.5155   0.03207072  0.031966403            7 
 2211000   0.91349208   -6.3103371    849.62152  0.032022521  0.031957949           11 
 2212000   0.90952324   -6.3291858    847.98379  0.031946345  0.031949478            9 
 2213000   0.91656742   -6.3139357     849.3677  0.031984022   0.03194119            8 
 2214000   0.88792988   -6.3114647    850.52022  0.032012956  0.031932749            7 
 2215000   0.89503936   -6.2923472    855.14231  0.032172397  0.031924547            7 
 2216000   0.89772767   -6.3127144    849.49347  0.031945452  0.031916168            9 
 2217000   0.89689393   -6.3166969    848.50827  0.031894011  0.031907688            8 
 2218000   0.89682913   -6.3049802    849.41671  0.031913763  0.031899322            5 
 2219000   0.87347829   -6.3151185    850.64617  0.031945552  0.031890874           10 
 2220000   0.87163196   -6.3246195    852.49754  0.032000658  0.031882454            8 
 2221000   0.90850806   -6.3174801    852.64484  0.031991777  0.031874025            6 
 2222000    0.9063838    -6.307759    852.86661  0.031985697  0.031865608            5 
 2223000   0.90667449   -6.2607873    855.40567  0.032066489  0.031857354            2 
 2224000   0.88474691    -6.319542    852.42402  0.031940349  0.031849111            5 
 2225000   0.89920345   -6.3133488    853.87103  0.031980188  0.031840755            6 
 2226000   0.89534555   -6.3071081    853.34644  0.031946183  0.031832499            4 
 2227000   0.91072354   -6.3105282    853.61588   0.03194192  0.031824134            8 
 2228000    0.9034543   -6.3121524    853.34208  0.031917343  0.031815739            8 
 2229000   0.89087094   -6.3134616    853.81684  0.031920773  0.031807411            6 
 2230000   0.88883423   -6.3205267    853.93991  0.031911058  0.031799059           11 
 2231000   0.89492117   -6.2858811    852.56283  0.031845317  0.031790638            5 
 2232000    0.9187255   -6.3148986    851.70698  0.031799096  0.031782257            7 
 2233000   0.88233294   -6.3570169    848.89151  0.031679785   0.03177372            5 
 2234000   0.88170558   -6.3021738    851.30383  0.031755589  0.031765198            4 
 2235000    0.8994564   -6.3414554    851.52872  0.031749766  0.031756796            4 
 2236000   0.89182897   -6.3514765    852.97092  0.031789316  0.031748233            6 
 2237000   0.89741461   -6.3272469    854.10742  0.031817442  0.031739775            4 
 2238000   0.90247699   -6.3053885    856.08321  0.031876795  0.031731329            8 
 2239000   0.86588707   -6.3403074    854.52308  0.031804491  0.031722885           11 
 2240000    0.9001587   -6.3301095    853.17839  0.031740268  0.031714378            8 
 2241000   0.89410422   -6.3249673    853.53232  0.031739265  0.031705921            3 
 2242000   0.90542531    -6.370259    851.11176  0.031635138  0.031697362            7 
 2243000   0.91321874   -6.2973133    853.53193   0.03171095  0.031688732            4 
 2244000   0.88072803   -6.3018598    851.57879  0.031624287  0.031680161            6 
 2245000   0.88912853   -6.3406447    852.53854  0.031645826  0.031671604            4 
 2246000   0.88586891   -6.3496916    852.50619  0.031630535   0.03166294            6 
 2247000   0.91153396   -6.3533357    849.31575  0.031498136  0.031654266           11 
 2248000   0.90512974   -6.3147599    855.03411  0.031696104  0.031645646            4 
 2249000   0.90452455   -6.3076452    853.60393  0.031629018  0.031637131           11 
 2250000   0.88272105     -6.33133    852.67343  0.031580497  0.031628586            7 
 2251000   0.87964557   -6.3050402    856.18113  0.031696325  0.031620039            4 
 2252000   0.87947133   -6.3135953    857.35683  0.031725756  0.031611524            4 
 2253000   0.88481034   -6.3021141    856.79594  0.031690928  0.031602894            4 
 2254000   0.88591207   -6.2969953    855.71078  0.031636749  0.031594441            6 
 2255000   0.88348742   -6.3260033    854.73289  0.031586581  0.031585905            6 
 2256000   0.89016511   -6.3607426    855.24467  0.031591484   0.03157736            8 
 2257000   0.88684038   -6.3222865    855.28704  0.031579052  0.031568867            7 
 2258000   0.90612091    -6.346665    854.28606  0.031528124  0.031560242            3 
 2259000   0.88044143   -6.3322722    853.78439  0.031495662  0.031551639           15 
 2260000   0.88300129   -6.3624286    852.90514  0.031449304  0.031543026            6 
 2261000   0.91403147    -6.367474    856.24859  0.031558624  0.031534422            5 
 2262000   0.89157574    -6.333464    855.57204  0.031519748  0.031525743            7 
 2263000   0.91503224   -6.3313785    857.14206  0.031563635  0.031517102            6 
 2264000   0.90577869    -6.297921    857.07789  0.031547331  0.031508588            5 
 2265000   0.89876642   -6.3463252    858.02931  0.031568407  0.031500182            9 
 2266000   0.88883091   -6.3365602    857.57374  0.031537722  0.031491757           18 
 2267000   0.90257127   -6.3138606    858.40729  0.031554451  0.031483333           10 
 2268000   0.88704811   -6.3518541    857.73276  0.031515754  0.031474795            6 
 2269000   0.89159176   -6.3288378    856.72899  0.031464999  0.031466192            6 
 2270000   0.90542207   -6.3524298    857.44449  0.031477404   0.03145758            4 
 2271000   0.87844665   -6.3473689    860.20547  0.031564856  0.031448988            4 
 2272000   0.87840154    -6.320338    856.69225  0.031422104  0.031440431            8 
 2273000   0.87358518   -6.3034966    860.72403  0.031556095  0.031431932            5 
 2274000   0.89764252    -6.389819    855.75781  0.031360225  0.031423408           11 
 2275000   0.87003328   -6.3283031    859.36916  0.031478724  0.031414879           10 
 2276000   0.88129779   -6.3336408    857.70999  0.031404144  0.031406415            4 
 2277000   0.88837074   -6.3095715    859.03143  0.031438714    0.0313979            6 
 2278000   0.89134919   -6.3779281    857.04967  0.031352417  0.031389379            4 
 2279000   0.91914056   -6.3142391    859.52501  0.031429173  0.031380815            4 
 2280000   0.86809004   -6.3606447    859.28826  0.031406735   0.03137232            7 
 2281000   0.88655513   -6.3289707    859.32214  0.031394204  0.031363851            5 
 2282000   0.87951377   -6.3569635    857.90027  0.031328523  0.031355307            6 
 2283000    0.8737759   -6.3362408    858.70565  0.031344198  0.031346809            5 
 2284000   0.88685314   -6.3489466    860.16366  0.031383671  0.031338264            9 
 2285000   0.88039804    -6.299354    861.57793  0.031421514  0.031329751            4 
 2286000   0.86978159   -6.3500948    859.79316  0.031342708  0.031321297            5 
 2287000   0.91336176   -6.3288874    861.08308  0.031376005   0.03131279            5 
 2288000   0.88172285   -6.3631711    860.12314  0.031327329  0.031304217            3 
 2289000   0.87859814   -6.3412848    858.58376    0.0312576  0.031295549            8 
 2290000   0.86918847   -6.3527756    860.94871  0.031330011  0.031286862            7 
 2291000   0.88618509   -6.3566372    860.78001    0.0313102  0.031278263            6 
 2292000   0.89636303   -6.3414616    860.86566  0.031299653  0.031269728            4 
 2293000   0.88519574   -6.3499001    860.83055  0.031284727  0.031261213            6 
 2294000   0.88738429   -6.3515893    862.13343  0.031318419  0.031252678            7 
 2295000   0.88401092   -6.3418006    861.30576  0.031274719  0.031244148            7 
 2296000   0.90346317   -6.3822378    861.37816  0.031263725  0.031235625            4 
 2297000     0.864125   -6.3468466    860.71088  0.031225906  0.031227131            3 
 2298000   0.88156327   -6.3422154    863.61415    0.0313176  0.031218556            2 
 2299000   0.89689044   -6.3705249    859.73983  0.031163543  0.031210052           10 
 2300000   0.90440706   -6.3139017     862.3796  0.031245638  0.031201537            6 
 2301000    0.8956635   -6.3466315    861.67009  0.031206363  0.031193023            7 
 2302000   0.88838734   -6.3460931    862.35378  0.031217557  0.031184437            7 
 2303000    0.8840196   -6.3368596    861.24383  0.031163838  0.031175847            6 
 2304000   0.86949986   -6.3453542    863.22195  0.031221859  0.031167354            8 
 2305000   0.87469476   -6.3752677    861.09665  0.031131477  0.031158786            6 
 2306000   0.89503731   -6.3500853    860.33436  0.031090429  0.031150201            6 
 2307000   0.87723619   -6.3423639    862.97428  0.031172312  0.031141608            6 
 2308000   0.89113641   -6.3200662    863.95126  0.031194081  0.031132946            5 
 2309000   0.88227785    -6.343027    864.55579  0.031202389  0.031124366            7 
 2310000   0.89433264   -6.3533145    863.57413  0.031153468  0.031115793            6 
 2311000   0.89402795   -6.3459444    863.98064  0.031154646  0.031107201            9 
 2312000     0.876692   -6.3804335    860.88079   0.03102944  0.031098608            5 
 2313000   0.88129713   -6.3604748    864.43284  0.031143999  0.031090137            4 
 2314000   0.88882533   -6.3395063    864.04483  0.031116567  0.031081573            7 
 2315000   0.90512397   -6.3706971     864.1351  0.031106375  0.031073028            4 
 2316000   0.87354335   -6.3419609    865.94563   0.03115809  0.031064563            4 
 2317000    0.8793504   -6.3540935    865.32749   0.03112241  0.031056074            6 
 2318000   0.88838511    -6.376518    867.14405   0.03117429  0.031047507            4 
 2319000   0.87247147   -6.3324589    865.57376  0.031104419  0.031039037            4 
 2320000   0.85607373   -6.3548789    868.26859  0.031187809  0.031030669            6 
 2321000   0.87275794   -6.3376803    865.69713  0.031082045  0.031022172            4 
 2322000   0.88070866   -6.3410203    867.79078  0.031143798  0.031013756            5 
 2323000   0.86574936   -6.3219916    866.46414    0.0310828   0.03100525            8 
 2324000   0.90422443   -6.3780234    866.44795  0.031068845  0.030996797            4 
 2325000   0.87346777   -6.3269585    868.15501  0.031116667  0.030988317            3 
 2326000   0.88038265   -6.3550769     865.2161  0.030997997  0.030979893            7 
 2327000   0.86604824   -6.3825787    867.44596  0.031064531  0.030971441            5 
 2328000   0.88224029   -6.3733829    865.40035  0.030977962   0.03096302           10 
 2329000   0.86876274   -6.3660003    868.83956  0.031087718  0.030954529            2 
 2330000   0.87813396   -6.3707577    865.59569  0.030958358  0.030946049            4 
 2331000   0.88655777   -6.3526567    869.24457  0.031075525  0.030937658            5 
 2332000    0.8807732   -6.3637768    867.52841  0.031000872  0.030929231            9 
 2333000   0.87855306   -6.3651106    866.67392  0.030957062  0.030920892            3 
 2334000   0.88224415   -6.3694944    867.00093  0.030955474  0.030912505            8 
 2335000   0.87402484   -6.3582843    870.74676  0.031075901  0.030904096            7 
 2336000   0.87436959   -6.3609144    869.50145  0.031018174  0.030895782            4 
 2337000   0.87459368   -6.3941523      869.839  0.031016938  0.030887513            5 
 2338000   0.86986632   -6.3860082    868.31124  0.030949217  0.030879216            4 
 2339000   0.86635041   -6.3546744     871.0596  0.031033903  0.030870805            3 
 2340000   0.85845825   -6.3643373    870.09049  0.030986128  0.030862377            9 
 2341000   0.88187416   -6.3644184    867.78184   0.03089071  0.030853919           13 
 2342000   0.90034784   -6.3769136    869.50405  0.030938801   0.03084553            3 
 2343000   0.87542218   -6.3599668    872.54341  0.031033696  0.030837191            6 
 2344000   0.86827654   -6.4195638    869.69172  0.030919074  0.030828768            6 
 2345000   0.88223136   -6.3689561    870.50917  0.030934939  0.030820215            4 
 2346000   0.87277141   -6.3904088    869.30669  0.030879038  0.030811805           10 
 2347000   0.88091283   -6.3574098    871.44462  0.030941792  0.030803456           11 
 2348000   0.86576084   -6.3307643    872.64134  0.030971087   0.03079521            5 
 2349000   0.87787559   -6.3816417     869.9837  0.030863619  0.030786906            4 
 2350000   0.86188358   -6.3631235     870.8565  0.030881436  0.030778501            8 
 2351000   0.88430422   -6.4092934    868.91467  0.030799471  0.030770094            4 
 2352000   0.89172613   -6.3839742     871.5664  0.030880329  0.030761629           11 
 2353000   0.86731904   -6.4035713    869.58665  0.030797091  0.030753194            6 
 2354000   0.88898127   -6.3900987     868.5335  0.030746726  0.030744712           15 
 2355000   0.86494453   -6.4099605    871.37217  0.030834118   0.03073636           10 
 2356000   0.86514894   -6.3528475    872.62905  0.030865487  0.030727931            6 
 2357000   0.87785395   -6.3556944    874.17144  0.030906924  0.030719584           13 
 2358000   0.88176949   -6.3466774    874.83656  0.030917323  0.030711257            3 
 2359000   0.87478839   -6.3953059     872.1331  0.030808715   0.03070294            5 
 2360000   0.86617137   -6.3574103    872.45337  0.030806969  0.030694668            8 
 2361000   0.87252282   -6.3644045    870.45506  0.030723389  0.030686366            8 
 2362000   0.88897124   -6.3805842     873.5912  0.030821027  0.030677989           11 
 2363000   0.86436456   -6.3563593    874.19827  0.030829393  0.030669684            3 
 2364000   0.85639649   -6.3715676    872.97438  0.030773208  0.030661424            6 
 2365000   0.86646825   -6.3768363    875.83575   0.03086102  0.030653198            7 
 2366000   0.86675531   -6.3824438    873.67435  0.030771849   0.03064492           15 
 2367000   0.88476324   -6.3594907    872.90302  0.030731693  0.030636641            7 
 2368000   0.85941026   -6.3265073    873.14611   0.03072727  0.030628345            7 
 2369000   0.86802637   -6.3895425    874.78921  0.030772098  0.030620081            8 
 2370000   0.85730792    -6.374111     873.9846  0.030730823  0.030611814            6 
 2371000   0.87290637   -6.3769264    873.09373   0.03068655  0.030603549           11 
 2372000   0.86368467   -6.3973732    872.85925  0.030665375  0.030595242            3 
 2373000   0.86814508   -6.3828849    872.47776  0.030639056  0.030586941            7 
 2374000   0.86992369   -6.3786558    874.35943  0.030692201  0.030578565            4 
 2375000   0.87359809   -6.3703458    875.07792  0.030704488  0.030570311            3 
 2376000   0.86220565   -6.3733466    872.40157  0.030597698  0.030562035            3 
 2377000   0.86685849   -6.3709564    875.34144  0.030687892  0.030553756            7 
 2378000   0.88789394   -6.3948596    876.08225  0.030700948  0.030545547           15 
 2379000   0.89389419   -6.3588134    877.63784  0.030742533  0.030537261            3 
 2380000   0.86627418   -6.3740131     874.0833  0.030605158  0.030528996            8 
 2381000   0.88108731   -6.3425984    879.21654  0.030771963  0.030520739            2 
 2382000   0.87588227   -6.3871482    876.11958  0.030650699  0.030512406            9 
 2383000   0.87355105   -6.3637982     875.8761  0.030629322  0.030504135            4 
 2384000   0.89120371   -6.4196135    876.47762  0.030637501  0.030495782            6 
 2385000   0.87506935   -6.4161503    875.59073  0.030593666   0.03048737            5 
 2386000   0.87964279   -6.3582454     876.6891  0.030619206  0.030479037            4 
 2387000    0.8628111   -6.3485142    879.52892   0.03070552  0.030470794            4 
 2388000   0.89029753   -6.3995901    874.26519  0.030508975  0.030462454            5 
 2389000   0.86021115   -6.3832834    877.40075  0.030605579  0.030454074            6 
 2390000    0.8872408   -6.3895219    875.52882  0.030527504  0.030445726           10 
 2391000   0.88326464   -6.3782992    878.38227  0.030614188  0.030437375           11 
 2392000   0.87585113   -6.4042636    876.37941  0.030531613  0.030428948            6 
 2393000    0.8480707   -6.4078505     875.7856  0.030498175  0.030420637            8 
 2394000   0.88653852   -6.3798415    878.18766   0.03056905  0.030412245            4 
 2395000   0.89054952   -6.4010728    876.52002  0.030498261   0.03040391            6 
 2396000   0.87032357   -6.4017979     877.5642  0.030521849  0.030395647            6 
 2397000   0.87034097   -6.3955058    878.58509  0.030544607  0.030387278            4 
 2398000   0.86872731   -6.3619971    879.92765  0.030578525  0.030378935           11 
 2399000   0.86510787   -6.3915369    877.75442  0.030490288  0.030370594            3 
 2400000   0.87337851   -6.3611522     877.5293  0.030469767  0.030362224            3 
 2401000   0.87436824   -6.3828078    877.80956  0.030466804  0.030353889           14 
 2402000   0.87851156   -6.3824737    877.59681  0.030446739  0.030345585            5 
 2403000   0.86468972   -6.3658834    877.94568  0.030446167  0.030337194            6 
 2404000   0.85857337   -6.3915102    879.35209  0.030482255  0.030328898            6 
 2405000   0.84489661   -6.3795524     878.5176  0.030440665  0.030320744            8 
 2406000   0.86669721   -6.3723631    879.70293  0.030469068  0.030312567            8 
 2407000   0.86485181   -6.3972993    879.90436  0.030463383  0.030304411           10 
 2408000   0.86225716   -6.4005741    880.26932  0.030463362  0.030296115            4 
 2409000   0.85452796   -6.4428421    876.59447  0.030323594  0.030287751            5 
 2410000   0.86934314   -6.3628909    882.45568  0.030513682  0.030279425            8 
 2411000   0.87131435   -6.4060281    878.47933  0.030363588  0.030271269            9 
 2412000   0.86784001   -6.3380743     881.6079   0.03045909  0.030263098           11 
 2413000   0.86507604   -6.3678618    883.12518  0.030498867  0.030254955            6 
 2414000   0.86996475   -6.4392508     881.8598   0.03044255  0.030246889            4 
 2415000   0.87569121   -6.3993241    880.84168  0.030394813  0.030238705            9 
 2416000   0.87777707   -6.3738884    884.54721  0.030510045  0.030230565            5 
 2417000   0.87261708   -6.4322945    879.62875  0.030327843  0.030222364            8 
 2418000   0.86404227   -6.4161591    880.94198  0.030360559  0.030214089            5 
 2419000   0.85548169   -6.3761957    880.19422  0.030322248  0.030205935            6 
 2420000   0.87667674   -6.3921939    882.37307  0.030384748  0.030197782            4 
 2421000   0.85277465   -6.3885844    880.41063  0.030304648  0.030189635            8 
 2422000   0.87963399   -6.3906431     881.3916  0.030325888   0.03018145            7 
 2423000   0.87900016   -6.4126304    881.10485   0.03030351  0.030173254           13 
 2424000    0.8757367   -6.3666382    884.45602  0.030406216  0.030165052            6 
 2425000   0.85266092   -6.4005362    883.09383  0.030346867  0.030156916            4 
 2426000   0.86854378   -6.3797639    882.18935  0.030303289   0.03014869            4 
 2427000   0.87284187   -6.4100184    883.19818  0.030325442  0.030140512            8 
 2428000   0.87084015   -6.3717484    884.46227  0.030356338  0.030132314            8 
 2429000    0.8679917   -6.4098174    881.86202  0.030254632   0.03012413            5 
 2430000    0.8654161   -6.4047581    883.78388  0.030308089  0.030116002            6 
 2431000   0.86747388   -6.4562192    882.00075  0.030234497  0.030107759            5 
 2432000   0.85380556   -6.3926156    883.26938  0.030265535  0.030099534           12 
 2433000   0.85483104   -6.3818347      883.256  0.030252637  0.030091397            7 
 2434000   0.84970637   -6.4104011    884.82035  0.030293767  0.030083276            7 
 2435000   0.87178366   -6.3913691     882.6494   0.03020703  0.030075117            6 
 2436000   0.86853116   -6.3996476    886.20356  0.030316214  0.030067019            5 
 2437000   0.87470394   -6.4079236    886.69467  0.030320567  0.030058959           11 
 2438000   0.85368925   -6.4253904    884.15398  0.030221287   0.03005083            7 
 2439000   0.86241861   -6.3896723    885.52822   0.03025585  0.030042674            7 
 2440000   0.87516051   -6.3842792    884.09091  0.030194362  0.030034518            3 
 2441000   0.86057308   -6.4090501    887.43997  0.030296325  0.030026448            6 
 2442000   0.88334605   -6.4172088    886.62179  0.030255999  0.030018322            4 
 2443000   0.87183964   -6.3898199    884.94193  0.030186312  0.030010192            3 
 2444000    0.8506727   -6.3979643    886.50918    0.0302274   0.03000205            4 
 2445000   0.85509106   -6.4130225    883.36495  0.030107871  0.029993897            7 
 2446000   0.84962009   -6.4245983    886.51988  0.030203049  0.029985631            8 
 2447000   0.87138962   -6.4169745    886.07998  0.030175725  0.029977462           14 
 2448000   0.85922206   -6.4158324    885.56832  0.030145981  0.029969341            6 
 2449000    0.8744041   -6.3701906    884.85645  0.030109448  0.029961211            9 
 2450000   0.87778617   -6.4079537    883.71674  0.030058392   0.02995297            6 
 2451000   0.85028685   -6.4472125    884.83237   0.03008406  0.029944746            7 
 2452000   0.85186852   -6.4357007    884.02698  0.030044419  0.029936492            8 
 2453000   0.85707546   -6.4534449    885.14416  0.030070124  0.029928256            9 
 2454000   0.87401638   -6.3996452     885.7778  0.030079387   0.02991994            7 
 2455000   0.85463829   -6.4447128    886.23546   0.03008267  0.029911734            8 
 2456000   0.86106987   -6.4027799    885.83599  0.030056867  0.029903487           12 
 2457000   0.84890517   -6.4177781    885.71262   0.03004045  0.029895293            7 
 2458000   0.87087439   -6.4080892    884.74839  0.029995538  0.029887054            8 
 2459000   0.85126622   -6.4250584    886.27377  0.030035033  0.029878806            5 
 2460000   0.87328258   -6.4183073    884.67996  0.029968833   0.02987059           12 
 2461000   0.83928749   -6.4342959     883.2674  0.029908824  0.029862318            7 
 2462000   0.83611516   -6.4294772    886.95135   0.03002137  0.029854028            4 
 2463000   0.84470833   -6.4455715    885.04767  0.029944772  0.029845805            7 
 2464000   0.85467917   -6.3910534     885.9783  0.029964093  0.029837558            8 
 2465000   0.85234507   -6.3917109    886.72949  0.029977332  0.029829315            9 
 2466000   0.87430317   -6.4139356    888.85709  0.030037074  0.029821126            5 
 2467000   0.84565273   -6.4116401    885.66625  0.029917114  0.029812977            3 
 2468000   0.86228334   -6.4201812    886.31726  0.029926974  0.029804768            8 
 2469000   0.85816945   -6.4202017    886.48341  0.029920461  0.029796436            6 
 2470000   0.85919203    -6.403096     890.3208  0.030037814  0.029788173            7 
 2471000   0.86561882   -6.4202353    884.79352  0.029839253  0.029779938            6 
 2472000   0.86852822   -6.4120054    886.68613  0.029890983  0.029771657            5 
 2473000   0.85696341   -6.4209812    886.21488  0.029863017   0.02976335            4 
 2474000   0.84852378      -6.4086    886.58315  0.029863351  0.029755087            3 
 2475000    0.8595018   -6.4604886     884.1468  0.029769253  0.029746806            3 
 2476000    0.8486038    -6.434138    887.29706  0.029863256   0.02973845            7 
 2477000   0.86315229   -6.4168231    886.68462  0.029830596  0.029730123            3 
 2478000   0.84472945    -6.428701    885.76285  0.029787559   0.02972186            6 
 2479000   0.85145227   -6.4287262    886.98511   0.02981663  0.029713488            6 
 2480000    0.8630858   -6.4093728    889.28181  0.029881781  0.029705201            4 
 2481000    0.8636738   -6.4106306     890.1893  0.029900218   0.02969697            6 
 2482000   0.85584967   -6.4520044    887.09692  0.029784345  0.029688704            5 
 2483000   0.86635666   -6.4249344    887.06389  0.029771241    0.0296804           11 
 2484000    0.8488201   -6.4381467    886.97959  0.029756428  0.029672046           12 
 2485000    0.8384318   -6.4467853    885.89086  0.029707943  0.029663673            6 
 2486000   0.85536875   -6.4286261    890.20311  0.029840544  0.029655288            4 
 2487000   0.85678891   -6.4267887    887.22806  0.029728859  0.029647058            9 
 2488000   0.86679976   -6.4205215    889.31797  0.029786909  0.029638864           17 
 2489000   0.86272515   -6.4244919    887.23818  0.029705309  0.029630547           15 
 2490000   0.85691303   -6.4195914    891.66924  0.029841675  0.029622273            8 
 2491000   0.84417134   -6.4185387    890.70985    0.0297976  0.029614046            4 
 2492000   0.85685676   -6.4554687    889.70584  0.029752068  0.029605819            6 
 2493000   0.86038957   -6.4216478    890.89311  0.029779821  0.029597582            5 
 2494000    0.8663724   -6.4139931    890.78083  0.029764128  0.029589297            9 
 2495000   0.84597767   -6.4509687    886.71985  0.029616562  0.029580992            8 
 2496000   0.84384147   -6.4511398    888.32064  0.029658141  0.029572689            6 
 2497000   0.86728335   -6.4572548    889.42657  0.029683172  0.029564389            8 
 2498000   0.85928955   -6.4089702     890.2504  0.029698772  0.029556088            6 
 2499000   0.84728926    -6.431691    888.82471  0.029639346  0.029547831           11 
 2500000   0.85069905   -6.4695478     885.5512  0.029518373  0.029539553            6 
 2501000   0.86006505   -6.4014296    892.81078   0.02974846  0.029531246           11 
 2502000   0.84660617   -6.4096456    890.25416  0.029651418  0.029522955            7 
 2503000    0.8526833   -6.4622741    891.47398  0.029680183  0.029514612            6 
 2504000   0.83595563   -6.4619998    888.31894   0.02956333  0.029506228            7 
 2505000   0.82912245   -6.4298503     888.8989  0.029570822  0.029497847            6 
 2506000   0.83834483   -6.4107819    893.13407  0.029699856  0.029489578            4 
 2507000    0.8529621   -6.4396525    891.07734  0.029619643  0.029481393            7 
 2508000   0.85472649   -6.4439467    890.45209  0.029587058  0.029473156           14 
 2509000   0.85497378   -6.4293683    890.74197  0.029584893  0.029464903            9 
 2510000   0.86964492   -6.4561644    890.22057  0.029555796  0.029456583           10 
 2511000    0.8264482   -6.4419477    889.17195  0.029509224  0.029448266            7 
 2512000   0.85124176   -6.4580206    891.03706   0.02955935  0.029440025           18 
 2513000   0.87354637   -6.4147895    895.01843  0.029679614  0.029431806            8 
 2514000   0.84548111   -6.4405621    891.33601  0.029545744  0.029423615            4 
 2515000   0.82236793   -6.4386542    892.51107  0.029572931  0.029415357            8 
 2516000   0.84655604   -6.4549802    891.76773  0.029536557   0.02940711            6 
 2517000   0.85334227   -6.4066718    894.24072  0.029606699  0.029398905            7 
 2518000   0.84594026   -6.4062511    893.75141  0.029578747   0.02939082            5 
 2519000   0.84517229     -6.43444    892.44919  0.029523924  0.029382635            5 
 2520000   0.84792448   -6.4355667    894.30708  0.029573647  0.029374452            3 
 2521000   0.83631265   -6.4385431    893.60424  0.029538683  0.029366241           10 
 2522000   0.84840678   -6.4791464    891.48506  0.029456947  0.029357969            7 
 2523000    0.8518837   -6.4758906    891.49095  0.029445467  0.029349718            5 
 2524000   0.83955754   -6.4838749    892.81243  0.029477431  0.029341454           15 
 2525000   0.83295985   -6.4206595    894.64847  0.029526352  0.029333216            5 
 2526000   0.83871267   -6.4554899    894.49847  0.029509715  0.029325067            9 
 2527000   0.84416701   -6.4224142    898.01722  0.029614075  0.029316955            6 
 2528000   0.84374129   -6.4609927    893.71812  0.029460645  0.029308816            8 
 2529000   0.87241474   -6.4496867    894.71873  0.029481967  0.029300656            6 
 2530000   0.83255208    -6.480644    895.21944  0.029486806   0.02929248            5 
 2531000   0.85109722   -6.4368871    893.61359  0.029422283  0.029284319            7 
 2532000   0.83488144   -6.4438941    894.08622  0.029426218  0.029276143            9 
 2533000   0.84285648   -6.4750059    894.09977  0.029415047  0.029267916           11 
 2534000   0.84345662   -6.4504374    892.03311  0.029335475  0.029259673            6 
 2535000   0.84854176   -6.4070958    896.84853    0.0294822    0.0292514            5 
 2536000    0.8418129   -6.4232834    897.17354  0.029481254  0.029243252            7 
 2537000   0.82758089   -6.4386852    894.54211  0.029383199   0.02923507            4 
 2538000   0.84447587   -6.4575573     896.0555  0.029421313   0.02922686            9 
 2539000   0.82199735   -6.4872278    892.65745  0.029298197  0.029218589            6 
 2540000   0.83870771   -6.4654319    894.98098  0.029362893  0.029210237           12 
 2541000   0.83882329   -6.4424064    896.96149  0.029416289  0.029201931            7 
 2542000    0.8441047   -6.4483864    894.80433     0.029334  0.029193647            5 
 2543000   0.84696694   -6.4461669    896.98176  0.029393818  0.029185392            7 
 2544000    0.8307129   -6.4445828    896.95553  0.029381405  0.029177176           14 
 2545000    0.8463183   -6.4450064    894.29267  0.029282667  0.029168994            8 
 2546000   0.84774817   -6.4474767    895.54181  0.029312052  0.029160754           12 
 2547000   0.85882604   -6.4417558    896.24654  0.029323601  0.029152503            6 
 2548000   0.84202328   -6.4647232    895.15308   0.02927633  0.029144263            5 
 2549000   0.83429107   -6.4602953    893.69248  0.029217094  0.029135962            7 
 2550000   0.82000226   -6.4650916    894.56378  0.029234111  0.029127657            4 
 2551000   0.85914019   -6.4456926    892.89642  0.029168183  0.029119427            9 
 2552000   0.83892849   -6.4349017     896.9803  0.029290109  0.029111258            8 
 2553000   0.84278252   -6.4278241    894.23042  0.029188877  0.029103054            7 
 2554000   0.83693194    -6.463837    893.93546  0.029167824  0.029094807           10 
 2555000   0.84670597   -6.4569853    896.21415  0.029230729  0.029086562            7 
 2556000   0.82824508   -6.4340381    895.15414  0.029184733  0.029078393            3 
 2557000   0.83838783   -6.4375756    895.13257  0.029172617  0.029070167            7 
 2558000   0.84806327   -6.4426216    894.35199  0.029135783  0.029061936            5 
 2559000   0.83605693   -6.4392843    897.03199  0.029211671  0.029053668           10 
 2560000   0.85565978   -6.4529169    896.46501  0.029181804  0.029045375            4 
 2561000   0.84674934   -6.4865045    895.79535  0.029148619  0.029037108           25 
 2562000    0.8333408   -6.4576472    895.36321  0.029123185  0.029028845           19 
 2563000   0.84185803   -6.4931701    893.85032  0.029062632  0.029020647            8 
 2564000    0.8282337   -6.4417364    898.00786  0.029186423  0.029012401            7 
 2565000   0.81926406   -6.4744877    896.38761  0.029122404  0.029004134            6 
 2566000   0.84032671   -6.4649724    898.00199  0.029163484  0.028995909           14 
 2567000   0.83141438   -6.4430925     897.2445  0.029127532  0.028987668           11 
 2568000   0.82743315   -6.4728721    897.35983  0.029119932  0.028979517            7 
 2569000   0.84914074   -6.4441049    901.81409  0.029253084  0.028971317            7 
 2570000   0.84558478   -6.4971106    897.65902  0.029106972  0.028963151            9 
 2571000   0.85679102    -6.471873    895.10528  0.029012877  0.028954958            5 
 2572000   0.84497059   -6.4882276    897.84593  0.029090394  0.028946729           18 
 2573000   0.83830113   -6.4615386    898.66784  0.029105708  0.028938441           30 
 2574000   0.85468808   -6.4995532    895.08853   0.02897852  0.028930185            7 
 2575000    0.8490396   -6.4747907    897.71966  0.029052416  0.028921925            6 
 2576000   0.84622581    -6.465055     899.4085  0.029095772   0.02891375            8 
 2577000   0.83817106   -6.4638469    899.05854  0.029073164  0.028905553            8 
 2578000   0.83833611   -6.4820502    898.00316  0.029027772  0.028897343            6 
 2579000   0.83358012   -6.4663049    899.92533  0.029078626  0.028889219            8 
 2580000   0.83106345    -6.469081    902.27165  0.029143141  0.028881122           11 
 2581000    0.8545246   -6.4670254    902.74879  0.029147255  0.028872971            7 
 2582000   0.84920508    -6.445041    903.47604  0.029159438  0.028864872            7 
 2583000   0.81948702   -6.4809496    900.48642  0.029051698  0.028856761            9 
 2584000   0.82349012   -6.4780332    899.69249  0.029014851  0.028848602            9 
 2585000    0.8190276    -6.476734    900.15456  0.029018522  0.028840441            5 
 2586000   0.84069028   -6.4491171    902.42668  0.029080519  0.028832335            5 
 2587000   0.83345525   -6.4563947    902.63161   0.02907588  0.028824268           12 
 2588000   0.84244224   -6.4629316    902.37685  0.029056441  0.028816174           12 
 2589000   0.83206199   -6.4634669    901.09558  0.029003978  0.028808027            5 
 2590000   0.84013386   -6.4873229    899.82755  0.028951981  0.028799906           13 
 2591000   0.83412733   -6.4406938    903.71661  0.029065889  0.028791841            5 
 2592000   0.85692729   -6.4598887    900.42965  0.028948998   0.02878382            8 
 2593000   0.84055732   -6.4523101    901.87871  0.028984404  0.028775802            6 
 2594000   0.80870043   -6.4860971    901.85204  0.028972373   0.02876768           12 
 2595000   0.82831664   -6.4377435    905.04487   0.02906374  0.028759574           14 
 2596000   0.84233346   -6.4460157    903.31386  0.028996978  0.028751551            7 
 2597000   0.84593671   -6.4465822    904.67883  0.029029612  0.028743539            6 
 2598000    0.8240811    -6.427814    904.21948  0.029003704  0.028735497           16 
 2599000   0.83751537   -6.4538827    899.05355  0.028826906  0.028727438            5 
 2600000   0.84654536   -6.4620406    903.67446  0.028963925  0.028719338            8 
 2601000   0.83080582   -6.4668139    903.58249  0.028949843  0.028711239           11 
 2602000   0.82720689   -6.4878686    902.54172  0.028905384   0.02870323            8 
 2603000   0.85080185   -6.4662535     902.8356  0.028903688  0.028695191            8 
 2604000   0.81709659   -6.4814255    899.44783  0.028784173  0.028687148            7 
 2605000   0.83569324   -6.4941014    901.59751  0.028841891   0.02867901            7 
 2606000   0.83608412   -6.4923956    902.24847   0.02885164  0.028670895            5 
 2607000   0.83318884   -6.5129186      904.001  0.028896593  0.028662827           11 
 2608000   0.83544844   -6.5009785     901.3141  0.028799658   0.02865471            7 
 2609000   0.83698894   -6.5204021    901.51554  0.028795054  0.028646617            7 
 2610000   0.84185516   -6.4948457    904.23648  0.028870897  0.028638523            4 
 2611000   0.82889698   -6.4698668    905.83139  0.028910743  0.028630551           11 
 2612000   0.83225447   -6.4815533    904.74198  0.028864918  0.028622605            5 
 2613000   0.82755703   -6.4864847    907.66566  0.028947112  0.028614711            6 
 2614000   0.83277299   -6.4677032    907.41894  0.028928173  0.028606779           10 
 2615000   0.83379815   -6.4590415    906.32181  0.028882148  0.028598788            6 
 2616000   0.85311852   -6.4642664    906.46774  0.028875756   0.02859078            3 
 2617000   0.81151206   -6.4704071    907.56633  0.028899705  0.028582784           13 
 2618000   0.81726674   -6.4999388    905.47298  0.028822033  0.028574787            6 
 2619000   0.82424246   -6.4422251    909.06968   0.02892547  0.028566844           10 
 2620000    0.8261966   -6.4931729    905.34866  0.028796077  0.028558864            9 
 2621000   0.81735594   -6.4920899    906.83998  0.028832506  0.028550845            4 
 2622000   0.82674668   -6.4669116    903.97512  0.028730458  0.028542822            5 
 2623000   0.83418558   -6.4836589    905.13818  0.028756455  0.028534799            8 
 2624000   0.82164122   -6.4748949     904.9485  0.028739472  0.028526824           15 
 2625000   0.82952917     -6.51413    905.69639  0.028752266  0.028518794            5 
 2626000   0.84917724   -6.4967068    905.62228  0.028738965   0.02851081            6 
 2627000   0.82454709   -6.4583068    906.85213  0.028767039   0.02850288            5 
 2628000   0.82533509   -6.5008087    904.43049  0.028679303  0.028494887            7 
 2629000   0.83351066   -6.4922198    906.68751  0.028739936  0.028486855           13 
 2630000   0.81502899    -6.487234    908.61209   0.02878999  0.028478803            4 
 2631000   0.82146885   -6.4782314    909.06777  0.028793481  0.028470901            9 
 2632000   0.82784331   -6.4982719    906.91371   0.02871434   0.02846297           11 
 2633000   0.84650057   -6.4822933    908.35905  0.028749179  0.028455037            4 
 2634000    0.8188703   -6.4876199    908.02522  0.028727702  0.028447071           19 
 2635000   0.81990052   -6.5146782    906.04944  0.028654315  0.028439098            6 
 2636000   0.84294184   -6.4891359    905.31321   0.02862017   0.02843102            9 
 2637000   0.82387203   -6.5055914    907.07745  0.028665069  0.028422936            7 
 2638000   0.80900499   -6.5222651    906.54917  0.028637515  0.028414937            9 
 2639000   0.85157331   -6.4885039    908.94198  0.028702222  0.028406899            6 
 2640000   0.83427234   -6.4792956    908.28269  0.028670539   0.02839895           10 
 2641000   0.83210461   -6.5025775    908.49122  0.028666264  0.028391043            9 
 2642000   0.83116244   -6.4776548    908.64018  0.028660112  0.028383128            9 
 2643000   0.85194875   -6.4846029    908.67036  0.028650219  0.028375206            6 
 2644000     0.838843   -6.4830107    911.01975  0.028713431  0.028367277            6 
 2645000   0.83318791   -6.4726532    910.24528  0.028678175  0.028359316           11 
 2646000   0.80948542   -6.4725023    908.37428  0.028608412  0.028351352            7 
 2647000   0.82296744   -6.5098538     906.5502  0.028540177  0.028343367            6 
 2648000   0.82834213   -6.4823086     907.5253  0.028560086  0.028335347            8 
 2649000   0.82472456   -6.5101365    907.91973  0.028561713  0.028327327           12 
 2650000   0.81321222   -6.5052952    906.73581  0.028513705  0.028319294            9 
 2651000   0.82525056   -6.4658848    907.25809  0.028519367  0.028311335           16 
 2652000    0.8418745   -6.5089022    907.10465  0.028503791   0.02830331            7 
 2653000   0.80895276   -6.4820648    906.55752  0.028475861  0.028295225            8 
 2654000   0.83613113   -6.5027918    907.39007  0.028491273  0.028287147           13 
 2655000   0.82133469   -6.5007581    906.93468  0.028466249  0.028279054            5 
 2656000   0.83377423   -6.5214811    907.99501  0.028488799  0.028270986            5 
 2657000   0.82852704   -6.4954975    911.40501  0.028585027  0.028262986            8 
 2658000   0.83807633   -6.4933282    906.97065  0.028435247  0.028255004            5 
 2659000   0.82084756   -6.5007373    909.73728   0.02851126  0.028247006            8 
 2660000   0.82999802   -6.5082492    909.42988  0.028490911  0.028238936            9 
 2661000   0.83184848   -6.5057688    909.94545   0.02849635  0.028230843            7 
 2662000   0.80086644   -6.5238856    908.06327  0.028426724  0.028222763           10 
 2663000   0.82527853   -6.5098233    908.80266  0.028439187  0.028214686           14 
 2664000    0.8187048   -6.5229987    907.95674   0.02840205  0.028206616           11 
 2665000   0.82970179   -6.5091994    908.05814  0.028394564  0.028198614            5 
 2666000   0.81707449   -6.4818462    910.59676  0.028463265  0.028190622            7 
 2667000   0.83878777   -6.4938206    906.99747  0.028340128  0.028182651           10 
 2668000   0.80880372   -6.5079885    907.21129  0.028336185  0.028174647            5 
 2669000   0.81472419    -6.496465     911.5639  0.028461468  0.028166594           10 
 2670000    0.8099791   -6.4771641    910.55609  0.028419354  0.028158542            8 
 2671000   0.81918818   -6.4767184     911.9398  0.028451885  0.028150551            5 
 2672000   0.82605169   -6.4965082    909.94822  0.028379124  0.028142503           10 
 2673000   0.83046783   -6.5100015    908.81813  0.028333275   0.02813445           10 
 2674000   0.82619058   -6.5157892    909.34272  0.028339028  0.028126426            5 
 2675000   0.82906573   -6.5144454    907.31788  0.028265354  0.028118388            6 
 2676000   0.82670906   -6.5263992    907.50779  0.028260706   0.02811029            8 
 2677000   0.83935624    -6.475935    908.96125  0.028295394  0.028102194           11 
 2678000   0.82393067   -6.4999478    909.53631  0.028302723  0.028094164           10 
 2679000   0.81039082   -6.4708075    911.81413  0.028363013   0.02808612            5 
 2680000   0.82152578   -6.4773401    911.78052  0.028351384  0.028078169            4 
 2681000   0.82422729   -6.4854129     910.5035  0.028301116  0.028070175            4 
 2682000   0.83639018   -6.5115173    910.53591  0.028291571  0.028062224            5 
 2683000   0.82131909   -6.4987968    912.29241  0.028335582  0.028054226           10 
 2684000   0.82634712   -6.5311982    910.28342   0.02826265  0.028046202            6 
 2685000    0.8294792   -6.5306256    908.42622  0.028194482  0.028038146            5 
 2686000   0.82268352   -6.5298789    909.73929  0.028224723  0.028029996            6 
 2687000   0.81345887   -6.5248204    908.31156  0.028169941   0.02802189           11 
 2688000   0.83024117   -6.5671246    906.54503  0.028104695   0.02801376           15 
 2689000   0.81053961   -6.5197532    910.11116  0.028204759  0.028005668            6 
 2690000   0.82137033   -6.5162593    911.55728  0.028239073   0.02799769           15 
 2691000   0.81671339   -6.5107881    911.37655  0.028222982  0.027989735           10 
 2692000    0.8380423   -6.4988415    913.82462  0.028288281  0.027981757            7 
 2693000    0.8050533   -6.5343754    912.69247  0.028242743  0.027973822            5 
 2694000    0.8227311   -6.5142106    911.82471  0.028205417  0.027965852            6 
 2695000   0.83019224   -6.4599361    914.42317  0.028275299  0.027957893            8 
 2696000   0.82755192   -6.4783956    915.07295  0.028284896  0.027949974           14 
 2697000   0.83002887   -6.5260812    913.10043   0.02821346   0.02794203           15 
 2698000   0.80337977    -6.488923    912.31714   0.02817881  0.027934036            8 
 2699000   0.83589003   -6.4722838      914.329  0.028230487  0.027926121            9 
 2700000   0.82470338   -6.5000377    914.55779  0.028227092  0.027918233            7 
 2701000   0.82781817   -6.5105566    912.38553  0.028149621  0.027910299            6 
 2702000   0.80691274   -6.4931438    915.22812  0.028226873  0.027902377            7 
 2703000   0.81329171   -6.5238781    910.13063  0.028059275  0.027894447            8 
 2704000   0.82054682   -6.5371644    913.83125  0.028162945  0.027886503            6 
 2705000   0.82403197   -6.5367532    912.87828  0.028123176  0.027878548            5 
 2706000    0.8132855   -6.5404804    913.13743  0.028120764  0.027870559            6 
 2707000   0.79041646   -6.5255119    912.31198  0.028084964  0.027862562            9 
 2708000   0.83809144    -6.542641    915.82207  0.028182609   0.02785458           12 
 2709000   0.82054662   -6.5292471    912.64391   0.02807444   0.02784662            9 
 2710000   0.82165538   -6.5129955    911.51531  0.028029376  0.027838608           18 
 2711000     0.837258   -6.5254453    912.20182   0.02804014  0.027830585            6 
 2712000   0.81895634   -6.5199669    913.98337  0.028084543  0.027822598            8 
 2713000   0.81436235    -6.478753    915.29081  0.028114351   0.02781472            9 
 2714000   0.80322725   -6.5148523    914.38586  0.028076206  0.027806819            4 
 2715000   0.79924657   -6.4979304    914.13133  0.028058052  0.027798846            5 
 2716000   0.82814195   -6.5143868      914.096  0.028046637  0.027790876            7 
 2717000   0.81576064   -6.5152901    915.12864  0.028067987  0.027782903            4 
 2718000   0.81972332   -6.5273882     912.5118  0.027977428  0.027774944            8 
 2719000    0.8286022   -6.5160245    913.30574  0.027991472   0.02776706            4 
 2720000   0.81908827   -6.5384283    913.99479  0.028002291  0.027759092            6 
 2721000   0.83793685   -6.5359132    911.51153  0.027915948  0.027751117            6 
 2722000    0.8255395   -6.5371787    913.03623  0.027952371  0.027743084            7 
 2723000   0.81693744   -6.5125047    916.24903  0.028040428  0.027735134           11 
 2724000   0.80633859    -6.564799     912.6778  0.027920882  0.027727125            8 
 2725000   0.81140278   -6.5467013    914.16209  0.027956027  0.027719098            4 
 2726000   0.80825446    -6.562862    913.60833  0.027928844  0.027711074            6 
 2727000   0.83276072   -6.5136219    916.67892  0.028012435   0.02770312           14 
 2728000   0.79777916   -6.5505297     916.7987  0.028005825  0.027695146            7 
 2729000   0.80599944   -6.5302979     915.5453  0.027957289  0.027687157           10 
 2730000   0.81251537   -6.5551553    913.30523   0.02787867   0.02767912           11 
 2731000   0.80862948   -6.5404428    913.64145  0.027878721  0.027671138            9 
 2732000   0.81622882   -6.5427273    914.71827  0.027901362  0.027663134           12 
 2733000   0.80585944   -6.5369935    914.87716  0.027895998  0.027655104            8 
 2734000   0.81376771   -6.5095131     917.1543  0.027955203   0.02764717            6 
 2735000    0.7954377   -6.5362251     915.5322  0.027895558  0.027639236           18 
 2736000   0.82456625   -6.5427484    915.80461  0.027893659  0.027631281            8 
 2737000   0.81382468   -6.5365557    914.62275  0.027847483  0.027623297           10 
 2738000   0.81674076   -6.5412213    914.00864  0.027818622  0.027615333            8 
 2739000   0.80246884   -6.4944204    915.43793  0.027851951  0.027607429           27 
 2740000   0.81186487   -6.5570049    913.43663   0.02778092  0.027599438            8 
 2741000    0.8207829   -6.5546059    914.54707  0.027804544  0.027591452            5 
 2742000   0.80782428   -6.5387091    917.42593  0.027881897   0.02758344            9 
 2743000   0.81231495   -6.4946911    919.08096  0.027922012  0.027575456           25 
 2744000   0.81307716   -6.5223391    916.47415   0.02783267  0.027567512           10 
 2745000   0.81569573   -6.5416035    916.84345  0.027833742   0.02755954            9 
 2746000   0.80476444   -6.5369019     914.5444  0.027753836  0.027551547            9 
 2747000   0.78810273   -6.5349462    916.52396  0.027803785  0.027543567            7 
 2748000   0.80951961   -6.5059067    918.68264  0.027859129  0.027535593            6 
 2749000   0.81661314   -6.5442423    914.03614   0.02770814  0.027527606           12 
 2750000   0.81235667   -6.5324485    916.79127  0.027781554  0.027519554            7 
 2751000   0.79501537   -6.5603008    914.94684  0.027715583  0.027511586           13 
 2752000    0.8065539   -6.5543532    915.78565  0.027730912  0.027503597            7 
 2753000   0.80347071   -6.5615381    916.82408  0.027752273  0.027495662           11 
 2754000   0.80743199   -6.5312487    917.89006  0.027774451  0.027487722            7 
 2755000   0.80880452   -6.5103288    918.06087  0.027769536  0.027479863            6 
 2756000     0.817985   -6.5054243    917.43209  0.027740448  0.027471982           14 
 2757000    0.7922511   -6.5328116    916.14506  0.027691484  0.027464028           12 
 2758000   0.82610945   -6.5375073    918.16066  0.027742345  0.027456062            8 
 2759000   0.81415503   -6.5456847    916.53506   0.02768319  0.027448122            7 
 2760000   0.82223258   -6.5158953     919.8257  0.027772515   0.02744014            5 
 2761000   0.82626261   -6.5056031    917.53151  0.027693212  0.027432201           11 
 2762000    0.8097044   -6.5448367    916.11944  0.027640582   0.02742423            8 
 2763000   0.82129263   -6.5492021    917.52529  0.027672979  0.027416279            8 
 2764000   0.80854665   -6.5618581     915.9225  0.027614644   0.02740833            9 
 2765000   0.79398632    -6.556982    916.78441  0.027630633  0.027400358            8 
 2766000   0.81488054   -6.5738596    917.00086  0.027627165  0.027392375            5 
 2767000   0.82155864   -6.5506633    917.49184  0.027631967  0.027384396            5 
 2768000   0.83347321   -6.5207011    918.08546  0.027639856  0.027376449            3 
 2769000   0.81262193   -6.5606674      919.179  0.027662784  0.027368502            4 
 2770000   0.80507543   -6.5542002    917.20629   0.02759345  0.027360526            7 
 2771000   0.80557085   -6.5410564    918.05414   0.02760899  0.027352643            5 
 2772000   0.80384824   -6.5313988    919.88954  0.027654207  0.027344676           18 
 2773000   0.80000636   -6.5572338    915.67795  0.027517669  0.027336696           12 
 2774000   0.81511586   -6.5724899    915.53056  0.027503321  0.027328697           11 
 2775000   0.80290347   -6.5150041     920.3221    0.0276373  0.027320763            4 
 2776000   0.81597655   -6.5876174    916.54031  0.027513818  0.027312727           12 
 2777000   0.79037802   -6.5515426    918.57107   0.02756485   0.02730469            4 
 2778000   0.81643684   -6.5601151    917.67376   0.02752801  0.027296671            8 
 2779000   0.81268798   -6.5432468     919.4505  0.027571384  0.027288676            5 
 2780000   0.81320479    -6.538837    918.24281  0.027525264  0.027280644            8 
 2781000   0.80226465   -6.5456906    918.38219  0.027519543  0.027272677            7 
 2782000     0.806743   -6.5499076    918.24958  0.027505679   0.02726468            7 
 2783000    0.7975778   -6.5463953    917.14825  0.027462817  0.027256747            6 
 2784000   0.80385114    -6.581776    917.63547  0.027467537  0.027248792           10 
 2785000   0.81095472   -6.5446947    918.00307  0.027468674  0.027240796            9 
 2786000   0.80275257   -6.5654555    919.40225  0.027500666  0.027232784            9 
 2787000    0.8197259   -6.5754479     920.7547  0.027531237  0.027224793            8 
 2788000    0.7966493   -6.5746738    921.88661  0.027555195  0.027216863            7 
 2789000   0.81112787   -6.5243078      920.023  0.027489632  0.027208929            7 
 2790000    0.8087153   -6.5380166    923.04832  0.027570141  0.027201048            9 
 2791000   0.80617374   -6.5410417    919.27304  0.027447541  0.027193124           14 
 2792000   0.80644777   -6.5745588    917.95261  0.027398299  0.027185146           10 
 2793000   0.80295549   -6.5267909    920.38728  0.027461131  0.027177181            8 
 2794000   0.79758283   -6.5570649    919.91857  0.027437323  0.027169187            6 
 2795000   0.81065145   -6.5473241     920.7314  0.027451741  0.027161257            5 
 2796000   0.80231674   -6.5863992    917.70596  0.027351751  0.027153314           12 
 2797000   0.79823708   -6.5542698    920.83454  0.027435185  0.027145303           11 
 2798000   0.81138141   -6.5247896    921.80152  0.027454179  0.027137349           31 
 2799000   0.81056471   -6.5520173    918.89858  0.027357943  0.027129416            6 
 2800000   0.81288043   -6.5548702    918.86917  0.027347297  0.027121451            6 
 2801000   0.80705585   -6.5835552    918.02707   0.02731248  0.027113498            6 
 2802000   0.81031822   -6.5816522     919.6786   0.02735185  0.027105501           11 
 2803000   0.80876363   -6.5562354    920.23928  0.027358761  0.027097506           11 
 2804000   0.79700324   -6.5168153    923.37296  0.027442135  0.027089554           16 
 2805000   0.79580331    -6.548308     920.7812  0.027355354   0.02708164           15 
 2806000   0.80690546   -6.5556607    923.29365   0.02742022   0.02707375            5 
 2807000   0.81759578   -6.5453391    923.73975  0.027423695  0.027065891            7 
 2808000   0.79751368   -6.5423365    924.16291  0.027426487  0.027058052            7 
 2809000   0.80811704   -6.5553801    921.57215  0.027339864  0.027050134           11 
 2810000   0.80288878   -6.5750443    921.12081   0.02731675   0.02704219            7 
 2811000   0.82237564   -6.5419973    921.68463  0.027323747  0.027034274            4 
 2812000    0.7908743    -6.585338     919.5171  0.027249796  0.027026285           18 
 2813000   0.78746083   -6.5590439    919.96082  0.027253253  0.027018273           12 
 2814000    0.8182659   -6.5697055    919.33836  0.027225135  0.027010304            5 
 2815000   0.80557532   -6.5421449    922.19595  0.027300058   0.02700234           10 
 2816000    0.7879568    -6.552658    921.19861  0.027260849  0.026994373           12 
 2817000    0.8139443   -6.5644303    922.45053  0.027288206  0.026986377            6 
 2818000   0.79729991   -6.5443859    921.25896  0.027243286  0.026978439            4 
 2819000   0.79780195   -6.5659061    919.67476  0.027186791  0.026970564           12 
 2820000   0.78340858   -6.5543825    922.80166  0.027269553  0.026962693           10 
 2821000   0.80544837   -6.5897658    920.84922   0.02720221  0.026954827            9 
 2822000   0.80922863   -6.5846852    919.55021  0.027154211  0.026946924            4 
 2823000   0.79253877   -6.5430027    921.74214  0.027209297  0.026939054            5 
 2824000   0.79549087   -6.5786834    918.46503  0.027102958  0.026931156            5 
 2825000   0.80337526    -6.567777    922.82212  0.027221891  0.026923237            5 
 2826000   0.80931805   -6.6018188     917.9316  0.027068047  0.026915257            8 
 2827000   0.79526087   -6.6016395    919.88613  0.027116087   0.02690733           11 
 2828000   0.79531251   -6.5607149    921.90371  0.027165951  0.026899394            8 
 2829000   0.79392706   -6.5784553    922.16611  0.027164078  0.026891481           10 
 2830000   0.80702656   -6.5611712     921.3067  0.027129173  0.026883542            9 
 2831000   0.81146361   -6.5459965    924.74677  0.027220852  0.026875697            9 
 2832000   0.80764629   -6.5459304    925.54251  0.027234655   0.02686785           14 
 2833000   0.79345385   -6.5432973    923.52234  0.027165618  0.026860013           14 
 2834000    0.7980032   -6.5821711    923.50875  0.027155632  0.026852101            4 
 2835000   0.79659154   -6.5577981     925.0756  0.027192111   0.02684419            5 
 2836000   0.79370367   -6.5609251    920.73982  0.027055119  0.026836312           13 
 2837000   0.79716561   -6.5730051     922.3164  0.027091893   0.02682848            6 
 2838000    0.7877985   -6.5731029    923.26738  0.027110271   0.02682065            7 
 2839000   0.79742321   -6.5493889    923.74972   0.02711488  0.026812708           10 
 2840000   0.79419903   -6.5653539    924.52552  0.027128096  0.026804804            4 
 2841000    0.8062624   -6.5725163    927.44981  0.027204324  0.026796921            6 
 2842000   0.80655494   -6.5578565    925.55003  0.027139046  0.026789066            7 
 2843000   0.79772877   -6.5684487     923.5379  0.027070521  0.026781235           11 
 2844000   0.81600601   -6.5771926    924.82753  0.027098791  0.026773385            5 
 2845000   0.78638711   -6.5736026    925.12432  0.027097959  0.026765536            4 
 2846000   0.78996522   -6.5680188    924.68531  0.027075583   0.02675776           11 
 2847000   0.78582889   -6.5687507    925.02614  0.027076049  0.026749933           10 
 2848000   0.79320372    -6.604297    923.50599  0.027022062  0.026742071            8 
 2849000   0.78829159   -6.5870922    925.45605  0.027069617  0.026734212           19 
 2850000   0.79608726   -6.5825787    923.57096  0.027004999  0.026726375           10 
 2851000   0.78669567   -6.6055787    924.00114  0.027008101   0.02671852            8 
 2852000   0.79904896   -6.5568814    926.35839  0.027067508   0.02671065            9 
 2853000     0.795769   -6.5805058    924.98728  0.027017972  0.026702749            5 
 2854000   0.80236581   -6.5702134    924.03856  0.026980804  0.026694895            8 
 2855000   0.79123454   -6.6003511    923.86297  0.026966228  0.026687038            5 
 2856000   0.79450817   -6.5390718    924.01671  0.026961272    0.0266792            5 
 2857000   0.80693277   -6.5776632    924.12256  0.026954922  0.026671346            8 
 2858000   0.81819698   -6.6065009    923.13205   0.02691661  0.026663461           11 
 2859000    0.7973519   -6.5557042    924.69297  0.026952692  0.026655568           11 
 2860000   0.78826585    -6.586261    924.35575  0.026933443  0.026647713           16 
 2861000   0.79170929   -6.6040928    924.16295  0.026918413  0.026639858           14 
 2862000   0.79334692   -6.5761986    925.38099  0.026944473  0.026631987            7 
 2863000   0.81158503   -6.5539738    925.71632  0.026944822   0.02662419           15 
 2864000   0.78266159   -6.5745844    926.36936  0.026954416  0.026616413           10 
 2865000   0.77698858   -6.5770174    925.04506  0.026906488  0.026608572           11 
 2866000   0.78768636   -6.6019544    925.06064  0.026897553  0.026600777            5 
 2867000    0.8048461   -6.5711559    927.51427  0.026959489  0.026593009           10 
 2868000   0.77999497    -6.552654    927.19887  0.026940925  0.026585181           12 
 2869000    0.7885625   -6.6421727    923.37792  0.026820551  0.026577302            6 
 2870000   0.78379678   -6.5838795    926.42536  0.026899691  0.026569465            6 
 2871000   0.81153525   -6.5952152    924.61377  0.026837739  0.026561643            5 
 2872000   0.78739847   -6.6148769    923.13637  0.026785526  0.026553777            7 
 2873000   0.81488586   -6.5942006    927.82147  0.026912098  0.026545952           11 
 2874000   0.78215323   -6.6145555    926.15927  0.026854537   0.02653811            7 
 2875000   0.79370301   -6.6115556    925.60299  0.026829072  0.026530286           22 
 2876000   0.77312435   -6.6248224    923.61001  0.026761996  0.026522483            6 
 2877000   0.78022731   -6.5788377    928.18037  0.026885076  0.026514673           11 
 2878000   0.77835756   -6.5724479    928.36881  0.026881191  0.026506832            9 
 2879000   0.78288731   -6.5776058    926.79696  0.026826356  0.026499057           13 
 2880000   0.80394238   -6.6014653    926.12564  0.026797617  0.026491264           13 
 2881000   0.78846323    -6.607733    922.86723  0.026694066  0.026483371           11 
 2882000    0.7771667   -6.5656918    925.49566  0.026760804  0.026475487           13 
 2883000   0.78193382   -6.5952334    925.78754  0.026759959  0.026467687           11 
 2884000    0.8068449    -6.587959    928.57645  0.026831266  0.026459903            8 
 2885000   0.79465011   -6.5602354     929.8315  0.026858218  0.026452109            5 
 2886000   0.78499407   -6.5499973    930.39694  0.026865238  0.026444379            6 
 2887000   0.78449135   -6.6065889     927.2699  0.026765671  0.026436604            6 
 2888000     0.784312   -6.5503819    928.41282  0.026789382  0.026428865            4 
 2889000   0.78679369   -6.5969441     928.0293  0.026769046  0.026421118           12 
 2890000   0.80807084   -6.5925298     928.5807  0.026775683  0.026413337            5 
 2891000   0.79873469   -6.6051245    924.86435  0.026659298   0.02640555            8 
 2892000   0.79152015   -6.5903911    924.71798  0.026645862  0.026397701            5 
 2893000   0.79154885   -6.6393735    925.10575  0.026647821  0.026389872           10 
 2894000   0.78240301   -6.5889893    928.73716   0.02674318  0.026382022           11 
 2895000   0.78469871   -6.6115146    926.51636  0.026670016  0.026374206            7 
 2896000   0.78864474   -6.6027639    927.60722  0.026692197  0.026366351            8 
 2897000   0.78186437   -6.6294065    923.83482  0.026574468  0.026358522           11 
 2898000   0.78181091   -6.5951965    927.01017  0.026656607   0.02635065           12 
 2899000   0.79024952   -6.6118022    928.18913  0.026681302   0.02634281            7 
 2900000    0.7741472   -6.5734275    928.71331  0.026687164     0.026335            7 
 2901000   0.78323122   -6.5740066    928.68325  0.026677101  0.026327288            7 
 2902000   0.79732144   -6.5890022    928.94595  0.026675452  0.026319539            6 
 2903000   0.80237402     -6.60237    926.96282  0.026609336  0.026311792           11 
 2904000   0.80778212   -6.5844392    930.19438  0.026692906  0.026304064            3 
 2905000   0.79918973   -6.5918731    929.60419  0.026666787  0.026296359            8 
 2906000   0.78926446   -6.5777634    930.49568  0.026683175  0.026288615            5 
 2907000   0.78795706   -6.6127351    930.35141  0.026669861  0.026280873            9 
 2908000   0.78665042    -6.596369    928.67964  0.026612782  0.026273102           11 
 2909000   0.77250101   -6.5760339     931.4995  0.026684413  0.026265363           13 
 2910000   0.78214627   -6.5817466    929.73341  0.026624668  0.026257681           20 
 2911000   0.77556818   -6.5809431    930.15372  0.026627554  0.026250052            8 
 2912000   0.79811734   -6.5876784     930.6337  0.026632146  0.026242431           15 
 2913000   0.79114657   -6.5930916    932.46231  0.026675315  0.026234827            5 
 2914000   0.79795891   -6.5762615    932.37284  0.026663602   0.02622723            6 
 2915000   0.77995345   -6.5783992    932.03303  0.026644741  0.026219618            5 
 2916000   0.77370019   -6.5892257    931.42418  0.026618204  0.026212013            5 
 2917000   0.77545724   -6.5999113    933.79739  0.026676877  0.026204367            9 
 2918000   0.78616655    -6.594877    932.32562  0.026625703  0.026196748            6 
 2919000   0.79015545   -6.5689133     933.2961  0.026644287   0.02618912            9 
 2920000   0.78239195   -6.5821564    931.26399  0.026577169  0.026181548            9 
 2921000   0.79381909    -6.613793     931.7389  0.026581619  0.026173926            5 
 2922000   0.78672091   -6.5797694    931.34221  0.026561208  0.026166321           16 
 2923000   0.77112267   -6.6013484    929.88332  0.026510529  0.026158686            5 
 2924000   0.79659328   -6.5660576    932.30169  0.026570386  0.026151095            7 
 2925000   0.77465609   -6.6112473    933.60884  0.026598542  0.026143472            5 
 2926000   0.77392745   -6.5773792    932.29591  0.026552059  0.026135854            9 
 2927000    0.7784498   -6.6052063    930.18724  0.026482953  0.026128227           10 
 2928000   0.78371291    -6.618352     931.2978  0.026505516  0.026120576            9 
 2929000   0.78110441   -6.6298613    929.79006  0.026453569  0.026112888            9 
 2930000   0.78511276   -6.6217068    929.28555  0.026430192   0.02610514            9 
 2931000   0.79826639   -6.5923238    932.47823  0.026511948  0.026097383           12 
 2932000   0.77773571   -6.6230948    929.35522  0.026414143  0.026089609           10 
 2933000   0.78263727   -6.6082802    928.76518  0.026388373   0.02608189            8 
 2934000   0.77594301   -6.6541215    929.54477  0.026401521  0.026074147           13 
 2935000   0.78311147   -6.6232366     933.5317  0.026505727  0.026066416            5 
 2936000   0.78386954   -6.6017126    933.14968  0.026485856  0.026058774            8 
 2937000   0.79868868   -6.6338871      929.522  0.026373908  0.026051107            6 
 2938000   0.77363304   -6.6520361    932.06449  0.026437046  0.026043427            6 
 2939000    0.7694147   -6.6409824    931.12836  0.026401507  0.026035684           10 
 2940000   0.77004172   -6.6197016    932.85605  0.026441498  0.026027999           10 
 2941000    0.7908171   -6.6227246     930.4285  0.026363723  0.026020305           12 
 2942000   0.78514481   -6.6238822    929.20143  0.026320004  0.026012581            4 
 2943000   0.78786057   -6.6335409    929.45803  0.026318327  0.026004793            9 
 2944000   0.78781694    -6.620515    931.00648  0.026353218  0.025997066           12 
 2945000   0.76781095   -6.6221117    931.95141  0.026371008  0.025989408            8 
 2946000   0.77796945   -6.6538653    928.17863  0.026255336  0.025981696            8 
 2947000   0.79949979   -6.6127703     930.1224  0.026301391  0.025973953            9 
 2948000    0.7881697   -6.6205752    930.63256   0.02630689   0.02596626            8 
 2949000   0.76151926   -6.6317327    930.13122  0.026283803  0.025958593           11 
 2950000   0.78067084   -6.6081658    932.58603  0.026344238  0.025950919            7 
 2951000   0.79919604    -6.633159    930.90901  0.026287953  0.025943248           12 
 2952000   0.77893122   -6.6308931    933.04873  0.026339451  0.025935545           13 
 2953000   0.77817831   -6.6214654     933.7337  0.026349862  0.025927915            6 
 2954000   0.79470247   -6.6298601    933.85309   0.02634431   0.02592026            4 
 2955000   0.78096016   -6.6035933    933.96882  0.026338658  0.025912647            8 
 2956000   0.76626958   -6.6316938    931.09328  0.026248683  0.025904986           14 
 2957000   0.77183747   -6.6305379    932.72866  0.026285894  0.025897334           13 
 2958000   0.78966142   -6.5881001    932.55801    0.0262722  0.025889729           10 
 2959000   0.78445764   -6.5673144    935.52527  0.026346887  0.025882146            8 
 2960000   0.76511133   -6.6489511    931.62323  0.026228131  0.025874488           14 
 2961000   0.76219553   -6.6428139    933.44786  0.026270625  0.025866771           18 
 2962000   0.76849782   -6.6437763    933.67362  0.026268108  0.025859075            8 
 2963000   0.77717905   -6.6224395    931.06006  0.026185737  0.025851333           22 
 2964000    0.7791549   -6.6187786    932.84441   0.02622707  0.025843609           12 
 2965000   0.77652019   -6.5615944    936.29795  0.026315288  0.025835957            8 
 2966000   0.77519548   -6.6626021    929.26679  0.026108867  0.025828245            6 
 2967000   0.76955485    -6.643706    932.12498  0.026180344  0.025820481            5 
 2968000   0.78156883    -6.624623    932.88273  0.026192799  0.025812791            5 
 2969000   0.77585894   -6.6017676    935.77605  0.026265186  0.025805128           11 
 2970000    0.7797411   -6.6317208    933.12748  0.026182028  0.025797454            8 
 2971000   0.75952081    -6.627141    933.09035  0.026172174  0.025789775            4 
 2972000   0.76764991   -6.6074374    934.55549   0.02620445  0.025782115            9 
 2973000   0.78145202   -6.6002646    935.04442   0.02620934  0.025774487            8 
 2974000   0.77398859   -6.6196048    933.20057  0.026148862  0.025766809            9 
 2975000   0.77590091   -6.6165968    934.53399  0.026177423   0.02575917            6 
 2976000   0.76730568   -6.6320528    932.32192  0.026106685  0.025751553            4 
 2977000   0.78526211   -6.6550351    932.65563  0.026107257  0.025743858            7 
 2978000   0.76712266   -6.6285641    933.80694  0.026130707  0.025736158           14 
 2979000    0.7848651   -6.6401083    932.14272  0.026075381  0.025728465            9 
 2980000   0.76092794   -6.6365872     931.8989  0.026059813  0.025720827            5 
 2981000   0.77575477   -6.6286692    932.42384  0.026065745  0.025713186            7 
 2982000   0.76836418   -6.6278046    934.78867   0.02612309  0.025705553           13 
 2983000   0.76443885    -6.634263    933.38965   0.02607525   0.02569791            6 
 2984000   0.78900196   -6.6458249    932.83222  0.026050945  0.025690257            3 
 2985000    0.7469399   -6.6554975    933.75545  0.026067991  0.025682617           12 
 2986000   0.76116603   -6.6724328    932.50414   0.02602434  0.025674925            8 
 2987000   0.78288191   -6.6371104    934.72322  0.026077537  0.025667238           15 
 2988000   0.74134447   -6.6457141    935.21267   0.02608246   0.02565954            8 
 2989000   0.78999597   -6.6628208     932.9324  0.026010159  0.025651854            9 
 2990000   0.76925322   -6.6789722    933.50742  0.026017487  0.025644195           12 
 2991000   0.76754593   -6.6166472    938.02414   0.02613463  0.025636565           13 
 2992000   0.77637771   -6.6269933    933.46966  0.025999044  0.025628957            6 
 2993000   0.76672137   -6.6550664    933.20375  0.025982953  0.025621281           11 
 2994000   0.75694623   -6.6770224     932.8167  0.025963502  0.025613548           21 
 2995000   0.77347819    -6.650716    932.93449  0.025958111  0.025605874            6 
 2996000    0.7684077     -6.67484    936.64404  0.026052627  0.025598256           20 
 2997000   0.77449077   -6.6458806    935.95695  0.026024829  0.025590674            7 
 2998000   0.75775603   -6.6673338    935.04328  0.025990752  0.025583059           17 
 2999000   0.76897308   -6.6595127     932.4003  0.025908645  0.025575483            7 
 3000000   0.76880289   -6.6560061    936.34462  0.026009573  0.025567928            4 
 3001000   0.77801695   -6.6688559    935.55833  0.025979072  0.025560334            8 
 3002000   0.78455538   -6.6495546     936.8147  0.026005294  0.025552765            8 
 3003000   0.77779866   -6.6644613    935.45742  0.025958969   0.02554522            9 
 3004000   0.77039797   -6.5934361    936.99762  0.025993054  0.025537696           10 
 3005000   0.76430602   -6.6333327    936.47251  0.025969842  0.025530165            9 
 3006000   0.78584589    -6.640429    934.83994  0.025915944  0.025522619           10 
 3007000   0.76031397   -6.6419242    936.70854   0.02595911  0.025515039           11 
 3008000   0.76965633   -6.6395176    934.19569  0.025880865  0.025507468           10 
 3009000   0.78386654    -6.640681    937.05436  0.025951433  0.025499909           24 
 3010000   0.76474828   -6.6335947    938.22503  0.025975222  0.025492401            9 
 3011000   0.77328765    -6.622634    936.37492  0.025915391  0.025484876           20 
 3012000   0.77819854   -6.6345433    938.70114  0.025971147  0.025477365            7 
 3013000   0.76257064   -6.6083488    940.03447  0.025999405  0.025469893            8 
 3014000   0.77243833   -6.6481789    939.37538  0.025972555   0.02546244           10 
 3015000   0.77495674   -6.6594505    937.04896  0.025899639  0.025454925           11 
 3016000   0.77298449   -6.6441927    937.78601  0.025911417  0.025447385            5 
 3017000    0.7633854   -6.6396169    937.52103   0.02589551  0.025439857            5 
 3018000   0.77417052   -6.6681884    937.83428  0.025895579  0.025432349           14 
 3019000   0.76800516   -6.6394966    938.40753  0.025902824  0.025424803           14 
 3020000   0.75866622   -6.6795447    936.32593  0.025836808  0.025417308            5 
 3021000   0.76913071   -6.6619007    937.30961   0.02585539  0.025409786           13 
 3022000    0.7594111   -6.6571628    936.79348  0.025832602  0.025402304           14 
 3023000   0.76527355   -6.6550202    937.85384  0.025853287   0.02539478           12 
 3024000   0.74423185   -6.6654585    938.70792  0.025868274  0.025387302           18 
 3025000   0.75608071   -6.6760847    937.19943  0.025818166  0.025379821           18 
 3026000   0.77974555   -6.6622903    939.41662  0.025870693  0.025372343            8 
 3027000   0.77010499   -6.6588124    936.46534  0.025780898  0.025364837           25 
 3028000   0.77096378   -6.6509464     940.2113  0.025875476  0.025357354           10 
 3029000   0.79144007   -6.6843492    935.40175  0.025734614  0.025349851           12 
 3030000   0.76141042   -6.6428325    937.72126  0.025789914  0.025342329           10 
 3031000   0.77401146   -6.6504179    938.12166  0.025792413  0.025334817           22 
 3032000   0.74924513    -6.664374    939.31819  0.025816793  0.025327348            4 
 3033000   0.76897242   -6.6306557    938.23517  0.025778524  0.025319912            6 
 3034000   0.77761954   -6.6299182     940.7645    0.0258395    0.0253125           11 
 3035000    0.7689134   -6.6161486    942.16652  0.025869482  0.025305122           13 
 3036000   0.76961222   -6.6468385    939.05205  0.025775473  0.025297686           13 
 3037000   0.77862452   -6.6412369    939.34649  0.025775065  0.025290245           14 
 3038000   0.74902898   -6.6436505    939.17171  0.025761787  0.025282825           10 
 3039000   0.76409447   -6.6616116    938.99351  0.025748423   0.02527532            5 
 3040000     0.775273   -6.6438186    939.36471  0.025750129  0.025267843            7 
 3041000   0.78756322   -6.6892254    938.88259   0.02572845  0.025260369           10 
 3042000   0.76530561   -6.6655237    939.80121  0.025745157  0.025252891           11 
 3043000   0.75473093   -6.6596256    940.98718  0.025769175  0.025245396           13 
 3044000    0.7509861   -6.6608173    938.09853  0.025681629  0.025237896            8 
 3045000   0.76261963   -6.6635252    940.27131  0.025732658  0.025230392           11 
 3046000    0.7666306   -6.6762786    937.14102   0.02563857  0.025222906            9 
 3047000   0.76804385   -6.6794176     938.7233   0.02567343  0.025215424           16 
 3048000   0.76379018    -6.681021    937.82192  0.025640363  0.025207963            6 
 3049000    0.7659727   -6.6786418    940.88466  0.025715663  0.025200474            4 
 3050000   0.75731893   -6.6770866    936.97491  0.025600407  0.025193003           10 
 3051000   0.76697323   -6.6867663    938.90312  0.025644683  0.025185493            8 
 3052000    0.7667436   -6.6879566    936.72451  0.025576794  0.025177998            6 
 3053000   0.75568745   -6.7048573    935.42736   0.02553301  0.025170443           10 
 3054000   0.77348028   -6.7164146    937.61247  0.025584274  0.025162913           11 
 3055000   0.77900403   -6.6971281    936.75829  0.025552599  0.025155343           12 
 3056000   0.76149608   -6.7004048    939.45959  0.025617899  0.025147779            7 
 3057000   0.76894221   -6.7044463    938.93056  0.025595098  0.025140234           13 
 3058000   0.75557978   -6.6649267     937.9006   0.02555866   0.02513267           10 
 3059000   0.75011646   -6.6815498    939.30398  0.025588536  0.025125189            3 
 3060000   0.77619359   -6.6674293    942.71711  0.025673124  0.025117734           12 
 3061000   0.76075774   -6.6754711    940.84028  0.025613642    0.0251103            7 
 3062000   0.77353251   -6.7032066    939.91731  0.025580157  0.025102794           13 
 3063000   0.76802782   -6.7049208    939.45082  0.025559115  0.025095302           12 
 3064000   0.75387327   -6.6646056    940.32505   0.02557455  0.025087823           13 
 3065000   0.75835689   -6.6560826    941.51341  0.025598516  0.025080381            8 
 3066000   0.73387954    -6.670401    940.81292  0.025571127  0.025072951           15 
 3067000     0.755283   -6.6725068    941.46606  0.025580536  0.025065548           17 
 3068000   0.75917525   -6.6648282     941.7665  0.025580359  0.025058177           10 
 3069000   0.76652078   -6.6625001    941.36786    0.0255612  0.025050785            7 
 3070000   0.75238876   -6.6770234    940.49764  0.025529252   0.02504341            7 
 3071000   0.76106072   -6.7069483    939.95916  0.025506327     0.025036           22 
 3072000   0.76479139   -6.6644206    941.33263  0.025535282  0.025028551           10 
 3073000   0.75567416   -6.6616225    943.37741  0.025582422  0.025021162           17 
 3074000   0.74754574   -6.6394474    942.53883  0.025551367  0.025013783           14 
 3075000   0.75997347   -6.6804379    940.93436  0.025499576  0.025006374            9 
 3076000   0.75389306   -6.6775173    941.54003  0.025507695   0.02499898           11 
 3077000   0.77083906   -6.6623284    941.63317  0.025501928  0.024991607           20 
 3078000   0.75990793   -6.6734518    942.17443  0.025508296  0.024984205            8 
 3079000   0.75531594   -6.6844854    940.08071  0.025443345  0.024976826           12 
 3080000   0.75398732   -6.6627039    941.39373   0.02547061  0.024969442           14 
 3081000   0.74712478   -6.6883275    938.24597  0.025377204  0.024962033           19 
 3082000   0.76066443   -6.6703347    939.84708  0.025412261  0.024954598            8 
 3083000   0.77923451   -6.6986969    938.40153  0.025364946   0.02494714           10 
 3084000   0.77526009   -6.6621075    938.00225  0.025345932  0.024939709           16 
 3085000   0.75489571   -6.6843574    939.60185  0.025380925  0.024932261           14 
 3086000   0.75032862   -6.6916955    939.88065  0.025380229  0.024924802           16 
 3087000   0.75092437   -6.6908364    940.21218  0.025380957  0.024917355            9 
 3088000   0.77050619   -6.6925694    940.99162  0.025393772  0.024909931           26 
 3089000   0.76356103   -6.6839151    940.66206  0.025376661  0.024902453           29 
 3090000   0.75774854   -6.6941572    939.48499  0.025336704  0.024894967           28 
 3091000   0.75409699     -6.71162    936.42515  0.025246014  0.024887475           13 
 3092000   0.77141766   -6.7247404    938.82124  0.025302427  0.024879957            5 
 3093000   0.75866828   -6.7152331     939.4808  0.025312016  0.024872476            9 
 3094000   0.75039782   -6.6688729    940.84431   0.02534056   0.02486502            7 
 3095000   0.76689115   -6.6897725    941.14958  0.025340592  0.024857617           18 
 3096000   0.76461132   -6.6945462    940.52621  0.025315628  0.024850205            8 
 3097000     0.762578   -6.6652882    942.25546  0.025353984  0.024842801           12 
 3098000   0.75976127   -6.6979752    941.17249  0.025316669  0.024835402            6 
 3099000   0.76308643   -6.6832683    941.39821   0.02531457  0.024827982            6 
 3100000   0.75060693   -6.7046595    941.24345  0.025302243  0.024820567           13 
 3101000   0.75212868    -6.701324    942.38624  0.025324794  0.024813154            7 
 3102000   0.75688045   -6.6550512    943.10336  0.025335895  0.024805749            7 
 3103000   0.74829763   -6.6945258    941.90053  0.025295427   0.02479836           11 
 3104000   0.74182503    -6.703273    939.71286  0.025228545  0.024790904           12 
 3105000   0.75614922   -6.6929024    941.75933  0.025275344  0.024783469            8 
 3106000   0.74492569   -6.7179447    940.43186  0.025231591  0.024776051           23 
 3107000    0.7546798   -6.7294942    940.26434  0.025218977  0.024768584           14 
 3108000   0.76989519   -6.7130739    940.08323  0.025206007   0.02476111           14 
 3109000   0.75844359   -6.6967516    941.89553  0.025246476  0.024753722           19 
 3110000   0.75707641   -6.7026463     941.7943  0.025235646   0.02474631            7 
 3111000   0.77344191   -6.7007439    943.61884  0.025276407  0.024738936            6 
 3112000   0.74653882   -6.7096382    940.04052  0.025172465  0.024731553           10 
 3113000   0.75318087   -6.6966977    939.32283  0.025145166  0.024724146           12 
 3114000   0.74767537   -6.7143038    940.96937  0.025181154  0.024716724           11 
 3115000   0.75892971   -6.6924151    942.83633  0.025223016  0.024709354           10 
 3116000   0.76191387    -6.709925    941.97583  0.025191908   0.02470194           16 
 3117000   0.76466554   -6.7218508    941.25356  0.025164516  0.024694511           35 
 3118000   0.74772139   -6.6923188    941.87989  0.025173185  0.024687123           24 
 3119000   0.74888966    -6.713074    941.49608   0.02515486  0.024679716           15 
 3120000   0.73660826    -6.679604    944.64086  0.025230792  0.024672297           14 
 3121000    0.7425055   -6.7153004    941.36156  0.025135148  0.024664914           21 
 3122000   0.75356136   -6.7132469    941.19365  0.025122615  0.024657506            6 
 3123000   0.74805571   -6.6929428    941.40148  0.025120116  0.024650078            9 
 3124000   0.74062407    -6.706116    944.46875  0.025193895  0.024642698           16 
 3125000   0.75724006   -6.6918662    944.83461   0.02519559  0.024635342           11 
 3126000   0.74730738   -6.7086018    941.35468  0.025094761  0.024628017           18 
 3127000   0.76412769   -6.6957567    945.27614  0.025191241  0.024620696            7 
 3128000   0.75381662   -6.6834385    944.55321  0.025163928   0.02461338           10 
 3129000   0.74716276   -6.6949764    943.52663  0.025128546  0.024606108            7 
 3130000    0.7532794   -6.6814243    942.83744  0.025102168  0.024598784           12 
 3131000   0.74718637   -6.6772512    945.56148  0.025166653   0.02459147           11 
 3132000   0.75505312   -6.6632424    945.89138  0.025167395  0.024584148           17 
 3133000   0.75171269   -6.6875198    943.52775  0.025096493  0.024576813           19 
 3134000   0.74684412   -6.7088428    943.32463  0.025083084  0.024569469           13 
 3135000   0.74239128   -6.6919861    943.55649  0.025081247  0.024562115            4 
 3136000   0.73624849   -6.7057833    942.42449  0.025043168  0.024554754           11 
 3137000   0.73670112   -6.6910104    942.45422  0.025035974   0.02454741            7 
 3138000   0.73893836   -6.7066492    944.14521  0.025072902  0.024540037           10 
 3139000    0.7583893   -6.6921379    942.42537  0.025019257  0.024532684           14 
 3140000   0.73599191   -6.7166968    943.16282  0.025030861    0.0245253           12 
 3141000   0.76525345   -6.6816718    945.34278  0.025080727  0.024517967            6 
 3142000   0.75200077   -6.7073902    944.94549  0.025062208  0.024510629           10 
 3143000   0.75480201   -6.7053597    942.31017  0.024984361  0.024503242            6 
 3144000   0.73326313   -6.7156564    941.77671  0.024962275  0.024495849            4 
 3145000   0.73235328   -6.6969602     946.0386  0.025067265  0.024488542           12 
 3146000   0.75648016   -6.7022043    947.07004  0.025086619  0.024481216           13 
 3147000   0.74451159   -6.6777798    941.93875   0.02494277  0.024473894            9 
 3148000   0.75066638   -6.6783205    945.82197  0.025037642  0.024466604           12 
 3149000   0.74630827   -6.6758944    946.13528  0.025037982  0.024459307           12 
 3150000   0.75083731   -6.6865723    943.47427  0.024959637  0.024451992            8 
 3151000   0.74360872   -6.6714652    946.29753  0.025026381  0.024444681           14 
 3152000   0.74846023   -6.6617779     946.7058  0.025029235  0.024437354            9 
 3153000   0.75687153   -6.6842373    946.94732   0.02502768  0.024430124            4 
 3154000   0.73953161   -6.7125963    944.75144  0.024961727   0.02442284           20 
 3155000   0.74650499   -6.7247419    944.68036  0.024951938  0.024415536           13 
 3156000   0.77000485   -6.7080112     946.1735  0.024983458  0.024408224           10 
 3157000   0.74854464   -6.7107369    942.01949  0.024865893  0.024400882           12 
 3158000   0.73682475   -6.7059801    944.23774  0.024916554  0.024393519           11 
 3159000   0.75025896   -6.6981822    945.17288  0.024933335  0.024386204           13 
 3160000   0.75160877    -6.695356    943.51368   0.02488169  0.024378884           13 
 3161000   0.73940266   -6.7014902     943.9896  0.024886365  0.024371603            7 
 3162000   0.75668414   -6.7093302    947.11502  0.024960864  0.024364313            9 
 3163000   0.74453254   -6.6832034    945.40832  0.024908007   0.02435706           15 
 3164000   0.74638953   -6.7076778    944.32049  0.024871484   0.02434977            7 
 3165000   0.75587767   -6.7096201    943.50929  0.024842267  0.024342439            8 
 3166000   0.74992294   -6.6897315    943.14388  0.024824802  0.024335092           10 
 3167000   0.75900057   -6.6929573    945.86524  0.024888571  0.024327769           12 
 3168000   0.73460032   -6.6777929    944.78678  0.024852346  0.024320434            6 
 3169000   0.73977838   -6.7181378    944.34484  0.024832882  0.024313129           24 
 3170000   0.73976463   -6.7480975    942.00051   0.02476342  0.024305789           18 
 3171000    0.7488262   -6.7103922    943.55555  0.024796477  0.024298441           14 
 3172000   0.74106001   -6.7295579    942.74828  0.024767452  0.024291069           42 
 3173000   0.74059214    -6.721594    944.22679  0.024798477  0.024283718           48 
 3174000   0.74684065   -6.7379507    943.79361   0.02477929  0.024276377           15 
 3175000   0.74891783   -6.7023215    945.14117  0.024806855  0.024269031           18 
 3176000   0.73472991   -6.7166912    943.77576  0.024763218  0.024261677           18 
 3177000   0.75897481   -6.7142573    942.66247  0.024726222  0.024254334            9 
 3178000   0.74203866   -6.7050301    947.15743  0.024836308  0.024246972           21 
 3179000    0.7230387   -6.7364715    941.55787   0.02468171  0.024239584           20 
 3180000    0.7342401   -6.7192445    943.38178  0.024721745  0.024232207           14 
 3181000   0.76009828    -6.713364    947.59618  0.024824379  0.024224875           20 
 3182000   0.75460968   -6.7132889    944.46263  0.024734513  0.024217543           15 
 3183000   0.74166047   -6.7106301    944.55086  0.024729052  0.024210237            6 
 3184000   0.72913201   -6.7670676    944.95007  0.024731733   0.02420292           10 
 3185000   0.75085564   -6.7445905    946.23982  0.024757714  0.024195621           10 
 3186000   0.74046631   -6.7203055    945.90893  0.024741288   0.02418833            9 
 3187000    0.7350061    -6.735616    945.99517   0.02473578  0.024181018            9 
 3188000   0.72731674    -6.727976    944.47617  0.024688315  0.024173708           11 
 3189000   0.73401462   -6.7411233    944.92612  0.024692331  0.024166412           13 
 3190000   0.74176167   -6.7499915    945.58284  0.024701746   0.02415907           15 
 3191000   0.75288833   -6.7444158    945.09872  0.024681362  0.024151722           20 
 3192000    0.7364192   -6.7180786    946.49535  0.024710092  0.024144401           22 
 3193000   0.73824215   -6.7369298    944.84271  0.024659221  0.024137107            8 
 3194000   0.72411332   -6.7330209    945.24398   0.02466197  0.024129798           23 
 3195000   0.73377093   -6.7246297    945.06593  0.024649607  0.024122487           15 
 3196000   0.74437679   -6.7099295    947.20193  0.024697589  0.024115204           19 
 3197000   0.74862865   -6.7135862    946.41253  0.024669287  0.024107917           20 
 3198000   0.75145748   -6.7414509    946.26854  0.024657821  0.024100614           12 
 3199000   0.75800459   -6.7307271    942.76874  0.024558944  0.024093269           16 
 3200000   0.73364048   -6.7205482    948.76278  0.024707364  0.024085966           26 
 3201000     0.741166   -6.7244372    946.66269  0.024644973  0.024078712           24 
 3202000   0.72173901   -6.7220454    945.00874  0.024594231  0.024071467            6 
 3203000   0.72416645   -6.7218902     945.1991  0.024591505    0.0240642           13 
 3204000   0.74919371   -6.7133618     946.9162  0.024628491  0.024056943           19 
 3205000   0.71667766   -6.7510291    944.07366  0.024546897  0.024049674           19 
 3206000   0.73997787   -6.7447577    945.45284  0.024575089  0.024042396           10 
 3207000   0.73128282    -6.735784    945.17849  0.024560298  0.024035114            9 
 3208000   0.73330541   -6.7284859    948.57381  0.024640841  0.024027832            7 
 3209000   0.73795244   -6.7976238    941.94922  0.024461131  0.024020503           11 
 3210000   0.74504325   -6.7212763    943.26293  0.024487615  0.024013155            7 
 3211000   0.73335563   -6.7712497     942.8589  0.024469503  0.024005795           12 
 3212000   0.74560905   -6.7422721    946.01983  0.024543893  0.023998447           17 
 3213000   0.72997078   -6.7466445    944.16466  0.024488138   0.02399115            8 
 3214000   0.73902089    -6.733035    947.32607  0.024562489  0.023983849            6 
 3215000   0.73086626     -6.72466    947.12308  0.024549587  0.023976577           25 
 3216000   0.73452148   -6.7436839     946.7813  0.024533097  0.023969335           12 
 3217000   0.74238735   -6.7750551    945.29975  0.024487093  0.023962018            9 
 3218000   0.72658254   -6.7142493    943.87707  0.024442642   0.02395472           11 
 3219000   0.73016999   -6.7348252    945.49304  0.024476883  0.023947464            9 
 3220000   0.74689619   -6.7395977    945.80914  0.024477462   0.02394021           15 
 3221000   0.73049186   -6.7142996    946.98178  0.024500201  0.023932971           11 
 3222000   0.72682941   -6.7361254    944.18341  0.024420221  0.023925712            9 
 3223000   0.72252637   -6.7576936    943.33136  0.024390613  0.023918458           16 
 3224000   0.74459248   -6.7368837    946.43769   0.02446334  0.023911198           11 
 3225000    0.7503917   -6.7740449    946.13812  0.024448013  0.023903915           18 
 3226000   0.72284823   -6.7607955    945.50031  0.024423959  0.023896612            8 
 3227000   0.73442161     -6.76299    945.93296  0.024427563  0.023889313           10 
 3228000    0.7386582   -6.7535945     946.9273  0.024445665  0.023882044           15 
 3229000   0.72494324   -6.7333867    947.39963  0.024450285  0.023874787           12 
 3230000   0.73573253   -6.7630522    945.26383  0.024387612  0.023867495           22 
 3231000   0.75352243    -6.727729    949.04637  0.024477622  0.023860217           12 
 3232000   0.73085017   -6.7635809    945.03407  0.024366596  0.023852908           15 
 3233000   0.74078299   -6.7430288    948.40912  0.024446054  0.023845615            6 
 3234000   0.73371318   -6.7085994    946.91808  0.024400074  0.023838398           14 
 3235000   0.72781699   -6.7355425     947.4343   0.02440583  0.023831202           12 
 3236000   0.74164756   -6.7022916    949.23186  0.024444578  0.023824012           10 
 3237000   0.72329099   -6.7528608    947.70552  0.024397733  0.023816795           18 
 3238000   0.74720158   -6.7256621    947.29946  0.024379747  0.023809569           19 
 3239000   0.73672759   -6.7443173    947.01167  0.024364816  0.023802313            9 
 3240000   0.72671516   -6.7570478    946.75922  0.024350803  0.023795072            5 
 3241000    0.7523777   -6.7423461    946.31542  0.024331878  0.023787845            7 
 3242000   0.75406674   -6.7339281    948.88232  0.024390354   0.02378064           12 
 3243000   0.72284357   -6.7553307    948.18761  0.024364981  0.023773407           12 
 3244000   0.74696719   -6.7630156      946.534  0.024314992  0.023766125           18 
 3245000   0.72050987   -6.7668922    947.65214  0.024336213  0.023758867           10 
 3246000   0.73203504   -6.7759041    945.62646  0.024276711  0.023751628           23 
 3247000    0.7359638    -6.766033     946.7667  0.024298499  0.023744389           22 
 3248000    0.7215739   -6.7821184    946.43825  0.024282591  0.023737126           18 
 3249000    0.7288957   -6.7914033    947.56464  0.024304007  0.023729835           19 
 3250000   0.74257568    -6.791462    946.28632  0.024263752  0.023722523           10 
 3251000    0.7391719   -6.7476367    947.64887  0.024291215  0.023715276           15 
 3252000   0.72358881   -6.7767816    947.10895  0.024269909  0.023708033           15 
 3253000   0.73427972    -6.777268    947.94092  0.024283762  0.023700812           23 
 3254000   0.71549059   -6.7875977    946.14559  0.024230321  0.023693562            7 
 3255000   0.72693775   -6.7627851    945.28481   0.02420084  0.023686264            7 
 3256000   0.72771409   -6.7774375     946.2798  0.024218873  0.023679005           17 
 3257000   0.72417196   -6.7649161    949.00208  0.024281089  0.023671748            9 
 3258000   0.73281437   -6.7485483    948.97411  0.024272921  0.023664493           11 
 3259000   0.72856558   -6.7399614    949.15777  0.024270169  0.023657277            3 
 3260000    0.7245893   -6.7472986    948.90865  0.024256356  0.023650059           10 
 3261000   0.71988748   -6.7698676    946.72988   0.02419324  0.023642817           29 
 3262000   0.71682138   -6.7698683    947.83516   0.02421406  0.023635565            8 
 3263000   0.74788992   -6.7616893    946.39322  0.024169814   0.02362831           19 
 3264000   0.72998569   -6.7888223    946.39089  0.024162349  0.023621091           11 
 3265000   0.73001764   -6.7612344    947.96732  0.024195184  0.023613887           25 
 3266000   0.72783552   -6.7570034    948.64201  0.024204991  0.023606677            8 
 3267000    0.7414087   -6.7544216    948.46667   0.02419311  0.023599502            6 
 3268000   0.74236001   -6.7628207     945.3538  0.024106329   0.02359229            6 
 3269000   0.72751766   -6.7543432    947.47125  0.024152933  0.023585064           14 
 3270000   0.74103447   -6.7681553    946.34859  0.024116937  0.023577874           29 
 3271000   0.72129906   -6.7533508    949.06942   0.02417888  0.023570695           12 
 3272000   0.72804807   -6.7567946    949.03604  0.024170641   0.02356349           19 
 3273000   0.72489935   -6.7791727    949.55722  0.024176526  0.023556312           33 
 3274000   0.71278917   -6.7635351    950.78064  0.024200281  0.023549122           28 
 3275000   0.71964608    -6.785281    949.12389  0.024150735  0.023541909           14 
 3276000   0.71450242   -6.7674605    948.01372  0.024115123   0.02353474           16 
 3277000   0.73614881   -6.7388949    951.15057  0.024187533  0.023527621           17 
 3278000   0.76042415   -6.7646102    948.75118  0.024119158  0.023520482           23 
 3279000    0.7191939   -6.7635214    950.72243    0.0241619  0.023513383           11 
 3280000    0.7244554   -6.7462637    950.51956  0.024149379  0.023506286           20 
 3281000   0.73448147     -6.77337    949.23026  0.024109272  0.023499206           14 
 3282000    0.7154452   -6.7455719    951.99787  0.024172199  0.023492127           37 
 3283000   0.72437437   -6.7619777    951.12923  0.024142787  0.023485056           25 
 3284000   0.72797989   -6.7571611    948.93212  0.024079682  0.023477961           18 
 3285000   0.72394917   -6.7620564    949.78713  0.024094042  0.023470867           10 
 3286000   0.74080853   -6.7397298    952.88863  0.024165364  0.023463793           10 
 3287000   0.71881689   -6.7551815     949.6247  0.024075264  0.023456738           11 
 3288000   0.72998592   -6.7346093    949.11789  0.024055097  0.023449655           10 
 3289000   0.72983343   -6.7736077    948.90967  0.024042507  0.023442592           19 
 3290000   0.72505933   -6.7515762    951.85614  0.024109831   0.02343553           20 
 3291000    0.7309913   -6.7663357    948.19169  0.024009716  0.023428422            6 
 3292000   0.73201465    -6.767341    950.74711   0.02406711  0.023421294            9 
 3293000   0.71916675    -6.756627    951.99017  0.024091259  0.023414218           12 
 3294000   0.72648245    -6.776622    949.30802   0.02401609  0.023407139           60 
 3295000   0.73407606   -6.7855943    950.63886   0.02404246  0.023400043           16 
 3296000    0.7335797   -6.7747539    946.31873  0.023925939  0.023392923           26 
 3297000   0.71347952   -6.7910476    949.26939  0.023993261  0.023385814           27 
 3298000   0.74257588   -6.7653338    950.95613  0.024028607  0.023378691           20 
 3299000   0.72171057    -6.769538    951.72567  0.024040762  0.023371581           19 
 3300000   0.73674621   -6.7688642    949.74361  0.023983424  0.023364487           21 
 3301000   0.74809197   -6.7628587     948.1358   0.02393557  0.023357388            9 
 3302000   0.73018301    -6.763842    949.63281  0.023966102  0.023350334            9 
 3303000    0.7176828   -6.7805964    951.73587  0.024011905  0.023343234           11 
 3304000   0.73008947   -6.7695251    949.91428  0.023958694  0.023336114           16 
 3305000   0.72140648   -6.8052019    949.79668  0.023948479  0.023329009           11 
 3306000   0.73002047   -6.7640048    949.92833  0.023944554  0.023321888            6 
 3307000   0.72783074   -6.8073108    947.80967  0.023883925  0.023314744           16 
 3308000    0.6986412   -6.8103181    949.01113  0.023906971  0.023307609           10 
 3309000    0.7373994   -6.7574254    949.54999  0.023913317  0.023300493           23 
 3310000   0.72896602   -6.7806183     952.7269  0.023986075  0.023293385           11 
 3311000   0.71663488   -6.7836302    950.13972  0.023913715  0.023286291            9 
 3312000   0.73410666    -6.780768    948.91008  0.023875556  0.023279193           26 
 3313000   0.73317765   -6.7886267    950.84215  0.023916947   0.02327211           27 
 3314000   0.72009753   -6.7968239    949.69885  0.023880981  0.023265019           16 
 3315000   0.73902229   -6.7763545    950.17135  0.023885655  0.023257899           10 
 3316000   0.71992915   -6.7902531      950.341  0.023882715  0.023250806            9 
 3317000   0.74361459   -6.7823025    950.69122  0.023884314  0.023243715           36 
 3318000    0.7286254   -6.7801148    950.71771   0.02387778  0.023236639           19 
 3319000   0.72201044   -6.7923484    948.55841  0.023816371  0.023229534           10 
 3320000   0.71745113   -6.8220782    950.61723  0.023860874   0.02322243            8 
 3321000   0.72482391   -6.7755565    949.93269  0.023836512  0.023215349           18 
 3322000   0.71806899   -6.7800806    950.87971  0.023853093   0.02320829           20 
 3323000   0.72657352   -6.7586395    951.35853  0.023857923   0.02320127           21 
 3324000   0.70463691   -6.7741281    949.04959   0.02379286  0.023194205           18 
 3325000    0.7070455   -6.8077947    948.20527  0.023764543  0.023187117           28 
 3326000   0.71558708   -6.7879603     951.6248  0.023843075  0.023179997           10 
 3327000   0.69892404   -6.8287825    948.19096  0.023749899  0.023172853           19 
 3328000   0.72928645   -6.8035425    950.06458  0.023789678  0.023165724            9 
 3329000    0.7352524   -6.8041834    950.76088  0.023799962  0.023158618           10 
 3330000   0.71231314   -6.8045413    951.20477  0.023803923    0.0231515           16 
 3331000    0.7292588   -6.7789946    952.29895  0.023824151  0.023144411           19 
 3332000    0.7105971   -6.8134444     948.6469  0.023725663  0.023137289           13 
 3333000   0.71216415    -6.786436    949.50719  0.023740054  0.023130163           10 
 3334000   0.71602252   -6.8282221    948.49316  0.023707587  0.023123027           10 
 3335000   0.72217301   -6.7805844    950.13609  0.023741531  0.023115906            7 
 3336000   0.71800261   -6.8242834     949.3761   0.02371543    0.0231088            6 
 3337000   0.70332265   -6.7899748    950.19224  0.023728704  0.023101719            9 
 3338000   0.71357479   -6.8060677    951.08362  0.023743849   0.02309462           14 
 3339000   0.71772581   -6.7590221    949.93118  0.023707976  0.023087559           15 
 3340000   0.72746309   -6.7820651    951.37237  0.023736836  0.023080526            9 
 3341000   0.73328112   -6.7858982    948.31217  0.023653401  0.023073482            8 
 3342000   0.71916759   -6.7897568    950.58822  0.023703077  0.023066407           28 
 3343000   0.72304161   -6.7797278    951.00385  0.023706348  0.023059353           26 
 3344000   0.71156193   -6.7908266     949.8377  0.023670198  0.023052269           11 
 3345000   0.71093247   -6.7964524    949.98565  0.023666808  0.023045216           22 
 3346000   0.73568302   -6.8163298    949.87696  0.023657027  0.023038104           15 
 3347000   0.72765781    -6.812651    948.66957  0.023619898  0.023030976            7 
 3348000    0.7068588   -6.7869576    950.64797  0.023662086  0.023023908           15 
 3349000   0.72288799   -6.8095324    950.00569  0.023639039  0.023016826           11 
 3350000   0.70296214   -6.7865068    949.92492  0.023629973  0.023009718           12 
 3351000   0.71539154   -6.8044257    950.57329  0.023639045  0.023002624           12 
 3352000   0.72751189   -6.7966286    953.42621  0.023702919  0.022995557           14 
 3353000   0.72596915   -6.7977655    949.29692  0.023593223  0.022988504           16 
 3354000   0.73924188   -6.7847862    950.81563  0.023623922  0.022981469           18 
 3355000   0.69411675   -6.8203434    951.00932  0.023621692  0.022974399           13 
 3356000   0.70154738   -6.7800723    951.05557  0.023615802  0.022967287           15 
 3357000   0.71345185   -6.8207919    950.44784  0.023593681  0.022960215           15 
 3358000   0.71388909    -6.818543    948.43584  0.023536724  0.022953126           20 
 3359000    0.7114907   -6.8285852    950.71013   0.02358614  0.022946038           19 
 3360000    0.6999788   -6.8027228    949.74613  0.023555212   0.02293898           12 
 3361000   0.70824444   -6.8058134    951.48744  0.023591377  0.022931924           27 
 3362000   0.70531384   -6.8066788    950.88578  0.023569447   0.02292488            9 
 3363000   0.72933708    -6.794049    951.19678  0.023570145  0.022917813           12 
 3364000   0.71788606   -6.7915945    949.74189  0.023527098  0.022910764           11 
 3365000   0.71186944   -6.7949798    950.18037  0.023530965  0.022903708           17 
 3366000   0.71132791   -6.8013241    950.24895  0.023525672  0.022896673           36 
 3367000   0.71360529   -6.7899391    951.09593  0.023539648  0.022889615           15 
 3368000   0.71454225   -6.7829335    951.78487  0.023549705  0.022882571           19 
 3369000     0.719144   -6.8123416    950.03384  0.023499402  0.022875496           13 
 3370000   0.70120531   -6.8031571    950.19544  0.023496425  0.022868404           13 
 3371000   0.71307277   -6.8140509    950.98616  0.023509002  0.022861351           16 
 3372000   0.70509172   -6.8018611    952.52761  0.023540125  0.022854336           13 
 3373000   0.71453867   -6.7851325    953.68018  0.023561621  0.022847281           13 
 3374000   0.71368029   -6.8310849    949.19351  0.023443823  0.022840221           14 
 3375000   0.70851409   -6.7892699    950.60973  0.023471845  0.022833147           12 
 3376000   0.70623015   -6.8019136    950.82391  0.023470179  0.022826101           19 
 3377000   0.70558231   -6.7986589    950.32222  0.023450849  0.022819074           10 
 3378000    0.7042359   -6.8042226     949.3644  0.023420278  0.022812074           18 
 3379000   0.71686978   -6.7790906    951.81464  0.023473775   0.02280508           22 
 3380000   0.72864122   -6.8158463    951.12449  0.023449815   0.02279809           14 
 3381000    0.7088746   -6.7828369    953.41106  0.023499237  0.022791068           28 
 3382000   0.70812639   -6.8063403    951.07322  0.023434684  0.022784066           27 
 3383000    0.7068285   -6.8070497    952.47739  0.023462346  0.022777042            8 
 3384000   0.70921846   -6.8050411    952.38704  0.023453187  0.022770024           19 
 3385000   0.69794065   -6.8022115    950.35911  0.023396334  0.022763005           11 
 3386000   0.70970223   -6.7986739    951.85416   0.02342622  0.022756001           20 
 3387000   0.69826253   -6.7830692    951.29865  0.023405636  0.022749014           22 
 3388000   0.70594235   -6.7851746    953.36632  0.023449585  0.022742074           11 
 3389000   0.70723695    -6.783678    952.37821  0.023418369  0.022735096            8 
 3390000   0.70347951   -6.8439878    952.20226  0.023407135   0.02272809           20 
 3391000   0.69289849   -6.8099826    951.65381  0.023386754   0.02272109           19 
 3392000   0.71168192   -6.8199464    954.10244  0.023440017   0.02271409           23 
 3393000   0.71164027   -6.7906688    952.93319  0.023404391  0.022707111           15 
 3394000   0.72054383   -6.7783758    951.07078  0.023351767  0.022700156           13 
 3395000   0.70121813   -6.8281234    951.67973  0.023359836  0.022693154           16 
 3396000   0.72238928    -6.837914      951.063  0.023337824  0.022686121           34 
 3397000   0.71533305   -6.7713391    952.45605  0.023365127  0.022679135           17 
 3398000   0.70702059   -6.7933596    951.95098  0.023345865  0.022672163            8 
 3399000   0.71833158   -6.8031963    951.89816  0.023337701  0.022665155           14 
 3400000   0.71041114   -6.7947882    953.78427  0.023377065  0.022658173           26 
 3401000   0.72096162   -6.7944691    952.55456  0.023340061  0.022651207           32 
 3402000   0.70915997    -6.821056    950.68323  0.023287361  0.022644251           15 
 3403000   0.71468046   -6.8271366    953.46804  0.023348713  0.022637252           10 
 3404000   0.70829003   -6.8728362     948.9879  0.023232175  0.022630235           12 
 3405000   0.72038507   -6.8630128    949.95068  0.023248915  0.022623214            9 
 3406000   0.70485609   -6.8198423    952.05512  0.023293578  0.022616203           11 
 3407000   0.69708892   -6.8215238    952.51377  0.023297959  0.022609212           16 
 3408000   0.71283924    -6.847372    951.46273  0.023265423  0.022602235           21 
 3409000   0.71471663   -6.8292412    952.38594  0.023281166  0.022595259           43 
 3410000   0.70080316   -6.8443832    949.73099  0.023209457  0.022588284           20 
 3411000   0.69256792   -6.8138441    953.25805  0.023288822  0.022581272           27 
 3412000   0.70887122   -6.8424212    951.54973  0.023240273  0.022574278           15 
 3413000   0.69827796   -6.8399051    952.24567  0.023250456  0.022567273           13 
 3414000   0.71120017   -6.8609367    950.80182  0.023208402   0.02256028           21 
 3415000   0.71440147   -6.8379606    950.67305  0.023198464  0.022553255           39 
 3416000   0.69032463    -6.854529     952.0135  0.023224373  0.022546255           45 
 3417000     0.714483   -6.8589773    950.23836  0.023174285  0.022539258           20 
 3418000   0.70933758   -6.8450169    952.71165  0.023227805  0.022532279           19 
 3419000   0.69322137   -6.8338529      954.399  0.023262138  0.022525316           16 
 3420000   0.69790561   -6.8155285    953.61992  0.023236353  0.022518376            8 
 3421000   0.70618215   -6.8343366    951.77283  0.023184567  0.022511461            8 
 3422000   0.70784132   -6.8425276    952.41816  0.023193507  0.022504491           16 
 3423000   0.70588234   -6.7959468    953.73755  0.023218852  0.022497584           32 
 3424000   0.70518061    -6.845675    952.36822  0.023178744  0.022490655           21 
 3425000   0.70060712   -6.8265935     951.7718  0.023157465   0.02248372           21 
 3426000   0.70526613    -6.850713    952.87493  0.023177538  0.022476792           14 
 3427000    0.7145236   -6.8332452    952.75653  0.023167895  0.022469872           18 
 3428000   0.71213626   -6.8376784    954.67463  0.023207765  0.022462964           37 
 3429000   0.68334988   -6.8461619    952.85414  0.023156755  0.022456025           15 
 3430000   0.70307277   -6.8508104    951.39137  0.023114465   0.02244907           16 
 3431000   0.70502972   -6.8704881     954.1974  0.023175882  0.022442107           19 
 3432000   0.71219074   -6.8609754    951.00995  0.023091734  0.022435175           11 
 3433000   0.70633487   -6.8330898    953.58743  0.023147573  0.022428289            8 
 3434000   0.70143991   -6.8312312    953.18248  0.023131006  0.022421394            9 
 3435000    0.6969889   -6.8233058    953.78433  0.023138873  0.022414529           12 
 3436000   0.70099321   -6.8524641    952.49731  0.023100924  0.022407653           17 
 3437000   0.70567362   -6.8222273    951.91029   0.02307997  0.022400742           10 
 3438000   0.70111309   -6.8199327    953.29221  0.023106753  0.022393827           14 
 3439000   0.70443553   -6.8331225    953.53495  0.023105916  0.022386907           25 
 3440000   0.69003558   -6.8384411    952.27637  0.023068711  0.022380008           12 
 3441000   0.70356115   -6.8244371     952.5682  0.023069074    0.0223731           19 
 3442000   0.70617965   -6.8409602    953.89492  0.023094492    0.0223662           12 
 3443000    0.7046721   -6.8457509    951.69519  0.023034543  0.022359278           23 
 3444000   0.69597969   -6.8107738    952.86591  0.023056182  0.022352372           13 
 3445000   0.70560579   -6.8182539    954.20974  0.023081997  0.022345509           13 
 3446000   0.69426502   -6.8258938    952.40904  0.023031753  0.022338657            7 
 3447000   0.72219949   -6.8498242    952.71185  0.023032392  0.022331774           22 
 3448000   0.70049632   -6.8268365    952.70783  0.023025614  0.022324914            6 
 3449000   0.70517784   -6.8141038    954.19073  0.023054768  0.022318026           20 
 3450000   0.69585308   -6.8255029    953.20699  0.023024324  0.022311151           16 
 3451000   0.69975375   -6.8364769    953.88332  0.023033983  0.022304289           15 
 3452000   0.70384683   -6.8271578    954.05233  0.023031391  0.022297417           15 
 3453000   0.69448409   -6.8367639    951.27824  0.022957772  0.022290537            7 
 3454000    0.6943887   -6.8382315    953.33374  0.023000717   0.02228366           37 
 3455000     0.698565   -6.8410582    954.20879  0.023015166  0.022276788           19 
 3456000   0.71296536   -6.8377556    950.50628  0.022919229  0.022269911           25 
 3457000   0.68614151   -6.8369764    952.13979  0.022951976  0.022263024           16 
 3458000   0.68772576    -6.856011    955.35255  0.023022762  0.022256129           19 
 3459000   0.69162768   -6.8785371    952.85745  0.022955995  0.022249225           15 
 3460000   0.69425532   -6.8237968    954.61887  0.022991784  0.022242352           15 
 3461000   0.69108223   -6.8106236    954.96302  0.022993427  0.022235519           12 
 3462000   0.69938944   -6.8115423    957.02736  0.023036476  0.022228704           25 
 3463000   0.70339652   -6.8347754    952.48838  0.022920598  0.022221843           28 
 3464000   0.70226458   -6.8554705    953.05352  0.022927577  0.022214973           38 
 3465000   0.70175988   -6.8552342    953.36517  0.022928455  0.022208118           10 
 3466000   0.70040379   -6.8442391    954.23049  0.022942645  0.022201264           14 
 3467000   0.69314764   -6.8401609    956.34018  0.022986736   0.02219438           26 
 3468000   0.70886947   -6.8564187    953.07236  0.022901585  0.022187553           27 
 3469000   0.68402914   -6.8225244    953.81438  0.022912808  0.022180705           12 
 3470000   0.69738204   -6.8476977    952.83666  0.022882725  0.022173835           31 
 3471000   0.68904402   -6.8379981    955.03694  0.022928957  0.022166984           30 
 3472000   0.68780328   -6.8265211     955.0023  0.022921522  0.022160125           15 
 3473000     0.711339   -6.8324021    953.70961  0.022883905  0.022153264           27 
 3474000   0.68499303   -6.8667134    951.96698  0.022835516  0.022146412           35 
 3475000   0.69740679   -6.8748843    955.11728  0.022904491  0.022139528           19 
 3476000   0.69241157   -6.8479255    953.02795  0.022847812  0.022132631           21 
 3477000   0.70898874   -6.8615145     952.8598  0.022837211  0.022125739            8 
 3478000   0.70204113   -6.9023927    950.70117  0.022778924  0.022118829           19 
 3479000   0.69214683   -6.8861871    948.85866  0.022728242  0.022111874           41 
 3480000   0.69463819   -6.8547818    953.32163  0.022828583  0.022104948           33 
 3481000   0.70317293   -6.8801491    952.79812  0.022809492  0.022098051           25 
 3482000   0.69329628   -6.8851247    952.18405  0.022788245  0.022091161           22 
 3483000    0.6952015   -6.8639576    954.33963  0.022833277  0.022084271           15 
 3484000   0.68718449   -6.8713949    953.46254  0.022805744  0.022077387           12 
 3485000   0.71288574   -6.8885148    951.73987  0.022758008  0.022070482           13 
 3486000   0.67917966    -6.861694    953.32724  0.022789425   0.02206358           27 
 3487000   0.68814236   -6.8704318      954.053  0.022800234  0.022056689           20 
 3488000   0.69457079   -6.8693606    953.75238  0.022786515   0.02204981           20 
 3489000   0.69779506   -6.8806835    955.32454  0.022817535  0.022042927           11 
 3490000   0.69618132   -6.8676306    954.58364  0.022793306  0.022036051           11 
 3491000    0.6924783   -6.8673046    953.52474    0.0227615  0.022029164           26 
 3492000   0.69567904   -6.8676813    952.48972  0.022730282  0.022022278           15 
 3493000   0.68836338   -6.8607463    954.26324  0.022766085  0.022015398           15 
 3494000   0.69052796   -6.8687533     953.0847  0.022731461  0.022008537           17 
 3495000   0.68951398   -6.8567653    954.61142   0.02276136  0.022001674           19 
 3496000   0.68552299   -6.8814283    954.85427  0.022760638  0.021994796           26 
 3497000   0.68560878   -6.8595271    955.70368   0.02277437  0.021987939           17 
 3498000   0.68639055   -6.8794623     952.3019  0.022686819  0.021981073           30 
 3499000   0.68970558   -6.8752508    954.61072  0.022735322  0.021974253           25 
 3500000   0.69476825   -6.8624196    954.76271  0.022732446  0.021967435           15 
 3501000   0.69167512   -6.8450772    953.79988  0.022703034  0.021960601           11 
 3502000   0.69579988   -6.8424574    954.12804   0.02270436  0.021953796           17 
 3503000   0.67700562   -6.8604774     954.8554  0.022715182  0.021946982           11 
 3504000   0.67697271   -6.8713928    955.82834  0.022731838  0.021940164           22 
 3505000   0.67996064   -6.8496155     954.6984  0.022698488  0.021933338           14 
 3506000   0.69291446    -6.893345    954.73894  0.022692977  0.021926533            7 
 3507000    0.7064495   -6.8742788    951.85496  0.022617977   0.02191971           12 
 3508000   0.69113387   -6.8671283    951.71177  0.022608128  0.021912904           31 
 3509000    0.6876465   -6.8861751      955.743  0.022697421  0.021906083           18 
 3510000   0.68278352   -6.8794237     953.4654   0.02263688  0.021899283           12 
 3511000   0.67804075   -6.8667568    955.11378  0.022669557  0.021892474           23 
 3512000    0.7006264    -6.875628    956.44172  0.022694612  0.021885677           27 
 3513000   0.68800231   -6.8789668    952.86635  0.022603339  0.021878875           16 
 3514000   0.70010362   -6.8754277    955.95508  0.022670155  0.021872063           14 
 3515000   0.68122338   -6.8795667     951.9959  0.022569841   0.02186524           16 
 3516000   0.68650042   -6.8797233    952.09846  0.022565853  0.021858404           12 
 3517000   0.68137042   -6.8902143    954.28402  0.022611222  0.021851588           10 
 3518000   0.67798362   -6.8712215    954.94465  0.022620444  0.021844785           15 
 3519000   0.68810602   -6.8806564    954.74406  0.022609265   0.02183801           26 
 3520000   0.69001436    -6.898675    952.50606  0.022549859  0.021831201           60 
 3521000   0.67066549   -6.8781274    955.60885   0.02261689  0.021824386           27 
 3522000   0.68471621    -6.916726    952.73562  0.022542486  0.021817588           56 
 3523000   0.68924165    -6.865849    956.44295  0.022623781  0.021810787           54 
 3524000   0.68851868   -6.8848965    955.94285  0.022605535  0.021804001           25 
 3525000   0.68919767    -6.860025    954.72971  0.022570442  0.021797237           51 
 3526000   0.69660963   -6.8605642    955.19484  0.022575034  0.021790457           32 
 3527000   0.68158257   -6.8611713    955.47675  0.022575294  0.021783671           10 
 3528000   0.67416316    -6.874392    953.54962  0.022523375  0.021776877           37 
 3529000   0.68541463   -6.8764393    954.13526  0.022530822  0.021770056           14 
 3530000   0.68118475   -6.8861794     955.4262  0.022554915  0.021763226           32 
 3531000   0.69583792   -6.8778657    955.37323  0.022547277  0.021756407           11 
 3532000    0.6925447   -6.8747511    956.44591  0.022566202  0.021749645           17 
 3533000   0.68387545   -6.8943095    954.39326  0.022511399   0.02174286           25 
 3534000   0.68200488   -6.9116611    953.04005  0.022473119   0.02173606           15 
 3535000   0.70779733   -6.9140954    951.59476  0.022432691  0.021729247           24 
 3536000   0.68188212   -6.8794883    953.93733  0.022481555  0.021722426           22 
 3537000   0.68355191   -6.8872546    954.36252  0.022485216  0.021715634           37 
 3538000   0.68958984   -6.8833737    952.60736   0.02243752  0.021708852           10 
 3539000   0.67636173    -6.878782    954.64994  0.022479277  0.021702076           12 
 3540000   0.68542946   -6.8912259    954.09932  0.022459965  0.021695317           33 
 3541000   0.67356253   -6.8890434    952.03777  0.022405106  0.021688544           20 
 3542000   0.68295248   -6.8673531    954.33969  0.022452938  0.021681774           13 
 3543000   0.69228101   -6.8781167    954.00746  0.022438787  0.021674999           28 
 3544000   0.68498961   -6.8798034     955.5226  0.022468082   0.02166822           15 
 3545000   0.69299382   -6.8650971    955.79398  0.022468124  0.021661469           19 
 3546000   0.66478113   -6.9005212    954.97488  0.022442538  0.021654697           31 
 3547000   0.67527449   -6.8884605    953.80557  0.022408739  0.021647928           19 
 3548000   0.68960459   -6.8842136    954.25116  0.022412889  0.021641139           19 
 3549000   0.68030004   -6.8751416    955.54107  0.022436862  0.021634371           12 
 3550000   0.68703583   -6.9026749    954.11214  0.022396999  0.021627603           33 
 3551000   0.67846226   -6.8975001    952.97331  0.022363966  0.021620814           13 
 3552000   0.67745522    -6.903998    952.15243  0.022338411  0.021614013           24 
 3553000    0.6775196   -6.9059269    954.13512  0.022378626  0.021607227           21 
 3554000   0.67488868   -6.9017683    953.54975  0.022358604  0.021600442           15 
 3555000   0.67287665    -6.926338     952.9807  0.022338976  0.021593676           33 
 3556000   0.67859836   -6.8963208    954.29177  0.022363418  0.021586916           17 
 3557000   0.68075522   -6.8903083    954.53292  0.022362781  0.021580152           33 
 3558000   0.68628899   -6.8993864    954.62096  0.022358557  0.021573422           31 
 3559000   0.67527343   -6.8972352    953.89507  0.022335278  0.021566689           20 
 3560000   0.67875906   -6.8967089    953.37764  0.022316892  0.021559933           33 
 3561000   0.69595239   -6.8966815     954.9933  0.022348435  0.021553205           35 
 3562000   0.67074366   -6.8977802    953.96731  0.022318157  0.021546457           28 
 3563000   0.67836354   -6.8970797    953.45787  0.022299978  0.021539701           28 
 3564000   0.69136114   -6.8998858    954.88777  0.022327155  0.021532943           18 
 3565000   0.68373075   -6.8892378     953.2692  0.022283057  0.021526191           36 
 3566000   0.68904334   -6.8992577    956.81943  0.022359774  0.021519459           27 
 3567000   0.67648576   -6.8923476    954.62626  0.022302267  0.021512735           28 
 3568000   0.68082787   -6.8945946    955.63449  0.022319565   0.02150602           26 
 3569000   0.68683202   -6.8916756    953.19835  0.022256429  0.021499333           37 
 3570000   0.68087761   -6.8989894    953.86931  0.022265857   0.02149265           35 
 3571000   0.67869014   -6.8973486    955.72326  0.022302886   0.02148594           46 
 3572000   0.68340237   -6.8968134    956.06545  0.022304625  0.021479243           50 
 3573000    0.6825485   -6.9026133    955.10863  0.022276066  0.021472521           51 
 3574000   0.67995472   -6.8975574    953.97086  0.022243305  0.021465803           35 
 3575000   0.66987552   -6.8732273    952.88772  0.022211835  0.021459097           57 
 3576000   0.68614799   -6.9133584     953.3028  0.022215297  0.021452391           54 
 3577000   0.68331591   -6.9020792     954.0661  0.022226868  0.021445697           64 
 3578000   0.67424769   -6.9136911     957.2013  0.022293677  0.021439007           43 
 3579000    0.6756424   -6.9194064    956.27497  0.022265879  0.021432283           57 
 3580000   0.68708878   -6.9195672    956.00944  0.022253479  0.021425528           36 
 3581000     0.687802   -6.9053812    952.63541  0.022168747  0.021418808           38 
 3582000    0.6881045   -6.9112785     954.4523  0.022204827  0.021412073           89 
 3583000   0.67918879   -6.9178247    953.00522  0.022164974  0.021405346           57 
 3584000   0.67994467   -6.8930182    954.47932  0.022193064  0.021398627           26 
 3585000   0.67717157   -6.8829476    955.53015    0.0222113  0.021391899           25 
 3586000    0.6745497   -6.9118607    954.75154  0.022187013  0.021385192           94 
 3587000    0.6909955   -6.8864846    956.74755  0.022227199  0.021378474           55 
 3588000   0.66622584   -6.8927385    955.60487  0.022194465  0.021371772           56 
 3589000   0.67877707   -6.9270553    953.79745  0.022146314  0.021365046           33 
 3590000   0.66618107   -6.9161988    952.09183  0.022100553  0.021358316           41 
 3591000   0.68189839   -6.9164844    954.14377  0.022142016  0.021351583           42 
 3592000   0.67198836   -6.9064669    953.27774  0.022115761  0.021344841           43 
 3593000   0.67261128   -6.8940436    954.04837  0.022127479   0.02133813           42 
 3594000   0.67195014   -6.8913659    955.62087  0.022157783  0.021331434           56 
 3595000   0.67068556   -6.8986124    953.04822  0.022091985  0.021324735           37 
 3596000   0.67949409   -6.9081304    954.52421  0.022120046  0.021318033           52 
 3597000   0.66707996   -6.9111114      954.699  0.022117945  0.021311325           59 
 3598000   0.67042649   -6.8991159    956.90539    0.0221629  0.021304638           85 
 3599000   0.67207452   -6.9283233    953.90227  0.022087206  0.021297915           53 
 3600000   0.66696283   -6.8931038    955.16021   0.02211019  0.021291203           29 
 3601000   0.67839784   -6.9165264    953.06994  0.022055678  0.021284458           34 
 3602000   0.67829843   -6.9217142    953.55459  0.022060767  0.021277721           44 
 3603000   0.68006628    -6.924298    955.55574  0.022100928  0.021271002           24 
 3604000   0.67324816    -6.926699    955.02069  0.022082424  0.021264311           27 
 3605000   0.68039957   -6.9282908    953.53801  0.022042025  0.021257588           23 
 3606000   0.68645117     -6.93606    951.64086   0.02199207   0.02125089           41 
 3607000   0.67551337   -6.9154898    954.34269  0.022048394  0.021244195           18 
 3608000   0.68758841   -6.8955588    954.03456  0.022035166  0.021237497           39 
 3609000   0.67547791   -6.9171168    953.51339  0.022017027  0.021230823           48 
 3610000   0.67483313   -6.9199466    954.13274  0.022025225  0.021224103           76 
 3611000   0.68219555   -6.9267378    954.63763  0.022030777    0.0212174           42 
 3612000    0.6818357   -6.8987896    953.69345  0.022002894  0.021210689           36 
 3613000   0.67566641   -6.9129852    951.87713  0.021954911  0.021204011           18 
 3614000   0.66395357   -6.9514114    952.90725  0.021972589  0.021197319           47 
 3615000    0.6668311   -6.9179857    952.24543  0.021951255  0.021190644           30 
 3616000   0.67010775   -6.9371037    953.78766  0.021980726  0.021183932           65 
 3617000   0.66564156     -6.91464    956.72281  0.022042273  0.021177244           11 
 3618000   0.66229727   -6.9255393    954.30436  0.021980476  0.021170568           40 
 3619000   0.67301034   -6.9080582     954.5411  0.021979854  0.021163879           47 
 3620000    0.6721049   -6.9265203    953.50513  0.021949934  0.021157176           22 
 3621000   0.68079365   -6.9436675    952.04239  0.021910209  0.021150449           26 
 3622000   0.66656268   -6.8994259    954.87274  0.021969279  0.021143744           27 
 3623000   0.66681168   -6.9600432    951.81043  0.021892778  0.021137044           38 
 3624000   0.65936902   -6.9247592    955.04499  0.021961116   0.02113034           16 
 3625000   0.67244603   -6.9528473    952.78325  0.021903063  0.021123643           21 
 3626000   0.67582787   -6.9365402    952.64639  0.021893877  0.021116922           44 
 3627000   0.66102596   -6.9379653    952.12695  0.021875906  0.021110213           39 
 3628000   0.67360357   -6.9634995    951.58457  0.021857418  0.021103506           43 
 3629000   0.65957463   -6.9157248    953.94491  0.021905596  0.021096819           40 
 3630000   0.66263454   -6.9401004    955.50491  0.021935374   0.02109011           37 
 3631000   0.67061199   -6.9278105    951.96761  0.021848151  0.021083425           63 
 3632000   0.66819173   -6.9096493    953.98199  0.021888353  0.021076749           32 
 3633000   0.66643862   -6.9016271    955.51912  0.021917587  0.021070085           17 
 3634000   0.67533971   -6.9282089    956.02641  0.021923189  0.021063434           34 
 3635000   0.67468971   -6.9389312    951.98323  0.021824467   0.02105679           41 
 3636000   0.69665195   -6.9467601     953.6579  0.021856846  0.021050126           42 
 3637000    0.6753722   -6.9215097     953.4592  0.021846283  0.021043458           60 
 3638000   0.67883497    -6.935794    951.08114  0.021785806  0.021036782           98 
 3639000   0.68185718   -6.9074641    956.68467   0.02190814  0.021030109           38 
 3640000   0.68051442   -6.9455036    955.83459   0.02188266  0.021023448           69 
 3641000   0.67771854   -6.9494278    952.56408  0.021801796  0.021016799           91 
 3642000   0.66372226   -6.9345006    955.04381  0.021852549  0.021010117           49 
 3643000   0.66680696   -6.9172806    953.47557  0.021810677  0.021003456           56 
 3644000   0.66492961   -6.9504184    953.27335  0.021800068  0.020996802           31 
 3645000   0.66502531   -6.9640007    953.32893  0.021795357  0.020990124           32 
 3646000   0.67386599   -6.9549882    955.13709  0.021830707  0.020983468           19 
 3647000    0.6590131   -6.9494916    953.80608  0.021794308  0.020976809           43 
 3648000   0.66082413   -6.8993513    956.11344  0.021841042  0.020970162           35 
 3649000   0.65775195   -6.8972094    955.98012  0.021832011  0.020963548           30 
 3650000   0.65794101   -6.9558311    953.21286  0.021762851  0.020956934           19 
 3651000   0.66683002   -6.9339703    954.25732  0.021780729  0.020950304           16 
 3652000   0.66707641   -6.9442351    955.95444  0.021813491  0.020943686           17 
 3653000   0.67555028    -6.947756    955.34574  0.021793634  0.020937081           45 
 3654000   0.66656021   -6.9188624    956.48103  0.021813561   0.02093049           50 
 3655000   0.66833064   -6.9554978    954.66423   0.02176617  0.020923882           21 
 3656000   0.66259356   -6.9239151     955.7624  0.021785248  0.020917266           24 
 3657000   0.66879713    -6.928724    954.55494  0.021751776  0.020910672           30 
 3658000   0.65260749    -6.950376    955.85948  0.021775549  0.020904086           39 
 3659000     0.655318   -6.9436114    954.46426  0.021737821  0.020897494           53 
 3660000   0.64792216   -6.9753731    953.31426  0.021705698  0.020890884           22 
 3661000   0.68668275   -6.9386684    955.18813  0.021742423  0.020884275           18 
 3662000   0.66946767    -6.942872    955.43889  0.021742192  0.020877675           26 
 3663000   0.65730645   -6.9525426    956.24928  0.021754693  0.020871078           54 
 3664000   0.65707046   -6.9583991    956.11518  0.021745705  0.020864461           24 
 3665000     0.668722   -6.9510759    953.11113  0.021671467  0.020857833           33 
 3666000   0.67401569   -6.9664052    953.41104  0.021672373  0.020851196           26 
 3667000   0.66484869   -6.9355496    955.51952  0.021714379  0.020844594           16 
 3668000   0.66997804   -6.9372911    954.84486  0.021693131  0.020838009           27 
 3669000   0.66068085    -6.939563    956.34726  0.021721342  0.020831426           44 
 3670000   0.66444591   -6.9397745    956.46892  0.021718186  0.020824829           17 
 3671000   0.66774054   -6.9223533    954.64478  0.021670861  0.020818248           25 
 3672000   0.67688455   -6.9687462    952.74085  0.021621751  0.020811667           22 
 3673000   0.65395506   -6.9265707    954.46462  0.021654974  0.020805079           22 
 3674000   0.67234814   -6.9507523    955.63123  0.021675541  0.020798524           28 
 3675000   0.68597303   -6.9638682    954.60867  0.021646455  0.020791943           65 
 3676000   0.67071036    -6.943173    954.30346  0.021633648  0.020785367           63 
 3677000   0.65973977   -6.9526053    955.11291  0.021646109  0.020778788           44 
 3678000   0.66601561   -6.9495133    955.47864   0.02164851  0.020772231           27 
 3679000   0.66429229   -6.9507498    955.18438   0.02163596  0.020765656           47 
 3680000   0.67621663   -6.9401856     957.2998  0.021677985  0.020759083           24 
 3681000   0.66463096   -6.9395355    955.48496   0.02163101  0.020752505           24 
 3682000    0.6586382   -6.9657641    954.66791  0.021606643  0.020745925           18 
 3683000    0.6592676   -6.9465659    956.08103   0.02163275  0.020739361           25 
 3684000    0.6679282   -6.9433309    954.46703  0.021590369  0.020732814           22 
 3685000   0.64835975    -6.924802    954.80458  0.021592143   0.02072627           40 
 3686000   0.66287369   -6.9429571     955.9708  0.021612652  0.020719762           43 
 3687000   0.66129131   -6.9319878     957.4009  0.021639113  0.020713249           17 
 3688000   0.64569187   -6.9624859    955.51441  0.021590618  0.020706726           37 
 3689000   0.67164593   -6.9474442    955.80692  0.021591374  0.020700197           22 
 3690000   0.65313938   -6.9559711    954.92108  0.021565517  0.020693672           18 
 3691000   0.65743157    -6.926793    956.58512  0.021597244  0.020687145           27 
 3692000   0.66515539   -6.9561679    955.05756  0.021556915  0.020680646           28 
 3693000   0.67244296   -6.9502507    955.25904  0.021555624  0.020674111           34 
 3694000   0.66022287   -6.9547862    954.86859  0.021540981    0.0206676           19 
 3695000   0.65104579   -6.9570792    955.57505  0.021551084  0.020661078           13 
 3696000   0.66566833   -6.9835089    952.59268   0.02147801  0.020654542           24 
 3697000   0.65009111   -6.9348645    954.67104  0.021519048   0.02064801           38 
 3698000   0.66392317    -6.960842    955.81605  0.021539031  0.020641463           23 
 3699000   0.65856958   -6.9540408    955.40789  0.021524013  0.020634922           41 
 3700000   0.66293537   -6.9673341    956.80219  0.021549599   0.02062838           21 
 3701000   0.65642785   -6.9626367    953.54802  0.021470504  0.020621825           39 
 3702000   0.66182397   -6.9472654    954.05659  0.021476152  0.020615289           41 
 3703000   0.65306649   -6.9529453    954.81736  0.021487473  0.020608741           38 
 3704000   0.65987645   -6.9412515     958.5665  0.021566021  0.020602209           31 
 3705000   0.65695984   -6.9434221    956.18807  0.021506704  0.020595702           40 
 3706000   0.66005514   -6.9514713     956.5772  0.021509651  0.020589186           53 
 3707000   0.65974213   -6.9554853    956.81893  0.021509283  0.020582663           36 
 3708000   0.67536187   -6.9593693    954.64634  0.021454655  0.020576152           26 
 3709000   0.66183573   -6.9723121    952.02575  0.021389992  0.020569611           51 
 3710000   0.66862129    -6.967429    954.28057  0.021434874  0.020563062           98 
 3711000   0.67232844   -6.9411868    953.92955  0.021421215  0.020556544           69 
 3712000   0.65776829   -6.9612509     956.2093  0.021466624  0.020550032          166 
 3713000   0.66644881    -6.953524    955.13453  0.021436721   0.02054352           59 
 3714000   0.67548356   -6.9660304     955.2474  0.021433481  0.020536992           89 
 3715000    0.6510474   -6.9667772    955.09004  0.021424182  0.020530489           69 
 3716000   0.65870885   -6.9650113    955.49661  0.021427534  0.020523973           75 
 3717000   0.65177572   -6.9660712    954.35952  0.021396277  0.020517452           36 
 3718000   0.65963635   -6.9433153    956.98532  0.021449375  0.020510934           88 
 3719000   0.65084734    -6.958435    956.93001  0.021442368  0.020504417          119 
 3720000   0.64824522   -6.9711772    953.69085  0.021364042   0.02049789          142 
 3721000   0.66681277   -6.9724288    954.98285  0.021387236  0.020491376          117 
 3722000   0.66487947   -6.9683226    954.24785  0.021365033  0.020484849           74 
 3723000   0.66064704   -6.9772914     955.0744  0.021377796  0.020478305           94 
 3724000   0.67158757   -6.9804987     952.1507   0.02130663  0.020471774          164 
 3725000   0.65501185   -7.0039586    954.37707  0.021350717  0.020465238           89 
 3726000   0.64963195   -6.9812419    956.11617  0.021383883  0.020458703           70 
 3727000   0.65652469   -6.9638627    954.19749  0.021335245   0.02045219           62 
 3728000   0.66364519   -6.9480023    954.25886  0.021330894   0.02044568           46 
 3729000   0.65992635   -6.9616736    955.26346  0.021347623  0.020439188           57 
 3730000   0.66039775   -6.9685825    954.74886  0.021330403  0.020432702          103 
 3731000   0.66127365   -6.9911514    952.54677  0.021275502  0.020426219           80 
 3732000   0.65985124    -6.989815    955.05836  0.021325883  0.020419732          108 
 3733000   0.65294412   -6.9558854    956.74654  0.021357856  0.020413247           72 
 3734000   0.65008871    -6.975104     954.0441  0.021291825  0.020406783           49 
 3735000   0.65182668   -6.9664248    954.54565  0.021297315  0.020400315          121 
 3736000   0.66486074   -6.9908369    954.72117  0.021295529  0.020393831          156 
 3737000    0.6464021   -6.9782835    956.03487  0.021319126   0.02038736          108 
 3738000   0.64603817   -6.9523796    956.18372  0.021316741  0.020380911          145 
 3739000   0.65861501   -6.9578742     955.3022  0.021291393  0.020374469           88 
 3740000   0.65448708   -6.9649498    956.46289  0.021311562  0.020368008           89 
 3741000   0.65274042   -6.9940468    954.24967  0.021256564  0.020361527          103 
 3742000   0.63602325   -6.9863841    954.08173  0.021247143  0.020355054          108 
 3743000   0.64626859   -6.9741278    955.90357  0.021282028   0.02034857           86 
 3744000   0.65501635   -6.9755292    955.62563  0.021270157  0.020342103           99 
 3745000   0.65404586    -6.961712    954.97021  0.021249893  0.020335631          100 
 3746000   0.65000629   -6.9791994    955.47426  0.021255434   0.02032916           89 
 3747000   0.64716659   -6.9856138    954.11928  0.021219626  0.020322694          164 
 3748000   0.64054651   -6.9573299    955.27896  0.021239749  0.020316223          101 
 3749000    0.6527631   -6.9683446    954.93544  0.021226448  0.020309747          100 
 3750000   0.65745751    -7.009952    951.96384  0.021154752  0.020303266          149 
 3751000   0.65103697   -7.0023099    953.30411  0.021178888  0.020296783          111 
 3752000   0.63745322   -6.9895581     954.4554  0.021198814  0.020290293          125 
 3753000   0.65233187   -7.0066944    952.53694  0.021150567   0.02028378          152 
 3754000    0.6489029   -7.0121532    955.21177   0.02120431  0.020277274          152 
 3755000   0.65850044    -6.990542    954.26398  0.021177629  0.020270773          104 
 3756000   0.65620223   -7.0138906    954.39631  0.021174927  0.020264272          135 
 3757000   0.64926781    -6.999647    953.15054  0.021141659   0.02025779           91 
 3758000   0.65380933   -6.9920224    954.12007  0.021157532  0.020251274          132 
 3759000   0.65155835   -7.0236986    952.34111  0.021112466  0.020244758          143 
 3760000    0.6422198   -7.0353781    951.81444  0.021095178  0.020238227          164 
 3761000   0.63418286   -7.0167677    951.75795  0.021088317  0.020231694          224 
 3762000    0.6633904   -6.9991407    954.06431  0.021133801  0.020225179          254 
 3763000   0.65629643   -7.0186679    954.06334  0.021128163  0.020218653          130 
 3764000   0.65114213   -7.0060862    954.13419  0.021124119  0.020212153          173 
 3765000   0.65288731   -7.0290062    952.01357  0.021071571  0.020205637           92 
 3766000   0.66208603   -7.0257272    949.93367  0.021019952  0.020199127           66 
 3767000   0.64600386   -7.0203621    952.56908  0.021072672  0.020192613           79 
 3768000   0.64094808   -7.0225637    954.18292  0.021102772  0.020186088          238 
 3769000   0.65541102   -7.0194255    953.02196  0.021071503  0.020179563          290 
 3770000   0.62622475   -7.0211301    953.14306  0.021068591  0.020173052          221 
 3771000   0.64600283   -6.9898497     955.3606  0.021112008  0.020166554           93 
 3772000   0.64078755   -7.0109066    953.87676  0.021073629  0.020160085          253 
 3773000   0.64201634   -7.0064809    953.05711  0.021049941  0.020153613          145 
 3774000    0.6532632   -7.0065016    952.40615  0.021029989  0.020147124          120 
 3775000   0.65824983   -7.0093958    954.52807   0.02107126  0.020140644          161 
 3776000   0.64912944   -7.0026982    951.90401  0.021007769  0.020134153          103 
 3777000   0.64669586   -7.0080735     951.9438  0.021003084  0.020127667          159 
 3778000   0.65056043   -7.0047404    952.54364  0.021010756  0.020121188          154 
 3779000   0.64211062   -6.9950387    954.87412  0.021056587  0.020114727           65 
 3780000    0.6459944   -6.9954149    954.24955  0.021037248  0.020108273          119 
 3781000   0.64433411   -7.0119989     954.1049  0.021028496  0.020101797          132 
 3782000   0.67886286   -7.0317131    952.17252  0.020980357  0.020095295           99 
 3783000   0.64589621   -7.0170188    955.20221   0.02104155  0.020088832          109 
 3784000   0.64278991   -7.0082265    952.15428  0.020968866  0.020082371           56 
 3785000   0.65679559   -7.0220683     952.0199  0.020960368  0.020075904          107 
 3786000   0.64866255   -7.0284518    952.36417  0.020962409  0.020069424           65 
 3787000   0.63892486   -7.0242967    953.15799  0.020974342  0.020062943          145 
 3788000   0.64750174   -7.0126755    952.94686   0.02096416  0.020056465           75 
 3789000   0.63599243   -7.0379196    951.76621  0.020932661  0.020049995           66 
 3790000   0.65013687   -7.0256206    954.14437  0.020979428  0.020043506          204 
 3791000    0.6464165   -7.0114433    953.29407  0.020955203   0.02003704           83 
 3792000   0.63658783   -7.0063712    952.92589  0.020941585   0.02003058           42 
 3793000   0.64080546   -7.0148639    951.32008  0.020900784  0.020024107           59 
 3794000   0.62794868   -7.0371978    954.28479  0.020960393  0.020017609           50 
 3795000   0.65095906   -7.0525638    951.70797  0.020898287  0.020011107           65 
 3796000   0.64757256   -7.0118016    951.05789   0.02087851  0.020004615           98 
 3797000   0.63242284   -7.0253827    949.45827  0.020837904  0.019998124          160 
 3798000   0.63312854   -7.0486652     951.2876  0.020872556  0.019991649          153 
 3799000   0.63040242    -7.021708    954.49546  0.020937428  0.019985168          122 
 3800000   0.63899328   -7.0441036    953.06552   0.02090056  0.019978681          150 
 3801000   0.64324127   -7.0472701    951.58725  0.020862651  0.019972207           65 
 3802000   0.64287451   -7.0243471    952.56332  0.020878558  0.019965743          134 
 3803000   0.63897018   -7.0378213    952.84432  0.020879225   0.01995926          112 
 3804000   0.64267948   -7.0025159    954.64189  0.020913115  0.019952827           86 
 3805000   0.63505606   -7.0421712    952.04369  0.020850716  0.019946395           98 
 3806000   0.63821733   -7.0199887    953.89552  0.020885784  0.019939954          102 
 3807000   0.64627961   -7.0312798    951.04761  0.020817958  0.019933523           69 
 3808000   0.64247384   -7.0312885    951.63702   0.02082539  0.019927059           66 
 3809000    0.6431783   -7.0354764    952.28856  0.020834177  0.019920619           69 
 3810000   0.63681575   -7.0356825    951.89298  0.020820056  0.019914184           43 
 3811000   0.63741483    -7.044915    953.75542  0.020855318  0.019907769          122 
 3812000   0.65022958   -7.0414793     952.3275  0.020818632  0.019901352           60 
 3813000   0.64762072   -7.0312238    952.84516  0.020824486  0.019894927           79 
 3814000   0.63572889   -7.0107856    952.50231  0.020811534  0.019888499          101 
 3815000     0.635089   -7.0020046    952.58343  0.020807851  0.019882075           42 
 3816000   0.65312217    -7.048301     951.0589  0.020769106  0.019875658           99 
 3817000   0.64406119   -7.0252928    952.46396   0.02079434  0.019869245           44 
 3818000   0.63710693   -7.0176021    952.84036  0.020797109  0.019862828          126 
 3819000   0.63802965   -7.0116437    951.64353  0.020765548  0.019856415           87 
 3820000   0.64865484   -7.0452589    952.17144  0.020771628  0.019850015          111 
 3821000   0.64695058   -7.0226421    954.25629  0.020811661  0.019843587          101 
 3822000   0.64020224   -7.0314018    953.25491  0.020784382  0.019837154           84 
 3823000   0.64477242   -7.0435319    953.40676  0.020782256  0.019830747          171 
 3824000     0.648688   -7.0372657    952.06959  0.020747681   0.01982433           94 
 3825000   0.63101876   -7.0527143    951.72829  0.020734821   0.01981791          292 
 3826000   0.65084469   -7.0486644    952.06667  0.020736772  0.019811482          185 
 3827000   0.64547834   -7.0408265    950.12736  0.020689125  0.019805054          159 
 3828000    0.6309964   -7.0546683    952.31003  0.020731235  0.019798634          205 
 3829000   0.63337873   -7.0593958    951.60535  0.020710485  0.019792208          249 
 3830000   0.65052536   -7.0377153    953.01618  0.020735774  0.019785782          161 
 3831000   0.62905156    -7.046373    951.64224  0.020700475  0.019779383          175 
 3832000   0.62894041   -7.0405029    952.71036  0.020718301  0.019772983          175 
 3833000   0.63489352   -7.0256767    953.96551  0.020740184  0.019766586          246 
 3834000    0.6316349   -7.0485205     952.1172  0.020694601  0.019760181          282 
 3835000   0.64077748    -7.075621    950.70793  0.020658582  0.019753772           91 
 3836000   0.63530566   -7.0253401    953.14363  0.020706109  0.019747376           65 
 3837000   0.63579483   -7.0723913    954.09897  0.020721462  0.019740973          276 
 3838000   0.64627898   -7.0338227    950.62162   0.02064056  0.019734553          154 
 3839000   0.65130064   -7.0546455    951.39811  0.020652038  0.019728141           99 
 3840000   0.63664054   -7.0386361    952.68342  0.020674553  0.019721737           88 
 3841000   0.63594353   -7.0518852    952.00502  0.020654452  0.019715345          168 
 3842000    0.6400637   -7.0165455    951.46415  0.020637345  0.019708955          102 
 3843000   0.64695961   -7.0109764    953.20137  0.020669645  0.019702589          141 
 3844000   0.63396311   -7.0227724    951.07236  0.020618114  0.019696226          192 
 3845000   0.63189489   -7.0417529    953.52016  0.020665803  0.019689861          158 
 3846000   0.62459148   -7.0556611    951.43893  0.020615335  0.019683469           94 
 3847000     0.630646   -7.0460929    952.91934  0.020642044  0.019677094          194 
 3848000   0.64229484   -7.0257224    951.12638  0.020597851  0.019670729          164 
 3849000   0.63550926   -7.0207768    952.09236  0.020613414  0.019664364          156 
 3850000   0.64334751   -7.0411066    953.38103  0.020635953  0.019657997          237 
 3851000   0.63336484   -7.0443567    952.50736  0.020611689  0.019651632           91 
 3852000   0.63323487   -7.0413407    951.18609  0.020577754  0.019645242          192 
 3853000   0.63994562   -7.0372894    952.71045  0.020605382  0.019638853          207 
 3854000   0.63890198   -7.0489201    950.54576   0.02055323  0.019632464          230 
 3855000   0.63612375   -7.0297041    951.69511  0.020572743   0.01962609           67 
 3856000   0.63736622   -7.0502487    950.86218  0.020549407  0.019619731          321 
 3857000   0.62709172    -7.022171    953.97245  0.020611279  0.019613377          288 
 3858000    0.6264528   -7.0381992    950.54097  0.020531816  0.019607025          133 
 3859000   0.64083651   -7.0433928     951.2941  0.020542759  0.019600667          111 
 3860000   0.62169155   -7.0594811    950.45455  0.020519312  0.019594305          129 
 3861000   0.64483953    -7.021756    952.53922  0.020558992  0.019587937          177 
 3862000   0.61159748   -7.0510407    951.08165  0.020522218  0.019581578          380 
 3863000   0.63975041   -7.0690538    952.33025   0.02054384  0.019575209          167 
 3864000   0.63426019   -7.0430232    952.20484  0.020535819  0.019568847          341 
 3865000   0.62122465   -7.0473966    953.07002  0.020549159  0.019562479          406 
 3866000    0.6297399   -7.0634663    951.83573  0.020517238  0.019556128          398 
 3867000   0.63245123   -7.0508585    950.06924  0.020473865  0.019549754          482 
 3868000   0.63710664   -7.0762606    952.29446  0.020516513  0.019543378          384 
 3869000   0.63726105   -7.0592256    951.91075  0.020502945  0.019536991          410 
 3870000   0.62559885   -7.0648552    949.55076  0.020446829  0.019530622          198 
 3871000   0.63568222   -7.0566377    950.06958  0.020452716  0.019524218          468 
 3872000   0.63572031   -7.0689612    951.89401    0.0204867  0.019517832          428 
 3873000   0.64137079   -7.0994978    950.43161  0.020449944  0.019511442          329 
 3874000   0.62283701   -7.0698125    949.62888  0.020427398  0.019505063          105 
 3875000   0.64560713   -7.0642469    948.74232  0.020403061  0.019498679          330 
 3876000   0.65577859   -7.0816329    949.67737    0.0204179  0.019492288          421 
 3877000   0.64568232   -7.0608767    950.68774  0.020434351   0.01948591          488 
 3878000   0.62045079   -7.0852705    949.73751  0.020408662  0.019479512          396 
 3879000   0.63723383   -7.0816543    949.83018  0.020405392  0.019473114          237 
 3880000   0.63511016   -7.0812578    951.15677  0.020428625  0.019466718          128 
 3881000   0.63309566   -7.0570291    951.53978  0.020431585  0.019460335          386 
 3882000   0.62822423   -7.0818916     951.0091   0.02041493   0.01945395          342 
 3883000   0.62561857   -7.0718379    949.30575  0.020373117  0.019447565          532 
 3884000   0.62555481   -7.0753269    951.68459  0.020418911  0.019441196          447 
 3885000   0.62869735   -7.0829817    950.06939  0.020379009   0.01943482          338 
 3886000   0.62464689   -7.0633421     950.7072  0.020387442  0.019428443          185 
 3887000   0.64030759   -7.0755907    949.82868  0.020363363  0.019422065          422 
 3888000   0.62847685   -7.0861448    948.41688  0.020327865  0.019415676          413 
 3889000   0.64255297   -7.0707383    947.35046  0.020299787  0.019409301          403 
 3890000   0.63192274   -7.0958293    948.76094  0.020324784  0.019402937          378 
 3891000   0.61749304   -7.0599412    951.02022  0.020367948  0.019396569          461 
 3892000   0.61596339   -7.0784467    950.91343  0.020360428  0.019390196          422 
 3893000   0.61909194   -7.0918848    948.82013  0.020310389  0.019383828          348 
 3894000    0.6358625   -7.0816443    949.78253  0.020325769  0.019377443          490 
 3895000   0.61795703   -7.0990221    948.65993  0.020296533  0.019371085          464 
 3896000   0.63436859    -7.080784    948.75167  0.020293285  0.019364704          501 
 3897000   0.62767699   -7.0754506    949.23509  0.020298415  0.019358319          439 
 3898000   0.62781243   -7.0824924    949.78457  0.020304955  0.019351941          445 
 3899000   0.63134649   -7.0785082     950.0187  0.020304751  0.019345572          262 
 3900000   0.61318615   -7.0572607    950.44863  0.020308731  0.019339211          236 
 3901000   0.61642914   -7.0812946    950.29384  0.020300219  0.019332862          337 
 3902000   0.62209599   -7.0715055    950.03562  0.020289502   0.01932651          458 
 3903000   0.63004048   -7.0771344    949.93689  0.020282195  0.019320173          462 
 3904000   0.61609122   -7.0900164     948.3032  0.020242128  0.019313816          265 
 3905000   0.62364018   -7.0808554    948.02605   0.02023103  0.019307479          353 
 3906000     0.614877   -7.1079102    951.61183  0.020302352  0.019301136          471 
 3907000   0.62737416   -7.0691929    951.49302  0.020294621  0.019294791          536 
 3908000   0.61849378   -7.0667327    950.94336  0.020277707  0.019288438          218 
 3909000   0.62917139   -7.0811866    949.63297  0.020244585  0.019282101          147 
 3910000   0.62715381   -7.0852453    950.13573  0.020250122  0.019275745          210 
 3911000    0.6320101   -7.0930223    948.83331  0.020217193  0.019269385          233 
 3912000   0.63286407    -7.102625    946.64781   0.02016547   0.01926303          407 
 3913000   0.63097146   -7.1087569     947.0068  0.020167962  0.019256677          264 
 3914000   0.61900713   -7.1092319    950.95719  0.020246917  0.019250317          465 
 3915000   0.63033999   -7.1239635    947.30479  0.020164001  0.019243972          270 
 3916000   0.62835741   -7.0989957    949.26306  0.020200525  0.019237611          383 
 3917000   0.61841881   -7.0802659    947.89528  0.020166268  0.019231267          215 
 3918000   0.63549897     -7.09112    950.67407  0.020220224  0.019224933          505 
 3919000    0.6302371   -7.0896511    950.02551  0.020201274  0.019218601          517 
 3920000   0.63148762   -7.0667621    951.05932  0.020218098  0.019212284          213 
 3921000   0.61040072   -7.0925474    948.17461  0.020151632  0.019205954          516 
 3922000   0.63650403   -7.0756997    950.97078  0.020205906  0.019199637          515 
 3923000   0.62875196   -7.0921276    949.96417  0.020179373  0.019193306          529 
 3924000   0.61977327   -7.0887204    948.26115  0.020138064  0.019186976          547 
 3925000   0.62532728   -7.0993265    948.97197  0.020148025  0.019180661          263 
 3926000   0.63093015   -7.0889538    949.14182  0.020146498  0.019174348          325 
 3927000   0.61179411   -7.0859788    949.54636  0.020149953  0.019168036          290 
 3928000   0.62749344   -7.0800426    950.72175  0.020169759  0.019161709          453 
 3929000   0.62594871   -7.0880655    949.80925  0.020145271  0.019155383          254 
 3930000    0.6283413   -7.1074888    950.23586  0.020149191  0.019149075          330 
 3931000   0.62665302   -7.0960236    948.62844   0.02010999  0.019142768          417 
 3932000   0.60088126   -7.1190638    949.54232  0.020124244  0.019136453          369 
 3933000   0.63983114   -7.0910484    948.08842  0.020088321  0.019130135          104 
 3934000   0.61975848   -7.1050232    947.28796  0.020066259   0.01912383          535 
 3935000   0.62561094   -7.1109921    949.57065  0.020109501  0.019117516          548 
 3936000   0.62752205   -7.1041993    949.65135  0.020106101  0.019111213          647 
 3937000   0.61438099   -7.1082512    948.41166  0.020074754  0.019104907          577 
 3938000   0.61958589   -7.1077912    949.00829  0.020082281  0.019098599          510 
 3939000   0.62036808   -7.1184571    949.34179  0.020084239  0.019092307          571 
 3940000   0.63245673   -7.1121768    947.34576  0.020036924  0.019085996          560 
 3941000   0.60903059   -7.1040236    949.14175  0.020069816  0.019079684          521 
 3942000   0.62129832   -7.1166013    948.58788  0.020053016  0.019073392          604 
 3943000   0.61806375   -7.1032301    948.13539  0.020038367  0.019067099          488 
 3944000   0.61281757   -7.1006199    949.64339  0.020065149  0.019060831          377 
 3945000   0.62392799    -7.101226    948.35568  0.020032862  0.019054572          650 
 3946000   0.62434233   -7.0917218    949.75773  0.020057394  0.019048319          318 
 3947000   0.61421652   -7.0886819    949.84644  0.020054185  0.019042051          304 
 3948000   0.61729068    -7.129439    947.11281  0.019991405   0.01903576          451 
 3949000   0.64344471   -7.1107369    949.06051  0.020027444  0.019029475          541 
 3950000   0.62084308   -7.1353024    948.69464  0.020014655  0.019023198          272 
 3951000   0.63836231   -7.0816104     949.8917  0.020034837  0.019016938          623 
 3952000   0.61980975   -7.1140647    948.75646  0.020005829  0.019010679          420 
 3953000   0.61060324   -7.1005422    948.56559  0.019996745   0.01900441          641 
 3954000   0.61502568   -7.1070444     948.4104  0.019988417  0.018998131          583 
 3955000   0.61213123   -7.1121745    947.05345  0.019954771  0.018991851          562 
 3956000   0.62809884   -7.1266838    945.29408  0.019912666  0.018985571          556 
 3957000   0.61552683   -7.1217449    948.44811  0.019974057  0.018979286          457 
 3958000   0.61766265   -7.1256647     948.5204  0.019970532  0.018973014          510 
 3959000   0.62200042   -7.1295099     949.4244  0.019984516  0.018966743          516 
 3960000    0.6313599   -7.1300068    947.84916  0.019946321  0.018960468          614 
 3961000   0.61420346    -7.117682    948.77186  0.019960697  0.018954206          643 
 3962000   0.62147489   -7.1194405    948.69527  0.019954048  0.018947939          702 
 3963000   0.61695305   -7.1192748    948.75141  0.019950194  0.018941662          626 
 3964000   0.62735859   -7.1331026    946.25915  0.019892767  0.018935392          552 
 3965000   0.60525966   -7.1178669    947.81372  0.019920423  0.018929113          627 
 3966000   0.63026592   -7.1229459     946.4908  0.019887603  0.018922834          667 
 3967000   0.60606728   -7.1353714     949.4666  0.019945101  0.018916551          675 
 3968000   0.61555842   -7.1413796    946.14906  0.019870402  0.018910281          559 
 3969000   0.62968632   -7.1342647    945.90192  0.019860207  0.018904019          552 
 3970000   0.62977018   -7.1234546    948.24863  0.019904463   0.01889775          646 
 3971000   0.61456909   -7.1317354    947.66414  0.019887185  0.018891486          599 
 3972000    0.6168109    -7.118698    948.33672  0.019896289  0.018885217          586 
 3973000   0.61236672   -7.1350723    946.55818  0.019853976  0.018878956          517 
 3974000   0.61459298    -7.137025    947.02813  0.019858835  0.018872681          626 
 3975000   0.60263856   -7.1455359    946.50374  0.019842846  0.018866422          606 
 3976000   0.60990636   -7.1401926    947.24764  0.019853446   0.01886014          662 
 3977000   0.60902452    -7.142807    946.93767  0.019841959  0.018853872          645 
 3978000   0.60895318   -7.1240857    947.14409  0.019841296  0.018847605          548 
 3979000   0.62343881   -7.1385789    948.16034  0.019857593  0.018841333          691 
 3980000   0.62555147   -7.1341983    947.76095  0.019844241  0.018835067          660 
 3981000   0.61384888   -7.1585913    945.82327  0.019798695  0.018828795          583 
 3982000    0.6182835   -7.1443373    946.45141  0.019806869  0.018822537          822 
 3983000    0.6117067   -7.1414665    947.31218  0.019819905  0.018816277          736 
 3984000   0.62478037   -7.1421346    943.63874  0.019738093  0.018810018          668 
 3985000    0.6116023   -7.1236869    947.14912  0.019806548  0.018803768          644 
 3986000   0.62540639   -7.1225452    945.01723  0.019757009  0.018797503          733 
 3987000   0.62648054   -7.1501283    946.84596  0.019790276  0.018791242          826 
 3988000   0.61258439   -7.1237235      947.419  0.019797288  0.018784986          719 
 3989000   0.62390094     -7.13747    945.83539  0.019759242  0.018778738          776 
 3990000   0.61823225   -7.1383709    946.39464   0.01976597  0.018772499          735 
 3991000   0.61317873    -7.142173    947.70973  0.019788477   0.01876625          714 
 3992000   0.60158671   -7.1450828    947.07219  0.019770211  0.018760012          656 
 3993000   0.61015932   -7.1194156    947.63167  0.019776936  0.018753784          366 
 3994000   0.60920766   -7.0937599    947.10787  0.019761056  0.018747561          610 
 3995000   0.62596839   -7.1478422    945.81982  0.019729241   0.01874133          624 
 3996000   0.62704117   -7.1487678    946.60422  0.019740662  0.018735092          709 
 3997000   0.61798311   -7.1294383    947.93113  0.019763388  0.018728862          685 
 3998000   0.61303078   -7.1220834    947.06839  0.019740462  0.018722647          699 
 3999000   0.61746141   -7.1564747    945.63161  0.019705585  0.018716422          694 
 4000000   0.61708162   -7.1259611    945.72529   0.01970261  0.018710217          671 
 4001000   0.61882492   -7.1296119    945.30487  0.019688929  0.018703998          661 
 4002000   0.61389777   -7.1513479    945.07842  0.019679294  0.018697779          740 
 4003000   0.60615739   -7.1582156    947.59453  0.019726758  0.018691555          701 
 4004000   0.62286683   -7.1530319    947.09786  0.019711494   0.01868533          753 
 4005000   0.61061238   -7.1701902    946.68584  0.019697999  0.018679103          731 
 4006000   0.60901626   -7.1472747    945.28917  0.019664028  0.018672874          721 
 4007000   0.61828344   -7.1277786    947.63164  0.019707837   0.01866667          689 
 4008000   0.60859608   -7.1443118    945.58317  0.019660329  0.018660453          665 
 4009000   0.60432796   -7.1628974    947.50299  0.019695331   0.01865424          804 
 4010000   0.62255747   -7.1480039    947.96716  0.019700066  0.018648036          749 
 4011000   0.61140144   -7.1302378     947.4099  0.019683576  0.018641836          706 
 4012000   0.61132677   -7.1415825    949.11264  0.019714038  0.018635625          787 
 4013000   0.61562277   -7.1503053    946.82172  0.019661552  0.018629424          774 
 4014000   0.61993218   -7.1525524    945.10191   0.01962095  0.018623218          808 
 4015000   0.61593764   -7.1292535     945.9796   0.01963428  0.018617012          917 
 4016000   0.60511276   -7.1420598    945.15899  0.019612363  0.018610809          939 
 4017000   0.60852296   -7.1475423     945.1594  0.019607489  0.018604605          768 
 4018000   0.61183548    -7.133666     947.5445  0.019652076  0.018598416          921 
 4019000   0.61258535   -7.1526128    947.40359  0.019644264  0.018592229          930 
 4020000   0.60447487   -7.1548537    946.95637  0.019630107  0.018586039          905 
 4021000   0.60771679   -7.1347696    947.15681  0.019629379  0.018579853          884 
 4022000   0.60295341   -7.1321584    944.10799  0.019561329  0.018573665          934 
 4023000   0.60055909   -7.1482154    946.66291   0.01960939   0.01856748          938 
 4024000   0.61949014   -7.1655612    944.04985  0.019550403  0.018561291          881 
 4025000   0.61009529   -7.1510031    946.10267  0.019588047  0.018555087          930 
 4026000    0.6123774    -7.177214    944.99989  0.019560355    0.0185489          894 
 4027000   0.61945885   -7.1651197    945.86896  0.019573482  0.018542706          903 
 4028000    0.6120879   -7.1516044    945.31845  0.019557234  0.018536504          957 
 4029000   0.61270025   -7.1674703    944.62655  0.019538069  0.018530313          992 
 4030000    0.5864721   -7.1819711    945.44938  0.019550235  0.018524117          893 
 4031000   0.61095895   -7.1621802    944.61472   0.01952813  0.018517918          890 
 4032000   0.60311892   -7.1610531    945.57009  0.019543033  0.018511723         1013 
 4033000   0.60546837    -7.158561    946.17385  0.019550662  0.018505532         1001 
 4034000   0.60854157   -7.1854115    946.45965   0.01955172   0.01849935          956 
 4035000   0.59629496   -7.1595784    947.65235  0.019571507  0.018493172          997 
 4036000   0.60146361   -7.1719715    946.21748  0.019537031  0.018486989          995 
 4037000   0.60777706   -7.1631774    945.60692  0.019519588  0.018480824         1034 
 4038000    0.6082392   -7.1690503     943.8941  0.019479406   0.01847465          955 
 4039000   0.61870448   -7.1581822    946.32734  0.019524786  0.018468483         1031 
 4040000     0.597642   -7.1883597    944.33926  0.019478945  0.018462298         1042 
 4041000   0.60151817   -7.1812996    944.28693  0.019473046  0.018456111         1023 
 4042000   0.60821101   -7.1709949    945.45912  0.019492395  0.018449918         1020 
 4043000   0.60195412   -7.1813662    943.36717  0.019444455  0.018443729         1044 
 4044000   0.60470503   -7.1952231    943.07006  0.019433524  0.018437538         1114 
 4045000   0.61579477   -7.1682968     945.1213  0.019470979  0.018431354         1101 
 4046000   0.59326164    -7.187045    943.65372  0.019435939  0.018425158         1063 
 4047000   0.60735347   -7.1693706     944.8125  0.019454998  0.018418976         1079 
 4048000   0.60552985   -7.1772236     943.1472  0.019415909  0.018412791         1054 
 4049000   0.58764388   -7.1666834    943.92964  0.019427217  0.018406605         1012 
 4050000    0.6085192   -7.1726084    947.90792  0.019504278  0.018400429         1048 
 4051000   0.61389639   -7.1908468    945.40144  0.019447903   0.01839425         1110 
 4052000   0.61408479   -7.1858611    945.06996  0.019436286  0.018388055         1191 
 4053000   0.59554639   -7.2017692    944.50058  0.019419783  0.018381873         1159 
 4054000   0.60547524   -7.1962682    943.36769  0.019391705  0.018375688         1138 
 4055000   0.60195901   -7.1863309    944.93284  0.019419088   0.01836952         1159 
 4056000    0.5997941   -7.1794229    944.64488  0.019408384  0.018363352         1065 
 4057000   0.60011793   -7.1706561    944.42425  0.019399068  0.018357188         1096 
 4058000   0.60040805   -7.1974659    944.30418  0.019391822  0.018351019         1079 
 4059000   0.60253856   -7.1954623     943.7848  0.019376382  0.018344861         1097 
 4060000   0.59101055   -7.1941892    945.31209  0.019402957  0.018338694         1085 
 4061000   0.60426709   -7.1922821    943.54779  0.019361975  0.018332527         1072 
 4062000   0.61416588    -7.202594    943.44857  0.019355173  0.018326373         1087 
 4063000   0.59636614   -7.2032937    945.00039  0.019382238  0.018320214         1047 
 4064000   0.58913066   -7.1916824    942.72077  0.019330724  0.018314061         1025 
 4065000   0.59062796    -7.191208    944.68767  0.019366291   0.01830791         1098 
 4066000   0.59142016   -7.1878712     943.7517  0.019342345  0.018301749         1132 
 4067000   0.59679056   -7.1991267    942.66547  0.019315332  0.018295588         1154 
 4068000   0.60427762   -7.1988483    944.26094  0.019343267   0.01828943         1109 
 4069000   0.61107493   -7.1873378     943.4238  0.019321369  0.018283277         1180 
 4070000   0.60613899   -7.2089195    943.00521  0.019308051   0.01827712         1159 
 4071000   0.59477213    -7.206317    943.51732  0.019313791  0.018270974         1127 
 4072000   0.60809672    -7.182749    944.60366   0.01933128  0.018264821         1134 
 4073000   0.59256887   -7.1881128    943.43378  0.019302598  0.018258669         1232 
 4074000   0.59687828   -7.1920017     944.7806  0.019325409  0.018252515         1207 
 4075000   0.61215887   -7.1818124    942.73525  0.019278839  0.018246379         1225 
 4076000   0.60403305   -7.1917476    944.11171  0.019302251  0.018240247         1128 
 4077000   0.60385342   -7.1998647    943.64764  0.019288031  0.018234116         1104 
 4078000   0.59445732   -7.1998937    943.54713  0.019281248   0.01822798         1180 
 4079000   0.59978775   -7.1697145    945.35852  0.019313527  0.018221856         1221 
 4080000    0.6002603   -7.2205621    943.58528  0.019272575  0.018215728         1190 
 4081000   0.60419702   -7.2077846    943.29354  0.019261895  0.018209597         1248 
 4082000   0.59408197   -7.2093761    945.00801  0.019292177  0.018203458         1230 
 4083000   0.58458639   -7.1970948    943.50571  0.019256791  0.018197334         1253 
 4084000   0.60700218    -7.199768    945.53961  0.019293577  0.018191215         1165 
 4085000   0.61205624   -7.2096717    943.64343  0.019250172  0.018185096         1287 
 4086000    0.6012936   -7.2121511    942.68233  0.019225859  0.018178962         1337 
 4087000   0.60698528   -7.2062831    943.53364  0.019238513  0.018172829         1359 
 4088000   0.59007025   -7.2093608    943.37469  0.019230567   0.01816671         1346 
 4089000   0.59243001   -7.2068356     942.8648  0.019215472  0.018160585         1275 
 4090000   0.60032979   -7.2008334    942.36086  0.019200507  0.018154472         1228 
 4091000   0.59534251   -7.1883343    944.19289  0.019233131   0.01814835         1224 
 4092000   0.58977279   -7.2035831    943.09972  0.019206169  0.018142239         1276 
 4093000   0.60407175   -7.2165155    941.99652  0.019179015  0.018136123         1346 
 4094000   0.58968762   -7.1753453    944.60306  0.019227387  0.018130013         1286 
 4095000   0.59075773   -7.1997139    942.79551  0.019185908  0.018123926         1311 
 4096000   0.60590621   -7.2107688    941.58333  0.019156562  0.018117827         1402 
 4097000   0.59376674   -7.2016998    943.16254  0.019184007  0.018111719         1385 
 4098000   0.58755313   -7.2016086     942.3413  0.019162626  0.018105615         1356 
 4099000   0.58474615   -7.2070979    944.74141  0.019206746   0.01809951         1301 
 4100000   0.60292838   -7.2062528    941.92929  0.019144904  0.018093409         1459 
 4101000    0.6004396   -7.2102983    943.34965  0.019169098  0.018087316         1393 
 4102000   0.59747066   -7.2256993    940.63766   0.01910933  0.018081222         1344 
 4103000   0.59994861    -7.214903    940.90847  0.019110173  0.018075132         1303 
 4104000    0.6060889   -7.2095741    942.87684  0.019145485  0.018069041         1420 
 4105000   0.59975584   -7.2031858    944.37007  0.019171134   0.01806296         1398 
 4106000   0.60671394   -7.1981966    943.65354  0.019151923  0.018056876         1450 
 4107000   0.60085733    -7.200768    942.67596  0.019127424  0.018050797         1405 
 4108000   0.60002522   -7.2130043    944.96569  0.019169216   0.01804473         1471 
 4109000   0.59570583   -7.2119449    943.76992    0.0191403  0.018038653         1371 
 4110000   0.59336334   -7.2274159    942.29976  0.019105835  0.018032574         1353 
 4111000   0.59275515   -7.2130315    941.72394  0.019089515  0.018026487         1362 
 4112000   0.59537193   -7.2060332    943.27783  0.019116363  0.018020405         1399 
 4113000   0.59328836   -7.2131403    942.56316  0.019097236  0.018014327         1419 
 4114000   0.59802441   -7.2289625    942.72757  0.019095924  0.018008248         1498 
 4115000   0.59964652   -7.2227049    944.44371  0.019126037  0.018002179         1365 
 4116000   0.60319085   -7.2007658    941.50628  0.019061919  0.017996107         1361 
 4117000   0.58236684   -7.2251022    941.99424  0.019067165  0.017990029         1413 
 4118000    0.5860767   -7.2099285    942.68415  0.019076496  0.017983965         1468 
 4119000   0.58267633   -7.2097502     942.9308  0.019076855    0.0179779         1446 
 4120000   0.60254609   -7.2115008     943.5771  0.019085297  0.017971829         1375 
 4121000   0.59608656   -7.1977377    942.51283  0.019059145  0.017965768         1346 
 4122000   0.57366716   -7.2246537    943.00792   0.01906453  0.017959705         1461 
 4123000   0.58684826   -7.2255421    942.25084  0.019044604  0.017953631         1418 
 4124000   0.59994986   -7.2091003     943.3346  0.019061886  0.017947563         1399 
 4125000   0.57969885   -7.2168024     941.7868  0.019025996  0.017941495         1416 
 4126000   0.59637011   -7.2446688    942.10246   0.01902776  0.017935424         1504 
 4127000   0.59118008   -7.2114697    942.88798  0.019039011  0.017929358         1472 
 4128000   0.58591056   -7.2318291    942.99271  0.019036513  0.017923295         1536 
 4129000    0.6006706   -7.2288512    940.95456  0.018990768  0.017917234         1518 
 4130000   0.59895476   -7.2205621    942.23799  0.019012066  0.017911166         1534 
 4131000   0.59908476   -7.2271281    941.79916  0.018998611  0.017905118         1537 
 4132000    0.5849204   -7.2207792    941.11062  0.018980127  0.017899056         1516 
 4133000   0.58673011   -7.2254739    944.09138  0.019035636  0.017893008         1469 
 4134000   0.58690267   -7.2389422    941.50114  0.018978817  0.017886956         1555 
 4135000   0.59079873   -7.2241847    941.73946   0.01897903  0.017880904         1618 
 4136000   0.58931778   -7.2177957    942.08322  0.018981367  0.017874854         1511 
 4137000   0.58804416   -7.2349002     942.3731  0.018982618  0.017868805         1632 
 4138000   0.59438127   -7.2223667    943.00118   0.01899068   0.01786276         1584 
 4139000   0.58898072   -7.2241645    940.95673  0.018944929  0.017856716         1630 
 4140000   0.58614491    -7.237751    942.58292  0.018973086  0.017850679         1689 
 4141000   0.60926336   -7.2352431     940.8578  0.018933788  0.017844644         1703 
 4142000   0.58883704   -7.2324513    940.95546  0.018931182  0.017838604         1726 
 4143000    0.5875082   -7.2128734    940.63237  0.018920114   0.01783257         1707 
 4144000   0.59127718   -7.2400335    941.55631  0.018934128  0.017826547         1751 
 4145000   0.59907684   -7.2190431    941.05185  0.018919418  0.017820524         1683 
 4146000   0.59758189   -7.2303355    942.11436  0.018936211  0.017814484         1742 
 4147000    0.5820934   -7.2310532    941.76901  0.018924705  0.017808439         1731 
 4148000   0.58617882    -7.236936    940.95012  0.018903691  0.017802395         1743 
 4149000    0.5803058   -7.2492051    939.85971  0.018877234  0.017796351         1813 
 4150000   0.58684103   -7.2482428    941.53106  0.018906246   0.01779032         1719 
 4151000     0.590777   -7.2384289    941.81212  0.018907334  0.017784287         1684 
 4152000   0.60460873   -7.2284445    940.42293  0.018874898  0.017778263         1738 
 4153000   0.58411128   -7.2462259    939.97582  0.018861382  0.017772237         1712 
 4154000   0.57935206   -7.2493112    938.68453  0.018830937  0.017766208         1703 
 4155000   0.58498892   -7.2393005    939.54164  0.018843595  0.017760186         1696 
 4156000   0.58439448    -7.249119    942.25174  0.018893402  0.017754171         1756 
 4157000   0.57925252   -7.2469708    939.98434  0.018843404  0.017748147         1762 
 4158000    0.5888329   -7.2426558    940.66519  0.018852517  0.017742135         1794 
 4159000   0.58940995    -7.252083    940.71161  0.018848914  0.017736107         1754 
 4160000   0.58885516   -7.2305604    941.73777  0.018864939  0.017730092         1786 
 4161000   0.58205099   -7.2483935    939.34223  0.018812429  0.017724074         1764 
 4162000   0.58334636   -7.2613109    939.40369   0.01880914  0.017718055         1812 
 4163000    0.5844466   -7.2546839    941.26949  0.018841971  0.017712029         1816 
 4164000   0.58144914   -7.2516636    940.95138  0.018831079  0.017706019         1792 
 4165000    0.5890003    -7.264175    942.46633  0.018856869   0.01770001         1828 
 4166000   0.59241375   -7.2439599    940.14479  0.018805905   0.01769399         1820 
 4167000   0.58544909   -7.2516017    940.33509  0.018805197  0.017687974         1857 
 4168000   0.59057109   -7.2620791    941.07704   0.01881552  0.017681951         1840 
 4169000   0.59228356   -7.2361739    940.79909  0.018805451  0.017675932         1839 
 4170000   0.58290682   -7.2431062    941.53336  0.018815615  0.017669925         1853 
 4171000    0.5866172   -7.2463747    940.60946  0.018792645  0.017663917         1832 
 4172000   0.55515544   -7.2557351    939.90486  0.018774066  0.017657908         1867 
 4173000   0.57646173   -7.2622433    940.20991  0.018775659  0.017651906         1890 
 4174000   0.58829822   -7.2553133    939.42396   0.01875547  0.017645915         1938 
 4175000   0.59487684   -7.2317915    940.34904  0.018769442  0.017639916         1863 
 4176000   0.57430593    -7.230821    940.31044  0.018764177  0.017633921         1896 
 4177000    0.5737705   -7.2742863    941.11303  0.018775697  0.017627929         1896 
 4178000   0.58692977   -7.2367052    940.61371  0.018761244  0.017621936         1855 
 4179000   0.57917179   -7.2615996    940.46782  0.018753845  0.017615944         1860 
 4180000   0.58418216    -7.276641    938.93276  0.018718755  0.017609949         1843 
 4181000   0.59023747   -7.2477159    939.59611    0.0187275  0.017603969         1867 
 4182000   0.57553597   -7.2631953    939.51598  0.018721425  0.017597988         1843 
 4183000   0.58860919   -7.2447911    941.46061   0.01875569  0.017592009         1812 
 4184000   0.57432084    -7.256253     939.0778  0.018703748  0.017586039         1895 
 4185000   0.58253997   -7.2628969    938.63842   0.01869053  0.017580057         1855 
 4186000   0.57283059     -7.26821    938.70026  0.018687296  0.017574088         1904 
 4187000   0.58266569   -7.2607084    939.53454  0.018699437  0.017568108         1778 
 4188000   0.57850294   -7.2614755    941.23016  0.018728712  0.017562134         1812 
 4189000   0.58023786   -7.2552917    938.08234   0.01866162  0.017556172         1808 
 4190000   0.57804878   -7.2622592    941.13404  0.018717861  0.017550208         1844 
 4191000   0.59112219   -7.2571751    940.26385  0.018696092  0.017544246         1860 
 4192000   0.57013704   -7.2404888    938.98164  0.018666143  0.017538286         1816 
 4193000   0.58018744   -7.2454237    939.99935  0.018681917  0.017532328         1770 
 4194000   0.56498946   -7.2597931    942.05624  0.018718332  0.017526378         1772 
 4195000   0.58554093   -7.2599291    939.74097  0.018667878  0.017520418         1902 
 4196000    0.5809098   -7.2508438    941.85498  0.018705413  0.017514478         1840 
 4197000   0.58059509   -7.2387513    940.18515  0.018667801  0.017508523         1882 
 4198000   0.59751685   -7.2484222    941.35454  0.018686568  0.017502578         1860 
 4199000   0.57855019   -7.2482417    939.49081   0.01864513   0.01749662         1946 
 4200000   0.58099682   -7.2676809    939.46787  0.018640235  0.017490669         1916 
 4201000   0.58930289   -7.2547819    940.78423   0.01866191  0.017484723         1842 
 4202000   0.57661461   -7.2477887    938.58154  0.018613786  0.017478792         1962 
 4203000   0.57244823   -7.2680535    939.53256  0.018628213  0.017472863         1893 
 4204000   0.57423116   -7.2913435    940.92165  0.018651317  0.017466939         1924 
 4205000    0.5939711   -7.2641351    938.26818  0.018594296  0.017461006         1858 
 4206000   0.58648666   -7.2612949    940.65578  0.018637181  0.017455078         1872 
 4207000   0.57717666   -7.2596911    940.05712  0.018620892  0.017449149         1839 
 4208000   0.56824905   -7.2741465     940.6465  0.018628139  0.017443213         1950 
 4209000   0.59610611   -7.2713633    940.17976  0.018614472  0.017437291         1929 
 4210000   0.58170103   -7.2508858    942.38509  0.018653703  0.017431365         1919 
 4211000   0.56472927   -7.2479763    940.33927  0.018608788  0.017425441         2064 
 4212000   0.58008966   -7.2582363     941.2958  0.018623295   0.01741953         1907 
 4213000   0.59901588    -7.277002     938.0143  0.018553966  0.017413616         1894 
 4214000   0.57304596    -7.271961    939.13687  0.018571762  0.017407703         1849 
 4215000    0.5606937   -7.2697007    937.94346  0.018543762   0.01740179         1912 
 4216000   0.56677787   -7.2759368    938.54926  0.018551337  0.017395877         1790 
 4217000   0.57966126   -7.2686633    940.42729   0.01858405  0.017389969         1844 
 4218000    0.5819024   -7.2855415    938.33098  0.018538229  0.017384062         1970 
 4219000   0.59036455   -7.2692442    938.58478  0.018538848  0.017378152         1872 
 4220000   0.59617799   -7.2783774    939.70528  0.018556581  0.017372245         1856 
 4221000    0.5785158   -7.2648276    940.81273  0.018574049  0.017366342         1786 
 4222000   0.58324329   -7.2899976    941.08374  0.018574999  0.017360451         1791 
 4223000   0.57428687   -7.2750392    938.56199  0.018520838  0.017354558         1928 
 4224000   0.58079043   -7.2676961     937.1093  0.018487794  0.017348661         1907 
 4225000   0.59414513   -7.2770832    938.05129  0.018501998  0.017342764         1922 
 4226000   0.57272373   -7.2729455    937.71594  0.018491007  0.017336877         1922 
 4227000   0.57335968   -7.2895143    939.77539  0.018527234  0.017330987         1911 
 4228000   0.58230851    -7.292274    939.06321  0.018508814  0.017325098         2040 
 4229000   0.56507657   -7.2937463    938.25125  0.018488438  0.017319209         1972 
 4230000   0.58075665    -7.289107    938.11555  0.018481394  0.017313317         2004 
 4231000    0.5742661   -7.2724425    939.93178  0.018512798  0.017307423         1918 
 4232000   0.55527018   -7.2864731     938.3079  0.018476447  0.017301537         1957 
 4233000   0.56851166   -7.2795682    939.90048  0.018503435  0.017295658         2079 
 4234000   0.56859685   -7.2794172    937.31282  0.018448135  0.017289772         2051 
 4235000   0.57408646   -7.2893307    939.70094   0.01849077  0.017283882         2024 
 4236000    0.5643874   -7.2827665    938.72807  0.018467266  0.017278008         2014 
 4237000   0.56943085   -7.2714871    941.08739  0.018509311  0.017272127         2077 
 4238000   0.56817631   -7.2961054    937.71614  0.018438653  0.017266252         2045 
 4239000   0.56573223   -7.2771285    938.23102  0.018444425  0.017260372         2050 
 4240000   0.57971279   -7.2851091    939.00483  0.018455284  0.017254501         2059 
 4241000   0.58632784   -7.2826222    939.02917   0.01845141  0.017248624         2058 
 4242000   0.56554906   -7.2799466    938.98226  0.018446139  0.017242745         2057 
 4243000    0.5741235   -7.2862299    938.62708  0.018434816  0.017236876         2088 
 4244000   0.57019953   -7.2921428    938.81261  0.018434115  0.017231001         2047 
 4245000   0.56136923   -7.2984535    940.02031  0.018453481   0.01722513         2077 
 4246000   0.56629456   -7.2914322    937.59477   0.01840153  0.017219263         2010 
 4247000   0.59192032   -7.2960189    939.18772  0.018428454  0.017213398         2078 
 4248000   0.58010514   -7.2978797    938.06383  0.018402068  0.017207528         2010 
 4249000   0.56038265   -7.2982916     937.9961  0.018396409  0.017201665         2119 
 4250000   0.56836151    -7.292682    937.14481  0.018375389  0.017195796         2042 
 4251000   0.57543651   -7.3066322    937.96391  0.018387123   0.01718994         1959 
 4252000   0.58009055   -7.3189217    937.15186  0.018366884  0.017184076         2007 
 4253000   0.57814552   -7.2848362    939.61007  0.018410731  0.017178207         1957 
 4254000   0.57415967   -7.3130026    936.85627  0.018352458  0.017172347         2008 
 4255000   0.57634352   -7.2949915    939.26033  0.018395228  0.017166487         2125 
 4256000   0.57351247   -7.2866485    938.49863  0.018375991  0.017160641         1993 
 4257000   0.57885259   -7.2843191    937.35148  0.018349219  0.017154783         1906 
 4258000   0.56913962   -7.3112005    939.24086  0.018381886  0.017148928         1905 
 4259000   0.57014762   -7.2923276    938.54948  0.018364042  0.017143083         2003 
 4260000   0.55824373   -7.2905701    937.93137   0.01834764  0.017137231         2053 
 4261000     0.575384   -7.3017255    937.94413  0.018343584  0.017131386         2042 
 4262000   0.55992797   -7.2826642    938.00188  0.018340409  0.017125535         2117 
 4263000   0.56442488   -7.2999795    936.98006  0.018316132  0.017119684         2076 
 4264000   0.56695202   -7.2913378    936.76262  0.018307587  0.017113835         2079 
 4265000   0.56853454   -7.2905806    937.52438  0.018318179  0.017107994         2123 
 4266000   0.56388206   -7.3115656     938.1111  0.018325346  0.017102153         2081 
 4267000   0.55991171   -7.2773445    938.39651  0.018326625  0.017096311         2085 
 4268000    0.5619136   -7.3077183    937.40263  0.018302926  0.017090472         2141 
 4269000   0.57597513   -7.2969809    937.11359  0.018292996  0.017084632         2091 
 4270000   0.55880909    -7.314512    936.79541  0.018282502  0.017078797         2084 
 4271000   0.58370311   -7.3123948    936.78811  0.018278079  0.017072963         2085 
 4272000   0.56107097    -7.301237    938.55103   0.01830819  0.017067138         2122 
 4273000   0.56483542   -7.2961974    937.32436  0.018279982  0.017061319         2061 
 4274000   0.56993429   -7.2850238    939.06542  0.018309652  0.017055497         2133 
 4275000   0.57160366   -7.3232475    936.43846  0.018254161  0.017049675         2181 
 4276000    0.5768921    -7.313386    935.98245  0.018241005  0.017043853         2157 
 4277000    0.5707803   -7.2939242    936.46872  0.018246215  0.017038034         2108 
 4278000   0.56820223   -7.3116704     936.1279  0.018235311  0.017032213         2188 
 4279000   0.56388876   -7.3023706    937.13524  0.018250667  0.017026392         2016 
 4280000   0.56470962   -7.3204505    936.96717   0.01824313  0.017020579         2182 
 4281000   0.57876997   -7.3080063    936.51684  0.018230103  0.017014766         2176 
 4282000   0.55678257   -7.3012011    936.95692   0.01823441  0.017008959         2233 
 4283000   0.56402868   -7.2884496    938.97465  0.018269411  0.017003153         2188 
 4284000   0.57429159   -7.3158274    936.49718  0.018216954  0.016997346         2145 
 4285000   0.57247152   -7.3021024    937.06431  0.018223732  0.016991542         2165 
 4286000   0.57410153   -7.3114901    936.82835  0.018214892  0.016985744         2134 
 4287000   0.55946892   -7.2916996    938.71411    0.0182473  0.016979953         2077 
 4288000   0.55118191   -7.3094254    936.57288  0.018201432  0.016974163         2201 
 4289000   0.57756108   -7.3175367    937.10327  0.018207493  0.016968362         2203 
 4290000   0.56215772   -7.3032705    938.23807  0.018225293  0.016962568         2151 
 4291000   0.56435753   -7.2996672    936.07272  0.018178993  0.016956783         2155 
 4292000   0.56422014   -7.3092843    937.75763  0.018207472  0.016950995         2219 
 4293000   0.56489812   -7.3164334    937.16849  0.018191795   0.01694521         2189 
 4294000   0.56542567   -7.3103573    938.41899  0.018211826  0.016939428         2101 
 4295000   0.55930887   -7.3148589    938.05524  0.018200528  0.016933641         2174 
 4296000   0.57092453    -7.302276    938.33582  0.018201735  0.016927852         2112 
 4297000   0.54751524   -7.2980262    937.71531  0.018185465  0.016922072         2184 
 4298000   0.56188471    -7.314832    936.98239  0.018167023  0.016916297         2183 
 4299000   0.56694684   -7.3036788    935.84095  0.018140671  0.016910512         2193 
 4300000   0.55453648   -7.3005687    937.72008   0.01817287  0.016904741         2162 
 4301000    0.5680423   -7.3157099    936.23939  0.018139956  0.016898965         2176 
 4302000   0.56425383   -7.3316143    935.41671  0.018119803  0.016893193         2171 
 4303000   0.55828689   -7.3203817    935.70809  0.018121235  0.016887425         2175 
 4304000     0.554435   -7.3166058     937.4493  0.018150738  0.016881662         2172 
 4305000   0.55416416   -7.3179771    937.08311  0.018139433  0.016875902         2197 
 4306000   0.56260941   -7.3115885    937.20006  0.018137484  0.016870146         2230 
 4307000   0.55799376   -7.2976015    936.56524   0.01812099  0.016864389         2135 
 4308000   0.56281962   -7.3309547    935.35195  0.018093314  0.016858638         2297 
 4309000   0.56274273   -7.3099018    937.96879  0.018139723  0.016852882         2265 
 4310000   0.55417714   -7.3137366    938.08217  0.018137706  0.016847135         2296 
 4311000   0.56626247   -7.3230514    936.26835  0.018098437  0.016841387         2234 
 4312000   0.55732989   -7.3113544    936.08487  0.018090694  0.016835645         2293 
 4313000   0.56638528   -7.3186668    937.14149  0.018106915    0.0168299         2304 
 4314000   0.56875611   -7.3314746    936.82976  0.018096696  0.016824161         2425 
 4315000   0.56615241   -7.3201131    937.30311  0.018101644  0.016818423         2340 
 4316000   0.56168327   -7.3049505    937.04933   0.01809255  0.016812683         2238 
 4317000   0.56985578   -7.3258463    937.14274  0.018090162  0.016806952         2300 
 4318000   0.55740018   -7.3025621    938.06029   0.01810368  0.016801213         2226 
 4319000    0.5711114   -7.3195839    935.32139  0.018046643  0.016795475         2350 
 4320000   0.56302577   -7.3287065    936.58804  0.018066899  0.016789747         2237 
 4321000   0.57269271   -7.3039133    938.17682  0.018093358  0.016784027         2307 
 4322000    0.5716871   -7.3316315    935.60803  0.018039643  0.016778296         2347 
 4323000   0.55350657   -7.3209841    934.20766  0.018008475  0.016772563         2301 
 4324000   0.55828545   -7.3250692    936.52819  0.018049032  0.016766842         2338 
 4325000   0.54818924   -7.3077661    936.55904  0.018045454  0.016761126         2276 
 4326000   0.56373788   -7.3155002    936.06622  0.018031789  0.016755414         2350 
 4327000   0.55967463   -7.3230906    936.59185  0.018037745  0.016749711         2341 
 4328000   0.56875186   -7.3216987    937.04102  0.018042226  0.016744003         2381 
 4329000   0.55659279   -7.3004721     936.4125  0.018025959  0.016738303         2330 
 4330000   0.54894187   -7.3180218    937.69551  0.018046488  0.016732594         2413 
 4331000   0.55813588   -7.3158197     936.3101  0.018015664  0.016726886         2376 
 4332000   0.55711404   -7.3115535    936.11407  0.018007735   0.01672119         2391 
 4333000   0.56448196   -7.3209271    938.26233  0.018044894   0.01671549         2396 
 4334000   0.55195227   -7.3324149    935.42361  0.017986148  0.016709796         2306 
 4335000   0.55489859   -7.3104356    937.14423  0.018015076  0.016704101         2279 
 4336000   0.54489506   -7.3273761    936.14673   0.01799175   0.01669841         2307 
 4337000   0.56517718   -7.3377323    936.73832  0.017998969  0.016692716         2371 
 4338000   0.55794735   -7.3376523    937.19887  0.018003667  0.016687021         2417 
 4339000   0.54904142   -7.3123408    937.08887  0.017997405  0.016681328         2329 
 4340000   0.55179735   -7.3270827    936.56747  0.017983246  0.016675645         2409 
 4341000    0.5589265   -7.3212871    936.62037  0.017980119  0.016669966         2311 
 4342000   0.56540123   -7.3470343    937.83907  0.017999368  0.016664288         2387 
 4343000   0.55258013   -7.3017054    935.44595  0.017949304  0.016658615         2387 
 4344000   0.55224694   -7.3321354    936.29876  0.017961532  0.016652934         2296 
 4345000   0.55457055   -7.3231497    933.43141  0.017902405  0.016647263         2449 
 4346000   0.56211636   -7.3296687    935.47193  0.017937412  0.016641589         2441 
 4347000   0.55829893    -7.348651    934.61183  0.017916798  0.016635908         2451 
 4348000   0.55077798   -7.3370221    935.84674  0.017936345  0.016630235         2438 
 4349000   0.56063725   -7.3251338    933.33991  0.017884186  0.016624562         2398 
 4350000   0.55937363   -7.3229616    935.41496  0.017919827  0.016618887         2406 
 4351000   0.55463762   -7.3290885    935.27824   0.01791309  0.016613214         2446 
 4352000   0.54807025   -7.3361492    937.21498  0.017946059  0.016607549         2383 
 4353000   0.55315244   -7.3295745     935.9213   0.01791717  0.016601876         2426 
 4354000    0.5619375   -7.3297549    936.08511   0.01791619  0.016596209         2491 
 4355000   0.55704569   -7.3266496    933.85996  0.017869498   0.01659054         2472 
 4356000   0.55575887   -7.3167765    935.29507   0.01789285  0.016584874         2509 
 4357000   0.56395193   -7.3397646    937.08444  0.017922968  0.016579216         2486 
 4358000   0.55506137    -7.337047    935.53549  0.017889236  0.016573551         2559 
 4359000    0.5650237   -7.3460882    935.73051   0.01788886  0.016567887         2531 
 4360000   0.55321387   -7.3411187    934.84501  0.017867833   0.01656223         2557 
 4361000    0.5516729   -7.3371317    934.50048  0.017857152  0.016556565         2523 
 4362000    0.5444417   -7.3335392    935.69736  0.017875924  0.016550914         2574 
 4363000   0.54459419   -7.3377958    937.42741  0.017904871  0.016545259         2560 
 4364000   0.54575292   -7.3400782    933.63636  0.017828375  0.016539603         2531 
 4365000   0.54908498   -7.3440162    935.06169  0.017851502  0.016533953         2526 
 4366000   0.55180876   -7.3585042    933.79729   0.01782328  0.016528299         2596 
 4367000    0.5498661   -7.3337983    934.75616  0.017837496  0.016522649         2541 
 4368000   0.54857562   -7.3480295    936.06374  0.017858359  0.016516998         2593 
 4369000   0.55718844   -7.3523409    932.83547  0.017792696  0.016511344         2521 
 4370000   0.56452517   -7.3555262    934.66537   0.01782352  0.016505694         2632 
 4371000   0.54488178   -7.3498274    935.25622  0.017830707  0.016500047         2606 
 4372000   0.54812987   -7.3388782    935.34271  0.017828277  0.016494401         2672 
 4373000   0.54641076   -7.3449186     935.7038  0.017831081  0.016488757         2665 
 4374000   0.55128718    -7.340042    937.02546  0.017852184  0.016483111         2576 
 4375000   0.54814852   -7.3590338    934.33219  0.017796804  0.016477466         2650 
 4376000   0.55382382   -7.3560229    933.92842  0.017785048  0.016471818         2630 
 4377000   0.55332666   -7.3492799     933.3872   0.01777068  0.016466175         2693 
 4378000   0.54589689   -7.3318568    936.24723   0.01782106  0.016460535         2603 
 4379000   0.54180571   -7.3544996    933.10523  0.017757198  0.016454897         2673 
 4380000   0.55535165   -7.3443339    933.71718  0.017764787  0.016449262         2640 
 4381000   0.55505833   -7.3748872    933.60462   0.01775859  0.016443622         2743 
 4382000    0.5604953   -7.3462693    936.29567  0.017805714  0.016437983         2643 
 4383000   0.53811889   -7.3642036    933.88517  0.017755821  0.016432351         2683 
 4384000   0.56228275   -7.3440994     934.4516  0.017762538   0.01642672         2725 
 4385000   0.54003359    -7.366676    934.11578  0.017752105  0.016421094         2757 
 4386000   0.54681805   -7.3547823    934.79559  0.017760974   0.01641547         2777 
 4387000   0.53578647    -7.365914    934.84183  0.017757804  0.016409842         2780 
 4388000    0.5598888   -7.3695203    933.44477  0.017727225  0.016404227         2869 
 4389000   0.54678474   -7.3552576    934.37276  0.017740806  0.016398606         2749 
 4390000   0.55062394   -7.3507414    933.80719  0.017726029  0.016392985         2660 
 4391000   0.54947741   -7.3512815    934.11567  0.017727846  0.016387371         2792 
 4392000   0.53832115   -7.3488336    933.48775  0.017711896  0.016381758         2790 
 4393000    0.5487651   -7.3805508    934.02405  0.017718037  0.016376153         2727 
 4394000   0.54363977   -7.3668648    932.30044  0.017681316  0.016370535         2687 
 4395000   0.54281839   -7.3683188    934.81361  0.017724945  0.016364919         2672 
 4396000   0.54996258   -7.3754722    932.88117  0.017684281  0.016359307         2739 
 4397000   0.54688824   -7.3710203    933.29411  0.017688085  0.016353702         2705 
 4398000   0.54987264   -7.3528603     933.9909  0.017697266  0.016348098         2680 
 4399000    0.5484897   -7.3720121    932.52598  0.017665492  0.016342501         2725 
 4400000   0.54317141   -7.3684741    934.79578  0.017704465    0.0163369         2701 
 4401000   0.55141317    -7.365916    933.87221  0.017682955  0.016331303         2715 
 4402000   0.54569966   -7.3641666    933.49994   0.01767189  0.016325706         2665 
 4403000   0.54585759   -7.3698501    934.90821  0.017694531  0.016320117         2723 
 4404000   0.54109652   -7.3593221     933.4008  0.017661989  0.016314528         2686 
 4405000   0.54284701   -7.3846174    934.76716  0.017683828  0.016308943         2739 
 4406000   0.54669285   -7.3676976    933.13849  0.017649011  0.016303356         2775 
 4407000   0.55203854   -7.3677449    933.35714   0.01764914  0.016297767         2710 
 4408000   0.55018153   -7.3732258    932.73018  0.017633284  0.016292183         2762 
 4409000   0.55902459   -7.3744078    933.39202  0.017641794  0.016286603         2722 
 4410000   0.53369821    -7.386927    932.68718  0.017624474  0.016281025         2727 
 4411000     0.555652   -7.3782162    932.67511  0.017620251  0.016275453         2735 
 4412000   0.53996052   -7.3699036    934.04018   0.01764204  0.016269874         2778 
 4413000   0.54053977   -7.3785327    933.59455  0.017629627  0.016264303         2736 
 4414000   0.54626826    -7.380177    934.28946  0.017638753  0.016258729         2726 
 4415000   0.53156139   -7.3822904      933.089  0.017612099  0.016253156         2735 
 4416000   0.54529534   -7.3722553    931.05498  0.017569727  0.016247586         2816 
 4417000   0.55334063     -7.36577    932.55665  0.017594081  0.016242023         2817 
 4418000   0.54829192   -7.3775306    933.53298  0.017608514  0.016236467         2752 
 4419000   0.55319356   -7.3856883      931.552  0.017567172  0.016230907         2845 
 4420000   0.56098647   -7.3839775    934.59604  0.017620589  0.016225348         2781 
 4421000   0.55157176   -7.3720878     933.0921  0.017588255   0.01621979         2791 
 4422000   0.54898231   -7.3771536    935.32156  0.017626292  0.016214245         2676 
 4423000   0.55308915   -7.3727769    931.99849  0.017559697  0.016208699         2698 
 4424000   0.54556416   -7.3746355    934.82628  0.017608994  0.016203151         2811 
 4425000   0.53985836   -7.3600183     933.0236  0.017571066  0.016197602         2772 
 4426000   0.53852851   -7.3882243     931.7342  0.017542819  0.016192057         2793 
 4427000   0.55869549   -7.3737111     934.2608  0.017586417  0.016186518         2746 
 4428000    0.5423839   -7.3775321    933.07523  0.017560133  0.016180981         2749 
 4429000   0.52709046   -7.3815807    934.05125  0.017574532  0.016175439         2771 
 4430000   0.55258731   -7.3775521    933.07275  0.017552159    0.0161699         2757 
 4431000   0.54119252   -7.3674505    933.45306   0.01755535  0.016164363         2734 
 4432000   0.54689579   -7.3837511    933.55793  0.017553361  0.016158827         2679 
 4433000    0.5365482    -7.378209    933.38405  0.017546132  0.016153292         2721 
 4434000   0.53996416   -7.3645099    932.74225  0.017530113  0.016147752         2817 
 4435000   0.54543599   -7.3846496    933.01058  0.017531202  0.016142223         2775 
 4436000   0.54338944   -7.3872563    932.58112  0.017519182  0.016136688         2773 
 4437000   0.53954938   -7.3947766    933.06454  0.017524313  0.016131164         2772 
 4438000   0.54132736   -7.3949684    932.79692   0.01751534  0.016125643         2781 
 4439000   0.54581769   -7.3779599     934.6819   0.01754678  0.016120118         2703 
 4440000   0.53714848   -7.3683976    930.99461  0.017473623    0.0161146         2813 
 4441000   0.54336493    -7.366697    932.72537  0.017502165  0.016109086         2806 
 4442000   0.55670509   -7.3932841    932.07816  0.017486083   0.01610357         2807 
 4443000   0.54357665   -7.3857438    932.20377  0.017484503  0.016098051         2895 
 4444000   0.53759001   -7.3738086     932.0451  0.017477593  0.016092541         2853 
 4445000   0.54587004   -7.3839517    933.70046  0.017504696  0.016087034         2935 
 4446000   0.53646334   -7.3872296    933.37022  0.017494569  0.016081526         2896 
 4447000   0.53781609   -7.3776344    932.68457  0.017477786  0.016076016         2863 
 4448000   0.54063075   -7.3712591    933.31355   0.01748564  0.016070509         2876 
 4449000    0.5394794   -7.3843906    934.40052   0.01750207  0.016065006         2845 
 4450000   0.53179751   -7.3897314    933.12422  0.017474236  0.016059515         2846 
 4451000   0.54955545   -7.3669938    932.24898  0.017453924  0.016054023         2830 
 4452000    0.5373243   -7.3916059    932.81489  0.017460596  0.016048534         2849 
 4453000   0.54067836   -7.3879517    931.91233  0.017439785  0.016043043         2878 
 4454000   0.53865329   -7.3835384    932.31142  0.017443336  0.016037559         2813 
 4455000   0.53181474   -7.3747018    932.40298  0.017441133  0.016032081         2816 
 4456000   0.52616722   -7.3972357    931.56886   0.01742162  0.016026601         2819 
 4457000   0.53866881   -7.3805623    931.65131  0.017419253  0.016021112         2862 
 4458000   0.53458412   -7.3826725    932.65918  0.017434185  0.016015629         2962 
 4459000   0.53169938   -7.4093102    930.91579  0.017397694  0.016010148         2908 
 4460000   0.54516004    -7.406978    933.56847  0.017443357  0.016004669         2858 
 4461000   0.52272802   -7.4046193    932.29563   0.01741567  0.015999184         2842 
 4462000   0.53307397   -7.3808745    931.03946  0.017388306  0.015993711         2815 
 4463000    0.5350527   -7.3774898    932.70057  0.017415426  0.015988239         2833 
 4464000   0.53572272   -7.3912123    933.82971  0.017432604  0.015982763         2852 
 4465000   0.53456783   -7.3851292    932.80281  0.017409534  0.015977295         2877 
 4466000   0.52608053   -7.3940852    932.51052  0.017400181  0.015971836         2798 
 4467000   0.53393811   -7.3876946    932.02599  0.017387247  0.015966377         2816 
 4468000   0.54048325   -7.4061582    930.45423   0.01735404  0.015960913         2885 
 4469000   0.53825413   -7.3957705    932.70466  0.017392121  0.015955452         2798 
 4470000   0.54210681    -7.389451    932.83587  0.017390676  0.015949996         2838 
 4471000   0.52662134   -7.3899632    932.98604  0.017389585  0.015944539         2883 
 4472000   0.54593834   -7.3895837     932.2556  0.017372086  0.015939086         2894 
 4473000   0.53443625   -7.3863052     932.0226  0.017363861  0.015933632         2914 
 4474000   0.52474615   -7.4036861    931.93788  0.017358402  0.015928184         2833 
 4475000   0.53332721   -7.3868872    932.03446  0.017356321   0.01592273         2880 
 4476000   0.54939419   -7.4075314     933.2019  0.017374179  0.015917289         2927 
 4477000    0.5376289   -7.3993103    931.79814  0.017344169  0.015911846         3008 
 4478000   0.53592688   -7.3997773    931.07178  0.017326779  0.015906399         3032 
 4479000   0.52257563   -7.4175019    930.88639  0.017319461  0.015900955         2915 
 4480000   0.52435953   -7.3861921    930.99988  0.017317706  0.015895507         2949 
 4481000    0.5243741   -7.3920347    931.30561  0.017319527  0.015890071         2900 
 4482000   0.52630809   -7.4016231    931.15632  0.017312887  0.015884628         2904 
 4483000   0.53305601   -7.4037938    929.94099  0.017286434  0.015879188         2864 
 4484000   0.53215261   -7.4006534    931.88595  0.017318725  0.015873758         3019 
 4485000   0.52550784   -7.3953547    931.92773   0.01731564  0.015868322         2951 
 4486000   0.53449271   -7.3926428    932.10761  0.017315121  0.015862891         2961 
 4487000   0.53267355   -7.4111687    931.74235  0.017304479  0.015857455         2937 
 4488000   0.52742003   -7.3823059    930.89672  0.017284921  0.015852029         2898 
 4489000   0.53602181    -7.411043    930.55285  0.017274687  0.015846602         3012 
 4490000   0.54093227   -7.3904775    932.70208  0.017310729  0.015841173         2842 
 4491000   0.53745016   -7.3857696    932.22794  0.017298076  0.015835761         2884 
 4492000   0.53200748    -7.395836     934.3846  0.017334235  0.015830341         3014 
 4493000   0.53410259    -7.423712     930.7351  0.017262688  0.015824924         3015 
 4494000   0.53401279   -7.3970405    930.18868  0.017248715  0.015819508         2873 
 4495000   0.53011386   -7.4038456    931.91925   0.01727696  0.015814096         2854 
 4496000   0.53360331   -7.4052802    930.61227  0.017248893  0.015808684         2924 
 4497000   0.52710529   -7.4119286    932.28179  0.017275995  0.015803273         2902 
 4498000   0.53183337   -7.3897456    931.13724  0.017250949  0.015797867         2944 
 4499000   0.53944255   -7.4336502    930.41901  0.017233811  0.015792463         2890 
 4500000   0.53303132   -7.3904132    932.82766  0.017274586  0.015787063         2987 
 4501000   0.53425397   -7.4313795    930.90428  0.017235138  0.015781659         2924 
 4502000   0.52811265   -7.4026781    933.58252  0.017280885  0.015776263         2964 
 4503000   0.51940915   -7.4129304    930.11089  0.017212801  0.015770866         2969 
 4504000   0.53190337   -7.4137825    930.32853  0.017213006  0.015765469         2999 
 4505000   0.53718015   -7.3818465    930.78446  0.017217619   0.01576008         2935 
 4506000   0.53135521   -7.4155662     931.6242  0.017229328  0.015754698         2959 
 4507000   0.53400167   -7.3961134      932.182  0.017235818  0.015749308         2920 
 4508000   0.52945916   -7.3890528    930.40302  0.017199109  0.015743918         2886 
 4509000   0.53240871   -7.4183787    930.33934  0.017194118  0.015738536         3084 
 4510000   0.52850419   -7.4034129     930.1423  0.017186665  0.015733154         2886 
 4511000   0.53365966   -7.4088955    930.81087  0.017195206  0.015727778         2919 
 4512000   0.53531771   -7.4153605    932.40753  0.017220884  0.015722402         2893 
 4513000   0.53731727    -7.396502    929.95807  0.017171838  0.015717022         2979 
 4514000   0.51576859   -7.4226145    931.60923  0.017198516  0.015711648         2954 
 4515000   0.52631117   -7.4042779    931.42333  0.017191276  0.015706281         3070 
 4516000   0.51798069   -7.4106395    930.98099  0.017179307  0.015700907         2997 
 4517000   0.52685832   -7.4135728    932.71911   0.01720757  0.015695536         2976 
 4518000   0.52552263   -7.4286245     928.7791  0.017131089  0.015690169         3001 
 4519000   0.53339986   -7.4129535    931.59357  0.017179198  0.015684809         3015 
 4520000   0.51660155   -7.4071797    931.02664  0.017164945  0.015679452         3076 
 4521000   0.52148901   -7.4127065    932.26575  0.017183989   0.01567409         3082 
 4522000    0.5305489   -7.3996585    931.23175  0.017161133  0.015668736         3065 
 4523000    0.5323307   -7.4163795    931.11956  0.017155272  0.015663385         2998 
 4524000   0.52282637    -7.403543     931.5193  0.017158844  0.015658033         3002 
 4525000   0.51556051   -7.4121913    930.15132  0.017129859  0.015652684         3094 
 4526000   0.53993415   -7.4102936    930.82993  0.017138568  0.015647335         2929 
 4527000   0.52745208   -7.4224601     931.6386  0.017149669  0.015641992         2979 
 4528000   0.51676121   -7.4178867    930.11511  0.017117843  0.015636651         3048 
 4529000   0.52603091   -7.4141222    928.27573  0.017080219  0.015631305         3078 
 4530000   0.52169871   -7.4063539    929.93916  0.017107049  0.015625975         3034 
 4531000   0.52712046   -7.4092326    931.41107  0.017130344  0.015620639         3015 
 4532000   0.53460868   -7.4143068    933.41208  0.017163358  0.015615315         3076 
 4533000   0.53166598   -7.4162628    931.29747  0.017120698  0.015609987         3046 
 4534000    0.5325063   -7.4266755    931.87865  0.017127603   0.01560466         3008 
 4535000   0.52540553    -7.410402    931.85647  0.017123419   0.01559933         3079 
 4536000   0.53890857   -7.4399154    931.57363  0.017114448  0.015594013         3001 
 4537000   0.53029017   -7.4265324    930.52925  0.017091493  0.015588692         3007 
 4538000    0.5273101   -7.4184598    930.30288   0.01708357  0.015583374         2946 
 4539000   0.52670761   -7.4262135    931.18176  0.017095942  0.015578058         2994 
 4540000   0.52947628   -7.4229368    931.65627  0.017100886  0.015572741         3057 
 4541000    0.5283089   -7.4174468    931.12259  0.017087326   0.01556742         2924 
 4542000   0.53468656   -7.3892712    931.74721  0.017095024  0.015562108         2941 
 4543000   0.52256388   -7.4187193    931.34562  0.017083895    0.0155568         3012 
 4544000   0.53266668   -7.4175212    930.97785  0.017073391  0.015551494         3000 
 4545000   0.52546132   -7.4374894    930.01628  0.017052004  0.015546187         2998 
 4546000   0.52737515   -7.4121795     931.6698  0.017078564  0.015540884         2911 
 4547000   0.52781488   -7.4028626    931.81879  0.017077538  0.015535585         2952 
 4548000   0.52320884   -7.4094636    931.37334  0.017065621  0.015530286         3019 
 4549000   0.51846651   -7.4155372     930.9961  0.017054959  0.015524993         3020 
 4550000   0.53469031   -7.4124279    930.83233  0.017048211    0.0155197         2985 
 4551000   0.52508791   -7.4136661    929.40597  0.017018347  0.015514409         2972 
 4552000   0.51939948   -7.4310494    930.17669  0.017028718   0.01550912         3036 
 4553000   0.52734536   -7.4089606    932.49484  0.017067407  0.015503839         2984 
 4554000   0.52235045    -7.425271    930.20007  0.017021667  0.015498554         3029 
 4555000   0.53413061   -7.4230817    931.86632  0.017048414  0.015493274         3024 
 4556000   0.52473175   -7.4135244    931.09204   0.01703051  0.015487992         2982 
 4557000   0.52511478   -7.4135017    931.82908  0.017040251  0.015482712         3044 
 4558000   0.52922676   -7.4160452    927.93019   0.01696523  0.015477441         3001 
 4559000   0.53683468   -7.4212248    930.32388  0.017005262  0.015472165         3023 
 4560000   0.51878869   -7.4253163    930.42278   0.01700334  0.015466891         3022 
 4561000   0.51721396   -7.4209295    931.14572  0.017012821  0.015461616         2944 
 4562000   0.51229423   -7.4308212    930.81198  0.017002995  0.015456347         2997 
 4563000   0.51373105   -7.4129891    929.58822   0.01697692  0.015451085         2965 
 4564000    0.5173868   -7.4129809    930.04263  0.016981497  0.015445821         3038 
 4565000   0.52186079   -7.4195689    930.93889  0.016994138  0.015440552         2991 
 4566000   0.51691214   -7.4144404    930.95863  0.016990777  0.015435295         2938 
 4567000   0.52587961   -7.4115033    929.90023  0.016967744  0.015430038         2961 
 4568000   0.52056422   -7.4177389     930.7283  0.016979136  0.015424778         2950 
 4569000   0.52481143   -7.4079373    931.86269  0.016996109  0.015419515         3017 
 4570000   0.52337081   -7.4133956    930.60183  0.016969399   0.01541426         2980 
 4571000   0.51994226   -7.4254058    931.21759  0.016976912  0.015409004         3045 
 4572000   0.53079784   -7.4237004    930.65597  0.016962963  0.015403748         3057 
 4573000   0.52389979   -7.4284033    928.20232   0.01691454  0.015398493         3046 
 4574000   0.51419454   -7.4265818    931.74146  0.016975322  0.015393251         3074 
 4575000   0.51471995    -7.404535    931.00617  0.016958218  0.015388004         2982 
 4576000   0.51277613   -7.4162619    929.80668  0.016932668  0.015382763         2998 
 4577000   0.53067183   -7.4260262    930.90041  0.016948882  0.015377524         3038 
 4578000   0.52744678    -7.416221    929.31723  0.016916361  0.015372286         3016 
 4579000   0.52758161   -7.4483153    930.83347  0.016940261  0.015367046         2994 
 4580000   0.51173686   -7.4179795    929.73259  0.016916532  0.015361807         2989 
 4581000     0.517758   -7.4282262    929.97461  0.016917242  0.015356579         3017 
 4582000   0.51595356   -7.4255024    929.68511  0.016908284   0.01535135         3092 
 4583000   0.50726164    -7.427627    930.25887  0.016915028  0.015346123         3053 
 4584000   0.51650942   -7.4147596    931.02064  0.016925186  0.015340898         3079 
 4585000   0.53002598   -7.4231635    931.16656  0.016924147  0.015335676         3002 
 4586000   0.50598865   -7.4234136    929.46764  0.016889585  0.015330455         3059 
 4587000   0.52199863   -7.4269713    929.47644  0.016886063   0.01532524         3020 
 4588000   0.52099392   -7.4296626     930.4392  0.016899869  0.015320027         3063 
 4589000   0.53277133   -7.4457503    929.17032  0.016873144  0.015314812         2998 
 4590000   0.50845135   -7.4197047    929.99398  0.016884422    0.0153096         2920 
 4591000   0.51457483   -7.4306518      930.624   0.01689218  0.015304392         2967 
 4592000    0.5060134     -7.42207    931.17512  0.016898503  0.015299191         3070 
 4593000   0.53010482   -7.4113095    929.68118  0.016867719  0.015293987         2981 
 4594000   0.53049577   -7.4210247    930.06198  0.016870955  0.015288785         2965 
 4595000   0.52732768   -7.4207465    930.28931  0.016871406  0.015283585         2991 
 4596000   0.50590872   -7.4318806    929.58167  0.016854904  0.015278386         3034 
 4597000    0.5129816    -7.418898    929.27199  0.016845624  0.015273187         3027 
 4598000   0.52064478   -7.4465093    930.18733   0.01685855  0.015267992         2981 
 4599000   0.52306811   -7.4196637     928.7054  0.016828031  0.015262798         3075 
 4600000   0.51856172   -7.4232266    931.28002  0.016871015  0.015257602         3035 
 4601000   0.52300602   -7.4107874      930.416  0.016851699  0.015252411         3012 
 4602000   0.51005946   -7.4323086    929.72274  0.016835483  0.015247223         3013 
 4603000   0.52344148    -7.428563    931.55037  0.016864914  0.015242036         2964 
 4604000   0.52202521   -7.4348844    929.41416  0.016822585  0.015236855         2950 
 4605000   0.52223681   -7.4310282     928.5971  0.016804146  0.015231674         3110 
 4606000   0.51859549   -7.4411443    928.28443  0.016794841  0.015226487         3134 
 4607000   0.51126365   -7.4410285    931.26989  0.016845197  0.015221303         3108 
 4608000   0.50306368   -7.4289838    930.00534  0.016818673  0.015216122         3049 
 4609000   0.52012852   -7.4385236    930.26187  0.016819662  0.015210948         3049 
 4610000   0.51232527   -7.4276478    930.96233  0.016828676  0.015205774         2965 
 4611000   0.51191714   -7.4527607    929.38869  0.016796586  0.015200605         3031 
 4612000   0.51726607   -7.4368838    928.27043  0.016772738  0.015195438         2963 
 4613000   0.50130367   -7.4417534    929.68627  0.016794679  0.015190269         3047 
 4614000   0.50955226   -7.4261546    930.57129  0.016807024  0.015185101         3067 
 4615000   0.50895831   -7.4347456    929.53812  0.016784726  0.015179937         3015 
 4616000   0.51402897   -7.4293591    929.43522  0.016779232  0.015174773         3060 
 4617000   0.51403085   -7.4469302    928.38629  0.016756665  0.015169611         3056 
 4618000    0.5182083   -7.4515875    926.63528  0.016721439  0.015164454         3009 
 4619000   0.51526931   -7.4523789    929.27094   0.01676537  0.015159304         3078 
 4620000   0.51405756   -7.4195701     930.6767  0.016787098  0.015154154         3058 
 4621000   0.50228988   -7.4479985    930.46489  0.016779645  0.015149005         2924 
 4622000    0.5221743   -7.4153635     930.1512  0.016770359  0.015143858         2965 
 4623000   0.50388329   -7.4339506     929.7374  0.016759272  0.015138712         3033 
 4624000   0.50691876   -7.4393038    929.05841  0.016743411  0.015133573         2987 
 4625000   0.50528791   -7.4343392    928.54285  0.016730502  0.015128432         3110 
 4626000    0.5128264   -7.4271796    930.15953  0.016756008  0.015123291         3089 
 4627000   0.50680652   -7.4142311    928.80235  0.016727944  0.015118154         3065 
 4628000   0.51003705   -7.4488448    929.39621  0.016735022   0.01511302         3108 
 4629000    0.5231375   -7.4375472    928.44793  0.016714336  0.015107885         3099 
 4630000   0.49861788   -7.4390824    928.40066  0.016709875  0.015102752         3002 
 4631000   0.51147345   -7.4422752    929.62431  0.016728286  0.015097618         2972 
 4632000   0.51015591   -7.4414111    930.37128  0.016738113  0.015092492         3008 
 4633000   0.50487786   -7.4331582    928.72192  0.016704833  0.015087371         3017 
 4634000   0.52087703   -7.4438054    928.98882  0.016706028  0.015082248         3013 
 4635000   0.51496296   -7.4356017    929.16853  0.016705655  0.015077129         3103 
 4636000   0.51364361   -7.4307363    930.53067  0.016726536  0.015072012         3075 
 4637000    0.5050276   -7.4540782    927.96566  0.016676832  0.015066891         3046 
 4638000     0.515381   -7.4307327    928.72179  0.016686822  0.015061772         3043 
 4639000    0.5044341   -7.4351838    930.37944  0.016713003  0.015056664         3104 
 4640000   0.50797689   -7.4410312    928.40067  0.016673863  0.015051551         3057 
 4641000   0.50807105   -7.4441259    928.88023  0.016678881  0.015046439         3030 
 4642000   0.50650119   -7.4599533    929.17727   0.01668062  0.015041334         3022 
 4643000   0.51954126   -7.4335988    928.68334  0.016668162  0.015036227         3014 
 4644000   0.51035357   -7.4232343    930.25818  0.016692833  0.015031123         3040 
 4645000   0.49555456   -7.4366934    929.33065  0.016672599  0.015026018         3016 
 4646000    0.5042253   -7.4280489     929.5165  0.016672344  0.015020917         3033 
 4647000   0.51690275   -7.4268256    929.04395  0.016660282  0.015015818         2995 
 4648000   0.49865652   -7.4428383    927.11438  0.016622102  0.015010719         3053 
 4649000   0.49281166   -7.4519784    930.36216  0.016676743  0.015005622         3132 
 4650000   0.51773124   -7.4522863    928.40362  0.016638058  0.015000525         3083 
 4651000    0.5098349   -7.4538123    928.74154  0.016640535  0.014995434         3074 
 4652000   0.50271036   -7.4564363    928.82447  0.016638444  0.014990343         3045 
 4653000   0.51634831   -7.4451728    929.78885  0.016652139  0.014985259         3063 
 4654000   0.50277104   -7.4531142    929.18817  0.016637806  0.014980173         3033 
 4655000   0.50211502   -7.4614648    928.08635  0.016614507  0.014975092         3017 
 4656000   0.49791037   -7.4345101    928.70042  0.016621929  0.014970011         2997 
 4657000   0.50268723   -7.4575536    928.30663  0.016611313  0.014964933         3043 
 4658000   0.51093988   -7.4504355    928.34908  0.016608507  0.014959859         3046 
 4659000   0.50320909   -7.4541755    929.42255  0.016624142  0.014954788         3096 
 4660000   0.50845275    -7.442715    928.23101  0.016599267  0.014949712         3138 
 4661000   0.50245807   -7.4579225    928.88903   0.01660747  0.014944644         3122 
 4662000   0.51096238   -7.4495361    928.73169  0.016601096  0.014939572         3108 
 4663000   0.49426438   -7.4474356    928.25645  0.016589042  0.014934505         3022 
 4664000   0.51687307   -7.4321355    927.97315  0.016580424  0.014929442         3016 
 4665000   0.51223697   -7.4468823    929.98266  0.016612766  0.014924381         3003 
 4666000   0.50280224   -7.4540176    928.89018  0.016589695  0.014919324         3121 
 4667000   0.50878882   -7.4463008    927.97101  0.016569727  0.014914268         3100 
 4668000   0.51064836   -7.4495072    929.95543  0.016601604  0.014909215         3007 
 4669000   0.50535613   -7.4544296    929.10969  0.016582953   0.01490416         3072 
 4670000   0.50825427   -7.4343032    928.53189  0.016569092  0.014899108         3064 
 4671000   0.49968726   -7.4472859    928.88526  0.016571849   0.01489406         3058 
 4672000    0.5123136   -7.4513147    928.48594  0.016561179   0.01488902         3084 
 4673000   0.50472249   -7.4676984    926.98225   0.01653082  0.014883977         3091 
 4674000   0.50606023   -7.4507758    929.35138  0.016569523  0.014878933         3083 
 4675000   0.51013717   -7.4651898    929.55428  0.016569595  0.014873895         3074 
 4676000   0.50291652   -7.4518349    927.69916   0.01653299  0.014868858         3100 
 4677000   0.49315103   -7.4466543    929.86906  0.016568118  0.014863823         3076 
 4678000   0.50064779    -7.462324    928.05552   0.01653227  0.014858787         3084 
 4679000   0.49665739   -7.4450609    928.77786  0.016541602  0.014853752         3143 
 4680000   0.49358857   -7.4724599    928.63342  0.016535495  0.014848719         3134 
 4681000   0.50793648   -7.4561145    929.49487  0.016547299  0.014843693         3085 
 4682000   0.50920647   -7.4477293    927.57588  0.016509609  0.014838666         3106 
 4683000   0.51191969    -7.462809    929.32726  0.016537249  0.014833643         3071 
 4684000   0.50043427   -7.4702923    929.48129  0.016536459  0.014828622         3072 
 4685000   0.49122706   -7.4473094    930.12244  0.016544334   0.01482361         3023 
 4686000   0.50030587   -7.4575877    929.29827  0.016526146  0.014818597         3028 
 4687000   0.49827542   -7.4491842     930.2034  0.016538713  0.014813579         3035 
 4688000   0.50292438   -7.4616403    927.15595  0.016481014  0.014808561         3069 
 4689000   0.51297845   -7.4604236    927.99722  0.016492451  0.014803546         3100 
 4690000   0.50816547    -7.451901    927.91841  0.016487534  0.014798536         3082 
 4691000   0.49938389   -7.4571993    927.40993  0.016474986  0.014793527         3014 
 4692000   0.49282649   -7.4589573    926.79677  0.016460585  0.014788519         3062 
 4693000   0.50553314   -7.4291434     928.5602  0.016488391  0.014783516         2984 
 4694000   0.49625526   -7.4669158    927.75842  0.016470644  0.014778511         3106 
 4695000   0.49638753   -7.4583847    928.14587  0.016474013  0.014773509         3133 
 4696000   0.49259548   -7.4489541     927.3864  0.016457027  0.014768511         3071 
 4697000   0.50535535   -7.4555292    927.89114  0.016462478  0.014763513         3092 
 4698000   0.49928452    -7.458075    928.27558  0.016465794  0.014758521         3123 
 4699000   0.50545343   -7.4684692    927.64188  0.016451051  0.014753529         3082 
 4700000   0.49812625   -7.4647258    926.01469    0.0164187  0.014748537         3118 
 4701000    0.4925942   -7.4771529     927.5465  0.016442362  0.014743551         3153 
 4702000   0.50024171   -7.4668703    928.53417  0.016456369   0.01473857         3061 
 4703000   0.50731907    -7.458289    928.21509  0.016447216  0.014733584         3058 
 4704000   0.49049484   -7.4639735    928.29893  0.016445205  0.014728599         3108 
 4705000   0.49565337   -7.4680858    928.76693  0.016449999  0.014723618         3166 
 4706000   0.50233027   -7.4685643    928.35135  0.016439144  0.014718638         3096 
 4707000   0.49529785   -7.4486433    928.62413  0.016440481  0.014713661         3169 
 4708000   0.49210226   -7.4559393    928.95158  0.016442785  0.014708683         3067 
 4709000   0.49613623   -7.4752803    926.01025  0.016387242  0.014703712         3073 
 4710000   0.50918238   -7.4694977    928.44592  0.016426856  0.014698742         3109 
 4711000   0.49824885   -7.4557566    928.56101  0.016425405  0.014693774         3081 
 4712000   0.51316796   -7.4582941     928.5113   0.01642104  0.014688812         3078 
 4713000   0.49840236   -7.4597877    928.25885  0.016413092  0.014683849         3080 
 4714000   0.49009631   -7.4791538    928.65328  0.016416583  0.014678883         3102 
 4715000   0.49587311   -7.4690873    928.53455  0.016411003  0.014673921         3032 
 4716000   0.50108083   -7.4523066    928.30243  0.016403422  0.014668961         3075 
 4717000   0.50174388   -7.4572665    929.72546  0.016425084  0.014664002         3010 
 4718000   0.49316931   -7.4709158    928.48771  0.016399741  0.014659049         3008 
 4719000   0.49736732   -7.4666128    926.78651  0.016366224  0.014654097         3030 
 4720000   0.49954482   -7.4665034    927.81391  0.016380895  0.014649145         3091 
 4721000   0.49974792   -7.4602621    927.69277  0.016375287  0.014644198         3009 
 4722000   0.49057801   -7.4604577    927.49277   0.01636829  0.014639252         3051 
 4723000   0.50442666   -7.4757952    928.06916  0.016374994  0.014634313         3094 
 4724000   0.50642598    -7.452816    927.74417  0.016365795  0.014629374         3033 
 4725000   0.49913293   -7.4715497    928.72034  0.016379547  0.014624432         3092 
 4726000    0.5078323    -7.460334    929.04416  0.016381791  0.014619491         3057 
 4727000   0.50258123   -7.4480102     929.9952  0.016395092  0.014614555         3137 
 4728000   0.49234908   -7.4776253    925.39894  0.016310613  0.014609619         3128 
 4729000   0.48372738    -7.461382    926.73072  0.016330632  0.014604685         3133 
 4730000   0.49785661    -7.449011     928.0466  0.016350363  0.014599755         3164 
 4731000   0.48684268   -7.4582907    927.19822  0.016331963  0.014594829         3148 
 4732000   0.48950314   -7.4369161    927.35709   0.01633131  0.014589904         3108 
 4733000   0.49535308   -7.4693208    928.46975   0.01634745  0.014584983         3164 
 4734000   0.49318564   -7.4744149    927.06019  0.016319184  0.014580061         3096 
 4735000   0.49362964   -7.4711123    928.15507  0.016335006  0.014575142         3101 
 4736000   0.49154802   -7.4742125    928.00852  0.016328979  0.014570221         3036 
 4737000   0.48294519   -7.4658904    927.39845  0.016314799  0.014565311         3156 
 4738000   0.49011474   -7.4696306    927.03298  0.016304928  0.014560395         3104 
 4739000   0.49024879   -7.4776657    928.03244  0.016319062  0.014555489         3052 
 4740000   0.48780621   -7.4574892    928.67677  0.016326947  0.014550575         3151 
 4741000   0.48351478   -7.4753601     925.9458  0.016275501  0.014545661         3109 
 4742000    0.4942835   -7.4782073    927.37807  0.016297239  0.014540758         3130 
 4743000      0.49777   -7.4629044    927.49637  0.016295881  0.014535854         3078 
 4744000   0.49563011   -7.4815357    929.14352   0.01632138  0.014530949         3112 
 4745000   0.48101364   -7.4835478    926.38145  0.016269432  0.014526045         3119 
 4746000   0.49611701   -7.4737274     926.1668  0.016262235  0.014521144         3108 
 4747000   0.50229217    -7.471647    925.97379  0.016255421  0.014516248         3180 
 4748000   0.48724676   -7.4703954    927.32182  0.016275657  0.014511351         3095 
 4749000   0.49098908   -7.4784272    926.79287  0.016262948  0.014506457         3093 
 4750000   0.49621971   -7.4756639    928.37079  0.016287207  0.014501572         3092 
 4751000   0.48735258   -7.4805751    928.54621  0.016286856  0.014496686         3123 
 4752000   0.48714109   -7.4687019    928.30538  0.016279205  0.014491803         3022 
 4753000   0.48746676   -7.4888611    926.69513  0.016247548  0.014486918         3056 
 4754000   0.49844015   -7.4625403    928.67062  0.016278759  0.014482034         3116 
 4755000   0.49135582   -7.4691978    926.55367  0.016238235  0.014477158         3088 
 4756000   0.47828019   -7.4708835    927.34586  0.016248701  0.014472283         3158 
 4757000   0.49334898    -7.466194    929.38073  0.016280932  0.014467411         3094 
 4758000   0.49490974    -7.457107    928.18298  0.016256533  0.014462535         3109 
 4759000   0.49540026   -7.4796574    929.57697  0.016277526  0.014457668         3112 
 4760000   0.48863586   -7.4748663     926.2465    0.0162158  0.014452803         3102 
 4761000   0.49334332   -7.4744453    926.71045  0.016220515  0.014447933         3120 
 4762000   0.49367933   -7.4815037    928.67322  0.016251456  0.014443064         3136 
 4763000   0.48643174   -7.4760034    928.93513  0.016252627  0.014438201         3118 
 4764000   0.49457213   -7.4810469    927.28734  0.016220391  0.014433339         3107 
 4765000   0.48736721   -7.4602094    927.47875  0.016220335  0.014428481         3131 
 4766000   0.49896961   -7.4536157    929.68246  0.016255463  0.014423626         3043 
 4767000    0.4803846    -7.478887    927.14099  0.016207625  0.014418774         3045 
 4768000   0.49829974   -7.4785764    926.63999   0.01619547  0.014413921         3087 
 4769000   0.49033845    -7.471437    928.63742  0.016226977  0.014409074         3086 
 4770000   0.48982468   -7.4897276    926.43206  0.016185046   0.01440422         3096 
 4771000   0.50146974   -7.4770587    925.57588    0.0161667  0.014399371         3098 
 4772000   0.49540016   -7.4851347    928.01701  0.016205941  0.014394527         3071 
 4773000   0.48844914   -7.4754048    928.25976  0.016206784  0.014389683         3129 
 4774000   0.48855961   -7.4693175    927.52115  0.016190496  0.014384836         3085 
 4775000    0.4842415   -7.4773451    927.69728  0.016190179  0.014379994         3097 
 4776000    0.4942481   -7.4890722    927.54346  0.016184106  0.014375154         3137 
 4777000    0.4819007   -7.4647003    926.78615  0.016167507  0.014370322         3137 
 4778000   0.48743576   -7.4735957    926.29199  0.016155504  0.014365479         3141 
 4779000   0.48428259   -7.4967146    926.67195  0.016158749  0.014360646         3148 
 4780000   0.49162051   -7.4832209    927.17865  0.016164202  0.014355814         3150 
 4781000   0.48544024   -7.4799092    927.44275  0.016165425  0.014350984         3112 
 4782000   0.48680442   -7.4866843    927.52627    0.0161635  0.014346158         3120 
 4783000   0.49091408   -7.4731849     927.8731  0.016166163  0.014341332         3092 
 4784000   0.48518442   -7.4860916    927.69038  0.016159601  0.014336512         3110 
 4785000   0.48852243   -7.4819003    926.70222  0.016139015  0.014331699         3251 
 4786000   0.48884838   -7.4698956    926.86116   0.01613841  0.014326879         3123 
 4787000    0.4787833   -7.4780946    928.17472  0.016157905  0.014322057         3122 
 4788000   0.49751834   -7.4895603    925.71234  0.016111674  0.014317242         3137 
 4789000   0.49656939   -7.4773472    926.33998  0.016119231  0.014312427         3144 
 4790000   0.48993036   -7.4746957    928.00695  0.016144867  0.014307619         3078 
 4791000   0.49848839   -7.4869383    927.08796  0.016125512  0.014302813         3098 
 4792000   0.48647934   -7.4932697    927.96096  0.016137329  0.014298015         3103 
 4793000   0.48633453   -7.4796499    925.72323  0.016095056  0.014293213         2999 
 4794000   0.48240939   -7.4784397    926.02902  0.016097014  0.014288411         3160 
 4795000   0.48069156   -7.4820614    927.48186  0.016118906  0.014283614         3039 
 4796000   0.48800435    -7.475065    926.92595  0.016105886  0.014278815         3125 
 4797000   0.48262665   -7.4693502    926.01823   0.01608676  0.014274019         3157 
 4798000   0.48372747   -7.4970495    928.14658  0.016120373  0.014269222         3207 
 4799000   0.48378504   -7.4717235    926.12802  0.016081962  0.014264426         3194 
 4800000   0.48764389   -7.4834627    928.62208  0.016121911  0.014259636         3148 
 4801000   0.48419375   -7.4757405    926.91363  0.016088899  0.014254848         3131 
 4802000   0.47812606   -7.4719627    926.42211  0.016077018  0.014250059         3167 
 4803000   0.48320564   -7.4731585    927.09663  0.016085374  0.014245275         3160 
 4804000   0.48522802   -7.4915555    927.15264  0.016082997   0.01424049         3188 
 4805000   0.48139768   -7.4812885     924.6453  0.016036165  0.014235712         3183 
 4806000   0.49201788   -7.4901887    927.13339  0.016075971  0.014230932         3195 
 4807000   0.49210898   -7.4863407    924.85596  0.016033145  0.014226157         3149 
 4808000   0.49207883   -7.4972744    925.72543  0.016044881  0.014221381         3225 
 4809000   0.48019921   -7.4839028    926.85915   0.01606119  0.014216609         3153 
 4810000   0.47814022    -7.481481    927.40606  0.016067326  0.014211837         3059 
 4811000   0.48282056   -7.4856979    926.13062  0.016041894  0.014207068         3195 
 4812000    0.4846527   -7.4910746    927.29982  0.016058808  0.014202305         3170 
 4813000   0.47383907   -7.4932923     926.8586  0.016047832  0.014197534         3172 
 4814000   0.47946012   -7.4777327    925.63816  0.016023372  0.014192775         3126 
 4815000   0.47541603   -7.4835027    926.29522  0.016031416  0.014188019         3150 
 4816000   0.48157839   -7.4829526    926.21036  0.016026619   0.01418327         3176 
 4817000   0.49577896   -7.4854993    929.42598  0.016078922  0.014178518         3045 
 4818000   0.47814192    -7.488541    926.24548  0.016020573  0.014173764         3220 
 4819000   0.48093717   -7.4995259    924.69604  0.015990455  0.014169012         3125 
 4820000   0.49265218   -7.4920259    926.34241  0.016015602  0.014164262         3136 
 4821000      0.47913   -7.5029461    925.50639  0.015997829  0.014159511         3145 
 4822000   0.47819671   -7.4848165    926.27737  0.016007835  0.014154764         3163 
 4823000   0.48124894   -7.4923615    926.48422   0.01600809  0.014150014         3156 
 4824000   0.47635554   -7.4977607    926.96682  0.016013108  0.014145269         3141 
 4825000    0.4824626   -7.4882291    926.05524  0.015994046  0.014140528         3132 
 4826000   0.46206538   -7.4767795    924.87649  0.015970377  0.014135788         3127 
 4827000   0.47511945   -7.4924541    926.29086  0.015991486  0.014131053         3063 
 4828000   0.48753718   -7.4940567    925.55844  0.015975532   0.01412632         3115 
 4829000   0.48459354   -7.4835351    924.42853  0.015952725  0.014121584         3222 
 4830000   0.48451387   -7.4861642    926.71113  0.015988805   0.01411685         3189 
 4831000   0.48001059   -7.5037344    927.50032  0.015999108  0.014112119         3187 
 4832000   0.48002217   -7.4869629    925.92484  0.015968626  0.014107386         3181 
 4833000   0.47764337    -7.494634    926.64239  0.015977695  0.014102659         3173 
 4834000    0.4734387   -7.4724471    927.10206  0.015982314  0.014097936         3128 
 4835000   0.46845851   -7.4956067    927.16504  0.015980094  0.014093213         3171 
 4836000   0.47548574   -7.5019025    926.76897  0.015969964  0.014088492         3208 
 4837000    0.4804832   -7.4888971    925.48817  0.015944597  0.014083771         3108 
 4838000   0.48428525   -7.4932105    925.33341  0.015938635  0.014079056         3133 
 4839000   0.46867602   -7.4799108    927.83051  0.015978345  0.014074343         3158 
 4840000   0.48058397   -7.4911468     927.0025  0.015960787  0.014069634         3140 
 4841000    0.4786135   -7.4878441    927.04728  0.015958261  0.014064918         3187 
 4842000   0.47484385   -7.5032563    925.23168  0.015923717  0.014060205         3143 
 4843000   0.47901441   -7.4899786    926.41538  0.015940797  0.014055498         3198 
 4844000   0.48052563   -7.4942865     924.5926  0.015906149  0.014050793         3182 
 4845000    0.4801193   -7.5157113    926.14052  0.015929489  0.014046088         3110 
 4846000   0.46894554   -7.4902065    927.24235   0.01594515  0.014041386         3155 
 4847000   0.48661237   -7.4801066      925.241  0.015907451  0.014036684         3188 
 4848000   0.47021433   -7.5021282    926.14517  0.015919712  0.014031988         3173 
 4849000   0.47098362   -7.4938787    923.89865  0.015877821  0.014027291         3196 
 4850000   0.47417274   -7.4990502    925.50212  0.015902098  0.014022595         3170 
 4851000   0.49002202   -7.5035003    926.08088  0.015908762  0.014017901         3218 
 4852000   0.46945884   -7.5111265     924.1754  0.015872757  0.014013211         3166 
 4853000   0.48529749    -7.495694    925.52292  0.015892625  0.014008522         3127 
 4854000   0.47928076   -7.5077778    925.12923  0.015882592  0.014003841         3166 
 4855000   0.47217076   -7.4885146    927.12309  0.015913544  0.013999157         3111 
 4856000   0.46702412    -7.501231    925.97946  0.015890641  0.013994472         3165 
 4857000   0.47542477   -7.4957766    926.35353  0.015893788  0.013989789         3200 
 4858000   0.47496599   -7.5062109    926.20886  0.015888035  0.013985109         3175 
 4859000   0.47736848   -7.5149778    925.26151  0.015868517  0.013980429         3086 
 4860000   0.47064583   -7.4992564    925.60717  0.015871179  0.013975755         3184 
 4861000   0.46393741   -7.5123638    927.26076  0.015896262  0.013971082         3154 
 4862000   0.47353989   -7.5030509    926.04297   0.01587212  0.013966411         3153 
 4863000   0.48096662   -7.5010693    924.54121  0.015843122  0.013961741         3191 
 4864000   0.47563131   -7.4984338    927.54082  0.015891256  0.013957068         3185 
 4865000   0.48609418   -7.5034501    925.98525  0.015861344  0.013952402         3155 
 4866000   0.45749003   -7.4994913    926.46576  0.015866313  0.013947737         3156 
 4867000   0.46779315   -7.4997889    925.55715  0.015847496  0.013943074         3202 
 4868000     0.476452   -7.5040325    926.57835  0.015861722  0.013938415         3225 
 4869000   0.47666664   -7.4829893    926.07765  0.015849895  0.013933759         3187 
 4870000   0.46820243   -7.5072057    925.72185  0.015840552  0.013929103         3118 
 4871000    0.4760139   -7.5067999    926.21406  0.015845721  0.013924449         3099 
 4872000   0.47764605   -7.4935683    925.98794    0.0158386  0.013919796         3086 
 4873000   0.47685495   -7.5076435    926.04101  0.015836258  0.013915147         3186 
 4874000    0.4693295   -7.5140122    926.25657  0.015836694  0.013910496         3157 
 4875000   0.45935891   -7.5015725    924.74266  0.015807567  0.013905849         3198 
 4876000   0.47257898   -7.4970767    927.30276  0.015848078  0.013901212         3096 
 4877000   0.45582249   -7.5051495    925.14887  0.015808025  0.013896567         3217 
 4878000   0.46801049   -7.4992924    925.68545  0.015813951  0.013891928         3184 
 4879000   0.46789517   -7.4951638    925.51701  0.015807833  0.013887291         3187 
 4880000   0.47736227   -7.4991463    925.47303  0.015803843   0.01388266         3195 
 4881000    0.4676691   -7.5012257    925.36879  0.015798825  0.013878024         3148 
 4882000   0.46834867   -7.5084882    925.48302  0.015797539  0.013873395         3150 
 4883000   0.47733332   -7.4998591    925.31595  0.015791452  0.013868769         3164 
 4884000    0.4641548   -7.4953527    927.70946  0.015829059  0.013864143         3224 
 4885000   0.47176959   -7.4920007      926.845  0.015811071  0.013859517         3197 
 4886000   0.47563408   -7.5073107    924.88689  0.015774439  0.013854891         3145 
 4887000   0.47203286   -7.4974017    926.72575  0.015802567   0.01385027         3125 
 4888000   0.46196522    -7.503439    927.15747  0.015806694   0.01384565         3162 
 4889000   0.47453885   -7.4936523    926.49535  0.015792176  0.013841036         3157 
 4890000   0.46797926   -7.5111565    925.22252  0.015767255  0.013836423         3158 
 4891000   0.46998398   -7.5091314     924.1628  0.015745976  0.013831811         3193 
 4892000   0.46590605   -7.4945778    926.46449  0.015781965  0.013827197         3154 
 4893000   0.45989891   -7.5050566    924.90341  0.015752153  0.013822588         3198 
 4894000   0.46507219   -7.5041163    925.21289  0.015754204  0.013817986         3184 
 4895000   0.46619261   -7.5065212    924.69224  0.015742122  0.013813382         3189 
 4896000   0.47930088    -7.505746    926.22028  0.015764915  0.013808778         3146 
 4897000   0.46392346   -7.4996918    925.33073  0.015746558  0.013804178         3189 
 4898000   0.46934853   -7.5049384    925.98242  0.015754431  0.013799576         3163 
 4899000   0.46462991   -7.5100369    923.93345  0.015716361  0.013794972         3221 
 4900000   0.46705445   -7.5280697     923.8086  0.015711031  0.013790374         3232 
 4901000   0.46901834   -7.5144743    925.87883  0.015743026  0.013785776         3178 
 4902000   0.47150367   -7.5005281    925.96726  0.015741318  0.013781183         3203 
 4903000   0.47293781   -7.5080547    925.24093  0.015725762   0.01377659         3228 
 4904000   0.47489838   -7.5226413    925.14526   0.01572093  0.013772001         3157 
 4905000   0.46557778   -7.5097399    924.50635   0.01570687   0.01376741         3203 
 4906000   0.47856587   -7.5087012    925.13789  0.015714395  0.013762827         3177 
 4907000   0.46321539   -7.5071146    925.61201  0.015719245   0.01375824         3125 
 4908000   0.45502522   -7.4945029    926.34582  0.015728501   0.01375366         3154 
 4909000   0.47695508   -7.5138991    925.88638  0.015717498   0.01374908         3215 
 4910000   0.46129129   -7.5038236     925.7658  0.015712251  0.013744502         3104 
 4911000   0.46403859   -7.4976415    924.44805  0.015686691  0.013739927         3230 
 4912000   0.45968324   -7.5151904    924.34166  0.015681692  0.013735351         3207 
 4913000     0.473662   -7.4988911    925.62728  0.015700307  0.013730775         3151 
 4914000   0.47909972   -7.5155142    924.43341  0.015676866  0.013726204         3230 
 4915000   0.47122584   -7.5199715    924.83058   0.01568041  0.013721633         3210 
 4916000   0.45822434   -7.5074534    924.14764  0.015665643  0.013717065         3226 
 4917000   0.46981053   -7.5049095    924.91675  0.015675492    0.0137125         3185 
 4918000   0.46640832    -7.535097    925.12383  0.015675814  0.013707935         3214 
 4919000   0.47028829   -7.5113558    925.51461  0.015679247  0.013703375         3149 
 4920000   0.45150777   -7.5250751    925.54754  0.015676618  0.013698813         3297 
 4921000   0.46565499   -7.5140541    924.15628  0.015649873  0.013694259         3185 
 4922000   0.46093959   -7.5203263    925.40547  0.015667843  0.013689704         3262 
 4923000   0.46277687   -7.5020171     925.0823   0.01565919  0.013685154         3162 
 4924000   0.46096275   -7.5025417    926.11508  0.015673488  0.013680603         3258 
 4925000   0.46666979   -7.5175249    924.73093  0.015646885  0.013676051         3214 
 4926000   0.45964188   -7.5227343    924.77222  0.015644408  0.013671502         3254 
 4927000   0.45421244   -7.4993353    923.67071  0.015622602  0.013666958         3181 
 4928000   0.45387022   -7.5154699    926.20128  0.015662224  0.013662415         3194 
 4929000   0.45667178   -7.5234404    925.30838   0.01564395  0.013657873         3254 
 4930000   0.46117089   -7.5204596    924.85313  0.015633082  0.013653333         3242 
 4931000   0.47088843   -7.5161865    926.46909  0.015657221   0.01364879         3219 
 4932000   0.46763224   -7.5146904    924.97669   0.01562883  0.013644254         3222 
 4933000   0.45362905   -7.5149798     926.2551  0.015647258  0.013639719         3273 
 4934000   0.45342491   -7.5286431    924.43314  0.015613315  0.013635181         3192 
 4935000   0.46245821   -7.5146666    925.77701  0.015632844  0.013630647         3239 
 4936000   0.45877571   -7.5166091    925.51579  0.015625267  0.013626118         3180 
 4937000   0.45851854   -7.5170147    924.12748  0.015598668  0.013621591         3265 
 4938000     0.464823   -7.5176125    925.98599  0.015626873  0.013617065         3215 
 4939000   0.45980232    -7.536316    925.20337  0.015610504  0.013612539         3213 
 4940000    0.4675097   -7.5160656    925.74055  0.015616406  0.013608022         3230 
 4941000   0.45777459    -7.524878    923.77614  0.015580114  0.013603498         3210 
 4942000   0.45688357   -7.5152439    924.38887  0.015587294  0.013598981         3203 
 4943000   0.47461161   -7.5136739    924.65947  0.015588702  0.013594463         3218 
 4944000   0.46551344   -7.5133553    925.37525  0.015597614  0.013589949         3206 
 4945000   0.46414046   -7.5312035    925.74596  0.015600707  0.013585435         3246 
 4946000   0.45656582   -7.4972221    923.87618   0.01556605   0.01358092         3207 
 4947000   0.45569771   -7.5184942     924.6897  0.015576607  0.013576411         3264 
 4948000   0.46442578   -7.5222363    924.06649  0.015562963  0.013571904         3270 
 4949000   0.47125398   -7.5395621    923.04828  0.015542673  0.013567397         3211 
 4950000    0.4607302   -7.5077691    924.47011   0.01556347  0.013562892         3236 
 4951000   0.47234574   -7.5088181    924.30561  0.015557558  0.013558392         3189 
 4952000   0.45800301   -7.5297398    925.33835  0.015571795  0.013553894         3203 
 4953000   0.45585036   -7.5144742    925.34163  0.015568706  0.013549399         3230 
 4954000   0.45871317   -7.5260872     925.4121  0.015566749  0.013544903         3286 
 4955000   0.45586572   -7.5266241    924.39619  0.015546522  0.013540408         3310 
 4956000   0.45041157    -7.530478    924.17134  0.015539604  0.013535912         3232 
 4957000   0.45569213   -7.5148629    924.55048  0.015542843  0.013531419         3226 
 4958000   0.46299839   -7.5207551    925.28873  0.015552117  0.013526929         3219 
 4959000   0.45631086   -7.5127053     926.0249  0.015561351  0.013522446         3190 
 4960000   0.46462906   -7.5174779    924.61456  0.015534519  0.013517963         3182 
 4961000   0.46002671   -7.5265521     924.3835  0.015527506  0.013513483         3239 
 4962000   0.45901189   -7.5177124    926.04258   0.01555224  0.013508998         3205 
 4963000   0.45784415   -7.5098999    925.09742  0.015533236  0.013504517         3183 
 4964000   0.45724563   -7.5226631    924.76151  0.015524468  0.013500038         3194 
 4965000   0.45397552   -7.5331156    925.46779  0.015533195  0.013495564         3240 
 4966000   0.46378451   -7.5178698    925.73208  0.015534503   0.01349109         3208 
 4967000   0.44663593   -7.5246246    925.41396  0.015526038  0.013486612         3217 
 4968000   0.45351372   -7.5161103      922.884  0.015480475  0.013482141         3210 
 4969000    0.4484078   -7.5377709    925.48779  0.015521027  0.013477668         3237 
 4970000   0.44901951   -7.5177847    923.68383  0.015487656    0.0134732         3271 
 4971000   0.45028497    -7.528248    923.96344  0.015489228  0.013468733         3219 
 4972000   0.45306072   -7.5283291      925.568  0.015513006   0.01346427         3254 
 4973000    0.4607817   -7.5147697    923.80614  0.015480363  0.013459809         3229 
 4974000   0.45187927   -7.5257586    923.52183  0.015472487   0.01345535         3273 
 4975000   0.44401294   -7.5265021    924.76813  0.015490253  0.013450892         3187 
 4976000   0.45189351   -7.5339876    923.28453  0.015462294  0.013446435         3234 
 4977000    0.4514372   -7.5265459     924.5897  0.015481041   0.01344198         3243 
 4978000    0.4526549   -7.5208188    926.60365  0.015511645  0.013437523         3219 
 4979000   0.45681026   -7.5329919    923.61366  0.015458487  0.013433072         3239 
 4980000   0.44392085   -7.5219435    924.75497  0.015474481  0.013428621         3210 
 4981000   0.45498928   -7.5294963     924.3453   0.01546452  0.013424171         3215 
 4982000   0.45630199   -7.5331653    926.67585  0.015500399  0.013419724         3172 
 4983000    0.4571027   -7.5216131    922.71953  0.015431125  0.013415282         3184 
 4984000   0.46197951   -7.5188586    923.78375  0.015445823  0.013410841         3244 
 4985000   0.45796958   -7.5491772    925.21359  0.015466626  0.013406402         3216 
 4986000   0.45200424   -7.5354941    923.02487  0.015426943  0.013401965         3199 
 4987000    0.4559619   -7.5246149    925.01729  0.015457143   0.01339753         3191 
 4988000   0.44725657   -7.5302661     924.6706  0.015448252  0.013393089         3214 
 4989000   0.45524337   -7.5088092    924.28821  0.015438769  0.013388658         3194 
 4990000   0.46733098   -7.5302954    924.95758  0.015446853  0.013384227         3203 
 4991000    0.4559523   -7.5434732    923.50257  0.015419464  0.013379797         3231 
 4992000   0.46124381   -7.5199763    922.08372   0.01539269  0.013375367         3227 
 4993000   0.44731437   -7.5300835    923.94459  0.015420665  0.013370938         3234 
 4994000   0.45203616   -7.5266163    923.89488  0.015416748  0.013366513         3160 
 4995000   0.44873752    -7.533581    923.89001   0.01541358  0.013362091         3186 
 4996000   0.45071129   -7.5264834    924.41059  0.015419178  0.013357671         3215 
 4997000   0.46225256   -7.5367152    924.77461  0.015422163  0.013353254         3255 
 4998000   0.45229892   -7.5273973    923.32411  0.015394893  0.013348835         3285 
 4999000   0.46083879   -7.5244223    924.41643  0.015410023   0.01334442         3254 
 5000000   0.45118802   -7.5223794    924.54342  0.015409057  0.013340006         3289 
 5001000   0.45327782   -7.5345447    925.63783  0.015424212  0.013335591         3231 
 5002000   0.45652728    -7.525257    923.66641  0.015388285  0.013331183         3257 
 5003000   0.45275915   -7.5321506    925.67674  0.015418694  0.013326774         3276 
 5004000    0.4589269   -7.5374063    924.40626  0.015394455  0.013322369         3208 
 5005000   0.45560921   -7.5342477    925.35138  0.015407116  0.013317963         3247 
 5006000   0.45669892   -7.5248793    922.89359  0.015363124  0.013313563         3234 
 5007000   0.44610897   -7.5250167    924.76171  0.015391148  0.013309162         3257 
 5008000   0.45736251    -7.538705    923.98537  0.015375156  0.013304761         3224 
 5009000   0.44439337   -7.5346525    923.47502  0.015363596  0.013300363         3243 
 5010000   0.44991412   -7.5375992    922.63991  0.015346639  0.013295967         3287 
 5011000   0.45255764   -7.5372429    924.03193  0.015366725  0.013291572         3222 
 5012000   0.44247108    -7.542125    924.23133  0.015366975  0.013287183         3253 
Loop time of 13089.9 on 48 procs for 5000000 steps with 4000 atoms

Performance: 66005.111 tau/day, 381.974 timesteps/s
99.4% CPU use with 48 MPI tasks x no OpenMP threads

MPI task timing breakdown:
Section |  min time  |  avg time  |  max time  |%varavg| %total
---------------------------------------------------------------
Pair    | 958.42     | 1039.9     | 1124.6     | 138.7 |  7.94
Neigh   | 90.711     | 94.331     | 98.371     |  20.8 |  0.72
Comm    | 842.25     | 925.12     | 1005.8     | 139.8 |  7.07
Output  | 16.718     | 16.723     | 16.83      |   0.4 |  0.13
Modify  | 10853      | 10889      | 10917      |  17.0 | 83.18
Other   |            | 125.1      |            |       |  0.96

Nlocal:        83.3333 ave          89 max          76 min
Histogram: 3 2 1 3 9 4 16 3 4 3
Nghost:        2434.67 ave        2448 max        2425 min
Histogram: 8 5 5 5 5 6 7 3 3 1
Neighs:        16880.2 ave       19370 max       14090 min
Histogram: 2 0 9 2 8 8 7 5 4 3
FullNghs:      33761.0 ave       35907 max       30804 min
Histogram: 3 2 1 2 10 5 9 8 2 6

Total # of neighbors = 1620526
Ave neighs/atom = 405.13150
Neighbor list builds = 267346
Dangerous builds = 0

#clear
#
#next RN
#
#jump SELF
Total wall time: 3:38:13
