
units lj                  # Use reduced LJ style units
atom_style atomic         # Uncharged point particles
atom_modify map hash      # Needed for indexing of clusters etc
                          # Used to be able to find where atoms are in relation to each other.

lattice fcc 1.0 spacing 1 1 1
Lattice spacing in x,y,z = 1.5874011 1.5874011 1.5874011
region box block 0 10 0 10 0 10 units lattice
create_box 2 box
Created orthogonal box = (0.0000000 0.0000000 0.0000000) to (15.874011 15.874011 15.874011)
  3 by 4 by 4 MPI processor grid
create_atoms 1 box
Created 4000 atoms
  using lattice units in orthogonal box = (0.0000000 0.0000000 0.0000000) to (15.874011 15.874011 15.874011)
  create_atoms CPU = 0.014 seconds
set type 1 type/fraction 2 0.66 78393
Setting atom values ...
  2654 settings made for type/fraction
mass 1 1.0
mass 2 1.0
pair_style lj/cut  3.5
pair_modify tail  yes
pair_coeff 1  1  1.0  1.0   # Intearaction between 1 and 1 set with epsilon = 1 and sigma = 1
pair_coeff 1  2  1.5  0.8
pair_coeff 2  2  0.5  0.88

write_data data.0
System init for write_data ...
Neighbor list info ...
  update every 1 steps, delay 10 steps, check yes
  max neighbors/atom: 2000, page size: 100000
  master list distance cutoff = 3.8
  ghost atom cutoff = 3.8
  binsize = 1.9, bins = 9 9 9
  1 neighbor lists, perpetual/occasional/extra = 1 0 0
  (1) pair lj/cut, perpetual
      attributes: half, newton on
      pair build: half/bin/atomonly/newton
      stencil: half/bin/3d
      bin: standard
WARNING: Not all mixed pair coeffs generated from mixing. Use write_data with 'pair ij' option to store all pair coeffs. (../write_data.cpp:312)


#############################
#   M E L T   S Y S T E M   #
#############################

velocity all create 2.4 6583654 mom yes dist gaussian # Assign velocities
                                                    # Temperature 2.4, random number seed, zero linear momentum
                                                                                # Gaussian distribution

timestep 0.002   # simulation timestep
thermo 1000       # output thermodynamic data every 1000 steps bf 100

# Define a fix  in this case with index 1 applied to all
# particles in the simulation. This fix is for simulations
# in the anisotropic NPT ensemble. Note that we use the MTK
# correction.
fix 1 all npt temp 2.4 2.4 0.1 iso 5.68 5.68 0.5 mtk yes tchain 5 pchain 5 # Use NPT ensemble
                                                                         # Set temperature and pressure and damping
                                                                         # Numbers of thermostats in chain and in barostat
run 10000          # run for 10000 steps
Per MPI rank memory allocation (min/avg/max) = 3.642 | 3.644 | 3.648 Mbytes
Step Temp E_pair E_mol TotEng Press Volume 
       0          2.4   -4.3965799            0  -0.79747995   -3.9040118         4000 
    1000    2.3719625   -4.0688518            0  -0.51179753    5.5368924    3637.7039 
    2000    2.3838029   -4.0714112            0   -0.4966007    5.5943717    3646.6301 
    3000    2.4391744   -4.1552763            0  -0.49742938    5.4765644    3614.1702 
    4000    2.4428409   -4.0350649            0  -0.37171964    5.6079598    3668.8619 
    5000    2.3859729   -4.1083461            0   -0.5302814    5.7773162    3611.2292 
    6000    2.3899203   -4.1615292            0  -0.57754503    5.4555734    3612.2546 
    7000    2.3280526    -4.116279            0  -0.62507305    5.4093626    3617.3206 
    8000    2.4226705   -4.0815207            0  -0.44842342    5.7404156    3624.3944 
    9000    2.4234125    -4.086497            0  -0.45228702    5.4767853    3644.8612 
   10000    2.4147886   -4.1139535            0  -0.49267608    5.7577794     3614.445 
Loop time of 2.6812 on 48 procs for 10000 steps with 4000 atoms

Performance: 644486.596 tau/day, 3729.668 timesteps/s
99.7% CPU use with 48 MPI tasks x no OpenMP threads

MPI task timing breakdown:
Section |  min time  |  avg time  |  max time  |%varavg| %total
---------------------------------------------------------------
Pair    | 1.2226     | 1.2849     | 1.369      |   2.7 | 47.92
Neigh   | 0.22138    | 0.22645    | 0.23514    |   0.7 |  8.45
Comm    | 0.82389    | 0.89422    | 0.96802    |   3.4 | 33.35
Output  | 0.00025505 | 0.00026217 | 0.00041917 |   0.0 |  0.01
Modify  | 0.21558    | 0.25907    | 0.28607    |   4.5 |  9.66
Other   |            | 0.01626    |            |       |  0.61

Nlocal:        83.3333 ave          92 max          73 min
Histogram: 1 2 4 2 8 11 11 6 2 1
Nghost:        1763.12 ave        1793 max        1741 min
Histogram: 4 2 5 14 6 9 2 1 4 1
Neighs:        10572.8 ave       11789 max        9119 min
Histogram: 3 2 2 2 9 8 12 4 4 2

Total # of neighbors = 507492
Ave neighs/atom = 126.87300
Neighbor list builds = 905
Dangerous builds = 214

# Equilibrate just above the melting temperature to avoid step fn in T

fix 1 all npt temp 1.25 1.25 0.1 iso 5.68 5.68 0.5 mtk yes tchain 5 pchain 5
run 2000
Per MPI rank memory allocation (min/avg/max) = 3.644 | 3.646 | 3.650 Mbytes
Step Temp E_pair E_mol TotEng Press Volume 
   10000    2.4147886   -4.1139535            0  -0.49267608    5.7577794     3614.445 
   11000    1.2315151   -6.0069041            0   -4.1600933    5.9409405    2765.0803 
   12000    1.2745079   -6.0708597            0   -4.1595758    5.8873962    2745.8867 
Loop time of 0.675641 on 48 procs for 2000 steps with 4000 atoms

Performance: 511513.937 tau/day, 2960.150 timesteps/s
99.6% CPU use with 48 MPI tasks x no OpenMP threads

MPI task timing breakdown:
Section |  min time  |  avg time  |  max time  |%varavg| %total
---------------------------------------------------------------
Pair    | 0.29894    | 0.3316     | 0.36786    |   2.5 | 49.08
Neigh   | 0.043555   | 0.045946   | 0.051767   |   0.7 |  6.80
Comm    | 0.21076    | 0.24644    | 0.27839    |   2.9 | 36.48
Output  | 5.509e-05  | 5.6269e-05 | 7.1944e-05 |   0.0 |  0.01
Modify  | 0.039529   | 0.046742   | 0.052023   |   1.8 |  6.92
Other   |            | 0.004852   |            |       |  0.72

Nlocal:        83.3333 ave          91 max          77 min
Histogram: 3 0 11 7 4 13 1 6 2 1
Nghost:        2118.67 ave        2141 max        2105 min
Histogram: 5 7 6 8 7 8 5 0 0 2
Neighs:        13902.6 ave       15142 max       12735 min
Histogram: 4 3 6 6 7 7 3 5 4 3

Total # of neighbors = 667326
Ave neighs/atom = 166.83150
Neighbor list builds = 147
Dangerous builds = 16

#############################
# L I N E A R  Q U E N C H  #
#############################

# Define solid atoms. This closely follows ten Wolde  Ruiz-Montero and Frenkel  Faraday Discuss  1996  104  93-110
# Compute components of the per-atom q6 vector
compute q6 all orientorder/atom degrees 1 6 components 6 nnn NULL cutoff 1.3 # compute the Q6 parameter.
                                                                             # Use all neighbours within 1.3 unit cell.

# get number of connections
compute coord_number all coord/atom orientorder q6 0.5

# An atom is solid if it has 8 or more connections (of a possible 14)
variable is_solid atom c_coord_number>=8
group solid dynamic all var is_solid    # Must be dynamic to update
dynamic group solid defined

# do clustering
compute cluster solid cluster/atom 1.3 # Create a cluster where all atoms within are solid and max 1.3 units from another member

# define chunks one chunk per cluster
compute clus_chunks solid chunk/atom c_cluster nchunk every compress yes  # Says which atoms are in which chunk

# count the size of each chunk
compute size_chunks solid property/chunk clus_chunks count


# Find the maximum entry in the vector of chunk sizes
variable max_n equal max(c_size_chunks)


# Thermo style which includes this variable
# thermo_style custom step temp pe vol v_max_n

thermo ${N}  # Print the thermo information every 100 steps
thermo 1000  

# Reset the npt fix at a lower temperature (below freezing)
fix 1  all npt temp  ${temp} ${temp}  0.1  iso  5.68  5.68  0.5  mtk yes tchain  5  pchain  5
fix 1  all npt temp  0.45 ${temp}  0.1  iso  5.68  5.68  0.5  mtk yes tchain  5  pchain  5
fix 1  all npt temp  0.45 0.45  0.1  iso  5.68  5.68  0.5  mtk yes tchain  5  pchain  5

dump dmp2 all dcd ${N} traj.dcd
dump dmp2 all dcd 1000 traj.dcd


compute msd all msd com yes
variable twopoint equal c_msd[4]/6/(step*dt+1.0e-6)
fix 9 all vector 10 c_msd[4]
variable fit equal slope(f_9)/6/(10*dt)
thermo_style custom step temp pe c_msd[4] v_twopoint v_fit v_max_n

fix 1 all npt temp 1.25 ${temp} 0.1 iso 5.68 5.68 0.5 mtk yes tchain 5 pchain 5
fix 1 all npt temp 1.25 0.45 0.1 iso 5.68 5.68 0.5 mtk yes tchain 5 pchain 5
run 500000 # 5000000  # Run for this many steps
Neighbor list info ...
  update every 1 steps, delay 10 steps, check yes
  max neighbors/atom: 2000, page size: 100000
  master list distance cutoff = 3.8
  ghost atom cutoff = 3.8
  binsize = 1.9, bins = 8 8 8
  4 neighbor lists, perpetual/occasional/extra = 1 3 0
  (1) pair lj/cut, perpetual
      attributes: half, newton on
      pair build: half/bin/atomonly/newton
      stencil: half/bin/3d
      bin: standard
  (2) compute orientorder/atom, occasional
      attributes: full, newton on
      pair build: full/bin/atomonly
      stencil: full/bin/3d
      bin: standard
  (3) compute coord/atom, occasional
      attributes: full, newton on
      pair build: full/bin/atomonly
      stencil: full/bin/3d
      bin: standard
  (4) compute cluster/atom, occasional
      attributes: full, newton on
      pair build: full/bin/atomonly
      stencil: full/bin/3d
      bin: standard
Per MPI rank memory allocation (min/avg/max) = 9.848 | 9.852 | 9.856 Mbytes
Step Temp PotEng c_msd[4] v_twopoint v_fit v_max_n 
   12000    1.2745079   -6.0708597 4.0916243e-30 2.8414056e-32 8.3333333e+20            2 
   13000    1.2375949   -6.1194285   0.59525531  0.003815739  0.048655824            1 
   14000    1.2390186   -6.0323514    1.1414041  0.006794072  0.047828489            2 
   15000    1.2388882   -6.0985495    1.6434916 0.0091305084  0.045308163            3 
   16000    1.2346878   -6.1340945    2.1749467  0.011327847  0.044540963            1 
   17000    1.2341918   -6.1378485    2.7793555  0.013624291  0.045010285            3 
   18000    1.2597815   -6.1233383    3.2914046  0.015237984   0.04523976            2 
   19000    1.2115064   -6.0386538    3.8373544  0.016830501  0.045282922            2 
   20000    1.1995294   -6.1182955    4.2776187  0.017823411  0.044957316            2 
   21000    1.2439636   -6.1006992    4.7647402  0.018907699  0.044340737            2 
   22000    1.2098034   -6.0802672     5.288003  0.020030314  0.043943586            2 
   23000    1.2086017   -6.1445137    5.7901915  0.020978954  0.043625514            1 
   24000    1.2377454   -6.1545982    6.2268336  0.021620949  0.043357578            3 
   25000    1.2259454   -6.1198102    6.7661014  0.022553671  0.043001362            1 
   26000    1.2111176   -6.1321815    7.3693686  0.023619771  0.042972646            2 
   27000    1.2190742    -6.156782    7.9629931  0.024577139  0.043112622            4 
   28000    1.2247429   -6.1342283    8.5036687  0.025308537  0.043281014            1 
   29000    1.2106089   -6.1783278    9.1105041  0.026179609  0.043582217            3 
   30000    1.2208785   -6.1178616    9.6858381  0.026905105  0.043767257            4 
   31000    1.2065895   -6.1571756     10.02549  0.026950243  0.043810842            1 
   32000    1.2296202   -6.2044215       10.449  0.027210936  0.043729661            3 
   33000    1.2042743   -6.1611582    10.905031  0.027537957  0.043566848            3 
   34000    1.2492545   -6.1724322     11.38757  0.027910711  0.043390806            2 
   35000    1.2489074   -6.1604156    11.915921   0.02837124  0.043258056            3 
   36000    1.2226013   -6.1928359     12.27028  0.028403425  0.043070322            2 
   37000     1.203309   -6.1741504    12.726355  0.028662962   0.04280663            5 
   38000    1.1969137   -6.1480766    13.142982  0.028822328  0.042580486            3 
   39000    1.2020937    -6.202832    13.619943  0.029102441  0.042344098            2 
   40000    1.1730593   -6.2231578     14.08081  0.029335021   0.04215928            3 
   41000    1.2363524    -6.175183    14.726334  0.029931573  0.042035026            2 
   42000    1.1738834   -6.1859174    15.234221  0.030226628  0.041936174            2 
   43000    1.1988708    -6.163215    15.763903  0.030550199  0.041888462            4 
   44000    1.2171183   -6.1875027    16.182809  0.030649259  0.041832881            2 
   45000     1.198594   -6.1750341    16.653375  0.030839583  0.041751604            2 
   46000    1.1744589    -6.222564    16.918999   0.03065036  0.041647614            1 
   47000    1.1834924    -6.224078    17.442644  0.030926673  0.041529191            1 
   48000    1.2072267   -6.2111542    17.892776  0.031063848  0.041399858            2 
   49000    1.1938917   -6.2209995    18.307752  0.031135632  0.041269409            3 
   50000    1.2282943    -6.241009    18.753027  0.031255044  0.041133307            1 
   51000    1.1888768    -6.241321    19.163702  0.031313238  0.040993349            3 
   52000    1.1851338   -6.2274698    19.747086  0.031645972  0.040882473            1 
   53000    1.1711296   -6.2351856    20.113959  0.031625721  0.040780337            2 
   54000    1.1878281   -6.2366753    20.554703   0.03172022  0.040686314            7 
   55000    1.1748165   -6.2673825     21.01107  0.031834954   0.04057689            5 
   56000    1.1865911   -6.2764862    21.531456  0.032040857   0.04047219            5 
   57000    1.1863651   -6.2630455    21.951051  0.032092179  0.040376907            2 
   58000    1.2135649   -6.2437935    22.274085  0.032002995  0.040275643            2 
   59000    1.1713362   -6.2488511    22.683982  0.032039523  0.040160655            4 
   60000    1.1785012   -6.2785472    23.036601  0.031995279  0.040043841            2 
   61000    1.1447096   -6.2836129    23.575352  0.032206765  0.039940937            2 
   62000    1.1910842   -6.2789955    24.026684   0.03229393  0.039852548            2 
   63000    1.1856387   -6.2815695    24.327568  0.032179323  0.039742007            2 
   64000    1.1745409   -6.2996309    24.818065  0.032315188  0.039634748            2 
   65000    1.1503407   -6.2718126    25.270786  0.032398443  0.039540766            3 
   66000    1.1747935   -6.3032685    25.800613  0.032576531  0.039454908            4 
   67000    1.1685287   -6.2700578    26.260095  0.032661809  0.039366316            2 
   68000    1.1525311   -6.3023535    26.598179  0.032595808  0.039285691            2 
   69000    1.1734049    -6.292773    27.088143  0.032715149  0.039203891            4 
   70000    1.1634791   -6.3523342    27.287009  0.032484534  0.039107789            2 
   71000    1.1868429    -6.303622    27.797771  0.032626492  0.039008778            2 
   72000    1.1447673   -6.3286333    28.142988  0.032572903  0.038912703            5 
   73000    1.1469098   -6.3487785    28.588923  0.032635757  0.038810772            1 
   74000    1.1639198   -6.3518354    28.788375  0.032419341  0.038721883            3 
   75000    1.1311496   -6.3581221    29.330475  0.032589416  0.038617855            6 
   76000    1.1555044   -6.3345527    29.606986  0.032463801  0.038514725            3 
   77000    1.1520686   -6.3058665    30.141663  0.032620847  0.038413676            2 
   78000    1.1267559   -6.2956588    30.337832  0.032412214    0.0383063            2 
   79000    1.1254885   -6.3436568    30.685809  0.032368997  0.038196063            3 
   80000    1.1286699   -6.3485667    31.118046  0.032414631  0.038083502            5 
   81000     1.137454    -6.303957    31.769818  0.032684997   0.03799323            5 
   82000    1.1539086   -6.3325707    32.095017  0.032616887  0.037908108            4 
   83000    1.1227984   -6.4088417    32.285985  0.032415647  0.037817615            2 
   84000     1.151623    -6.365875    32.657141  0.032397957  0.037723766            3 
   85000    1.1155493    -6.406473     32.97487  0.032328304  0.037624403            2 
   86000    1.1328095   -6.3961017    33.374324  0.032339461  0.037519314            4 
   87000    1.1100438   -6.4189689    33.692398  0.032272411  0.037410966            3 
   88000    1.1182817   -6.3670651    34.109877   0.03230102  0.037310052            2 
   89000    1.1185268   -6.3928451    34.408021  0.032217248  0.037212641            3 
   90000    1.1326641    -6.340992    34.867703   0.03228491  0.037115007            2 
   91000    1.1369193   -6.3978681    35.262524  0.032291689  0.037020279            5 
   92000      1.14995   -6.4054915    35.863052  0.032484648  0.036934739            3 
   93000    1.1033705   -6.3584828    36.253337  0.032485069  0.036861318            2 
   94000    1.1116443   -6.4153017    36.384134  0.032255438  0.036779286            2 
   95000    1.0821522   -6.4050427    36.559176  0.032069452  0.036691023            6 
   96000    1.1348973   -6.4536633    36.847565  0.031985733   0.03659169            5 
   97000    1.1008393   -6.4521512    37.433158   0.03215907  0.036491794            2 
   98000    1.1230177   -6.4316861    37.944385  0.032265633  0.036399273            3 
   99000    1.1170411   -6.4024089    38.234511  0.032183932   0.03631618            2 
  100000    1.0879536   -6.4407744    38.448063  0.032040052  0.036229717            4 
  101000    1.0852001   -6.4546158      38.8942  0.032090924   0.03614278            3 
  102000    1.0785475   -6.4671102    38.987658  0.031852661  0.036052523            3 
  103000    1.1031203   -6.4179971    39.374853  0.031856677  0.035959101            3 
  104000    1.1008926   -6.4275083    39.706237  0.031815895  0.035859099            4 
  105000    1.1164711     -6.45188    40.030146  0.031769957  0.035758573            3 
  106000    1.0957691   -6.4948688    40.215734  0.031616143  0.035659657            6 
  107000    1.0915366    -6.423613    40.705376  0.031702006  0.035559122            5 
  108000    1.0993527    -6.462835    40.807063  0.031486931  0.035460243           10 
  109000      1.10901   -6.4279897      41.4247   0.03167026  0.035364894            2 
  110000     1.093251    -6.458611    41.672227  0.031569869  0.035275421            3 
  111000    1.0947146   -6.4726317    41.895266  0.031452902  0.035181244            3 
  112000    1.0817163    -6.465992    42.119537  0.031338941  0.035084591            3 
  113000    1.1038957   -6.4911636    42.425117  0.031286959  0.034986835            3 
  114000    1.0874687   -6.5161634    42.680492   0.03119919  0.034889333            3 
  115000    1.0786198    -6.477342    42.896333  0.031084299  0.034786183            5 
  116000    1.0704848   -6.5634682    43.182287  0.031021758  0.034682836            2 
  117000    1.0580889   -6.4931599    43.716942  0.031137423   0.03458595            2 
  118000    1.0700086   -6.4749748    44.064452  0.031118963  0.034495312            6 
  119000    1.0812447   -6.5172338    44.428373  0.031112306  0.034405802            4 
  120000    1.0710286   -6.5191681    44.574573  0.030954564  0.034311991            3 
  121000    1.0573371   -6.5364749    44.870504  0.030902551  0.034216898            4 
  122000    1.0672568   -6.5381047    45.108035  0.030811499   0.03412479            2 
  123000    1.0768802    -6.509445    45.568835  0.030873194  0.034029137            4 
  124000    1.0532783   -6.5098588    45.650717  0.030679245  0.033934205            3 
  125000    1.0639413    -6.527172    46.053628  0.030702418  0.033840354            3 
  126000    1.0668633   -6.5184628    46.430973  0.030708315  0.033752658            2 
  127000    1.0760929   -6.5002145     46.73513  0.030666096  0.033662162            2 
  128000    1.0696689   -6.5645982    46.717815  0.030415244  0.033565673            3 
  129000    1.0725867   -6.5197252    47.060456  0.030400811   0.03347159            6 
  130000    1.0532595    -6.536035       47.469  0.030428846  0.033376425            2 
  131000    1.0614657   -6.5219681    47.449848  0.030184382  0.033278332            2 
  132000    1.0367079   -6.5096392    47.986935  0.030294782  0.033184028            3 
  133000    1.0604769   -6.5864733    48.242455  0.030227102   0.03309117            2 
  134000    1.0450285   -6.5465319    48.562109  0.030200316  0.032996656            2 
  135000    1.0647117   -6.5536535    48.638267  0.030023621  0.032902017            4 
  136000    1.0518862   -6.5401756    49.024159  0.030039313  0.032807593            3 
  137000    1.0567736   -6.5904288    48.974099  0.029789598  0.032710226            4 
  138000    1.0337942   -6.5631472     49.52342  0.029905447  0.032611662            5 
  139000    1.0501897   -6.6174454    49.348591  0.029585486  0.032511533            4 
  140000    1.0442983   -6.5979677    49.879187  0.029689992  0.032411473            2 
  141000    1.0489776   -6.6119616    50.074823  0.029595049  0.032314682            4 
  142000    1.0572372   -6.6280215    50.247622  0.029488041  0.032214718            3 
  143000    1.0198674   -6.6183089     50.51079  0.029435192  0.032116908            1 
  144000    1.0240269   -6.5940435    50.836149  0.029419067   0.03202074            7 
  145000    1.0522001   -6.6321661    51.128308  0.029384085  0.031927648            2 
  146000    1.0344369   -6.6540682    51.377895  0.029325283  0.031836116           15 
  147000    1.0324026   -6.6262821    51.657777  0.029284454  0.031747167            4 
  148000    1.0215393   -6.6501322    51.744407  0.029135364  0.031655757            4 
  149000    1.0206328   -6.6306428    52.173585  0.029179857  0.031563316            3 
  150000    1.0146979   -6.5977553    52.423686   0.02912427  0.031469922            3 
  151000     1.013137   -6.6384113    52.777263  0.029126525   0.03138144            3 
  152000    1.0309938   -6.6070749    53.096215  0.029109767  0.031294086            4 
  153000    1.0078982   -6.6337122    53.052889  0.028895909  0.031205953            4 
  154000    1.0265524   -6.6652949    53.465921  0.028931776  0.031118773            5 
  155000     1.024415   -6.6232404    53.930445  0.028994863  0.031035275            2 
  156000    1.0383426   -6.6381893    54.216878  0.028962008  0.030956237            8 
  157000    1.0126429    -6.634663    54.317114   0.02883074  0.030874308            2 
  158000   0.99030077   -6.6389711    54.506333  0.028748066   0.03079006            4 
  159000    1.0505946   -6.6952939    54.701227  0.028669406  0.030705374            8 
  160000    1.0225752   -6.6827016    54.729611  0.028505005   0.03061952            2 
  161000    1.0147915   -6.6732854    55.154369   0.02854781  0.030533211            3 
  162000    1.0067259    -6.693863     55.51188  0.028555494  0.030448783            6 
  163000   0.99077201   -6.7072688    55.425972  0.028336386  0.030363445            4 
  164000    1.0037094   -6.7111785    55.710823  0.028308345  0.030277131            6 
  165000    1.0433838   -6.6708954     56.00448  0.028285091  0.030193359            6 
  166000    1.0177055   -6.7077021    56.028782  0.028126898  0.030107416            4 
  167000   0.98168052   -6.7266227    56.138726  0.028013336  0.030020962            4 
  168000   0.98831519   -6.6766071    56.606574  0.028078658  0.029934396            6 
  169000    1.0191172   -6.6985026    56.830115  0.028022739  0.029851013            3 
  170000   0.97712343   -6.7213238    57.076892  0.027978869  0.029768722            2 
  171000    1.0114578   -6.7179241    57.351526  0.027949086  0.029686561            3 
  172000    1.0100397   -6.7039691    57.501308  0.027859161  0.029603457            3 
  173000   0.99821239    -6.751979    57.303278  0.027602735  0.029517374            4 
  174000    0.9839219   -6.7275294    57.912448  0.027735847  0.029430372            4 
  175000   0.98137158   -6.7524352    57.767088  0.027508137  0.029346623            4 
  176000   0.98583128   -6.7750789    58.068945  0.027494765  0.029262436            4 
  177000    0.9938287   -6.7413875    58.579863  0.027579973  0.029178983            5 
  178000   0.99503513   -6.7559831    58.579133  0.027424688  0.029097096            8 
  179000   0.97991805   -6.7451661    58.830653  0.027388572  0.029016298            3 
  180000    0.9805986    -6.778024    59.142507   0.02738079  0.028934974            5 
  181000   0.99039543     -6.77756    59.243787  0.027276145  0.028855973            8 
  182000   0.96713341   -6.7792656    59.504053  0.027245445   0.02877642            3 
  183000    1.0025003   -6.8061416    59.823757  0.027242148  0.028697369            6 
  184000   0.98416411   -6.7447934     60.14219   0.02723831  0.028620042            7 
  185000   0.96194266   -6.7637856    60.248373  0.027138907  0.028542684            7 
  186000   0.97019517   -6.8003755    60.318112  0.027024244  0.028464717            3 
  187000   0.96605758   -6.7624771    60.610935  0.027010221  0.028388521            3 
  188000   0.98130701   -6.7900003    60.870158  0.026981453  0.028311818            8 
  189000   0.98122604   -6.8595597    61.055778  0.026920537  0.028235292            4 
  190000   0.98042002   -6.8227467    61.124861   0.02680915  0.028159499            4 
  191000   0.98905242   -6.8213721    61.446114   0.02680895  0.028084106            3 
  192000   0.95205998   -6.7837293    61.576278  0.026725815  0.028007657            4 
  193000   0.96903886   -6.7944916    61.725195  0.026651639  0.027933769            4 
  194000   0.96178568   -6.8274634    61.925397  0.026600256  0.027858195            6 
  195000   0.96928174   -6.7907072     62.18969  0.026576791  0.027783503            9 
  196000   0.95798183   -6.8020962    62.403802  0.026532229   0.02771057            2 
  197000    0.9516874   -6.8147473    62.602316  0.026481521  0.027636389            3 
  198000   0.94604478    -6.823233    62.805517  0.026433298  0.027563335            4 
  199000   0.95419318   -6.8404711    62.690842  0.026252446  0.027489171            4 
  200000   0.97172553   -6.8197458    62.896944   0.02620706  0.027413943            9 
  201000   0.97666312   -6.8757446    62.885854  0.026072079   0.02733854            5 
  202000   0.93700902   -6.8825989    62.980474  0.025982044  0.027259785            7 
  203000   0.92293939   -6.8660692    63.213829  0.025949848  0.027180972            5 
  204000   0.96833218   -6.8858207    63.230697  0.025829533  0.027102453            8 
  205000   0.93752972   -6.8865113    63.425925  0.025782896  0.027022863            5 
  206000   0.91986722   -6.8225095    63.354032  0.025628653  0.026942856            4 
  207000   0.96098217   -6.8677946    63.484154  0.025557228  0.026860622            5 
  208000    0.9503777   -6.8670714    63.547947  0.025459915  0.026779886            3 
  209000   0.91950576   -6.8731067    63.690392  0.025394893  0.026698903            7 
  210000   0.93838927   -6.9118753    63.977828  0.025388027  0.026618766            4 
  211000   0.92489612   -6.8806356    64.153235  0.025336981  0.026539534            4 
  212000   0.94687112   -6.8901967    64.188756  0.025231429  0.026460736            5 
  213000   0.91037079   -6.9302083     64.42785  0.025206514  0.026381112            6 
  214000   0.91991327   -6.8940527    64.459523   0.02510106  0.026301841           10 
  215000   0.94018634   -6.9320683    64.775954  0.025106959  0.026223517            9 
  216000   0.91489498   -6.9372728    64.849988  0.025019285  0.026146112            4 
  217000   0.93312683   -6.9201208     65.08504  0.024994255  0.026069629            6 
  218000   0.93459301   -6.9423793    65.142403   0.02490153  0.025992965            6 
  219000   0.92041446   -6.9277871    65.223994  0.024818871  0.025917034            8 
  220000   0.93042468   -6.9558275    65.471406  0.024799775  0.025839741            6 
  221000   0.91297451   -6.9464435     65.35837  0.024644936  0.025761017            6 
  222000   0.92666765   -6.9326136     65.68237  0.024655544  0.025683373           11 
  223000   0.88896944   -6.9658341     65.93902  0.024640889  0.025606313            9 
  224000   0.91273282   -6.9268039    66.221782   0.02463608  0.025530749            3 
  225000   0.90850961   -6.9254026    66.517784  0.024636216  0.025456881            7 
  226000   0.92297803   -6.9281776    66.573262  0.024547663  0.025382896            8 
  227000   0.91228536   -6.9481418    66.597825  0.024448541  0.025309558            7 
  228000    0.9089323   -6.9782655    66.711453  0.024382841  0.025236454            8 
  229000   0.89050568   -6.9874419    66.836235  0.024321774  0.025163375            4 
  230000   0.88947992   -6.9943254    66.829569  0.024213612   0.02508974            8 
  231000    0.9024525   -6.9982003    66.980918   0.02416339  0.025015748            5 
  232000   0.90176846   -6.9998985    66.955374  0.024050063  0.024941765           12 
  233000   0.88603594   -7.0146562    67.208105  0.024037234  0.024866966            6 
  234000   0.88266969   -7.0135935    67.232273  0.023943117  0.024791747            6 
  235000   0.89374082   -7.0299195    67.342206  0.023880215  0.024716837            5 
  236000    0.8832192   -7.0161149    67.296934  0.023763042  0.024641757            5 
  237000   0.89905147   -6.9721132    67.626453   0.02377864  0.024566254            4 
  238000   0.89532031   -7.0477979    67.402272  0.023600235  0.024490732            3 
  239000   0.89955939   -7.0304059    67.710835  0.023609078  0.024415199            9 
  240000   0.86910885   -7.0227993    67.653575  0.023490825  0.024340701            9 
  241000   0.87376268    -7.059392    67.864092  0.023466145  0.024264689            7 
  242000   0.88159987   -6.9949138    68.145483  0.023466076  0.024189906            5 
  243000   0.88628233   -7.0847726    67.865294   0.02327342  0.024116271           12 
  244000   0.87589188   -7.0731658    68.079465  0.023251183   0.02404219           10 
  245000   0.89011876   -6.9960545    68.291729  0.023228479  0.023969126            8 
  246000   0.85382481   -7.0631541    68.278443  0.023129554  0.023895025            4 
  247000   0.88404653   -7.0640828    68.430583  0.023087241   0.02382024            7 
  248000   0.87800691   -7.0841515    68.452249  0.023001428  0.023745892           20 
  249000   0.87457665   -7.0837003    68.482943  0.022919325  0.023671553           12 
  250000   0.87758618   -7.1226413    68.546403  0.022848801  0.023597049            7 
  251000   0.88345362   -7.0781376    68.844872  0.022856863  0.023523437            4 
  252000   0.85250438    -7.095919    68.929456  0.022794132  0.023451114            7 
  253000   0.86512996    -7.098402    68.949383    0.0227106  0.023378334            7 
  254000   0.85812039   -7.0787512    69.110032  0.022673895  0.023306171            9 
  255000   0.86099876   -7.1122479    69.313088  0.022651336  0.023234929           10 
  256000   0.85486133   -7.0860482    69.307624  0.022561075   0.02316352            5 
  257000   0.84506409   -7.1506655    69.155517  0.022423968  0.023091098            7 
  258000   0.86216191     -7.10882    69.490996  0.022445412  0.023017913            4 
  259000   0.88246887   -7.1066373    69.494246  0.022359796  0.022946709            7 
  260000   0.85183675   -7.1301947    69.643613  0.022321671  0.022875369            5 
  261000   0.84251132   -7.1148794    69.823112  0.022293459  0.022804755            7 
  262000   0.86599586   -7.1308092    69.984981  0.022259854  0.022733693            8 
  263000   0.86907665   -7.1581806     69.80335  0.022117665  0.022662999           14 
  264000   0.84914732   -7.1868661    69.903017  0.022065346  0.022592074            6 
  265000   0.83869462   -7.1709512    69.926172  0.021989362  0.022520537           17 
  266000   0.82821847   -7.1481782    69.967789  0.021919733  0.022449232           15 
  267000   0.85431054   -7.1463224    70.118455  0.021884661  0.022378549            6 
  268000   0.83793724   -7.1450081    70.239549  0.021840656  0.022307426            9 
  269000   0.84963324   -7.1390116     70.29116  0.021775452  0.022237411            4 
  270000   0.83688722   -7.1736478    70.123229  0.021642972  0.022167365           10 
  271000   0.84667547   -7.1818233    70.251331    0.0216025  0.022097236           23 
  272000   0.83902729   -7.1704124    70.613719  0.021634105  0.022027328            3 
  273000   0.81891266   -7.1973484    70.415663  0.021494403  0.021957506            9 
  274000   0.85136084   -7.1903001    70.751766  0.021518177   0.02188826           22 
  275000   0.84333655   -7.1941578    70.768612  0.021445034  0.021819334            8 
  276000   0.83486368   -7.2362606    70.502527  0.021286995  0.021750315           14 
  277000    0.8203529   -7.1719715    70.928271  0.021338228  0.021680859           12 
  278000   0.80708113   -7.1777213     70.96587  0.021272743  0.021612212            8 
  279000   0.81849826   -7.1722365    70.896693  0.021175834  0.021543245            8 
  280000   0.81526609   -7.2068715    70.987805  0.021127323  0.021474332           15 
  281000   0.82808299    -7.205395    70.875599  0.021018861  0.021405487            8 
  282000   0.81941166   -7.2275666    71.106088  0.021012437  0.021336694            7 
  283000   0.84916766   -7.2641306    70.852712  0.020863578  0.021267345           12 
  284000    0.8246113   -7.2342196     71.23061     0.020901  0.021198734           10 
  285000   0.80485518   -7.2524297    71.265961     0.020838  0.021130942           24 
  286000   0.80756745   -7.2472131    71.435737  0.020814609  0.021063605           17 
  287000   0.81422334   -7.2421964    71.275718  0.020695621  0.020995788            5 
  288000   0.83681338   -7.2541108     71.35627  0.020647069   0.02092786           12 
  289000   0.81770484   -7.2904184    71.339446  0.020570774   0.02085991            8 
  290000   0.79038635   -7.2669087    71.233027   0.02046926  0.020792464           13 
  291000   0.79807625   -7.2727938     71.51862  0.020480704  0.020725445           13 
  292000    0.8015219   -7.2509617    71.842427  0.020502976  0.020658876           20 
  293000   0.80458529   -7.2975033    71.666162  0.020382867  0.020592476            8 
  294000   0.79029759   -7.2956366    71.441909  0.020249974  0.020525682           14 
  295000   0.80757483   -7.2853332    71.573153  0.020218405  0.020459015           15 
  296000   0.79512415   -7.2841402     71.63793  0.020168336   0.02039242           10 
  297000   0.80641043   -7.3316661    71.642663  0.020101757  0.020325453           13 
  298000   0.78897839   -7.3115499    71.713552  0.020054125  0.020258828           15 
  299000   0.81478525   -7.2960133    71.819975  0.020016715  0.020191935           16 
  300000   0.78103843   -7.3201121    71.796128  0.019943369  0.020124945           15 
  301000   0.79645625   -7.3427981    71.817801  0.019883112  0.020058524           40 
  302000   0.77770932   -7.2930848     71.78775  0.019808982  0.019992346           28 
  303000   0.78530358   -7.3494234    71.799561  0.019746854  0.019926282           16 
  304000   0.79722871    -7.329909    71.913507  0.019713132  0.019860362           47 
  305000    0.7836915   -7.3400937    71.945569  0.019657259  0.019794481           27 
  306000   0.79244225   -7.3461762    71.973742  0.019600692  0.019728879           28 
  307000   0.78869757   -7.3359615    71.993605  0.019542238   0.01966352           36 
  308000    0.7909501   -7.3453148     72.23374  0.019543761  0.019598836            7 
  309000   0.77877682   -7.3593263    72.284343  0.019494159   0.01953494           35 
  310000   0.75791001   -7.3540007    72.154202  0.019396291  0.019470573           16 
  311000   0.79431648   -7.3755572    72.143608  0.019331085  0.019405854           18 
  312000   0.75470136    -7.380761    72.335944  0.019320498  0.019341226           30 
  313000   0.75669376   -7.3945394     72.23518  0.019231943  0.019276552           18 
  314000   0.77191389   -7.3732882    72.527449  0.019248262  0.019212617           10 
  315000   0.76319955   -7.3897766    72.139821  0.019084609   0.01914895            8 
  316000   0.76810903   -7.3763954    72.567533  0.019137008   0.01908552           15 
  317000   0.76758468   -7.3970073    72.550065  0.019072046  0.019022763            9 
  318000   0.74857079    -7.382989    72.524511  0.019005375  0.018959824            8 
  319000   0.76322905   -7.4106128    72.427858  0.018920548  0.018896799            8 
  320000   0.76660365   -7.4034573    72.563762  0.018896813  0.018833943           23 
  321000   0.76061705   -7.3891552    72.466089  0.018812588  0.018771107           12 
  322000   0.74881767   -7.4192607    72.429533  0.018744703  0.018708339           11 
  323000   0.74987788   -7.4182288    72.464865  0.018695786  0.018645384           10 
  324000    0.7466679   -7.4228605     72.47759  0.018641355  0.018582419           12 
  325000    0.7424585     -7.42933    72.324453  0.018544731  0.018519422           18 
  326000   0.76264851   -7.4722577     72.32176  0.018487157  0.018456362           10 
  327000   0.73681429   -7.4510904    72.347515  0.018437185  0.018393391           13 
  328000   0.76440517   -7.4772414    72.406772  0.018396029  0.018330486           15 
  329000   0.73406209   -7.5000655    72.414124  0.018341977  0.018267982           16 
  330000   0.73917035   -7.4620479    72.355481  0.018271586  0.018205506           17 
  331000   0.75063124   -7.4851696    72.419814  0.018232582  0.018143343           26 
  332000   0.74331807   -7.4747385    72.406783  0.018174393  0.018081537           15 
  333000   0.73330523    -7.494025    72.546346  0.018154741  0.018019811           16 
  334000    0.7410249   -7.4471522    72.860691  0.018178815  0.017958711           29 
  335000   0.74715708   -7.5182652    72.616736  0.018063865  0.017897387           21 
  336000   0.72708969   -7.5095229    72.626132  0.018012434  0.017836174           24 
  337000    0.7393345   -7.5018066    72.746661  0.017988789  0.017775311           20 
  338000    0.7232225   -7.5051002    72.780859  0.017943999  0.017714644           39 
  339000   0.71385748   -7.5293832    72.762952  0.017886665  0.017654155           20 
  340000   0.72299872   -7.5253996    72.790364  0.017840775  0.017593889           17 
  341000   0.72216727   -7.5170871    72.416975  0.017697208  0.017533489           17 
  342000   0.72649968    -7.516261    72.726081   0.01772078  0.017473182           31 
  343000   0.73348451   -7.5231254    72.643407   0.01764903  0.017413076           26 
  344000   0.71741471   -7.5585643    72.711495  0.017614219  0.017353063           19 
  345000   0.71952016   -7.5471225    72.705453  0.017561704  0.017293629           16 
  346000   0.71118342   -7.5300947    72.760759  0.017524268  0.017234163           19 
  347000   0.71978111   -7.5513542    72.747218  0.017470513  0.017175044           22 
  348000   0.70315402   -7.5449379    72.690401  0.017406705  0.017116061           28 
  349000   0.71657622   -7.5768281    72.674928  0.017353135  0.017056985           44 
  350000   0.71405302   -7.5679928    72.629726  0.017292792  0.016998042           24 
  351000   0.71366959   -7.5409893    72.686375  0.017256974  0.016939582           46 
  352000   0.69791424   -7.5712277    72.690338  0.017208887  0.016881171           36 
  353000   0.70618877   -7.5586624    72.922443   0.01721493  0.016823048           66 
  354000   0.70783797   -7.5814035      72.7401  0.017123376  0.016764942           26 
  355000   0.69209294   -7.6001418    72.506943  0.017020409  0.016707045           53 
  356000   0.69822618   -7.5735493    72.692725  0.017016087  0.016649133           45 
  357000   0.68544323   -7.5725762    72.765983  0.016985523  0.016591519           16 
  358000   0.69897035   -7.6169336    72.524654  0.016881903   0.01653368            8 
  359000   0.70263886   -7.5844131    72.687936   0.01687278  0.016476041           23 
  360000   0.69458657   -7.5816163    72.632991  0.016813192   0.01641849           12 
  361000   0.67583001   -7.5927461    72.662289  0.016773382  0.016361317           23 
  362000   0.68825256   -7.5939765    72.690894  0.016733631  0.016304338           17 
  363000   0.71118231   -7.6101741    72.687522  0.016686759  0.016247568           21 
  364000   0.68211886   -7.6406979    72.711315  0.016646363  0.016190997           16 
  365000   0.68622692   -7.6332633    72.664906  0.016590161  0.016134519           17 
  366000   0.66956328   -7.6453469    72.572986  0.016523904   0.01607777           53 
  367000   0.69617716   -7.6327077    72.551622  0.016474029  0.016021311           38 
  368000   0.68115452   -7.6300922     72.57508  0.016434574  0.015965176           32 
  369000   0.67753322   -7.6487334    72.469019  0.016366084   0.01590912           46 
  370000   0.67643253   -7.6529455    72.474451  0.016323074  0.015853215           71 
  371000    0.6838935   -7.6785251    72.602964  0.016307943   0.01579739           48 
  372000   0.67873218   -7.6767337    72.499115  0.016240841  0.015741961           55 
  373000   0.66108834    -7.654837    72.588899  0.016217359  0.015686717           44 
  374000   0.68527862   -7.6493026    72.712546  0.016201548  0.015631849           43 
  375000   0.67919641   -7.6848147    72.579229  0.016128718   0.01557681           44 
  376000   0.66126065   -7.6932884    72.432217   0.01605324  0.015522023           56 
  377000   0.65979262   -7.6935737    72.380853  0.015999304  0.015467353           81 
  378000   0.67640548    -7.694121    72.374608  0.015955601  0.015412694           77 
  379000   0.67494406   -7.6729775     72.38351  0.015915459  0.015358189           55 
  380000   0.65081874   -7.7204333    72.449744  0.015888102  0.015303679           28 
  381000   0.65860408   -7.7085179    72.477308  0.015852429  0.015249396           89 
  382000   0.64610901   -7.6853214    72.460685  0.015807305  0.015195392           43 
  383000   0.65593235   -7.7295977    72.555578  0.015786679  0.015141501           52 
  384000   0.64760019     -7.69608    72.426366  0.015717527  0.015087694           49 
  385000   0.65452165   -7.7007603    72.336345  0.015657217  0.015034018           65 
  386000   0.66456016   -7.7194362    72.432478  0.015637409  0.014980942           70 
  387000   0.64718857   -7.7212181    72.314979  0.015571701  0.014927693           56 
  388000   0.63635917   -7.7352226    72.504325  0.015572235   0.01487483           49 
  389000   0.65495622   -7.7324125      72.2473  0.015477142  0.014822093           85 
  390000   0.64039265   -7.7469398    72.450629  0.015480904  0.014769659           64 
  391000   0.65538767   -7.7313068    72.264979  0.015401743  0.014717217           93 
  392000   0.64631495    -7.771561    72.333893  0.015377103  0.014664911          103 
  393000   0.62630967   -7.7448267    72.312842  0.015333512    0.0146128           60 
  394000   0.63092936   -7.7654578    72.435506  0.015320538  0.014560943           52 
  395000   0.63956993   -7.7745806    72.388147  0.015271761  0.014509417           91 
  396000   0.64608465   -7.7568206    72.212881  0.015196313  0.014458078           68 
  397000   0.63288781   -7.7445269    72.294134  0.015175091  0.014406877           46 
  398000   0.64079568   -7.7648104    72.245493  0.015126778  0.014355816           85 
  399000   0.62828357    -7.773352     72.25062  0.015089937  0.014304799           59 
  400000   0.62888091   -7.7970428    72.297377  0.015061954  0.014253957           75 
  401000   0.62462147   -7.7907338    72.183575  0.015000743  0.014203336           44 
  402000   0.62294569   -7.7894385    72.351879  0.014998316  0.014152983           56 
  403000    0.6139343   -7.8011991    72.163739  0.014922196  0.014102761           87 
  404000   0.62122329   -7.8039875    72.274064  0.014908017  0.014052726           60 
  405000   0.63600715   -7.7888782    72.367558  0.014890444   0.01400313           81 
  406000   0.61059983   -7.8038653       72.227  0.014824918  0.013953682           93 
  407000   0.61901838   -7.8066773    72.238184  0.014790783  0.013904368           41 
  408000   0.62019617   -7.8025761    72.313582  0.014769931  0.013855261           78 
  409000   0.61692624   -7.8309399    72.180129  0.014706628   0.01380634           48 
  410000   0.61674981   -7.8110082    72.260144  0.014687021  0.013757578           95 
  411000   0.60625219   -7.8197417     72.19685  0.014638453  0.013708847           45 
  412000   0.60793064   -7.8157062    72.202587  0.014604083  0.013660481          130 
  413000   0.62076725   -7.8243917    72.254224  0.014579141  0.013612322           71 
  414000   0.61705196   -7.8344906    72.235552  0.014540167  0.013564364           80 
  415000   0.60692595   -7.8130773    72.355505  0.014529218  0.013516664           64 
  416000   0.60886865   -7.8253384    72.188296  0.014460796  0.013469046           80 
  417000   0.60210803   -7.8285425    72.172542   0.01442297  0.013421615          105 
  418000   0.61806609   -7.8250253    72.004017  0.014354868  0.013374299           61 
  419000   0.59375026   -7.8347185    72.124486  0.014344568  0.013327114           58 
  420000   0.60085691   -7.8451552    72.126503  0.014310814  0.013280163           86 
  421000   0.59583812   -7.8556448    72.023469  0.014256427  0.013233327           64 
  422000   0.59940717   -7.8602791    72.079894  0.014233786  0.013186654           62 
  423000   0.58687668   -7.8601884    72.058218  0.014195866  0.013140125           55 
  424000   0.59869225   -7.8448695    72.012781  0.014153455   0.01309375           81 
  425000   0.59777509    -7.868745    72.080299  0.014133392  0.013047632           46 
  426000   0.58829632   -7.8712803    72.071872  0.014098567   0.01300168           22 
  427000   0.58537651   -7.8643376    71.978517   0.01404733  0.012955881           64 
  428000   0.58473481   -7.8792151    71.971528  0.014013148  0.012910298           43 
  429000   0.58861957    -7.882563    71.900028  0.013966594  0.012864852           52 
  430000   0.57296309   -7.8805184    72.060012  0.013965119  0.012819781           39 
  431000   0.58756964   -7.8914374    71.956231  0.013912651  0.012774843           74 
  432000   0.57332186   -7.8887507    71.912195  0.013871951  0.012729944           92 
  433000   0.57558113   -7.9080412    71.874049  0.013832573  0.012685161           60 
  434000   0.56815936   -7.9038792    71.976864  0.013820442  0.012640654          122 
  435000   0.57064654   -7.8977894    71.913824  0.013776595  0.012596211          101 
  436000   0.56892539   -7.8924042    71.863254  0.013735331  0.012552093          179 
  437000   0.57431552   -7.9045193    71.873847  0.013705921  0.012508048           68 
  438000   0.56415814   -7.9117786    71.986864  0.013696131  0.012464229           86 
  439000   0.57093364   -7.9075113    71.947629  0.013657485  0.012420519          176 
  440000   0.55909436   -7.9061351    71.953875  0.013627628   0.01237698           83 
  441000   0.55695531   -7.9083488     71.91188  0.013588791  0.012333686          163 
  442000   0.56974044   -7.8865451    71.972559  0.013569487  0.012290545          127 
  443000   0.57713313   -7.9175668    71.793108  0.013505099  0.012247546           83 
  444000   0.56439951   -7.9236259    71.765737  0.013469545  0.012204697           84 
  445000   0.54825034   -7.9165044    71.797532  0.013445231  0.012162039          153 
  446000   0.55666113     -7.93134    71.799805  0.013415509  0.012119537          247 
  447000   0.55189946   -7.9358552    71.696427  0.013366224   0.01207714           66 
  448000   0.55991282   -7.9230672    71.772111  0.013350467  0.012034944          132 
  449000    0.5477878   -7.9602646    71.740528  0.013314872  0.011992853          295 
  450000   0.55166334    -7.949185    71.674135  0.013272988   0.01195098          129 
  451000   0.55800224   -7.9425573    71.689721  0.013246438  0.011909297          171 
  452000     0.534344   -7.9512348    71.763955  0.013230818   0.01186774          209 
  453000   0.54297963   -7.9547574    71.616237  0.013174436  0.011826405           85 
  454000   0.55772803   -7.9498046    71.704129  0.013161551  0.011785198          113 
  455000   0.54233677   -7.9642577    71.691556  0.013130322  0.011744155          165 
  456000   0.53815555   -7.9701096     71.53514  0.013072942  0.011703277           71 
  457000   0.55587806   -7.9372952    71.730988  0.013080049  0.011662667          109 
  458000   0.53721538   -7.9596988    71.757769  0.013056363  0.011622093          187 
  459000    0.5404995   -7.9706211    71.662759  0.013010668   0.01158181          219 
  460000   0.52649446   -7.9774723    71.573043  0.012966131  0.011541588          167 
  461000   0.53570946   -7.9836913    71.579807  0.012939228   0.01150156          217 
  462000   0.52589726   -7.9843064    71.684076  0.012930028  0.011461713          290 
  463000   0.53152145   -7.9717586    71.541911  0.012876514  0.011422018          193 
  464000   0.53425579   -7.9935317    71.593288   0.01285799  0.011382496          112 
  465000   0.52943698   -7.9738515     71.59867  0.012831303  0.011343191          102 
  466000   0.51804145   -8.0004281    71.520931  0.012789866  0.011304043          139 
  467000   0.53022191    -7.983178     71.61026  0.012778419  0.011264987          161 
  468000   0.51317517   -7.9813836    71.511391   0.01273351  0.011226179           62 
  469000   0.52038924   -8.0013326    71.585253  0.012719483  0.011187538          180 
  470000   0.51019203   -7.9892079    71.634333  0.012701123  0.011148993          134 
  471000   0.51032777   -8.0244275    71.455598  0.012642533  0.011110612          147 
  472000    0.5140047   -7.9977608    71.645933  0.012649353  0.011072369           84 
  473000   0.50946687   -8.0100203     71.61614  0.012617361  0.011034327          103 
  474000     0.501245   -8.0069609    71.432621  0.012558478  0.010996496          122 
  475000   0.51024306   -8.0151939    71.436728  0.012532759  0.010958832           44 
  476000   0.51417811   -7.9995285    71.513504  0.012519871   0.01092132          126 
  477000   0.51123401   -8.0140826    71.483781  0.012488431  0.010883909          169 
  478000   0.49712711   -8.0300652    71.623107  0.012486595  0.010846694          192 
  479000    0.4991055   -8.0091216    71.504851  0.012439953  0.010809615           82 
  480000   0.49207126   -8.0241412    71.354667  0.012387963   0.01077267          150 
  481000   0.50827102   -8.0196499    71.438259  0.012376691  0.010735845           72 
  482000   0.48172654   -8.0356856    71.445432  0.012352253  0.010699166           98 
  483000   0.49260568   -8.0210597     71.50066  0.012336208  0.010662634           87 
  484000   0.48928192   -8.0215917    71.377069   0.01228944  0.010626323           78 
  485000   0.48592736   -8.0283963    71.259309  0.012243867  0.010590161          165 
  486000   0.49863543   -8.0395775    71.313827  0.012228022  0.010554095          106 
  487000   0.49245637   -8.0379763    71.411485  0.012219624  0.010518214          137 
  488000   0.49212877   -8.0426802    71.250465  0.012167088   0.01048246          244 
  489000   0.48337478   -8.0541651    71.303005   0.01215116   0.01044687          148 
  490000   0.48535185   -8.0651698    71.343883  0.012133313  0.010411442          111 
  491000   0.48760191   -8.0576108    71.327575  0.012105834  0.010376105          164 
  492000     0.491732   -8.0691968    71.291173  0.012075063  0.010340921          110 
  493000    0.4871993   -8.0674528    71.279427  0.012048585  0.010305873           74 
  494000   0.47419099   -8.0697898    71.275714  0.012023568  0.010270962           99 
  495000   0.48242209   -8.0557483    71.281764  0.012000297   0.01023624          123 
  496000   0.46752988   -8.0720945    71.382522  0.011993031  0.010201631          142 
  497000   0.47182039   -8.0692055     71.30786  0.011956382  0.010167207          154 
  498000   0.45854256   -8.0822253    71.268183  0.011925733  0.010132921          100 
  499000   0.47126379   -8.0760833    71.141701  0.011880712  0.010098833          219 
  500000   0.47480063   -8.0770094    71.177446  0.011862908   0.01006482          127 
  501000   0.46967502    -8.086437    71.159222  0.011836198  0.010030917           89 
  502000    0.4530796    -8.078211    71.097915  0.011802443 0.0099971723           96 
  503000   0.46773384   -8.0997176     71.19028  0.011794281 0.0099635969          253 
  504000    0.4700545    -8.084271    71.193035  0.011771335  0.009930208          199 
  505000   0.46796174   -8.1036092    71.116681  0.011735426  0.009896925          123 
  506000   0.46869394   -8.0957019    71.154105  0.011718397 0.0098637309          148 
  507000   0.46154827   -8.0937086    71.048543  0.011677933 0.0098307338           98 
  508000   0.46533639   -8.1022158    71.017648  0.011649877 0.0097978574           83 
  509000   0.45496333   -8.0989386     71.16425  0.011650991 0.0097651094          121 
  510000   0.45695565    -8.106852    71.082594  0.011614803 0.0097324672          129 
  511000   0.44465148   -8.1093526    71.155427  0.011603951 0.0097000025          272 
  512000   0.44391197   -8.0974924    71.100706   0.01157238 0.0096676673          105 
Loop time of 1300.01 on 48 procs for 500000 steps with 4000 atoms

Performance: 66461.242 tau/day, 384.614 timesteps/s
99.4% CPU use with 48 MPI tasks x no OpenMP threads

MPI task timing breakdown:
Section |  min time  |  avg time  |  max time  |%varavg| %total
---------------------------------------------------------------
Pair    | 94.188     | 101.55     | 112.8      |  45.8 |  7.81
Neigh   | 9.208      | 9.5019     | 9.8054     |   5.2 |  0.73
Comm    | 85.217     | 94.178     | 101.62     |  45.5 |  7.24
Output  | 0.95851    | 0.95972    | 1.0014     |   0.6 |  0.07
Modify  | 1077.6     | 1082.1     | 1086.4     |   6.0 | 83.23
Other   |            | 11.76      |            |       |  0.90

Nlocal:        83.3333 ave          91 max          78 min
Histogram: 5 2 3 11 14 5 6 1 0 1
Nghost:        2421.12 ave        2438 max        2399 min
Histogram: 1 1 4 5 6 8 12 6 3 2
Neighs:        16792.4 ave       20371 max       14473 min
Histogram: 4 5 8 9 7 7 5 2 0 1
FullNghs:      33584.1 ave       36828 max       31248 min
Histogram: 2 5 5 9 12 7 6 1 0 1

Total # of neighbors = 1612035
Ave neighs/atom = 403.00875
Neighbor list builds = 26661
Dangerous builds = 0

#clear
#
#next RN
#
#jump SELF
Total wall time: 0:21:43
