
units lj                  # Use reduced LJ style units
atom_style atomic         # Uncharged point particles
atom_modify map hash      # Needed for indexing of clusters etc
                          # Used to be able to find where atoms are in relation to each other.

lattice fcc 1.0 spacing 1 1 1
Lattice spacing in x,y,z = 1.5874011 1.5874011 1.5874011
region box block 0 10 0 10 0 10 units lattice
create_box 2 box
Created orthogonal box = (0.0000000 0.0000000 0.0000000) to (15.874011 15.874011 15.874011)
  3 by 4 by 4 MPI processor grid
create_atoms 1 box
Created 4000 atoms
  using lattice units in orthogonal box = (0.0000000 0.0000000 0.0000000) to (15.874011 15.874011 15.874011)
  create_atoms CPU = 0.002 seconds
set type 1 type/fraction 2 0.12 78393
Setting atom values ...
  508 settings made for type/fraction
mass 1 1.0
mass 2 1.0
pair_style lj/cut  3.5
pair_modify tail  yes
pair_coeff 1  1  1.0  1.0   # Intearaction between 1 and 1 set with epsilon = 1 and sigma = 1
pair_coeff 1  2  1.5  0.8
pair_coeff 2  2  0.5  0.88

write_data data.0
System init for write_data ...
Neighbor list info ...
  update every 1 steps, delay 10 steps, check yes
  max neighbors/atom: 2000, page size: 100000
  master list distance cutoff = 3.8
  ghost atom cutoff = 3.8
  binsize = 1.9, bins = 9 9 9
  1 neighbor lists, perpetual/occasional/extra = 1 0 0
  (1) pair lj/cut, perpetual
      attributes: half, newton on
      pair build: half/bin/atomonly/newton
      stencil: half/bin/3d
      bin: standard
WARNING: Not all mixed pair coeffs generated from mixing. Use write_data with 'pair ij' option to store all pair coeffs. (../write_data.cpp:312)


#############################
#   M E L T   S Y S T E M   #
#############################

velocity all create 2.4 1741580 mom yes dist gaussian # Assign velocities
                                                    # Temperature 2.4, random number seed, zero linear momentum
                                                                                # Gaussian distribution

timestep 0.002   # simulation timestep
thermo 1000       # output thermodynamic data every 1000 steps bf 100

# Define a fix  in this case with index 1 applied to all
# particles in the simulation. This fix is for simulations
# in the anisotropic NPT ensemble. Note that we use the MTK
# correction.
fix 1 all npt temp 2.4 2.4 0.1 iso 5.68 5.68 0.5 mtk yes tchain 5 pchain 5 # Use NPT ensemble
                                                                         # Set temperature and pressure and damping
                                                                         # Numbers of thermostats in chain and in barostat
run 10000          # run for 10000 steps
Per MPI rank memory allocation (min/avg/max) = 3.642 | 3.644 | 3.648 Mbytes
Step Temp E_pair E_mol TotEng Press Volume 
       0          2.4   -7.5560252            0   -3.9569252   -3.1663949         4000 
    1000    2.3827192   -4.6626115            0   -1.0894262    5.5153837    4776.1773 
    2000    2.4043286   -4.6781883            0   -1.0725971     5.499731    4770.0333 
    3000    2.4178317   -4.6420058            0    -1.016165    5.5881884    4786.7701 
    4000    2.4404599   -4.6288573            0  -0.96908261    5.8519087      4760.23 
    5000    2.3850706   -4.7005603            0   -1.1238488    5.9682523    4701.1815 
    6000    2.4090346   -4.6666505            0    -1.054002    5.4965921    4781.3672 
    7000    2.4694492   -4.6857085            0  -0.98246078    5.6634281    4752.7885 
    8000    2.3945299   -4.5756299            0  -0.98473303    5.8350375    4790.6109 
    9000    2.3636865   -4.6651595            0   -1.1205161     6.020956    4710.4346 
   10000     2.422717   -4.7067832            0   -1.0736163    5.5466539    4754.4086 
Loop time of 2.22667 on 48 procs for 10000 steps with 4000 atoms

Performance: 776047.568 tau/day, 4491.016 timesteps/s
99.6% CPU use with 48 MPI tasks x no OpenMP threads

MPI task timing breakdown:
Section |  min time  |  avg time  |  max time  |%varavg| %total
---------------------------------------------------------------
Pair    | 0.92632    | 0.98789    | 1.1563     |   4.5 | 44.37
Neigh   | 0.19057    | 0.20066    | 0.22595    |   1.7 |  9.01
Comm    | 0.59413    | 0.78725    | 0.86183    |   6.1 | 35.36
Output  | 0.00024156 | 0.00024713 | 0.00031321 |   0.0 |  0.01
Modify  | 0.20728    | 0.23622    | 0.29042    |   4.2 | 10.61
Other   |            | 0.0144     |            |       |  0.65

Nlocal:        83.3333 ave          93 max          72 min
Histogram: 2 3 6 3 4 9 7 7 2 5
Nghost:        1464.06 ave        1498 max        1444 min
Histogram: 9 5 5 9 4 8 4 2 0 2
Neighs:        8015.50 ave        9376 max        6469 min
Histogram: 1 1 3 6 9 10 9 4 4 1

Total # of neighbors = 384744
Ave neighs/atom = 96.186000
Neighbor list builds = 906
Dangerous builds = 199

# Equilibrate just above the melting temperature to avoid step fn in T

fix 1 all npt temp 1.25 1.25 0.1 iso 5.68 5.68 0.5 mtk yes tchain 5 pchain 5
run 2000
Per MPI rank memory allocation (min/avg/max) = 3.642 | 3.644 | 3.648 Mbytes
Step Temp E_pair E_mol TotEng Press Volume 
   10000     2.422717   -4.7067832            0   -1.0736163    5.5466539    4754.4086 
   11000     1.231307   -6.2791586            0   -4.4326599    5.7094486    3909.8807 
   12000    1.2580449   -6.2836099            0   -4.3970143    5.9908958    3889.7103 
Loop time of 0.488977 on 48 procs for 2000 steps with 4000 atoms

Performance: 706781.944 tau/day, 4090.173 timesteps/s
99.7% CPU use with 48 MPI tasks x no OpenMP threads

MPI task timing breakdown:
Section |  min time  |  avg time  |  max time  |%varavg| %total
---------------------------------------------------------------
Pair    | 0.2091     | 0.2315     | 0.2821     |   2.9 | 47.34
Neigh   | 0.03114    | 0.033716   | 0.039079   |   0.9 |  6.90
Comm    | 0.11684    | 0.1725     | 0.19982    |   4.0 | 35.28
Output  | 4.8891e-05 | 4.9978e-05 | 6.4567e-05 |   0.0 |  0.01
Modify  | 0.041779   | 0.046816   | 0.054606   |   1.6 |  9.57
Other   |            | 0.004388   |            |       |  0.90

Nlocal:        83.3333 ave          92 max          76 min
Histogram: 2 2 6 8 8 12 5 2 1 2
Nghost:        1674.52 ave        1705 max        1646 min
Histogram: 3 1 6 5 10 7 9 5 0 2
Neighs:        9814.46 ave       10813 max        8892 min
Histogram: 2 3 7 5 9 9 2 7 2 2

Total # of neighbors = 471094
Ave neighs/atom = 117.77350
Neighbor list builds = 143
Dangerous builds = 19

#############################
# L I N E A R  Q U E N C H  #
#############################

# Define solid atoms. This closely follows ten Wolde  Ruiz-Montero and Frenkel  Faraday Discuss  1996  104  93-110
# Compute components of the per-atom q6 vector
compute q6 all orientorder/atom degrees 1 6 components 6 nnn NULL cutoff 1.3 # compute the Q6 parameter.
                                                                             # Use all neighbours within 1.3 unit cell.

# get number of connections
compute coord_number all coord/atom orientorder q6 0.5

# An atom is solid if it has 8 or more connections (of a possible 14)
variable is_solid atom c_coord_number>=8
group solid dynamic all var is_solid    # Must be dynamic to update
dynamic group solid defined

# do clustering
compute cluster solid cluster/atom 1.3 # Create a cluster where all atoms within are solid and max 1.3 units from another member

# define chunks one chunk per cluster
compute clus_chunks solid chunk/atom c_cluster nchunk every compress yes  # Says which atoms are in which chunk

# count the size of each chunk
compute size_chunks solid property/chunk clus_chunks count


# Find the maximum entry in the vector of chunk sizes
variable max_n equal max(c_size_chunks)


# Thermo style which includes this variable
# thermo_style custom step temp pe vol v_max_n

thermo ${N}  # Print the thermo information every 100 steps
thermo 1000  

# Reset the npt fix at a lower temperature (below freezing)
fix 1  all npt temp  ${temp} ${temp}  0.1  iso  5.68  5.68  0.5  mtk yes tchain  5  pchain  5
fix 1  all npt temp  0.45 ${temp}  0.1  iso  5.68  5.68  0.5  mtk yes tchain  5  pchain  5
fix 1  all npt temp  0.45 0.45  0.1  iso  5.68  5.68  0.5  mtk yes tchain  5  pchain  5

dump dmp2 all dcd ${N} traj.dcd
dump dmp2 all dcd 1000 traj.dcd


compute msd all msd com yes
variable twopoint equal c_msd[4]/6/(step*dt+1.0e-6)
fix 9 all vector 10 c_msd[4]
variable fit equal slope(f_9)/6/(10*dt)
thermo_style custom step temp pe c_msd[4] v_twopoint v_fit v_max_n

fix 1 all npt temp 1.25 ${temp} 0.1 iso 5.68 5.68 0.5 mtk yes tchain 5 pchain 5
fix 1 all npt temp 1.25 0.45 0.1 iso 5.68 5.68 0.5 mtk yes tchain 5 pchain 5
run 2000000 # 5000000  # Run for this many steps
Neighbor list info ...
  update every 1 steps, delay 10 steps, check yes
  max neighbors/atom: 2000, page size: 100000
  master list distance cutoff = 3.8
  ghost atom cutoff = 3.8
  binsize = 1.9, bins = 9 9 9
  4 neighbor lists, perpetual/occasional/extra = 1 3 0
  (1) pair lj/cut, perpetual
      attributes: half, newton on
      pair build: half/bin/atomonly/newton
      stencil: half/bin/3d
      bin: standard
  (2) compute orientorder/atom, occasional
      attributes: full, newton on
      pair build: full/bin/atomonly
      stencil: full/bin/3d
      bin: standard
  (3) compute coord/atom, occasional
      attributes: full, newton on
      pair build: full/bin/atomonly
      stencil: full/bin/3d
      bin: standard
  (4) compute cluster/atom, occasional
      attributes: full, newton on
      pair build: full/bin/atomonly
      stencil: full/bin/3d
      bin: standard
Per MPI rank memory allocation (min/avg/max) = 9.754 | 9.762 | 9.769 Mbytes
Step Temp PotEng c_msd[4] v_twopoint v_fit v_max_n 
   12000    1.2580449   -6.2836099 1.1473982e-30 7.9680426e-33 8.3333333e+20            3 
   13000    1.2544879   -6.3529793   0.53503898 0.0034297369  0.044266493            4 
   14000    1.2622691   -6.2741584    1.0262691 0.0061087442  0.042235796            5 
   15000    1.2705852   -6.2743599    1.5888288 0.0088268266   0.04299389            4 
   16000    1.2616677   -6.2645534    2.0750315  0.010807455  0.043183467            2 
   17000    1.2568162   -6.2407113    2.6771743  0.013123403  0.043581397            2 
   18000    1.2620752   -6.2897242     3.236527  0.014983921  0.044198667            2 
   19000    1.2342858   -6.2650901    3.7707059  0.016538183  0.044669059            1 
   20000    1.2484146   -6.2795815    4.2831517  0.017846465  0.044913137            1 
   21000    1.2661089   -6.3231459    4.8101811   0.01908802  0.044945192            2 
   22000    1.2327288   -6.2950545    5.3539511  0.020280117  0.044858844            2 
   23000    1.2600251   -6.3279891    5.8600235  0.021231969  0.044756137            2 
   24000    1.2436072   -6.3071661    6.4690696  0.022462047  0.044799468            2 
   25000    1.2424923   -6.3462625    6.9978844  0.023326281  0.044901042            4 
   26000    1.2177817   -6.3208061    7.5628608  0.024239938  0.044950159            4 
   27000    1.2679164   -6.2902769    8.0776145  0.024930908  0.045010821            2 
   28000    1.2535899   -6.2944201    8.5362576  0.025405528  0.044948422            1 
   29000    1.2353166   -6.3105303    9.1158595  0.026194998  0.044887511            2 
   30000    1.2578324   -6.3082836     9.638333  0.026773147  0.044878452            4 
   31000    1.2456197   -6.2912845    10.261616   0.02758499   0.04494915            3 
   32000    1.2568566   -6.3017405    10.826423  0.028193809  0.044998153            1 
   33000    1.2319224   -6.3089748     11.46759  0.028958561  0.045105717            3 
   34000    1.2556831   -6.3066372     12.13968  0.029754117  0.045333142            4 
   35000    1.2519925   -6.2923841    12.648629  0.030115782  0.045523053            2 
   36000    1.2425848   -6.2725216    13.266988   0.03071062  0.045688583            2 
   37000    1.2279171    -6.324025    13.913674  0.031337103  0.045894163            2 
   38000    1.2116567   -6.3163176    14.375595  0.031525427   0.04608325            2 
   39000    1.2421262   -6.2802948    14.895646  0.031828304  0.046152202            1 
   40000    1.2362304   -6.2769316    15.406858  0.032097621  0.046172862            2 
   41000    1.2465837   -6.3018123    15.810182  0.032134516  0.046156465            6 
   42000    1.2247449   -6.2853613    16.194696  0.032132334   0.04603845            1 
   43000    1.2737262   -6.3056374    16.715241  0.032393878  0.045886997            2 
   44000    1.2621772   -6.3259239    17.180548  0.032538917  0.045764314            2 
   45000    1.2395504   -6.2838003    17.860798  0.033075551  0.045658775            5 
   46000    1.2506542   -6.2761739    18.369499  0.033278077  0.045573195            1 
   47000    1.2507115   -6.3195801     18.85534  0.033431454  0.045491862            4 
   48000    1.2119963   -6.2917784    19.333822  0.033565663  0.045388301            4 
   49000    1.2354627   -6.2931227     19.88194  0.033812823  0.045327226            3 
   50000    1.2437994   -6.3375446    20.470172  0.034116954  0.045288973            3 
   51000    1.2234284   -6.3179006     21.17269  0.034595898  0.045258812            2 
   52000    1.2180281   -6.3337173     21.65649  0.034705913  0.045237722            3 
   53000    1.2155799   -6.2776296    22.321628  0.035096899  0.045255411            3 
   54000    1.2367947   -6.3199632    22.834548    0.0352385   0.04526709            3 
   55000      1.22053   -6.3004996    23.333699  0.035354089  0.045272526            2 
   56000    1.2672323   -6.2829293    23.806467   0.03542629  0.045265522            2 
   57000     1.250149   -6.3066753    24.135928  0.035286445  0.045245066            4 
   58000    1.2449673   -6.3097632    24.668512  0.035443264  0.045188749            2 
   59000    1.2177953   -6.3434878    25.111149  0.035467724  0.045116877            2 
   60000    1.2010127   -6.2951387    25.572766  0.035517731  0.045028723            2 
   61000     1.242917   -6.3118703     25.99716  0.035515246  0.044929094            1 
   62000    1.2342614   -6.3153696    26.506992  0.035627677  0.044835216            1 
   63000    1.2338789   -6.3198696    26.900889  0.035583186  0.044731735            2 
   64000    1.2181296   -6.2970304    27.342143  0.035601748  0.044612526            2 
   65000      1.22954    -6.338554    27.886105  0.035751417  0.044510625            2 
   66000    1.2124299   -6.3391196    28.598359  0.036109039  0.044432343            2 
   67000      1.22029   -6.3317655    29.118008  0.036216428   0.04437176            4 
   68000    1.2284614   -6.3047968    29.636967  0.036319812  0.044315452            2 
   69000    1.2207858   -6.3234763    30.127794  0.036386224  0.044256941            5 
   70000    1.2171023   -6.3421748     30.62639  0.036459988  0.044208892            2 
   71000    1.2147841   -6.3106762     31.21764  0.036640423  0.044163201            2 
   72000    1.2342705   -6.3600458    31.651256  0.036633397  0.044121585            2 
   73000    1.2188071   -6.3192957    32.423921  0.037013608  0.044099494            2 
   74000    1.2044438   -6.3433657    32.787777  0.036923172  0.044076466            4 
   75000    1.2118591     -6.32913    33.471899  0.037190998  0.044057172            1 
   76000    1.2427116    -6.305066    34.273095  0.037580148  0.044075099            1 
   77000    1.2439188   -6.3051918    34.849288  0.037715679   0.04410007            3 
   78000     1.233277   -6.2946429    35.589385  0.038022847  0.044128096            3 
   79000    1.2325232   -6.3517998    36.085483  0.038064855  0.044160283            2 
   80000    1.2129468   -6.3326246     36.42408   0.03794175  0.044188718            3 
   81000    1.2491215    -6.317133    36.862905  0.037924799  0.044203197            5 
   82000    1.2173983   -6.3077898     37.29937  0.037905864  0.044206691            4 
   83000    1.2501669   -6.3402296     37.99058  0.038143152  0.044213591            2 
   84000    1.1886001   -6.3645224    38.279612  0.037975805  0.044214234            1 
   85000    1.1951464   -6.3456498    38.868977   0.03810684  0.044213845            3 
   86000    1.2156134   -6.3283879    39.257014  0.038039742  0.044203592            3 
   87000    1.2393123   -6.3393246    39.717042  0.038043144  0.044185651            5 
   88000    1.2030917   -6.3716381    40.074809  0.037949629  0.044163271            2 
   89000    1.2137572   -6.3532832    40.729881  0.038136592  0.044137616            3 
   90000     1.180315   -6.3359463    41.284279  0.038226184  0.044121597            1 
   91000    1.2313649   -6.3624414    41.792393  0.038271422  0.044105828            2 
   92000    1.2287789   -6.3576833    42.379323  0.038387067  0.044088321            3 
   93000    1.2089377   -6.3465355    42.996593  0.038527413  0.044073248            3 
   94000    1.2169292   -6.3311162    43.278893  0.038367813  0.044054032            1 
   95000    1.2183801   -6.3247203    43.855655  0.038469872  0.044034602            2 
   96000    1.2163622   -6.3427174    44.282885  0.038440004  0.044020776            2 
   97000    1.2602378   -6.3736456    45.021433  0.038678207  0.044004419            2 
   98000    1.2236107   -6.3465868    45.252942  0.038480392  0.043989906            1 
   99000    1.2182941   -6.3316471    45.734419  0.038496986  0.043963505            2 
  100000    1.2014391   -6.2910524    46.020847  0.038350706  0.043929588            1 
  101000    1.2405425   -6.3296896    46.794741  0.038609522  0.043898766            2 
  102000    1.2073198    -6.351328    47.106539  0.038485734  0.043867971            3 
  103000    1.2011084   -6.3506906    47.841962  0.038707089  0.043838715            2 
  104000    1.2309899   -6.3502265    48.284183  0.038689249  0.043816573            3 
  105000    1.2126047    -6.354901    48.703016  0.038653187  0.043790807            2 
  106000    1.1958479   -6.3607704    49.507971  0.038921361  0.043769009            3 
  107000    1.1911676   -6.3601026    50.027077  0.038961898  0.043758765            4 
  108000    1.2332513   -6.3724872    50.541908  0.038998386  0.043752177            3 
  109000     1.196809   -6.2992671     51.32518  0.039239434   0.04374211            1 
  110000    1.1886538   -6.3387814    51.697056  0.039164436  0.043736485            3 
  111000    1.1945022   -6.3454944    51.969632   0.03901624  0.043722791            2 
  112000    1.1803651   -6.3603158    52.462547  0.039034633  0.043703634            2 
  113000    1.2081412   -6.3372753    53.089806  0.039151774  0.043686236            2 
  114000    1.2183767    -6.370202    53.356636  0.039003389  0.043671055            6 
  115000     1.232717   -6.3742984    53.753747  0.038951991  0.043644705            3 
  116000    1.1934214   -6.3337253    54.273434  0.038989536  0.043618445            2 
  117000    1.2133301   -6.3644307    54.746877  0.038993502  0.043591746            1 
  118000    1.2365968   -6.3292891    55.294561  0.039049831  0.043565712            2 
  119000    1.1843254   -6.3217236    55.529374  0.038886116  0.043535652            3 
  120000     1.221653   -6.3828879    56.030851  0.038910313   0.04350504            4 
  121000    1.2118589   -6.3556566    56.807822  0.039123845  0.043481693            5 
  122000    1.1826968   -6.3718696    57.328204  0.039158609  0.043462148            4 
  123000     1.190172   -6.3053803    57.996702  0.039293158  0.043442874            2 
  124000    1.2232919   -6.3611416    58.570743  0.039362058  0.043429834            4 
  125000    1.2031756   -6.3431518    58.957731  0.039305154  0.043415826            1 
  126000    1.1824699   -6.3849314    59.268247  0.039198576  0.043393897            4 
  127000    1.2168817   -6.3821127    59.531333  0.039062554  0.043369154            1 
  128000    1.2152346   -6.3576088    60.266015  0.039235687  0.043343377            3 
  129000     1.177419   -6.3777758    60.629474  0.039166327  0.043317636            4 
  130000    1.2327337   -6.3740208    61.040314  0.039128406  0.043295987            2 
  131000    1.2037266   -6.3646829    61.661964  0.039225168  0.043270418            4 
  132000    1.2101797   -6.3493082     62.07367  0.039187923  0.043248688            2 
  133000     1.206665   -6.3408124    62.876718   0.03939644  0.043229858            5 
  134000    1.2093419   -6.3149461    63.249508  0.039334271  0.043208596            2 
  135000    1.2181937   -6.3691393     63.77162  0.039365197  0.043188435            2 
  136000    1.2130637   -6.3457738    64.063688  0.039254711  0.043165116            2 
  137000    1.1871296   -6.3908086    64.516045  0.039243336  0.043139376            1 
  138000    1.1868442   -6.3677873    65.108292  0.039316602  0.043114555            4 
  139000    1.2035578    -6.386696    65.820251  0.039460582  0.043095394            3 
  140000    1.2013209   -6.3713305    66.257776  0.039439152  0.043076372            2 
  141000    1.2174227   -6.3743522    66.619338  0.039373131  0.043059187            1 
  142000      1.19923   -6.3693346    67.489968  0.039606788  0.043042566            2 
  143000    1.1791926   -6.3533577    67.934319  0.039588764  0.043031443            1 
  144000    1.2314994   -6.3885318    68.429846  0.039600605  0.043021821            1 
  145000    1.1908443   -6.3548392     69.15192  0.039742483  0.043014511            4 
  146000    1.1898855   -6.3697459    69.508575  0.039673844  0.043009627            4 
  147000    1.1977293    -6.365107    70.101854   0.03974028  0.043002701            3 
  148000    1.2110702   -6.3561426    70.246489  0.039553203  0.042988103            4 
  149000    1.2042889    -6.346365    71.007236  0.039713219  0.042977756            4 
  150000    1.2002952   -6.4052705    71.324357  0.039624643  0.042967179            3 
  151000     1.179582   -6.3708867    72.005396  0.039738077  0.042953673            3 
  152000    1.1595948   -6.3820501    72.416512  0.039702035  0.042941746            1 
  153000    1.2019287   -6.3873512    73.041294   0.03978284  0.042933846            1 
  154000    1.1995493   -6.3828133    73.875885  0.039976128  0.042926271            2 
  155000    1.1976159    -6.373511     74.41284  0.040006903  0.042925052            1 
  156000    1.1828794   -6.3923278    74.449796   0.03977019  0.042918166            2 
  157000     1.200735   -6.3503078    74.979973  0.039798287  0.042907444            3 
  158000    1.2154917   -6.3664952    75.382759  0.039758839  0.042896271            6 
  159000    1.1936142   -6.3761899     75.77807  0.039715969  0.042883658            2 
  160000    1.1573382   -6.3846094    75.950546  0.039557576  0.042869255            2 
  161000    1.1966452   -6.4147947    76.494863  0.039593614  0.042851593            4 
  162000    1.1780534   -6.3615557    77.126611  0.039674183  0.042831612            3 
  163000    1.2008453   -6.3731297    77.360649  0.039550434   0.04280919            2 
  164000    1.1623691   -6.3944458    77.796371  0.039530676  0.042786754            3 
  165000    1.1724066    -6.425395    78.317434   0.03955426  0.042764495            1 
  166000    1.1983935   -6.3820194    78.669021   0.03949248  0.042742419            2 
  167000    1.1856031   -6.4228336    79.210906    0.0395264  0.042718628            2 
  168000    1.1689601   -6.3665438    79.779156  0.039572994  0.042692381            2 
  169000    1.1947138   -6.4069624    80.210539  0.039551548  0.042667693            5 
  170000    1.2153699   -6.3805265     80.67699  0.039547544  0.042643645            2 
  171000    1.1704501   -6.4257149    81.055646  0.039500802  0.042620633            2 
  172000    1.1869344   -6.3791379    82.148125  0.039800448  0.042600321            2 
  173000    1.2101536   -6.3722431     82.31355  0.039650072  0.042583765            6 
  174000    1.1971083   -6.4082745    82.522305  0.039522176  0.042562559            5 
  175000    1.1772229   -6.4082572    83.135995  0.039588569  0.042543363            3 
  176000    1.1934605   -6.3853287    83.754571   0.03965652  0.042524973            4 
  177000    1.1857659   -6.4312195    84.128668  0.039608601  0.042507939            1 
  178000    1.1769594   -6.4183704    84.282722  0.039458203  0.042484366            3 
  179000     1.165296    -6.396859    84.794185  0.039475877  0.042458785            2 
  180000    1.1715519   -6.4116595    85.083756  0.039390627  0.042434353            2 
  181000    1.1702312   -6.3867817    85.888092   0.03954332  0.042412255            2 
  182000    1.1723251   -6.4027077    86.416249   0.03956788  0.042389546            4 
  183000    1.2109932   -6.3584124    86.123758  0.039218469  0.042362676            1 
  184000    1.1842349   -6.4254379    86.444889  0.039150765  0.042331953            1 
  185000    1.1764664   -6.4209202    86.915482  0.039151118  0.042298879            2 
  186000    1.2044775   -6.3751585    87.281527  0.039104627   0.04226338            2 
  187000    1.1762799   -6.4208644    87.773188  0.039114611  0.042229154            3 
  188000    1.1551446   -6.3798144     88.04873  0.039028692  0.042193121            3 
  189000    1.2065541   -6.4218576    88.198814  0.038888366  0.042154814            3 
  190000    1.1961013    -6.405781    89.091041  0.039075018  0.042118994            1 
  191000    1.1556068   -6.4268507    89.620168  0.039101295  0.042087046            3 
  192000    1.1866508   -6.4236795    89.913968   0.03902516  0.042054517            7 
  193000    1.1580367    -6.389916    90.150489  0.038925082  0.042021524            2 
  194000    1.1936462   -6.4115519     90.70692  0.038963454  0.041989826            2 
  195000    1.1564436   -6.3777038    91.317287  0.039024481  0.041955168            4 
  196000    1.1942985   -6.3894421    91.318192  0.038825762   0.04191887            2 
  197000     1.186599   -6.4039875     91.98037  0.038908786  0.041881837            3 
  198000    1.1764297   -6.4125106    92.262852  0.038831166  0.041845284            3 
  199000    1.1895371   -6.4014386    92.931182  0.038915905  0.041808957            3 
  200000    1.1870487   -6.3817148    93.538633   0.03897443  0.041774806            3 
  201000    1.1636298   -6.4217479    94.320824  0.039104819  0.041745292            6 
  202000    1.1858976   -6.4060844    94.554751  0.039007735  0.041717858            2 
  203000    1.1769966   -6.4081113    95.140792  0.039056154   0.04168903            2 
  204000    1.1878455   -6.4685909    95.264401  0.038915197  0.041661233            3 
  205000    1.1858995   -6.3923324    96.307628  0.039149442  0.041635198            1 
  206000     1.170797   -6.4107305    96.734427   0.03913205  0.041609292            1 
  207000     1.174533    -6.420472    96.732586  0.038942265  0.041585031            2 
  208000    1.1886953   -6.4097502    97.321594  0.038991023  0.041561593            4 
  209000    1.1869958   -6.4309333    97.513349   0.03888092   0.04153378            2 
  210000    1.1594606    -6.436519    97.939928  0.038865051  0.041503071            5 
  211000    1.1808938   -6.4144385    98.414945  0.038868461  0.041472732            2 
  212000    1.1937477   -6.4265904    98.762523  0.038821747  0.041442436            3 
  213000    1.1332134    -6.458527    99.106073  0.038773894  0.041410117            6 
  214000    1.1478025   -6.4629952    99.190217  0.038625474  0.041376965            4 
  215000    1.1511599   -6.4472791    99.958098  0.038743449  0.041346344            2 
  216000    1.1587031   -6.4561846     100.5527  0.038793482  0.041316154            5 
  217000    1.1294938   -6.4332419     101.3954  0.038938327  0.041288248            2 
  218000    1.1683506   -6.4195932    101.73774  0.038890574  0.041264246            3 
  219000    1.1799336   -6.4133089    102.22644  0.038898951  0.041238774            4 
  220000     1.160065   -6.4318702    102.26028  0.038734956  0.041210967            3 
  221000    1.1619247   -6.4142988    103.03198   0.03885067  0.041181953            3 
  222000    1.1635374   -6.4490241    103.20582  0.038740924  0.041153697            2 
  223000    1.1630925   -6.3802061    104.13139  0.038913075  0.041127434            2 
  224000    1.1551947   -6.4333891    103.86614  0.038640676  0.041101621            3 
  225000    1.1487164    -6.428129    104.76892  0.038803305   0.04107499            3 
  226000    1.1568068   -6.4351979     105.2516  0.038809589   0.04104839            4 
  227000    1.1569475   -6.4454958    105.57119  0.038755945   0.04102184            2 
  228000    1.1798226     -6.43167    105.71154  0.038637257  0.040993214            2 
  229000    1.1302754    -6.464987    105.94436  0.038553261  0.040964284            4 
  230000     1.190908   -6.4134979     106.5778  0.038615146  0.040934369            2 
  231000     1.176524   -6.4393356    106.59263  0.038453329  0.040904702            3 
  232000     1.152891   -6.4524962     107.1357  0.038482652    0.0408738            3 
  233000    1.1727404   -6.4527715    107.74117  0.038534039  0.040843121            2 
  234000    1.1398348   -6.4333533    108.41285  0.038608565   0.04081389            9 
  235000    1.1640951   -6.4332314    108.93489  0.038629393  0.040785646            3 
  236000    1.1469094   -6.4180784     109.3541  0.038613736  0.040757828            2 
  237000    1.1615729   -6.4610034    109.38502  0.038461679  0.040730178            3 
  238000    1.1587503     -6.43685    110.13842  0.038563871  0.040700441            2 
  239000    1.1592259   -6.4535504     109.7179  0.038255894   0.04066827            2 
  240000    1.1422574   -6.4276104    110.07689  0.038221141  0.040634184            3 
  241000    1.1399073   -6.4428393    110.36752  0.038163043  0.040599159            5 
  242000    1.1692185   -6.4270657     111.0368  0.038235814  0.040565188            7 
  243000    1.1816237    -6.436659    111.41966  0.038209759   0.04053204            4 
  244000       1.1365   -6.4596554    111.72914  0.038158858  0.040497917            3 
  245000    1.1830419   -6.4250156    112.24605  0.038178927  0.040464546            1 
  246000    1.1237874    -6.476955     112.4806  0.038103183  0.040430297            1 
  247000    1.1549729   -6.4625185    112.91368  0.038095032  0.040394883            5 
  248000    1.1374931   -6.4378933    113.54986  0.038155196   0.04036075            1 
  249000      1.14505    -6.412804    113.43834  0.037964637  0.040324634            3 
  250000    1.1707379   -6.4551464     113.6095  0.037869834  0.040290364            3 
  251000    1.1648929   -6.4503325    114.41502  0.037986393  0.040255442            4 
  252000    1.1575801   -6.4440556    114.74054  0.037943302  0.040220764            2 
  253000    1.1241108   -6.4638735    114.88343  0.037840392  0.040184512            2 
  254000     1.179463   -6.4239411    115.33529  0.037839663  0.040148588            1 
  255000    1.1669286   -6.5053582    115.17961  0.037640395  0.040109245            3 
  256000    1.1701241   -6.4607365     116.3081  0.037860709   0.04007041            3 
  257000     1.157197   -6.4102381    116.66447  0.037828946   0.04003449            3 
  258000    1.1249843   -6.4295556    117.50825   0.03795486  0.039999575            5 
  259000    1.1451885   -6.4732749    117.35018  0.037757458  0.039966443            2 
  260000     1.172245   -6.4677589    118.09236  0.037850116  0.039933244            2 
  261000    1.1417931   -6.4505884     118.6914   0.03789636   0.03990054            1 
  262000    1.1541241   -6.4484728    118.81955  0.037792477  0.039868385            2 
  263000    1.1451188   -6.4776284    118.94394  0.037688193  0.039835693            1 
  264000    1.1558396   -6.4563802    119.53061  0.037730622  0.039804058            2 
  265000    1.1057424   -6.4667815     120.3675  0.037851414  0.039774608            2 
  266000    1.1426575   -6.4564715    121.00062  0.037907461  0.039746821            7 
  267000     1.140681   -6.4584257    121.59091  0.037949722  0.039719509            3 
  268000    1.1747831   -6.5045372    121.71588  0.037846977  0.039692612            1 
  269000    1.1625224   -6.5094415    122.28375  0.037882203  0.039665568            5 
  270000    1.1539088   -6.4370704    123.04447  0.037976688  0.039639476            2 
  271000    1.1506874   -6.4420978    123.46553  0.037966031  0.039613597            3 
  272000    1.1414416   -6.4616686    123.66542  0.037887689  0.039588979            2 
  273000    1.1571726   -6.4425995    124.36378  0.037962083  0.039566273            3 
  274000    1.1586022   -6.4705104     124.6672  0.037915814  0.039542094            4 
  275000    1.1505809   -6.5153157    124.74929  0.037802815  0.039517188            2 
  276000    1.1620365   -6.4473171    125.45784  0.037879782  0.039492567            2 
  277000    1.1379456   -6.4716157    125.68127  0.037810249  0.039468005            4 
  278000    1.1549942   -6.4554074    126.16201  0.037818348  0.039443641            5 
  279000    1.1445017   -6.4793064    126.60475  0.037815038  0.039418729            3 
  280000    1.1572867   -6.4900088    126.77459  0.037730533  0.039394895            3 
  281000    1.1433279   -6.4892548    127.15221  0.037708246  0.039369229            1 
  282000    1.1510105   -6.4732507    127.73286  0.037746117  0.039343831            2 
  283000     1.139485   -6.4565824    127.94012  0.037673768  0.039317495            4 
  284000    1.1514538   -6.4990567    127.64164  0.037453534  0.039290093            3 
  285000    1.1311109   -6.4773497    128.62589  0.037609909   0.03926381            2 
  286000    1.1155699   -6.4814742    128.71279  0.037503727  0.039236615            2 
  287000    1.1372896   -6.4552233    129.47174  0.037593422  0.039209345            3 
  288000    1.1642629   -6.4663082    128.98699  0.037322624  0.039181562            3 
  289000    1.1161671   -6.5066709    130.10128  0.037514786   0.03915308            3 
  290000     1.123887   -6.4547702    130.51014  0.037502913   0.03912537            2 
  291000    1.1247506   -6.4728147    130.70193  0.037428961  0.039097237            3 
  292000    1.1458688    -6.487082    130.94215  0.037369335  0.039070776            3 
  293000     1.147979   -6.5094565    130.98309  0.037253437  0.039043733            1 
  294000    1.1449005   -6.5083659    131.69963  0.037329826  0.039015696            3 
  295000    1.1549045    -6.465302    131.89548  0.037258609  0.038986844            2 
  296000    1.1644671   -6.4757274    132.38038   0.03726925  0.038957624            3 
  297000    1.1316529    -6.496894    132.95981  0.037306344  0.038929782            2 
  298000    1.1387729   -6.5104134    133.32353  0.037282866  0.038902891            1 
  299000    1.1319589    -6.500134    133.86676  0.037309575   0.03887605            2 
  300000    1.1424025   -6.4755524    133.72223  0.037145063  0.038849232            2 
  301000     1.132927   -6.4961779    134.05998  0.037115167  0.038820477            4 
  302000    1.1379232   -6.5005111    135.12591  0.037286399  0.038791871            2 
  303000    1.1241092   -6.4875907    135.35339  0.037225904  0.038765683            1 
  304000    1.1339133   -6.4658031    135.70702   0.03720039  0.038738923            2 
  305000    1.1417422    -6.489261    136.10045  0.037185914  0.038711682            4 
  306000    1.1284589   -6.4863403    136.48636  0.037169488  0.038685247            4 
  307000    1.1319688   -6.5090163    137.48357  0.037319101  0.038659285            2 
  308000    1.1424216   -6.5092868    137.50844  0.037204664  0.038633962            2 
  309000    1.1226896   -6.5199193    138.11681  0.037248331  0.038610495            3 
  310000    1.1148864   -6.5202157    138.62703   0.03726533   0.03858733            3 
  311000     1.095286   -6.5017582    138.58019  0.037132954  0.038562751            4 
  312000    1.1051103   -6.5263261    139.05141    0.0371398  0.038538205            3 
  313000    1.1195299   -6.5035445    139.39802  0.037113425  0.038514766            2 
  314000    1.1596477   -6.5126811     140.0644   0.03717208  0.038493015            2 
  315000    1.1570253   -6.5212948    141.02024  0.037306941  0.038472937            7 
  316000    1.1053236    -6.489192    141.28375  0.037258373  0.038452508            3 
  317000    1.0924798    -6.513769    142.03721  0.037338909  0.038432797            5 
  318000    1.0917332   -6.5169129    142.00523   0.03721311   0.03841305            3 
  319000    1.1390051   -6.4999844    142.15604  0.037135852  0.038393011            4 
  320000    1.1328076   -6.5296541    142.55814  0.037124515  0.038372545            2 
  321000    1.1492713   -6.4692679    143.40819   0.03722954  0.038351664            2 
  322000    1.1490581    -6.487906    143.29386  0.037084331  0.038330657            3 
  323000    1.1245708   -6.5105888     143.4913   0.03702046  0.038309294            3 
  324000    1.1223373   -6.4708325    144.47724  0.037159785  0.038288456            3 
  325000     1.144768   -6.5120547    144.79877   0.03712789  0.038267687            5 
  326000    1.1322817    -6.485091    145.26249  0.037132538  0.038246805            4 
  327000    1.1308052    -6.504342    145.49195  0.037077459  0.038225282            2 
  328000    1.1371274   -6.4940317    145.55893  0.036981435  0.038204959            1 
  329000    1.1320738   -6.5188879     146.4322  0.037090224  0.038184836            3 
  330000     1.115206   -6.5012765    146.82029  0.037075831  0.038166158            4 
  331000    1.1274734   -6.4896085    147.32955  0.037092031  0.038147188            3 
  332000    1.1066418   -6.5115501    147.59805  0.037047703  0.038127457            2 
  333000    1.1183313   -6.5086607    148.25646  0.037101215   0.03810776            6 
  334000    1.1424032   -6.5034616    148.82544  0.037132096  0.038088451            4 
  335000    1.1142244   -6.5106381    148.73301  0.036998262  0.038069938            3 
  336000    1.1294793   -6.5279239    148.85696  0.036918888  0.038050572            3 
  337000    1.1268225     -6.54318    149.53462   0.03697691  0.038032727            2 
  338000    1.1427047   -6.5294368    150.36983   0.03707343  0.038015435            2 
  339000    1.1135722   -6.5030222    151.23698  0.037177232  0.037998098            2 
  340000    1.1103739   -6.5049647    151.41161  0.037110688  0.037980721            3 
  341000    1.1214911   -6.5229943    151.32021  0.036979523  0.037962958            1 
  342000     1.111321    -6.568314    151.22558  0.036848337  0.037944911            4 
  343000    1.1082736   -6.5438964    151.91849  0.036909255  0.037926809            2 
  344000    1.1407708   -6.5277976    152.73919  0.037000773  0.037908409            4 
  345000    1.1148305   -6.5109949    152.95439  0.036945505  0.037890063           10 
  346000    1.1097546   -6.5135015    153.58678  0.036991036  0.037871945            3 
  347000     1.123076   -6.5331608    153.58248    0.0368834  0.037854458            4 
  348000    1.1192286   -6.5151006    153.88571  0.036850027  0.037837404            6 
  349000    1.1234389   -6.5009249    155.13999  0.037043933  0.037820717            4 
  350000    1.0952137   -6.5627136    154.97554  0.036898938  0.037804114            3 
  351000     1.109773   -6.4897188    155.46231  0.036909379   0.03778675            4 
  352000    1.1201419   -6.5481989    155.81839  0.036888824  0.037768693            2 
  353000    1.1100535   -6.5257841    156.38515  0.036918119  0.037751221            3 
  354000    1.0946904   -6.5243847    156.76488   0.03690322  0.037733803            1 
  355000    1.1153734   -6.5161651     156.3338  0.036698076  0.037715322            2 
  356000    1.1088763   -6.5096445    157.27459  0.036815213  0.037697213            2 
  357000    1.0954136   -6.5095218    157.23614  0.036703115  0.037678196            2 
  358000    1.1194544   -6.5320493    157.41854  0.036643048  0.037658551            2 
  359000    1.1092211   -6.5387029    157.70528   0.03660754  0.037637706            2 
  360000    1.1248245   -6.5648481    157.81436  0.036531101  0.037617615            3 
  361000    1.1068424   -6.5331637    158.28899   0.03653947   0.03759706            3 
  362000     1.131299   -6.5334014    158.62217  0.036515233  0.037576435            3 
  363000    1.1352212   -6.5202607    159.00203  0.036501842    0.0375557            2 
  364000    1.1419866    -6.557186    159.47284  0.036509349  0.037534778            5 
  365000    1.0935472   -6.5501904    159.53743  0.036424071  0.037513611            3 
  366000    1.1107476   -6.5200984    160.32661  0.036504237  0.037492683            3 
  367000    1.0947902   -6.5547355    160.82573  0.036518103  0.037472642            2 
  368000    1.1135034   -6.5295547    160.80397  0.036413942  0.037452968            3 
  369000    1.1071171   -6.5063937    161.50546  0.036473682   0.03743364            2 
  370000     1.125066     -6.52143    162.03444  0.036494244  0.037414072            6 
  371000    1.0931457    -6.517135    162.38527  0.036474679   0.03739538            4 
  372000    1.1078733   -6.5731257    162.32676   0.03636352  0.037375329            2 
  373000    1.0860744   -6.5245657    162.71413  0.036352576  0.037355015            2 
  374000    1.1159082   -6.5023672    163.91951  0.036523954  0.037336074            1 
  375000    1.1387989   -6.5220219    163.08396   0.03624088  0.037316442            4 
  376000    1.1221407   -6.5726355    162.93463  0.036111398  0.037295426            4 
  377000    1.1178465   -6.5255598    163.90761  0.036230682  0.037273604            2 
  378000    1.1195986   -6.5639578    163.96645  0.036147806  0.037251441            3 
  379000    1.1014263   -6.5613901    164.83923  0.036244334  0.037230316            4 
  380000    1.0886474   -6.5369182    164.96625   0.03617681  0.037208224            2 
  381000     1.123793   -6.5383717    165.03017  0.036095837  0.037186015            5 
  382000    1.1040819   -6.5572719    165.34584   0.03607021  0.037164109            7 
  383000    1.1126602   -6.5654038    165.81718  0.036078585  0.037143286            7 
  384000     1.114276   -6.5461001    166.85612  0.036210095  0.037122972            4 
  385000    1.0934808   -6.5815275    167.05552  0.036159204  0.037102876           15 
  386000     1.100992   -6.5438118    167.17287  0.036090861  0.037083003            3 
  387000     1.076745     -6.52701    168.15402  0.036208876  0.037063418            2 
  388000    1.1169792   -6.5739185    167.95589  0.036072999  0.037042776            4 
  389000    1.1213111    -6.559784    168.41404  0.036078415  0.037022508            3 
  390000      1.09362   -6.5464042    168.94945   0.03610031  0.037002811            1 
  391000    1.0852123    -6.556317    169.38174  0.036100116  0.036982939            3 
  392000    1.1057354   -6.5732976    169.91788  0.036121998  0.036962968            2 
  393000    1.1101726   -6.5641566    169.89782  0.036025831  0.036943194            5 
  394000    1.1049463   -6.5716062    170.54922   0.03607217  0.036924072            6 
  395000    1.0991171   -6.5660814    171.15493  0.036108636   0.03690618            2 
  396000    1.0716964   -6.5217605    171.52486  0.036095299  0.036887097            3 
  397000    1.1031425   -6.5438932    171.71095   0.03604344  0.036868614            5 
  398000    1.1135324   -6.5986353    171.51634  0.035912132  0.036849357            3 
  399000    1.0801703   -6.5664066    172.57011  0.036042211  0.036829801            4 
  400000    1.0921227   -6.5480298     172.4762  0.035932542  0.036810516            1 
  401000    1.0768725   -6.5542311    172.88493  0.035927873  0.036790832            2 
  402000    1.0739243   -6.6025125     173.2385  0.035911795  0.036771771            5 
  403000    1.0813463   -6.5844586    174.10637  0.036002144  0.036753141            3 
  404000    1.1098133   -6.5554623    174.30906  0.035954839  0.036735028            4 
  405000     1.079253    -6.553254    174.31117  0.035866495  0.036716842            3 
  406000    1.0880748   -6.5682869    175.51364  0.036024966  0.036698177            2 
  407000    1.0969881   -6.5859908    175.43278  0.035919898  0.036680754            2 
  408000     1.091083   -6.5664259    176.21316   0.03599125  0.036663667            8 
  409000    1.0844541   -6.6104815    176.05632  0.035871296  0.036646584            3 
  410000    1.0731394   -6.5842257      176.572  0.035888618  0.036629272            5 
  411000    1.0768493    -6.583818    176.85595  0.035858871  0.036611726            3 
  412000     1.064909   -6.5663445    177.58799    0.0359199  0.036594468            2 
  413000      1.08723   -6.5553745    177.31479  0.035777802  0.036576321            2 
  414000    1.0690865   -6.5597922    178.13769  0.035857023  0.036558861            4 
  415000    1.0860654   -6.5654045    178.45072  0.035833477   0.03654098            4 
  416000    1.0875317   -6.5885292    178.42833  0.035742855  0.036522429            4 
  417000    1.0768212   -6.5476743    178.59248  0.035689944  0.036503184            3 
  418000    1.0942168   -6.5764635    179.22242  0.035730148  0.036483781            2 
  419000    1.0956123   -6.5980495    179.35255  0.035670754  0.036464079            2 
  420000    1.0868351   -6.5926514    179.99483  0.035713259  0.036444425            3 
  421000    1.0867712   -6.6126792    179.54322  0.035539039  0.036424641            2 
  422000    1.0871158   -6.5872342     180.3331  0.035610803  0.036405025            3 
  423000     1.089202   -6.5932202      180.868  0.035631994  0.036385478            4 
  424000    1.0754167   -6.5859212     180.5784  0.035491038  0.036365561            3 
  425000    1.0876979   -6.5893572    181.31936  0.035552816  0.036346206            2 
  426000    1.0832755   -6.5877863    181.71101  0.035545972  0.036327552            3 
  427000    1.0704036    -6.598583    182.26637  0.035571111  0.036308653            2 
  428000    1.0858492   -6.5602873    182.64086  0.035560914  0.036289457            4 
  429000    1.0775327   -6.5974496    182.79073  0.035507134   0.03627084            3 
  430000    1.0704388   -6.5579835    183.74068  0.035608659  0.036251543            4 
  431000    1.0736785    -6.599952    183.50885  0.035481217  0.036232798            3 
  432000    1.0746928   -6.6054844    183.46345  0.035390327  0.036213445            3 
  433000    1.0892982   -6.5719752    184.43296  0.035495181  0.036194737            3 
  434000    1.0726707   -6.5944384    184.77402  0.035478882  0.036176465            2 
  435000     1.075181   -6.5456605    185.53326  0.035542771  0.036158001            1 
  436000    1.0842089   -6.5649936    185.15696  0.035389326  0.036139092            4 
  437000    1.0850973   -6.5686587    185.27383  0.035330631  0.036119437            4 
  438000    1.1064458   -6.5957848     185.5218  0.035297145  0.036100264            4 
  439000    1.0624692   -6.6107861    185.58366  0.035228486  0.036080563            2 
  440000    1.0627821   -6.6301142    186.17912  0.035261196  0.036060678            2 
  441000    1.0948013   -6.5865695     186.9399  0.035324999   0.03604155            2 
  442000    1.0834846   -6.6050596    187.25707  0.035304877  0.036023052            7 
  443000    1.0837294     -6.56807    187.56969  0.035283989   0.03600396            1 
  444000    1.0835665   -6.5864737    187.99511  0.035284368  0.035985524            4 
  445000    1.0811302   -6.5917732    188.80606  0.035356941   0.03596705            4 
  446000    1.0616538    -6.623827    188.87049  0.035289703  0.035948303            4 
  447000    1.1104189   -6.5739324    189.53906  0.035335396  0.035930261            4 
  448000    1.0883529   -6.6161158    189.50513  0.035250209  0.035912092            2 
  449000    1.0636507   -6.6032864    189.62522  0.035193991  0.035893556            2 
  450000    1.0729994   -6.5749008    190.51629  0.035280794  0.035875291            6 
  451000    1.0795908   -6.5902578     190.3774  0.035176903  0.035857412            3 
  452000    1.0681758   -6.6317462    189.92399  0.035015485  0.035838711            4 
  453000    1.0640634   -6.5923929    191.10642  0.035155707  0.035820011            2 
  454000    1.0754487   -6.6094648    191.03196  0.035064604   0.03580058            3 
  455000    1.0724008   -6.6267402    191.08757  0.034997723   0.03578042            3 
  456000    1.0802746   -6.6041204    191.56888  0.035008932  0.035760369            8 
  457000    1.0689058   -6.6015348    191.89463  0.034991728  0.035740525            3 
  458000    1.0433303   -6.6086386    191.54523  0.034851751   0.03572047            2 
  459000    1.0839408   -6.6071748    192.14323  0.034884392  0.035699932            4 
  460000     1.061754   -6.6091862    192.13121  0.034806378   0.03567908            4 
  461000    1.0759636   -6.5950652    192.74072  0.034841055  0.035658695            2 
  462000    1.0529176   -6.6418687    192.32248  0.034690201  0.035638251            3 
  463000    1.0581794   -6.5891151    194.01793  0.034920435  0.035617947            4 
  464000    1.0783099   -6.5865738    194.52872   0.03493691  0.035598107            2 
  465000    1.0853069   -6.5903861    194.38854  0.034836656  0.035579503            2 
  466000      1.09131   -6.6004876    194.78602   0.03483298  0.035560608            4 
  467000    1.0705349   -6.5879944    195.23825  0.034839088  0.035541423           11 
  468000    1.0684058   -6.6089606     195.8851  0.034879826  0.035522854            4 
  469000     1.040836   -6.5947718    195.98702  0.034823565  0.035505139            3 
  470000     1.060518   -6.5959348    196.93479  0.034917517  0.035487516            4 
  471000    1.0429426   -6.5658662    197.52379  0.034947592  0.035469878            2 
  472000    1.0670075   -6.6364783    197.40217  0.034852078  0.035452243            6 
  473000    1.0812827    -6.628532    197.65131  0.034822288   0.03543442            4 
  474000    1.0379409   -6.6088367    198.20421  0.034846029  0.035417036            3 
  475000    1.0743201   -6.6332708    199.21878  0.034950664  0.035399924            3 
  476000    1.0669633    -6.616497    199.65467  0.034953549  0.035383343            3 
  477000    1.0609726   -6.6235919    200.17891  0.034971858  0.035367253            2 
  478000    1.0780156   -6.6582814    200.20725  0.034903634  0.035351582            3 
  479000    1.0670905   -6.6279795     200.7406  0.034923556   0.03533545            2 
  480000    1.0614098   -6.6432496    200.60024   0.03482643   0.03531898            5 
  481000    1.0710992   -6.6093394      200.658  0.034764033  0.035302135            6 
  482000    1.0838494    -6.633908    201.00507  0.034751914  0.035285071            3 
  483000    1.0548967   -6.6639533    201.22071  0.034717169  0.035267454            3 
  484000    1.0262837    -6.641111    201.66415  0.034721788  0.035250395            4 
  485000    1.0579267   -6.6587367    201.91921  0.034694023   0.03523334            3 
  486000     1.053416   -6.6283018    202.35156   0.03469677  0.035216368            9 
  487000    1.0748683   -6.6535005    202.14768  0.034590637  0.035199325            3 
  488000    1.0807428   -6.6421207     202.9936  0.034664208  0.035181917            4 
  489000    1.0781854   -6.6688958    202.95572  0.034586864  0.035164537            2 
  490000    1.0659083   -6.6532166    203.84969  0.034668315  0.035147105            2 
  491000    1.0659679   -6.6484944    203.30163   0.03450469  0.035129094            4 
  492000    1.0535618   -6.6242738    203.70954  0.034503649  0.035111476            5 
  493000     1.066455   -6.6124725    204.92233  0.034638663  0.035094155            3 
  494000    1.0655833   -6.6199036    205.26111  0.034625693  0.035077149            4 
  495000     1.048606   -6.6392427    205.29085  0.034560749  0.035060443            2 
  496000    1.0698941   -6.6671374    204.90009  0.034425419  0.035043156            4 
  497000    1.0321919    -6.664782    205.54145   0.03446369  0.035025807            4 
  498000    1.0420608   -6.6467231    206.44946  0.034546429  0.035008829            3 
  499000    1.0659953   -6.6493781    206.70793  0.034520363  0.034991622            3 
  500000    1.0406408   -6.6266919    206.67123  0.034445205  0.034974844           12 
  501000    1.0586515   -6.6469319    207.43792  0.034503979  0.034957504            3 
  502000    1.0483175   -6.5899159    207.81702  0.034498177  0.034939805            4 
  503000     1.056881   -6.6212245    208.04536  0.034467422  0.034921737            3 
  504000    1.0545905    -6.646986    207.93463  0.034380725   0.03490372            3 
  505000    1.0413643   -6.6505061    207.99288  0.034322258  0.034885762            5 
  506000    1.0589981   -6.6656293    208.05047  0.034263912   0.03486757            4 
  507000    1.0560259   -6.6187614    208.85272  0.034328192  0.034849456            2 
  508000    1.0471593   -6.6573456    209.49731  0.034366357   0.03483213            2 
  509000     1.044632   -6.6403823    209.67953  0.034328673  0.034814518            3 
  510000    1.0330645   -6.6407871    209.33528   0.03420511  0.034797111            3 
  511000    1.0647086   -6.6737455     210.2437  0.034286317  0.034779302            3 
  512000    1.0694183   -6.6453405     210.5478  0.034268848  0.034761551            1 
  513000    1.0530616   -6.6380892    210.36558  0.034172446  0.034743383            4 
  514000    1.0321845   -6.6194298    211.30585  0.034258406  0.034725238            4 
  515000    1.0775227   -6.6397853    211.27725  0.034187258  0.034707519            3 
  516000     1.054114   -6.6644088    210.83309  0.034049272  0.034689742            1 
  517000    1.0681107   -6.6828929    211.66102  0.034116863  0.034671637            3 
  518000    1.0361338   -6.6395771    212.17472  0.034133642  0.034653704            3 
  519000    1.0463369   -6.6298858     212.4234  0.034107803  0.034636151            4 
  520000    1.0467821   -6.6582164    212.13964  0.033996737  0.034618379            4 
  521000    1.0630599   -6.6603812    212.97489  0.034065081   0.03460056            4 
  522000    1.0438559   -6.6764749    213.10879  0.034021199  0.034582566            4 
  523000    1.0467846   -6.6441159    212.67687  0.033887328  0.034564648            3 
  524000    1.0232556   -6.6749016    213.51714  0.033956288  0.034546198            4 
  525000     1.044226    -6.648972    214.93319   0.03411638  0.034528721            3 
  526000    1.0335557   -6.6613865      214.172  0.033930925  0.034510861            4 
  527000    1.0618597   -6.6425644    215.29918  0.034044778  0.034493269            3 
  528000    1.0605414   -6.6884772    215.04499  0.033940182  0.034475766            5 
  529000    1.0454672   -6.6741353    214.71815  0.033824535  0.034457758            3 
  530000    1.0220993    -6.648498    215.59882  0.033899186  0.034439495            4 
  531000    1.0405343   -6.6856874     216.2718  0.033940961  0.034421779            5 
  532000    1.0590651   -6.6465941    216.18528  0.033863608  0.034403766            4 
  533000    1.0154252   -6.6593822    216.72709  0.033884786  0.034385544            5 
  534000    1.0474794   -6.6964537    216.85038  0.033840572  0.034367694            4 
  535000    1.0243547   -6.7028662    217.72115  0.033912951  0.034349724            5 
  536000    1.0453869   -6.6975984    217.53109  0.033820133  0.034331463            4 
  537000    1.0288488   -6.6655817    217.83747  0.033804697  0.034313461            5 
  538000    1.0328083   -6.6494661    218.61969  0.033863026  0.034295384            3 
  539000    1.0708263    -6.678813     218.6942  0.033811719  0.034277256            2 
  540000    1.0450131   -6.6883861    218.48495  0.033716813   0.03425922            2 
  541000    1.0508785   -6.6897472     218.7457  0.033694654  0.034240526            4 
  542000    1.0338659   -6.6899537    219.15217  0.033694983  0.034221526            3 
  543000    1.0433766   -6.6794901    218.65605  0.033556792  0.034203078            1 
  544000    1.0118841   -6.6759253    219.96376  0.033695429  0.034184603            4 
  545000    1.0241262   -6.6675945    219.99827  0.033638879  0.034166259            4 
  546000    1.0513222   -6.6854196    220.43749  0.033644306  0.034148131            8 
  547000    1.0272844   -6.6784507    220.05757  0.033524919   0.03412947            2 
  548000    1.0162372   -6.6929285    219.60903  0.033395533  0.034110554            2 
  549000    1.0503544   -6.6303376    221.10837  0.033562291  0.034091253            4 
  550000    1.0437345   -6.6762797    220.96144  0.033479007  0.034072128            4 
  551000    1.0312791   -6.6917453    221.44826  0.033491873   0.03405339            2 
  552000    1.0344099   -6.6585725    221.02263  0.033366943   0.03403435            5 
  553000    1.0625126   -6.6931101    221.75413  0.033416837  0.034014889            6 
  554000    1.0115056   -6.6725157     222.4753  0.033464997  0.033995328            3 
  555000    1.0101825   -6.6693739     223.0611  0.033492657  0.033976274            1 
  556000    1.0322713   -6.6859743    222.95071  0.033415874   0.03395761            7 
  557000    1.0436654   -6.6678096    223.82226  0.033486275  0.033939393            4 
  558000    1.0513944    -6.690542    224.09696  0.033467287  0.033921248            2 
  559000    1.0172969   -6.6694269    223.96967  0.033388442  0.033903283            2 
  560000    1.0312142   -6.6937378    224.11058  0.033349788  0.033885514            2 
  561000    1.0387368   -6.6981821    225.10327    0.0334378  0.033867559            4 
  562000    1.0394192   -6.6917949     225.0438  0.033369485  0.033849506            4 
  563000     1.025477   -6.6724862    226.00781  0.033452903  0.033832047            3 
  564000    1.0052138   -6.6995466    226.08381  0.033404818  0.033814692            4 
  565000    1.0130509   -6.6940023    225.71044  0.033290626  0.033797265            3 
  566000     1.009267   -6.6688101    226.25004  0.033311255  0.033779692            3 
  567000    1.0160797   -6.6871715    226.91942  0.033350885  0.033762075            3 
  568000    1.0032071   -6.6869577    226.17982  0.033183659  0.033744096            2 
  569000    1.0098063   -6.6853087    227.35026  0.033296758  0.033726167            4 
  570000     1.028411   -6.6772031    228.43261  0.033396581  0.033708694            3 
  571000    1.0424762   -6.6826817    228.60072  0.033362627  0.033691225            3 
  572000    1.0389789   -6.7146791    227.64953  0.033165724  0.033673383            4 
  573000    1.0228747   -6.6565723    228.34783    0.0332094  0.033655192            2 
  574000    1.0115657   -6.7044029    227.85746  0.033080351  0.033636836            9 
  575000   0.99835429   -6.7226959    228.52464  0.033119513  0.033618593            4 
  576000    1.0230521   -6.7339688    228.53028   0.03306283  0.033600246            5 
  577000    1.0169636    -6.707997    229.16439   0.03309711  0.033581599            6 
  578000    1.0319616   -6.6911827    228.89793  0.033001432  0.033563154            3 
  579000    1.0224413   -6.7058439    229.61414  0.033047516  0.033543976            3 
  580000    1.0160736   -6.6990365     229.5756     0.032985   0.03352455            3 
  581000    1.0234064   -6.7140417    229.61553  0.032933955  0.033505719            4 
  582000    1.0349743   -6.7070422    230.36762  0.032985054  0.033486715            2 
  583000    1.0342086   -6.7006545    230.69302  0.032974989  0.033467599            2 
  584000    1.0228914   -6.7015938     231.1959  0.032990283   0.03344916            5 
  585000    1.0209664   -6.6924755    230.91046  0.032893228  0.033430801            5 
  586000    1.0143372    -6.712002     231.1214  0.032867093   0.03341188            2 
  587000    1.0250684   -6.7148326    231.00762  0.032794948   0.03339301            4 
  588000    1.0208654   -6.7179484    231.60227  0.032823451  0.033374126            5 
  589000    1.0243336   -6.7189139    232.21402  0.032854275  0.033354915            5 
  590000    1.0301718   -6.7166591    232.37572  0.032821429  0.033335515            2 
  591000    1.0247179    -6.715534    232.11906  0.032729704   0.03331635            3 
  592000    1.0375184   -6.7272535    232.50226  0.032728358  0.033297335            2 
  593000     1.017569   -6.7228915    233.12138  0.032760171  0.033278251            3 
  594000    1.0061221    -6.737106    232.95917  0.032682262  0.033259223            2 
  595000    1.0335012   -6.6914476    234.05235  0.032780442  0.033240617            5 
  596000    1.0024149   -6.7050397    233.90522  0.032704868  0.033221814            5 
  597000    1.0294891   -6.7217918    234.86741  0.032784395  0.033203094            2 
  598000    1.0149844   -6.7494063    234.13871  0.032628025  0.033184213            3 
  599000    1.0188932    -6.701075    234.65293  0.032645094  0.033165095            3 
  600000    1.0465484   -6.7038601    235.97101  0.032773751  0.033146747            3 
  601000    1.0193071   -6.7281842    234.60574  0.032529914  0.033127973            4 
  602000     1.011931   -6.7060822    234.94959  0.032523477  0.033108934            6 
  603000   0.99697726   -6.7079895    235.71701  0.032575596  0.033089924            5 
  604000    1.0110669   -6.7451519    235.83481  0.032537915  0.033071215            2 
  605000   0.99937861   -6.7224957     236.6491  0.032596294  0.033052315            3 
  606000    1.0163498   -6.7625079    235.97628  0.032449983  0.033033669            3 
  607000    1.0210929   -6.7306568     236.8067  0.032510529  0.033014495            2 
  608000    1.0139556   -6.7243998    237.63328  0.032570351  0.032996301            3 
  609000     1.017183   -6.7347854    237.55574  0.032506259  0.032977701            2 
  610000    1.0258686   -6.7370169    238.54714  0.032588407  0.032959287            3 
  611000    1.0145258   -6.7165618    238.41531  0.032517091  0.032940687            2 
  612000    1.0067651   -6.7499716    239.10655  0.032558081  0.032922304            3 
  613000    1.0052572   -6.7076691    239.13544  0.032508896  0.032904486            3 
  614000    1.0384574   -6.7271956      240.091   0.03258564   0.03288662            4 
  615000   0.99763598    -6.738201    239.65404  0.032473447  0.032868853            6 
  616000    1.0095407   -6.7483648    239.72119  0.032429815  0.032850626            4 
  617000   0.99740412   -6.7233115    240.24672  0.032448233  0.032833058            3 
  618000    1.0186137   -6.7238058    241.17383  0.032520742  0.032815519            5 
  619000   0.99334193   -6.7239596     241.7693  0.032548371  0.032798065            3 
  620000   0.99955837   -6.7250233    241.26806  0.032428503  0.032780443            1 
  621000   0.99723453   -6.7556275    240.70386  0.032300572  0.032762474            4 
  622000     1.030078   -6.7273318    241.76817  0.032391234  0.032744726            6 
  623000   0.99315804   -6.7739222    242.11749  0.032385967  0.032727714           10 
  624000    1.0135759   -6.7237622    242.29934  0.032358352  0.032710196            3 
  625000   0.99002856   -6.7085635    242.14928   0.03228657  0.032692511            4 
  626000    1.0207361   -6.7540489    242.40464  0.032268988  0.032674756            3 
  627000    1.0111392   -6.7791217    242.65812  0.032251212  0.032656687            4 
  628000    1.0142394    -6.731437    243.44034  0.032303654  0.032639007            4 
  629000    1.0204062    -6.760094     243.1418  0.032212745  0.032621429            3 
  630000    1.0112732   -6.7243443    243.31508  0.032184534   0.03260343            4 
  631000    1.0009298   -6.7441146    243.98337  0.032221786  0.032585611            2 
  632000    1.0210401   -6.7484255    244.24046  0.032204702  0.032567383            4 
  633000   0.99344352   -6.7316293    245.39785  0.032306193  0.032549322            4 
  634000   0.97487614   -6.7262632    244.68198  0.032161144  0.032531475            4 
  635000   0.99346278   -6.7244969    245.37266  0.032201136  0.032513438            3 
  636000   0.99882524   -6.7446946    245.39209  0.032153052  0.032495715            4 
  637000    1.0139339   -6.7801199    245.09338  0.032063498  0.032478237            5 
  638000    1.0118796    -6.718864    246.45017  0.032190462  0.032460758            4 
  639000   0.99997862   -6.7519902    246.96977  0.032207846  0.032443238            4 
  640000   0.99913608   -6.7368284    245.96828   0.03202712  0.032425817            3 
  641000   0.97535372   -6.7417044    246.17837  0.032004469  0.032408112            6 
  642000   0.99301876   -6.7714197    245.92205  0.031921346  0.032389952            1 
  643000    1.0017011   -6.7698681     246.4391  0.031938712   0.03237197            4 
  644000    1.0027866   -6.7209049    248.05088  0.032097682  0.032354786            4 
  645000    1.0082392   -6.7941917     247.0882  0.031923541  0.032337183           10 
  646000    1.0095865   -6.7724571    248.18253   0.03201529  0.032319115            3 
  647000    1.0103734   -6.7506333    247.61493  0.031892701  0.032300971            4 
  648000    1.0046291   -6.7583798    248.34877  0.031937856    0.0322827            4 
  649000    0.9919145   -6.8042698    247.86042   0.03182594  0.032264142            4 
  650000    0.9926896   -6.7485467    248.72201  0.031887437  0.032245996            3 
  651000    1.0080074   -6.7788625    248.67202  0.031832056  0.032227745            2 
  652000   0.97599995   -6.7736001    248.67452  0.031783554  0.032209546            4 
  653000    1.0065825   -6.7451327    248.74456  0.031743818  0.032191574            5 
  654000   0.96767522   -6.7495468    249.69052  0.031815816  0.032173881            4 
  655000    1.0079643   -6.7817547    249.57016  0.031751929   0.03215593            3 
  656000   0.99184865   -6.7718952    250.09079  0.031769663  0.032137693            2 
  657000     1.006105   -6.7601496    250.61325  0.031787576  0.032119341            5 
  658000   0.99980533    -6.762391    250.40474   0.03171286  0.032100891            4 
  659000   0.99744002   -6.7871921    249.65919  0.031570459  0.032082298            4 
  660000   0.97692298   -6.7798753    250.26572  0.031599207   0.03206395            2 
  661000   0.98730889   -6.7700461    251.23231  0.031673262  0.032045588            4 
  662000    1.0058226   -6.7861948    251.28608  0.031632185  0.032027459            3 
  663000   0.99920993   -6.7751224    251.37025  0.031595054  0.032009112            4 
  664000   0.98347666   -6.7711786    251.31829   0.03154095  0.031990343            4 
  665000   0.99569719   -6.7615871     250.9297  0.031444825   0.03197108            5 
  666000   0.99504939   -6.7618009    251.31407  0.031445705   0.03195167            3 
  667000    1.0002833   -6.7604339    251.87016  0.031468036  0.031932478            2 
  668000   0.99358828   -6.7720863    251.48865  0.031373334  0.031913009            3 
  669000      0.99552   -6.7489189    251.92637  0.031380963  0.031893788            6 
  670000    0.9896103   -6.7687362    251.92411  0.031333845  0.031874221            6 
  671000   0.98923962   -6.8158016    252.51051  0.031359974  0.031854508            7 
  672000   0.98951417    -6.789819    253.33758   0.03141587  0.031835121            9 
  673000   0.99298268   -6.7494564    252.95975  0.031322406   0.03181562            5 
  674000   0.98970547   -6.7983296    253.93608  0.031396646  0.031796192            4 
  675000   0.96956451    -6.771437    253.09607  0.031246429  0.031776712            7 
  676000   0.97781004   -6.8245251    252.72505  0.031154469  0.031756709            3 
  677000   0.99479419   -6.7595135    252.98449  0.031140385  0.031736811            3 
  678000    1.0097696   -6.7454505    253.78668  0.031193054  0.031716907            2 
  679000    0.9819534   -6.7966253     254.0697  0.031181849   0.03169704            4 
  680000   0.98784878   -6.7571525    254.08642  0.031138042  0.031677265            4 
  681000   0.98166585   -6.7984554    254.78919  0.031178314  0.031657416            5 
  682000   0.98275717   -6.7408903    255.44121   0.03121227  0.031638244            5 
  683000   0.97840693   -6.7843255    254.97034  0.031109119  0.031618811            5 
  684000   0.96920417   -6.8120848     255.7004  0.031152583  0.031599498            3 
  685000   0.99166167   -6.8171947    256.02603  0.031146719  0.031580494            5 
  686000   0.98954069   -6.7946494    256.06619  0.031106194  0.031561596            4 
  687000    0.9736109   -6.7719446    256.34134  0.031094292  0.031542645            3 
  688000   0.96999069   -6.7866123    256.71019  0.031093772  0.031523699            2 
  689000   0.99169285   -6.7707725    256.84105  0.031064471  0.031505003            6 
  690000   0.98767851   -6.7625037    256.66149  0.030997764  0.031486271            6 
  691000   0.95760243   -6.7837535    256.96787  0.030989854   0.03146753            5 
  692000   0.99227271   -6.7806101    257.62172  0.031023811  0.031448606            5 
  693000    0.9723198    -6.821476    257.81952  0.031002829  0.031429531            4 
  694000    0.9822124   -6.7715701    258.32568  0.031018934  0.031410495            6 
  695000    1.0052746   -6.7861684    258.37798  0.030980573  0.031391371            6 
  696000    0.9606308   -6.8074914    258.46612  0.030946614  0.031372594            4 
  697000   0.98144203   -6.8013535    258.69157  0.030929169  0.031353867            5 
  698000   0.96373766   -6.7651338    259.55492  0.030987932  0.031334991            6 
  699000   0.96139244   -6.8146977    258.94915  0.030871381  0.031315946            5 
  700000   0.97088489   -6.7870543    258.99976  0.030833305  0.031296643            4 
  701000    0.9713252   -6.8123925    259.14258  0.030806299  0.031277361            6 
  702000    0.9502629   -6.7821046    259.69171  0.030827601  0.031258142            4 
  703000   0.96721934   -6.8443045    259.13139  0.030717329  0.031238949            4 
  704000   0.97043562    -6.791579    260.25866  0.030807133  0.031219823            3 
  705000   0.98733644   -6.8240231    260.42896  0.030783565  0.031200502            7 
  706000   0.98406428   -6.8062274    260.33832  0.030729264  0.031181418            6 
  707000   0.94856331     -6.78944    260.75883  0.030735364  0.031162483            3 
  708000   0.96675668   -6.8061906    260.73866  0.030689578  0.031143758            4 
  709000   0.97810391   -6.7756038    261.93988   0.03078748  0.031124854            4 
  710000   0.96463712   -6.7988093    261.20746  0.030658152  0.031106051            5 
  711000   0.98078432   -6.8008933    262.25475  0.030737782  0.031087407            4 
  712000   0.94189023   -6.8135435    261.84316  0.030646437  0.031068521            5 
  713000   0.96542977   -6.8088544    262.20155  0.030645342  0.031049378            3 
  714000   0.99355845   -6.7867977    263.10698  0.030708098  0.031030571            3 
  715000   0.95530972   -6.8057079     262.2431  0.030564464  0.031011718            5 
  716000   0.98536759   -6.8141857    263.03423  0.030613854  0.030992886            6 
  717000   0.98545266   -6.8005846    262.93837  0.030560015  0.030974012            7 
  718000   0.96944513   -6.8279451    263.77693  0.030614778  0.030955251            3 
  719000   0.98289411   -6.8077628    263.64391  0.030556781  0.030936952            2 
  720000   0.96840093   -6.8109355    264.00126  0.030555701  0.030918489            3 
  721000   0.95585795   -6.8218467    264.75201  0.030600094  0.030899869            9 
  722000   0.96633206   -6.8192701    264.76173  0.030558833  0.030881273            5 
  723000   0.95911483    -6.802718    264.53352  0.030490263  0.030862523            4 
  724000   0.95935235   -6.8037548    264.87703  0.030487688  0.030843729            4 
  725000    0.9853365    -6.825199    265.01119  0.030461057  0.030824838            5 
  726000   0.97807893   -6.8204165    264.98385  0.030415961   0.03080625            4 
  727000   0.98271665   -6.8131533    264.88413  0.030362692  0.030787283            4 
  728000   0.95953389    -6.842592    265.28482  0.030366852   0.03076804            5 
  729000   0.94928734   -6.8344399    265.09631  0.030303647  0.030749067            6 
  730000   0.95075854   -6.8210457    265.26094  0.030280929  0.030729758            5 
  731000   0.94974621    -6.822652    264.31193  0.030131319  0.030710235            4 
  732000   0.96100461   -6.8673412    265.27122  0.030199364  0.030690436            5 
  733000   0.94998632   -6.7824812     266.3086  0.030276103  0.030670827            3 
  734000   0.96230515   -6.8257753    265.91419  0.030190076  0.030651195            4 
  735000   0.97720364   -6.8311873    266.21029  0.030182573  0.030631564            2 
  736000   0.94160581   -6.8407899    265.51059  0.030062341  0.030611677            5 
  737000   0.96699991   -6.8258939    265.66794  0.030039342  0.030591606           19 
  738000   0.94460937   -6.8374942    266.63893   0.03010828  0.030571425            4 
  739000   0.96229682   -6.8080027    266.32067   0.03003165  0.030551415            6 
  740000    0.9408024   -6.7950701    266.67034  0.030030444  0.030531206            6 
  741000   0.92789481   -6.8201655    266.79285  0.030003695   0.03051114            8 
  742000   0.96495959   -6.8129694    267.42248  0.030033971  0.030491317            4 
  743000   0.93736788   -6.8611497    267.23979  0.029973058  0.030471363            2 
  744000   0.95645588   -6.8485894    266.87558  0.029891978  0.030451658            2 
  745000    0.9735773     -6.81671    267.59243  0.029932039  0.030431862            3 
  746000   0.95615264   -6.8371243    267.34181   0.02986392  0.030411943            7 
  747000   0.95212914   -6.8506581    267.79377  0.029874361  0.030391976            6 
  748000   0.96507976   -6.8324075    268.45616  0.029908218  0.030372031            9 
  749000   0.94151402   -6.8212757    269.31664  0.029964024  0.030352354            7 
  750000   0.97913925   -6.8382047    268.98999  0.029887777  0.030332773            5 
  751000   0.95423905   -6.8088639     269.5195  0.029906736   0.03031313            4 
  752000   0.96016849   -6.8236915    269.81298  0.029899488  0.030293678           14 
  753000   0.96514147   -6.8285229    269.29031  0.029801938  0.030274183            2 
  754000   0.96128715    -6.813177    269.69582   0.02980723  0.030254536            4 
  755000   0.96885066   -6.8267169    269.42091  0.029737407  0.030234896            9 
  756000   0.94943573   -6.8729134    269.17145  0.029670574  0.030215212            4 
  757000   0.97549181   -6.7955588    270.30494  0.029756159  0.030195693            3 
  758000   0.94550477   -6.8496192    270.66185   0.02975614  0.030176089            2 
  759000   0.94551902   -6.8291814    270.30907  0.029678203  0.030156308            5 
  760000   0.94362426   -6.8640842    271.31049  0.029748957  0.030136606            5 
  761000   0.95562425   -6.8568748    270.78685  0.029652524  0.030116837            5 
  762000   0.94714905   -6.8466712    271.18051  0.029656661  0.030096902            8 
  763000   0.96212728   -6.8525154    270.54154  0.029548005   0.03007693            3 
  764000   0.95160702   -6.8499635    271.46163   0.02960969  0.030057284            4 
  765000   0.92980725   -6.8823661    271.99337  0.029628907  0.030037592            4 
  766000   0.96965188   -6.8648327    271.49896   0.02953644  0.030017907            4 
  767000    0.9468909   -6.8743557    271.76026  0.029526321   0.02999832            4 
  768000   0.94557902    -6.859953    271.83111  0.029495563  0.029978697            4 
  769000   0.93820451    -6.852524    271.96178  0.029471367   0.02995898            6 
  770000   0.94173415   -6.8561958    272.28476  0.029468048  0.029939234            4 
  771000   0.94960599   -6.8356025    272.43404  0.029445962  0.029919274            6 
  772000   0.93571118   -6.8227064    273.58756  0.029532336   0.02989942            4 
  773000   0.94924645    -6.849762    273.32077   0.02946537  0.029879756            5 
  774000   0.96632439   -6.8485804    273.21439  0.029415847  0.029860248            5 
  775000   0.93310749   -6.8518426      273.952  0.029457205  0.029840323            3 
  776000   0.95013381    -6.855567    273.77618  0.029400363  0.029820361            3 
  777000   0.92702898   -6.8423688    273.89099  0.029374838  0.029800651            3 
  778000   0.95210765   -6.8705707    275.11666  0.029468366  0.029781091            3 
  779000   0.93868887   -6.8525366    275.16082  0.029435261   0.02976146            3 
  780000   0.94362029   -6.8637628     274.3669  0.029312703  0.029741942            7 
  781000   0.93869387   -6.8694567    274.51474  0.029290945  0.029722268            6 
  782000   0.93029738   -6.8706968    274.64902  0.029267798  0.029702451            5 
  783000   0.92382469   -6.8425793    274.58036  0.029223112    0.0296826            7 
  784000   0.94098866   -6.8493643    274.58244  0.029186058  0.029662681            6 
  785000   0.92732722   -6.8835644    274.86616  0.029178997  0.029642897            4 
  786000   0.94786892   -6.8720976    275.01319  0.029157463   0.02962287            6 
  787000   0.92978174   -6.8761032    274.87309  0.029105579  0.029602802            2 
  788000   0.93654364   -6.8475614    275.53265  0.029138393  0.029582658            3 
  789000   0.95395174   -6.8513687    275.61588  0.029110253   0.02956257            3 
  790000   0.94194843   -6.8489843    275.70219  0.029082509  0.029542751            6 
  791000   0.92718522   -6.8772127    275.50608  0.029025082  0.029522775            6 
  792000   0.92218389   -6.8618323    275.95727  0.029035908  0.029502835            4 
  793000   0.95574217   -6.8428313    276.99011   0.02910783  0.029482988            3 
  794000   0.94414636   -6.8791515     276.2649  0.028995056  0.029463198            9 
  795000   0.93208885   -6.8879987    276.77212  0.029011753  0.029443578            4 
  796000   0.92833071   -6.8628294    277.17227  0.029017197  0.029423736            9 
  797000   0.93458288    -6.853669    277.27331  0.028991354  0.029403949            4 
  798000   0.92862936   -6.8861079     277.6371  0.028993013  0.029384209            5 
  799000   0.94949904   -6.8642553    277.48985  0.028941369   0.02936441            4 
  800000   0.93325925   -6.8876193    277.81396  0.028938954  0.029344699            3 
  801000   0.93770452   -6.8915164     277.8349  0.028905004  0.029324731            5 
  802000   0.94676881   -6.8685159    277.77906  0.028863161  0.029304663            7 
  803000   0.94837414   -6.9012074    277.29442  0.028776922  0.029284422            5 
  804000    0.9320863   -6.9128541    277.63318  0.028776242  0.029264386            6 
  805000   0.94940811    -6.850314    277.92017  0.028770204   0.02924433            7 
  806000    0.9215343   -6.9101645    277.63302   0.02870482  0.029224259            4 
  807000   0.93718159   -6.9204408    277.34722  0.028639737  0.029204143            2 
  808000   0.93878916   -6.8622453    278.46772  0.028719856  0.029184173            3 
  809000   0.91622103   -6.8895128    278.78684  0.028717227  0.029164518            2 
  810000    0.9226297    -6.875428    278.77394  0.028680447  0.029144565            5 
  811000    0.9303261   -6.9059393    278.52196   0.02861919  0.029124699            4 
  812000   0.93449284   -6.9118594    279.93942  0.028729415   0.02910476            4 
  813000   0.91897018   -6.8485487    280.64915  0.028766825  0.029085091            2 
  814000   0.92766219    -6.862711    280.70489  0.028737192  0.029065563            3 
  815000   0.91961626   -6.8831112    279.95993   0.02862576  0.029046179            3 
  816000   0.91775785   -6.8919597    280.20638  0.028615848   0.02902644            5 
  817000   0.94357576   -6.9012331    280.88002  0.028649533  0.029006764            1 
  818000   0.93846962   -6.8891628    280.20138  0.028545373  0.028987225            4 
  819000   0.93444881   -6.8869231    280.67777  0.028558992   0.02896759            3 
  820000   0.94019243   -6.8939229    281.23896  0.028581195  0.028948141            3 
  821000   0.91533583     -6.93808    281.76902  0.028600185  0.028928627            4 
  822000   0.93189067   -6.8959465    281.48295   0.02853639  0.028908961            7 
  823000   0.89750495   -6.8957793    281.57184  0.028510717  0.028889208            5 
  824000   0.94525162   -6.8810263    282.21656  0.028541319  0.028869696            2 
  825000   0.91051208   -6.8992414    282.21594   0.02850666   0.02885034            2 
  826000   0.91295815   -6.9215547    281.98627  0.028448978  0.028830774            6 
  827000   0.92140561    -6.882902    282.56107  0.028472498  0.028811234           11 
  828000   0.92167734   -6.8942561    282.66912  0.028448986  0.028791623            5 
  829000   0.90673262   -6.8781663    283.09112  0.028457089   0.02877195           16 
  830000   0.90896051   -6.8527755    282.53861   0.02836733  0.028752269            5 
  831000    0.9222718   -6.8431703    282.46055  0.028325366  0.028732587            4 
  832000    0.9260367   -6.9021737    281.98947  0.028244138  0.028712843            5 
  833000   0.91290553   -6.8981847    282.49538  0.028260843  0.028692839            5 
  834000     0.916356   -6.9132402    282.44616  0.028222038  0.028672749           11 
  835000   0.93184236   -6.9098204    282.52848  0.028196455  0.028652523            4 
  836000   0.93267846   -6.9121275    282.37004  0.028146934  0.028632529            3 
  837000   0.92241817   -6.8698938    282.99345  0.028175374  0.028612427            3 
  838000   0.92172291   -6.9522181    282.35776  0.028078536  0.028592157            3 
  839000   0.94328546   -6.8931156    283.02144  0.028110989  0.028571796            5 
  840000   0.92465706   -6.9003837    282.80708  0.028056258  0.028551735            6 
  841000   0.93652759   -6.9497065    283.24379  0.028066171  0.028531583            3 
  842000   0.92211383   -6.9172196    282.99115  0.028007834  0.028511435            4 
  843000   0.91601525   -6.9232558    283.56918  0.028031749  0.028491264            3 
  844000   0.92181234   -6.9155327    284.07301  0.028048283  0.028471129            9 
  845000   0.92030324   -6.9052886    283.90877  0.027998893   0.02845088            2 
  846000   0.89207453   -6.9381864    284.04613  0.027979327  0.028430615            7 
  847000   0.92555977   -6.9195708    284.54099  0.027994982  0.028410653            4 
  848000   0.91268768   -6.9352097    284.46418  0.027954421  0.028390767            4 
  849000   0.90716062   -6.9408087    284.64797  0.027939533  0.028370724            3 
  850000   0.91288461   -6.9310085    285.02058  0.027943194   0.02835061            4 
  851000   0.92903028   -6.9107082    284.81963  0.027890681  0.028330592            6 
  852000    0.9287373   -6.9363253    284.82084  0.027858063  0.028310575           15 
  853000   0.91627299   -6.9273294    285.10211  0.027852883  0.028290632            6 
  854000   0.91095594   -6.9004417    285.93603  0.027901643   0.02827072            3 
  855000   0.92529957   -6.9284014     285.5709  0.027833421  0.028251024            4 
  856000     0.922248    -6.919285    285.52468  0.027796405  0.028231268            3 
  857000   0.90524974   -6.9228225    286.52505  0.027861245  0.028211619            4 
  858000    0.9212343    -6.955446    286.49621  0.027825972  0.028192089            5 
  859000   0.92775626   -6.9315606    285.70391  0.027716716  0.028172311            7 
  860000   0.91730664   -6.9150182    286.80933  0.027791601  0.028152537            4 
  861000   0.91067331   -6.9304455    286.96827  0.027774707  0.028133138           14 
  862000   0.92887053   -6.9249017    286.23612  0.027671706   0.02811337            4 
  863000   0.89283314   -6.9172639    287.27518  0.027739975   0.02809365            8 
  864000   0.90098687   -6.9079175    286.53213  0.027636201   0.02807412            9 
  865000   0.90893696   -6.9332329     287.2661  0.027674961  0.028054526            3 
  866000   0.91801301   -6.9082319    288.34681  0.027746999  0.028035059            5 
  867000   0.90282818   -6.9475169    287.00255  0.027585789   0.02801548            8 
  868000   0.91625943   -6.9211289    287.88984  0.027639194  0.027995636            3 
  869000   0.87971066   -6.9073969    288.39394  0.027655729  0.027975931            3 
  870000   0.89097558   -6.9256604    287.07128  0.027497249  0.027956213            5 
  871000   0.88357822   -6.9626303     287.8735  0.027542432  0.027936552            3 
  872000   0.89631069   -6.9478541    288.00147  0.027523076  0.027916777            2 
  873000   0.90522291   -6.9508498    287.94315  0.027485982  0.027897045            8 
  874000   0.90079661   -6.9540811    288.56897  0.027514203  0.027877282            6 
  875000   0.90704387   -6.9355204    288.38695  0.027465424  0.027857309           13 
  876000   0.88070147   -6.9271126    288.59654  0.027454009  0.027837491            3 
  877000    0.9183749   -6.9482515    288.46637  0.027410336  0.027817555            5 
  878000   0.89881961   -6.9241158    288.99484  0.027429275  0.027797888            2 
  879000   0.91616988   -6.9397468    288.92416  0.027391369  0.027777965            3 
  880000   0.91403465   -6.9455217    288.55674  0.027325449  0.027758219            3 
  881000   0.89703402   -6.9451285    289.64881  0.027397731  0.027738355            6 
  882000   0.91070225   -6.9420367    289.76414  0.027377564  0.027718501            6 
  883000   0.91238084   -6.9553863    289.45737  0.027317608  0.027698732            8 
  884000   0.89275838   -6.9516709    290.28396  0.027364627  0.027679108            2 
  885000   0.89509041   -6.9565882    289.64038  0.027273105  0.027659594            4 
  886000   0.91155493   -6.9583638    290.65242  0.027337512  0.027639944            6 
  887000   0.91334651   -6.9531974    290.78994  0.027319611  0.027620377            5 
  888000   0.89632565   -6.9449285    290.98953  0.027307576  0.027600838            5 
  889000   0.89439571   -6.9410763    291.61755  0.027335728   0.02758161            8 
  890000   0.90823526   -6.9866339    291.31015  0.027276231  0.027562372            2 
  891000   0.90493418   -6.9403489    292.05185  0.027314988  0.027543102            3 
  892000   0.89225498   -6.9796725    291.89956  0.027270138  0.027523906            3 
  893000   0.88291589   -6.9392729    291.48876  0.027201266  0.027504631            5 
  894000   0.90350652   -6.9346774    291.72243   0.02719262  0.027485261            4 
  895000   0.89260437   -6.9399016    291.91651  0.027180308  0.027465956            4 
  896000   0.90173105   -6.9482066    291.99398  0.027157179  0.027446301            4 
  897000   0.89172407   -6.9712788     291.8183  0.027110582  0.027427082            8 
  898000    0.9028717   -6.9471355    292.49953  0.027143609  0.027407886            7 
  899000   0.90282321   -6.9737301     292.4953  0.027113024  0.027388581            6 
  900000   0.88836243   -6.9411919    292.29843  0.027064669  0.027369211            7 
  901000   0.89463284   -6.9576561     292.8393  0.027084656  0.027349983            5 
  902000   0.86952488   -6.9756689    293.09234  0.027078006  0.027330637            5 
  903000   0.91647399    -6.959701    293.05332  0.027044418  0.027311309            3 
  904000   0.90426269   -6.9479972    293.99536  0.027101342  0.027292215            6 
  905000   0.91649327   -6.9684164    294.03251  0.027074816   0.02727313            5 
  906000   0.89531889   -6.9463336    293.66258  0.027010907  0.027254004            4 
  907000   0.90080838     -6.96652    294.08746  0.027020164  0.027235013            4 
  908000   0.90487562   -6.9927415    293.85311  0.026968897  0.027216222            8 
  909000   0.90247214   -6.9901916    294.44201  0.026993217  0.027197345            2 
  910000   0.88207669   -6.9709515     294.9637  0.027011328  0.027178488            4 
  911000   0.89184496   -6.9646237     294.7582   0.02696288  0.027159588            4 
  912000   0.89477479   -6.9820517    293.85458  0.026850747  0.027140818            5 
  913000   0.91232284   -6.9613354    294.07791  0.026841722  0.027121883            4 
  914000   0.88479204   -6.9816768    294.24885   0.02682794  0.027102844            8 
  915000   0.90544574    -6.937527    294.92549  0.026860245  0.027083867           10 
  916000   0.87423516   -6.9501147     294.9476  0.026832933  0.027064921            3 
  917000   0.90070296   -6.9705927    295.57494  0.026860682  0.027046007            5 
  918000   0.88424578   -6.9264016    295.55348  0.026829473  0.027027099            5 
  919000   0.88438839   -6.9535543    295.70013  0.026813577  0.027008273           13 
  920000   0.89839802    -6.961501    295.90548  0.026803032  0.026989523           13 
  921000    0.8928341   -7.0312844    295.14042  0.026704707  0.026970673            3 
  922000   0.88517834   -7.0056761    295.11834  0.026673747  0.026951657            4 
  923000   0.90221737   -6.9803331    296.06853  0.026730637  0.026932819            5 
  924000   0.86354521   -6.9635142    295.92866  0.026689092   0.02691398            7 
  925000   0.87299309   -6.9852619    295.51108  0.026622619  0.026895121           10 
  926000   0.86684432   -6.9606623    296.03329  0.026640865  0.026876134            2 
  927000   0.86925311   -6.9855822    296.48738  0.026652946  0.026857458            6 
  928000   0.87818442   -6.9845354    296.61733  0.026635895  0.026838563            5 
  929000   0.86988165   -6.9682754    297.06526  0.026647404  0.026819911            7 
  930000   0.88984333   -7.0077507    296.76146  0.026591529  0.026801173            7 
  931000   0.88488371   -6.9996165    297.19638  0.026601896  0.026782419            8 
  932000   0.88875325   -6.9999643    297.24099  0.026577341  0.026763559            4 
  933000   0.87729373   -7.0075791    297.37188  0.026560547  0.026744701            8 
  934000   0.88093111   -6.9832719    297.49534  0.026543124  0.026725836            6 
  935000   0.88140595   -6.9681675    298.03521  0.026562853  0.026707175            6 
  936000   0.87564067    -7.003803     298.4953  0.026575436  0.026688536            6 
  937000   0.87978222     -7.02906    297.14502  0.026426985  0.026669791            8 
  938000    0.8884567    -7.000475    298.35609  0.026506404  0.026651011            8 
  939000   0.88800049   -7.0015634    298.09809  0.026455279  0.026632456            7 
  940000   0.88910207   -6.9699598    298.18579   0.02643491  0.026613878           11 
  941000   0.89006066   -6.9811263    299.45779  0.026519464  0.026595184            9 
  942000   0.88959967   -6.9611235    298.95121  0.026446498  0.026576766           12 
  943000   0.86721247   -6.9842843    299.10465  0.026432013  0.026558379            4 
  944000   0.88307578   -6.9698104    299.19061    0.0264116  0.026539842            3 
  945000   0.86456038   -7.0017907    299.71173  0.026429606  0.026521453           10 
  946000   0.86136998   -7.0268386    299.71896  0.026402305  0.026502953            2 
  947000   0.87953579   -6.9935042    299.93581  0.026393507  0.026484605           10 
  948000   0.88273232   -6.9963029    299.88162  0.026360902  0.026466264            4 
  949000   0.86440374   -7.0265215    299.37917  0.026289003  0.026447809            6 
  950000   0.88138932   -6.9632548    300.17003  0.026330705  0.026429387            6 
  951000    0.8951627   -6.9753859    300.81595  0.026359617  0.026411175            6 
  952000   0.86744483     -6.99835    299.78365  0.026241566  0.026392869            4 
  953000   0.86365695   -7.0075269    300.30871  0.026259943  0.026374383            4 
  954000   0.85823613   -6.9927762    300.74871  0.026270852  0.026356053            4 
  955000   0.87894903    -7.032735    299.99554  0.026177621  0.026337517            7 
  956000   0.88257491   -6.9958726    299.70691  0.026125079   0.02631886           13 
  957000   0.86848972   -7.0182756    300.74537  0.026188207  0.026300249            6 
  958000   0.87791612   -6.9788039    300.36211  0.026127532  0.026281701           13 
  959000   0.89037574   -6.9937735    300.02818  0.026071271  0.026263271            2 
  960000   0.87947947   -6.9985909    301.04041   0.02613198  0.026244815            6 
  961000   0.86736983   -6.9930072    301.16277  0.026115398  0.026226423            8 
  962000   0.84311181   -7.0086806    301.05603  0.026079005  0.026208076            3 
  963000   0.85278012   -7.0068327    301.64167  0.026102602  0.026189807            3 
  964000   0.87011317   -7.0321763     300.9966  0.026019762  0.026171382            3 
  965000   0.85685351    -7.011499    301.61149  0.026045897  0.026153064            5 
  966000   0.86386008     -7.03021    301.55193  0.026013797  0.026134806            7 
  967000   0.86771653   -7.0393925    301.63243  0.025993832   0.02611653            2 
  968000   0.86280151   -7.0208573    302.02733  0.026000976  0.026098352            5 
  969000   0.86560311   -7.0039619    302.71361  0.026033162  0.026080196            6 
  970000   0.87441255   -7.0094452    302.83755  0.026016971  0.026062182            7 
  971000   0.86714894   -7.0108342    302.85272   0.02599148  0.026044152            5 
  972000   0.87534311   -7.0083708    303.92656  0.026056804  0.026026397            4 
  973000   0.86583857   -7.0324562    303.03109  0.025953331  0.026008589            7 
  974000   0.86808063   -7.0389295    302.45512  0.025877406  0.025990718            8 
  975000    0.8788525   -7.0248457    303.34274  0.025926729  0.025972734            5 
  976000   0.85785278    -7.012118    303.56363  0.025919025  0.025954786            8 
  977000    0.8894503   -7.0094738      303.761  0.025909332   0.02593684            5 
  978000   0.86627235   -7.0450617    303.50266  0.025860826  0.025918927            9 
  979000   0.87246984   -7.0024461    304.37938  0.025909038  0.025901058            7 
  980000   0.84721017    -7.003902    303.77048  0.025830823  0.025883245            5 
  981000   0.84335397   -7.0543067    303.62211  0.025791888  0.025865336           12 
  982000   0.85723842   -7.0449674    304.12972    0.0258087  0.025847391            5 
  983000   0.85387951   -7.0031158    305.26176  0.025878413  0.025829648            6 
  984000   0.87070349    -7.006086    305.66542  0.025886299  0.025812012            5 
  985000   0.85086362   -7.0345177    305.24374  0.025824344  0.025794338            9 
  986000   0.87506411   -7.0274592    304.69089  0.025751427  0.025776574            3 
  987000   0.83157914   -7.0242737    305.65225  0.025806506  0.025758833            6 
  988000   0.84210643   -7.0622012    304.45985  0.025679812  0.025741028            4 
  989000   0.84144469   -7.0768177    304.18671  0.025630831  0.025723056            8 
  990000   0.86016462   -7.0169203    305.29504  0.025698236  0.025705184            6 
  991000   0.85762096   -7.0018852    304.96256  0.025644346  0.025687446            8 
  992000    0.8475554   -7.0252221     305.5081  0.025664323  0.025669846            5 
  993000   0.87969876   -7.0336737    305.45741  0.025634224  0.025652135            3 
  994000    0.8615745   -7.0320184     305.7414  0.025632244   0.02563432           10 
  995000   0.84364638    -7.054928    305.18581   0.02555995  0.025616412            4 
  996000   0.86364657   -7.0518463    305.04691  0.025522667  0.025598468            5 
  997000   0.84651511   -7.0478747    306.31929  0.025603418  0.025580571            4 
  998000   0.87160372   -7.0753724    305.72103  0.025527808  0.025562713            5 
  999000   0.86865572   -7.0489328    305.26625  0.025464318  0.025544839            5 
 1000000   0.86572584   -6.9999092     306.9071  0.025575591  0.025527134            4 
 1001000   0.85362715   -7.0636879     306.8662  0.025546637   0.02550959            4 
 1002000    0.8456819   -7.0545801    307.11251  0.025541626  0.025492028           17 
 1003000    0.8666833   -7.0467306    307.83128  0.025575879  0.025474748            7 
 1004000   0.86613738   -7.0737575    306.09076   0.02540594  0.025457311            7 
 1005000   0.84901982   -7.0581346    306.77733   0.02543759  0.025439599            6 
 1006000   0.84786339   -7.0758224    306.21055  0.025365354  0.025421763            7 
 1007000   0.86605549   -7.0425578    307.35922  0.025435222   0.02540425            4 
 1008000   0.84621467   -7.0693452    307.20508  0.025397245   0.02538683            7 
 1009000   0.86000489   -7.0468703    307.60408  0.025405028  0.025369416            3 
 1010000   0.86392015   -7.0420112     307.6188  0.025381089  0.025352053            7 
 1011000   0.84218421   -7.0536688    308.33297  0.025414851  0.025334748            3 
 1012000   0.86416212   -7.0564886     308.1584  0.025375363  0.025317466            4 
 1013000   0.84193644   -7.0327639    308.48016  0.025376782  0.025299998            8 
 1014000   0.85782442   -7.0765273    307.88679   0.02530299  0.025282518            5 
 1015000   0.83691615   -7.0538906    308.85967  0.025357937  0.025265227            4 
 1016000   0.84963114   -7.0234243    307.69867  0.025237752  0.025247762            5 
 1017000   0.83488698   -7.0852257    307.58007  0.025203218  0.025230317            5 
 1018000   0.83357752   -7.0593162    308.65765  0.025266671  0.025212747            6 
 1019000   0.85458118   -7.0463058    308.79078  0.025252763  0.025195322            5 
 1020000   0.83589615      -7.0537    308.63556  0.025215323  0.025178073            7 
 1021000     0.843574   -7.0460968    309.29938  0.025244808  0.025160763            7 
 1022000   0.85530858    -7.031434     309.3447  0.025223801  0.025143435            3 
 1023000   0.85424155   -7.0376735    308.95911  0.025167735  0.025126082            6 
 1024000   0.85658666   -7.0347786    309.43512  0.025181895  0.025108747            4 
 1025000   0.85043855    -7.050454    310.15201  0.025215611  0.025091432            7 
 1026000   0.84733684   -7.0497066    309.22411  0.025115669  0.025074157            4 
 1027000   0.82537644   -7.0238934    310.27246  0.025176279  0.025056858            6 
 1028000   0.85976621   -7.0450031    309.76339  0.025110521  0.025039533            5 
 1029000   0.83912493   -7.0503887    309.50642  0.025065307   0.02502205           18 
 1030000   0.84019064   -7.1102999    308.57528  0.024965638  0.025004362            6 
 1031000   0.84901629   -7.0699508    309.16311  0.024988935  0.024986732            3 
 1032000   0.83411547   -7.0871144    309.87239  0.025021995  0.024969229            5 
 1033000   0.82919051    -7.103634    309.44392  0.024963207   0.02495168           14 
 1034000   0.84956985   -7.0536477    310.05436  0.024988263  0.024934126           15 
 1035000   0.82763852   -7.0403207    309.82795   0.02494589  0.024916762            6 
 1036000   0.83217659   -7.0562835    310.66235  0.024988928  0.024899429            3 
 1037000   0.83304061   -7.0588934    311.00974  0.024992747  0.024882066           15 
 1038000   0.84845665   -7.0507946    311.11891  0.024977433  0.024864922            8 
 1039000   0.85610082   -7.0916277      311.171  0.024957571  0.024847899            7 
 1040000   0.83908951   -7.1046777    311.17183   0.02493364  0.024830731            4 
 1041000   0.83302334   -7.1067497    312.09707  0.024983755  0.024813652           10 
 1042000   0.84562292    -7.072713    310.75706  0.024852612  0.024796542            7 
 1043000   0.81778361   -7.0715829    311.78414  0.024910845  0.024779409           13 
 1044000   0.84406359    -7.089054    311.73084   0.02488273  0.024762245            2 
 1045000   0.85815111   -7.1045662    311.48984    0.0248397  0.024745149            9 
 1046000   0.84284196   -7.0969334    311.47813   0.02481502  0.024728089            6 
 1047000   0.81741637   -7.0704482    311.11542   0.02476245  0.024710908            8 
 1048000   0.82414171    -7.047051     311.6944   0.02478486  0.024693724            4 
 1049000   0.82985013   -7.0710517     311.2365  0.024724857  0.024676561            6 
 1050000   0.82039283   -7.0627299    311.76533   0.02474328  0.024659434            3 
 1051000   0.83868692   -7.0702275    311.86625  0.024727739  0.024642446            5 
 1052000   0.84337147   -7.0874128    312.31506  0.024739786  0.024625381            3 
 1053000   0.83745141   -7.0843305    312.50439  0.024731275  0.024608259           10 
 1054000   0.82568105   -7.0649106    312.97312  0.024744871  0.024591194            6 
 1055000    0.8289305   -7.0817256    312.84877  0.024711593  0.024574127            5 
 1056000   0.83225538    -7.061199    312.81572  0.024685584  0.024557119            2 
 1057000   0.83301049   -7.1036594    312.37655  0.024627606  0.024539945            8 
 1058000   0.82624038   -7.0793342    312.18165  0.024588977  0.024522754            4 
 1059000   0.84033249   -7.0602977    312.94924   0.02462616   0.02450568            3 
 1060000   0.83110138   -7.0964752    311.96178  0.024525297  0.024488427            4 
 1061000   0.83428635   -7.0655926     312.7607  0.024564931  0.024471226            8 
 1062000   0.81813644    -7.125434    312.66456  0.024534256  0.024453962            7 
 1063000   0.83310905   -7.1210348    312.35493  0.024486903   0.02443678            7 
 1064000   0.81700811   -7.0637565    313.17176  0.024527863  0.024419614           11 
 1065000   0.82866847   -7.0494973    312.81898  0.024477228  0.024402565            9 
 1066000   0.84207068   -7.1006563    312.43952  0.024424603  0.024385424            4 
 1067000   0.82197253   -7.1122343    314.17834  0.024537515  0.024368303            3 
 1068000   0.83515243    -7.088826    313.82647  0.024487084   0.02435123            3 
 1069000   0.81724003   -7.1300985     314.0859  0.024484401  0.024334053            8 
 1070000   0.83564956   -7.1245865    313.23946  0.024395597  0.024316885            5 
 1071000   0.81441067   -7.0792448    314.16099  0.024444521  0.024299884           11 
 1072000   0.83486575   -7.0834656     314.1856  0.024423632  0.024282945            7 
 1073000   0.80505173   -7.1289193    313.89958  0.024378656  0.024265925            4 
 1074000   0.81609553   -7.0879604        313.9   0.02435599  0.024248958           14 
 1075000   0.82850132   -7.1214432    314.39753  0.024371902  0.024231967           14 
 1076000   0.82868058   -7.1187966    314.58389  0.024363684  0.024214946           12 
 1077000   0.81618659    -7.106261    314.67603  0.024348191  0.024197971            9 
 1078000   0.82975708   -7.1137719    314.54139  0.024315197   0.02418103            8 
 1079000   0.82086591   -7.0874346    314.20578  0.024266742   0.02416403            7 
 1080000   0.81832483   -7.0881125    314.40204  0.024259417  0.024146977            3 
 1081000   0.80893881   -7.0938242    314.31149  0.024229995  0.024129907            5 
 1082000   0.82728626   -7.0747471    315.18869  0.024275161   0.02411293            6 
 1083000    0.8265068    -7.085805    315.05527   0.02424248   0.02409612            9 
 1084000   0.83620818   -7.1141158    314.89882  0.024208089  0.024079261           13 
 1085000   0.83015843   -7.1368978    314.87641  0.024184056  0.024062284            9 
 1086000   0.83297445   -7.1081658     315.0266  0.024173312  0.024045299            4 
 1087000   0.83506722   -7.1239677    314.47007  0.024108408  0.024028401            3 
 1088000   0.81429358   -7.1450119    315.38173  0.024156076  0.024011404            6 
 1089000   0.83457333   -7.1442921    314.66941  0.024079385  0.023994398            5 
 1090000   0.80781244   -7.1513441    315.41721  0.024114466  0.023977395            6 
 1091000   0.82266761   -7.1120189    315.71836  0.024115365  0.023960537            8 
 1092000   0.81000479   -7.1178983    315.45934  0.024073515  0.023943737            5 
 1093000   0.82328722   -7.1243476    315.58355   0.02406096  0.023926884            6 
 1094000   0.80576202   -7.1001081     316.5344  0.024111395   0.02391011            6 
 1095000   0.80404404    -7.135922    316.18721  0.024062953  0.023893385            8 
 1096000    0.8089483   -7.1120732    317.35175  0.024129543  0.023876693           10 
 1097000   0.82074714   -7.1361446    316.66632  0.024055478  0.023860145            6 
 1098000   0.83232261   -7.1349682     317.1911  0.024073398  0.023843551            5 
 1099000   0.82515067     -7.11419     316.5845  0.024005498  0.023826957           10 
 1100000   0.82305766   -7.1360464    316.90668  0.024008082  0.023810374            2 
 1101000   0.82332914   -7.1144247    317.34384  0.024019365  0.023793843            3 
 1102000   0.79964928   -7.1418318    316.78792  0.023955529  0.023777337            3 
 1103000   0.81617461   -7.1285375    317.77783    0.0240086  0.023760904           10 
 1104000    0.8006666    -7.112824    317.63134  0.023975796  0.023744487           13 
 1105000   0.81271225   -7.1505111    317.98376  0.023980676  0.023728083            6 
 1106000   0.81149056   -7.1217573    318.09712  0.023967535  0.023711838           14 
 1107000   0.79963195   -7.1391589    318.13202  0.023948511  0.023695587           13 
 1108000   0.80568945   -7.1334107    318.43107  0.023949389   0.02367931            7 
 1109000   0.82689562   -7.1401841    317.81024  0.023881142  0.023662957            6 
 1110000   0.79764773   -7.1294416     318.8131  0.023934917  0.023646694            4 
 1111000   0.79048582   -7.1359349    318.62842  0.023899521  0.023630348            6 
 1112000   0.80888769   -7.1572346    317.32529  0.023780373  0.023613934            5 
 1113000   0.81117609   -7.1557423    318.53688  0.023849722  0.023597546            6 
 1114000   0.77671837   -7.1272918    319.06748  0.023868004  0.023581324            6 
 1115000   0.79287034   -7.1160779     318.9761  0.023839768  0.023565116            6 
 1116000   0.80518505   -7.1510203    318.98634  0.023819171  0.023548836            5 
 1117000   0.78438937   -7.1507129    318.48834  0.023760693  0.023532398            7 
 1118000   0.82787817   -7.1370419    318.98233  0.023776262  0.023515971           10 
 1119000   0.81661341   -7.1573533    318.14905  0.023692958  0.023499465            5 
 1120000   0.79760825   -7.1324214    318.56454  0.023702719  0.023482933            6 
 1121000    0.8183041   -7.1392669    318.56646  0.023681717  0.023466466           10 
 1122000   0.80648714   -7.1548034    318.53786  0.023658486  0.023449902           11 
 1123000   0.79026677   -7.1344961    318.26748  0.023617355  0.023433245           11 
 1124000   0.79679356   -7.1470887    318.32396  0.023600531  0.023416611            5 
 1125000   0.79827469   -7.1555989    318.99778  0.023629465  0.023400124           12 
 1126000   0.79610325   -7.1439004    318.44446   0.02356753  0.023383543            7 
 1127000   0.79706168   -7.1317693    319.60699  0.023632578  0.023367115            7 
 1128000   0.80016251   -7.1836275    319.22455  0.023583374  0.023350716            6 
 1129000   0.80559743   -7.1450133     319.2939  0.023567604  0.023334324            4 
 1130000   0.80807241   -7.1534779    319.53785  0.023564738  0.023318051            8 
 1131000   0.80117161   -7.1502711    319.46521  0.023538551    0.0233016            8 
 1132000   0.80331177   -7.1259261     320.1642  0.023569213  0.023285288           11 
 1133000   0.81880351   -7.1467341    319.42472  0.023494022  0.023268966           10 
 1134000    0.8097452   -7.1406572    319.14766  0.023452944  0.023252544            6 
 1135000   0.80943714   -7.1525006    318.75047  0.023403118  0.023236172            7 
 1136000   0.79724143   -7.1679043    319.30563  0.023423242  0.023219749           10 
 1137000   0.79834927   -7.1412729    320.48799  0.023489298  0.023203428            5 
 1138000   0.78057408   -7.1677596    319.08543  0.023365952  0.023187093            7 
 1139000   0.81194557   -7.1449469    319.81847  0.023399069  0.023170675            3 
 1140000   0.78798686   -7.1460812    320.88461  0.023456477  0.023154426            7 
 1141000   0.79385946    -7.220679    320.16232  0.023383167  0.023138015           11 
 1142000   0.78006548   -7.1700185    319.76995  0.023334059  0.023121555           10 
 1143000   0.79513066   -7.1652771    319.96517  0.023327877  0.023105136            9 
 1144000   0.80004512   -7.1691316    320.33895  0.023334713  0.023088831            9 
 1145000   0.79609528   -7.1799521    320.61775  0.023334625  0.023072458           15 
 1146000   0.80201315   -7.1767466    320.60662  0.023313454  0.023056011            5 
 1147000   0.80075651   -7.1821183    320.53426  0.023287871   0.02303964            5 
 1148000   0.77263764   -7.1842378    321.08168  0.023307323  0.023023269            6 
 1149000   0.79996889   -7.1798055    319.89417  0.023200912   0.02300683            6 
 1150000   0.79749738   -7.1847293    320.13738  0.023198361  0.022990323            7 
 1151000   0.81173352   -7.1786126    319.60161  0.023139416  0.022973845           11 
 1152000   0.78891578   -7.1673528    321.14096  0.023230683  0.022957437            5 
 1153000   0.80525673   -7.1983665    320.81547   0.02318701  0.022940984            7 
 1154000   0.80624716   -7.1814254    321.21613   0.02319585  0.022924548            4 
 1155000    0.7808872   -7.1748647    320.43842  0.023119655  0.022908112            9 
 1156000   0.79242649   -7.1886138    320.90011  0.023132938  0.022891727           13 
 1157000   0.76966286   -7.1600357    321.63737  0.023166045  0.022875391            4 
 1158000   0.78160559   -7.1370436    321.48855  0.023135331  0.022859226            5 
 1159000   0.77337282   -7.1870545    321.25791  0.023098786  0.022843014            8 
 1160000   0.78354294   -7.1818738    321.36771   0.02308676  0.022826787           13 
 1161000   0.77138525   -7.1880222    320.30937  0.022990911  0.022810528            7 
 1162000   0.80833132   -7.1728372    321.32036  0.023043629  0.022794231           17 
 1163000   0.79332788    -7.147214    321.39257  0.023028989  0.022777966            9 
 1164000   0.79542015   -7.1733334    321.17407  0.022993562  0.022761714            5 
 1165000   0.78933235   -7.1792068    321.58134  0.023002957  0.022745364           10 
 1166000   0.77821689   -7.1804629    321.84927  0.023002378  0.022729046            4 
 1167000   0.78854536   -7.2089095    320.77444  0.022905915  0.022712623           11 
 1168000   0.78686744   -7.1685477    321.12506   0.02291132  0.022696195            6 
 1169000   0.78963699   -7.1933015    321.99274  0.022953574  0.022679871            7 
 1170000   0.77531246   -7.2002099    321.64157  0.022908944  0.022663513            8 
 1171000   0.81016166     -7.20211    321.51119  0.022880102  0.022647051            5 
 1172000    0.7795812   -7.2192741    321.15007  0.022834903  0.022630603            8 
 1173000   0.78837699   -7.1985308    321.83925  0.022864397  0.022614188            8 
 1174000    0.7763764   -7.1951749    321.15793  0.022796559  0.022597868            5 
 1175000   0.79908428   -7.1807529     321.2241  0.022781851  0.022581552           11 
 1176000   0.78795843   -7.1911874    321.25604  0.022764742  0.022565166            5 
 1177000   0.78585459   -7.1880128    322.34574  0.022822553  0.022548881            8 
 1178000   0.78513137   -7.1872873    322.43222  0.022809297  0.022532558           22 
 1179000    0.7819948   -7.2268223    322.06141  0.022763741  0.022516193            4 
 1180000   0.78800076   -7.1909119    321.90198  0.022733191  0.022499917            9 
 1181000   0.78741898   -7.1826245    322.26897  0.022739837   0.02248353            9 
 1182000   0.79679225   -7.1808862    322.37556  0.022728114  0.022467203           23 
 1183000   0.78660361   -7.2005879     321.5927  0.022653754  0.022450899            3 
 1184000   0.78234961   -7.2073652    321.98583  0.022662291  0.022434559            4 
 1185000   0.79834102   -7.2142651    322.01457  0.022645188  0.022418156           11 
 1186000   0.80333077   -7.1986917    321.22986  0.022570957  0.022401763            5 
 1187000   0.77164825   -7.2079781    322.26324   0.02262449  0.022385362           13 
 1188000   0.78594877   -7.2088721    322.20627   0.02260145  0.022369078            9 
 1189000   0.79195091   -7.2013589    322.97793  0.022636525  0.022352871            5 
 1190000   0.77723802   -7.1670696    322.73202  0.022600281   0.02233669            7 
 1191000   0.77178563   -7.1931083    323.56329  0.022639469  0.022320487           13 
 1192000   0.77313324   -7.2177879    322.17304  0.022523283  0.022304278           10 
 1193000   0.77421054   -7.2018194    323.06118  0.022566442  0.022287984           10 
 1194000   0.77911418   -7.2079426    323.11054  0.022550987  0.022271868            5 
 1195000   0.78295546   -7.1757651    323.49135  0.022558672   0.02225573            7 
 1196000   0.77679422   -7.2266079    323.22819  0.022521473  0.022239612            7 
 1197000   0.77859313   -7.2410536    322.74335  0.022468905  0.022223488           16 
 1198000   0.77625668   -7.2343361     322.8829  0.022459857  0.022207317            7 
 1199000   0.77629384   -7.2478471    322.99588  0.022448977   0.02219115            4 
 1200000   0.76201472   -7.2194794    322.59865  0.022402684  0.022174904            7 
 1201000   0.75666226   -7.2244722     323.1574  0.022422801  0.022158635            3 
 1202000   0.78051251   -7.2081691    323.28253  0.022412821  0.022142456            7 
 1203000   0.77367037   -7.2164783    324.33945  0.022467404  0.022126368            6 
 1204000   0.78888809   -7.1818358    323.86175  0.022415681  0.022110362            7 
 1205000   0.78521236   -7.1880216     324.0467  0.022409869  0.022094406            4 
 1206000   0.76513416   -7.2088444    324.27644  0.022407162   0.02207852            9 
 1207000   0.77992672   -7.2062384    324.92743  0.022433542  0.022062562            6 
 1208000   0.78834264   -7.2107282    323.84116  0.022340036   0.02204652            5 
 1209000   0.76449067   -7.2262089    323.65932  0.022309024  0.022030405           14 
 1210000   0.76244449    -7.217938    323.80177  0.022300397  0.022014343            7 
 1211000   0.76720735   -7.2057643     323.6799  0.022273596  0.021998232           18 
 1212000   0.77904931    -7.222531    323.15557  0.022219167  0.021982176            7 
 1213000    0.7700772   -7.2069455    323.80673  0.022245585  0.021966175           14 
 1214000    0.7475961   -7.2150943     324.8831  0.022301146  0.021950217           10 
 1215000   0.77373869   -7.1965002    323.90585  0.022215765  0.021934275            7 
 1216000   0.76849655   -7.1844112    323.86396  0.022194624  0.021918256            6 
 1217000   0.76433038     -7.21758     324.1965  0.022199158  0.021902178            8 
 1218000   0.77997872   -7.2322458    324.34186  0.022190877  0.021886114           16 
 1219000   0.76519861   -7.2404688    323.55224  0.022118693  0.021870025           25 
 1220000   0.77506617   -7.2489561    324.03474  0.022133521  0.021853892           11 
 1221000   0.74913259   -7.2147958    323.71587   0.02209363  0.021837838            7 
 1222000   0.77466874   -7.2509882    324.12456  0.022103421  0.021821679            3 
 1223000   0.75455957   -7.2382361    324.82846   0.02213331  0.021805589            9 
 1224000   0.76650631   -7.2167096    324.29666  0.022079021  0.021789496            6 
 1225000   0.77977955   -7.2394575    324.22512  0.022056131  0.021773433            9 
 1226000   0.75746452   -7.2328831    324.17526  0.022034751  0.021757296            9 
 1227000   0.77237436   -7.2464446    324.47684  0.022037275  0.021741291           12 
 1228000   0.74767575   -7.2278375    324.02523  0.021988683  0.021725284            4 
 1229000    0.7587557   -7.2684052     324.7229  0.022018098  0.021709253            6 
 1230000   0.75496179   -7.2654424    324.62354  0.021993465  0.021693193           11 
 1231000   0.74973797   -7.2322203    324.36033   0.02195778  0.021677033            9 
 1232000    0.7556424   -7.2603567    324.30592  0.021936277  0.021661025            7 
 1233000   0.74668064   -7.2245355    324.91473  0.021959633  0.021645065            7 
 1234000   0.76312881   -7.2265687    325.37979  0.021973244  0.021629074            5 
 1235000   0.78842631   -7.2130775    324.13858  0.021871699  0.021613098            9 
 1236000   0.74362783    -7.240912    325.70086  0.021959335  0.021597193            8 
 1237000   0.76677404   -7.2676847    324.97674  0.021892801   0.02158124           10 
 1238000   0.76738693    -7.243143    324.39487   0.02183595  0.021565184           10 
 1239000    0.7520636   -7.2305594    323.98821  0.021790974  0.021549141           11 
 1240000   0.76785385   -7.2488905    324.49701  0.021807595  0.021533113           13 
 1241000   0.76607018   -7.2634876    324.70188  0.021803779  0.021517121           10 
 1242000   0.75648393   -7.2534446    325.13419   0.02181523  0.021501107           11 
 1243000   0.75617813    -7.237443    324.97222  0.021786821  0.021485152           12 
 1244000   0.74836939   -7.2368913    325.37643  0.021796384  0.021469132            7 
 1245000   0.74963837    -7.257284     324.7599   0.02173761  0.021453146            8 
 1246000    0.7558592   -7.2495123    325.67272  0.021781214  0.021437135           21 
 1247000    0.7591677   -7.2618635    324.50273   0.02168556  0.021421162           12 
 1248000   0.78202449    -7.263177    324.48771  0.021667182  0.021405119           14 
 1249000   0.75422188   -7.2513922     325.2313  0.021699446  0.021389063            8 
 1250000   0.76748008   -7.2439453    325.11038  0.021674025  0.021373064            9 
 1251000   0.76145952   -7.2589357    325.07774  0.021654526  0.021357042            7 
 1252000   0.75631078   -7.2532535    324.77025  0.021616763  0.021340989           13 
 1253000   0.75370747   -7.2459295     324.6047  0.021588501  0.021324987            8 
 1254000   0.75983401   -7.2705831    325.04451  0.021600512  0.021308965           15 
 1255000   0.75524284   -7.2532267    325.64706  0.021623311  0.021293001           11 
 1256000   0.75992033   -7.2593906     325.2373  0.021578908  0.021276949           11 
 1257000   0.75632953    -7.248238    325.37569  0.021570916  0.021260951           10 
 1258000   0.74649353   -7.2437689    325.79801  0.021581744  0.021244984           11 
 1259000   0.76539634   -7.2762826    324.75428  0.021495518  0.021229074            5 
 1260000   0.73514672    -7.251309     325.4885  0.021527017  0.021213099            3 
 1261000   0.76118124   -7.2638478    325.75148  0.021527325   0.02119714            3 
 1262000   0.73654023   -7.2682068    325.71964  0.021508164  0.021181205            5 
 1263000   0.73156545    -7.249336    325.25921  0.021460755  0.021165266           11 
 1264000   0.74240081   -7.2598924    325.64889  0.021469468  0.021149295            7 
 1265000    0.7563858   -7.2619391    324.68619  0.021389077  0.021133335            6 
 1266000   0.74420603   -7.2571603    325.48537  0.021424787  0.021117401            8 
 1267000   0.75786466   -7.2534799    325.92871  0.021437037  0.021101459           12 
 1268000   0.75014476    -7.277459    325.91618  0.021419307  0.021085526            5 
 1269000   0.76834894   -7.2878027    325.36159  0.021366009  0.021069568            5 
 1270000   0.75330362    -7.286268    325.53772  0.021360743  0.021053618            3 
 1271000   0.75535988   -7.2641948     325.7977  0.021360982  0.021037716            4 
 1272000    0.7464781   -7.2783695    325.86107   0.02134834  0.021021737            8 
 1273000   0.73761828   -7.2532908    325.68724  0.021320191  0.021005755            9 
 1274000   0.75251064   -7.2828142    325.92594   0.02131907  0.020989776           27 
 1275000   0.74711138   -7.2775528     325.6259  0.021282738  0.020973858            8 
 1276000   0.74220366   -7.2563463     325.3463  0.021247799  0.020957997           12 
 1277000   0.73809273    -7.278561    325.57086  0.021245814  0.020942161            7 
 1278000   0.74307326   -7.2808606    326.32895  0.021278622  0.020926304            5 
 1279000   0.74572409   -7.2720899    326.22706  0.021255347  0.020910456            5 
 1280000    0.7396715    -7.255926    326.78313  0.021274944  0.020894668            5 
 1281000   0.74254364   -7.2747046     326.0757  0.021212315  0.020878908            8 
 1282000   0.74334859   -7.3082835    325.52581  0.021160024  0.020863093            9 
 1283000   0.74615289   -7.2931817    326.38887  0.021199589  0.020847282            9 
 1284000   0.73275038   -7.2788459    326.20466  0.021171123  0.020831423           14 
 1285000   0.75303631   -7.2971182      325.745  0.021124838  0.020815588            7 
 1286000   0.74327508   -7.2760657    326.55067  0.021160619  0.020799788           12 
 1287000   0.74310498   -7.2962761     326.3473  0.021131009  0.020784046            7 
 1288000   0.75249498   -7.2946383    326.02424  0.021093701  0.020768274            5 
 1289000   0.73527055   -7.2522645    326.62348  0.021116077  0.020752507            8 
 1290000   0.75050528   -7.2909942    325.94631  0.021055963  0.020736765           14 
 1291000   0.74320382   -7.3151578    326.51787  0.021076547   0.02072101           15 
 1292000    0.7276649   -7.2859532     326.4495  0.021055825  0.020705303            9 
 1293000   0.71603646   -7.3025912    326.53218  0.021044868  0.020689535            7 
 1294000   0.73020817   -7.3094094    326.20573  0.021007582  0.020673784           15 
 1295000   0.74472583    -7.295216    326.44184  0.021006553  0.020658097           10 
 1296000   0.73296796   -7.2984045     327.0965  0.021032439  0.020642434            6 
 1297000   0.74402348   -7.2720081     326.8454   0.02100009  0.020626791           14 
 1298000   0.73684379   -7.2912929     326.3509  0.020952164  0.020611145           12 
 1299000   0.73380448   -7.2934973    326.68766  0.020957638  0.020595405            9 
 1300000   0.73072675   -7.3106265    326.95914  0.020958919  0.020579688           22 
 1301000   0.72212282   -7.3095196    326.53143  0.020915413  0.020563988            6 
 1302000   0.74211337   -7.3019872    327.26962  0.020946596  0.020548308           20 
 1303000   0.74348068   -7.3126645    327.16159  0.020923611  0.020532637           14 
 1304000   0.73095283   -7.3048073    326.57431  0.020870035  0.020516944           10 
 1305000   0.74325048   -7.3215333    327.34783  0.020903437  0.020501272            5 
 1306000   0.74304936    -7.322566    326.76522  0.020850256  0.020485649           12 
 1307000   0.70643123   -7.3133805    327.36242  0.020872381  0.020469987            8 
 1308000   0.73825149   -7.3107154    327.11732  0.020840808  0.020454386           11 
 1309000   0.73068516   -7.3130582    326.97846  0.020816046  0.020438813            9 
 1310000   0.74517216   -7.3346233    327.06426  0.020805614  0.020423221            9 
 1311000   0.74400472    -7.319438     327.4541  0.020814525  0.020407668            7 
 1312000   0.74273708   -7.3097979    327.05213  0.020773128  0.020392149            6 
 1313000   0.73700051   -7.3243692     327.7892  0.020804087  0.020376652            9 
 1314000   0.71881556   -7.3367454    327.72727  0.020784327  0.020361167            9 
 1315000   0.73697308   -7.3466969     326.9581  0.020719778  0.020345672           13 
 1316000   0.74283853   -7.3269035    327.68878  0.020750303  0.020330163           15 
 1317000   0.73168317   -7.3524884    328.15831  0.020764256  0.020314706           20 
 1318000   0.72306799   -7.2981866    328.47126  0.020768289  0.020299427           15 
 1319000   0.73412643   -7.2794041    328.34146  0.020744343  0.020284145           13 
 1320000   0.72381365   -7.3199082    327.71152  0.020688859  0.020268833           10 
 1321000   0.73203919   -7.3302281    327.93016   0.02068699  0.020253544           14 
 1322000   0.72678406   -7.3278262    327.51179  0.020644969  0.020238221           10 
 1323000   0.72555552   -7.3340797    328.51126  0.020692319  0.020222924            8 
 1324000   0.73015185   -7.3254163    328.16051  0.020654614  0.020207596           11 
 1325000   0.72393028   -7.3268832    327.76141  0.020613925  0.020192251            3 
 1326000   0.71661944   -7.3239662    328.22648  0.020627607  0.020177002           10 
 1327000   0.72762652    -7.287426    328.59699  0.020635329  0.020161823            9 
 1328000   0.73731361   -7.3200365    328.32235  0.020602557  0.020146717            7 
 1329000   0.72418653   -7.3432762    327.91889  0.020561756  0.020131525           10 
 1330000   0.71723274   -7.3167746    328.31089  0.020570858  0.020116321            4 
 1331000   0.72057936   -7.3339959    328.36741  0.020558941  0.020101179            8 
 1332000   0.72720849   -7.3169649    328.93548  0.020579047  0.020086046            7 
 1333000   0.72381404   -7.3209621     329.1643  0.020577913  0.020070972           11 
 1334000   0.70778751   -7.3274733    328.43806   0.02051712  0.020055878           10 
 1335000   0.72872702   -7.3362433    329.08747  0.020542289  0.020040809            6 
 1336000   0.70431963   -7.3328123    328.75058  0.020505899  0.020025715           11 
 1337000   0.71853721   -7.3512531    328.71628  0.020488425  0.020010614            5 
 1338000   0.73274158   -7.3423306    328.27746  0.020445781  0.019995541            8 
 1339000   0.70779863   -7.3159766     329.0439  0.020478211  0.019980509           12 
 1340000   0.72529268   -7.3092609    329.67008  0.020501871  0.019965535            4 
 1341000   0.72396492   -7.3336847    329.17834  0.020456024  0.019950554           12 
 1342000   0.72440325   -7.3239338    328.99133  0.020429169  0.019935524           28 
 1343000   0.72602885   -7.3348903    328.58847   0.02038896  0.019920472           26 
 1344000   0.70884072   -7.3518885    329.25589  0.020415172  0.019905454           14 
 1345000   0.72057206   -7.3415217    329.89172  0.020439388  0.019890463            6 
 1346000   0.71502667   -7.3203023    329.68115  0.020411166  0.019875465           14 
 1347000   0.71387778   -7.3500814    329.34255  0.020375065  0.019860485            8 
 1348000   0.72019888   -7.3498196    329.14133  0.020347511  0.019845462            6 
 1349000   0.71069694   -7.3503626    329.28146  0.020341083  0.019830413            7 
 1350000   0.72185833   -7.3469644    329.10214  0.020314947  0.019815409           10 
 1351000   0.69608967   -7.3224339     329.1788  0.020304638  0.019800362            6 
 1352000   0.70428448    -7.339971     329.0196  0.020279808  0.019785411            6 
 1353000   0.71048287   -7.3576719     329.8324  0.020314881  0.019770488            7 
 1354000   0.71745753   -7.3532977    329.60648  0.020285973  0.019755573            6 
 1355000   0.70166393   -7.3676541    329.37172  0.020256563  0.019740619            6 
 1356000     0.722033   -7.3830759    329.46043  0.020247077  0.019725587            8 
 1357000   0.71051506   -7.3760005    328.88041  0.020196537  0.019710669           12 
 1358000   0.69689305    -7.347078    329.48509  0.020218771  0.019695759            8 
 1359000   0.70912785   -7.3465145    329.14135  0.020182815  0.019680878           11 
 1360000   0.72438025   -7.3598869    329.64497  0.020198834  0.019665916           10 
 1361000   0.70808815   -7.3533324    329.62031  0.020182483  0.019650957            7 
 1362000   0.71837477   -7.3624186    329.24379  0.020144628  0.019636037           13 
 1363000   0.70631636   -7.3296019    329.42773  0.020141094  0.019621105            7 
 1364000   0.71177786    -7.350967    329.18615  0.020111568  0.019606262            9 
 1365000   0.70941494    -7.364488    329.91653  0.020141424  0.019591321            4 
 1366000   0.70544012   -7.3363092    329.77394  0.020117981  0.019576453           12 
 1367000   0.69350568   -7.3359703    329.12112  0.020063468  0.019561653            7 
 1368000   0.73250488   -7.3505152    329.79948  0.020090124  0.019546847            9 
 1369000   0.69739431   -7.3626347    330.85042  0.020139422  0.019532059           16 
 1370000   0.69114322   -7.3532825      330.134  0.020081144  0.019517281            4 
 1371000    0.7044468   -7.3432378    330.07333  0.020062809   0.01950244           12 
 1372000   0.70604133   -7.3625063    329.28848  0.020000515  0.019487632            8 
 1373000   0.70134121   -7.3397611    330.23834  0.020043599   0.01947283            4 
 1374000   0.71529924   -7.3715169    329.92825  0.020010205  0.019458008           14 
 1375000   0.71121602   -7.3620444     329.2887  0.019956891  0.019443128            8 
 1376000   0.70911365   -7.3676979    329.19787  0.019936887  0.019428231            7 
 1377000   0.71180242   -7.3683963    329.01978  0.019911631  0.019413362           15 
 1378000   0.71098125    -7.341851    329.70493  0.019938615  0.019398471            8 
 1379000   0.69515866   -7.3865091     329.5807  0.019916649  0.019383582            7 
 1380000   0.71837586   -7.3575631    329.49178  0.019896847  0.019368694            7 
 1381000   0.69913252   -7.3516531    329.58096  0.019887821  0.019353848           15 
 1382000   0.70722278   -7.3838821    328.84389  0.019828985  0.019338997           11 
 1383000   0.70045059   -7.3653707    329.60182  0.019860317  0.019324147           11 
 1384000   0.71978037   -7.3554023    329.64414  0.019848515  0.019309293           16 
 1385000   0.70221236   -7.3873042    329.37803  0.019818172  0.019294423           11 
 1386000   0.68436889   -7.3598344    329.40748  0.019805645  0.019279556            6 
 1387000   0.71609174   -7.3835072    330.13049  0.019834805  0.019264733            6 
 1388000   0.70588132   -7.3800004    329.50208  0.019782786  0.019249928           11 
 1389000   0.69938416   -7.3541552    329.51238  0.019769161  0.019235159            6 
 1390000   0.70936572   -7.3673601    329.98371  0.019783196  0.019220365           12 
 1391000   0.70556477   -7.3650625    329.98298   0.01976893  0.019205573           11 
 1392000   0.71987327   -7.4122506    329.70352  0.019737998  0.019190751            8 
 1393000   0.69582872   -7.4037171    329.10295  0.019687901  0.019175892           17 
 1394000   0.68720471   -7.3978433    329.89764  0.019721284  0.019161077            6 
 1395000   0.70563187   -7.3854673    329.54976  0.019686366  0.019146263            7 
 1396000   0.70981002   -7.3931277    329.31095  0.019658008  0.019131483           11 
 1397000   0.70082571   -7.3948498    329.77043  0.019671345  0.019116742           10 
 1398000   0.69431926   -7.3989894    329.62284  0.019648477   0.01910202           16 
 1399000   0.67778939   -7.3908279    330.04328  0.019659476  0.019087322           15 
 1400000   0.70385297   -7.3793808    329.90108  0.019636969  0.019072611           12 
 1401000   0.72177886   -7.4054199    328.87895  0.019562155   0.01905789           23 
 1402000   0.69495364   -7.3960061     329.2434  0.019569864  0.019043146           12 
 1403000   0.69658459    -7.386447    330.07394  0.019605247  0.019028381            8 
 1404000   0.69540551   -7.4087642    328.80928   0.01951622  0.019013655           10 
 1405000   0.68631224   -7.3973457    329.56923  0.019547404  0.018998963           23 
 1406000     0.677891   -7.3893625    329.52608  0.019530944  0.018984301           15 
 1407000   0.70142402   -7.4079445    330.09525  0.019550773  0.018969706           11 
 1408000   0.68604966   -7.4045994     330.0093    0.0195318  0.018955079            9 
 1409000   0.68310494   -7.4222286    329.93798   0.01951372  0.018940487            7 
 1410000    0.6917178   -7.4102142    329.77185  0.019490062  0.018925867           12 
 1411000   0.67516814   -7.4146385    330.44749  0.019516153  0.018911311           10 
 1412000   0.67924415   -7.3846693    330.54492  0.019508081  0.018896769           10 
 1413000   0.70546979   -7.4000229    330.38408  0.019484789   0.01888221           16 
 1414000   0.68972011   -7.4085674    329.91011  0.019443076  0.018867646           17 
 1415000   0.69766357   -7.3708358    330.63895  0.019472259  0.018853054           12 
 1416000   0.67944454   -7.3927939    329.97991  0.019419721  0.018838543           20 
 1417000   0.69405584    -7.387783    329.73927  0.019391865   0.01882402           17 
 1418000   0.68015448   -7.3842987    330.18717  0.019404512  0.018809493           12 
 1419000   0.68498594   -7.3894981    330.29808   0.01939735  0.018794926           12 
 1420000   0.69217962   -7.3857182    329.80013  0.019354468  0.018780389           15 
 1421000   0.67479368   -7.4084584    330.05105  0.019355563  0.018765869           13 
 1422000   0.68189465   -7.4106583    330.31687  0.019357529  0.018751301           22 
 1423000   0.68529796    -7.415038    330.62095  0.019361733  0.018736775           14 
 1424000   0.68543875   -7.4135389    330.58376   0.01934596  0.018722249           17 
 1425000   0.68878046   -7.4065984    329.91164  0.019293079  0.018707761           15 
 1426000   0.67844273   -7.4024368    330.79957  0.019331438  0.018693277           10 
 1427000   0.68735642   -7.4072957    330.07708  0.019275699  0.018678799            9 
 1428000   0.68981029   -7.4233158    330.36183  0.019278818   0.01866435           29 
 1429000    0.6910868   -7.4257396    330.24024  0.019258237  0.018649895            9 
 1430000   0.68867415    -7.404468    329.55505   0.01920484  0.018635417            9 
 1431000   0.69113137   -7.4165197    329.61651  0.019194998  0.018620979           23 
 1432000   0.67506616   -7.4195352    330.21063  0.019216168  0.018606557           11 
 1433000   0.67915135   -7.4361197    330.79424  0.019236697  0.018592106            8 
 1434000   0.67928407   -7.4326485    330.19957  0.019188724    0.0185777            9 
 1435000   0.67109251   -7.4159432    330.25828  0.019178762  0.018563334           16 
 1436000   0.68172578   -7.4218589    330.66436  0.019188972  0.018548959           14 
 1437000   0.68027354    -7.432303    330.42317  0.019161631  0.018534637           11 
 1438000   0.67215154   -7.4064039    330.71102  0.019164987   0.01852031           13 
 1439000   0.67209358   -7.4352291    330.66735   0.01914914  0.018505998           12 
 1440000   0.67055592   -7.3841871    330.78076  0.019142405  0.018491703           17 
 1441000    0.6859689   -7.3902016    330.42429  0.019108506  0.018477454            9 
 1442000   0.67792366   -7.4270224    330.92156  0.019123992   0.01846323           21 
 1443000   0.68051522   -7.4036448    330.81566  0.019104623  0.018449014           12 
 1444000   0.67139598   -7.4278057    329.68823  0.019026329  0.018434745           17 
 1445000   0.68011943   -7.4264438    330.81589  0.019078195  0.018420445           14 
 1446000   0.67055347   -7.4450502    330.49644   0.01904659  0.018406131           20 
 1447000   0.68513369   -7.4273144     330.4114  0.019028531  0.018391804           17 
 1448000   0.67592907   -7.4057206    330.73815  0.019034194  0.018377523           16 
 1449000   0.69180455   -7.4459451     330.8802  0.019029227  0.018363277           13 
 1450000   0.66907177   -7.4351773    330.49992  0.018994248  0.018348986           24 
 1451000    0.6859223   -7.4617276     330.0647  0.018956162  0.018334692           51 
 1452000   0.67464928   -7.4564021    330.48595  0.018967284   0.01832041           10 
 1453000   0.65833381   -7.4640666    330.61423  0.018961587  0.018306133           35 
 1454000   0.68512785   -7.4461933    330.61979  0.018948865  0.018291864           20 
 1455000   0.68013015   -7.4423285    329.84235  0.018891315  0.018277614           16 
 1456000   0.66844476   -7.4485561    329.88544  0.018880806  0.018263315           13 
 1457000   0.67642543    -7.457256    330.47809  0.018901744   0.01824907           26 
 1458000   0.66582246   -7.4569712    330.46995  0.018888314  0.018234806           11 
 1459000   0.67107687   -7.4403358    330.59993  0.018882793  0.018220608           14 
 1460000   0.67510207   -7.4511845    330.81576  0.018882178    0.0182064           32 
 1461000    0.6725662   -7.4345054    330.44285  0.018847984  0.018192197           16 
 1462000   0.66992673   -7.4403084    330.49606  0.018838125  0.018177993           20 
 1463000   0.66256395   -7.4475353    329.84758   0.01878831   0.01816379           42 
 1464000   0.67937135   -7.4754582    330.43673  0.018809012  0.018149629           14 
 1465000   0.65902228    -7.439272    330.41685  0.018795043  0.018135451           24 
 1466000   0.66294923    -7.446883    330.09342  0.018763837  0.018121306           15 
 1467000   0.65252816   -7.4378134     331.1139  0.018809015  0.018107183           22 
 1468000   0.66775057   -7.4546151    330.71049  0.018773302  0.018093081           22 
 1469000   0.67168372   -7.4403283     330.6963  0.018759717  0.018079002           12 
 1470000   0.65754137    -7.431354    330.21087  0.018719437  0.018064888           21 
 1471000   0.66530422   -7.4390506    331.20437  0.018762994  0.018050782           22 
 1472000   0.65236935   -7.4596433    330.32639  0.018700543  0.018036704           36 
 1473000   0.65996487   -7.4432411    330.67873  0.018707781  0.018022631           24 
 1474000   0.66739702   -7.4452414    331.35654  0.018733409  0.018008635           42 
 1475000   0.66817346   -7.4672922     330.9169   0.01869587  0.017994608           54 
 1476000   0.67540864   -7.4658316    330.16212  0.018640589  0.017980581           46 
 1477000   0.67152239   -7.4546976    331.00931  0.018675768  0.017966592           15 
 1478000   0.66672533   -7.4545051    330.56478  0.018638068  0.017952652           28 
 1479000   0.67496671    -7.438942    331.66109  0.018687237  0.017938748           34 
 1480000   0.66521968   -7.4586032    331.35528  0.018657392  0.017924844           35 
 1481000   0.66280883   -7.4267744    330.83817  0.018615697   0.01791097           22 
 1482000   0.64644168   -7.4581623    331.01515  0.018613088   0.01789706           37 
 1483000    0.6633611   -7.4654477    330.99781  0.018599562  0.017883163           41 
 1484000   0.65331058   -7.4343248    331.38353  0.018608689  0.017869254           35 
 1485000   0.66654963   -7.4652533    330.26546  0.018533415  0.017855339           27 
 1486000   0.63550921    -7.467161    330.85975  0.018554271  0.017841383           45 
 1487000   0.67422885   -7.4643993    330.35088  0.018513275  0.017827507           28 
 1488000   0.66591093   -7.4541744    330.71243  0.018521081  0.017813611           26 
 1489000   0.65452317   -7.4387192    331.13218  0.018532135  0.017799801           44 
 1490000   0.66338307    -7.456733    331.49935  0.018540232  0.017786021           46 
 1491000   0.65952193   -7.4461883     331.6433  0.018535843  0.017772247           39 
 1492000   0.67438248   -7.4561215    332.00096  0.018543396  0.017758511           22 
 1493000   0.65071319    -7.448121    331.50823  0.018503473  0.017744748           31 
 1494000   0.66721316   -7.4642837    332.07128  0.018522494  0.017731043           22 
 1495000   0.64753771   -7.4748912    330.88764  0.018444127  0.017717335           32 
 1496000   0.67986814   -7.4757018    331.20999  0.018449754  0.017703606           11 
 1497000   0.66475563     -7.47194    331.60332  0.018459325  0.017689906           13 
 1498000   0.64694401   -7.4987483    330.75542  0.018399834  0.017676176           12 
 1499000    0.6594861   -7.4702539    331.01973  0.018402253   0.01766242           19 
 1500000   0.66363526   -7.4672126    330.78948  0.018377193  0.017648688           16 
 1501000   0.65209368   -7.4636327    330.90169   0.01837118  0.017634915           15 
 1502000   0.65771008   -7.4604408    331.10534  0.018370247  0.017621163           28 
 1503000   0.65888703   -7.4700104    331.97674  0.018406339  0.017607465           19 
 1504000   0.64641123   -7.4783916    331.74807  0.018381431  0.017593756           17 
 1505000   0.64740138   -7.4774244    331.24452  0.018341336  0.017580037           20 
 1506000   0.64512206   -7.4919936    331.18509  0.018325868  0.017566337           25 
 1507000   0.66607075   -7.4750285    331.09955  0.018308978  0.017552678           37 
 1508000   0.66512536   -7.4771717    331.39087  0.018312935  0.017539017           19 
 1509000   0.64634656   -7.4781212    332.01638  0.018335342  0.017525372           34 
 1510000    0.6467092     -7.48309    331.78991  0.018310701   0.01751176           26 
 1511000   0.65103508   -7.4955678    331.12785   0.01826207  0.017498137           35 
 1512000   0.65217233     -7.50592     331.7027  0.018281674  0.017484514           50 
 1513000   0.64366323   -7.4955574    331.50044  0.018258451  0.017470936           53 
 1514000   0.65712643   -7.4942164    331.92482   0.01826975  0.017457353           56 
 1515000   0.63484286   -7.4835443    331.14709  0.018214911  0.017443791           75 
 1516000   0.63831625   -7.4832523     331.6331  0.018229612  0.017430237           64 
 1517000   0.65159214   -7.4839316    331.75041  0.018224039  0.017416719           51 
 1518000    0.6485799   -7.5171404    331.52935  0.018199898  0.017403165           49 
 1519000   0.66474751   -7.4897915    331.37785  0.018179605  0.017389661           29 
 1520000   0.64191158    -7.491802    331.09219  0.018151984  0.017376139           22 
 1521000   0.64127884   -7.4671697    331.68483   0.01817252  0.017362645           19 
 1522000   0.64313597   -7.4686217    332.23382  0.018190638  0.017349171           18 
 1523000   0.66109417   -7.4827411    331.62473  0.018145367  0.017335716           21 
 1524000   0.64485641   -7.4694315    331.78948   0.01814247  0.017322259           32 
 1525000   0.64058134   -7.4837062    331.70298  0.018125846  0.017308859           20 
 1526000   0.65216495   -7.4963112    331.48458  0.018102041  0.017295443           24 
 1527000   0.64650037    -7.493339    331.21057  0.018075233  0.017281999           31 
 1528000   0.65516778   -7.4846052    331.49265  0.018078787  0.017268583           18 
 1529000    0.6388341   -7.5078012    331.60763   0.01807323   0.01725515            9 
 1530000   0.65473955   -7.5070666    331.53286  0.018057345  0.017241719           17 
 1531000   0.63950518   -7.4924622    331.52506  0.018045127  0.017228226           12 
 1532000   0.63519464   -7.5115626    331.72086  0.018043998  0.017214767           22 
 1533000   0.65144547   -7.4898336     331.5701  0.018024032  0.017201329           21 
 1534000   0.64625272   -7.4818841    331.21735   0.01799312  0.017187935           13 
 1535000   0.63643973   -7.4848855    330.88942  0.017963595  0.017174553           14 
 1536000   0.62276921   -7.5003501    332.20509   0.01802328   0.01716116           10 
 1537000   0.64210927    -7.525985    331.63193  0.017980478  0.017147774           11 
 1538000   0.63946044   -7.5197534    331.16191   0.01794332  0.017134377           17 
 1539000   0.64142784   -7.5198786    332.04201  0.017979316  0.017121003           10 
 1540000   0.63663179    -7.497252    331.20571  0.017922387   0.01710764            8 
 1541000   0.63986627   -7.5220911    331.54608  0.017929163  0.017094276           19 
 1542000   0.63295535    -7.520327    332.10891  0.017947952  0.017080936           11 
 1543000   0.63774908    -7.496921    331.63515  0.017910734  0.017067602            7 
 1544000   0.63919588   -7.4848915    331.68613  0.017901885  0.017054299           10 
 1545000   0.61668711   -7.4928411    331.61842  0.017886646  0.017040951           16 
 1546000   0.63211442   -7.5075322    331.94856  0.017892872  0.017027648           15 
 1547000   0.63653068   -7.5270645    331.68733  0.017867234  0.017014311           13 
 1548000   0.63564471   -7.5253041     331.2908  0.017834346   0.01700099           16 
 1549000   0.64108781   -7.4983325     331.3097  0.017823849  0.016987659           15 
 1550000   0.63146721   -7.5142781    331.12056   0.01780218  0.016974352           17 
 1551000   0.63129142   -7.4956849    331.54567  0.017813543  0.016961039           19 
 1552000   0.62862358   -7.5273553     330.9724  0.017771284  0.016947743           22 
 1553000   0.63700133   -7.5161159    331.16625  0.017770243  0.016934448           35 
 1554000   0.63037733   -7.5180956    330.68702  0.017733109  0.016921127           47 
 1555000   0.63586969    -7.521435    330.50739  0.017712079  0.016907831           26 
 1556000   0.63694427   -7.5292526    330.91688  0.017722626  0.016894517           40 
 1557000   0.63309995   -7.5312691    332.03911  0.017771308  0.016881231           34 
 1558000   0.63218773   -7.5194915    331.40082   0.01772576  0.016867964           31 
 1559000    0.6288735   -7.5196134    331.29909  0.017708953  0.016854716           16 
 1560000   0.62350041   -7.5314087    331.31056  0.017698214  0.016841475           12 
 1561000   0.63011256   -7.4976832      331.466  0.017695174  0.016828264           10 
 1562000   0.62697328   -7.5131777    331.61204  0.017691637  0.016815077           18 
 1563000   0.63056428   -7.5092424    330.83303  0.017638784  0.016801893           11 
 1564000   0.63242891   -7.5331827    331.34002  0.017654519   0.01678872            9 
 1565000   0.62587224   -7.5187314    331.37118  0.017644898  0.016775556           25 
 1566000   0.62642859   -7.5237919    331.11274  0.017619877  0.016762413           10 
 1567000    0.6318398   -7.5434071    330.90794  0.017597742  0.016749282           14 
 1568000   0.62869129   -7.5242631    331.78422   0.01763309  0.016736156           38 
 1569000    0.6200914   -7.5111608     331.9761  0.017632043  0.016723055           13 
 1570000    0.6173689   -7.4994305    331.08973  0.017573765  0.016709997           27 
 1571000   0.62409209    -7.527409    331.32444  0.017575029  0.016696947           21 
 1572000   0.62970149   -7.4990886    331.89697  0.017594199  0.016683907           16 
 1573000   0.61731223   -7.5155476    331.57624  0.017566023  0.016670871            8 
 1574000   0.63723181   -7.5237525    331.73111  0.017563062  0.016657816           12 
 1575000   0.63880968   -7.5221499    331.26127  0.017527051  0.016644766           12 
 1576000   0.63730004   -7.5241733     331.6176  0.017534772  0.016631734           19 
 1577000   0.61792583   -7.5277298    331.49983  0.017517429  0.016618729           19 
 1578000   0.63564646   -7.5375927    331.22587  0.017491861  0.016605693           28 
 1579000    0.6373321   -7.5115375      331.692  0.017505383  0.016592657            8 
 1580000   0.61973651   -7.5179511    331.35206  0.017476374  0.016579627           16 
 1581000   0.63195487   -7.5026961    331.60121  0.017478453  0.016566651           12 
 1582000   0.63023864   -7.5169944    331.79801  0.017477771  0.016553671           26 
 1583000   0.63309519   -7.5421101    330.93918  0.017421519  0.016540691           27 
 1584000   0.62971258   -7.5308766    331.19607  0.017424036  0.016527706           24 
 1585000   0.62930559   -7.5284093    330.91776   0.01739841  0.016514739           21 
 1586000   0.63628907   -7.5218632    331.36382  0.017410878   0.01650179           19 
 1587000   0.62528011   -7.5584223    330.36388    0.0173474   0.01648883           24 
 1588000   0.61617055   -7.5258593    331.46153  0.017394077  0.016475861           27 
 1589000   0.60818523   -7.5296995    331.56667  0.017388645  0.016462906           26 
 1590000   0.61667206   -7.5401216     330.8692  0.017341153  0.016449946           37 
 1591000    0.6191337   -7.5342632    331.16412  0.017345701  0.016436993           29 
 1592000    0.6055353   -7.5325143    331.51451  0.017353146  0.016424062           31 
 1593000   0.61730694   -7.5548056    331.09647  0.017320385  0.016411172           29 
 1594000   0.61475543    -7.540059    331.15308  0.017312478  0.016398269           32 
 1595000   0.61103307   -7.5491783    330.99727  0.017293483  0.016385354           43 
 1596000   0.62303656   -7.5606207    331.08676   0.01728732  0.016372435           32 
 1597000   0.61544987   -7.5486765    331.14739  0.017279659  0.016359509           58 
 1598000   0.61788834    -7.552206    330.65586  0.017243213  0.016346624           49 
 1599000   0.61277407   -7.5535987    330.55081  0.017226955   0.01633374           27 
 1600000    0.6318543   -7.5454053    331.41074  0.017260976  0.016320874           53 
 1601000   0.61500952   -7.5457935    331.28042  0.017243411  0.016307999           52 
 1602000   0.61544721   -7.5724806    331.24803  0.017230963  0.016295115           58 
 1603000   0.62896941   -7.5553376    330.54266  0.017183545  0.016282243           43 
 1604000   0.61228888    -7.563456    330.95952  0.017194489  0.016269375           39 
 1605000   0.62374579   -7.5559088    331.23963  0.017198319  0.016256502           26 
 1606000   0.61125072    -7.556513    331.21293  0.017186225   0.01624367           26 
 1607000   0.61332575    -7.553325     330.8799  0.017158261  0.016230849           56 
 1608000   0.60996677   -7.5642142    331.26913  0.017167761  0.016218016           49 
 1609000   0.60680324   -7.5486049    331.00609  0.017143468  0.016205233           65 
 1610000   0.61046183   -7.5691927    331.30817  0.017148456  0.016192452           42 
 1611000   0.61888796   -7.5738118    331.31394   0.01713811  0.016179668           54 
 1612000   0.60039315    -7.582282    331.27094  0.017125255   0.01616688           36 
 1613000   0.59965226   -7.5641544    331.21067  0.017111525  0.016154122           41 
 1614000   0.62738323   -7.5683579    330.85998  0.017082816  0.016141354           24 
 1615000   0.60684099   -7.5666461    330.74131  0.017066115  0.016128609           22 
 1616000   0.60388696   -7.5642773    330.96481   0.01706708  0.016115866           22 
 1617000   0.60327656   -7.5825128    330.72224  0.017044024  0.016103114           23 
 1618000   0.59350887   -7.5825865     330.7142  0.017033076  0.016090365           17 
 1619000    0.6075076   -7.5689722    330.73788  0.017023774  0.016077616           17 
 1620000   0.60500861   -7.5745664    331.15004  0.017034467  0.016064881           14 
 1621000   0.59641429   -7.5710585    330.74994   0.01700339  0.016052169           13 
 1622000   0.60234887   -7.5922811    330.91589  0.017001433  0.016039437           16 
 1623000   0.60419336   -7.5913548    331.02891  0.016996761  0.016026727            9 
 1624000   0.60646984   -7.5708248    331.51855   0.01701142  0.016014037           21 
 1625000   0.60125899   -7.5846098    330.28049  0.016937461  0.016001342           19 
 1626000    0.6064246   -7.5782207    330.89396  0.016958485  0.015988647           24 
 1627000   0.60544814   -7.5795481    330.61957  0.016934008  0.015975957           20 
 1628000   0.61400801   -7.5759244     330.2997  0.016907233  0.015963298           33 
 1629000   0.60429097   -7.5884394    330.62762  0.016913629  0.015950624           23 
 1630000   0.60952534   -7.5823169     330.7578  0.016909908  0.015937974           41 
 1631000   0.60786993   -7.5946572    330.76664  0.016899992  0.015925342           22 
 1632000    0.5978667   -7.5825923    330.66109  0.016884247  0.015912748           24 
 1633000   0.60832604   -7.5856878      331.107  0.016896663  0.015900132           32 
 1634000    0.6079211   -7.5834499    330.70541  0.016865841  0.015887539           30 
 1635000   0.60001326   -7.5756714    330.48421  0.016844251  0.015874956           42 
 1636000    0.5940498   -7.5844505     330.4327  0.016831331  0.015862332           32 
 1637000   0.60533576   -7.6024695    330.96093   0.01684794  0.015849742           25 
 1638000   0.60728275   -7.5711318    330.81429  0.016830194   0.01583719           27 
 1639000    0.6066053   -7.6177028    330.64674  0.016811406  0.015824634           17 
 1640000   0.60029804   -7.5882472    330.37223  0.016787207  0.015812091           20 
 1641000   0.59689265   -7.5962845    330.66854  0.016792024  0.015799566           13 
 1642000   0.61423577   -7.5946399    330.10108  0.016752999  0.015787026           27 
 1643000   0.60013117    -7.582428    330.72554  0.016774475  0.015774495           37 
 1644000   0.60240946   -7.5955352    330.45675  0.016750646  0.015761968           23 
 1645000   0.59079194   -7.5915184    330.63252  0.016749368  0.015749435           29 
 1646000   0.59958164   -7.5844535    330.65315  0.016740237  0.015736928           24 
 1647000   0.59218583    -7.593775    330.92031   0.01674359  0.015724432           29 
 1648000   0.60584692   -7.6103513    331.41305  0.016758346  0.015711946           21 
 1649000   0.60452905   -7.5854574    330.25417  0.016689618  0.015699489           27 
 1650000   0.59322392   -7.5978259    330.10696  0.016672069  0.015687001           37 
 1651000   0.58438266   -7.6222488    330.17358  0.016665333  0.015674521           26 
 1652000   0.59201064    -7.602223    330.21021  0.016657093  0.015662058           32 
 1653000   0.58615836   -7.5984754    330.71371  0.016672399  0.015649611           30 
 1654000   0.59548557   -7.6112496    330.16841  0.016634845  0.015637188           43 
 1655000   0.58863495   -7.5816614    330.46545  0.016639751  0.015624777           25 
 1656000   0.61474971   -7.6235682    330.65599  0.016639291  0.015612376           66 
 1657000   0.59948893   -7.5844516      330.688  0.016630859  0.015599974           89 
 1658000   0.59060225   -7.6078537    330.25628   0.01659913   0.01558757           24 
 1659000   0.57997411   -7.6077493    330.65595    0.0166092  0.015575174           52 
 1660000   0.58089856   -7.6136681    330.50903  0.016591819  0.015562792           48 
 1661000   0.58650388   -7.6196474    330.98614  0.016605767   0.01555043           40 
 1662000   0.58115958      -7.6524    330.79538   0.01658621  0.015538073           58 
 1663000   0.59221804   -7.6086706    330.61511  0.016567203  0.015525753           31 
 1664000    0.5853547   -7.5902791    331.11767  0.016582415   0.01551342           45 
 1665000   0.58587076   -7.6186406    330.58801  0.016545946  0.015501109           49 
 1666000   0.58415973   -7.5939099    331.01405  0.016557325  0.015488774           19 
 1667000    0.5795112   -7.6348254    330.57047  0.016525219  0.015476451           61 
 1668000   0.59390856   -7.6357868    329.90299  0.016481964  0.015464139           15 
 1669000   0.59614326   -7.6108823    330.51601  0.016502697  0.015451828           21 
 1670000   0.59692485   -7.6200879    330.70124  0.016502058  0.015439534           34 
 1671000   0.59357528   -7.6095022    331.15051  0.016514588  0.015427272           28 
 1672000   0.58306229   -7.6398691    330.15759  0.016455223  0.015414994           52 
 1673000   0.59393788   -7.6152958    330.04216  0.016439637  0.015402729           31 
 1674000   0.59763803   -7.6234033    330.50933  0.016453073  0.015390467           57 
 1675000   0.58180244   -7.6246457    330.67214   0.01645135  0.015378216           53 
 1676000   0.57738798   -7.6232163    330.38166  0.016427091  0.015366008           57 
 1677000   0.58163522   -7.6075453    329.93004  0.016394854  0.015353793           31 
 1678000   0.58753665   -7.6165903    329.74319  0.016375804  0.015341616           41 
 1679000   0.58614748   -7.6097112    330.24749  0.016391081  0.015329407           38 
 1680000   0.57502027   -7.6074802    330.03402  0.016370735  0.015317223           26 
 1681000   0.58190428   -7.6123474    330.05959  0.016362264  0.015305022           37 
 1682000   0.56803884   -7.6205528    330.63951  0.016381268  0.015292852           35 
 1683000   0.57833622   -7.6188905    330.97541  0.016388167  0.015280687           30 
 1684000   0.58001206   -7.6360042    330.02471  0.016331389  0.015268526           45 
 1685000   0.56675865   -7.6448767    330.16731  0.016328749  0.015256343           29 
 1686000   0.58622975   -7.6379424    330.32795  0.016327004  0.015244156           30 
 1687000   0.57231037   -7.6137254    330.43331  0.016322531  0.015231996           37 
 1688000   0.57832903   -7.6215812    330.25674  0.016304144  0.015219842           38 
 1689000    0.5797569   -7.6518688     329.9665  0.016280171  0.015207699           27 
 1690000   0.59284128    -7.659492    330.22021  0.016283048  0.015195563           35 
 1691000   0.58349678   -7.6246069    330.16737  0.016270814  0.015183445           36 
 1692000   0.57515763   -7.6495735    330.32827  0.016269123  0.015171318           23 
 1693000   0.58302146   -7.6404209    330.32577   0.01625939  0.015159202           41 
 1694000   0.57905954   -7.6314513    330.13774  0.016240542  0.015147102           30 
 1695000   0.58373504   -7.6182356    329.53857  0.016201503  0.015135017           17 
 1696000     0.595472   -7.6414955    330.63428  0.016245788  0.015122943           21 
 1697000   0.57339791   -7.6387101    329.77692  0.016194113  0.015110877           31 
 1698000   0.57254758   -7.6453228    329.71167  0.016181374  0.015098818           33 
 1699000   0.57376487   -7.6420135    329.58877  0.016165822  0.015086749           22 
 1700000   0.55315954   -7.6550392    330.27457   0.01618993  0.015074685           34 
 1701000   0.58212053    -7.656183    329.92267  0.016163172  0.015062638           31 
 1702000   0.56980597   -7.6409968    329.79969  0.016147654   0.01505061           23 
 1703000   0.58760485   -7.6225431    329.79832  0.016138106  0.015038598           32 
 1704000   0.58604249   -7.6470738    329.48239  0.016113184  0.015026593           37 
 1705000   0.58736749   -7.6629062    329.20424  0.016090139  0.015014577           23 
 1706000   0.57978369   -7.6484164    329.54665  0.016097433  0.015002562           31 
 1707000   0.57777984   -7.6487746    329.76392   0.01609861  0.014990571           47 
 1708000   0.58128186   -7.6307736    329.80609  0.016091242  0.014978568           44 
 1709000   0.57351441   -7.6326677     330.0919  0.016095763  0.014966593           29 
 1710000   0.57581718   -7.6653906    330.43357     0.016103  0.014954637           34 
 1711000     0.569206   -7.6351125    329.97142   0.01607108  0.014942659           26 
 1712000   0.57345804   -7.6565136    330.15337  0.016070549  0.014930697           42 
 1713000    0.5813234   -7.6569917    329.68776  0.016038517  0.014918755           25 
 1714000    0.5768908   -7.6593354    330.07972  0.016048217  0.014906835           30 
 1715000   0.57488055   -7.6748421    329.92497   0.01603134  0.014894899           19 
 1716000   0.56532433   -7.6528881    330.03654  0.016027415   0.01488297           20 
 1717000   0.56271217   -7.6410246     329.1732  0.015976179  0.014871052           26 
 1718000   0.56421062    -7.658901     329.9626  0.016005171  0.014859166           23 
 1719000   0.56688227    -7.647698    329.51852  0.015974332  0.014847274           28 
 1720000   0.56137929   -7.6493977    329.37542  0.015958111   0.01483539           90 
 1721000   0.55886291   -7.6684385    329.42952  0.015951458  0.014823508           50 
 1722000   0.57158018   -7.6439577    329.83231  0.015961687  0.014811631           19 
 1723000   0.55561892   -7.6654933    329.86959  0.015954227  0.014799781           27 
 1724000   0.57177634   -7.6628656    329.77295  0.015940301  0.014787951           27 
 1725000    0.5605805   -7.6722442    328.98583  0.015893035  0.014776127           45 
 1726000   0.57028232   -7.6610557    328.96784  0.015882959  0.014764306           26 
 1727000   0.55209687   -7.6580244    329.48858  0.015898889   0.01475248           21 
 1728000   0.56096392   -7.6551021    329.94809  0.015911848  0.014740679           22 
 1729000   0.57717223    -7.652991    329.28734  0.015870799  0.014728882           23 
 1730000   0.56194411   -7.6699702    329.62208   0.01587775  0.014717103           34 
 1731000   0.55971023   -7.6822068    328.72388  0.015825336   0.01470531           51 
 1732000   0.56657158   -7.6652298    329.99876  0.015877538  0.014693533           22 
 1733000    0.5653811   -7.6786483    329.68619  0.015853346  0.014681776           28 
 1734000   0.56415958    -7.664044    329.38935  0.015829938  0.014670024           31 
 1735000   0.55683873   -7.6754872     329.1618  0.015809885  0.014658273           30 
 1736000   0.57245858   -7.6604626    329.28002  0.015806452  0.014646541           27 
 1737000    0.5644754   -7.6618748    329.12379  0.015789857  0.014634811           30 
 1738000   0.56333285   -7.6878586    329.26219  0.015787408   0.01462309           48 
 1739000    0.5632034   -7.6816439    329.57987  0.015793553  0.014611381           49 
 1740000   0.55630241   -7.6876564     329.4658  0.015779014  0.014599706           46 
 1741000   0.55404589   -7.6842501    329.54115  0.015773557  0.014588027           31 
 1742000   0.56062757   -7.6700841     329.9208  0.015782664  0.014576379           39 
 1743000   0.56261556   -7.6855001    329.85235  0.015770336  0.014564723           39 
 1744000   0.55209872   -7.6829437    329.90241  0.015763685  0.014553089           75 
 1745000   0.57098919   -7.6711549    329.79102  0.015749333  0.014541462           35 
 1746000   0.55262813   -7.6843257    329.20516   0.01571235  0.014529843           42 
 1747000   0.55463992   -7.6854282    329.47652    0.0157163   0.01451822           48 
 1748000   0.54673677   -7.6844838    329.50622  0.015708725  0.014506613           48 
 1749000   0.54903275   -7.7011731    329.44181  0.015696675   0.01449502           52 
 1750000   0.57189438   -7.6814381    329.36716   0.01568415  0.014483424           48 
 1751000   0.55349049   -7.6682307    329.19402  0.015666953  0.014471838           43 
 1752000   0.55463432    -7.693165    329.13527  0.015655216  0.014460269           36 
 1753000   0.54636319   -7.7045853    329.43148  0.015660367  0.014448707           78 
 1754000   0.55603708   -7.6806783    329.05765  0.015633678  0.014437172           89 
 1755000   0.54449142   -7.6972283    328.99751  0.015621914  0.014425645           71 
 1756000   0.54490596   -7.7057423    328.79543  0.015603428  0.014414111           35 
 1757000    0.5518441   -7.6886783    329.58883  0.015632177  0.014402587           44 
 1758000    0.5552378   -7.6829621    329.23224  0.015606382  0.014391077           56 
 1759000   0.53736421   -7.7000267    329.25529  0.015598602  0.014379584           56 
 1760000   0.54154658   -7.6840873    329.74244  0.015612805  0.014368101           39 
 1761000   0.56190736   -7.6912378    329.22024  0.015579228  0.014356638           36 
 1762000   0.55577213   -7.6844915    329.05345  0.015562497  0.014345163           48 
 1763000   0.54208344   -7.6826011    329.51746  0.015575603  0.014333717           32 
 1764000   0.55357414   -7.7039497    329.18549  0.015551091  0.014322274           83 
 1765000   0.54623975   -7.6934721    329.30891  0.015548107  0.014310833           32 
 1766000   0.54294379   -7.7017537     329.1544  0.015532012  0.014299401           41 
 1767000   0.52836006   -7.6971178    329.22215  0.015526417  0.014287965           35 
 1768000   0.55066792   -7.7170917    329.33801  0.015523096  0.014276518           44 
 1769000   0.54480924   -7.6939338    328.90069   0.01549372  0.014265105           67 
 1770000   0.55107624   -7.6957143    329.14023  0.015496244  0.014253714           43 
 1771000   0.54994964   -7.6868975    329.38422  0.015498975   0.01424233           72 
 1772000   0.54673312   -7.7034772     328.8801  0.015466521  0.014230957           37 
 1773000   0.55583937   -7.6914108    328.90921  0.015459166  0.014219592           52 
 1774000   0.54993459   -7.6959054    328.67798  0.015439589  0.014208229           54 
 1775000   0.56177503   -7.7276563    329.15674  0.015453368  0.014196877           59 
 1776000   0.54938538   -7.7076324    328.96149  0.015435506  0.014185515           38 
 1777000   0.53874724   -7.7248926    329.15137  0.015435723  0.014174168           54 
 1778000   0.55058941    -7.707426    328.80901  0.015410996  0.014162821           63 
 1779000   0.55205538   -7.7223851    329.22272  0.015421713  0.014151478           41 
 1780000   0.54470506   -7.7128508     328.7212  0.015389569  0.014140159           48 
 1781000   0.54191553   -7.6937176    328.87998  0.015388358  0.014128858           39 
 1782000   0.53206449   -7.7168617    329.27361   0.01539813  0.014117582           37 
 1783000   0.54017685   -7.7270807    329.25871  0.015388797    0.0141063           57 
 1784000   0.53928249   -7.7063759    329.07944  0.015371797  0.014095036           38 
 1785000    0.5360914   -7.7010754    329.11441  0.015364818  0.014083774           64 
 1786000   0.54409862   -7.7267758    328.82948  0.015342921  0.014072514           42 
 1787000    0.5439875   -7.6998449    328.49059  0.015318532  0.014061272           47 
 1788000   0.54588642   -7.7221086    329.46089  0.015355187  0.014050032           32 
 1789000   0.53905401   -7.7025025    328.63063  0.015307929  0.014038802           31 
 1790000   0.53330817   -7.7242333    328.76202  0.015305494   0.01402759           43 
 1791000   0.54185188   -7.7281352    328.95362  0.015305864  0.014016393           30 
 1792000   0.55021986   -7.7092612    328.86222  0.015293072  0.014005202           73 
 1793000   0.54853038   -7.7231385    328.62278  0.015273414  0.013994015           48 
 1794000   0.54363143   -7.7049971    328.92197  0.015278798  0.013982835           67 
 1795000   0.53763376   -7.7236037    328.76514  0.015263005  0.013971666           38 
 1796000    0.5345253   -7.7169762    328.84768  0.015258337  0.013960494           26 
 1797000   0.54214718   -7.7370215    328.60152  0.015238431  0.013949321           34 
 1798000   0.53747584   -7.7197834    328.89497  0.015243556  0.013938171           29 
 1799000   0.53658674   -7.7224505    329.67798  0.015271353  0.013927028           39 
 1800000   0.52987272   -7.7271122    328.66004  0.015215742  0.013915897           42 
 1801000   0.54062955   -7.7326082    328.25922  0.015188748  0.013904766           30 
 1802000   0.55254911   -7.7180475    328.36859  0.015185377  0.013893645           16 
 1803000   0.54039626   -7.7273042    328.59195  0.015187278  0.013882533           29 
 1804000   0.53024889   -7.7251053    328.42895   0.01517133  0.013871442           59 
 1805000   0.53926211   -7.7413061    328.78935  0.015179564  0.013860368           22 
 1806000   0.52119363   -7.7463186    328.07996  0.015138425  0.013849282           57 
 1807000   0.52212359   -7.7174931     328.8805  0.015166966  0.013838209           30 
 1808000   0.52502006   -7.7305797    329.02042  0.015165027  0.013827153           33 
 1809000    0.5374587   -7.7350552    328.91042  0.015151576  0.013816098           61 
 1810000   0.51766357   -7.7457191    328.41868  0.015120565  0.013805064           32 
 1811000   0.53937766   -7.7222286     328.5977  0.015120454  0.013794031           30 
 1812000   0.53032522   -7.7324862    328.87367  0.015124801  0.013783022           57 
 1813000   0.53787652   -7.7248855    328.16985  0.015084108   0.01377201           34 
 1814000   0.53567415   -7.7369325     328.4454  0.015088451  0.013761017           36 
 1815000   0.54551383   -7.7250267    328.44903  0.015080304  0.013750028           57 
 1816000   0.52677762   -7.7374798    328.85782  0.015090759  0.013739056           33 
 1817000   0.53740958    -7.720658    328.82259  0.015080838   0.01372809           62 
 1818000   0.52730895   -7.7382312    328.40941  0.015053603  0.013717135           98 
 1819000   0.52314282   -7.7506726    329.04397  0.015074398  0.013706192           31 
 1820000   0.53350934   -7.7314252    328.04699  0.015020467  0.013695235           36 
 1821000   0.51616547   -7.7318921    328.48753  0.015032378  0.013684294           44 
 1822000   0.52570398   -7.7542608    328.28163  0.015014711  0.013673342           37 
 1823000   0.52564203   -7.7482979    328.34784  0.015009501   0.01366241           33 
 1824000   0.52180204   -7.7462809    328.90449  0.015026704  0.013651491           28 
 1825000    0.5344162   -7.7393229     328.6258  0.015005744  0.013640578           22 
 1826000   0.53282206   -7.7358679    327.91765  0.014965209  0.013629675           29 
 1827000   0.51605023   -7.7406161    328.03538  0.014962387  0.013618781           79 
 1828000   0.52354823   -7.7413296     328.7793  0.014988116  0.013607902           29 
 1829000   0.52461788   -7.7346625     328.3854  0.014961974  0.013597039           29 
 1830000   0.52631167    -7.734517    328.24878  0.014947577  0.013586182           29 
 1831000   0.52543452   -7.7432353    328.11489  0.014933319  0.013575333           27 
 1832000    0.5231159   -7.7331319    328.76874   0.01495491  0.013564493           23 
 1833000   0.51971935    -7.749154    328.44914  0.014932221  0.013553669           48 
 1834000   0.52665021   -7.7405722    328.60401  0.014931116  0.013542862           51 
 1835000    0.5207927   -7.7360477    328.60305  0.014922936  0.013532067           33 
 1836000   0.51330792   -7.7422676    328.54154  0.014912016  0.013521271           53 
 1837000   0.51499153   -7.7424996    328.22904  0.014889722  0.013510486           35 
 1838000   0.52934084   -7.7632874    328.71903  0.014903837  0.013499712           25 
 1839000   0.52812867   -7.7360965    328.11172  0.014868213  0.013488949           27 
 1840000   0.52469598   -7.7336614    328.24889  0.014866345  0.013478203           40 
 1841000   0.51302252   -7.7579877    328.24337   0.01485802  0.013467456           34 
 1842000   0.51770796   -7.7609608     328.5945  0.014865839  0.013456709           53 
 1843000   0.51400235    -7.746995    328.53516   0.01485509  0.013445973           73 
 1844000   0.52164981   -7.7595947    328.63522  0.014851556   0.01343525           23 
 1845000   0.52285765   -7.7378856     328.2695  0.014826987  0.013424538           32 
 1846000   0.51061319   -7.7578169    328.00429  0.014806983  0.013413836           40 
 1847000   0.51185531   -7.7394412    328.11702  0.014804053  0.013403161           51 
 1848000   0.52454334   -7.7574369    328.51062  0.014813791  0.013392485           66 
 1849000   0.51574623   -7.7602148    327.85315  0.014776147  0.013381815           61 
 1850000   0.51500156    -7.749311    328.08868  0.014778769  0.013371159           48 
 1851000    0.5204363   -7.7640552    328.05952  0.014769472  0.013360511           26 
 1852000   0.51113736     -7.75414    328.47796  0.014780326   0.01334988           34 
 1853000   0.52018327   -7.7667692    328.34755  0.014766484   0.01333925           13 
 1854000   0.51020272   -7.7706654    327.60335   0.01472507  0.013328616           31 
 1855000   0.51145455   -7.7539686    328.10014  0.014739449  0.013318001           32 
 1856000   0.50573134   -7.7653347     328.1207  0.014732431  0.013307398           27 
 1857000   0.51123827   -7.7742695    328.31921  0.014733406  0.013296803           39 
 1858000   0.51154101   -7.7585973     328.2184  0.014720954    0.0132862           39 
 1859000   0.50821184   -7.7523902    327.99703  0.014703113  0.013275619           62 
 1860000   0.50586679   -7.7685894    327.71912  0.014682756  0.013265036           37 
 1861000   0.51190285   -7.7644058    327.85583  0.014680988  0.013254467           36 
 1862000   0.51114425   -7.7644212    327.96993   0.01467821  0.013243921           50 
 1863000   0.51819857   -7.7692862    327.58673   0.01465319   0.01323337           30 
 1864000   0.51563427   -7.7730853    327.77503  0.014653748  0.013222832           41 
 1865000   0.51640507   -7.7852984    327.76418  0.014645406  0.013212305           43 
 1866000   0.51178273   -7.7783485    327.67668  0.014633649  0.013201777           49 
 1867000   0.50788531   -7.7610048    327.95004  0.014638013  0.013191282           29 
 1868000   0.51284965   -7.7661684    327.64379  0.014616515  0.013180768           67 
 1869000   0.49470079   -7.7664291    327.05306  0.014582355  0.013170268           42 
 1870000   0.50619535   -7.7851985    327.79838  0.014607771  0.013159777           33 
 1871000   0.50541494   -7.7675077    328.44836  0.014628913  0.013149299           39 
 1872000   0.51179748   -7.7678135    327.76221  0.014590554   0.01313885           48 
 1873000   0.51305165   -7.7803047    327.74061  0.014581803  0.013128391           46 
 1874000   0.49961974   -7.7842394    328.11816  0.014590811  0.013117958           45 
 1875000   0.48743555   -7.7725151    328.08983   0.01458177  0.013107535           47 
 1876000   0.50652547   -7.7704586    328.08622  0.014573837  0.013097114           41 
 1877000   0.50932979   -7.7808194    327.31032  0.014531625  0.013086686           57 
 1878000   0.50451996   -7.7903347    327.72002  0.014542067  0.013076285           34 
 1879000   0.49366701   -7.7683382    327.65764  0.014531561  0.013065888           34 
 1880000   0.49914637   -7.7868627    328.38874  0.014556239  0.013055516           49 
 1881000   0.49242951   -7.7636793    328.09675  0.014535564  0.013045144           15 
 1882000   0.49608589   -7.7780048    327.83058  0.014516055  0.013034782           33 
 1883000   0.50716625   -7.7881254    327.53958  0.014495467   0.01302443           42 
 1884000   0.50233301    -7.780545    327.61532  0.014491124  0.013014091           36 
 1885000   0.50133806   -7.7780054    327.13731  0.014462304  0.013003758           28 
 1886000   0.50175888   -7.7979126    327.42602  0.014467392  0.012993415           43 
 1887000    0.5064156   -7.7679567    327.42596  0.014459722  0.012983081           38 
 1888000   0.49972582   -7.7825647    327.72665  0.014465336  0.012972756           36 
 1889000   0.49271508   -7.7999851    327.47558  0.014446602  0.012962439           52 
 1890000    0.5045037   -7.7971165     327.6787  0.014447915  0.012952134           46 
 1891000   0.48676001     -7.79215    327.48348  0.014431671  0.012941853           49 
 1892000   0.50498455   -7.7678738    327.53766   0.01442643  0.012931572           56 
 1893000   0.50213907   -7.7894561    326.98889  0.014394651  0.012921305           40 
 1894000    0.5009312   -7.7855565    327.94044  0.014428917  0.012911052           42 
 1895000   0.48906902   -7.7819286    327.22292   0.01438975  0.012900794           42 
 1896000   0.49861382   -7.7894425    327.62163  0.014399685  0.012890567           31 
 1897000   0.49269883   -7.7913669    327.69212  0.014395191  0.012880333           42 
 1898000   0.49471785   -7.7995424    327.42144  0.014375722  0.012870112           39 
 1899000   0.49689828   -7.7990964    327.57938  0.014375082  0.012859898           53 
 1900000    0.4950648   -7.7996285    327.59355  0.014368138  0.012849703           55 
 1901000   0.48628325   -7.7996554    327.49685  0.014356341  0.012839516           47 
 1902000   0.48561734   -7.8055409    327.37128  0.014343291  0.012829325           35 
 1903000   0.50012149   -7.7907288    327.62145  0.014346709  0.012819147           33 
 1904000   0.48428901   -7.7890748    327.46859  0.014332484  0.012809004           66 
 1905000   0.50479088   -7.7903984    327.75484  0.014337482  0.012798851           47 
 1906000   0.51205093   -7.7887867    327.21471  0.014306345  0.012788709           27 
 1907000   0.50391881   -7.7902584    327.61651  0.014316401  0.012778583           48 
 1908000   0.49273901   -7.7830419    327.69544  0.014312345  0.012768461           33 
 1909000   0.49570821   -7.8009717     327.6617  0.014303374  0.012758338           46 
 1910000   0.49460155   -7.8009039    327.69726  0.014297437  0.012748241           44 
 1911000   0.48878602   -7.8162997    327.41862  0.014277805  0.012738157           64 
 1912000   0.49766332   -7.8154161    326.91851   0.01424854  0.012728078           55 
 1913000    0.4972425   -7.7925691    327.14103  0.014250786  0.012718003           46 
 1914000   0.49326323   -7.7961008    327.63946  0.014265041  0.012707933           54 
 1915000   0.48834138   -7.7916667    327.32062  0.014243717  0.012697878           52 
 1916000   0.48063573   -7.8083697    327.68171  0.014251988  0.012687834           46 
 1917000   0.48407048   -7.8006841    327.59364  0.014240725  0.012677804           37 
 1918000   0.48980337   -7.8001018    327.32824  0.014221769  0.012667785           52 
 1919000   0.48657043   -7.8235123    327.20755  0.014209117   0.01265777           65 
 1920000   0.49118213   -7.7957259    327.22289  0.014202382  0.012647769           65 
 1921000   0.48695482   -7.8147523    327.60948   0.01421176  0.012637779           34 
 1922000   0.48742724   -7.8209853    327.47332  0.014198462   0.01262779           47 
 1923000   0.49333971   -7.8042889    327.09863  0.014174841  0.012617809           42 
 1924000   0.48399919   -7.7936551     327.5681  0.014187808  0.012607842           28 
 1925000   0.48229641   -7.8037398    327.55916   0.01418005  0.012597879           80 
 1926000   0.46200668   -7.8216338    327.22413  0.014158192   0.01258792           38 
 1927000   0.49406664     -7.80799    327.35353  0.014156441   0.01257798           44 
 1928000   0.48659524   -7.8073841    327.24063  0.014144218  0.012568045           30 
 1929000    0.4781286   -7.8112307    327.31411   0.01414006   0.01255813           40 
 1930000   0.47790712     -7.81114    327.60917  0.014145474  0.012548213           35 
 1931000   0.47764743   -7.8150374    327.29943  0.014124781  0.012538302           34 
 1932000   0.48135647   -7.8163685    327.88738   0.01414283  0.012528404           44 
 1933000   0.48156469   -7.8199249    327.20189  0.014105962  0.012518515           33 
 1934000   0.48179664   -7.8050995    327.88996  0.014128316  0.012508641           40 
 1935000   0.48390626   -7.8191418    327.13011  0.014088291  0.012498762           39 
 1936000   0.48679704   -7.8018712    327.28657  0.014087748  0.012488895           46 
 1937000   0.47170566   -7.8273235    327.24024  0.014078482  0.012479042           50 
 1938000   0.47082542   -7.8316206    327.36288  0.014076491  0.012469202           33 
 1939000   0.48663275   -7.8208929    327.56132   0.01407776  0.012459362           44 
 1940000   0.47939008    -7.821888    327.27116   0.01405804  0.012449535           47 
 1941000   0.47005576   -7.7983031    327.32743  0.014053212  0.012439715           30 
 1942000   0.46294978   -7.8029924     327.3302  0.014046095  0.012429908           39 
 1943000   0.48147785    -7.826482    327.71347  0.014055304   0.01242011           46 
 1944000   0.48678629   -7.8213374    327.17071  0.014024808  0.012410319           29 
 1945000   0.48198268   -7.8140617    326.60325  0.013993284  0.012400538           53 
 1946000   0.48105838   -7.8161315    327.48404  0.014023811  0.012390778           36 
 1947000   0.47361446    -7.807689     326.7737  0.013986205  0.012381018           35 
 1948000   0.47641451   -7.8237316    326.80231   0.01398025  0.012371264           39 
 1949000   0.46539004   -7.8223572    326.89025  0.013976837  0.012361518           38 
 1950000   0.46853018   -7.8231121    326.90187  0.013970165  0.012351789           38 
 1951000   0.47541782   -7.8159047    326.53699   0.01394742  0.012342069           36 
 1952000   0.47339015   -7.8134271    327.05202  0.013962262  0.012332353           34 
 1953000   0.48043054   -7.8372144    326.96297  0.013951313  0.012322629           61 
 1954000   0.46992408   -7.8258944    326.97891  0.013944853  0.012312928           46 
 1955000   0.47024101   -7.8288116     326.7581  0.013928308  0.012303235           55 
 1956000   0.47294985   -7.8234461    326.70253  0.013918819   0.01229355           43 
 1957000   0.47710426   -7.8278574    326.97174  0.013923171  0.012283868           21 
 1958000   0.47546196   -7.8306896    326.95927  0.013915529    0.0122742           61 
 1959000   0.46602883   -7.8315882    327.39426   0.01392693  0.012264539           33 
 1960000    0.4706824   -7.8394974    327.31474  0.013916443  0.012254884           27 
 1961000   0.46141913    -7.829362    326.78087  0.013886659  0.012245237           34 
 1962000   0.46885769   -7.8262201    327.34572  0.013903573  0.012235613           42 
 1963000   0.47841974   -7.8255492    326.86093   0.01387591  0.012225989           29 
 1964000   0.45750053   -7.8418251     326.7691  0.013864948  0.012216386           37 
 1965000   0.46349434   -7.8110187    326.80548  0.013859435  0.012206798           37 
 1966000   0.47828865   -7.8233771    326.75851  0.013850395   0.01219721           31 
 1967000    0.4691858   -7.8359642    327.13398   0.01385926  0.012187635           35 
 1968000   0.46403021   -7.8254759    327.07651  0.013849784  0.012178063           32 
 1969000   0.47043875   -7.8525246    326.95963  0.013837804  0.012168502           43 
 1970000   0.45560703   -7.8407106    326.76636  0.013822604  0.012158945           44 
 1971000   0.46397685   -7.8352964    326.91339  0.013821807  0.012149391           82 
 1972000   0.46239359   -7.8318332    326.72405  0.013806797  0.012139856           52 
 1973000    0.4690476   -7.8366323    327.34235  0.013825914  0.012130333           33 
 1974000   0.46495537   -7.8355646    326.95839  0.013802702  0.012120817           43 
 1975000   0.45510739    -7.828025    326.98631  0.013796891  0.012111303           31 
 1976000   0.46784398   -7.8356771    326.81752   0.01378279  0.012101802           35 
 1977000   0.46372232   -7.8380727    326.77646  0.013774088  0.012092307           40 
 1978000   0.46493351   -7.8548695    326.76547  0.013766661  0.012082822           25 
 1979000   0.46898754   -7.8372174    326.67961   0.01375609  0.012073342           32 
 1980000   0.45711367   -7.8536911    327.13406  0.013768269  0.012063869           51 
 1981000   0.45713025   -7.8353135    327.11783  0.013760636  0.012054412           58 
 1982000    0.4526025   -7.8325675    326.44732  0.013725501   0.01204495           60 
 1983000   0.46802734   -7.8530788    326.80883  0.013733772    0.0120355           46 
 1984000   0.46638146   -7.8411987    326.60647   0.01371835  0.012026064           61 
 1985000   0.45791815   -7.8369377    326.35341  0.013700815  0.012016641           37 
 1986000   0.46074744   -7.8408128    326.24598  0.013689408   0.01200722           37 
 1987000   0.45835311   -7.8421082    326.31861  0.013685565   0.01199782           29 
 1988000   0.45957766    -7.833934    326.71222   0.01369518   0.01198843           35 
 1989000   0.46679294   -7.8318368    326.55254  0.013681605  0.011979039           42 
 1990000   0.46531126   -7.8466021    326.52633  0.013673632  0.011969665           35 
 1991000   0.46194639   -7.8414988    326.68032  0.013673209  0.011960292           34 
 1992000   0.46091013   -7.8592853    326.21876  0.013647036   0.01195092           28 
 1993000   0.46085648   -7.8450743    327.41352  0.013690146  0.011941567           43 
 1994000   0.46014772   -7.8284144    326.56975  0.013648017  0.011932223           36 
 1995000   0.45865412    -7.850498    326.79373  0.013650532  0.011922891           40 
 1996000   0.45820115   -7.8622709    326.80827    0.0136443  0.011913565           41 
 1997000   0.45217287   -7.8430517     326.8432  0.013638925  0.011904248           37 
 1998000   0.44671471   -7.8515128     326.5564  0.013620137  0.011894938           34 
 1999000   0.44700123   -7.8372178    326.35551  0.013604949  0.011885636           33 
 2000000   0.45515517   -7.8533761    326.94823  0.013622843  0.011876351           33 
 2001000   0.44306293   -7.8389612    326.39558  0.013593019  0.011867075           48 
 2002000   0.45369951   -7.8572949    326.30391  0.013582414   0.01185781           29 
 2003000   0.46255004   -7.8411586    326.58871  0.013587482  0.011848556           54 
 2004000   0.46206256   -7.8516904    326.61982  0.013581995  0.011839315           49 
 2005000   0.44791438   -7.8451943    326.79307  0.013582422  0.011830078           57 
 2006000   0.45783855   -7.8403109    326.40338  0.013559462  0.011820839           40 
 2007000   0.45870646   -7.8490232    327.04456  0.013579329  0.011811613           46 
 2008000   0.44525062   -7.8421092    326.67586  0.013557265  0.011802399           49 
 2009000   0.45179322    -7.857308     326.6204  0.013548216   0.01179319           55 
 2010000   0.45836877   -7.8626683    326.64467  0.013542482  0.011783981           47 
 2011000   0.44671511   -7.8474682    326.23455  0.013518753  0.011774779           34 
 2012000   0.44698938   -7.8580791     326.7251  0.013532352  0.011765592           49 
Loop time of 4380.06 on 48 procs for 2000000 steps with 4000 atoms

Performance: 78903.045 tau/day, 456.615 timesteps/s
99.4% CPU use with 48 MPI tasks x no OpenMP threads

MPI task timing breakdown:
Section |  min time  |  avg time  |  max time  |%varavg| %total
---------------------------------------------------------------
Pair    | 280.63     | 291.74     | 306.5      |  34.6 |  6.66
Neigh   | 27.876     | 28.472     | 29.221     |   5.7 |  0.65
Comm    | 243.3      | 257.74     | 272.05     |  47.6 |  5.88
Output  | 4.0898     | 4.0918     | 4.1242     |   0.2 |  0.09
Modify  | 3740.8     | 3752.8     | 3767.7     |  11.0 | 85.68
Other   |            | 45.17      |            |       |  1.03

Nlocal:        83.3333 ave          90 max          76 min
Histogram: 2 1 4 6 6 10 7 7 2 3
Nghost:        1836.79 ave        1854 max        1822 min
Histogram: 5 6 1 6 9 5 9 3 1 3
Neighs:        11356.5 ave       12570 max        9970 min
Histogram: 2 2 3 7 7 8 5 8 4 2
FullNghs:      22713.1 ave       24569 max       20694 min
Histogram: 2 2 4 5 10 7 7 6 2 3

Total # of neighbors = 1090230
Ave neighs/atom = 272.55750
Neighbor list builds = 107691
Dangerous builds = 1

#clear
#
#next RN
#
#jump SELF
Total wall time: 1:13:03
