
units lj                  # Use reduced LJ style units
atom_style atomic         # Uncharged point particles
atom_modify map hash      # Needed for indexing of clusters etc
                          # Used to be able to find where atoms are in relation to each other.

lattice fcc 1.0 spacing 1 1 1
Lattice spacing in x,y,z = 1.5874011 1.5874011 1.5874011
region box block 0 10 0 10 0 10 units lattice
create_box 2 box
Created orthogonal box = (0.0000000 0.0000000 0.0000000) to (15.874011 15.874011 15.874011)
  3 by 4 by 4 MPI processor grid
create_atoms 1 box
Created 4000 atoms
  using lattice units in orthogonal box = (0.0000000 0.0000000 0.0000000) to (15.874011 15.874011 15.874011)
  create_atoms CPU = 0.002 seconds
set type 1 type/fraction 2 0.27 78393
Setting atom values ...
  1113 settings made for type/fraction
mass 1 1.0
mass 2 1.0
pair_style lj/cut  3.5
pair_modify tail  yes
pair_coeff 1  1  1.0  1.0   # Intearaction between 1 and 1 set with epsilon = 1 and sigma = 1
pair_coeff 1  2  1.5  0.8
pair_coeff 2  2  0.5  0.88

write_data data.0
System init for write_data ...
Neighbor list info ...
  update every 1 steps, delay 10 steps, check yes
  max neighbors/atom: 2000, page size: 100000
  master list distance cutoff = 3.8
  ghost atom cutoff = 3.8
  binsize = 1.9, bins = 9 9 9
  1 neighbor lists, perpetual/occasional/extra = 1 0 0
  (1) pair lj/cut, perpetual
      attributes: half, newton on
      pair build: half/bin/atomonly/newton
      stencil: half/bin/3d
      bin: standard
WARNING: Not all mixed pair coeffs generated from mixing. Use write_data with 'pair ij' option to store all pair coeffs. (../write_data.cpp:312)


#############################
#   M E L T   S Y S T E M   #
#############################

velocity all create 2.4 2750902 mom yes dist gaussian # Assign velocities
                                                    # Temperature 2.4, random number seed, zero linear momentum
                                                                                # Gaussian distribution

timestep 0.002   # simulation timestep
thermo 1000       # output thermodynamic data every 1000 steps bf 100

# Define a fix  in this case with index 1 applied to all
# particles in the simulation. This fix is for simulations
# in the anisotropic NPT ensemble. Note that we use the MTK
# correction.
fix 1 all npt temp 2.4 2.4 0.1 iso 5.68 5.68 0.5 mtk yes tchain 5 pchain 5 # Use NPT ensemble
                                                                         # Set temperature and pressure and damping
                                                                         # Numbers of thermostats in chain and in barostat
run 10000          # run for 10000 steps
Per MPI rank memory allocation (min/avg/max) = 3.642 | 3.644 | 3.648 Mbytes
Step Temp E_pair E_mol TotEng Press Volume 
       0          2.4   -6.6079615            0   -3.0088615   -3.8965289         4000 
    1000    2.4018096   -4.9884524            0   -1.3866386    5.6824412    4217.7478 
    2000    2.3937897   -4.9691109            0    -1.379324    5.6769274    4230.5643 
    3000    2.3807504   -4.9827742            0   -1.4125413    5.8631739    4203.2804 
    4000    2.4036638   -4.9825211            0   -1.3779267     5.358834     4253.241 
    5000    2.4101645   -4.9394819            0   -1.3251389    5.7157758    4236.2969 
    6000    2.3455405   -5.0089663            0   -1.4915351     5.443497    4221.9517 
    7000    2.3983098   -5.0143872            0   -1.4178219    5.4272114    4236.2885 
    8000    2.4032371   -4.9149613            0   -1.3110067    6.2983061    4207.3116 
    9000    2.3662916   -4.9584928            0   -1.4099427    5.7118605     4238.038 
   10000    2.3946563   -4.9107565            0   -1.3196701    5.9118562    4245.0946 
Loop time of 2.42653 on 48 procs for 10000 steps with 4000 atoms

Performance: 712128.165 tau/day, 4121.112 timesteps/s
99.6% CPU use with 48 MPI tasks x no OpenMP threads

MPI task timing breakdown:
Section |  min time  |  avg time  |  max time  |%varavg| %total
---------------------------------------------------------------
Pair    | 1.0067     | 1.0969     | 1.1792     |   3.0 | 45.20
Neigh   | 0.19917    | 0.21064    | 0.22482    |   1.1 |  8.68
Comm    | 0.76574    | 0.83154    | 0.91651    |   3.5 | 34.27
Output  | 0.00024814 | 0.0002552  | 0.00039823 |   0.0 |  0.01
Modify  | 0.22482    | 0.27199    | 0.32069    |   5.1 | 11.21
Other   |            | 0.01525    |            |       |  0.63

Nlocal:        83.3333 ave          91 max          68 min
Histogram: 1 0 0 4 4 9 8 6 11 5
Nghost:        1580.81 ave        1616 max        1555 min
Histogram: 3 5 8 7 5 11 4 2 2 1
Neighs:        8996.98 ave        9947 max        6810 min
Histogram: 1 0 0 3 4 7 8 7 10 8

Total # of neighbors = 431855
Ave neighs/atom = 107.96375
Neighbor list builds = 908
Dangerous builds = 209

# Equilibrate just above the melting temperature to avoid step fn in T

fix 1 all npt temp 1.25 1.25 0.1 iso 5.68 5.68 0.5 mtk yes tchain 5 pchain 5
run 2000
Per MPI rank memory allocation (min/avg/max) = 3.643 | 3.645 | 3.649 Mbytes
Step Temp E_pair E_mol TotEng Press Volume 
   10000    2.3946563   -4.9107565            0   -1.3196701    5.9118562    4245.0946 
   11000    1.2523668   -6.7457661            0   -4.8676856    5.8405113    3431.4478 
   12000    1.2774011   -6.7806436            0   -4.8650209    5.7022267    3424.1151 
Loop time of 0.55741 on 48 procs for 2000 steps with 4000 atoms

Performance: 620010.770 tau/day, 3588.025 timesteps/s
99.7% CPU use with 48 MPI tasks x no OpenMP threads

MPI task timing breakdown:
Section |  min time  |  avg time  |  max time  |%varavg| %total
---------------------------------------------------------------
Pair    | 0.2389     | 0.26791    | 0.29606    |   2.2 | 48.06
Neigh   | 0.036844   | 0.039532   | 0.042249   |   0.6 |  7.09
Comm    | 0.16963    | 0.20019    | 0.23135    |   2.9 | 35.91
Output  | 5.2126e-05 | 5.4087e-05 | 6.8611e-05 |   0.0 |  0.01
Modify  | 0.041897   | 0.044933   | 0.048304   |   0.8 |  8.06
Other   |            | 0.004792   |            |       |  0.86

Nlocal:        83.3333 ave          91 max          75 min
Histogram: 1 6 2 7 3 11 8 4 3 3
Nghost:        1822.69 ave        1844 max        1805 min
Histogram: 6 3 6 6 7 4 7 5 1 3
Neighs:        11167.4 ave       12552 max        9892 min
Histogram: 2 6 6 5 6 6 9 2 4 2

Total # of neighbors = 536037
Ave neighs/atom = 134.00925
Neighbor list builds = 144
Dangerous builds = 13

#############################
# L I N E A R  Q U E N C H  #
#############################

# Define solid atoms. This closely follows ten Wolde  Ruiz-Montero and Frenkel  Faraday Discuss  1996  104  93-110
# Compute components of the per-atom q6 vector
compute q6 all orientorder/atom degrees 1 6 components 6 nnn NULL cutoff 1.3 # compute the Q6 parameter.
                                                                             # Use all neighbours within 1.3 unit cell.

# get number of connections
compute coord_number all coord/atom orientorder q6 0.5

# An atom is solid if it has 8 or more connections (of a possible 14)
variable is_solid atom c_coord_number>=8
group solid dynamic all var is_solid    # Must be dynamic to update
dynamic group solid defined

# do clustering
compute cluster solid cluster/atom 1.3 # Create a cluster where all atoms within are solid and max 1.3 units from another member

# define chunks one chunk per cluster
compute clus_chunks solid chunk/atom c_cluster nchunk every compress yes  # Says which atoms are in which chunk

# count the size of each chunk
compute size_chunks solid property/chunk clus_chunks count


# Find the maximum entry in the vector of chunk sizes
variable max_n equal max(c_size_chunks)


# Thermo style which includes this variable
# thermo_style custom step temp pe vol v_max_n

thermo ${N}  # Print the thermo information every 100 steps
thermo 1000  

# Reset the npt fix at a lower temperature (below freezing)
fix 1  all npt temp  ${temp} ${temp}  0.1  iso  5.68  5.68  0.5  mtk yes tchain  5  pchain  5
fix 1  all npt temp  0.45 ${temp}  0.1  iso  5.68  5.68  0.5  mtk yes tchain  5  pchain  5
fix 1  all npt temp  0.45 0.45  0.1  iso  5.68  5.68  0.5  mtk yes tchain  5  pchain  5

dump dmp2 all dcd ${N} traj.dcd
dump dmp2 all dcd 1000 traj.dcd


compute msd all msd com yes
variable twopoint equal c_msd[4]/6/(step*dt+1.0e-6)
fix 9 all vector 10 c_msd[4]
variable fit equal slope(f_9)/6/(10*dt)
thermo_style custom step temp pe c_msd[4] v_twopoint v_fit v_max_n

fix 1 all npt temp 1.25 ${temp} 0.1 iso 5.68 5.68 0.5 mtk yes tchain 5 pchain 5
fix 1 all npt temp 1.25 0.45 0.1 iso 5.68 5.68 0.5 mtk yes tchain 5 pchain 5
run 5000000 # 5000000  # Run for this many steps
Neighbor list info ...
  update every 1 steps, delay 10 steps, check yes
  max neighbors/atom: 2000, page size: 100000
  master list distance cutoff = 3.8
  ghost atom cutoff = 3.8
  binsize = 1.9, bins = 8 8 8
  4 neighbor lists, perpetual/occasional/extra = 1 3 0
  (1) pair lj/cut, perpetual
      attributes: half, newton on
      pair build: half/bin/atomonly/newton
      stencil: half/bin/3d
      bin: standard
  (2) compute orientorder/atom, occasional
      attributes: full, newton on
      pair build: full/bin/atomonly
      stencil: full/bin/3d
      bin: standard
  (3) compute coord/atom, occasional
      attributes: full, newton on
      pair build: full/bin/atomonly
      stencil: full/bin/3d
      bin: standard
  (4) compute cluster/atom, occasional
      attributes: full, newton on
      pair build: full/bin/atomonly
      stencil: full/bin/3d
      bin: standard
Per MPI rank memory allocation (min/avg/max) = 9.805 | 9.811 | 9.817 Mbytes
Step Temp PotEng c_msd[4] v_twopoint v_fit v_max_n 
   12000    1.2774011   -6.7806436 8.4546168e-31 5.8712614e-33 8.3333333e+20            1 
   13000    1.2132584   -6.8060074   0.49824192 0.0031938583   0.04106277            4 
   14000    1.2419479   -6.7807881   0.97354331 0.0057949004  0.040186467            2 
   15000    1.2470168   -6.8328033    1.4379236 0.0079884642  0.039324109            2 
   16000    1.2309118   -6.8089174    1.9904606  0.010366982   0.04033585            3 
   17000    1.2464721   -6.7556991     2.456892  0.012043588  0.041121334            2 
   18000    1.2419118   -6.7711634    2.9201928  0.013519411   0.04077095            2 
   19000    1.2484708   -6.7794539     3.382446  0.014835289  0.040400261            4 
   20000    1.2788257     -6.80126    3.8577963  0.016074151  0.040200359            3 
   21000    1.2523309   -6.7832628    4.3372302  0.017211231  0.040141876            2 
   22000    1.2345697   -6.7554798    4.7890844  0.018140471  0.039966068            2 
   23000    1.2473995   -6.7710888    5.3429287  0.019358437  0.039879812            1 
   24000    1.2150833    -6.800148    5.8419546  0.020284564  0.040002277            2 
   25000    1.2169968   -6.8116519    6.4298589  0.021432863  0.040297548            3 
   26000     1.227518    -6.815003    6.9320845  0.022218219  0.040670298            1 
   27000    1.2377136   -6.7738269    7.5403466  0.023272674  0.040981044            3 
   28000    1.2872684   -6.8133809    8.2115292  0.024439075  0.041526126            3 
   29000    1.2393167   -6.8098159    8.5912664  0.024687547  0.041877857            3 
   30000    1.2499354    -6.830371    9.0448204  0.025124501  0.042043289            4 
   31000    1.2554982   -6.7472478    9.6442482  0.025925398  0.042161394            1 
   32000    1.2460208   -6.8398197    10.195992  0.026552062  0.042305085            3 
   33000    1.2435663   -6.8478039    10.660935  0.026921553  0.042465906            1 
   34000     1.237751   -6.7722495    11.226161    0.0275151  0.042599367            2 
   35000    1.2758771   -6.8025617    11.682458  0.027815377  0.042669837            3 
   36000    1.2159024   -6.8036669    12.167303  0.028165053  0.042693806            2 
   37000    1.2445243   -6.7919181    12.642302  0.028473653  0.042664897            2 
   38000    1.2377795   -6.8158686    13.074861   0.02867294  0.042629589            1 
   39000    1.2444522   -6.8194377    13.580535  0.029018236  0.042605521            3 
   40000    1.2503918   -6.8130265    14.087295  0.029348532   0.04253431            1 
   41000    1.2402494    -6.799927    14.557652  0.029588723  0.042479786            1 
   42000    1.2222216   -6.8181644    15.073679  0.029908093  0.042423327            2 
   43000    1.2280558    -6.760393    15.631822  0.030294229   0.04237069            1 
   44000    1.2613556   -6.8408983    15.905813  0.030124646  0.042313156            3 
   45000    1.2468802   -6.7623465    16.554609  0.030656683  0.042225891            2 
   46000    1.2355921   -6.8125016     17.04725  0.030882699  0.042190051            1 
   47000    1.2542777   -6.7925605    17.524099  0.031071098  0.042152054            2 
   48000    1.2868152   -6.7955694     17.92735  0.031123871  0.042084811            2 
   49000    1.2259833   -6.8097746    18.355918  0.031217547  0.042011498            2 
   50000    1.2612269   -6.7789403    18.911859  0.031519764  0.041939043            1 
   51000    1.2593338   -6.7611854    19.440952  0.031766261  0.041891356            2 
   52000    1.2450735   -6.8336079    19.896134   0.03188483  0.041847881            2 
   53000    1.2183569   -6.7807418     20.47335  0.032190801  0.041835268            2 
   54000     1.263044   -6.7983294    20.961532  0.032348043  0.041812186            1 
   55000    1.2437425   -6.8101075    21.591035  0.032713689  0.041811975            1 
   56000    1.2536873    -6.816735    21.995428  0.032731292  0.041812659            1 
   57000    1.2331022   -6.7958834    22.525389  0.032931855  0.041819536            1 
   58000    1.2775972   -6.8226578    23.191099  0.033320545   0.04184017            2 
   59000    1.2350904    -6.804686    23.666395  0.033427112  0.041866688            1 
   60000    1.2223385     -6.81866    24.252532  0.033684072  0.041902905            2 
   61000    1.2483725   -6.8142569    24.667358  0.033698577  0.041929803            2 
   62000    1.2589464   -6.8018423    25.173001  0.033834678  0.041957203            2 
   63000    1.2466006   -6.8115858    25.826719  0.034162327  0.041984569            1 
   64000    1.2319833   -6.8348837    26.305207  0.034251571  0.042016729            1 
   65000    1.2835599   -6.8225005    26.930881   0.03452677   0.04205372            4 
   66000    1.2347743   -6.8177977    27.413605  0.034613138  0.042094825            1 
   67000    1.2565607    -6.830031    27.904993  0.034707702  0.042122504            2 
   68000    1.2166774    -6.828914    28.297767  0.034678636  0.042145116            1 
   69000    1.2261549   -6.8168193    28.789717  0.034770189  0.042159345            1 
   70000    1.2413187   -6.8388492    29.347078  0.034936998  0.042173827            1 
   71000    1.2309952    -6.778573    29.835057  0.035017672  0.042176735            1 
   72000    1.2604139   -6.8181787    30.082532  0.034817745  0.042166565            1 
   73000    1.2508453    -6.799794    30.629659  0.034965364  0.042146479            1 
   74000    1.2480275   -6.8107171    30.961527  0.034866584  0.042111506            1 
   75000    1.2489583   -6.8070867    31.499868  0.034999853  0.042060662            1 
   76000    1.2291389   -6.8226251    31.862954  0.034937449  0.042022338            3 
   77000    1.2418957   -6.8188967    32.310075  0.034967613  0.041984033            1 
   78000    1.2446977   -6.8470301    32.773906  0.035014857   0.04194274            1 
   79000    1.2214945   -6.8125463    33.418989  0.035252098  0.041913084            1 
   80000    1.2328507   -6.7789394    33.812336  0.035221183  0.041876845            2 
   81000    1.2674723    -6.777569    34.219215  0.035204954  0.041836037            1 
   82000    1.2613686   -6.8238928    34.607867  0.035170597  0.041795363            1 
   83000     1.235306   -6.7829715    35.042029   0.03518276  0.041749119            1 
   84000    1.2378208   -6.7935976    35.435156  0.035153924  0.041696003            2 
   85000    1.2263941   -6.8186253    36.164799  0.035455685  0.041644432            2 
   86000    1.2459504    -6.761076    36.521513  0.035389063  0.041601679            1 
   87000    1.2359612   -6.8739774    37.075502  0.035512932  0.041556066            1 
   88000    1.2468922   -6.8521718    37.231642  0.035257236  0.041507294            1 
   89000    1.2606923    -6.819016    37.963425  0.035546278  0.041456784            3 
   90000    1.2410163   -6.8031333    38.420227  0.035574284  0.041417568            2 
   91000     1.249896   -6.8019931    38.865352  0.035590982  0.041376925            2 
   92000    1.2482827   -6.8429296    39.277272  0.035577239  0.041339007            1 
   93000     1.240867    -6.835102    39.691339  0.035565716  0.041303582            1 
   94000    1.2515986   -6.8132507    40.496173  0.035900863  0.041269097            1 
   95000    1.2597488   -6.7955883    40.940407  0.035912638  0.041236794            2 
   96000    1.2193317   -6.7884001    41.533629  0.036053497  0.041216746            1 
   97000    1.2093648   -6.7773147    41.952504   0.03604167  0.041202462            2 
   98000    1.2341625   -6.8402908     42.31017  0.035978036    0.0411861            2 
   99000    1.2396294   -6.8026619    42.955807  0.036158086   0.04116828            2 
  100000    1.2391338   -6.8299836    43.546792  0.036288993  0.041153518            1 
  101000    1.2215165   -6.7960321    44.004198  0.036307094  0.041147471            2 
  102000    1.2296968   -6.8456074    44.407663   0.03628077  0.041136789            4 
  103000    1.2737716   -6.8243993    44.987461  0.036397622  0.041128486            1 
  104000     1.229893   -6.8315063    45.502765  0.036460549  0.041120512            1 
  105000     1.234978   -6.8474593    45.627018  0.036211919  0.041100258            1 
  106000    1.2231932   -6.7941355     46.03719  0.036192759  0.041075253            2 
  107000    1.2176662    -6.825538    46.576643  0.036274644  0.041045194            2 
  108000    1.2485404   -6.7991078    46.716878  0.036046974  0.041017469            2 
  109000    1.2462243   -6.8141865    47.472002   0.03629358   0.04098583            2 
  110000    1.2446049   -6.8236726    47.607193  0.036066055  0.040952343            1 
  111000    1.2239061   -6.8247563    48.192074  0.036180236  0.040913829            1 
  112000    1.2041964   -6.8192354    48.553254  0.036125933   0.04087814            1 
  113000    1.2101409   -6.8539203    48.854184  0.036028159  0.040832983            2 
  114000    1.2343033   -6.7904678    49.259356  0.036008301  0.040785357            2 
  115000    1.2114624   -6.8294369    49.828478  0.036107593  0.040738201            1 
  116000    1.2475662    -6.885942    50.325794  0.036153588  0.040696374            2 
  117000    1.2693296   -6.8470823    50.850568  0.036218353  0.040660539            2 
  118000    1.2287164   -6.8111018    51.411136  0.036307299   0.04063048            2 
  119000    1.2540651   -6.8321917    51.651766  0.036170704  0.040600942            1 
  120000    1.2192931   -6.8598983    52.184716  0.036239386  0.040567907            2 
  121000    1.2419579   -6.8200447    52.544149   0.03618743  0.040531217            1 
  122000    1.2482906   -6.8379752    53.066144  0.036247366  0.040495803            3 
  123000    1.2454733   -6.7868318    53.598765  0.036313527  0.040459827            1 
  124000     1.233813   -6.8254527    54.338229  0.036517627  0.040430779            1 
  125000    1.1986904   -6.8624073    54.683007  0.036455338  0.040407947            1 
  126000    1.2458884    -6.853176    54.997396  0.036373939  0.040385525            1 
  127000    1.2295792    -6.831324    55.482286  0.036405699  0.040358878            1 
  128000    1.2241699   -6.8213322    55.554774  0.036168472  0.040323137            1 
  129000    1.2620079   -6.8336645    56.279655  0.036356366  0.040291562            1 
  130000    1.2091991   -6.8076724    56.769968  0.036391005  0.040265881            1 
  131000    1.2288835   -6.7901403    57.367083  0.036493055  0.040239095            3 
  132000    1.2455086   -6.8409688    57.785634  0.036480829  0.040211577            1 
  133000    1.2381969   -6.8564275    58.239688  0.036491033  0.040182905            1 
  134000    1.2538994   -6.8355761     58.56482  0.036420908  0.040153991            2 
  135000    1.2524988   -6.8148332    58.949892  0.036388822  0.040125736            3 
  136000    1.2118453   -6.8153346    59.396075  0.036394654  0.040096887            1 
  137000    1.2271995   -6.8341091    60.078427  0.036544055  0.040068362            2 
  138000    1.2373791   -6.8579081    60.284421  0.036403636  0.040044345            2 
  139000    1.2245909   -6.8435046    60.808711  0.036456061  0.040017637            1 
  140000    1.2346625   -6.8416926    61.141421  0.036393703  0.039989215            3 
  141000    1.2321396   -6.8640568     61.37001  0.036270691  0.039954835            2 
  142000     1.237513   -6.8125798    61.858133  0.036301721  0.039922213            1 
  143000    1.2368909   -6.8539133    62.348422  0.036333579  0.039887444            3 
  144000    1.2292259   -6.8455303    62.816411  0.036352089  0.039854152       -1e+20 
  145000    1.2457081   -6.8505114    63.062556  0.036242848  0.039820899            1 
  146000    1.2584652   -6.8450977    63.531551  0.036262301  0.039785215            1 
  147000    1.2435241   -6.8215768      64.1128  0.036345125  0.039751715       -1e+20 
  148000    1.2540371   -6.8919529    63.988044  0.036029304  0.039711251            1 
  149000    1.2280407   -6.8317816    64.555921  0.036105101  0.039668967            1 
  150000    1.2430233    -6.843376    65.421413  0.036345229  0.039629978            1 
  151000    1.2176366   -6.8686134    65.843682  0.036337573  0.039600184            1 
  152000      1.22995   -6.7980351    66.288959  0.036342631  0.039571466            2 
  153000    1.2260344    -6.862003    66.761495   0.03636247  0.039541631            1 
  154000    1.2414696   -6.8523857    67.219095  0.036373969  0.039517419            1 
  155000    1.2393403   -6.8602671    67.306453  0.036186265  0.039489822            1 
  156000    1.2132213   -6.8613809    68.313054  0.036492016  0.039464633            1 
  157000    1.2349248   -6.8217868    69.228722  0.036745606  0.039446134            1 
  158000    1.2411471   -6.8208267    69.503181  0.036657796  0.039429276            2 
  159000    1.2496753   -6.7941181    69.889751  0.036629849  0.039413102            2 
  160000    1.2468825   -6.8294554    70.295957  0.036612477  0.039398021            2 
  161000    1.2219576   -6.8928803    70.565119  0.036524389  0.039381894            1 
  162000     1.209524   -6.8387714     70.67722  0.036356594  0.039367017            3 
  163000    1.2080539   -6.8341994    71.388205  0.036497037  0.039346865            1 
  164000    1.2234528    -6.814595    72.256633  0.036715769  0.039328677            1 
  165000    1.2477518   -6.8293204    72.411094  0.036571259  0.039314435            2 
  166000    1.2159901    -6.814967    72.949011  0.036620989  0.039295079            1 
  167000    1.2128428   -6.8456327    73.454382  0.036653883  0.039279359            1 
  168000    1.2158324   -6.8053147    74.023324  0.036717918  0.039263851            1 
  169000    1.1889497   -6.8284085    73.922745  0.036451058  0.039245207            1 
  170000    1.2066978    -6.837997    74.633173  0.036584888  0.039226395            2 
  171000    1.2384436   -6.8428874    75.054013   0.03657603  0.039209858            4 
  172000     1.237266   -6.8193486     75.55127  0.036604297  0.039193035            2 
  173000    1.2431666   -6.8492308    75.932285  0.036576245  0.039177215            1 
  174000    1.2386618   -6.8628419    76.381198  0.036581033  0.039162139            1 
  175000    1.2275461   -6.8316836    77.118454  0.036723073  0.039145395            1 
  176000    1.2422809   -6.8226293    77.128642  0.036519243  0.039127495            3 
  177000     1.220913   -6.8711011    77.534616  0.036504056  0.039108513            3 
  178000    1.2424449   -6.8696201     77.86332  0.036452865  0.039085168            2 
  179000    1.2101255   -6.8789216    78.100774  0.036359764  0.039060443            1 
  180000    1.2242989   -6.8351365    78.903169  0.036529245  0.039039247            1 
  181000    1.2263127   -6.8589846    79.361731   0.03653855  0.039023263            2 
  182000     1.219585   -6.8157988    80.426461  0.036825303  0.039007789            1 
  183000    1.2077688   -6.8870748    80.224266  0.036531997  0.038991963            2 
  184000    1.2265115   -6.8519846    80.830359  0.036607952  0.038976182            1 
  185000    1.2400536    -6.867032    81.271619  0.036608837  0.038961538            2 
  186000    1.1894317   -6.8378496    81.630432  0.036572774  0.038946016            1 
  187000    1.1889236   -6.8581325     81.91312  0.036503173  0.038930673            1 
  188000    1.2063168   -6.8537293     82.38827  0.036519623  0.038912819            3 
  189000    1.2220087   -6.8403041    82.837657   0.03652454  0.038896738            1 
  190000    1.2282289   -6.7990338    83.754157  0.036734279  0.038883524            1 
  191000    1.2411018   -6.8390974    84.387299  0.036818193  0.038874193            3 
  192000    1.2109448   -6.8379345    84.480223  0.036666763  0.038865629            1 
  193000    1.2178521   -6.8893933    84.772977  0.036603185  0.038851961            2 
  194000    1.2399962   -6.8935355    85.008061   0.03651549   0.03883695            1 
  195000     1.217282   -6.8906217     85.76708  0.036652598  0.038820983            1 
  196000    1.2284907   -6.8032324    85.968339  0.036551165  0.038805325            3 
  197000    1.2281627   -6.8290675    86.511191  0.036595258  0.038790658            1 
  198000    1.1716417   -6.8381061     87.04885  0.036636721  0.038774843            2 
  199000    1.2119296   -6.8604149      86.7985  0.036347781  0.038755923            2 
  200000    1.2285529   -6.8499629    87.683235  0.036534681  0.038733892            2 
  201000    1.2660016   -6.8529912    88.056067   0.03650749  0.038715558            2 
  202000    1.1913595    -6.866969    88.293605  0.036424754  0.038697755            1 
  203000    1.2115658   -6.8770734    88.885213  0.036488182  0.038679873            2 
  204000     1.217677   -6.8192774    89.245989  0.036456695   0.03866123            2 
  205000    1.2089864   -6.8268361    89.558631  0.036405948  0.038641621            1 
  206000    1.2164709   -6.8752488    89.527403  0.036216587  0.038618463            1 
  207000    1.1979526   -6.8668797    90.353578  0.036374226  0.038595623            2 
  208000    1.2318618   -6.8503114     90.27852  0.036169279  0.038572652            1 
  209000    1.2310891   -6.8250836    91.076806  0.036314516  0.038549828            1 
  210000    1.1914377   -6.8332302    91.418413  0.036277148  0.038528648            2 
  211000    1.1959275   -6.8429967    91.845317  0.036273822  0.038506191            1 
  212000    1.1972628   -6.8631773     92.04204  0.036180047  0.038482653            1 
  213000    1.2217915   -6.8590342    92.641017  0.036244529  0.038458726            3 
  214000    1.2057695   -6.8128611    93.540317  0.036425357  0.038437486            2 
  215000    1.2165069   -6.8712868    93.584609  0.036273104  0.038416005            2 
  216000    1.2265328   -6.8363336    94.461939  0.036443649  0.038397028            2 
  217000      1.23232   -6.8479628    94.657226  0.036350701   0.03838101            1 
  218000    1.2198499   -6.8991684    95.315758  0.036435687  0.038366068            2 
  219000    1.2013846   -6.8539975    96.102614  0.036568727  0.038351644            2 
  220000    1.2335702    -6.829459    96.187876  0.036434802  0.038337022            1 
  221000    1.2381123   -6.8927572    96.857473  0.036522426  0.038323365            2 
  222000    1.2091764   -6.8591055    97.386342  0.036556435  0.038312958            2 
  223000    1.2141947   -6.8544242    98.231757  0.036708429  0.038304408            1 
  224000     1.216556   -6.8470354    98.569374  0.036670154  0.038296726            1 
  225000    1.2194805   -6.8414973     99.20324  0.036741941  0.038289745            2 
  226000    1.2040934   -6.8521747    99.719301  0.036769654  0.038284088       -1e+20 
  227000    1.2315264   -6.8242372    99.725666  0.036610009  0.038275746            1 
  228000    1.2129386    -6.873977    99.913809  0.036518205  0.038266026            1 
  229000    1.2258016   -6.8867441    100.74423  0.036660928  0.038258953            2 
  230000    1.1779617   -6.8703394    101.65187  0.036830387  0.038254261            1 
  231000    1.2207382   -6.8377127    102.39764  0.036939984  0.038250363            3 
  232000      1.19596   -6.8471822    103.12664  0.037042614  0.038251116            2 
  233000    1.2168498    -6.815542    103.84497  0.037140547  0.038254038            1 
  234000    1.2088934   -6.8374377    103.95846  0.037022245  0.038256476            2 
  235000    1.1964856   -6.8758816    104.40518  0.037023114  0.038259243            1 
  236000     1.236385   -6.8522547     105.1664  0.037135027  0.038263367            4 
  237000    1.2012502   -6.8918187    105.31198  0.037029529  0.038266961            5 
  238000    1.2361738   -6.8467169     106.4548  0.037274089  0.038272589            2 
  239000    1.2256072   -6.8828944    106.51404  0.037138788  0.038279831            3 
  240000     1.199213   -6.8307848    107.08598  0.037182631  0.038285693            1 
  241000    1.1903093   -6.8457801    107.38652  0.037132268  0.038291202            2 
  242000    1.2269314   -6.8788468      108.173  0.037249655  0.038295703            1 
  243000    1.2221341    -6.885771    108.28091  0.037133369  0.038300046            1 
  244000    1.2364064   -6.8842346    108.61569  0.037095523  0.038304753            1 
  245000    1.2077376    -6.879187    109.08645  0.037104233  0.038309883            2 
  246000    1.2319126   -6.8580723    109.83882  0.037208271  0.038314535            1 
  247000    1.2028228   -6.8768863     110.3818  0.037240823  0.038319612            1 
  248000    1.2205188   -6.8505825    111.20057  0.037365782  0.038324588            2 
  249000    1.2203831     -6.87005    111.38024   0.03727585  0.038329245            1 
  250000    1.2213808   -6.8961837    111.13637  0.037045456  0.038332866            2 
  251000    1.2320149   -6.8565698    112.33417  0.037295543  0.038336229            2 
  252000    1.1995257   -6.8613213    112.48396  0.037197078  0.038339991            1 
  253000    1.2157095   -6.9075177    112.98753  0.037215918  0.038343616            2 
  254000    1.1903448   -6.8836458    113.84948  0.037352191  0.038347095            2 
  255000    1.1932852   -6.9046047     114.0677  0.037277026  0.038351711            1 
  256000    1.2073665    -6.926082    114.06166  0.037129446   0.03835259            1 
  257000    1.2074998   -6.8425682    115.30946   0.03738958  0.038354954            3 
  258000    1.1893492   -6.8891703    115.36373  0.037262185  0.038357558            2 
  259000    1.1932677    -6.858082    115.99562  0.037321627  0.038359835            2 
  260000    1.1917449   -6.8690007    116.33339  0.037286341  0.038363763            2 
  261000    1.2206763   -6.9132199    116.48706  0.037192547   0.03836704            1 
  262000    1.2410734   -6.8967147    116.79315  0.037147949  0.038369756            1 
  263000    1.2239481   -6.8836352    117.16339  0.037124015  0.038370298            2 
  264000    1.1961929   -6.8790534    117.55945  0.037108414  0.038369493            2 
  265000    1.1858544   -6.8623161    118.47016  0.037254768  0.038368971            3 
  266000    1.2049904   -6.8304905    119.00228  0.037281414  0.038370086            1 
  267000    1.2145468   -6.8441482    118.94969  0.037125372  0.038368876            1 
  268000    1.1791883   -6.8748283    118.97366  0.036994296  0.038364481            2 
  269000    1.1922949   -6.8695277    119.87598    0.0371363  0.038359689            1 
  270000    1.2042926   -6.9089747    119.80138  0.036975734  0.038355518            2 
  271000     1.220807   -6.8495942    120.63585  0.037095894  0.038352258            1 
  272000    1.1954869   -6.9152032    120.68549  0.036974723  0.038348543            1 
  273000    1.2344573   -6.8670572    121.49542  0.037086513  0.038345187            1 
  274000    1.1816333   -6.8787536     122.0698  0.037125851  0.038341336            1 
  275000     1.223252   -6.8614557    122.34973  0.037075674  0.038337574            1 
  276000    1.2223852   -6.8454314    122.31742  0.036931588  0.038332723            1 
  277000    1.2461251   -6.8794454    122.78855  0.036939998  0.038327608            1 
  278000    1.2274359   -6.8775513    123.23877  0.036942078  0.038321314            1 
  279000    1.2236736   -6.8943556    123.76606  0.036967161  0.038314565            1 
  280000    1.1985772   -6.9152756    123.98419  0.036900058  0.038308219            2 
  281000    1.2034654   -6.8600286    124.81777  0.037015946  0.038302857            1 
  282000    1.1981493   -6.8685756    125.03981    0.0369503  0.038297496            1 
  283000    1.1937112   -6.8272957    125.76909  0.037034479  0.038290515            2 
  284000    1.1925073   -6.8310919    125.81348  0.036917102   0.03828375            1 
  285000    1.1833263   -6.8871266    126.48691  0.036984477  0.038276721            2 
  286000     1.175646   -6.8616211    126.49115  0.036856396  0.038269091            1 
  287000    1.1925444   -6.9089101    126.72926  0.036797115  0.038261552            2 
  288000    1.1823922   -6.8794678    127.02404  0.036754641  0.038253213            1 
  289000    1.2197001     -6.88145    127.57883  0.036787436  0.038244098            2 
  290000    1.2002832   -6.8854408    128.10703  0.036812364   0.03823474            4 
  291000    1.2005333   -6.9039422    128.84474   0.03689712  0.038226224       -1e+20 
  292000    1.1968343   -6.8614987    128.62865  0.036709091  0.038217797            1 
  293000    1.2010825   -6.8714552    129.47221  0.036823724  0.038208749            1 
  294000    1.1999042   -6.9055671    129.46107  0.036695315  0.038197782            1 
  295000    1.2105422   -6.8141906    130.52121  0.036870399  0.038187736            1 
  296000    1.2223384    -6.881123    130.20903  0.036657947  0.038176575            1 
  297000    1.1616254   -6.8904908    130.82198  0.036706505  0.038163693            1 
  298000    1.2029695   -6.9041584    130.57921  0.036515439  0.038150805            1 
  299000    1.2060194   -6.8778072    131.22121  0.036572244  0.038137994            3 
  300000    1.2010548   -6.9131191    132.06551  0.036684862  0.038126345            1 
  301000    1.1955395     -6.91738    132.01576  0.036549214  0.038115339            2 
  302000      1.22344     -6.88866    132.53573  0.036571669   0.03810351            2 
  303000    1.2022139    -6.874655    132.98126  0.036573503  0.038091697            2 
  304000    1.2053833    -6.880465     133.5363  0.036605346  0.038077559            3 
  305000    1.2311037   -6.9074945    134.06294  0.036629217  0.038064235            4 
  306000    1.2229099   -6.9179891    134.20137  0.036547215  0.038052676            2 
  307000    1.1925523   -6.9020429    134.93894  0.036628378  0.038040766            1 
  308000    1.2219659   -6.9117683    135.42024  0.036639675  0.038029833            1 
  309000    1.2191726   -6.8912852    135.76396  0.036613798  0.038018747            3 
  310000    1.2092283    -6.868951     136.6465   0.03673293  0.038007231            3 
  311000    1.1740361   -6.8964692    136.56971  0.036594241  0.037996504            2 
  312000    1.1916535   -6.8950698    137.35609  0.036686991  0.037984657            1 
  313000    1.1805654   -6.9330794    137.45788   0.03659688  0.037973476            2 
  314000    1.1941899   -6.8755781    137.76827  0.036562704  0.037962555            4 
  315000    1.1836489   -6.8973074    138.20819  0.036563014  0.037951566            2 
  316000    1.2456353   -6.9113774    139.11646   0.03668683  0.037941848            2 
  317000    1.2071692    -6.910151    138.94679  0.036526496  0.037932642            3 
  318000     1.223617    -6.876103    139.93002  0.036669292  0.037923029            1 
  319000    1.2225229    -6.885353    140.44028  0.036687637  0.037914265       -1e+20 
  320000    1.1938963   -6.9209133    140.37766  0.036556681  0.037903972            2 
  321000    1.1957666    -6.894501    140.49291  0.036472719  0.037892706            1 
  322000    1.1951095   -6.8915005    140.86388  0.036455455  0.037881866            1 
  323000    1.2006393   -6.8824514    141.59336  0.036530795  0.037870135            1 
  324000    1.1965403   -6.9329813    142.08599  0.036544752  0.037858832            1 
  325000    1.1982742   -6.9089447    142.56137  0.036554196   0.03784945            1 
  326000    1.1995769   -6.8677472    142.78178  0.036498409  0.037839863            2 
  327000    1.2093392   -6.8971976    143.23192   0.03650151  0.037830182            1 
  328000    1.1864135   -6.8898483    143.59913   0.03648352  0.037819111            1 
  329000     1.195939   -6.8911834    143.90169  0.036449264  0.037807236            1 
  330000    1.1908196   -6.8927294    144.58956  0.036512515  0.037795511            1 
  331000    1.1874394    -6.876162    144.81001  0.036457706  0.037783325            1 
  332000    1.2190844   -6.9444867    145.25603  0.036459847  0.037771592            1 
  333000    1.1837351   -6.9342155    145.07493  0.036305036  0.037761215            2 
  334000    1.2073639   -6.8727773    146.48656  0.036548544   0.03775194            3 
  335000    1.2139611   -6.9404337    146.29442  0.036391648  0.037743482            2 
  336000    1.1630148    -6.891625    146.98546  0.036454728  0.037733067            1 
  337000    1.1839848   -6.9244778    147.65351  0.036511749  0.037723054            2 
  338000    1.1906773   -6.8903743    148.06836  0.036506006  0.037712419            2 
  339000    1.2355277   -6.8778961    148.28085  0.036450553  0.037701851            1 
  340000    1.1735435   -6.9188084     149.0005   0.03651973  0.037690743            3 
  341000    1.1983656   -6.9344412    149.02476  0.036418564  0.037680546            1 
  342000    1.1897273   -6.8917745    149.88291  0.036521178  0.037671689            4 
  343000    1.1766568   -6.9009164    149.87451  0.036412661  0.037663261            1 
  344000     1.191824     -6.83957     151.2917  0.036650122  0.037655835            1 
  345000      1.18946   -6.9048318    150.98514  0.036469839  0.037648388            1 
  346000    1.1803154   -6.8769254    151.26178  0.036431065  0.037639047            3 
  347000     1.204246   -6.9144751     151.4331  0.036367219  0.037629247            2 
  348000    1.1685244   -6.9132645    151.71613  0.036330492  0.037619732            3 
  349000    1.1956908   -6.9129627    152.58027  0.036432729  0.037609615            1 
  350000    1.1737152   -6.9269304    153.09293  0.036450698  0.037599982            3 
  351000    1.1698076   -6.9283003     153.5691    0.0364599  0.037590444            2 
  352000    1.2047365    -6.912143    153.70558   0.03638863  0.037581093            1 
  353000    1.1670603   -6.8983845    154.61768  0.036500868  0.037571287            4 
  354000    1.1926757   -6.9118115    154.76632  0.036432749   0.03756228            2 
  355000    1.1812339   -6.9453143    155.22201  0.036437092  0.037554018            3 
  356000    1.1890151   -6.9159909    155.82089  0.036474926  0.037546032            1 
  357000    1.2086235    -6.895217    156.39348  0.036506415  0.037537918            3 
  358000    1.2044995   -6.8882455    156.81548  0.036502672  0.037530308            2 
  359000    1.1632742   -6.9033017    157.45744  0.036550008  0.037523024            3 
  360000    1.1744875   -6.9114434    157.43149  0.036442474   0.03751592       -1e+20 
  361000    1.1879018   -6.9228915    157.60003  0.036380431  0.037508876            1 
  362000    1.2107826   -6.8971278    158.70735  0.036534841  0.037501532            2 
  363000    1.2034162   -6.8693876    158.74983  0.036443946  0.037494208            1 
  364000     1.198951   -6.9224614    159.24616  0.036457455  0.037487548            2 
  365000    1.1896097     -6.89255    159.49035  0.036413322  0.037479018            2 
  366000    1.1629154   -6.9133983    160.35015  0.036509597  0.037471466            1 
  367000    1.2009506   -6.9076806    160.32982  0.036405499   0.03746251            1 
  368000    1.1926798   -6.9067669    160.95142  0.036447333  0.037452919            2 
  369000    1.2252161   -6.9042126    160.46752  0.036239278  0.037443105            1 
  370000    1.1678047   -6.9100154    160.97435  0.036255485  0.037433443            1 
  371000     1.190008   -6.9024118    162.52288  0.036505587  0.037424091            1 
  372000    1.2057884   -6.8964006     162.7246  0.036452644  0.037416428            4 
  373000    1.2048591   -6.9201589    162.67918  0.036344769  0.037408473            4 
  374000    1.1824936   -6.9772597    163.18868  0.036361114  0.037400632            1 
  375000    1.1872848   -6.8943615    164.05897  0.036457549  0.037393115            3 
  376000    1.1830166   -6.8927488    164.41867  0.036440308   0.03738559            2 
  377000    1.1734174   -6.9357104    164.36134  0.036330977  0.037378035            2 
  378000    1.1877178   -6.8935217    164.87118  0.036347262  0.037370291            3 
  379000    1.2167448   -6.9351241    165.30196  0.036346078  0.037362036            2 
  380000     1.179605   -6.8744601    166.29628  0.036468482  0.037354856            1 
  381000    1.1891946   -6.8917518    166.34842  0.036384168  0.037347881            1 
  382000    1.2031931   -6.9523743    166.34861  0.036288965  0.037340024            2 
  383000    1.1547164    -6.947374    167.00773  0.036337626  0.037331772            1 
  384000    1.2077597   -6.9375991    167.65378    0.0363832   0.03732317            1 
  385000    1.1951743    -6.904999    168.22934  0.036413277  0.037316434            1 
  386000    1.1836468   -6.9014641    168.04246  0.036278597  0.037309368            3 
  387000    1.1961803   -6.8964196    168.90624  0.036370853  0.037301876            1 
  388000    1.1819802   -6.9167808    169.16189  0.036332021  0.037294415            1 
  389000    1.1952587   -6.9176558    169.42436  0.036294849  0.037285873            1 
  390000    1.1799369   -6.9642374    169.21838  0.036157773  0.037276188            1 
  391000    1.2298141   -6.9105891    169.41026  0.036106194  0.037265573            3 
  392000     1.188543   -6.9594822     169.3171  0.035994281  0.037253998            1 
  393000    1.1710993    -6.943685    170.32431  0.036116267  0.037242503            2 
  394000    1.2178109   -6.9342827    170.06072   0.03596885  0.037230162            1 
  395000    1.1901948   -6.9373394     171.4438  0.036169578  0.037218496            1 
  396000    1.1720767   -6.9263896    171.38098  0.036065022  0.037206703            2 
  397000    1.1777502   -6.9310324    171.57498  0.036014899  0.037195666            1 
  398000    1.1798256   -6.9457953    171.91828   0.03599629  0.037183811            1 
  399000    1.1895243   -6.9132185    172.17688  0.035960083  0.037172409            1 
  400000    1.1716064   -6.9187565    172.84463  0.036009297  0.037160298            1 
  401000    1.2041997   -6.9298623    173.28811  0.036011659   0.03714927            1 
  402000    1.1847527   -6.9095444     173.8098  0.036030224   0.03713755            2 
  403000    1.1918069   -6.9143771     174.5081  0.036085214    0.0371258            1 
  404000    1.1944079   -6.9025828    174.07636  0.035906839  0.037114472            2 
  405000    1.1853602   -6.9316106    174.44444  0.035893917  0.037103123            2 
  406000    1.1740312   -6.9005749    175.39281  0.036000167  0.037091288            2 
  407000    1.1861467   -6.9291462    175.38232  0.035909566  0.037079251            1 
  408000    1.2099586   -6.9167904    176.21512   0.03599165  0.037067065            2 
  409000    1.1759509   -6.9494068    176.01738  0.035863361  0.037055055            3 
  410000      1.18482   -6.9299634    176.27781  0.035828824  0.037042613            2 
  411000    1.1704737   -6.9309084    176.85805  0.035859296  0.037030134            1 
  412000    1.1910994    -6.945766    177.11364  0.035823957  0.037018114            2 
  413000    1.1738787    -6.892295    177.38546  0.035792063  0.037005959            2 
  414000    1.1823682   -6.9118493    178.63365  0.035956854  0.036994128            1 
  415000    1.1881422   -6.9513074    178.21053  0.035785247  0.036982481            2 
  416000     1.169737    -6.938798    178.88557  0.035834449  0.036969906            2 
  417000    1.2052379   -6.9403651    178.54136  0.035679728  0.036957509            2 
  418000    1.1925402   -6.9524032    178.96897   0.03567962   0.03694457            1 
  419000    1.2113482   -6.9109997    180.05126  0.035809718  0.036931822            2 
  420000    1.1916918   -6.9100068    179.79469  0.035673549  0.036919019            2 
  421000    1.1675738    -6.957285    180.70666  0.035769331  0.036905564            3 
  422000    1.1847674   -6.9141013    181.29542  0.035800833  0.036892608            2 
  423000    1.1924966   -6.9101674    181.56586  0.035769477   0.03688072            2 
  424000    1.1828618    -6.873034     182.3148  0.035832312  0.036868766            2 
  425000    1.1773424     -6.91284    183.21576  0.035924659  0.036856891            1 
  426000    1.1839474   -6.9075251    183.28875  0.035854606  0.036845582            1 
  427000    1.1946907   -6.9743316    182.44444  0.035605863  0.036833706            2 
  428000    1.1882515    -6.939231    183.78618  0.035783914  0.036822573            1 
  429000    1.1385057   -6.9160687    184.33195  0.035806517  0.036811823            1 
  430000    1.1725539   -6.9613568    184.60319  0.035775813  0.036800872            1 
  431000    1.2040448   -6.9353023    184.80115   0.03573108  0.036789988            4 
  432000    1.1994107   -6.9106184    186.33506  0.035944263  0.036780136            1 
  433000     1.155331   -6.9408962    186.15172  0.035825967  0.036770686            3 
  434000    1.1804422   -6.9153424    186.26919  0.035765974   0.03676075       -1e+20 
  435000     1.224011   -6.9591682    186.49881  0.035727741  0.036749981            2 
  436000    1.2221619   -6.9219492    187.43405  0.035824551   0.03673956            1 
  437000    1.1851073   -6.9504205    187.37181  0.035730703  0.036729266            1 
  438000    1.1820215    -6.922603    188.12488  0.035792405  0.036718555       -1e+20 
  439000    1.2058802   -6.9311396    188.23125  0.035731065  0.036707858            2 
  440000    1.1852748   -6.8992129    189.36319   0.03586424  0.036697865            2 
  441000      1.15418   -6.9408294    188.79604  0.035675744  0.036688159            2 
  442000    1.1924994   -6.9218159    189.91676  0.035806328  0.036678011            3 
  443000    1.1886959   -6.9085286    190.55552  0.035845659  0.036667544            3 
  444000    1.1637996   -6.9250021    190.20047  0.035698286  0.036657321            1 
  445000    1.1985496   -6.9141521    191.27805  0.035819859  0.036647728            2 
  446000    1.1810873    -6.964232    191.29149  0.035742057  0.036637309            1 
  447000     1.192023    -6.946478    191.80271  0.035757403  0.036626771            3 
  448000    1.1688284   -6.9713301     191.0891  0.035544847  0.036617206            1 
  449000    1.1232502   -6.9021621    192.08735  0.035650956  0.036606967            1 
  450000    1.1791895   -6.9103082    192.59864  0.035666415  0.036596283            1 
  451000      1.17239    -6.897806    192.92479  0.035647596  0.036585919            1 
  452000    1.1584723   -6.9537363    192.70213  0.035527678  0.036574863            2 
  453000    1.2019874   -6.9181031    193.52657  0.035600915  0.036563827            2 
  454000    1.1670547   -6.9805938    193.34318  0.035488837  0.036552128            1 
  455000    1.1781969    -6.927269    194.35255  0.035595706   0.03654035            1 
  456000    1.1726548   -6.9610318    194.57211  0.035557769  0.036529242            2 
  457000    1.1554652   -6.8875669    195.54021  0.035656494  0.036518612            6 
  458000    1.1699355   -6.9335749    195.55677  0.035581655  0.036507836            1 
  459000    1.1720271   -6.9034477    195.88387   0.03556352  0.036496809            2 
  460000     1.185469   -6.9334368    196.21095  0.035545461   0.03648701            2 
  461000    1.1653058   -6.9182157    197.46921  0.035695809  0.036477479            1 
  462000    1.1918608    -6.926905    197.99915  0.035714133  0.036467924            1 
  463000    1.2135635   -6.9531328    197.93732  0.035625867  0.036458449            3 
  464000    1.1526077   -6.9309936    198.56169  0.035661223  0.036449378            1 
  465000    1.1657989   -6.9576956    199.17411  0.035694285  0.036440374            2 
  466000    1.1836532   -6.9466695    199.24543  0.035630442  0.036431694            2 
  467000    1.1982008   -6.9263326    200.02608  0.035693447  0.036423238            1 
  468000    1.1722299   -6.9491143    199.84343  0.035584657  0.036414275            1 
  469000    1.1720368   -7.0071122    199.73112  0.035488827  0.036405216            3 
  470000    1.1651415   -6.9417915    200.72748  0.035589979  0.036396426            2 
  471000    1.1912299   -6.9537711    201.93808  0.035728605  0.036387761            1 
  472000    1.1672823    -6.930164    200.95023  0.035478501  0.036378872            1 
  473000    1.1761915   -6.9387242    201.88098  0.035567474  0.036369334            2 
  474000    1.1782014   -6.9502618    203.22497  0.035728722  0.036359586            2 
  475000    1.1956167   -6.9470915    202.21077  0.035475574  0.036350377            1 
  476000    1.1794831   -6.9452484    201.88089  0.035343293  0.036341011            1 
  477000    1.1772803   -6.9092446    203.08523    0.0354796  0.036331273            1 
  478000    1.1975308   -6.9500558     203.3621  0.035453643  0.036321948            3 
  479000     1.168398   -6.9397812    204.73683  0.035618794  0.036313092            2 
  480000    1.1691003   -6.9676167    204.67313  0.035533529   0.03630394            1 
  481000    1.1681673    -6.931471    204.70663  0.035465459  0.036293999            2 
  482000    1.1762155   -6.9597251    205.14201  0.035467153  0.036285079            2 
  483000    1.1553389   -6.9258864    206.33872  0.035600194  0.036275177            2 
  484000    1.1878948   -6.9438264    205.53741  0.035388672  0.036266003            1 
  485000    1.1464318   -6.9190791    207.17124  0.035596432  0.036256552            1 
  486000    1.1769097   -6.9387458     206.6273  0.035429921  0.036246962            1 
  487000    1.1658655   -6.9909902    206.25977   0.03529428  0.036237416            1 
  488000    1.1530599   -6.9760407    206.94133  0.035338341  0.036226934            3 
  489000     1.168356   -6.9791528    206.88045  0.035255701  0.036215695            1 
  490000    1.1846861   -6.9838269    206.99253  0.035202811  0.036203979            1 
  491000    1.1795493   -6.9766346    207.73721  0.035257504  0.036192079            2 
  492000    1.1873033   -6.9979279    207.99805  0.035230022  0.036181104            1 
  493000    1.1750954   -6.9115741    209.81273  0.035465302  0.036170143            2 
  494000    1.1561169   -6.9132202    209.22964  0.035295148  0.036160196            1 
  495000    1.1702569   -6.9562282    209.02058   0.03518865   0.03614919            2 
  496000    1.1845601   -6.9541227    209.87704  0.035261599  0.036138925            1 
  497000    1.1716895   -6.9736981    210.68203  0.035325626   0.03612879            1 
  498000    1.1549247   -6.9431141    211.25102  0.035349902  0.036118995            2 
  499000    1.1609198   -6.9381335    211.96327  0.035398008  0.036109405            1 
  500000    1.1762614   -6.9561028    212.81149  0.035468581  0.036100531            2 
  501000    1.1753155   -6.9499013    212.48499  0.035343477  0.036091318            2 
  502000    1.1815625   -6.9229557    213.54331  0.035448757  0.036082469            2 
  503000    1.1843448   -6.9512103    213.60391  0.035388322  0.036073823            3 
  504000    1.1572476    -6.963825    214.21255  0.035418741  0.036065331            2 
  505000     1.191242   -6.9521052    214.34669  0.035370741  0.036056451            1 
  506000    1.1834475   -6.9875746    214.43708  0.035315724  0.036048438            1 
  507000     1.176418   -6.9742988    215.23584  0.035377356  0.036040521            4 
  508000    1.1655982   -6.9095935    215.73987  0.035390398  0.036032525            2 
  509000     1.148217   -6.9554027    216.32541  0.035416734   0.03602456            1 
  510000     1.167633   -6.9513645    216.87289  0.035436747  0.036016525            2 
  511000    1.1394206   -6.9515115    217.44985  0.035461489  0.036009253            1 
  512000    1.1413381   -6.9827109    217.28265  0.035365015   0.03600172            1 
  513000    1.1728977   -6.9473495    218.17057  0.035440313   0.03599465            1 
  514000    1.1781014   -6.9762829    218.63389  0.035446481   0.03598792            2 
  515000    1.1578788   -6.9401538    218.93121  0.035425762  0.035980879            1 
  516000    1.1636259   -6.9248194    219.95763  0.035522874  0.035973664            1 
  517000    1.1692933   -6.9869451    219.48899  0.035378626  0.035966359            2 
  518000    1.1589956   -6.9076486    220.94197  0.035544074  0.035959716            1 
  519000    1.1720961    -6.960525    220.89326  0.035467769   0.03595226            1 
  520000    1.1838497   -6.9237323    220.35727  0.035313665  0.035945104            1 
  521000    1.1793542   -6.9385934    220.76614  0.035311283  0.035937967            2 
  522000    1.1820354   -6.9621984    221.17983   0.03530968  0.035930575            3 
  523000    1.1811109   -6.8983849    223.13315  0.035553403  0.035923903            1 
  524000    1.1557891   -6.9668522    223.23068  0.035501063  0.035917499            1 
  525000    1.1602555   -6.9537951    222.67853  0.035345798  0.035910796            1 
  526000    1.1674403   -6.9472097    223.81505  0.035458658  0.035903851            2 
  527000     1.175653   -6.9954228    223.26917  0.035305055  0.035896927            3 
  528000    1.1696083   -6.9853754    223.37355  0.035254664   0.03588968            3 
  529000       1.1759   -6.9888866     224.6006  0.035381317  0.035882689            2 
  530000    1.1687409   -6.9956897    224.68214  0.035327381  0.035875773            2 
  531000    1.1623756   -6.9851918    224.22009  0.035188338  0.035868435            1 
  532000    1.1488327   -6.9805171    225.56543   0.03533293  0.035860869            2 
  533000    1.1564865   -6.9318358    225.28572  0.035222908  0.035853673            1 
  534000    1.1546297   -6.9415559     226.5569  0.035355322  0.035846802            1 
  535000    1.1566001   -6.9557172    226.04549  0.035209578  0.035839554            1 
  536000    1.1716515   -6.9544791     227.1664  0.035318159  0.035832673            3 
  537000    1.1926552   -6.9899016    226.39331   0.03513242  0.035825401            1 
  538000    1.1692411   -6.9805345    227.41186  0.035224886  0.035817927            2 
  539000    1.1740052   -6.9429801    228.76069  0.035368072  0.035810568            1 
  540000    1.1753852   -6.9383488    228.74444  0.035300068  0.035803694            3 
  541000    1.1655435   -7.0201944    228.14348  0.035142249  0.035796782            3 
  542000    1.1594616   -6.9731273    229.77464  0.035328205  0.035789727            4 
  543000    1.1358728   -6.9752546    230.06006  0.035306946   0.03578316            1 
  544000    1.1560584   -6.9922999     230.8681  0.035365824  0.035776747            4 
  545000    1.1486022   -6.9331342    231.07089  0.035331941  0.035770369            3 
  546000    1.2049114   -6.9820881    230.63145  0.035200161  0.035764183            2 
  547000     1.146498   -6.9769054    231.20298  0.035222879  0.035757582            1 
  548000     1.181858   -6.9567758    231.35572   0.03518183  0.035750777            2 
  549000    1.1748061   -6.9444611    233.19182  0.035396451  0.035744491            1 
  550000    1.1586986   -6.9856912    232.12892  0.035171048   0.03573715            1 
  551000    1.1824545   -7.0123871    232.12549  0.035106699  0.035729903            2 
  552000    1.1507964    -6.958567    233.23339  0.035210354  0.035722809            2 
  553000    1.1549316   -6.9437791    233.78853  0.035230339  0.035715868            2 
  554000    1.1509394   -7.0161192    233.57388  0.035134458  0.035708587            2 
  555000    1.1289017   -7.0073331    233.77369  0.035101155  0.035701043            2 
  556000     1.181449   -6.9340527     234.9274  0.035210941    0.0356936            1 
  557000    1.1880435   -7.0315763    234.60802  0.035099944  0.035685866            2 
  558000    1.1429529   -6.9785352    235.30235  0.035140734  0.035678018            1 
  559000    1.1379015   -7.0095989    235.13876  0.035053482  0.035670261            1 
  560000    1.1716769   -6.9589746    236.27049  0.035159299  0.035662395            2 
  561000    1.2017393   -6.9449088    236.33561    0.0351063  0.035655012            3 
  562000     1.173911   -6.9749221     236.3021  0.035038864  0.035647716            4 
  563000    1.1583938   -6.9321001    237.55108  0.035161498  0.035640592            2 
  564000    1.1694766   -6.9846076    237.62408  0.035109941  0.035632734            2 
  565000    1.1655192   -6.9767619    238.16921  0.035128202    0.0356256            2 
  566000     1.177118   -6.9975314    238.26338  0.035080003  0.035618793            2 
  567000    1.1500777   -6.9743984    238.70384  0.035082869  0.035611619            3 
  568000    1.1748338   -6.9747608    239.25377  0.035101785  0.035604286            1 
  569000    1.1703418   -6.9582441     239.1443  0.035024063  0.035596742            2 
  570000    1.1455845   -6.9842566    239.93126  0.035077669  0.035589223            3 
  571000    1.1462109   -7.0011337    240.30773  0.035071181  0.035582478            2 
  572000    1.1640239    -6.938442    241.44818  0.035176016  0.035575827            3 
  573000    1.1393464   -6.9956398    242.07541  0.035205848  0.035568998            2 
  574000    1.1887201   -6.9970704    242.13255  0.035152809  0.035562259            4 
  575000    1.1727144    -6.982097    242.53825   0.03515047  0.035555378            1 
  576000    1.1336078   -6.9823926     242.2034  0.035041001  0.035548468            2 
  577000    1.1541375   -6.9996248    242.72426  0.035055496  0.035541265            2 
  578000    1.1747057   -6.9782957    242.64208  0.034982998  0.035534586            2 
  579000    1.1785782    -6.955093    243.46896   0.03504159  0.035527619            2 
  580000    1.1306051   -6.9920153    243.74703  0.035021124  0.035520431            2 
  581000    1.1548233   -6.9863871    244.02548  0.035000786  0.035513167            1 
  582000    1.1363506   -6.9995426    243.72982  0.034898313   0.03550504            2 
  583000    1.1787233   -6.9402983    244.75313  0.034984724  0.035497246            2 
  584000    1.1551748   -6.9546679    244.28848  0.034858516   0.03548887            2 
  585000    1.1537803   -7.0070543    244.26879  0.034796124  0.035480627            2 
  586000    1.1640408    -6.967521     245.2382  0.034874601  0.035471701            2 
  587000    1.1355515   -6.9951829    245.13377  0.034800366  0.035463148            1 
  588000    1.1831426   -6.9515269    246.07341   0.03487435  0.035454101            1 
  589000    1.1688212   -6.9761051    245.80999   0.03477787  0.035445089            1 
  590000    1.1798889   -6.9632174    246.58146   0.03482789  0.035436269            2 
  591000    1.1748061   -6.9776913    248.11299   0.03498491  0.035427674            2 
  592000    1.1488971   -6.9874423    247.52502  0.034843049   0.03541956            2 
  593000    1.1646076   -6.9780591    247.55641  0.034788703  0.035411865            2 
  594000    1.1868654   -6.9826102    248.53682   0.03486768  0.035403822            1 
  595000    1.1515945   -6.9500141    249.19662  0.034901487  0.035395141            2 
  596000    1.1315506   -6.9304163    249.39303   0.03487039  0.035386432            3 
  597000    1.1615243   -6.9880828    249.09968  0.034771032  0.035378089            2 
  598000    1.1500934   -6.9787648    249.57237  0.034778758  0.035369788            1 
  599000    1.1572997   -6.9305459    250.45533  0.034843535  0.035361648            2 
  600000    1.1631069   -6.9582365    249.98725  0.034720451  0.035353903            2 
  601000    1.1547899   -6.9650944    251.05836  0.034811197   0.03534546            3 
  602000    1.1454629   -6.9949451    251.13178  0.034763536  0.035337051            2 
  603000    1.1314749   -6.9942941    250.76684  0.034655451  0.035328533            3 
  604000    1.1431882   -6.9782758    251.91837  0.034756949  0.035320055            1 
  605000    1.1535766   -7.0216374    251.63575  0.034660572  0.035311808            2 
  606000    1.1721507   -6.9948122    252.46439  0.034717325  0.035303723            4 
  607000     1.142065   -6.9741801    252.79019  0.034704859  0.035295406       -1e+20 
  608000    1.1513698    -6.966455    253.46626  0.034740441  0.035287844            1 
  609000    1.1738015   -6.9849956    253.07286  0.034629565  0.035279184            2 
  610000    1.1302149   -6.9608262    255.15431  0.034857146  0.035270412            2 
  611000     1.177518   -6.9674885    254.88259  0.034763037  0.035261795            1 
  612000    1.1690807   -6.9568632    254.64772  0.034674254  0.035252977            1 
  613000    1.1491775   -6.9403906    255.78255  0.034771961  0.035244327            1 
  614000    1.1518671   -7.0031835    254.86607  0.034590944  0.035235813            2 
  615000    1.1398584   -7.0165689    255.29072  0.034592238  0.035227035            1 
  616000    1.1613375   -6.9800645    256.10193  0.034645824  0.035218433            2 
  617000    1.1322653   -6.9742568    256.38714  0.034628193  0.035209453            1 
  618000    1.1718495    -7.033308    256.60601  0.034601674  0.035199956            1 
  619000    1.1456552   -6.9697886    256.55526  0.034538942  0.035190775            1 
  620000    1.1668965   -7.0026507    256.66592  0.034498107  0.035181131            3 
  621000    1.1581367   -6.9741267    257.60319   0.03456833  0.035171047            1 
  622000    1.1944649   -6.9691414     257.9388  0.034557717  0.035161218            3 
  623000    1.1463863   -7.0496389    256.95562  0.034370735  0.035151408            2 
  624000    1.1509349   -7.0110529    257.39786  0.034374714  0.035140929            1 
  625000    1.1201094   -6.9652311    258.19656  0.034426208  0.035130708            2 
  626000     1.133129   -7.0214519    256.98484  0.034209909  0.035119978            1 
  627000    1.1368851   -7.0400337    257.38837  0.034208981  0.035109066            2 
  628000    1.1579598   -7.0188821    258.56747   0.03431097  0.035098485            2 
  629000    1.1531321   -7.0005216    259.09001   0.03432565  0.035088054            1 
  630000    1.1609017   -7.0403899    259.26008  0.034293662  0.035077294       -1e+20 
  631000    1.1559724   -6.9534791    259.45225  0.034264692  0.035066935            3 
  632000    1.1486901   -6.9877025    260.20196   0.03430933  0.035057026            3 
  633000    1.1601313   -6.9928287    260.51952  0.034296936  0.035046882            1 
  634000    1.1633501   -7.0152341    261.13016  0.034323101    0.0350368            1 
  635000    1.1575704   -6.9964763    261.96465  0.034378563  0.035026741            5 
  636000    1.1382676   -6.9746974    262.32233  0.034371374  0.035016372            3 
  637000    1.1566438   -6.9727621    261.64137  0.034228332  0.035006063            2 
  638000    1.1581694   -7.0156755    261.86098  0.034203367  0.034995572            1 
  639000    1.1530522   -6.9860996    263.35942  0.034345255  0.034984598            2 
  640000    1.1519725   -6.9701636    263.27775  0.034280957  0.034973797            2 
  641000    1.1537914   -6.9667831    263.37716    0.0342404  0.034963245            3 
  642000     1.152548   -6.9766889    263.76142  0.034236945  0.034952454            3 
  643000    1.1422524   -7.0419092    263.18856  0.034109456  0.034941916            2 
  644000    1.1432353   -6.9925104    264.14215  0.034179884  0.034931385            1 
  645000    1.1530235   -7.0434048    264.81433  0.034213738  0.034920933            2 
  646000    1.1299489   -7.0069076     264.9282  0.034175465  0.034910475            1 
  647000    1.1504192   -7.0066191    265.00568  0.034132623  0.034900287            2 
  648000    1.1293478   -7.0081041    265.89358  0.034194133  0.034889835            1 
  649000    1.1401953   -7.0250048    266.47892  0.034216605  0.034879456            1 
  650000    1.1153529   -7.0370776    266.50717  0.034167586  0.034869506            3 
  651000    1.1508944    -6.976115    267.60771   0.03425598  0.034859499            2 
  652000     1.149135   -6.9847549    267.92423  0.034243894      0.03485            1 
  653000    1.1496539   -6.9892214    268.77892  0.034300525  0.034840993            1 
  654000    1.1322488   -7.0022194    268.32804  0.034190627  0.034831593            3 
  655000    1.1196446   -7.0086937    269.75378  0.034319819  0.034822454            1 
  656000     1.149526   -6.9939103    269.15238  0.034191105  0.034813122            1 
  657000    1.1602322   -6.9887188    269.71343  0.034210227  0.034803878            1 
  658000     1.147972    -7.007987    270.05377  0.034201339   0.03479424            1 
  659000    1.1506662    -6.983183    270.47053  0.034202141  0.034784408            2 
  660000    1.1293112   -7.0124387    270.34849   0.03413491  0.034774587            3 
  661000      1.15491   -7.0180256    270.58018  0.034112479  0.034765196            3 
  662000    1.1444926   -7.0061224     271.4949  0.034176095  0.034755733            2 
  663000    1.1492634   -6.9564347    271.84786  0.034168912  0.034746038            1 
  664000    1.1526307   -7.0185402    271.47533  0.034070699   0.03473644            1 
  665000    1.1469775   -7.0029596    272.24692  0.034116156  0.034726289            1 
  666000    1.1242973   -7.0076784    272.77439  0.034130929  0.034716098            3 
  667000    1.1492432   -6.9934177      272.423  0.034035857  0.034705787            1 
  668000    1.1466292   -7.0011386    272.26067  0.033964655  0.034695592            1 
  669000     1.150604   -7.0063875    273.02985  0.034009697  0.034685509            1 
  670000    1.1578075   -6.9880419    273.82134  0.034057381  0.034675214            3 
  671000    1.1454904   -7.0051195    274.73995  0.034120709  0.034665157            5 
  672000    1.1356662   -7.0109565    273.96279   0.03397356  0.034654975            3 
  673000     1.120069   -7.0229807    274.21235  0.033953981  0.034644654            2 
  674000    1.1304396    -6.958016    274.86871  0.033984756  0.034634782            1 
  675000    1.1530579   -6.9721299    275.28097  0.033985305  0.034624458            2 
  676000    1.1568989   -6.9892556    276.44554  0.034078592  0.034614482            2 
  677000    1.1737162   -7.0197264    276.88689  0.034082582   0.03460445            1 
  678000    1.1526351   -7.0297161    277.00024  0.034046244  0.034594836            2 
  679000    1.1528795   -6.9963417    277.15672  0.034015307  0.034585596            3 
  680000    1.1457644   -7.0202464    277.75523  0.034038632  0.034576126            1 
  681000    1.1465369   -7.0026379    278.60842  0.034093052  0.034566967            1 
  682000    1.1369495   -7.0548903    277.59642  0.033919406  0.034557477            1 
  683000    1.1535579   -7.0071879    278.53303   0.03398402  0.034547983            2 
  684000    1.1522078   -7.0538066    278.08616  0.033879893  0.034538275            2 
  685000    1.1456159   -6.9790085    278.87815  0.033926782  0.034528698            1 
  686000    1.1511515   -7.0067994    280.01769  0.034015754  0.034519235            2 
  687000    1.1432608   -7.0073877    279.88667  0.033950348  0.034509706            3 
  688000    1.1469332       -6.994    281.19765  0.034059793  0.034500413            2 
  689000    1.1459961   -7.0385998    279.63456  0.033821306  0.034490598            2 
  690000    1.1314818    -7.018039    280.75762  0.033907925  0.034480701            2 
  691000    1.1551603   -7.0485674     280.6194  0.033842186   0.03447054            3 
  692000    1.1320971   -7.0377075    281.09188  0.033850179  0.034460782            3 
  693000    1.1345667   -7.0361185    281.88683  0.033896925  0.034450898            1 
  694000    1.1537934   -7.0478019    281.30201  0.033777859  0.034441129            2 
  695000    1.1404951   -7.0213019    281.73247  0.033780871  0.034430966            3 
  696000    1.1678865   -7.0161785    281.49577  0.033703995  0.034420898            1 
  697000     1.147072     -7.03158    282.31468  0.033753549  0.034410882            2 
  698000    1.1280889   -7.0054228    282.59915  0.033739154  0.034400454            2 
  699000    1.1436484   -6.9834194    283.63726  0.033814647  0.034390106            2 
  700000    1.1594625   -6.9865225    284.58954  0.033879708  0.034380682            1 
  701000    1.1371024   -7.0114858    284.71591  0.033846399  0.034370795            2 
  702000     1.137474   -6.9767426    283.77926  0.033686996  0.034360873            2 
  703000    1.1652001   -6.9540871    284.64177   0.03374132  0.034351221            1 
  704000    1.1519627   -7.0059797    285.34417  0.033776535  0.034341456            5 
  705000    1.1115649   -7.0393611    285.09364  0.033699011  0.034331729            1 
  706000    1.1496138    -7.011683    285.23485  0.033667948  0.034321375            2 
  707000    1.1463502   -7.0064668    285.87315  0.033695562  0.034311656            1 
  708000    1.1240311   -7.0316458    286.50882  0.033722789  0.034302085            2 
  709000    1.1324687    -7.010538    286.96178  0.033728465  0.034292343            1 
  710000    1.1302174   -7.0364904    286.15125  0.033585827  0.034282589            2 
  711000    1.1319722   -7.0412785    287.06754  0.033645984  0.034272425            2 
  712000    1.1402599   -7.0408811    286.75883  0.033562597   0.03426253            4 
  713000    1.1533806   -7.0598596    287.40164  0.033590654  0.034252238            2 
  714000     1.128795   -7.0035648    287.80788  0.033591022  0.034242148            1 
  715000    1.1284957   -7.0301957    288.86986  0.033667815  0.034232183            1 
  716000    1.1251632   -7.0275297    289.32643  0.033673933   0.03422252            2 
  717000    1.1442176   -7.0247288    290.64235  0.033779911  0.034213315            3 
  718000    1.1351468   -7.0089469    291.42184  0.033823333  0.034203853            1 
  719000    1.1246459   -6.9984562    291.25185  0.033756589    0.0341951            2 
  720000    1.1330329   -7.0368289    291.08067  0.033689893  0.034186141            3 
  721000    1.1230728   -7.0336945    292.26608  0.033780175  0.034177157            3 
  722000    1.1559732   -7.0450611    292.01879  0.033704846  0.034168539            2 
  723000     1.107197   -6.9964111    293.05806  0.033778016  0.034160153            2 
  724000    1.1265829       -7.012    292.68753  0.033688712  0.034151539            2 
  725000    1.1572764   -6.9952643    294.48201  0.033848506  0.034142838            1 
  726000    1.1285129   -7.0022777    294.24986  0.033775236  0.034134432            1 
  727000    1.1475608    -7.026469    293.73127  0.033669333  0.034125827            1 
  728000    1.1077542   -7.0271721    294.25428  0.033682953  0.034117009            3 
  729000    1.1278702   -7.0485307    293.74483  0.033578513   0.03410811            2 
  730000     1.120777   -7.0131581     294.5018  0.033618927  0.034099335            2 
  731000     1.132559   -7.0325466    294.77444  0.033604017  0.034090167            2 
  732000    1.1308825   -7.0303855    294.73761  0.033553917  0.034081225            3 
  733000     1.130242    -7.023485    295.26299   0.03356787  0.034072247            3 
  734000    1.1424011   -6.9975809    296.08527  0.033615494  0.034063719            2 
  735000    1.1288138   -7.0754853    295.88194  0.033546706  0.034055143            2 
  736000    1.1334752   -7.0581165    297.39337  0.033672257  0.034046841            2 
  737000    1.1130928   -7.0471239    296.95406  0.033576895  0.034038713            1 
  738000      1.11837   -6.9927998    298.02958  0.033652843  0.034030917            2 
  739000    1.1524816   -7.0342476    298.94483  0.033710513  0.034022807            2 
  740000     1.120303   -7.0134068    299.14177  0.033687136  0.034015072            2 
  741000    1.1327552   -7.0465678    298.83355  0.033607012  0.034007185            1 
  742000    1.1246015   -7.0519389    299.73663  0.033663144  0.033999626            2 
  743000    1.1372371   -7.0871218    299.98117  0.033645264  0.033991879            1 
  744000    1.1032861    -7.051766    300.32002  0.033637995   0.03398399            3 
  745000    1.1487074   -7.0331831    300.91493  0.033659389  0.033976244            3 
  746000    1.1457539   -7.0282967    301.14115  0.033639538  0.033968398            2 
  747000    1.1578567   -6.9748844     301.4075  0.033624219  0.033960725            4 
  748000    1.1590105   -7.0683539    301.87212   0.03363103  0.033952714            3 
  749000    1.1457746   -7.0273134    302.36767  0.033641263  0.033944977            2 
  750000    1.1455203   -7.0462606    302.40692  0.033600769  0.033936969            1 
  751000    1.1270878   -7.0345079    302.81089  0.033600854  0.033929209            2 
  752000    1.1334014   -7.0467648    303.26817  0.033606845  0.033921417            2 
  753000    1.1141292   -7.0244107    303.40384  0.033577229  0.033913364            1 
  754000    1.1412931   -7.0534498     304.0464  0.033603713   0.03390573            3 
  755000    1.1386576   -7.0258958    304.95494  0.033659486  0.033897913            2 
  756000    1.1107812   -7.0221745    304.86804  0.033605384  0.033890225            3 
  757000    1.1379948   -7.0258137    304.65352  0.033537376  0.033882475            5 
  758000    1.1559759   -7.0002389    306.39953  0.033685084  0.033875379            1 
  759000    1.0891725   -7.0711338    304.84366  0.033469879  0.033867554            2 
  760000    1.1064397   -7.0293786    306.31529  0.033587203  0.033859766            2 
  761000    1.1084015   -7.0178988    305.78023  0.033484476  0.033851989            2 
  762000    1.1313322   -7.0498683    306.12402   0.03347813  0.033843961            1 
  763000    1.1080309   -7.0458896     307.0827  0.033538958  0.033836144            2 
  764000    1.0990359   -7.0099305    307.04358  0.033490792  0.033827845            1 
  765000    1.1445121   -7.0313169    307.69073  0.033517509  0.033819977            1 
  766000    1.1098639   -7.0525864    307.54502    0.0334579  0.033811925            2 
  767000    1.1265797   -7.0861026    306.52103  0.033303024  0.033803813            1 
  768000    1.1346494   -7.0722289     307.7575  0.033393826  0.033795701            3 
  769000    1.1340843   -7.0407826    308.19783  0.033398118  0.033787506            3 
  770000    1.1307802   -7.0762147     307.9408  0.033326926  0.033779294            1 
  771000    1.1231312    -7.055153    307.57952  0.033244652  0.033771062            2 
  772000    1.1333475   -7.0589513    310.55396  0.033522664  0.033762969            2 
  773000     1.150888   -7.0444304    309.48306  0.033363849  0.033754698            1 
  774000    1.1327223    -7.012638    311.43831  0.033531257  0.033746663            1 
  775000     1.098505   -7.0416183    310.64551  0.033402743  0.033738867            2 
  776000      1.11997   -7.0694133    310.82264   0.03337872  0.033731297            2 
  777000    1.1454358   -7.0183987    312.11233  0.033474081   0.03372381            2 
  778000    1.1251215   -7.0372092    312.56701  0.033479757  0.033716346            2 
  779000    1.1319361    -7.045225      311.666  0.033340394   0.03370853            1 
  780000    1.1235607   -7.0573799    311.71721  0.033303121  0.033700326            1 
  781000    1.1185953   -7.0469604     312.8247  0.033378649  0.033692374            1 
  782000    1.1402133   -7.0720225    312.45357  0.033296416   0.03368436            1 
  783000    1.1179691   -7.0606293    313.24503  0.033338126  0.033676708            4 
  784000    1.1143637   -7.0041797    314.37305  0.033415503  0.033668925            1 
  785000    1.1318694     -7.06453    313.96363  0.033329472  0.033661282            2 
  786000    1.1003095   -7.0476458    314.17131  0.033309087  0.033653308            2 
  787000    1.1382209    -7.061376     314.6537  0.033317842  0.033645176            2 
  788000    1.1301952   -7.0387321    315.10602  0.033323394  0.033637187            1 
  789000    1.1263527   -7.0262054     316.1266  0.033388953  0.033629322            1 
  790000    1.1167062   -7.0169051    315.90375  0.033323181  0.033621067            4 
  791000      1.12294   -7.0162333    315.99548  0.033290716  0.033613441            2 
  792000    1.1247196   -7.0135824     316.8812  0.033341877  0.033605669            2 
  793000    1.1351774   -7.0814787    316.87168  0.033298832  0.033597441            2 
  794000    1.1379902   -7.0413444    316.97043  0.033267258  0.033589208            2 
  795000    1.1314206   -7.0206751     317.1443  0.033243638  0.033580953            1 
  796000    1.1154618   -7.0323956    317.82328  0.033272956  0.033572797            3 
  797000    1.1325338   -7.0594551    318.25284  0.033276123  0.033564675            2 
  798000    1.1159031   -7.0648323    318.32842  0.033242316  0.033556699            4 
  799000    1.1245173   -7.0277487    318.84116  0.033254189  0.033548872            1 
  800000    1.1272236   -7.0424291     320.0577  0.033339344  0.033541181            1 
  801000    1.1400031   -7.0563658    319.66263   0.03325662  0.033533376            1 
  802000    1.1319604   -7.0505796    319.36913  0.033184656  0.033525406            3 
  803000    1.1568632   -7.0858997    319.45628  0.033152374  0.033517358            2 
  804000    1.1171009   -7.0496403    320.13223  0.033181201  0.033509522            2 
  805000    1.1302067   -7.0563979    319.89715  0.033115647  0.033501816            2 
  806000    1.0992766   -7.0396729    320.79925   0.03316783  0.033493899            1 
  807000    1.0906716   -7.0620267    321.55153  0.033204412  0.033485854            3 
  808000    1.1127025   -7.0521726    321.78205  0.033187093  0.033477925            2 
  809000    1.1134675   -7.0131151    322.03178  0.033171794  0.033469851            1 
  810000    1.1150321   -7.0176481    322.11367  0.033139266   0.03346174            2 
  811000    1.0924248   -7.0533184    321.17526   0.03300198  0.033453481            1 
  812000    1.0898308    -7.083612     322.3569  0.033082605  0.033445342            1 
  813000    1.1442688   -7.0550844    322.12357  0.033017996   0.03343708            3 
  814000    1.1080611   -7.0425356    322.49594  0.033015555  0.033428609            2 
  815000    1.1088298   -7.0379791    323.63196  0.033091202  0.033419961            2 
  816000    1.1512667   -7.0604315    323.93861  0.033081966  0.033411535            3 
  817000    1.1334137   -7.0619129    323.85148  0.033032587  0.033403293            2 
  818000    1.0916866   -7.0678231    323.29804  0.032935823  0.033394466            1 
  819000    1.1257232   -7.0537546    324.04163  0.032971269  0.033385788            1 
  820000    1.1351424    -7.095898    323.82666  0.032909214  0.033377008            2 
  821000    1.1274171   -7.0166967     324.9037  0.032978451  0.033368219            3 
  822000    1.1158345   -7.0221454    325.88367  0.033037679  0.033359607            4 
  823000      1.11843   -7.0753513    323.99475  0.032806273  0.033350893            1 
  824000    1.0977482   -7.0722509    324.29985  0.032797315   0.03334193            1 
  825000    1.1170729   -7.0300718    325.98171  0.032927446  0.033333109            2 
  826000    1.1258258    -7.061511    326.66977  0.032956998  0.033324398            1 
  827000    1.1065794   -7.0584996    325.74305  0.032823766  0.033315252            1 
  828000    1.1005524   -7.0483932    326.56225  0.032866571  0.033306087            2 
  829000    1.1287252    -7.055299    326.82023  0.032852858  0.033296823            1 
  830000    1.1569322   -7.0964492    326.38007  0.032769084  0.033287725            3 
  831000    1.1019439   -7.0569311    327.20126  0.032811999  0.033278965            1 
  832000    1.1292653   -7.0445501    328.72146  0.032924826  0.033270421            1 
  833000    1.1017944   -6.9975179     328.6555  0.032878702  0.033261688            1 
  834000    1.1192626    -7.048196    328.80075  0.032853792  0.033252763            2 
  835000    1.1065981   -7.0845218    329.34236  0.032868499  0.033244026            1 
  836000    1.0992471    -7.059425    329.73182  0.032868004  0.033235704            2 
  837000    1.1185157   -7.0468838     330.1172  0.032867105  0.033227432            2 
  838000    1.0868298   -7.0794056    328.94031   0.03271085  0.033218956            3 
  839000    1.1068669   -7.0569512    329.50283  0.032727734  0.033209971            1 
  840000    1.1141026   -7.0498414    330.81421   0.03281887   0.03320121            2 
  841000    1.1144943   -7.0555718    330.92607  0.032790931  0.033192696            2 
  842000    1.1282059   -7.0484732    331.81847  0.032840308  0.033184198            2 
  843000    1.1006755   -7.0832668    331.90179  0.032809588  0.033175992            1 
  844000    1.0934706   -7.0748455    333.64649  0.032942978  0.033167936            1 
  845000     1.107293   -7.1092817    332.77175  0.032817727  0.033159913            1 
  846000    1.1308486   -7.0370546    333.73326  0.032873647  0.033151753            2 
  847000    1.1103455   -7.0395656     335.9915  0.033057015  0.033144041            2 
  848000    1.1268705   -7.0997902    334.06514  0.032828729   0.03313607            2 
  849000     1.133667   -7.0837429    333.90843  0.032774679  0.033127806            3 
  850000    1.1384418   -7.0528916    335.90509  0.032931872  0.033119434            2 
  851000    1.1031823   -7.0831049    334.88194  0.032792983  0.033111306            1 
  852000    1.1412558   -7.0572007    335.31424  0.032796776  0.033103152            2 
  853000    1.1147714   -7.0584207    335.54678  0.032781046   0.03309528            3 
  854000    1.0819239    -7.060677    335.64985  0.032752718  0.033086913            2 
  855000    1.1399424   -7.0779072     336.1741  0.032765506  0.033078701            7 
  856000    1.1185777   -7.0461911    336.35321  0.032744666  0.033070458            1 
  857000    1.1295221   -7.0869186    336.39242  0.032710271  0.033062238            1 
  858000    1.1295133   -7.1025463    336.75118  0.032706991  0.033053858            2 
  859000    1.0935529   -7.0601227      337.548  0.032746216  0.033045762            1 
  860000    1.1296978   -7.0614503    338.37888  0.032788651  0.033037764            2 
  861000    1.1315189   -7.0822039     338.9033  0.032801326  0.033029515            1 
  862000    1.1040799   -7.0412942    338.07613  0.032683307  0.033021666            2 
  863000    1.1150358   -7.0800926    338.13895  0.032651501  0.033013383            3 
  864000    1.1334243   -7.0585325    339.09705   0.03270612  0.033004974            2 
  865000    1.1455086   -7.0543051    339.68362  0.032724818  0.032996727            4 
  866000    1.1335626   -7.0805701    339.25579  0.032645861  0.032988407            2 
  867000    1.1109999   -7.0308528    339.60719  0.032641983   0.03297995            2 
  868000    1.1137193   -7.0631183    338.82065  0.032528864  0.032971323            1 
  869000    1.1045999   -7.1117482    339.34185  0.032541412  0.032962331            2 
  870000    1.0941336   -7.0663277    340.42432  0.032607694  0.032952972            2 
  871000    1.1154042   -7.0747352    339.92503  0.032522487  0.032944127            3 
  872000    1.1248869   -7.0406764    341.34213  0.032620616  0.032935567            2 
  873000    1.0978963   -7.0869111    339.94173  0.032449573  0.032926691            2 
  874000    1.1190358   -7.0938231    340.96556  0.032510064  0.032917568            1 
  875000    1.1156734    -7.056445    342.18364  0.032588918  0.032908793            1 
  876000    1.1005353    -7.067362    341.78653  0.032513939   0.03290039            1 
  877000    1.1292521   -7.0759587    342.03811  0.032500771  0.032891599            4 
  878000     1.110159    -7.112002    342.19546  0.032478688  0.032882378            3 
  879000    1.0902119   -7.1159566    341.84638  0.032408644  0.032873044            1 
  880000    1.1165806   -7.0795198    343.84841  0.032561402  0.032863889            2 
  881000     1.113471    -7.048127     342.6957  0.032415409  0.032854888            2 
  882000     1.111331   -7.1080503    342.42769  0.032353335   0.03284567            2 
  883000    1.1330586   -7.0608092    343.71708  0.032438381  0.032836504            1 
  884000    1.1182799   -7.0879547    343.99122  0.032427529  0.032827515            2 
  885000    1.0944177   -7.1078113    343.73539  0.032366798  0.032818202            2 
  886000    1.1038713   -7.1019453    342.87324  0.032249176  0.032808776            3 
  887000    1.1165977   -7.0714126    343.99227  0.032317951  0.032799388            1 
  888000    1.0928266   -7.1040807    343.87678  0.032270719  0.032789939            3 
  889000    1.0917364   -7.0871201    345.06314  0.032345626  0.032780463            1 
  890000    1.1024412   -7.1127156    344.73155  0.032278235  0.032771139            2 
  891000    1.1131583   -7.0620419    345.66568  0.032329375  0.032761803            2 
  892000    1.1239883   -7.1130014    345.43123  0.032271229  0.032752424            2 
  893000    1.0983072    -7.063922    346.48866  0.032333768  0.032743114            3 
  894000    1.1084424   -7.0727338    346.23391  0.032273854  0.032733502            2 
  895000    1.1100787   -7.0961675    346.05916  0.032221523  0.032724063            1 
  896000    1.1200571   -7.0655107    348.16468  0.032381388  0.032714851            1 
  897000    1.1121351   -7.0499666    347.95856  0.032326139  0.032705902            1 
  898000    1.1036474   -7.0405125    347.79022   0.03227452  0.032696603            1 
  899000     1.119094   -7.0536202    348.06736  0.032264308  0.032687209            2 
  900000    1.1198504    -7.085782     346.7139  0.032103139  0.032677728            3 
  901000    1.1130451   -7.0896925    348.52269  0.032234803  0.032668521            3 
  902000    1.1338508   -7.0979091    348.39911  0.032187649  0.032659265            3 
  903000    1.0958224   -7.1097966    348.93937  0.032201862  0.032650198            1 
  904000    1.1070103   -7.1314841    349.57802  0.032225113  0.032641072            2 
  905000    1.0906374   -7.0979279    350.69301  0.032292174  0.032631949            3 
  906000    1.1282855   -7.0466161    351.46944  0.032327947  0.032623187            2 
  907000    1.0861151   -7.0822625    351.14026  0.032262059  0.032614758            1 
  908000    1.1078389   -7.0524544    351.66048  0.032274273  0.032605932            1 
  909000    1.0997372   -7.1034654    351.56542  0.032230053  0.032596875            1 
  910000    1.1040978   -7.1224468    351.23671  0.032164534  0.032587731            3 
  911000    1.0948669   -7.0691387    351.55908  0.032158716  0.032578459            2 
  912000    1.0927662   -7.0671717    352.60697  0.032219204  0.032569632            1 
  913000    1.1129195   -7.0953364    352.43654  0.032168359  0.032560492            4 
  914000    1.1112042    -7.077998    352.76658  0.032163255  0.032551885            3 
  915000     1.104337   -7.0831978    353.78219    0.0322206  0.032543108            2 
  916000    1.1170148    -7.155629      351.775  0.032002821  0.032534171            2 
  917000    1.1019895   -7.0887068    353.92317  0.032163138  0.032525365            1 
  918000     1.098218   -7.0909668    353.87769  0.032123973   0.03251642            2 
  919000    1.1386132   -7.0759564    355.11631  0.032201334  0.032507496            1 
  920000     1.101817   -7.0960648    355.20736   0.03217458  0.032499014            1 
  921000    1.1228267   -7.1072752    354.84705  0.032107044    0.0324903            1 
  922000    1.1240894   -7.1213641    356.05065  0.032181006  0.032481467            3 
  923000    1.1213931   -7.1477446    354.09913  0.031969947  0.032472222            5 
  924000    1.1106528   -7.1233734    354.54028  0.031975134  0.032462818            2 
  925000    1.0852432    -7.076798    355.97207  0.032069556  0.032453602            4 
  926000    1.1208514   -7.1131598    355.99392   0.03203689  0.032444541            1 
  927000    1.0801666   -7.1116405    356.20857  0.032021626  0.032435592            1 
  928000    1.0699097    -7.087837    356.32982  0.031998008  0.032426249            1 
  929000    1.1197725   -7.0740023    356.41617  0.031971311   0.03241721            1 
  930000    1.1016608   -7.0809785    356.02163   0.03190158  0.032407631            2 
  931000    1.0987133   -7.0546763    357.56674  0.032005616  0.032398202            2 
  932000    1.0934929   -7.1171764     356.6118  0.031885891  0.032388543            1 
  933000    1.0955313   -7.0895962     356.9404  0.031881065  0.032378832            3 
  934000     1.107684   -7.1214929    357.74751  0.031918943  0.032369029            1 
  935000    1.0879659   -7.0886931    357.27359  0.031842566  0.032359327            2 
  936000    1.0946708   -7.0817431    357.91622  0.031865761  0.032349572            2 
  937000    1.0969587   -7.1139607    357.65704  0.031808702  0.032339867            1 
  938000    1.0726868   -7.1172076    357.96328  0.031801998  0.032329997            1 
  939000    1.0879182    -7.095616    358.11838  0.031781894  0.032320301            1 
  940000    1.0737102   -7.0889787    359.10579   0.03183562  0.032310896            1 
  941000    1.0961525   -7.0717475    359.82314  0.031865315  0.032301393            2 
  942000    1.1052808   -7.0974174    359.83789  0.031832793  0.032292061            2 
  943000    1.0997721   -7.0917114    359.55102  0.031773685  0.032282672            2 
  944000    1.0909854   -7.1125835    360.19076    0.0317965     0.032273            1 
  945000    1.0865501   -7.1249265    360.84576  0.031820614  0.032263231            2 
  946000    1.1076015   -7.0890658     360.3781   0.03174578  0.032253576            1 
  947000     1.086875   -7.0872543    361.87269  0.031843778  0.032244032            2 
  948000    1.1123605   -7.1640914    360.42774   0.03168317  0.032234402            1 
  949000    1.0935074   -7.0855076    361.85239  0.031774885  0.032224728            1 
  950000    1.1103388   -7.1155867    361.88956  0.031744698   0.03221487            2 
  951000     1.083742   -7.1060966    362.33854  0.031750661  0.032204987            2 
  952000    1.0790261   -7.0835466    361.99011   0.03168681  0.032195146            2 
  953000    1.1145206   -7.0870222    361.35439   0.03159797  0.032185068            1 
  954000    1.0909119   -7.1067497    362.41982  0.031657915  0.032175163            2 
  955000    1.1007699   -7.1027861    363.17623   0.03169077  0.032165464            1 
  956000      1.07665   -7.1178609    363.09585  0.031650615  0.032155885            2 
  957000    1.1091734   -7.0807329    363.30084  0.031635391    0.0321461            1 
  958000    1.1086535   -7.0428026    364.39887  0.031697884  0.032136395            1 
  959000    1.1056512   -7.1151311    363.70465  0.031604505  0.032126725            1 
  960000    1.0837714    -7.100985    364.20271  0.031614818  0.032117044            3 
  961000     1.121117   -7.1497449    363.74541  0.031542266  0.032107164            2 
  962000    1.1003932   -7.0799609    365.37922  0.031651007  0.032097487            2 
  963000    1.1115083   -7.0889378    364.79732  0.031567785  0.032087852            1 
  964000    1.1165302   -7.1077238    367.29494  0.031750945  0.032078352            2 
  965000    1.0711782   -7.1358762    366.18897  0.031622536  0.032068866            2 
  966000    1.0865713   -7.0777248    367.11519  0.031669702  0.032059731            1 
  967000    1.0989997   -7.1360999    367.03916    0.0316304  0.032050713            2 
  968000    1.0913983   -7.1396549    367.18092  0.031609928  0.032041361            1 
  969000    1.0998946   -7.1082392    367.90361  0.031639457  0.032032084            4 
  970000    1.0767433   -7.0861651    368.35817   0.03164589  0.032022809            2 
  971000    1.0910941   -7.1281915    367.56316   0.03154507  0.032013432            4 
  972000    1.0921919   -7.0978791    369.25827  0.031657945  0.032004186            1 
  973000    1.1145196   -7.1038346    369.55989  0.031651241  0.031995133            1 
  974000    1.1200501   -7.1270386    370.57094  0.031705248  0.031985929            2 
  975000    1.1226187   -7.1347486    371.10301  0.031718206  0.031977136            2 
  976000    1.1035201   -7.1069813    369.66419  0.031562858  0.031967963            1 
  977000    1.1230318   -7.1360428    369.14095  0.031485922  0.031958645            4 
  978000    1.0894489    -7.108518    371.47339   0.03165247  0.031949712            2 
  979000    1.0845159   -7.1164258    372.95451  0.031746213  0.031940623            2 
  980000    1.1050752   -7.1249987    371.87191  0.031621761   0.03193153            2 
  981000    1.0883849   -7.0809123    372.12935  0.031611396  0.031922306            1 
  982000    1.1114603   -7.1747372     370.3784  0.031430618  0.031913179            3 
  983000    1.0949533   -7.1102109    372.10417  0.031544945  0.031904346            1 
  984000    1.0891073   -7.1087159    372.63297   0.03155767   0.03189547            4 
  985000    1.1018715   -7.1155082    372.53681  0.031517496  0.031886655            4 
  986000    1.1189719   -7.1030336    373.47337  0.031564687  0.031877975            1 
  987000    1.1098452   -7.1281149    372.56415  0.031455939  0.031869089            2 
  988000    1.0767223   -7.1068963    374.76206  0.031609486  0.031860262            2 
  989000    1.0793448    -7.110768     373.8078  0.031497118   0.03185166            3 
  990000    1.1018734   -7.0750346    375.55056     0.031612  0.031843168            1 
  991000    1.1027045   -7.0966912    375.36442  0.031564448  0.031834802            1 
  992000    1.0963516   -7.0898155    375.11732  0.031511872  0.031826302            2 
  993000    1.0998089   -7.1222571    376.26768  0.031576676  0.031817657            2 
  994000    1.1098568   -7.0901835    375.91383  0.031515244  0.031809046            2 
  995000    1.1170323   -7.0751527    376.43396  0.031527132  0.031800494            2 
  996000    1.0995643   -7.1224885    377.33947  0.031571241  0.031791962            1 
  997000     1.090198   -7.1085311    377.74826  0.031573743  0.031783663            3 
  998000    1.0997041   -7.1081848    378.67546  0.031619527  0.031775219            1 
  999000    1.0779395   -7.1618654    377.95825  0.031528049  0.031766786            1 
 1000000    1.1008856   -7.1381588    377.56178  0.031463482  0.031758281            1 
 1001000    1.0870897   -7.1767131    376.41757  0.031336794   0.03174949            3 
 1002000    1.0534489   -7.1228635    379.49718  0.031561642  0.031741041            2 
 1003000    1.1009098   -7.1240604     377.6177  0.031374019  0.031732402            1 
 1004000    1.0710451   -7.1251215    380.93465  0.031618082  0.031723999            2 
 1005000    1.0908444   -7.1231441    379.38549  0.031458167  0.031715893            1 
 1006000    1.0695414   -7.1043182    380.83098  0.031546635  0.031707725            2 
 1007000    1.0942773   -7.1540747     379.5689  0.031410866  0.031699626            1 
 1008000    1.0991041   -7.1086842    381.39433  0.031530616   0.03169165            2 
 1009000    1.0873169   -7.1432914     380.4174  0.031418682  0.031683557            1 
 1010000    1.0961325   -7.1176874    381.40989  0.031469463  0.031675488            2 
 1011000    1.0803301   -7.1317047    382.23324  0.031506201  0.031667253            2 
 1012000    1.1054128   -7.1390141    380.79806  0.031356889  0.031658942            1 
 1013000    1.0793623   -7.1200649    382.74682  0.031486247  0.031650772            1 
 1014000    1.1013647   -7.1197886    383.08377  0.031482887  0.031642636            4 
 1015000    1.0872473   -7.0927496    384.29141  0.031551019  0.031634546            3 
 1016000    1.1122638   -7.1207573    384.07076  0.031501866  0.031626601            1 
 1017000    1.0696579   -7.0830955    383.78221  0.031447247  0.031618555            3 
 1018000    1.0995531   -7.1126246    383.98527  0.031432979  0.031610462            2 
 1019000      1.08082   -7.0998722    383.92936   0.03139756  0.031602375            1 
 1020000    1.0928798   -7.1445959    384.23307  0.031391591  0.031594377            1 
 1021000    1.0739202   -7.0832422    385.86757  0.031494252  0.031586437            1 
 1022000    1.1142585   -7.1299541    384.45258  0.031348058  0.031578406            6 
 1023000    1.0878955   -7.1395809    385.44395  0.031398171  0.031570206            2 
 1024000    1.0849357   -7.1258956    385.27846  0.031354042  0.031562224            2 
 1025000    1.0763698   -7.1373121    385.84711  0.031369684  0.031554238            1 
 1026000    1.0933248   -7.1446067    386.44107  0.031387351  0.031546401            2 
 1027000    1.0760196   -7.1625689    386.68046  0.031376214   0.03153835            3 
 1028000    1.0739456   -7.1456352    387.24565  0.031391509  0.031530521            2 
 1029000    1.0991996   -7.1304186    386.01149  0.031261054  0.031522609            2 
 1030000    1.0921535   -7.1617409    387.54618  0.031354869  0.031514602            2 
 1031000    1.0858418    -7.123889    386.55608   0.03124443   0.03150646            3 
 1032000    1.1013457   -7.1130161    387.52738  0.031292586  0.031498581            4 
 1033000    1.0836679   -7.1146407    388.39856  0.031332572  0.031490512            1 
 1034000    1.0864723   -7.1300194    387.56749  0.031235291  0.031482112            1 
 1035000    1.0596418    -7.123486    388.77199  0.031302093  0.031474034            1 
 1036000    1.0849231   -7.1430008     389.7832  0.031353218  0.031465964            1 
 1037000    1.0912235   -7.1560559    390.61853   0.03139011  0.031458127            1 
 1038000    1.0752898   -7.1539442    389.70183  0.031286274  0.031450522            2 
 1039000    1.0805129   -7.1423681    389.69227  0.031255395  0.031442757            2 
 1040000    1.0886721   -7.1655823    389.17758  0.031184101  0.031435095            1 
 1041000     1.069377   -7.1165323    390.14265    0.0312314  0.031427275            1 
 1042000    1.0570131   -7.1184304    392.06035  0.031354795  0.031419552            2 
 1043000    1.0881731   -7.1290287    391.68895  0.031295058  0.031411992            2 
 1044000    1.0790033   -7.1395638    392.14256   0.03130129  0.031404393            3 
 1045000    1.0689678   -7.1176596    393.38892  0.031370727  0.031396755            1 
 1046000    1.0905438   -7.1423775     393.0913  0.031317026  0.031389218            2 
 1047000    1.1076256   -7.1342123    393.21518  0.031296974  0.031381708            1 
 1048000    1.0950426    -7.138112    394.12916  0.031339787  0.031374309            2 
 1049000     1.090358   -7.1354081    393.55098   0.03126398  0.031366726            1 
 1050000    1.0810058   -7.1585748    393.69996  0.031246028  0.031358882            2 
 1051000    1.0717238   -7.1155777    394.60152  0.031287783    0.0313513            2 
 1052000    1.0769988   -7.1715163    394.49729  0.031249785  0.031343721            1 
 1053000    1.0853875   -7.1067047    395.88004  0.031329538  0.031336099            2 
 1054000    1.0922059   -7.1587085    394.78813  0.031213483  0.031328754            4 
 1055000    1.0783184   -7.1399509    395.36893  0.031229773  0.031321202            1 
 1056000    1.0934721   -7.1575122    395.99968  0.031249975  0.031313598            1 
 1057000    1.0742384   -7.1613808    395.59813  0.031188752  0.031306032            4 
 1058000     1.099231   -7.1793651    396.57198  0.031235978   0.03129843            3 
 1059000    1.0978976    -7.143949    396.08717  0.031168333  0.031290775            2 
 1060000    1.0595397   -7.1566296    396.82937  0.031197277  0.031282968            3 
 1061000     1.102645    -7.107315    397.41513   0.03121388  0.031275515            1 
 1062000    1.0842732   -7.1503503    396.95017  0.031148005  0.031268044            4 
 1063000    1.0958957   -7.1140734    398.84328  0.031267112  0.031260833            2 
 1064000    1.0645616   -7.1202068    399.45412  0.031285567  0.031253405            2 
 1065000    1.0770723   -7.1260857    398.82759  0.031207166  0.031246385            2 
 1066000    1.0841732   -7.1360914    398.72286  0.031169704  0.031238934            2 
 1067000     1.084727   -7.1211731    399.32842  0.031187786  0.031231485            1 
 1068000    1.0879436   -7.1527052    399.81655  0.031196672   0.03122404            2 
 1069000    1.0668199   -7.1326027    399.76495  0.031163467  0.031216747            2 
 1070000    1.0693004    -7.139379    398.55261  0.031039923   0.03120914            3 
 1071000    1.0911208   -7.1610972    399.74177  0.031103468  0.031201409            3 
 1072000    1.0875929   -7.1196217    400.46615  0.031130764  0.031193798            1 
 1073000    1.0616703   -7.1720653     399.3457  0.031014733  0.031186017            1 
 1074000    1.0779746   -7.1575231    400.68487  0.031089764  0.031178274            3 
 1075000     1.100169   -7.1412307     401.5556  0.031128341  0.031170792            1 
 1076000      1.08377   -7.1633512    401.48029  0.031093579  0.031163105            3 
 1077000    1.0891369   -7.1586988    402.11878  0.031114112   0.03115534            1 
 1078000    1.0622538    -7.142109     401.5398  0.031040491  0.031147561            1 
 1079000    1.0784636   -7.1474443    403.15134  0.031136186   0.03113973            1 
 1080000    1.0931552   -7.1686602    401.37444   0.03097025  0.031132006            3 
 1081000    1.0842634   -7.1737635    402.38668  0.031019633  0.031124289            1 
 1082000      1.08839   -7.1571087    402.14361  0.030972244  0.031116529            2 
 1083000    1.0589697   -7.1099141     402.5533  0.030975169  0.031108846            1 
 1084000    1.0700054   -7.1168255    403.58146  0.031025635  0.031101113            2 
 1085000    1.1090857    -7.098233    403.84479  0.031017265  0.031093346            1 
 1086000    1.0674828   -7.1393606    404.40799  0.031031921  0.031085539            2 
 1087000    1.0825698   -7.1540089    404.09129  0.030979093  0.031077684            2 
 1088000    1.0991003   -7.1380797    405.14606  0.031031408  0.031069938            2 
 1089000    1.1122159   -7.1627794    404.23643  0.030933305  0.031062442            1 
 1090000    1.0730385   -7.1866447    405.02173  0.030964964  0.031054885            2 
 1091000    1.0908192   -7.1713903    406.10156  0.031019062  0.031047366            5 
 1092000    1.0915812   -7.1589461    405.55874  0.030949232  0.031039691            2 
 1093000    1.0997066   -7.1597629     407.0537  0.031034896  0.031032131            1 
 1094000    1.0604372   -7.1508778    405.52483  0.030890069  0.031024622            1 
 1095000    1.0715278   -7.1142251     406.5966  0.030943425  0.031017119            4 
 1096000    1.0543187   -7.1431036    407.41945  0.030977756  0.031009543            1 
 1097000    1.0534134   -7.1352513    407.22234  0.030934544  0.031001972            3 
 1098000      1.06059    -7.184777    406.97992  0.030887972  0.030994256            3 
 1099000    1.0714666   -7.1622691    408.81167  0.030998762  0.030986698            2 
 1100000    1.0836563   -7.1164618    408.26722  0.030929335  0.030979224            3 
 1101000    1.0915161   -7.1611491    408.29347  0.030903229  0.030971794            4 
 1102000    1.0730821   -7.1767646    409.40436  0.030959193  0.030964371            2 
 1103000    1.0921703   -7.1725186     407.5996  0.030794772  0.030956954            3 
 1104000    1.0650559   -7.1450455     409.2482  0.030891319  0.030949656            2 
 1105000    1.0824602   -7.1552335    409.61663  0.030891149   0.03094232            2 
 1106000    1.0896424   -7.1462693    410.40834   0.03092287  0.030934935            1 
 1107000    1.0662142   -7.1813071    408.69476  0.030765941  0.030927214            2 
 1108000     1.091222   -7.1495319    409.42259  0.030792915  0.030919393            3 
 1109000    1.0804504   -7.2077282    408.94473  0.030729241  0.030911636            2 
 1110000    1.0660386   -7.1202727    410.03412  0.030783342  0.030903674            2 
 1111000    1.1030948   -7.1491788    408.89664  0.030670315  0.030895871            2 
 1112000    1.0800292   -7.1826562    409.37594  0.030678652  0.030888049            2 
 1113000     1.067551   -7.1042391    411.11386  0.030781211  0.030880119            1 
 1114000    1.0717195   -7.1747238    410.65439  0.030719209  0.030872357            3 
 1115000    1.0599814   -7.1420107    411.50065  0.030754907  0.030864557            1 
 1116000     1.074458   -7.1849857    411.53938  0.030730241  0.030856841            2 
 1117000    1.0983478   -7.1487987    412.67588  0.030787517  0.030849131            2 
 1118000    1.0959853     -7.17978    413.57089  0.030826691   0.03084177            2 
 1119000    1.0587133   -7.1838861    413.22667  0.030773508  0.030834272            1 
 1120000    1.0747688   -7.1534911    413.29406  0.030751046  0.030826467            3 
 1121000    1.0607879   -7.1619674    411.86792  0.030617597  0.030818527            4 
 1122000    1.1005793   -7.1655854    413.07549  0.030679998  0.030810656            1 
 1123000    1.0966029   -7.1626151    413.33635  0.030672035  0.030802757            1 
 1124000    1.0881762   -7.1840504    413.93808  0.030689359  0.030794968            2 
 1125000    1.0627641   -7.1768532    413.13474  0.030602573   0.03078698            2 
 1126000    1.0513828   -7.1740961    414.88882  0.030705212  0.030779369            2 
 1127000    1.0772081   -7.1514444    415.20817   0.03070158  0.030771811            1 
 1128000    1.0744219   -7.1646584    415.21104  0.030674575  0.030764181            7 
 1129000     1.075837   -7.1606132    414.63519    0.0306049  0.030756419            1 
 1130000    1.0715894   -7.2035493    414.62238  0.030576872  0.030748756            3 
 1131000    1.0744943   -7.1628994    415.41603  0.030608313  0.030741223            3 
 1132000    1.0571376   -7.1485464    417.16416  0.030709964  0.030733594            1 
 1133000    1.0671548   -7.1297079    416.96437  0.030668165   0.03072602            1 
 1134000    1.0749277   -7.1408864    417.04083   0.03064674   0.03071865            2 
 1135000    1.0711469   -7.1549203    417.27153  0.030636677   0.03071102            2 
 1136000    1.0686361   -7.1675904    418.96874  0.030734209  0.030703544            2 
 1137000    1.0814197   -7.1513288    418.44237  0.030668599  0.030696174            1 
 1138000    1.0368114   -7.1470506    419.19968  0.030697106  0.030688916            1 
 1139000       1.0551   -7.1365712    418.18319  0.030595785  0.030681727            2 
 1140000    1.0777255   -7.1675021    419.65008  0.030676175  0.030674533            4 
 1141000    1.0525856     -7.16463    419.82359  0.030661963  0.030667418            1 
 1142000    1.0841028   -7.1819642    421.25803  0.030739786  0.030660261            2 
 1143000     1.081853   -7.1919568    418.67865  0.030524836  0.030652883            2 
 1144000    1.0563643   -7.1741936    420.72251  0.030647036   0.03064553            2 
 1145000       1.0713   -7.1427233    420.32074  0.030591029  0.030638403            2 
 1146000    1.0692277   -7.1581526    422.04628  0.030689811  0.030631332            2 
 1147000    1.0380082   -7.1779516    421.73829  0.030640678  0.030624087            2 
 1148000    1.0592892   -7.1503674    422.57114  0.030674444  0.030617083            2 
 1149000    1.0792789   -7.1609189     423.0309  0.030681093  0.030609898            1 
 1150000    1.0540768    -7.191812    422.46871  0.030613674  0.030602895            2 
 1151000    1.0712989   -7.1736275    422.88797  0.030617432  0.030595937            4 
 1152000    1.0800236   -7.1823503    423.34054  0.030623592  0.030588981            3 
 1153000    1.0508184   -7.1611783    423.22871   0.03058895   0.03058215            3 
 1154000    1.0712513   -7.1829419    422.17032  0.030486014  0.030575169            1 
 1155000    1.0884723   -7.1454682     425.3406  0.030688355  0.030568226            4 
 1156000     1.089635    -7.178584    424.04688  0.030568547  0.030561122            1 
 1157000    1.0721022   -7.1477978    426.32934  0.030706521  0.030554113            2 
 1158000    1.0497034   -7.1781279    425.13409   0.03059399  0.030547205            4 
 1159000      1.05725   -7.1356898    426.13986  0.030639909  0.030540283            2 
 1160000    1.0668665   -7.1589548    425.17353  0.030544076  0.030533432            1 
 1161000    1.0522599   -7.1917962     425.6277  0.030550366   0.03052638            2 
 1162000    1.0476783   -7.1646548    426.04381  0.030553916  0.030519439            2 
 1163000     1.071158   -7.1633482    426.32369  0.030547699  0.030512412            1 
 1164000    1.0573817   -7.1351122     426.6538  0.030545089  0.030505454            4 
 1165000    1.0528781   -7.1711764    428.59684  0.030657857  0.030498587            2 
 1166000    1.0784207   -7.1694118    427.87777  0.030580172  0.030491922            2 
 1167000     1.062578   -7.1768482     428.3283   0.03058614  0.030485069            1 
 1168000    1.0461168   -7.1717329    427.45454  0.030497613  0.030478217            1 
 1169000    1.0531572   -7.1871207    428.32729  0.030533739  0.030471527            1 
 1170000    1.0586098   -7.1541901    428.28147  0.030504378  0.030464963            2 
 1171000    1.0583473   -7.1955082    429.00366  0.030529723  0.030458126            3 
 1172000    1.0581434   -7.1885807    428.94791  0.030499709  0.030451378            2 
 1173000    1.0567273   -7.1983349    429.04919  0.030480903  0.030444633            2 
 1174000    1.0421712   -7.2180476    428.28373  0.030400605  0.030437546            1 
 1175000    1.0625782   -7.1712507    430.15063  0.030507137  0.030430888            2 
 1176000    1.0659052   -7.2016619    429.95792  0.030467539  0.030424186            2 
 1177000    1.0704293    -7.168881    429.98203  0.030443361  0.030417555            6 
 1178000    1.0380954    -7.169296    432.09598  0.030567061  0.030410794            1 
 1179000     1.072541   -7.1485451    431.72265  0.030514748  0.030404068            1 
 1180000    1.0649131    -7.168502    431.96542  0.030506032  0.030397361            1 
 1181000    1.0759092   -7.1671414    431.21361  0.030427153  0.030390373            2 
 1182000    1.0766178   -7.1905126    431.40259  0.030414734  0.030383475            4 
 1183000    1.0556469   -7.2050653     431.5265  0.030397753  0.030376608            3 
 1184000    1.0730971   -7.1876186     433.0815  0.030481525  0.030369892            1 
 1185000       1.0424   -7.1574346    433.01008  0.030450779   0.03036317            1 
 1186000    1.0507408   -7.1589196    433.55188  0.030463173  0.030356485            1 
 1187000    1.0593653   -7.1857698    434.20855  0.030483611  0.030349886            2 
 1188000     1.058175   -7.1508882    434.28268  0.030463151  0.030343089            3 
 1189000    1.0597283   -7.1810949    434.96644  0.030485453  0.030336483            2 
 1190000    1.0478957    -7.192014    433.89193  0.030384589  0.030329557            2 
 1191000    1.0628381   -7.2046606    432.93677  0.030292245   0.03032252            1 
 1192000    1.0760283   -7.1764059     433.1835  0.030284081  0.030315359            3 
 1193000     1.081946   -7.1756878    434.83313  0.030373927  0.030308395            2 
 1194000    1.0863656   -7.1876721    433.99935  0.030290295  0.030301403            1 
 1195000    1.0533948   -7.2139812    434.63188  0.030309057  0.030294416            1 
 1196000    1.0632017   -7.1561564    434.24341  0.030256648  0.030287271            2 
 1197000    1.0797034   -7.1964714    434.40321  0.030242496  0.030280044            2 
 1198000    1.0508694   -7.1904231    433.90889  0.030182867  0.030272896            1 
 1199000    1.0584782   -7.1955355     435.4304  0.030263441  0.030265598            2 
 1200000    1.0322728   -7.1513108     437.5672  0.030386611  0.030258342            1 
 1201000    1.0445448    -7.195937    436.79048  0.030307416  0.030251262            2 
 1202000    1.0455962   -7.1809685     436.4516  0.030258708  0.030244172            2 
 1203000    1.0655377   -7.1769159    437.03288  0.030273821  0.030237356            3 
 1204000    1.0396927   -7.1771601    437.69604  0.030294577  0.030230325            2 
 1205000    1.0494478   -7.1913238    437.25019  0.030238602  0.030223293            2 
 1206000    1.0608437    -7.177359    436.90193  0.030189464  0.030216441            2 
 1207000    1.0471968   -7.1801244    436.76569  0.030155047  0.030209533            2 
 1208000    1.0551338   -7.1804111    438.50073  0.030249774  0.030202515            1 
 1209000    1.0623175    -7.165055    438.85295  0.030249031  0.030195612            1 
 1210000     1.046724    -7.205939    438.60524  0.030206972  0.030188953            2 
 1211000    1.0558205   -7.1746871    439.53451  0.030245975  0.030182259            2 
 1212000    1.0464651   -7.1881476    440.88803  0.030314083  0.030175552            1 
 1213000    1.0588749   -7.2173573    439.77924  0.030212918  0.030168886            1 
 1214000    1.0593231   -7.1593953    439.43071  0.030164107  0.030162012            2 
 1215000    1.0646178   -7.1851115     440.0757  0.030183519  0.030155076            1 
 1216000     1.048689   -7.2296598    439.57856  0.030124627  0.030148046            2 
 1217000    1.0505663   -7.1761731    441.02177  0.030198697  0.030141028            2 
 1218000    1.0526045   -7.2017938    439.70258  0.030083647  0.030134047            3 
 1219000    1.0794898   -7.2354863    441.19314  0.030160865  0.030127068            2 
 1220000    1.0724991   -7.2052248    441.76055  0.030174901  0.030120165            1 
 1221000    1.0658838   -7.1892201    441.24416  0.030114944  0.030113266            3 
 1222000    1.0555013   -7.2231728    442.39216  0.030168587  0.030106245            2 
 1223000    1.0769868   -7.2363793    441.93566  0.030112814  0.030099131            2 
 1224000    1.0431934   -7.1820261    441.87517  0.030084094  0.030092134            4 
 1225000    1.0680789   -7.2093867    441.75279   0.03005121  0.030085199            4 
 1226000    1.0439689   -7.1841854    443.27276  0.030130014  0.030078083            2 
 1227000    1.0728918   -7.2521221    442.65856  0.030063744  0.030070825            2 
 1228000    1.0419754   -7.2037247    443.24576  0.030079109  0.030063232            2 
 1229000    1.0364314   -7.2425758    441.39557  0.029929182  0.030055935            2 
 1230000    1.0484627   -7.1999819    443.06116  0.030017694  0.030048619            2 
 1231000    1.0478729   -7.2101813    443.09768  0.029995781  0.030041342            2 
 1232000    1.0640327    -7.191402    444.48718  0.030065421  0.030034086            2 
 1233000     1.083522   -7.1753523    444.02837  0.030010027  0.030026698            2 
 1234000    1.0639345   -7.2044455    442.17917   0.02986083   0.03001916            2 
 1235000    1.0689523   -7.2093473    443.57399  0.029930768  0.030011797            4 
 1236000    1.0770992   -7.1879759    445.31152    0.0300237  0.030004462            2 
 1237000     1.088271   -7.2464182    444.44898  0.029941322  0.029996922            3 
 1238000    1.0578571   -7.1497048    445.01628  0.029955323  0.029989377            1 
 1239000     1.048003   -7.2305158    444.83038  0.029918643  0.029982037            3 
 1240000    1.0252807   -7.1882708    445.37443  0.029931077  0.029974739            2 
 1241000    1.0863898   -7.1921003    445.37275  0.029906846  0.029967386            1 
 1242000    1.0695801    -7.171718    446.19863   0.02993818  0.029960013            2 
 1243000    1.0733477   -7.1835883    446.38829  0.029926809  0.029952692            2 
 1244000    1.0591697   -7.2316541     445.5279  0.029845116  0.029945328            1 
 1245000    1.0485598   -7.2388107    445.22467  0.029800848  0.029937761            2 
 1246000    1.0733451   -7.2289168    446.25035  0.029845529  0.029930119            2 
 1247000    1.0567709   -7.1972761    446.99554  0.029871394  0.029922425            2 
 1248000     1.066476   -7.2154472    446.42563  0.029809404  0.029914728            2 
 1249000    1.0577228   -7.2225067    448.17458  0.029902227   0.02990712            2 
 1250000    1.0721768   -7.2445728    446.92868  0.029795245  0.029899549            1 
 1251000     1.058616   -7.1984852    447.43574  0.029805205  0.029891951            2 
 1252000    1.0612832    -7.268814    447.42514  0.029780694  0.029884333            1 
 1253000    1.0483741   -7.1774808    449.55915  0.029898853  0.029876854            4 
 1254000    1.0629361   -7.2479719    447.31568  0.029725922  0.029869571            2 
 1255000     1.059835   -7.2194689    448.76031  0.029798161  0.029862239            4 
 1256000    1.0556528   -7.1918643    449.74709  0.029839908  0.029854854            3 
 1257000      1.06057   -7.2066337    449.94413  0.029829232  0.029847645            2 
 1258000    1.0534859   -7.1829502    450.59262  0.029848478  0.029840241            3 
 1259000    1.0506054   -7.2391971    448.58342   0.02969178  0.029832721            2 
 1260000    1.0437812   -7.1888879    449.67206  0.029740215  0.029825346            1 
 1261000    1.0383573   -7.1853031    451.42779  0.029832658  0.029817946            2 
 1262000    1.0519116   -7.2347044    449.54651  0.029684793  0.029810264            2 
 1263000    1.0304193   -7.1991109    449.63282  0.029666985  0.029802625            3 
 1264000    1.0681088   -7.2595439    449.15772  0.029612191   0.02979489            1 
 1265000    1.0765804   -7.2014733    450.68374  0.029689311  0.029787184            2 
 1266000    1.0639409    -7.193867    450.79322  0.029673066   0.02977936            1 
 1267000     1.070904   -7.2399302    450.31795  0.029618386  0.029771389            1 
 1268000    1.0447129   -7.2124685     451.4119  0.029666923  0.029763566            1 
 1269000    1.0411058   -7.1966184    450.86453    0.0296076  0.029755762            3 
 1270000    1.0564319   -7.2155562    451.76234  0.029643198  0.029747961            2 
 1271000    1.0338318   -7.1911927    452.46612  0.029666019  0.029740306            1 
 1272000    1.0539668   -7.2247201    453.15914  0.029688099  0.029732672            3 
 1273000    1.0347146    -7.202459    452.72763   0.02963653  0.029724993            2 
 1274000    1.0619989   -7.2222051    452.18463  0.029577749  0.029717086            2 
 1275000    1.0366337   -7.2055817    452.47884  0.029573781  0.029709425            2 
 1276000    1.0488267    -7.191808    453.00393  0.029584896  0.029701836            2 
 1277000    1.0534429   -7.2321686      452.588  0.029534586  0.029694072            1 
 1278000    1.0633567   -7.2269955    453.93345  0.029599208  0.029686435            1 
 1279000    1.0439449   -7.2304922    453.20252  0.029528441  0.029678729            2 
 1280000    1.0263899   -7.2015271    456.04631  0.029690515   0.02967126            2 
 1281000    1.0644903   -7.2227465    454.95414  0.029596288  0.029663847            1 
 1282000    1.0525338   -7.2512905    455.07803  0.029581255   0.02965636            3 
 1283000    1.0500579   -7.2707639    455.26701  0.029570474  0.029648978            4 
 1284000    1.0496858   -7.2405023    456.35117  0.029617807  0.029641665            2 
 1285000    1.0515024   -7.2086712    456.59168  0.029610355  0.029634178            1 
 1286000    1.0367455   -7.2365561    457.45427  0.029643226  0.029626796            2 
 1287000    1.0388814   -7.2168306    455.81479  0.029514037  0.029619381            1 
 1288000    1.0507982   -7.2182413    457.60915  0.029607217  0.029611978            2 
 1289000    1.0358113   -7.1846203    458.24242  0.029625189  0.029604684            1 
 1290000    1.0172235   -7.2362858    456.78325  0.029507962  0.029597403            2 
 1291000    1.0785135   -7.2304795    459.47479  0.029658843  0.029590169            2 
 1292000    1.0259009   -7.2668586     457.3718  0.029500245  0.029582888            1 
 1293000    1.0510361   -7.2646267    457.44283  0.029482007  0.029575467            2 
 1294000     1.048341   -7.1979223     458.8189  0.029547843  0.029568097            2 
 1295000    1.0559421   -7.2204916    459.52714  0.029570601  0.029560809            2 
 1296000    1.0700355   -7.2158312    460.73223  0.029625272    0.0295535            1 
 1297000    1.0393006   -7.2895692    458.85831  0.029482029  0.029546174            5 
 1298000    1.0314632   -7.2486652    458.69147  0.029448605  0.029538693            1 
 1299000    1.0440824   -7.2265495    460.12875  0.029518139  0.029531429            2 
 1300000    1.0393718   -7.2566834    459.79578  0.029474088  0.029524004            5 
 1301000    1.0618899    -7.220012    461.83253  0.029581894  0.029516711            2 
 1302000    1.0368423   -7.2625496    461.77863  0.029555724   0.02950949            1 
 1303000    1.0516636   -7.2633531    461.28322  0.029501357  0.029502192            2 
 1304000    1.0165519   -7.2046913    462.24044  0.029539905  0.029495063            2 
 1305000    1.0483068   -7.1979401    462.50316  0.029534046  0.029488108            2 
 1306000    1.0176806   -7.2137702    463.18426  0.029554892  0.029481075            1 
 1307000    1.0509909   -7.2357354    462.31999  0.029477173  0.029474074            2 
 1308000    1.0294569   -7.2006607     463.3027  0.029517246   0.02946708            2 
 1309000    1.0588126   -7.2363112    464.77891  0.029588675  0.029460369            5 
 1310000    1.0362134    -7.209326    465.31757  0.029600355  0.029453557            2 
 1311000    1.0398217   -7.2470233    464.39236  0.029518965  0.029446656            2 
 1312000    1.0418477   -7.2469544     464.2232  0.029485722  0.029439817            5 
 1313000    1.0508147   -7.2598147    464.57532  0.029485613  0.029432941            1 
 1314000     1.046715   -7.2282938    464.70005  0.029471084  0.029426166            1 
 1315000    1.0294247   -7.2525481    465.31227  0.029487469  0.029419359            1 
 1316000    1.0268602   -7.1947259    467.36173  0.029594841  0.029412628            2 
 1317000     1.036404   -7.1947632    466.68232   0.02952938  0.029405955            2 
 1318000    1.0564319   -7.2358436     465.7728  0.029449469  0.029399311            2 
 1319000    1.0384769   -7.2168314    468.27297    0.0295851  0.029392705            2 
 1320000    1.0750856   -7.1988126    467.27063  0.029499408  0.029386098            3 
 1321000    1.0589169   -7.2081525    467.23865   0.02947506  0.029379283            3 
 1322000    1.0560461   -7.2379327    468.49526  0.029531976  0.029372544            3 
 1323000    1.0418653   -7.2477244    467.27705  0.029432921  0.029365814            1 
 1324000    1.0492365   -7.2338236     468.1593   0.02946622  0.029358985            3 
 1325000    1.0198463   -7.2441237    468.22858  0.029448339  0.029352268            1 
 1326000     1.034402   -7.2539414    467.89303  0.029405042  0.029345424            1 
 1327000    1.0133561   -7.2218363    469.77337  0.029500965  0.029338531            1 
 1328000    1.0413736   -7.2198752    469.06751  0.029434457  0.029331755            1 
 1329000    1.0310595    -7.214471    471.24336  0.029548743  0.029324978            2 
 1330000    1.0594645   -7.2526303    469.10248  0.029392386    0.0293181            1 
 1331000     1.028172    -7.253376    468.83561  0.029353595   0.02931114            1 
 1332000    1.0372611    -7.240832    469.46393  0.029370867  0.029304268            2 
 1333000    1.0272056   -7.2229697    469.32459  0.029340122  0.029297558            3 
 1334000    1.0409935   -7.2217443    469.78257  0.029346737  0.029290686            2 
 1335000    1.0258174   -7.2565259    470.32052  0.029358335   0.02928371            6 
 1336000    1.0494594   -7.2425741    470.53618  0.029349812  0.029276801            5 
 1337000    1.0441233    -7.230736    471.20021  0.029369248  0.029270027            3 
 1338000    1.0676368   -7.2219635    471.63944  0.029374654  0.029263249            3 
 1339000    1.0580603   -7.2122853    471.02742  0.029314626  0.029256392            1 
 1340000     1.024306   -7.2546673    472.82726  0.029404681  0.029249607            1 
 1341000    1.0491514   -7.2071497     473.8371  0.029445507  0.029242832            2 
 1342000    1.0248602   -7.2689405    471.42193  0.029273592  0.029235997            4 
 1343000    1.0477204   -7.2244973    471.76402  0.029273022  0.029229179            3 
 1344000    1.0369412   -7.2626957    471.97675  0.029264431   0.02922241            2 
 1345000      1.03075    -7.255244    472.89151   0.02929935  0.029215677            1 
 1346000     1.045223   -7.2390857    473.82614  0.029335447  0.029209029            1 
 1347000    1.0401201   -7.2647389    472.29445  0.029218909  0.029202204            3 
 1348000    1.0573034   -7.2526298    473.49902    0.0292717  0.029195499            3 
 1349000    1.0455015   -7.2380489    473.35556  0.029241139  0.029188555            1 
 1350000     1.025545   -7.2339094    474.74556  0.029305282  0.029181679            5 
 1351000    1.0439428   -7.2625241    473.79328  0.029224851  0.029174774            1 
 1352000      1.02868   -7.2418255    474.38356  0.029239618  0.029167923            1 
 1353000    1.0131748   -7.2443566    475.68006  0.029297861   0.02916114            2 
 1354000    1.0313725     -7.22028    476.29675  0.029314177  0.029154451            2 
 1355000     1.037553   -7.2587875      475.682  0.029254736   0.02914763            2 
 1356000    1.0263496   -7.2537666    475.29647  0.029209469  0.029140933            4 
 1357000    1.0363037   -7.2386784    475.62198  0.029207933  0.029134166            3 
 1358000    1.0329908   -7.2695438    475.74681  0.029194085  0.029127411            2 
 1359000    1.0132763   -7.2654527    476.30133  0.029206606  0.029120857            3 
 1360000    1.0607731    -7.253626    477.15682   0.02923755  0.029114277            3 
 1361000     1.029354   -7.2365346    478.90155  0.029322897  0.029107774            1 
 1362000    1.0247698   -7.2730964    478.23127  0.029260357  0.029101202            3 
 1363000    1.0391631   -7.2401117    477.63632  0.029202514  0.029094475            2 
 1364000    1.0376756   -7.2601837     478.4516  0.029230914  0.029087847            2 
 1365000    1.0307791   -7.2946259    479.20239  0.029255335  0.029081359            3 
 1366000    1.0092079   -7.2385006    479.06002  0.029225233   0.02907483            1 
 1367000    1.0496238   -7.2087741    479.86641  0.029253012  0.029068468            1 
 1368000      1.03193   -7.2331976    479.06347  0.029182716  0.029061879            3 
 1369000    1.0292681   -7.2534073    478.39199  0.029120525  0.029055239            1 
 1370000    1.0224377   -7.2365905    479.94762  0.029193894  0.029048563            1 
 1371000    1.0290121   -7.2199429    480.65945  0.029215867   0.02904203            2 
 1372000    1.0229036   -7.2283625    479.65822   0.02913376  0.029035456            2 
 1373000    1.0395614    -7.247056    479.91268  0.029127985  0.029028839            4 
 1374000    1.0572563   -7.2549639    479.88561  0.029105144  0.029022176            2 
 1375000    1.0382168   -7.2657726    479.66713  0.029070735  0.029015508            4 
 1376000     1.028064    -7.212695    481.50569  0.029160955  0.029008864            2 
 1377000    1.0316416   -7.2335785    481.58414  0.029144525  0.029002211            3 
 1378000    1.0428506   -7.2430304    480.57792  0.029062526  0.028995576            3 
 1379000    1.0157654    -7.230274    482.39467  0.029151237    0.0289889            3 
 1380000    1.0150646   -7.2540563    482.03572  0.029108437  0.028982355            1 
 1381000    1.0284335   -7.2989615    481.28658  0.029042154  0.028975596            1 
 1382000    1.0113416    -7.258182    482.50919  0.029094862  0.028968868            1 
 1383000    1.0560599   -7.2624484    482.64835   0.02908221  0.028962223            3 
 1384000    1.0452401    -7.246423     481.9511  0.029019214  0.028955469            1 
 1385000    1.0320014   -7.2692169    482.82632  0.029050922  0.028948705            2 
 1386000    1.0238593   -7.2744111    483.02432  0.029041866  0.028942062            2 
 1387000    1.0348712   -7.2781359     482.5438  0.028992057  0.028935228            2 
 1388000    1.0507978   -7.1882913    483.74653  0.029043379  0.028928496            1 
 1389000    1.0479972   -7.2332464    483.98493  0.029036773  0.028921769            2 
 1390000    1.0221654   -7.2387607    482.65569  0.028936193  0.028914848            1 
 1391000    1.0605684   -7.2531114    483.80734  0.028984384  0.028908027            2 
 1392000    1.0220903   -7.2857316     484.5361   0.02900719   0.02890125            3 
 1393000    1.0322623   -7.2449934    485.98472  0.029073027  0.028894423            2 
 1394000    1.0582468   -7.2967373     484.8054  0.028981671  0.028887642            1 
 1395000    1.0265436    -7.259354    486.61065  0.029068736  0.028880887            2 
 1396000        1.011   -7.2610757    485.18443  0.028962776  0.028874366            1 
 1397000    1.0240591   -7.2158916    486.61667   0.02902748  0.028867856            2 
 1398000    1.0334059    -7.265735    486.65065  0.029008742  0.028861293            2 
 1399000    1.0371391   -7.2755465    485.66351  0.028929206  0.028854659            4 
 1400000    1.0160122   -7.2603545    486.15142  0.028937584  0.028848111            3 
 1401000    1.0124798    -7.268288    485.79228  0.028895568   0.02884131            2 
 1402000    1.0268728   -7.2696381    489.30384  0.029083681  0.028834668            1 
 1403000     1.025276   -7.2601547    488.11758  0.028992491  0.028828014            2 
 1404000    1.0109911   -7.2595781    487.32184  0.028924611  0.028821591            5 
 1405000    1.0253343   -7.2767088    488.05197  0.028947329  0.028814981            4 
 1406000    1.0254884   -7.2453752    487.43277  0.028890041  0.028808297            1 
 1407000     1.035491   -7.2598606    488.76425  0.028948369  0.028801785            3 
 1408000    1.0448492   -7.2875459    488.27083  0.028898605  0.028795058            3 
 1409000    1.0365334   -7.2648954    490.01683   0.02898136  0.028788377            2 
 1410000    1.0281454   -7.3063308     489.0442  0.028903322  0.028781727            5 
 1411000    1.0284796    -7.252705    489.18785  0.028891321  0.028774937            3 
 1412000     1.013123    -7.273394    489.42991  0.028885146  0.028768303            2 
 1413000     1.023295   -7.2680804    490.87562  0.028949966  0.028761853            2 
 1414000    1.0436142   -7.2137699    490.99285  0.028936401  0.028755445            2 
 1415000    1.0227471   -7.2737721    489.60486  0.028834208  0.028748847            1 
 1416000     1.036752   -7.2720356    490.28064  0.028853616  0.028742107            2 
 1417000    1.0102931   -7.2789291    490.89715   0.02886951  0.028735513            2 
 1418000    1.0273874   -7.2778218    489.80297  0.028784848  0.028728951            2 
 1419000    1.0361274   -7.2824136     491.5242  0.028865645  0.028722327            1 
 1420000    1.0363277   -7.2554848    491.52334  0.028845266  0.028715769            1 
 1421000    1.0221064   -7.2365043    491.10432  0.028800394  0.028709208            2 
 1422000    1.0334892   -7.2999274    491.01309  0.028774794  0.028702568            2 
 1423000    1.0487568   -7.2484803    491.00067  0.028753846  0.028695848            1 
 1424000    1.0239439   -7.2842756    491.72822   0.02877623  0.028689203            2 
 1425000    1.0349208   -7.2867692     492.4903  0.028800602  0.028682519            4 
 1426000    1.0258547    -7.243765     491.3069  0.028711249  0.028675709            1 
 1427000    1.0043558   -7.2550201     492.7556   0.02877573  0.028668984            2 
 1428000    1.0315958   -7.2870538    492.37883  0.028733592  0.028662209            2 
 1429000    1.0415699    -7.303486    490.72996  0.028617329  0.028655327            2 
 1430000    1.0199224   -7.2933593    491.62242  0.028649325  0.028648417            2 
 1431000    1.0257302   -7.2860624    493.71861  0.028751375  0.028641597            4 
 1432000    1.0070612   -7.2789501    493.70095   0.02873027  0.028634742            1 
 1433000     1.035454   -7.2923755    493.34605  0.028689582   0.02862792            2 
 1434000    1.0111322   -7.2668297    493.53846  0.028680756  0.028620996            2 
 1435000     1.016972   -7.2545902    493.92297  0.028683099  0.028613971            2 
 1436000    1.0135604   -7.2881244    493.30114  0.028627039  0.028606895            1 
 1437000    1.0130453   -7.2734637    495.23373  0.028719191  0.028599939            1 
 1438000     1.013836   -7.2911241    494.38802   0.02865021  0.028593106            2 
 1439000     1.004572   -7.2447575    494.67807  0.028647097  0.028586212            1 
 1440000    1.0147799   -7.2819656    494.52549  0.028618373  0.028579341            2 
 1441000    1.0243481   -7.2770844    496.15804  0.028692924  0.028572475            1 
 1442000    1.0386575   -7.2529725    496.07206  0.028668057  0.028565697            2 
 1443000    1.0056613   -7.2510276     496.0129  0.028644774  0.028558911            1 
 1444000    1.0142587   -7.2958664    495.70768  0.028607322  0.028552008            2 
 1445000    1.0400189   -7.2495394    497.54698  0.028693597  0.028545128            5 
 1446000    1.0097641   -7.2849671    496.13306   0.02859227  0.028538212            1 
 1447000    1.0418681   -7.2818834    496.69216  0.028604709  0.028531399            4 
 1448000    1.0256618   -7.2554198    498.62262  0.028696053  0.028524593            2 
 1449000    1.0348349    -7.285491    496.47826  0.028552925  0.028517827            3 
 1450000    1.0056046   -7.2928069    497.73723  0.028605588  0.028511087            1 
 1451000    1.0335218   -7.2690741    497.64791  0.028580744  0.028504392            2 
 1452000    1.0111079   -7.2430357    497.46191  0.028550385  0.028497751            1 
 1453000    1.0259226   -7.2991633    496.77072  0.028491094   0.02849097            1 
 1454000    1.0229188   -7.2955946    497.62495  0.028520458  0.028484189            2 
 1455000    1.0187954    -7.261512    499.09742   0.02858519  0.028477419            3 
 1456000    1.0136881    -7.292742    499.13694  0.028567819  0.028470528            2 
 1457000    1.0402104   -7.2802936    499.76462  0.028584112  0.028463658            2 
 1458000    1.0208688   -7.2973351      497.301  0.028423697  0.028456714            3 
 1459000    1.0007779    -7.303554    499.39054  0.028523563  0.028449784            2 
 1460000    1.0135896   -7.2764221    500.69123  0.028578267  0.028442877            1 
 1461000    1.0183324   -7.2865596       500.12  0.028526123  0.028435979            2 
 1462000    1.0094041   -7.2864014    499.95008  0.028496926   0.02842901            1 
 1463000    1.0129941   -7.2684545    501.27771  0.028553071  0.028422216            2 
 1464000    1.0111304   -7.2860601    499.37201  0.028425092  0.028415336            4 
 1465000    1.0000824   -7.2883412    500.29905  0.028458421  0.028408482            2 
 1466000   0.99261983   -7.2821943    500.12184  0.028428936  0.028401559            2 
 1467000    1.0148334   -7.2623998    501.41747  0.028483155  0.028394773            1 
 1468000    1.0102215   -7.2916229    502.04616  0.028499441  0.028387963            2 
 1469000    1.0335337   -7.2565094    501.68758  0.028459699  0.028381091            3 
 1470000    1.0307603     -7.26012    500.25207  0.028358961  0.028374231            5 
 1471000   0.99101416   -7.2969751     501.5426  0.028412791  0.028367167            4 
 1472000    1.0322019   -7.3171261     501.8356  0.028410077  0.028360196            2 
 1473000    1.0058165     -7.29922    501.38402  0.028365242  0.028353222            2 
 1474000   0.99807982   -7.2614585    502.37126  0.028401813  0.028346388            3 
 1475000     1.006361   -7.2937378    502.90889  0.028412932  0.028339653            1 
 1476000    1.0081604   -7.2929273    503.01134  0.028399466  0.028332765            1 
 1477000    1.0181801   -7.3046619    504.09036  0.028441117  0.028325894            3 
 1478000    1.0403588   -7.2917994    503.97892  0.028415591  0.028319068            2 
 1479000    1.0272363   -7.2950465    504.90599  0.028448613  0.028312392            2 
 1480000    1.0103214   -7.2346135     505.5201   0.02846397  0.028305808            2 
 1481000    1.0398387   -7.2973915     503.4994  0.028331049  0.028299085            2 
 1482000    1.0204896   -7.2976899    505.61071  0.028430652  0.028292232            3 
 1483000    1.0431893   -7.2921607    505.41339  0.028400393  0.028285493            1 
 1484000    1.0191941   -7.2992373    504.76383  0.028344779  0.028278796            2 
 1485000    1.0075672    -7.301368    507.15685   0.02845998  0.028272004            4 
 1486000    1.0062222   -7.2459838    508.17767  0.028498075  0.028265443            2 
 1487000    1.0108827   -7.2824868     507.6391  0.028448728  0.028258919            1 
 1488000    1.0005788   -7.2788127     507.0947  0.028399121  0.028252315            1 
 1489000    1.0078275   -7.3212769    506.30237  0.028335705   0.02824558            2 
 1490000   0.99687677   -7.2832573    506.95536  0.028353208  0.028238884            1 
 1491000   0.99211431   -7.2902786    505.79837  0.028269527  0.028232197            5 
 1492000     1.016373    -7.243813    509.47027  0.028455667  0.028225538            1 
 1493000    1.0341991     -7.27266    510.32649  0.028484399  0.028219061            2 
 1494000    1.0070994   -7.3075588    507.59811  0.028313148  0.028212544            1 
 1495000    1.0238046   -7.3163153    508.40193  0.028339015  0.028206063            1 
 1496000    1.0168402   -7.2998805    510.56474  0.028440549  0.028199649            1 
 1497000    1.0058994   -7.2875764    508.84812  0.028325992  0.028193165            1 
 1498000    1.0272622   -7.3063201    508.53066  0.028289423  0.028186595            3 
 1499000    1.0101338   -7.3084092    508.60107  0.028274464  0.028179938            3 
 1500000    1.0121139   -7.2823661    510.26666  0.028348148  0.028173312            1 
 1501000       1.0169   -7.2753522    509.72842  0.028299379  0.028166799            2 
 1502000    1.0341064   -7.3044298    509.39117  0.028261827  0.028160151            1 
 1503000    1.0189034     -7.29322    510.97939  0.028331082  0.028153532            2 
 1504000    1.0368844   -7.2727678    511.17898  0.028323303  0.028147011            1 
 1505000     1.017002   -7.3206823    510.84434  0.028285955  0.028140368            3 
 1506000    1.0212122   -7.3329903    510.42611   0.02824403  0.028133675            1 
 1507000    1.0212098     -7.31455    511.31445  0.028274411  0.028126991            1 
 1508000    1.0152575   -7.2862056    512.56599  0.028324823  0.028120388            1 
 1509000   0.99634036   -7.2625459     511.1921   0.02823018  0.028113875            2 
 1510000    1.0157474   -7.2973527    511.37209  0.028221418  0.028107272            1 
 1511000    1.0329017   -7.2950925    511.29006  0.028198216  0.028100494            3 
 1512000   0.99844908   -7.2983494    511.81102  0.028208279  0.028093803            3 
 1513000    1.0148166   -7.2822914     511.9154  0.028195384  0.028087074            3 
 1514000   0.99311154   -7.3237146     511.6007  0.028159439   0.02808029            2 
 1515000   0.98656431   -7.2859221    513.02066  0.028218958  0.028073639            1 
 1516000   0.99301551   -7.2818263    512.23093  0.028156933  0.028066921            2 
 1517000    1.0223733   -7.2943597    513.14784  0.028188741  0.028060274            3 
 1518000    1.0042967   -7.3031067    514.18227  0.028226958  0.028053714            2 
 1519000    1.0267575   -7.3060027    513.22945  0.028156103  0.028047149            3 
 1520000    1.0040478   -7.2953747    515.18004   0.02824452  0.028040586            3 
 1521000    1.0020828   -7.2930135    513.82816  0.028151883  0.028034059            2 
 1522000    1.0004873   -7.3201748    512.76577  0.028075217    0.0280274            1 
 1523000    1.0158248   -7.2879035    515.33111   0.02819715  0.028020825            3 
 1524000   0.99438143   -7.2630732    516.94628  0.028266967  0.028014321            2 
 1525000    1.0252627   -7.3088668    516.03723  0.028198756  0.028007821            1 
 1526000    1.0209442   -7.3133343    516.47739  0.028204314  0.028001379            1 
 1527000    1.0013445   -7.3206784    515.59192   0.02813752  0.027994829            2 
 1528000    1.0123883   -7.2951577    516.14441  0.028149237  0.027988347            3 
 1529000    1.0146041    -7.328857    515.98985  0.028122403  0.027981899            1 
 1530000    1.0197471   -7.3273901     515.1393  0.028057696  0.027975472            1 
 1531000    1.0369907   -7.2716083    517.30085  0.028157024  0.027969005            1 
 1532000    1.0000214   -7.3122396    517.61365   0.02815566  0.027962594            1 
 1533000   0.96885007   -7.3334287    516.86556  0.028096627   0.02795607            2 
 1534000   0.99283511    -7.301673    516.56703  0.028062094  0.027949536            5 
 1535000   0.98168107   -7.3248048      516.414  0.028035505  0.027942944            3 
 1536000    1.0133045   -7.2904823    518.13853  0.028110815  0.027936269            2 
 1537000   0.99587699   -7.2915283    518.71499  0.028123779  0.027929602            3 
 1538000   0.97617025   -7.2857914     519.2692  0.028135522  0.027923056            2 
 1539000    1.0017736   -7.3134447    518.99574  0.028102433  0.027916611            1 
 1540000   0.98256669   -7.3017862    519.76467  0.028125794  0.027910236            2 
 1541000    1.0096076   -7.2936942    519.00776   0.02806661  0.027903745            2 
 1542000   0.98634963   -7.3061609    519.45013  0.028072316  0.027897156            2 
 1543000    1.0267446   -7.3322398    521.28569  0.028153256  0.027890791            2 
 1544000   0.98782657   -7.3082821    520.21545  0.028077259  0.027884509            2 
 1545000    1.0103282   -7.2913212    520.33964  0.028065784  0.027878259            2 
 1546000    1.0072547   -7.2580272    522.65293  0.028172323  0.027872163            2 
 1547000    1.0009243   -7.3010093    520.15948  0.028019795  0.027865993            1 
 1548000    1.0272173   -7.3276634    521.49823  0.028073764  0.027859738            5 
 1549000   0.99762448   -7.3275938    521.29612  0.028044767  0.027853475            2 
 1550000   0.99049313   -7.2619713    523.88217  0.028165708  0.027847371            3 
 1551000   0.99295632   -7.2910839    523.60744  0.028132787  0.027841236            1 
 1552000     1.010106   -7.3216887    523.17492  0.028091437  0.027835014            1 
 1553000    1.0042709   -7.3035415     523.3174  0.028080994  0.027828775            1 
 1554000    1.0118957   -7.2676036    523.31734  0.028062921  0.027822656            3 
 1555000    1.0249315   -7.3330608    525.50501  0.028162112  0.027816535            3 
 1556000    1.0115668   -7.3114354    524.17561  0.028072815  0.027810442            4 
 1557000    1.0041409    -7.346201    522.74971  0.027978469  0.027804309            1 
 1558000    1.0000688   -7.3475133    523.90785  0.028022457  0.027798244            2 
 1559000    1.0012008   -7.2902015     526.0858    0.0281209  0.027792181            3 
 1560000   0.99977967   -7.3259181    525.56297  0.028074945  0.027786097            2 
 1561000    1.0284066   -7.3038938    524.51449  0.028000987  0.027780038            3 
 1562000   0.98975531     -7.29058    526.07062  0.028066081  0.027774092            1 
 1563000    1.0143922   -7.3378791    525.35641  0.028010045  0.027767978            2 
 1564000   0.99793134   -7.3514534    523.90443  0.027914771  0.027761848            2 
 1565000    1.0053035    -7.331676    525.47195  0.027980402  0.027755628            1 
 1566000    1.0264427   -7.3512223    526.67255  0.028026423  0.027749449            2 
 1567000    1.0149744   -7.3179958    527.20867  0.028037049  0.027743245            5 
 1568000   0.99469584   -7.3209109    524.87838  0.027895322  0.027737072            2 
 1569000    1.0173602   -7.3178552    526.11074  0.027942997  0.027730914            3 
 1570000    1.0139044   -7.2754283    528.33253  0.028043128  0.027724733            2 
 1571000   0.99192487   -7.3057678    527.93279  0.028004073  0.027718568            2 
 1572000   0.99108092   -7.3141109    526.87526  0.027930198  0.027712419            2 
 1573000   0.99604031    -7.318742    526.33393  0.027883764  0.027706307            1 
 1574000     1.033754   -7.3121469    528.01233  0.027954909  0.027700176            2 
 1575000    0.9885707   -7.3039062    527.56968   0.02791374  0.027694108            1 
 1576000    0.9837023   -7.3073325    528.12341  0.027925307  0.027687991            1 
 1577000    1.0068196   -7.2935301    529.29781  0.027969658  0.027681915            5 
 1578000   0.99374687   -7.3109726    530.51269   0.02801609  0.027675815            3 
 1579000    1.0043774   -7.2994463    529.33411  0.027936147  0.027669728            1 
 1580000   0.96774013   -7.3461275    527.15077  0.027803311  0.027663452            2 
 1581000   0.99758451   -7.3080055    529.20742  0.027894129  0.027657061            4 
 1582000    0.9965937   -7.3045617    530.65985  0.027953005  0.027650865            1 
 1583000    1.0166382   -7.3132806    529.15685  0.027856225  0.027644675            3 
 1584000    1.0025543   -7.3333893    528.66761    0.0278129  0.027638465            1 
 1585000    1.0118872   -7.3257645      529.559  0.027842219  0.027632225            3 
 1586000    1.0159721   -7.3213192    532.21774  0.027964362  0.027626056            5 
 1587000    1.0073507   -7.3383741    530.16918  0.027839171  0.027619841            2 
 1588000    1.0089278   -7.3224334    530.44383  0.027836053  0.027613654            4 
 1589000    1.0058193    -7.334003    530.41509  0.027817028  0.027607424            1 
 1590000    0.9607469   -7.3397319      530.687  0.027813784  0.027601154            4 
 1591000   0.97563565   -7.3135365    530.82979  0.027803781  0.027594838            3 
 1592000    1.0297131   -7.2839733    531.88914  0.027841768  0.027588576            2 
 1593000   0.98298107   -7.3073836    531.14069  0.027785138  0.027582399            2 
 1594000   0.98047134   -7.3310872    531.71202  0.027797575  0.027576276            2 
 1595000   0.97508077   -7.3487816    531.04954  0.027745535  0.027570038            2 
 1596000   0.98730155   -7.3538685    532.59344  0.027808764  0.027563869            4 
 1597000    0.9770461   -7.3081152    532.11732  0.027766506   0.02755769            2 
 1598000   0.97429109   -7.3172026    533.83304  0.027838603  0.027551524            3 
 1599000   0.99282014   -7.3513667    532.10698  0.027731237  0.027545318            1 
 1600000    1.0017408   -7.3320762    532.38941  0.027728615  0.027539051            3 
 1601000   0.99777658   -7.3281307    534.43346   0.02781769     0.027533            1 
 1602000   0.97635439   -7.3098827    535.67108  0.027864704  0.027526916            2 
 1603000   0.99077552   -7.3492302     533.3411  0.027726196  0.027520737            1 
 1604000    1.0023281   -7.3800566     535.1087  0.027800743  0.027514547            1 
 1605000   0.99559131   -7.3386613    533.83587  0.027717335  0.027508282            2 
 1606000   0.99152389    -7.359032    533.85451  0.027701044  0.027502121            2 
 1607000   0.97889702   -7.3622694    532.73091   0.02762554  0.027496015            7 
 1608000   0.98421083   -7.3603592    534.24778   0.02768697  0.027489871            3 
 1609000   0.97853505   -7.3219004    536.94445  0.027809429  0.027483751            4 
 1610000   0.98241885   -7.3323887     534.4948  0.027665362  0.027477583            3 
 1611000    1.0000364   -7.3205841    536.68819  0.027761648  0.027471393            2 
 1612000    0.9878946   -7.3298805    536.45484  0.027732364  0.027465234            2 
 1613000   0.99617772   -7.3028252    537.50419  0.027769384  0.027459173            1 
 1614000   0.98078418   -7.3240267    535.07577  0.027626795  0.027453085            4 
 1615000   0.96802569   -7.3294852    536.41708    0.0276789  0.027446924            2 
 1616000   0.99684227     -7.35742    536.46582  0.027664286  0.027440837            2 
 1617000   0.99750807   -7.3774037    535.22566  0.027583264  0.027434709            4 
 1618000   0.96755926   -7.3329264    536.31953  0.027622555  0.027428497            3 
 1619000   0.99685542   -7.3472211    536.80571  0.027630518  0.027422157            1 
 1620000    0.9741909   -7.3218123    536.27554   0.02758619   0.02741586            2 
 1621000   0.96929716   -7.3156809    537.22124   0.02761779  0.027409618            2 
 1622000   0.99433764   -7.3041048    538.23981  0.027653093  0.027403394            2 
 1623000     0.996715   -7.3092173    536.84496  0.027564436  0.027397164            2 
 1624000   0.99725901   -7.3647225    536.70009  0.027540029  0.027390859            3 
 1625000   0.99004506   -7.3220432    538.40584  0.027610556  0.027384449            2 
 1626000   0.97795069   -7.3197012    538.66954   0.02760709  0.027378011            2 
 1627000    1.0202855   -7.2953304    538.25752  0.027569018  0.027371541            2 
 1628000    1.0011839   -7.3652549    536.99773  0.027487599     0.027365            5 
 1629000    1.0040047   -7.3485832    538.89668  0.027567868   0.02735855            2 
 1630000   0.97976835   -7.3289521    538.45482  0.027528365  0.027352094            1 
 1631000    1.0064016   -7.3840415    537.34428  0.027454745  0.027345612            3 
 1632000     1.004931   -7.3534344    539.35877  0.027540787  0.027339259            3 
 1633000   0.99667203   -7.3345258    538.68057  0.027489312  0.027332882            1 
 1634000   0.97261395   -7.3670115    537.50958  0.027412769  0.027326447            1 
 1635000   0.98704875   -7.3266238    539.36511  0.027490576  0.027319992            2 
 1636000   0.99049984   -7.3529225     540.3841  0.027525677   0.02731365            2 
 1637000   0.98340596   -7.3527985    537.82977  0.027378832  0.027307137            2 
 1638000   0.97580216   -7.3248586     539.8948  0.027467175   0.02730066            2 
 1639000   0.99347494   -7.3208086    539.37687  0.027424083  0.027294198            3 
 1640000   0.97405827   -7.3063735    541.47679  0.027514064  0.027287727            2 
 1641000   0.99008612   -7.3644249    538.82578  0.027362674  0.027281263            4 
 1642000   0.97697347   -7.3876769    539.75256  0.027393045  0.027274769            2 
 1643000    1.0238712   -7.3245012    540.51011  0.027414796  0.027268305            2 
 1644000   0.99394331   -7.3354377    542.37022  0.027492408  0.027261948            3 
 1645000   0.97467825   -7.3551028    541.71573  0.027442539   0.02725546            2 
 1646000   0.96441302   -7.3366846     541.3092  0.027405286  0.027249017            1 
 1647000   0.98479803   -7.3717619    541.18658  0.027382442  0.027242498            2 
 1648000    0.9796897   -7.3121934    542.35906  0.027425114  0.027236048            1 
 1649000   0.98839915   -7.3544901    541.69299  0.027374823  0.027229716            1 
 1650000   0.98980072   -7.3795887    542.55933  0.027401986  0.027223306            2 
 1651000   0.98504033   -7.3634166    542.46039  0.027380395  0.027216782            3 
 1652000    1.0005597   -7.3405516    543.76283  0.027429521  0.027210312            2 
 1653000    1.0076335   -7.3658925    542.09155  0.027328673    0.0272038            3 
 1654000   0.97916836   -7.3392412     543.1563  0.027365795  0.027197425            1 
 1655000    0.9810066   -7.3412938    544.07764  0.027395651  0.027191105            1 
 1656000   0.96131335   -7.3700498    541.97447  0.027273272  0.027184637            2 
 1657000   0.99180119   -7.3224583    543.84836  0.027351054  0.027178191            1 
 1658000    0.9812987   -7.3362516    544.00988  0.027342676  0.027171865            4 
 1659000    1.0004752   -7.4002188    543.64987  0.027308111  0.027165497            2 
 1660000   0.99488332    -7.334758    543.97364  0.027307914  0.027159157            1 
 1661000   0.96613704    -7.336461     545.1574  0.027350863  0.027152814            2 
 1662000    0.9946673   -7.3625892    543.99469  0.027276108  0.027146399            2 
 1663000   0.97370875   -7.3475874    545.22154  0.027321184  0.027140044            1 
 1664000    0.9689334   -7.3125723    546.43179  0.027365374  0.027133762            3 
 1665000   0.99427964   -7.3749804    545.48264  0.027301434  0.027127439            3 
 1666000   0.95965416   -7.3171081    546.94658  0.027358272  0.027121184            2 
 1667000   0.99660675   -7.3166712    547.88501  0.027388773  0.027115018            4 
 1668000    0.9781431   -7.3326346    548.14871  0.027385527  0.027108872            2 
 1669000   0.98856336   -7.3683431    546.62683  0.027293131  0.027102686            2 
 1670000   0.98707169   -7.3789502    547.23058  0.027306915  0.027096365            1 
 1671000   0.98066507   -7.3805605    546.80384  0.027269292  0.027090083            2 
 1672000   0.98300778    -7.369608    547.35962  0.027280683  0.027083818            1 
 1673000    1.0017193   -7.3376439    548.37229  0.027314818  0.027077579            6 
 1674000   0.98545192   -7.3673986    549.06899  0.027333183  0.027071335            1 
 1675000   0.96985501   -7.3259067     549.5297  0.027339786  0.027065117            3 
 1676000   0.98915958   -7.3991217    548.20448  0.027257582  0.027058861            2 
 1677000   0.97994596   -7.3782706    548.54083  0.027258042  0.027052589            2 
 1678000   0.98164442   -7.3842007    549.21292  0.027275175  0.027046398            3 
 1679000   0.99137117   -7.3641814    548.11071  0.027204224  0.027040182            2 
 1680000   0.97488388   -7.3206325    550.44926  0.027304031  0.027033996            1 
 1681000   0.98864116   -7.3594106    549.68094  0.027249699  0.027027759            1 
 1682000   0.97210491   -7.3549628    549.49307  0.027224191  0.027021502            2 
 1683000   0.99161994   -7.3719573    550.30478  0.027248206  0.027015298            2 
 1684000   0.99026427   -7.3634576    549.76698  0.027205413  0.027009051            3 
 1685000   0.99712689   -7.3724753    550.39112  0.027220134  0.027002896            4 
 1686000   0.98702441   -7.3578898    550.27018  0.027198012  0.026996647            1 
 1687000   0.99886685    -7.334922    549.33331  0.027135611    0.0269904            1 
 1688000    1.0260918   -7.3568219    552.04615  0.027253463  0.026984154            2 
 1689000   0.99656311   -7.3458623    551.76865  0.027223636  0.026977928            1 
 1690000   0.97673973   -7.3317741    551.87594  0.027212818   0.02697162            2 
 1691000   0.98704662   -7.3557464    552.59893  0.027232354  0.026965332            3 
 1692000   0.97531466    -7.386306    551.29593  0.027152085  0.026959013            3 
 1693000    0.9995478   -7.3504607    551.15773  0.027129245  0.026952659            6 
 1694000   0.97516234   -7.3737711    550.62418  0.027086982  0.026946337            2 
 1695000   0.98303195   -7.3728299    551.42722  0.027110483   0.02693997            2 
 1696000   0.99317437   -7.3734685    550.62861  0.027055258  0.026933609            2 
 1697000   0.98508146   -7.4074954    551.20745   0.02706774  0.026927198            1 
 1698000   0.99706728   -7.3558332    550.18636  0.027001686  0.026920661            2 
 1699000    1.0059063   -7.3214628    553.24255  0.027135695  0.026914233            2 
 1700000   0.97923403   -7.4025621    550.97647  0.027008651  0.026907745            2 
 1701000   0.96964197   -7.3791767    551.39172  0.027013116  0.026901275            2 
 1702000   0.99283327   -7.3979817    550.99172   0.02697766  0.026894719            1 
 1703000   0.98143512   -7.3738244    551.75845  0.026999337  0.026888216            2 
 1704000   0.97760748   -7.4268968    551.27508  0.026959853  0.026881665            2 
 1705000   0.98539347   -7.4005768    551.61308  0.026960561  0.026875162            1 
 1706000   0.99567566   -7.3822819    552.86151   0.02700574   0.02686868            4 
 1707000   0.98738317   -7.3399215    553.80224  0.027035845  0.026862139            3 
 1708000   0.99784216   -7.3383341    551.88767  0.026926604  0.026855598            5 
 1709000   0.97606248   -7.3812544    553.71916  0.027000154  0.026849074            2 
 1710000   0.95462756   -7.3561154    552.45872  0.026922939  0.026842519            1 
 1711000   0.98984969   -7.3703159    552.87468  0.026927463    0.0268359            2 
 1712000   0.96858446   -7.3645335    553.41383  0.026937978  0.026829366            4 
 1713000   0.97683045   -7.3591789    554.21443    0.0269612  0.026822855            2 
 1714000   0.97517314   -7.3547711    555.22082    0.0269944  0.026816304            1 
 1715000   0.99707386   -7.4103396    554.08466  0.026923453  0.026809819            2 
 1716000    1.0036519   -7.3663794    554.65292  0.026935359  0.026803263            1 
 1717000    0.9703687   -7.3715706     554.8043  0.026927019  0.026796807            4 
 1718000   0.97783173   -7.3336678    557.14939  0.027025096  0.026790332            2 
 1719000    0.9817289    -7.373214    555.59407  0.026933977   0.02678383            1 
 1720000   0.97339335   -7.3474612    555.44789  0.026911235  0.026777372            3 
 1721000   0.99869374   -7.3723768     555.0891  0.026878225  0.026770974            3 
 1722000   0.97058504   -7.3867541    554.86995  0.026852011  0.026764383            2 
 1723000   0.98084619   -7.3593253    556.97792  0.026938379  0.026757891            3 
 1724000   0.98677596   -7.3579855    556.13774  0.026882142  0.026751328            3 
 1725000   0.97860153   -7.3753657    554.93594  0.026808499  0.026744785            2 
 1726000   0.95823619    -7.386766    554.93093  0.026792725  0.026738209            3 
 1727000   0.97227818   -7.3351685    556.86445   0.02687051  0.026731505            2 
 1728000   0.97627026   -7.3938958     555.1188  0.026770776  0.026724872            1 
 1729000   0.98006891   -7.3791155     554.9154  0.026745489  0.026718105            3 
 1730000   0.96438899   -7.4267266    555.45915  0.026756221  0.026711269            2 
 1731000   0.98537699   -7.3710461    556.18666  0.026775787  0.026704426            1 
 1732000   0.98234925   -7.3762313    557.38717   0.02681809   0.02669767            1 
 1733000   0.95627078   -7.3689042    555.54119  0.026713848  0.026690979            2 
 1734000   0.97843197   -7.3841011    555.54935  0.026698835  0.026684259            2 
 1735000   0.98336155   -7.3880433    555.73256  0.026692246  0.026677472            2 
 1736000    0.9596754   -7.3710147    556.19124  0.026698888  0.026670573            2 
 1737000   0.99908389   -7.3571574    555.60617  0.026655449  0.026663753            2 
 1738000   0.96363715    -7.383353    556.94719  0.026704411   0.02665696            2 
 1739000   0.98348289    -7.393085    556.47956  0.026666645  0.026650166            3 
 1740000    0.9785538   -7.3803272    558.00115  0.026724193  0.026643225            1 
 1741000   0.97390184   -7.3572218    558.01203  0.026709364  0.026636395            3 
 1742000   0.99054183   -7.3621264    556.22622  0.026608602  0.026629478            2 
 1743000   0.96620933     -7.36645    557.06833  0.026633598  0.026622639            5 
 1744000   0.97014889   -7.3515546    558.33326  0.026678768  0.026615695            3 
 1745000   0.98521793   -7.3899814    558.00838  0.026647965  0.026608758            1 
 1746000   0.97384345   -7.4040313    557.12735  0.026590652  0.026601792            2 
 1747000   0.97006348   -7.4207481    555.67066  0.026505946  0.026594748            4 
 1748000   0.99951346   -7.4137796    557.23898   0.02656555  0.026587696            2 
 1749000   0.97276035    -7.422782     557.0535  0.026541524  0.026580671            2 
 1750000   0.99809755   -7.3640541    560.23723  0.026677963  0.026573732            2 
 1751000   0.96558681   -7.3673452    558.89803  0.026598993  0.026566733            2 
 1752000   0.99210245   -7.3697854    558.12882  0.026547223   0.02655969            2 
 1753000   0.96556044   -7.3712291    556.64967  0.026461764  0.026552594            1 
 1754000   0.95572242   -7.3851114    559.55645   0.02658478  0.026545516            1 
 1755000   0.97261274    -7.403128     558.1548  0.026503077  0.026538451            3 
 1756000   0.97377446   -7.3468762    561.42308  0.026643085  0.026531437            4 
 1757000   0.98269226   -7.3817071    559.30723  0.026527568   0.02652439            2 
 1758000   0.96782547   -7.3200758    560.58821  0.026573199  0.026517413            3 
 1759000   0.97715621   -7.3965331    559.27364  0.026495814  0.026510431            1 
 1760000   0.97558093   -7.4146578    559.54363  0.026493543  0.026503427            2 
 1761000   0.96170097   -7.3785681    558.19837  0.026414839  0.026496446            1 
 1762000   0.98149097   -7.4147969    558.92844  0.026434376  0.026489248            2 
 1763000   0.96503125   -7.4284632    558.93521  0.026419702  0.026482126            1 
 1764000   0.96301455   -7.3710146    560.19355   0.02646417  0.026475061            2 
 1765000   0.99237906    -7.389608    560.37289  0.026457644  0.026468015            2 
 1766000   0.95734373   -7.4086384    559.50994  0.026401941  0.026460898            4 
 1767000   0.96685087   -7.3943544    560.52789  0.026435007  0.026453751            2 
 1768000   0.95460564   -7.3917168    558.36369  0.026318047  0.026446659            1 
 1769000   0.97381628   -7.4060638    558.48582  0.026308923  0.026439536            4 
 1770000   0.94500872    -7.396688     559.4956  0.026341601  0.026432486            2 
 1771000   0.96746468   -7.3743583    560.46537  0.026372359  0.026425375            3 
 1772000   0.96346379   -7.3785184    562.21861  0.026439927  0.026418294            1 
 1773000   0.96565764   -7.3754302    560.65905  0.026351713  0.026411169            2 
 1774000   0.98821449   -7.3526773    562.20094  0.026409289  0.026404143            3 
 1775000   0.97577738   -7.4246993    560.35391  0.026307695  0.026397076            1 
 1776000   0.95888862   -7.3917057    561.85154  0.026363154   0.02638984            2 
 1777000   0.96442618   -7.3879356    561.75614  0.026343845  0.026382753            1 
 1778000   0.98276909   -7.4294387    561.01859   0.02629446  0.026375584            1 
 1779000   0.96813173   -7.4024314    561.39196  0.026297169  0.026368441            2 
 1780000   0.94992194   -7.3700449    563.77811  0.026394106  0.026361283            5 
 1781000   0.98465373   -7.3735722    562.82894  0.026334875  0.026354191            3 
 1782000   0.95971332   -7.4566412     561.7705  0.026270599  0.026347097            2 
 1783000    0.9888946   -7.3842931    562.94728  0.026310866  0.026339915            3 
 1784000   0.97386697   -7.4175807    564.11668  0.026350742  0.026332878            3 
 1785000   0.97034603   -7.4122364    564.62368  0.026359649  0.026325807            1 
 1786000    0.9521619   -7.3700485    564.02066  0.026316754   0.02631877            2 
 1787000   0.96186804   -7.3979954      563.852  0.026294162  0.026311771            2 
 1788000   0.97328263   -7.3901021    565.97134  0.026378232   0.02630475            2 
 1789000   0.95493836   -7.4051561    564.15451  0.026278857  0.026297746            2 
 1790000   0.98385595   -7.3858892    564.68559  0.026288901  0.026290746            2 
 1791000   0.96262556   -7.4103296    565.72123   0.02632241  0.026283786            2 
 1792000   0.97731324   -7.3834984    565.38589  0.026292126  0.026276837            2 
 1793000   0.94962638   -7.3740587    566.40489  0.026324823  0.026269911            1 
 1794000   0.94554935   -7.4121181    564.74476  0.026233034  0.026263004            2 
 1795000   0.96486833   -7.4134833    565.92256    0.0262731  0.026256015            2 
 1796000   0.95559713   -7.3972257    565.32933  0.026230945  0.026249056            1 
 1797000    0.9727713   -7.3836486    566.91895  0.026290065  0.026242215            2 
 1798000    0.9504458   -7.4136731    565.56327   0.02621261  0.026235258            3 
 1799000   0.96028772     -7.40451    565.51642  0.026195869  0.026228226            3 
 1800000   0.95805626   -7.4110087    565.94282  0.026201056  0.026221265            2 
 1801000   0.94745528   -7.4117661    566.45393  0.026210158  0.026214279            2 
 1802000   0.96286748   -7.4258071    565.59053  0.026155685  0.026207359            1 
 1803000   0.96713354   -7.4113541    567.50992  0.026229891  0.026200439            1 
 1804000   0.94728923   -7.4219589    567.80042   0.02622877  0.026193639            1 
 1805000   0.96203507     -7.38138    568.06656  0.026226526  0.026186798            1 
 1806000   0.95806358   -7.4354314      568.084  0.026212809  0.026179869            1 
 1807000   0.98417638    -7.399256    569.08661   0.02624454  0.026172978            3 
 1808000   0.97860075   -7.3729498    569.38996  0.026244006   0.02616609            2 
 1809000   0.99112508   -7.3799905    569.20042  0.026220767  0.026159114            1 
 1810000    0.9745383   -7.4127865    567.34754  0.026120973  0.026152236            2 
 1811000   0.97043703   -7.4008165    569.10782  0.026187549  0.026145403            2 
 1812000   0.95805835   -7.3808593    567.63271  0.026105257  0.026138459            2 
 1813000   0.96388842    -7.380012    568.50506  0.026130955  0.026131498            1 
 1814000   0.95730096    -7.393274    568.42318  0.026112788  0.026124542            2 
 1815000   0.94552073   -7.4313116    568.24668  0.026090297  0.026117476            1 
 1816000   0.95699085   -7.4058602    567.99458  0.026064362  0.026110374            4 
 1817000   0.96430802   -7.4218826    569.02768  0.026097399  0.026103326            2 
 1818000   0.96925194   -7.3765547    568.70311  0.026068166   0.02609632            2 
 1819000   0.95467974   -7.3942095    569.11083  0.026072514  0.026089302            1 
 1820000   0.95748566   -7.4066539    570.38122  0.026116356  0.026082324            1 
 1821000   0.97201289   -7.4234938    569.22404  0.026049059  0.026075249            3 
 1822000   0.96085575   -7.3874346    570.00979    0.0260707  0.026068157            2 
 1823000   0.95412915   -7.4515924    569.25828  0.026022046  0.026061059            3 
 1824000   0.93895353   -7.4240567    569.56407   0.02602175  0.026054018            2 
 1825000   0.95016486   -7.4001023    570.47779  0.026049214  0.026047021            2 
 1826000   0.93859342   -7.4499181    569.06353  0.025970406  0.026039985            4 
 1827000   0.93636686    -7.416305    571.55917  0.026070022  0.026032925            1 
 1828000   0.94521002   -7.4236379    570.19748  0.025993685  0.026025934            2 
 1829000   0.96053607    -7.428346    570.11451  0.025975693   0.02601883            2 
 1830000   0.96410144    -7.409509    571.04132  0.026003703  0.026011817            1 
 1831000   0.97174334   -7.4020355    570.31113  0.025956269  0.026004733            1 
 1832000   0.95257721   -7.4520622    570.46699   0.02594919  0.025997578            4 
 1833000   0.96954318   -7.4197674    571.60351  0.025986702  0.025990425            1 
 1834000   0.95180971    -7.414534    571.96639  0.025989022  0.025983265            1 
 1835000   0.95488805   -7.4457004    570.84787  0.025924063  0.025976166            1 
 1836000   0.94104606   -7.4333068    570.44278  0.025891557  0.025969046            1 
 1837000   0.92714236   -7.4201107    571.82901  0.025940347  0.025962016            2 
 1838000   0.96465548   -7.4175314    571.72792   0.02592165  0.025955013            3 
 1839000   0.94590685   -7.4332509    572.84553  0.025958199  0.025948031            1 
 1840000    0.9378009   -7.4118037     574.0152  0.025997065  0.025941116            1 
 1841000   0.96651411   -7.4183167    572.54102  0.025916215  0.025934118            3 
 1842000   0.95391793   -7.4754848    572.54346  0.025902256  0.025927064            2 
 1843000   0.94561323   -7.4546463    573.86332   0.02594788   0.02591995            4 
 1844000    0.9324066   -7.3937868    574.48943  0.025962104  0.025913002            1 
 1845000   0.97029022   -7.3935484    574.09718  0.025930315  0.025906036            2 
 1846000   0.95667437   -7.4171585    573.98229  0.025911082  0.025899126            5 
 1847000   0.96374119   -7.4083798    574.36255   0.02591421  0.025892194            3 
 1848000   0.96357026   -7.4058061    575.81044  0.025965478  0.025885223            2 
 1849000     0.967934   -7.4135819    573.82902  0.025862133  0.025878219            2 
 1850000   0.95312335   -7.4336187    573.02556  0.025811962  0.025871089            1 
 1851000   0.97043983    -7.430919    574.12672  0.025847592  0.025864072            2 
 1852000    0.9562209   -7.4092817    575.21311   0.02588252  0.025857031            2 
 1853000   0.96170549   -7.4282025    574.78858   0.02584946   0.02584999            2 
 1854000   0.95123506   -7.4179962    574.10486  0.025804785  0.025842904            3 
 1855000   0.92762783    -7.458775    574.11069  0.025791136  0.025835796            1 
 1856000   0.96068222   -7.4234344    573.85566  0.025765789  0.025828759            2 
 1857000   0.96187095   -7.4193472       574.47  0.025779483  0.025821693            3 
 1858000   0.95799473   -7.4246403    576.93611  0.025876216  0.025814661            3 
 1859000   0.96829442   -7.4377715    574.63953  0.025759348  0.025807624            5 
 1860000    0.9678156   -7.4259042    574.55235  0.025741593  0.025800537            1 
 1861000   0.94719046   -7.4310137    575.89569  0.025787914  0.025793517            2 
 1862000   0.95774398   -7.4265832    576.94929  0.025821218  0.025786422            2 
 1863000   0.96729665   -7.4521943    575.56812  0.025745577  0.025779331            2 
 1864000   0.95280136   -7.4391651    575.79787  0.025742036  0.025772305            2 
 1865000   0.94896563   -7.4330761    574.81538  0.025684333  0.025765219            1 
 1866000   0.96697959   -7.4632094    575.42745  0.025697903  0.025758168            2 
 1867000   0.94918486   -7.4573982    577.55113  0.025778929  0.025751107            1 
 1868000   0.96106429   -7.4409225    576.47986  0.025717338  0.025744043            3 
 1869000   0.93092495   -7.4206186    576.97887  0.025725828  0.025736951            1 
 1870000   0.91918254     -7.42812    576.39451   0.02568603  0.025729911            2 
 1871000   0.94671109   -7.4453402    578.06027  0.025746493  0.025722742            3 
 1872000    0.9425522   -7.4326371    576.78506  0.025675973  0.025715639            2 
 1873000     0.952863     -7.42454    577.89011  0.025711431  0.025708522            4 
 1874000   0.96111215   -7.4435542    576.81007  0.025649683  0.025701571            3 
 1875000   0.95058062   -7.4476442    579.26443  0.025745086  0.025694474            2 
 1876000   0.96318109     -7.39648     578.5377   0.02569908  0.025687466            2 
 1877000   0.92876297   -7.4353646     579.0259  0.025707064  0.025680453            3 
 1878000   0.97678496   -7.4499045    577.63306   0.02563157  0.025673499            3 
 1879000   0.96330556   -7.4478337    577.80003  0.025625334  0.025666438            2 
 1880000   0.91358377   -7.4072903    578.82623  0.025657191  0.025659408            2 
 1881000   0.95464051   -7.4658943    580.01474  0.025696205  0.025652382            2 
 1882000   0.94653366   -7.4410951    579.25404  0.025648868  0.025645432            5 
 1883000   0.93461908   -7.4510756    578.83159  0.025616551  0.025638533            1 
 1884000   0.93037786   -7.4162197     580.1875  0.025662929  0.025631672            3 
 1885000   0.94652828   -7.4578613    580.05549  0.025643479  0.025624775            3 
 1886000   0.93323516    -7.432035    579.45424  0.025603316  0.025617772            1 
 1887000   0.94870685   -7.4524822    580.02072  0.025614764    0.0256107            3 
 1888000   0.97199437   -7.4356183    580.83846  0.025637291   0.02560372            3 
 1889000   0.92849417   -7.4536589    577.91528  0.025494763  0.025596654            1 
 1890000   0.94620463   -7.4569156    578.80382  0.025520451  0.025589554            2 
 1891000    0.9425669   -7.4392899    579.76372  0.025549256  0.025582481            2 
 1892000   0.94843466    -7.456591    580.38075  0.025562929  0.025575568            3 
 1893000   0.97081841   -7.4213999     580.9296  0.025573587  0.025568639            3 
 1894000   0.95720112   -7.4304106     582.2176  0.025616755  0.025561625            2 
 1895000    0.9439657   -7.4388775    582.41315  0.025611836  0.025554617            1 
 1896000   0.94500236   -7.4179431    581.66513   0.02556545  0.025547533            3 
 1897000   0.93870727   -7.4198295    583.54453  0.025634534  0.025540514            4 
 1898000   0.97324375   -7.4424738    581.18402  0.025517388  0.025533539            1 
 1899000   0.94812587   -7.4487531    580.95882  0.025494068  0.025526512            3 
 1900000   0.93789112   -7.4743479    581.84227  0.025519398   0.02551945            3 
 1901000   0.95126604   -7.3956271     582.8776  0.025551359  0.025512393            1 
 1902000   0.95961039   -7.4025198    582.24432  0.025510179  0.025505411            1 
 1903000   0.94930839    -7.410443    581.62969  0.025469858  0.025498483            2 
 1904000   0.94100808    -7.446898    581.12049  0.025434195  0.025491401            2 
 1905000   0.93498967   -7.4505469    582.72916  0.025491215  0.025484245            4 
 1906000   0.96596755   -7.4226938    581.92776  0.025442802  0.025477085            1 
 1907000   0.94453513   -7.4384711    581.89376  0.025427974  0.025469925            3 
 1908000    0.9579642   -7.4646364     581.4257  0.025394204   0.02546287            1 
 1909000   0.93340804   -7.4453059    581.28036  0.025374557   0.02545578            1 
 1910000    0.9643606   -7.4349746    583.09596  0.025440487  0.025448713            2 
 1911000   0.94808814   -7.4297844    581.98234  0.025378613  0.025441642            2 
 1912000   0.92676006   -7.4445055    583.40502  0.025427346  0.025434634            2 
 1913000   0.94198595   -7.4257096    583.85743  0.025433762  0.025427622            3 
 1914000   0.94441305    -7.482736    583.50158   0.02540498  0.025420584            2 
 1915000   0.95166911   -7.4189352    586.25524  0.025511542  0.025413588            2 
 1916000   0.96406541     -7.42258    584.59958  0.025426217  0.025406635            2 
 1917000    0.9678539   -7.4464588    583.70149  0.025373913  0.025399631            5 
 1918000   0.95631018   -7.4360708    584.55672  0.025397842  0.025392616            2 
 1919000   0.93511231   -7.4292545    584.02237  0.025361402  0.025385593            2 
 1920000   0.92978098   -7.4663379    583.54197  0.025327342  0.025378515            2 
 1921000   0.97347154   -7.4539506    583.68816    0.0253205   0.02537145            2 
 1922000   0.93155444   -7.4877396    585.20614  0.025373142  0.025364381            1 
 1923000   0.95747505   -7.4327449     585.5763  0.025375988  0.025357356            3 
 1924000   0.95357645   -7.4490608    583.59857  0.025277138  0.025350298            4 
 1925000   0.95182919   -7.4581598    585.05563  0.025327084  0.025343166            4 
 1926000   0.95907379   -7.4372485    585.29288  0.025324199   0.02533614            4 
 1927000   0.95767212   -7.4511396    584.57163  0.025279866  0.025329091            2 
 1928000   0.93798041   -7.4606307    584.77636  0.025275603  0.025322013            2 
 1929000   0.93101082   -7.4230157    586.01154  0.025315861  0.025314931            1 
 1930000   0.94193173   -7.4253021     586.4285  0.025320747  0.025307895            1 
 1931000   0.95750307    -7.446821    586.43533  0.025307929  0.025300852            2 
 1932000   0.93618715   -7.4046822     585.8639  0.025270182  0.025293852            3 
 1933000     0.954965   -7.4629317    585.87616  0.025257637  0.025286833            2 
 1934000   0.93484387   -7.4489446    586.88922  0.025288229  0.025279838            5 
 1935000   0.95757592   -7.4656977    586.70068  0.025267041  0.025272786            4 
 1936000   0.94285148   -7.5058864    585.85516  0.025217595  0.025265686            2 
 1937000   0.93594041   -7.4538005    586.94734  0.025251563  0.025258522            2 
 1938000   0.93889461   -7.3997114     588.9413  0.025324273  0.025251506            2 
 1939000   0.94640359   -7.4347087    587.74694  0.025259882  0.025244523            1 
 1940000   0.98196548    -7.421979    588.63999  0.025285223  0.025237447            3 
 1941000   0.92382999   -7.4613685    586.24386  0.025169322   0.02523027            1 
 1942000   0.95457453   -7.4626077    587.14067  0.025194845  0.025223118            3 
 1943000   0.92982288   -7.4611719    587.74315  0.025207718  0.025215993            1 
 1944000   0.92809725   -7.4246108    587.93619  0.025203026  0.025208888            3 
 1945000   0.93255611   -7.4515624     585.8102   0.02509898  0.025201797            2 
 1946000   0.94852368   -7.5047673    587.90543  0.025175806  0.025194576            2 
 1947000   0.93918615   -7.4257348    587.38964  0.025140799  0.025187441            4 
 1948000   0.95486472   -7.4429982    588.42262  0.025172083  0.025180312            2 
 1949000    0.9656133   -7.4788665    587.16032  0.025105196  0.025173114            5 
 1950000    0.9376642    -7.459334    588.60129  0.025153901  0.025165995            2 
 1951000   0.95440609   -7.4526135    586.96325  0.025071043  0.025158842            2 
 1952000   0.95191168   -7.4199173    589.26359  0.025156403   0.02515173            1 
 1953000   0.93606733   -7.4545179    588.10098  0.025093915  0.025144573            2 
 1954000   0.93187433   -7.4321695    587.96764  0.025075385  0.025137369            3 
 1955000   0.93123106   -7.4509589    589.13917  0.025112497   0.02513021            2 
 1956000     0.900732   -7.4718983    587.84335  0.025044451  0.025123017            2 
 1957000   0.92856224   -7.4863426    588.19835   0.02504677  0.025115882            2 
 1958000   0.95164324   -7.4600324    588.70731  0.025055639  0.025108792            4 
 1959000   0.94729701   -7.4530388    590.32268  0.025111565  0.025101667            1 
 1960000   0.94979433   -7.4558759     588.7856  0.025033401  0.025094544            2 
 1961000   0.95114976   -7.4518873    590.75495  0.025104324  0.025087405            3 
 1962000   0.94910445      -7.4666    590.07848  0.025062797  0.025080314            3 
 1963000    0.9494261    -7.500321    591.02559  0.025090236   0.02507323            5 
 1964000    0.9232842   -7.4489608    591.36351  0.025091799  0.025066195            1 
 1965000   0.95130234   -7.4410078    590.63007  0.025047925  0.025059154            1 
 1966000   0.94570981   -7.4776886    591.73709  0.025082108  0.025052084            2 
 1967000   0.91288904   -7.4383572    591.69436  0.025067546  0.025045047            2 
 1968000   0.96326373   -7.4728299    591.15662  0.025032038  0.025038038            2 
 1969000    0.9355637   -7.4649927    591.80592  0.025046806   0.02503104            2 
 1970000   0.92775146   -7.4374139    592.24491  0.025052661  0.025024137            4 
 1971000   0.94553891   -7.4971894    590.93258  0.024984466  0.025017117            3 
 1972000   0.91297623   -7.4745824    593.37123  0.025074849  0.025010139            3 
 1973000   0.93674582   -7.4530943    591.85904   0.02499827  0.025003107            2 
 1974000   0.96372709    -7.477559     592.6617  0.025019491  0.024996141            1 
 1975000   0.91558091   -7.4609144    593.36118  0.025036337  0.024989119            2 
 1976000   0.94048301   -7.5140704    592.58017  0.024990729  0.024982104            4 
 1977000   0.95286084   -7.4665462    591.96695   0.02495224  0.024975145            5 
 1978000   0.91908507   -7.4564441    593.23723  0.024993143  0.024968252            2 
 1979000   0.95000807   -7.4631567    593.05965  0.024973036  0.024961312            2 
 1980000   0.94141189   -7.4686738     593.3769  0.024973775  0.024954378            2 
 1981000   0.92817468   -7.4118877    594.23315  0.024997188  0.024947469            2 
 1982000    0.9344487   -7.4352233    594.98924  0.025016365  0.024940613            2 
 1983000   0.92689517   -7.4367462    594.33572  0.024976287  0.024933717            2 
 1984000   0.93014311   -7.4579571    594.42843  0.024967592  0.024926874            3 
 1985000   0.94291209   -7.4597677    595.12578  0.024984289  0.024920027            2 
 1986000   0.94042279   -7.4685326    595.68286  0.024995085  0.024913149            2 
 1987000   0.93446506   -7.5087182     593.6416  0.024896897  0.024906247            1 
 1988000   0.93275423    -7.473613    596.48155  0.025003419  0.024899343            2 
 1989000    0.9444771   -7.4436181    596.10389  0.024975025  0.024892437            1 
 1990000   0.93488406   -7.4817028    594.99596  0.024916079  0.024885458            3 
 1991000   0.92547702   -7.4771775    594.17895  0.024869369  0.024878574            4 
 1992000   0.94535291   -7.4768177    596.11316    0.0249378  0.024871662            3 
 1993000   0.95890511   -7.4870598    593.73153  0.024825704  0.024864806            5 
 1994000    0.9303646   -7.4945082    596.79362  0.024941225  0.024857887            2 
 1995000   0.92537113    -7.480993     596.6747  0.024923755  0.024850997            2 
 1996000   0.91526608    -7.444188    597.85745  0.024960648  0.024844127            4 
 1997000   0.93394137   -7.4637061    596.25315  0.024881203  0.024837315            1 
 1998000   0.94562939   -7.4674687     598.0437  0.024943431  0.024830463            2 
 1999000   0.93149184   -7.4741528    597.46746  0.024906931  0.024823606            4 
 2000000   0.95709298   -7.4763567    597.55987  0.024898328  0.024816784            1 
 2001000   0.93144311   -7.4763454    596.04728  0.024822892  0.024809948            2 
 2002000   0.93982375   -7.4441737    597.96401  0.024890277  0.024803165            3 
 2003000   0.93903714   -7.5104938    597.03326  0.024839127  0.024796326            2 
 2004000   0.92159292   -7.4869354    598.19399  0.024874999  0.024789452            1 
 2005000    0.9314862   -7.4567007    597.46963  0.024832487  0.024782616            4 
 2006000   0.92283701    -7.513071    596.83577  0.024793776  0.024775798            2 
 2007000   0.94875877   -7.4718338    598.97565  0.024870273  0.024768979            2 
 2008000   0.92878954   -7.4780326    598.62184  0.024843204  0.024762202            3 
 2009000   0.94181819   -7.4832666    596.96242  0.024762005  0.024755346            2 
 2010000   0.94217924   -7.5007844    596.47162  0.024729337  0.024748539            2 
 2011000   0.92068337   -7.4195091    599.83226  0.024856301  0.024741736            7 
 2012000   0.93228222   -7.4398632    600.79103  0.024883657  0.024735019            2 
 2013000   0.93556668   -7.4925871    599.08192  0.024800543  0.024728232            3 
 2014000   0.91784275   -7.4641631    600.40553  0.024842996  0.024721346            3 
 2015000   0.93043794   -7.4845571    600.33622    0.0248278  0.024714487            1 
 2016000   0.93552261   -7.5047453    600.11701  0.024806424  0.024707629            1 
 2017000   0.95933449   -7.4664923    600.88224  0.024825741  0.024700859            2 
 2018000   0.93608218   -7.4829867    600.67367  0.024804826   0.02469411            2 
 2019000   0.92116636   -7.5093612    599.16393  0.024730226  0.024687269            1 
 2020000   0.93334268   -7.5000801    600.21335  0.024761277  0.024680463            3 
 2021000   0.91677405   -7.4675781    599.89296  0.024735814  0.024673669            4 
 2022000   0.91003839   -7.4569684    601.42035   0.02478653  0.024666942            4 
 2023000   0.93870947   -7.4659141    599.91929  0.024712444  0.024660247            1 
 2024000    0.9370048   -7.4955545    600.93356  0.024741994  0.024653504            2 
 2025000   0.94215397   -7.4622016    601.32138  0.024745736  0.024646749            3 
 2026000   0.93376038   -7.4561781    600.99387  0.024720051   0.02463999            1 
 2027000   0.91483858   -7.5166548    600.25799  0.024677602  0.024633141            2 
 2028000   0.90528574   -7.5072088    600.16034  0.024661421  0.024626198            3 
 2029000   0.90393463   -7.4808202    599.58522  0.024625646  0.024619383            2 
 2030000   0.91594848   -7.4893984    602.47459  0.024732126   0.02461252            3 
 2031000    0.9499577   -7.4935411    600.74242  0.024648877  0.024605637            3 
 2032000    0.9208838   -7.4926935    602.14358  0.024694209  0.024598796            2 
 2033000   0.91437362   -7.4849995    602.89582  0.024712896  0.024591939            4 
 2034000   0.92525769   -7.5025883     600.5073  0.024602888  0.024585099            1 
 2035000   0.93650523   -7.4821902    601.32713  0.024624371  0.024578307            2 
 2036000   0.91532241   -7.4909569    602.27012  0.024650873  0.024571525            2 
 2037000   0.93123887   -7.4777737     602.7713  0.024659274  0.024564759            3 
 2038000   0.93344055   -7.5047067    603.63785  0.024682607  0.024557974            4 
 2039000   0.91796823   -7.4646769    603.43943  0.024662393  0.024551258            1 
 2040000   0.92768918   -7.4837948    604.70335  0.024701934  0.024544495            3 
 2041000   0.93087553   -7.4840913    602.15965  0.024585973  0.024537669            2 
 2042000   0.92796256   -7.4946365    603.17387  0.024615323  0.024530831            2 
 2043000   0.93793569   -7.5097076    602.87873  0.024591235  0.024524026            6 
 2044000   0.92823068   -7.4949423    602.61232  0.024568343  0.024517269            1 
 2045000   0.91530476   -7.4986051    602.72692  0.024560999  0.024510444            1 
 2046000   0.91601482   -7.4978496    603.57085  0.024583368  0.024503575            2 
 2047000    0.9094239   -7.5141241    601.64601  0.024492998  0.024496754            1 
 2048000   0.90370184   -7.4990417    602.89066  0.024531684  0.024489887            2 
 2049000   0.92568863   -7.4864033    603.51947  0.024545285  0.024483064            1 
 2050000   0.95607722   -7.4528827     603.0139   0.02451276  0.024476259            5 
 2051000   0.91609491   -7.4493454    604.75213  0.024571434  0.024469468            2 
 2052000   0.92719555   -7.4794823    603.43952  0.024506154  0.024462647            4 
 2053000    0.9124497   -7.4814287    604.54072  0.024538915  0.024455746            5 
 2054000   0.90823053    -7.483156    604.58653  0.024528827  0.024448772            2 
 2055000   0.92126414   -7.4955781    603.39688  0.024468649  0.024441852            2 
 2056000   0.94124662   -7.4837476    604.04674  0.024483088  0.024434949            1 
 2057000   0.92269737   -7.4898452    603.93884  0.024466814  0.024428043            1 
 2058000   0.92064552   -7.4745368    604.91943  0.024494632  0.024421119            3 
 2059000   0.93023701   -7.4747148    605.80539  0.024518593  0.024414247            1 
 2060000   0.91488884   -7.4840718    606.47697  0.024533858  0.024407417            3 
 2061000   0.94256889   -7.4779836    606.62595  0.024527978  0.024400545            3 
 2062000    0.9616684   -7.5045155    604.64638  0.024436081  0.024393702            2 
 2063000   0.92611816   -7.5125269    605.09859  0.024442503  0.024386815            5 
 2064000   0.91370586   -7.4840573    605.40619  0.024443079  0.024379951            2 
 2065000   0.93720786   -7.4954635    605.65202  0.024441163  0.024373048            2 
 2066000   0.92837299   -7.4946883    606.53016  0.024464753  0.024366167            3 
 2067000   0.93006908   -7.5135775    606.97503  0.024470853  0.024359354            2 
 2068000   0.92134683   -7.4887026    606.51305  0.024440404  0.024352559            1 
 2069000   0.92136054    -7.537378    605.70589  0.024396081  0.024345755            3 
 2070000   0.91089535   -7.4974887    605.39537  0.024371794  0.024338893            4 
 2071000   0.90699341   -7.4546054    605.29247  0.024355886  0.024332082            2 
 2072000   0.92678432   -7.5251036    605.77848  0.024363678  0.024325247            1 
 2073000   0.90920723    -7.511515    606.05776  0.024363152   0.02431833            2 
 2074000   0.93247195   -7.4614854    607.60497  0.024413572  0.024311397            3 
 2075000    0.9008145   -7.4901872    606.66008  0.024363859  0.024304526            2 
 2076000   0.90637704   -7.5317247    606.54954  0.024347685  0.024297643            4 
 2077000   0.91624563   -7.4993525    607.44937  0.024372066  0.024290783            2 
 2078000   0.91519992   -7.5016609    606.76517  0.024332899  0.024283994            2 
 2079000   0.91800319   -7.5161005    606.51643  0.024311225  0.024277199            4 
 2080000   0.92246207    -7.490798    608.30183  0.024371067  0.024270428            5 
 2081000   0.91994146   -7.5118835    607.47615  0.024326292  0.024263674            5 
 2082000    0.9072921   -7.4863481    608.00707  0.024335858  0.024256859            4 
 2083000   0.91982716   -7.5114398    607.66674  0.024310559  0.024250081            2 
 2084000   0.94303615    -7.505207     608.0755  0.024315239   0.02424329            1 
 2085000   0.93469091   -7.5032708    609.11237  0.024345019  0.024236529            2 
 2086000   0.91852957   -7.5240301    607.04232  0.024250652  0.024229749            1 
 2087000   0.92318472   -7.5231586    609.07962  0.024320381  0.024222993            2 
 2088000   0.91900075   -7.5046936    609.18443  0.024312916  0.024216282            3 
 2089000    0.9274088   -7.4823288    609.18985  0.024301494  0.024209545            2 
 2090000   0.93408183   -7.5401285    609.53783  0.024303741  0.024202765            1 
 2091000   0.92143149   -7.4773654    610.81062  0.024342843  0.024196039            2 
 2092000   0.92353943   -7.4957639    610.61236  0.024323309  0.024189365            3 
 2093000   0.91181729   -7.5429015    608.42045  0.024224417  0.024182659            2 
 2094000    0.9227304   -7.5301684    610.49484  0.024295401  0.024175933            6 
 2095000   0.93275714   -7.5456001    609.21469  0.024232884  0.024169132            2 
 2096000   0.92232764   -7.5378197    610.82417  0.024285312  0.024162363            1 
 2097000   0.91290537   -7.4829862    608.84906  0.024195242  0.024155697            3 
 2098000     0.909168   -7.5215329     610.8575  0.024263485  0.024148986            3 
 2099000   0.92232847   -7.5154255    610.03248  0.024219171  0.024142242            2 
 2100000    0.9168291   -7.5156953    611.02634  0.024247077  0.024135556            1 
 2101000   0.92185459   -7.5152857    611.98435  0.024273534  0.024128881            3 
 2102000   0.89939963   -7.5188741    610.62548  0.024208115  0.024122145            1 
 2103000   0.90297406   -7.4913145     613.0082  0.024291021  0.024115433            4 
 2104000   0.91441843   -7.5409096    611.16075  0.024206303  0.024108716            4 
 2105000   0.89001991   -7.5174221    610.44399  0.024166429  0.024101988            2 
 2106000   0.91696531   -7.4828338    611.72803  0.024205763  0.024095233            3 
 2107000   0.89943456   -7.5436324    611.70322  0.024193293  0.024088524            2 
 2108000   0.91912517   -7.5243396    611.36811  0.024168569  0.024081784            2 
 2109000   0.90576863   -7.5193147    612.96157  0.024220072  0.024075082            3 
 2110000   0.91870156   -7.5293093     612.2882  0.024181999  0.024068366            2 
 2111000   0.92175805   -7.5462798     612.8173   0.02419143  0.024061661            2 
 2112000   0.91087617    -7.511251    612.25187  0.024157665  0.024054931            4 
 2113000    0.9104707   -7.5473616    611.58737  0.024120026  0.024048232            5 
 2114000   0.90274958   -7.5094079    613.17973  0.024171387   0.02404157            4 
 2115000   0.91217322   -7.5361008    614.55438  0.024214121  0.024034891            3 
 2116000    0.9140643   -7.5084434    613.23485  0.024150711  0.024028202            2 
 2117000   0.89752761   -7.5143359     612.3277  0.024103594  0.024021476            3 
 2118000   0.90074191   -7.5468909    610.89664  0.024035908  0.024014803            7 
 2119000    0.8929865    -7.506242    613.48104  0.024126201  0.024008065            2 
 2120000   0.91676786   -7.5111453    614.43419  0.024152288  0.024001393            2 
 2121000   0.91843287   -7.4713981    613.28497  0.024095748  0.023994672            2 
 2122000   0.91609704   -7.5626663    612.23801  0.024043277  0.023987982            2 
 2123000   0.91703507   -7.4981103    614.12513  0.024106026  0.023981236            2 
 2124000   0.89324286   -7.5188737    613.15413  0.024056581  0.023974474            1 
 2125000   0.91900373   -7.5219117    614.85369   0.02411191  0.023967806            2 
 2126000   0.88338589   -7.5113598    613.83475  0.024060628  0.023961108            1 
 2127000   0.89112442   -7.5241762    612.65814  0.024003218  0.023954377            2 
 2128000   0.90301452   -7.5274824    615.22796  0.024092574  0.023947586            1 
 2129000   0.91523608   -7.5190216    614.81581  0.024065125  0.023940841            2 
 2130000   0.90569163   -7.5053829    614.56642   0.02404407  0.023934115            1 
 2131000    0.9149036   -7.5225672    614.26899  0.024021156  0.023927397            2 
 2132000   0.88950516   -7.5292069    615.31371  0.024050724  0.023920653            1 
 2133000   0.91443493   -7.5372963    613.80665  0.023980569  0.023913881            1 
 2134000   0.90135964   -7.5217171    613.46535  0.023956004   0.02390717            7 
 2135000   0.92888809   -7.5219399    614.84888  0.023998785    0.0239004            1 
 2136000   0.90561455   -7.5218697    615.03072  0.023994644  0.023893759            2 
 2137000   0.91264534   -7.5111444    616.55333  0.024042791  0.023887013            4 
 2138000   0.90789622   -7.4979355    613.88145  0.023927403  0.023880211            3 
 2139000   0.90288407   -7.5301265    615.77511  0.023989992  0.023873443            3 
 2140000   0.92205035   -7.5504324    616.61557   0.02401151  0.023866666            3 
 2141000   0.91471537   -7.5297333    616.40127  0.023991954  0.023859926            2 
 2142000   0.88322787   -7.5158232    616.06302  0.023967593   0.02385312            1 
 2143000   0.91248731   -7.5388818    615.39138  0.023930292   0.02384636            4 
 2144000   0.93191458   -7.5351866     615.4392  0.023920989  0.023839597            2 
 2145000   0.91170385   -7.5544255    615.75911  0.023922266  0.023832895            1 
 2146000   0.91140727   -7.5100274     617.0034  0.023959436  0.023826169            2 
 2147000    0.9177064   -7.5217722     617.8629  0.023981637  0.023819494            1 
 2148000   0.89953184   -7.5088931    616.07284  0.023901026  0.023812786            2 
 2149000   0.91811007   -7.5019189    619.77958  0.024033643  0.023806126            1 
 2150000   0.90734117   -7.5359017    618.50038  0.023972883  0.023799507            3 
 2151000    0.9111154   -7.5088712    617.57219  0.023925778  0.023792912            3 
 2152000   0.89587676   -7.5223268    618.88202  0.023965382  0.023786372            1 
 2153000    0.9134767   -7.5452994    617.93925   0.02391776  0.023779775            1 
 2154000   0.91271671   -7.5534181    618.77686  0.023939061  0.023773145            8 
 2155000    0.9075724   -7.5280933    617.95085  0.023896011  0.023766532            3 
 2156000   0.90178552   -7.5479846    618.71982   0.02391465  0.023759923            1 
 2157000   0.90480207   -7.5413222     618.7066  0.023903052  0.023753294            2 
 2158000   0.89876744   -7.5260278    618.45081  0.023882098   0.02374669            2 
 2159000   0.92261502   -7.5274274    619.19568  0.023899787  0.023740084            1 
 2160000   0.92057428   -7.5165265    617.83816  0.023836349  0.023733501            1 
 2161000   0.92070129    -7.533001    619.18384  0.023877211  0.023726896            3 
 2162000   0.91118317   -7.5112444    618.58432  0.023843059  0.023720251            1 
 2163000   0.92077105   -7.5497057    617.99041  0.023809154  0.023713599            2 
 2164000   0.89672295   -7.5082676    619.65132  0.023862112  0.023706968            3 
 2165000   0.89912061   -7.5233764    618.46726  0.023805514  0.023700295            4 
 2166000   0.89433348   -7.5281825    619.93395  0.023850952  0.023693624            3 
 2167000   0.92334896   -7.5662107    618.72263  0.023793364  0.023686937            4 
 2168000     0.907808   -7.5640804    618.08285  0.023757797  0.023680249            2 
 2169000   0.89274201   -7.5598732    618.29962  0.023755172  0.023673494            4 
 2170000   0.88269536   -7.5772967    617.18994  0.023701611  0.023666733            2 
 2171000   0.90242047   -7.5427285    617.96226  0.023720339  0.023660001            1 
 2172000   0.89242871   -7.5451511     620.0417    0.0237892  0.023653322            3 
 2173000   0.90093253    -7.520146    620.95412  0.023813243  0.023646612            3 
 2174000   0.91175133   -7.5157614    618.91859  0.023724264  0.023640005            3 
 2175000   0.90658508   -7.5421719    619.80106  0.023747167  0.023633326            1 
 2176000   0.92679765   -7.5429942    619.99407  0.023743645  0.023626593            3 
 2177000   0.89912825   -7.5550692      618.922  0.023691701  0.023619803            2 
 2178000   0.89854015   -7.5555448    619.61237  0.023707238  0.023613061            2 
 2179000    0.8937496   -7.5701135    619.21752  0.023681258  0.023606314            2 
 2180000   0.88854574   -7.5498201    619.62411  0.023685937  0.023599568            2 
 2181000   0.89184454   -7.5405354    618.50229  0.023632214  0.023592824            2 
 2182000    0.9177431   -7.5176672    619.02296  0.023641268  0.023586017            1 
 2183000   0.91524862   -7.5646913    619.35635  0.023643165  0.023579171            2 
 2184000    0.8988132   -7.5363888    619.49004  0.023637441  0.023572329            4 
 2185000    0.8982898   -7.5603294    619.10345  0.023611879  0.023565591            3 
 2186000   0.91010529   -7.5081922    620.97893  0.023672573  0.023558791            3 
 2187000   0.86441002   -7.5686661    619.87717  0.023619767  0.023552046            3 
 2188000   0.91423145   -7.5444982    620.10884  0.023617796  0.023545295            3 
 2189000   0.90504169    -7.512132    620.35564  0.023616402  0.023538557            3 
 2190000   0.88670471   -7.5451007    621.37294  0.023644328  0.023531848            5 
 2191000   0.90616623   -7.5494202    621.36021  0.023633052  0.023525157            2 
 2192000   0.89711855   -7.5192029    622.61906  0.023670128  0.023518455            2 
 2193000   0.88370625   -7.5349723    623.12989  0.023678746   0.02351172            2 
 2194000   0.90858324   -7.5486045    619.83224  0.023542701  0.023504944            2 
 2195000   0.89246132   -7.5609468    620.54384  0.023558992  0.023498178            3 
 2196000   0.90524528   -7.5560056     618.8107  0.023482495  0.023491423            2 
 2197000   0.90881915   -7.5568069    620.51054  0.023536282  0.023484632            2 
 2198000   0.90708182   -7.5603823    619.81492  0.023499201  0.023477886            4 
 2199000   0.89925527   -7.5868522    620.74796  0.023523873  0.023471175            2 
 2200000   0.90670946   -7.5599588    621.45467   0.02353995  0.023464431            2 
 2201000   0.88925795   -7.5263679    622.15356  0.023555716  0.023457695            3 
 2202000   0.89107124   -7.5006306    622.72982  0.023566826  0.023450948            2 
 2203000   0.89152901   -7.5364616     622.6593  0.023553461  0.023444219            4 
 2204000   0.88411282   -7.5542368    622.26738  0.023527956  0.023437501            2 
 2205000   0.91557306   -7.5544481     621.7277   0.02349689  0.023430663            1 
 2206000   0.88999119   -7.5599649    621.36766  0.023472637  0.023423838            4 
 2207000   0.90855655    -7.585889    621.48277  0.023466348  0.023417021            3 
 2208000   0.89731942   -7.5838487    621.46729  0.023455136  0.023410151            4 
 2209000   0.88876816    -7.549568    621.97547  0.023463689  0.023403343            2 
 2210000   0.89125316    -7.559058    622.39408  0.023468857  0.023396547            2 
 2211000   0.91105377    -7.555426    622.48384  0.023461625  0.023389728            2 
 2212000   0.88523161   -7.5736085    623.46159  0.023487854  0.023382931            3 
 2213000   0.90997786   -7.5470635     623.1731  0.023466377  0.023376176            2 
 2214000   0.90882891   -7.5488443      623.345  0.023462248  0.023369371            2 
 2215000   0.88734044   -7.5730599    623.46944  0.023456337  0.023362569            3 
 2216000   0.87562984   -7.5800866    621.61743  0.023376107   0.02335571            1 
 2217000   0.88353815    -7.545673    623.06332  0.023419911  0.023348814            2 
 2218000   0.88732184   -7.5571776    624.97107  0.023481029  0.023342031            2 
 2219000   0.88861751   -7.5798241    623.08311  0.023399546  0.023335294            3 
 2220000   0.89059642   -7.5771637    625.23216  0.023469676  0.023328559            1 
 2221000   0.89441612   -7.5676843    623.39443  0.023390156  0.023321839            3 
 2222000   0.91855635   -7.5717471    622.28926  0.023338181  0.023315108            4 
 2223000   0.89131095   -7.5673596    623.32524  0.023366518  0.023308279            1 
 2224000   0.88008015   -7.5789759    622.81725  0.023336977  0.023301499            1 
 2225000   0.89471774   -7.5251395    625.34011  0.023420978  0.023294741            2 
 2226000   0.89769976   -7.5911146    623.68849  0.023348626   0.02328805            3 
 2227000   0.94027986   -7.5525374    623.91072  0.023346457  0.023281291            4 
 2228000   0.87177684   -7.5547996    625.89854  0.023410329  0.023274554            3 
 2229000   0.90205408     -7.55066    626.12537  0.023408306  0.023267818            3 
 2230000   0.89517247   -7.5063849    628.23671  0.023476708  0.023261172            1 
 2231000   0.90585822   -7.5383565    627.63753  0.023443804  0.023254546            1 
 2232000     0.889901    -7.583964    625.40512  0.023349952  0.023247909            4 
 2233000   0.88294097   -7.5774303    625.56363  0.023345411  0.023241255            3 
 2234000   0.90088544   -7.5976126    625.55358  0.023334586  0.023234661            4 
 2235000   0.88690899   -7.5934597    626.28662  0.023351477   0.02322798            1 
 2236000   0.89948927    -7.590473    625.04656  0.023294818  0.023221275            2 
 2237000   0.89318762   -7.5836006    626.22593  0.023328339  0.023214533            1 
 2238000   0.89312435     -7.55295    627.14224  0.023352034  0.023207846            3 
 2239000   0.90663513    -7.561749     625.7405  0.023289434  0.023201175            3 
 2240000   0.89833786    -7.568646     626.6638  0.023313385  0.023194525            6 
 2241000   0.91472571   -7.5696349    626.67347  0.023303342  0.023187903            2 
 2242000   0.89401566   -7.5693752    627.72342  0.023331974  0.023181284            2 
 2243000   0.88435541   -7.5445683    625.93067  0.023254966   0.02317464            2 
 2244000   0.89012389   -7.5799492    627.78569  0.023313491  0.023168011            1 
 2245000   0.90662175   -7.5803787    628.44869  0.023327717  0.023161337            3 
 2246000     0.883835   -7.5853368    628.48739  0.023318766  0.023154676            1 
 2247000   0.91091558   -7.5664747    626.72945  0.023243193  0.023148036            2 
 2248000    0.8859883   -7.5565299    628.47634   0.02329761  0.023141451            3 
 2249000   0.89110848   -7.5400592    628.81724  0.023299883  0.023134886            1 
 2250000   0.88589145    -7.528563    627.71881  0.023248845   0.02312831            7 
 2251000   0.89470645   -7.5840186    627.39841  0.023226655  0.023121762            3 
 2252000   0.90478222   -7.5499867    627.21179  0.023209436  0.023115136            2 
 2253000   0.89330096   -7.5739892    626.44116   0.02317063  0.023108462            4 
 2254000   0.88878885   -7.5603218    628.31297  0.023229554  0.023101734            1 
 2255000   0.87960235   -7.5921385    626.64453  0.023157595  0.023095031            2 
 2256000   0.89725882   -7.5722403    626.54032  0.023143481  0.023088295            2 
 2257000   0.88841668   -7.5725993    629.31089  0.023235522  0.023081559            3 
 2258000   0.87565417    -7.560141    628.95603  0.023212136  0.023074922            3 
 2259000   0.85972678   -7.5386283    630.27273  0.023250433  0.023068307            2 
 2260000   0.88588346   -7.5519617    628.98095  0.023192513  0.023061634            4 
 2261000   0.89252055   -7.5682543     630.1514  0.023225394  0.023054974            1 
 2262000   0.90273836    -7.602328    629.35569  0.023185812  0.023048381            4 
 2263000   0.89466808   -7.5819852     629.3099   0.02317388  0.023041823            5 
 2264000   0.88042419    -7.595404    628.78197  0.023144213  0.023035233            3 
 2265000   0.88281435   -7.5631885    629.61637  0.023164693  0.023028599            1 
 2266000   0.90645069   -7.5868366    629.32546  0.023143772  0.023021989            3 
 2267000   0.90484136   -7.5958886    629.81548  0.023151576  0.023015368            2 
 2268000    0.8950424   -7.5883403    630.63406  0.023171446  0.023008733            5 
 2269000   0.90241733   -7.5645017    630.61955    0.0231607  0.023002168            2 
 2270000   0.86645949   -7.6092886    630.32063  0.023139524  0.022995614            2 
 2271000   0.89985802   -7.5785737    630.08385  0.023120646  0.022989037            2 
 2272000    0.8939773   -7.5699672    630.74503  0.023134721   0.02298248            2 
 2273000   0.90544954   -7.5959678    630.23168  0.023105722  0.022975933            3 
 2274000   0.88239202   -7.5713284     632.5705   0.02318127  0.022969362            2 
 2275000   0.87408525   -7.5918072    630.87553  0.023108994  0.022962759            3 
 2276000   0.89144079   -7.5941271    629.43773  0.023046197   0.02295616            2 
 2277000   0.90168102   -7.6150704    631.20064  0.023100595  0.022949552            2 
 2278000    0.8995249   -7.6065352    630.22944  0.023054925  0.022942954            2 
 2279000   0.89662817   -7.5753523     631.0986  0.023076591  0.022936366            2 
 2280000   0.89918391   -7.5626576    632.13863  0.023104482  0.022929802            2 
 2281000   0.88851272   -7.5733863    632.54487  0.023109194  0.022923193            3 
 2282000   0.88564312   -7.6117312     630.1945  0.023013238  0.022916603            3 
 2283000   0.89698242   -7.6014142    631.80719  0.023062023  0.022909999            2 
 2284000   0.87793262   -7.5856464    632.13123  0.023063749  0.022903381            4 
 2285000    0.8916083   -7.5820597    632.16389  0.023054846  0.022896841            3 
 2286000   0.89713559   -7.5761759    633.86566  0.023106797  0.022890249            1 
 2287000    0.8790929   -7.5893983    632.88562  0.023060983  0.022883622            1 
 2288000   0.89645063   -7.6197812    630.77475  0.022974022  0.022876978            4 
 2289000   0.87414993   -7.5887844    632.42536  0.023024077  0.022870369            4 
 2290000   0.89274391   -7.6169863    632.27166   0.02300843   0.02286378            1 
 2291000   0.86188549   -7.5968274    631.51703  0.022970938   0.02285716            2 
 2292000   0.87280428   -7.5163484     635.8117  0.023117063   0.02285055            2 
 2293000   0.88038036   -7.5665239     634.2708  0.023050981  0.022844015            3 
 2294000   0.88852019   -7.5708957    632.00808  0.022958736  0.022837403            2 
 2295000   0.90565897   -7.5935855    633.25515  0.022994014  0.022830785            3 
 2296000    0.8779598   -7.6263477    632.00709  0.022938701   0.02282416            1 
 2297000   0.89750322   -7.5697539    634.24529  0.023009915  0.022817504            1 
 2298000   0.89482346   -7.6040116    634.74119  0.023017885  0.022810904            2 
 2299000   0.87868336   -7.6012021    633.55475  0.022964867   0.02280434            1 
 2300000   0.87206998   -7.6094455    634.12316  0.022975477  0.022797783            2 
 2301000   0.87080063   -7.5790131     633.2803  0.022934967  0.022791283            2 
 2302000   0.90246535   -7.5759476    633.93067  0.022948547    0.0227848            1 
 2303000   0.87431609   -7.5921932    634.38615  0.022955064    0.0227783            4 
 2304000   0.87416153   -7.5812224    633.99495  0.022930951  0.022771766            1 
 2305000   0.88493588   -7.5952153    632.43714  0.022864683  0.022765251            1 
 2306000   0.90074384   -7.5809917    634.18678  0.022917996  0.022758714            2 
 2307000   0.88809474   -7.5948568    634.07586  0.022904055  0.022752182            3 
 2308000   0.89514914   -7.6299414    631.93814  0.022816946  0.022745623            2 
 2309000   0.89349918   -7.6111205     633.2613  0.022854818  0.022739072            5 
 2310000   0.87554506   -7.6078888    633.34033  0.022847775  0.022732466            3 
 2311000   0.88253623   -7.5890266     635.7351  0.022924243  0.022725906            2 
 2312000   0.87909234   -7.5973369    635.05019  0.022889641  0.022719381            2 
 2313000   0.88250955   -7.5944594    634.66162  0.022865745  0.022712833            2 
 2314000   0.87842833   -7.5564145    634.13653  0.022836954  0.022706297            2 
 2315000   0.85920027   -7.5965042    634.34344  0.022834537  0.022699812            2 
 2316000    0.8807601   -7.5857971    635.86445  0.022879406  0.022693296            2 
 2317000   0.87409462   -7.6431997    632.15239  0.022736023  0.022686719            3 
 2318000    0.8902262   -7.5766255    635.21004  0.022836139  0.022680161            4 
 2319000   0.87398837   -7.6140708    635.04354  0.022820308  0.022673621            6 
 2320000   0.86938114   -7.5922648    634.56595  0.022793317  0.022667062            4 
 2321000   0.88110168   -7.6023273    635.26092  0.022808449  0.022660453            1 
 2322000   0.88849721   -7.6169536    635.45589  0.022805623  0.022653957            2 
 2323000   0.88626107   -7.6180152    635.59797  0.022800903  0.022647433            2 
 2324000   0.87676725   -7.5754048    636.00129  0.022805554  0.022640869            3 
 2325000   0.88796111   -7.6088244    635.61817  0.022782013  0.022634316            1 
 2326000   0.88053378   -7.5954359    635.21976  0.022757945  0.022627722            3 
 2327000   0.87478987   -7.6058297    636.35778  0.022788919  0.022621114            2 
 2328000   0.89689238   -7.5831756    636.15424  0.022771844  0.022614531            2 
 2329000   0.87272719   -7.6048827    635.67543  0.022744934  0.022607944            2 
 2330000   0.88511478   -7.6372614    636.37745  0.022760281  0.022601335            5 
 2331000   0.88817915   -7.6250394    636.41105  0.022751718  0.022594732            1 
 2332000   0.88313046   -7.6051214    636.29001  0.022737636  0.022588123            1 
 2333000   0.87510223   -7.6248704    634.50343  0.022664074  0.022581503            3 
 2334000    0.8897441   -7.5892422    636.61183  0.022729643  0.022574886            2 
 2335000   0.88331527   -7.6448433    635.82915  0.022691975   0.02256827            1 
 2336000   0.89993723   -7.5941424    637.07726  0.022726786  0.022561628            3 
 2337000   0.88402178   -7.6011448    636.99133  0.022713997   0.02255503            2 
 2338000   0.86072764    -7.597222    636.14236  0.022674022  0.022548407            2 
 2339000   0.86328876   -7.6108303    637.69766   0.02271974  0.022541767            3 
 2340000   0.88923743   -7.6278753    636.74158  0.022675982  0.022535135            2 
 2341000   0.86709737   -7.5900024    637.10197  0.022679125  0.022528513            3 
 2342000   0.87985552   -7.5856763    637.07545  0.022668497  0.022521898            4 
 2343000   0.87141693    -7.623839    636.87482  0.022651687  0.022515272            2 
 2344000   0.85840112   -7.6264929    635.48532  0.022592624  0.022508608            2 
 2345000   0.88337702    -7.586423    637.04182  0.022638302  0.022502006            5 
 2346000   0.87117717   -7.5974216    638.28295  0.022672739   0.02249542            3 
 2347000   0.85987721   -7.6087458    636.59412  0.022603114  0.022488838            2 
 2348000   0.87796187   -7.6177797     638.3035  0.022654156  0.022482257            2 
 2349000    0.8719492    -7.594739     636.4842   0.02257997   0.02247571            2 
 2350000   0.88108739   -7.6066053    636.99095  0.022588332  0.022469178            2 
 2351000   0.87811949   -7.5915368    639.04176  0.022651417  0.022462611            3 
 2352000    0.8763829   -7.6262869    639.47778  0.022657234  0.022456064            4 
 2353000   0.87165315   -7.5875344    638.27879  0.022605142  0.022449557            3 
 2354000   0.86655492   -7.5637785    638.98305  0.022620471   0.02244305            1 
 2355000   0.88644016   -7.5823323    638.72697  0.022601803  0.022436544            1 
 2356000   0.86667784   -7.5877867    639.29089  0.022612157   0.02243009            1 
 2357000   0.86247927   -7.6321321    638.66298  0.022580363  0.022423554            2 
 2358000    0.9022501   -7.6126971     639.6276  0.022604877  0.022417004            2 
 2359000   0.87509529   -7.5999361    639.79598  0.022601243   0.02241053            2 
 2360000   0.86543671   -7.6225636    639.98347  0.022598286  0.022404029            3 
 2361000   0.85366614   -7.6116169    639.31612   0.02256516  0.022397531            2 
 2362000   0.88680981   -7.5849444    640.36397  0.022592576  0.022391014            2 
 2363000   0.85528058   -7.6061761    640.92648  0.022602852  0.022384513            2 
 2364000   0.88628703   -7.6253088    640.11533  0.022564697  0.022378003            1 
 2365000   0.89185175   -7.6018135    640.06117  0.022553248  0.022371532            2 
 2366000   0.89637543   -7.6223558    640.46564  0.022557962  0.022365022            2 
 2367000    0.8910607   -7.6101385    640.85869  0.022562269  0.022358492            2 
 2368000   0.88836151    -7.619787     639.9435  0.022520534  0.022351971            6 
 2369000     0.877669   -7.6112769    640.10765  0.022516802  0.022345421            2 
 2370000   0.87782416   -7.6010458    640.89283   0.02253491  0.022338922            3 
 2371000    0.8746163   -7.5949903    639.96553  0.022492814  0.022332427            5 
 2372000   0.84319127   -7.6398055    640.27476  0.022494195  0.022325915            2 
 2373000   0.86613018   -7.6270522    641.29218  0.022520445  0.022319382            3 
 2374000   0.85914585   -7.6256345     641.2984  0.022511177  0.022312915            3 
 2375000     0.885048   -7.6198634    640.89288   0.02248747  0.022306398            1 
 2376000   0.88598745   -7.6447957    640.30312  0.022457321  0.022299836            4 
 2377000   0.85180324   -7.6568472    639.47197  0.022418734  0.022293287            3 
 2378000   0.84759904   -7.6229948    642.22019  0.022505614  0.022286794            1 
 2379000   0.85716282   -7.6453819    640.75393  0.022444792  0.022280292            2 
 2380000    0.8532109   -7.5829078    642.60892  0.022500312  0.022273829            2 
 2381000   0.87977488   -7.6337162    640.68299  0.022423456  0.022267391            3 
 2382000     0.868371   -7.6485631    640.92843  0.022422629  0.022260886            3 
 2383000   0.88368763   -7.6244703    642.25682  0.022459673  0.022254345            5 
 2384000   0.86634961   -7.6428754    639.78379  0.022363807  0.022247825            2 
 2385000   0.87508564   -7.6118702    641.75922  0.022423453  0.022241248            2 
 2386000   0.86253942   -7.6361205    640.45986  0.022368674  0.022234693            4 
 2387000   0.88474673   -7.6090849    641.98854  0.022412671  0.022228155            3 
 2388000   0.88444418   -7.6236615    642.21628  0.022411233  0.022221656            3 
 2389000    0.8780429   -7.6247074    643.03694  0.022430478  0.022215137            3 
 2390000   0.88275326   -7.5865811    642.54039  0.022403779  0.022208665            2 
 2391000   0.87900939   -7.6498773    641.97779  0.022374801  0.022202163            2 
 2392000   0.86184947   -7.6698519    642.02557  0.022367112  0.022195712            4 
 2393000   0.87288153   -7.6197018    642.18757  0.022363406  0.022189267            4 
 2394000   0.85095342   -7.6148328    642.75579  0.022373844  0.022182832            2 
 2395000   0.86033685   -7.6547603    641.96581  0.022337015  0.022176401            4 
 2396000   0.85881285   -7.6299989    642.40426  0.022342942  0.022169917            2 
 2397000   0.85869871    -7.611923    642.85497   0.02234929  0.022163461            4 
 2398000   0.86650398   -7.6220088    643.37407  0.022358009  0.022156955            2 
 2399000   0.87265542   -7.6113636    644.05969  0.022372506  0.022150473            2 
 2400000   0.86411878   -7.5622861    643.86522  0.022356431  0.022144074            2 
 2401000    0.8735674   -7.6471425    643.88099  0.022347667  0.022137702            2 
 2402000   0.87351832    -7.643109    644.97567  0.022376342  0.022131283            2 
 2403000   0.88416381   -7.6112856    644.03011  0.022334239  0.022124918            3 
 2404000   0.86620324   -7.6209519    644.87753  0.022354324  0.022118565            2 
 2405000   0.87300602    -7.618345    644.58701  0.022334962  0.022112209            6 
 2406000   0.85959602   -7.6253438    646.14637  0.022379689  0.022105856            2 
 2407000   0.86739939   -7.6338254    644.62473   0.02231771  0.022099498            1 
 2408000     0.870973   -7.6305327    644.96813  0.022320325  0.022093162            4 
 2409000   0.86616207   -7.6037424    645.90436  0.022343447  0.022086791            1 
 2410000    0.8632501   -7.6086881    643.97959  0.022267621  0.022080408            2 
 2411000   0.84802174   -7.6450591    645.59988  0.022314388  0.022074045            2 
 2412000   0.86099353   -7.6569796    646.87883  0.022349324    0.0220677            2 
 2413000   0.85782089   -7.5855604    647.21678  0.022351733  0.022061328            2 
 2414000   0.85200157   -7.5922008    645.86555  0.022295828     0.022055            3 
 2415000   0.85911512   -7.6543675    642.87798  0.022183505  0.022048643            1 
 2416000   0.86572984   -7.6416671    644.24325  0.022221414   0.02204224            2 
 2417000   0.87323019   -7.6310045    645.20598  0.022245414  0.022035819            4 
 2418000   0.86319799   -7.6491027    646.43296    0.0222785  0.022029408            2 
 2419000   0.86805204    -7.645663     645.4965   0.02223703  0.022023059            3 
 2420000   0.87743641   -7.6133655    647.03782  0.022280917  0.022016691            5 
 2421000   0.85551921   -7.6040169    647.28772  0.022280315  0.022010332            5 
 2422000   0.86828101   -7.6383737    647.26532  0.022270345  0.022003987            2 
 2423000   0.87165834   -7.6495962    645.43855  0.022198327  0.021997622            3 
 2424000   0.84860691   -7.5968795    646.79305  0.022235735  0.021991281            4 
 2425000   0.86456485   -7.6127371    646.35543  0.022211527  0.021984939            3 
 2426000   0.85518171    -7.596609    647.56757  0.022244008  0.021978627            3 
 2427000   0.85457903   -7.6171595    645.48052  0.022163182  0.021972297            3 
 2428000   0.85182802   -7.6356654    648.38022  0.022253577  0.021965966            3 
 2429000    0.8497929    -7.614526     647.8879  0.022227525  0.021959614            2 
 2430000   0.83535013   -7.6217816    646.56852  0.022173132  0.021953253            2 
 2431000    0.8525075    -7.655924    646.84755  0.022173576  0.021946824            3 
 2432000   0.86411549   -7.6592854    646.07561  0.022138008  0.021940395            1 
 2433000   0.87078779   -7.6185433    648.05338  0.022196649  0.021934005            5 
 2434000    0.8707535   -7.6342702    647.28072  0.022161076  0.021927683            3 
 2435000   0.85473133   -7.6626774    646.18478  0.022114469  0.021921328            2 
 2436000   0.86554594   -7.6078394      648.111  0.022171285  0.021914902            4 
 2437000   0.86939787   -7.6319133    647.21803  0.022131652  0.021908502            2 
 2438000   0.84952274   -7.6644611    646.73233  0.022105973  0.021902114            2 
 2439000   0.85538387   -7.6524274     646.9783  0.022105313  0.021895731            2 
 2440000   0.85896571   -7.6419896    648.83206  0.022159565  0.021889303            1 
 2441000   0.85032046   -7.6407527    647.97805  0.022121332   0.02188291            3 
 2442000   0.86362656   -7.6364111    646.18078  0.022050941  0.021876481            3 
 2443000   0.87242034    -7.673842    646.86118  0.022065124  0.021870073            2 
 2444000   0.86222029   -7.6558917    646.51381  0.022044252  0.021863644            2 
 2445000   0.87246904   -7.6297582    648.67929  0.022109042  0.021857287            2 
 2446000   0.87386221    -7.626419    647.13516  0.022047396  0.021850953            2 
 2447000   0.83433759   -7.6217212    647.94376  0.022065923  0.021844578            2 
 2448000   0.86463198   -7.6268408    649.84574  0.022121655   0.02183822            1 
 2449000   0.87613138   -7.6671913    648.14405  0.022054718  0.021831896            3 
 2450000   0.85681791   -7.6284377    649.44693  0.022090031  0.021825542            2 
 2451000    0.8711391   -7.6553502    650.09687  0.022103117  0.021819213            2 
 2452000   0.86311187   -7.6479458    647.58094  0.022008596  0.021812842            5 
 2453000   0.85954688   -7.6473982    647.70329  0.022003781  0.021806505            1 
 2454000   0.87355593   -7.6161933    650.23523  0.022080794  0.021800194            3 
 2455000   0.85317077   -7.6438345    649.12532  0.022034125  0.021793934            2 
 2456000   0.87086825   -7.6575052    649.62466  0.022042096  0.021787636            2 
 2457000   0.86714742   -7.6495726    648.89057  0.022008227  0.021781334            1 
 2458000   0.85791536   -7.6323794    651.20151  0.022077621  0.021775065            4 
 2459000   0.85468327    -7.657984    648.88873  0.021990265  0.021768836            2 
 2460000   0.85888606   -7.6355082     650.6084   0.02203958  0.021762615            2 
 2461000   0.86520369   -7.6331472    650.97457  0.022043024  0.021756388            3 
 2462000   0.85766795   -7.6781199    652.41702  0.022082894  0.021750185            5 
 2463000   0.85442608   -7.6517395    652.08843   0.02206281  0.021743987            1 
 2464000    0.8491205   -7.6245086    652.41101  0.022064766  0.021737811            2 
 2465000   0.84118845   -7.6207342    652.72106  0.022066297  0.021731613            8 
 2466000   0.85848765   -7.6292421     650.7459  0.021990602  0.021725396            1 
 2467000   0.87034361   -7.6428403    651.32597  0.022001283  0.021719176            2 
 2468000   0.87486192   -7.6584392    650.87857  0.021977261  0.021712948            2 
 2469000     0.854026   -7.6778218    649.70437  0.021928728  0.021706687            2 
 2470000   0.84955083   -7.6340413    651.06585  0.021965784  0.021700436            2 
 2471000   0.84132165   -7.6359363      649.688  0.021910428  0.021694193            4 
 2472000   0.86627199   -7.6781496    650.56526  0.021931137  0.021687922            5 
 2473000   0.85428001   -7.6671017    651.17214  0.021942719  0.021681675            2 
 2474000   0.86206918   -7.6278873    652.19107  0.021968171  0.021675461            3 
 2475000   0.86112481   -7.6650861    651.10928  0.021922871  0.021669207            2 
 2476000   0.85985749   -7.6323234    651.75433  0.021935727   0.02166296            1 
 2477000   0.85844451   -7.6592186    652.30009  0.021945232  0.021656709            1 
 2478000   0.84374089   -7.6596781    652.15695  0.021931563  0.021650397            2 
 2479000   0.84086865   -7.6766354     652.6236  0.021938403  0.021644107            3 
 2480000   0.86446163   -7.6998182    650.75203  0.021866668  0.021637849            4 
 2481000   0.84736884   -7.6855452    651.22045  0.021873587  0.021631538            5 
 2482000   0.86023267   -7.6972144    649.87491  0.021819598  0.021625188            3 
 2483000   0.85647788     -7.67837    651.55478   0.02186719  0.021618849            2 
 2484000   0.86510295   -7.6883399    651.93982  0.021871304   0.02161247            1 
 2485000   0.86147265   -7.6426975    652.35408  0.021876394  0.021606141            2 
 2486000   0.85473753   -7.6475106    652.44232  0.021870552  0.021599859            1 
 2487000   0.87286239   -7.6644773    652.09001  0.021849953  0.021593528            2 
 2488000   0.85031621   -7.6569076    653.36813  0.021883981  0.021587227            1 
 2489000   0.86103497   -7.6761094    651.39597  0.021809159  0.021580889            2 
 2490000   0.84357326   -7.6699083    653.39277  0.021867228  0.021574577            2 
 2491000   0.84709968    -7.683903    652.60457  0.021832081  0.021568281            4 
 2492000   0.86181817    -7.663013    651.24388  0.021777818  0.021561963            1 
 2493000   0.85267177   -7.6550616    653.26374    0.0218366  0.021555648            3 
 2494000   0.84785161   -7.6706366    652.96795  0.021817961  0.021549351            2 
 2495000   0.84449726   -7.6644106    653.22848  0.021817919  0.021543084            3 
 2496000   0.86215596    -7.671912     651.9821  0.021767565  0.021536808            3 
 2497000   0.84583649   -7.6873149    652.95049  0.021791166   0.02153055            2 
 2498000   0.85307939   -7.6634978    652.79088  0.021777118  0.021524323            6 
 2499000   0.85282113   -7.6824034    651.95501   0.02174053   0.02151804            3 
 2500000   0.85550807   -7.6776163    652.73275  0.021757758   0.02151175            4 
 2501000   0.84446346   -7.6700332    653.60052  0.021777973  0.021505464            2 
 2502000   0.86143202   -7.6611908      655.755  0.021841027   0.02149925            1 
 2503000   0.84602832   -7.6367932    655.14044   0.02181184   0.02149308            2 
 2504000   0.85701455   -7.6485261    654.62978  0.021786135   0.02148687            3 
 2505000   0.85611528   -7.6280828    655.90431  0.021819837  0.021480641            2 
 2506000   0.85955925   -7.6743927    653.83431  0.021742296  0.021474385            2 
 2507000   0.85937737   -7.6502933    654.63821  0.021760345  0.021468167            2 
 2508000   0.86118015   -7.6531002    655.57901  0.021782928  0.021461985            4 
 2509000   0.84832391   -7.6870821    654.38006  0.021734425  0.021455808            1 
 2510000   0.84225244    -7.665914    653.90104  0.021709862  0.021449571            3 
 2511000   0.85557422   -7.6691089     654.9296  0.021735351  0.021443342            3 
 2512000   0.85062081   -7.6812278    654.50324  0.021712554  0.021437143            4 
 2513000   0.84347781   -7.6689517    653.52608  0.021671511  0.021430871            2 
 2514000   0.84224286   -7.6823069    654.68993  0.021701469   0.02142465            1 
 2515000   0.83885005   -7.6512773    655.61701  0.021723559   0.02141837            4 
 2516000     0.837697   -7.6644002    656.59071  0.021747175  0.021412105            1 
 2517000   0.84392924   -7.6970832    655.12402  0.021689975  0.021405879            2 
 2518000   0.85463129   -7.7001282    654.02017  0.021644829  0.021399589            2 
 2519000   0.84015961   -7.6813223    653.02224  0.021603224  0.021393284            3 
 2520000   0.84403286   -7.6699082    655.37658  0.021672506  0.021387053            2 
 2521000   0.84604887   -7.7141676    654.46244  0.021633692  0.021380805            2 
 2522000    0.8504499   -7.6975986    654.33767  0.021620991  0.021374536            3 
 2523000   0.83880008    -7.691554    653.60185  0.021588118  0.021368258            5 
 2524000    0.8404803   -7.6777295    655.70394  0.021648968  0.021361987            1 
 2525000   0.84417976   -7.7000211    654.30207  0.021594128  0.021355711            2 
 2526000   0.83907233    -7.667064    655.77508  0.021634174  0.021349425            1 
 2527000   0.85069752   -7.6458492    657.61711  0.021686358  0.021343219            3 
 2528000   0.83987519    -7.686287    654.68135  0.021581005  0.021336955            1 
 2529000   0.83961601   -7.6804215    654.44009  0.021564521  0.021330696            1 
 2530000   0.84727073   -7.6796219     656.1903  0.021613646  0.021324449            4 
 2531000   0.84706317    -7.680499    654.82041  0.021560003  0.021318189            2 
 2532000   0.83338444   -7.6934291    655.76011  0.021582415  0.021311899            2 
 2533000   0.84773433   -7.7011332    655.12789  0.021553095  0.021305653            1 
 2534000    0.8361573   -7.6794029    656.17894  0.021579155  0.021299417            2 
 2535000   0.87114586   -7.6614558    655.73291   0.02155598   0.02129322            2 
 2536000   0.86487275   -7.6629294    656.34466  0.021567582  0.021287027            2 
 2537000   0.83854907   -7.6869826    656.73683  0.021571963  0.021280868            3 
 2538000   0.86203756   -7.6977662    656.73025  0.021563247  0.021274662            3 
 2539000   0.84967315   -7.6626197    656.84957   0.02155867  0.021268487            1 
 2540000   0.85113711   -7.7045723    655.90545  0.021519208  0.021262298            1 
 2541000   0.85608268   -7.6893097    658.23856  0.021587254  0.021256101            1 
 2542000   0.85463996   -7.6848693    656.73002  0.021529308  0.021249908            3 
 2543000    0.8463097   -7.6934395    656.49694  0.021513204  0.021243691            2 
 2544000   0.85427429   -7.6685394     656.1216  0.021492453  0.021237497            3 
 2545000   0.85078101   -7.7020378    657.77756  0.021538231  0.021231337            2 
 2546000   0.85605288    -7.696269    658.32187  0.021547587  0.021225195            3 
 2547000   0.84864614   -7.7106726    658.91038  0.021558382  0.021219038            3 
 2548000   0.82416916   -7.6642531    658.08255  0.021522846  0.021212916            3 
 2549000   0.85629984   -7.6862652     658.0672  0.021513901  0.021206749            3 
 2550000   0.84661428   -7.6780218    658.42166  0.021517048  0.021200542            3 
 2551000   0.83389029   -7.6966074    656.95191  0.021460601  0.021194301            5 
 2552000    0.8630124   -7.7072704    656.84878  0.021448824  0.021188073            2 
 2553000   0.86445455   -7.7042672    658.41973    0.0214917   0.02118185            2 
 2554000   0.83641229   -7.6926832    658.31805  0.021479968  0.021175621            4 
 2555000   0.85723684   -7.6859722    658.18499  0.021467221  0.021169352            2 
 2556000   0.83168877   -7.6823824    658.97096  0.021484447  0.021163099            2 
 2557000    0.8340613   -7.7111767    658.57294  0.021463073  0.021156823            2 
 2558000   0.85025059   -7.6609584    658.35461   0.02144757  0.021150606            2 
 2559000   0.84153431   -7.7034163    658.20947  0.021434462  0.021144402            5 
 2560000   0.84083274   -7.7049077    658.77122  0.021444376  0.021138181            4 
 2561000   0.83582646   -7.6714145    657.78582  0.021403938  0.021131968            2 
 2562000   0.83245164   -7.6810072    656.94204  0.021368138   0.02112572            3 
 2563000   0.84577612   -7.7109107    656.76514  0.021354049   0.02111946            2 
 2564000    0.8291332   -7.7237629     656.0401  0.021322156  0.021113154            1 
 2565000   0.82485253   -7.7115946    660.40536  0.021455665  0.021106875            2 
 2566000    0.8554924   -7.6515509    659.54097  0.021419231   0.02110065            3 
 2567000   0.84721717   -7.7021804    658.38801  0.021373458  0.021094468            4 
 2568000   0.84385592   -7.6994033    658.17684  0.021358283  0.021088287            1 
 2569000     0.841944   -7.6438355    659.17529  0.021382357  0.021082119            3 
 2570000   0.82813669   -7.6827295    658.67211  0.021357721  0.021075917            1 
 2571000   0.83512707   -7.7152067    660.44452  0.021406863  0.021069684            1 
 2572000    0.8218341   -7.7002378    658.81264  0.021345666  0.021063488            1 
 2573000   0.83876851   -7.7153561    658.92329  0.021340954  0.021057299            4 
 2574000   0.84970227   -7.7210001    660.01984  0.021368164  0.021051073            3 
 2575000   0.83532202   -7.7155269    658.20919  0.021301268  0.021044849            1 
 2576000   0.82259328   -7.6787719    659.64476   0.02133944  0.021038621            2 
 2577000   0.85895161   -7.6778075    661.15156  0.021379885  0.021032432            3 
 2578000   0.84380126   -7.7386069    658.92939   0.02129976  0.021026226            3 
 2579000   0.84649969   -7.6933251    661.03664  0.021359592  0.021020021            2 
 2580000   0.84717828   -7.7064433    659.31708  0.021295771  0.021013828            1 
 2581000   0.86725478   -7.7120202    659.52766  0.021294319  0.021007624            1 
 2582000   0.82185842   -7.6681226    659.97287  0.021300441  0.021001458            4 
 2583000   0.83338779   -7.6859776    660.29945  0.021302731  0.020995318            2 
 2584000    0.8365108    -7.662009    661.03527  0.021318217  0.020989164            9 
 2585000   0.84144044   -7.6837677    660.87034  0.021304653  0.020982987            4 
 2586000   0.82966838   -7.7026902    660.24224  0.021276174  0.020976757            3 
 2587000   0.83848654    -7.710766    659.12719  0.021232032  0.020970506            2 
 2588000   0.82170326   -7.6889056    660.72202  0.021275181  0.020964264            2 
 2589000    0.8318494   -7.6816955    659.69528  0.021233915  0.020958038            2 
 2590000   0.84800915    -7.701923    660.19948   0.02124194   0.02095182            1 
 2591000   0.84573247   -7.7088686    659.07563  0.021197595  0.020945585            2 
 2592000   0.82949517   -7.6968555     659.6453  0.021207732  0.020939384            2 
 2593000    0.8167477    -7.690816    661.56129  0.021261129  0.020933169            2 
 2594000   0.83659259   -7.7126978    659.20006  0.021177077  0.020926917            2 
 2595000   0.84245921   -7.6957875    660.33015  0.021205207  0.020920711            1 
 2596000   0.83213834   -7.7226816    659.02232  0.021155057  0.020914529            1 
 2597000   0.83506588    -7.682678    660.41308  0.021191538  0.020908308            2 
 2598000   0.83589484    -7.700688    659.69586  0.021160375  0.020902103            3 
 2599000   0.83687549   -7.7029569    660.84132  0.021188961  0.020895891            3 
 2600000    0.8482725   -7.6897961    660.77186  0.021178585  0.020889689            5 
 2601000   0.82999997   -7.7152313    661.27342  0.021186512  0.020883455            2 
 2602000   0.82852357   -7.7000085    661.64953  0.021190416  0.020877251            3 
 2603000   0.82788686   -7.6988723    661.71118  0.021184248  0.020871048            4 
 2604000    0.8240302   -7.6937042    661.74459  0.021177182   0.02086484            4 
 2605000   0.84017421   -7.7053938    661.31267  0.021155236  0.020858639            2 
 2606000   0.82742282   -7.7124442    660.88266  0.021133367  0.020852444            3 
 2607000   0.83161877   -7.6794571    661.61238  0.021148587  0.020846193            3 
 2608000   0.84931597   -7.7270826    659.31771  0.021067156  0.020840022            2 
 2609000   0.83810968   -7.6956439    661.91066  0.021141902  0.020833833            3 
 2610000   0.84041324   -7.7125184    663.57444  0.021186923  0.020827669            1 
 2611000   0.82450227   -7.7183768    663.51662  0.021176964  0.020821495            3 
 2612000   0.83513494   -7.7073531    662.86657  0.021148117   0.02081537            2 
 2613000   0.84121224   -7.7148233    664.57944   0.02119465  0.020809252            5 
 2614000   0.81696106   -7.7258645    662.38089  0.021116453  0.020803105            1 
 2615000   0.82706162   -7.7429743    662.18178  0.021102032  0.020796975            2 
 2616000   0.83845932   -7.7228006    662.10576  0.021091544  0.020790866            4 
 2617000   0.83953634   -7.7117228    663.23888  0.021119567  0.020784731            2 
 2618000   0.83879652   -7.7251837    661.14107  0.021044725  0.020778597            3 
 2619000    0.8187187   -7.7348511    662.80935  0.021089772   0.02077247            3 
 2620000   0.83618824   -7.7054655    662.65771  0.021076899  0.020766339            6 
 2621000   0.84245431   -7.6923465    663.80446  0.021105318  0.020760245            3 
 2622000   0.84101511   -7.7063528    663.21299   0.02107847   0.02075418            4 
 2623000   0.83973211   -7.7185638    662.73916   0.02105538  0.020748099            3 
 2624000   0.83676709   -7.7256238     664.5718  0.021105558  0.020742038            4 
 2625000   0.83138776   -7.7090021    664.17709  0.021084987  0.020735949            2 
 2626000    0.8334293   -7.6953917    663.98121  0.021070741  0.020729937            2 
 2627000   0.81275092    -7.721262    664.37223  0.021075125  0.020723904            4 
 2628000   0.81314151   -7.7216724    664.51863  0.021071748   0.02071787            3 
 2629000   0.83225439   -7.7036852    663.69409  0.021037596  0.020711828            4 
 2630000    0.8169609   -7.6752229    665.74373  0.021094542    0.0207058            3 
 2631000   0.82741792   -7.7287253    663.98842  0.021030927  0.020699799            3 
 2632000   0.83245251   -7.6861875     665.2727  0.021063599  0.020693786            2 
 2633000   0.81347797   -7.7043961    667.16444  0.021115471  0.020687748            1 
 2634000   0.83253492   -7.7117106    665.55435  0.021056516  0.020681695            2 
 2635000    0.8234305   -7.7586868    665.17796  0.021036621   0.02067565            1 
 2636000   0.83351437   -7.7517624    664.23842  0.020998938  0.020669587            2 
 2637000    0.8328462    -7.728937    665.22343  0.021022103  0.020663541            2 
 2638000   0.82841419   -7.7093946    666.01392  0.021039105  0.020657488            4 
 2639000   0.83578389    -7.709663    665.84494  0.021025797  0.020651462            3 
 2640000   0.83481018   -7.7113591    667.06201   0.02105625   0.02064547            1 
 2641000   0.83474046   -7.7523582    663.19818  0.020926359  0.020639429            2 
 2642000   0.82880858   -7.7020852    664.06453  0.020945765  0.020633357            2 
 2643000    0.8387156   -7.7409982    665.38693  0.020979535  0.020627295            2 
 2644000   0.81715444   -7.7489157    663.62959  0.020916213  0.020621244            1 
 2645000   0.82433397   -7.7376326    664.54189  0.020937047  0.020615187            4 
 2646000   0.83060982   -7.7328554    666.24217  0.020982684  0.020609128            2 
 2647000   0.82238332   -7.7076487     665.3171  0.020945633  0.020603082            2 
 2648000   0.83959593   -7.7291376    664.57004  0.020914213   0.02059705            3 
 2649000   0.81580263   -7.7237442    666.45174  0.020965513  0.020590993            2 
 2650000   0.82759603   -7.6980728    666.94252  0.020973035   0.02058496            3 
 2651000   0.84464096   -7.7460164    667.07984  0.020969441   0.02057892            2 
 2652000   0.83300318   -7.7182357    667.52728  0.020975593  0.020572868            2 
 2653000   0.83281819   -7.7286555    664.76635  0.020880963  0.020566838            2 
 2654000   0.83243596   -7.7258269    667.54317  0.020960285  0.020560812            2 
 2655000   0.82185985   -7.7183514    665.38353  0.020884606  0.020554829            2 
 2656000   0.83616314   -7.7355844    664.90878  0.020861847   0.02054881            3 
 2657000   0.82720084     -7.71431    666.78062  0.020912703  0.020542719            1 
 2658000   0.81721124   -7.7318802    665.42746  0.020862411  0.020536652            2 
 2659000   0.81366585   -7.7258687    666.34276  0.020883251  0.020530559            1 
 2660000   0.80392649   -7.7444345    667.01529  0.020896469  0.020524465            3 
 2661000   0.80856932    -7.720695    666.47819  0.020871796  0.020518397            2 
 2662000   0.81976083   -7.7206882    667.54547  0.020897366  0.020512367            3 
 2663000   0.82427717   -7.7176816    664.26761  0.020786945   0.02050633            4 
 2664000   0.82022725   -7.7376187     666.9413  0.020862778  0.020500248            1 
 2665000   0.80523483   -7.7389931    664.79681  0.020787893  0.020494171            4 
 2666000   0.81407583   -7.6962861    667.56557  0.020866641  0.020488112            2 
 2667000   0.84360981   -7.7156487    666.01616  0.020810404  0.020482081            1 
 2668000   0.82838757   -7.7159089    667.20434  0.020839716  0.020476039            4 
 2669000   0.82112588   -7.6872265    668.86806  0.020883854  0.020469991            2 
 2670000   0.82425668   -7.6842159    667.10559  0.020821024  0.020463986            2 
 2671000   0.83474369   -7.7403195    667.57007  0.020827719  0.020457965            3 
 2672000   0.83292891   -7.7195679     667.9653  0.020832251  0.020451944            2 
 2673000   0.81360126   -7.7509785    666.90626  0.020791441  0.020445932            2 
 2674000   0.82699451   -7.7142295    668.01435  0.020818198  0.020439907            2 
 2675000   0.82033065   -7.7486003    666.84433  0.020773967   0.02043388            4 
 2676000   0.81989355   -7.6917516    668.41121  0.020814998  0.020427872            3 
 2677000     0.816822   -7.7315748    667.57392  0.020781158  0.020421872            2 
 2678000   0.83041529   -7.7263995    666.53637  0.020741112  0.020415808            2 
 2679000   0.80559058    -7.729159     667.9812  0.020778313  0.020409775            2 
 2680000   0.80006563   -7.7472471    667.80312  0.020765022  0.020403723            2 
 2681000   0.83745402   -7.7218272    667.99951  0.020763382  0.020397664            6 
 2682000   0.81601281   -7.7230691    666.59524  0.020712007  0.020391577            1 
 2683000   0.82119139   -7.7415247    667.57735  0.020734791  0.020385523            2 
 2684000   0.82516767   -7.7314241    668.70695  0.020762138  0.020379449            3 
 2685000    0.8150327   -7.7230135    668.33804  0.020742956  0.020373387            3 
 2686000   0.82108387   -7.7376856    667.89942  0.020721625  0.020367335            2 
 2687000   0.81232134   -7.7467598    667.66184  0.020706545  0.020361261            1 
 2688000   0.83516425    -7.762029    666.30992   0.02065693  0.020355177            2 
 2689000   0.83555415   -7.7527004    666.04981  0.020641187   0.02034907            3 
 2690000   0.80276231   -7.7174097    666.73812  0.020654836  0.020342951            2 
 2691000   0.82097115   -7.7507695    667.54213  0.020672059  0.020336847            4 
 2692000   0.82731699   -7.7340813    667.43039  0.020660921  0.020330745            3 
 2693000   0.81211779   -7.7421486    666.30902  0.020618549  0.020324685            1 
 2694000   0.81646247   -7.7350597    666.37041  0.020612794  0.020318622            2 
 2695000   0.83082466   -7.7296941    668.71716  0.020677711  0.020312537            3 
 2696000   0.81500225   -7.7348426    667.40043  0.020629341  0.020306458            2 
 2697000   0.81667993   -7.7317606    668.99739  0.020671035  0.020300415            4 
 2698000   0.85159035   -7.7477077    667.28588   0.02061051  0.020294318            6 
 2699000   0.80934238   -7.7215106    667.47051  0.020608575  0.020288253            2 
 2700000   0.82378519   -7.7328426    669.68785  0.020669378  0.020282182            3 
 2701000   0.82679697    -7.715909    669.64861  0.020660515  0.020276144            2 
 2702000   0.82574014   -7.7593396     667.5897  0.020589369   0.02027005            2 
 2703000   0.81994092   -7.7299152    667.44711  0.020577356  0.020263951            3 
 2704000    0.8029434   -7.7103623    668.63746  0.020606431  0.020257897            5 
 2705000   0.84125154   -7.7313275    667.64719  0.020568305  0.020251871            2 
 2706000   0.79033136   -7.6979485    668.67801  0.020592449  0.020245864            2 
 2707000   0.83566625   -7.7086312    668.43375  0.020577323  0.020239842            3 
 2708000   0.81218765   -7.7386857    668.34146  0.020566884  0.020233772            3 
 2709000   0.80990821   -7.7618089    669.20022  0.020585709  0.020227681            5 
 2710000   0.82073086    -7.742731    668.32417  0.020551174   0.02022156            3 
 2711000    0.8419721   -7.7386923    667.02525  0.020503665  0.020215426            5 
 2712000   0.81678506   -7.7763386    667.88444  0.020522506  0.020209262            2 
 2713000   0.81251008   -7.7409759    666.34559  0.020467674  0.020203099            3 
 2714000   0.83556487   -7.7628338    667.47752  0.020494888   0.02019695            3 
 2715000   0.82162916   -7.7406613    668.03779  0.020504536  0.020190838            2 
 2716000   0.79029764   -7.7403698    668.04539   0.02049722  0.020184709            2 
 2717000   0.81642579    -7.753846    667.06799  0.020459698  0.020178544            4 
 2718000   0.81902561   -7.7468765    667.09053  0.020452861  0.020172385            2 
 2719000   0.83239132   -7.7047241    667.07099   0.02044474  0.020166259            3 
 2720000   0.82551443   -7.7586508    667.85285  0.020461178  0.020160096            2 
 2721000   0.82722407   -7.7685202    668.00653  0.020458365  0.020153945            3 
 2722000    0.8032124   -7.7489523    666.51248  0.020405109  0.020147825            2 
 2723000   0.79975347   -7.7298634    669.73011  0.020496086  0.020141701            3 
 2724000      0.82067   -7.7469635     667.8821  0.020432027  0.020135548            1 
 2725000   0.80475959   -7.7253918    669.03401  0.020459756  0.020129412            4 
 2726000   0.82130842   -7.7286474    668.43572  0.020433961  0.020123273            3 
 2727000   0.82471106   -7.7587588     667.7065  0.020404184  0.020117121            3 
 2728000   0.85031872   -7.7546402    670.15402  0.020471469   0.02011101            1 
 2729000   0.80860954   -7.7409541    668.51262  0.020413846  0.020104892            3 
 2730000   0.83063078   -7.7634407    667.79473  0.020384455  0.020098739            1 
 2731000   0.80129838   -7.7999156    666.85222  0.020348231   0.02009261            3 
 2732000   0.81775918   -7.7976922    667.52838  0.020361407  0.020086441            2 
 2733000   0.82027965   -7.7834667    666.96633  0.020336819   0.02008029            2 
 2734000   0.81827115    -7.816817    665.81428  0.020294266   0.02007411            2 
 2735000   0.81751465   -7.7624424    667.69062  0.020344016  0.020067944            2 
 2736000   0.80561871   -7.7383232    669.47776  0.020391014  0.020061838            3 
 2737000   0.81067752   -7.7423821    670.19359  0.020405358  0.020055738            2 
 2738000   0.82902857   -7.7822631    667.53972  0.020317133    0.0200496            2 
 2739000   0.81677483   -7.7557741     668.0356  0.020324802  0.020043455            3 
 2740000   0.80912011   -7.7465094    667.51739  0.020301624  0.020037318            2 
 2741000   0.81187687   -7.7261935    669.82081  0.020364247  0.020031192            2 
 2742000   0.81461316   -7.7464563    668.96722  0.020330878  0.020025096            3 
 2743000   0.80980268    -7.759802    670.13372  0.020358905  0.020018973            4 
 2744000   0.81424507   -7.7626346    670.27173  0.020355677  0.020012853            3 
 2745000   0.82235913   -7.7552721    669.21006  0.020316031  0.020006686            4 
 2746000   0.80445913   -7.7579801    667.73571   0.02026389  0.020000521            2 
 2747000   0.81739647   -7.7775203      667.986  0.020264106  0.019994382            1 
 2748000   0.80684154   -7.7644463    668.93716  0.020285576  0.019988237            1 
 2749000   0.81060898   -7.7944408    668.59815   0.02026792  0.019982089            3 
 2750000    0.8041895    -7.751755    669.55859  0.020289654  0.019975958            2 
 2751000   0.80537498   -7.7687398    669.66205  0.020285413  0.019969854            3 
 2752000   0.79579782   -7.7983957    668.12139  0.020231389  0.019963662            4 
 2753000   0.81495657   -7.7305921    668.68692  0.020241159  0.019957497            3 
 2754000   0.80225923    -7.761397    668.99627   0.02024317  0.019951325            2 
 2755000    0.8289382   -7.7479673    668.73523  0.020227926  0.019945214            3 
 2756000    0.8084562   -7.7628295    671.16562  0.020294074  0.019939083            1 
 2757000   0.81593009   -7.7604448    670.12901   0.02025538  0.019932946            2 
 2758000   0.82953898   -7.7644668    669.25588  0.020221655  0.019926804            1 
 2759000   0.83047915   -7.7587989    668.14956   0.02018091  0.019920642            2 
 2760000   0.81327677    -7.766391    669.63602  0.020218479  0.019914479            2 
 2761000   0.81978935   -7.7619755    669.24134  0.020199244  0.019908336            2 
 2762000   0.81826742   -7.7782531    668.22531  0.020161275   0.01990218            4 
 2763000   0.82128247   -7.7880424      670.023  0.020208198  0.019896033            3 
 2764000   0.80798037   -7.7810966     670.9044   0.02022746  0.019889884            2 
 2765000   0.80287451   -7.7692518     668.7534  0.020155317  0.019883724            4 
 2766000   0.79968666   -7.7615243    668.91361  0.020152857  0.019877583            2 
 2767000   0.82296201   -7.7618079    669.88046  0.020174692   0.01987146            3 
 2768000   0.79857549   -7.7678891    670.26599   0.02017901  0.019865334            4 
 2769000   0.81948807    -7.792841    667.96861  0.020102583  0.019859161            2 
 2770000   0.80344914   -7.7361384     669.9297  0.020154323  0.019853012            4 
 2771000   0.81364246   -7.7612662    669.97495  0.020148411  0.019846869            2 
 2772000   0.79696036   -7.7713882    669.89843  0.020138842  0.019840718            2 
 2773000   0.81493588   -7.7888044    670.31409   0.02014407  0.019834559            2 
 2774000    0.8195703   -7.7878038    668.70899   0.02008859  0.019828375            2 
 2775000   0.81216168   -7.8092776    668.30962  0.020069358  0.019822199            5 
 2776000   0.82789248   -7.8313624    667.50553   0.02003799  0.019816031            1 
 2777000    0.8101162   -7.8113519    669.07837  0.020077973  0.019809876            3 
 2778000   0.80586702   -7.7810742    670.54622  0.020114777  0.019803715            4 
 2779000   0.78643487   -7.8089592    670.53364  0.020107162   0.01979755            1 
 2780000   0.79394738   -7.8038784    668.59008  0.020041669  0.019791385            3 
 2781000   0.80067376   -7.7992634    669.15022  0.020051247   0.01978519            3 
 2782000   0.80741106   -7.7678837    670.52452  0.020085206   0.01977903            1 
 2783000   0.80595263   -7.7925062    671.23964  0.020099402  0.019772903            2 
 2784000   0.81212383   -7.7874298    670.29413  0.020063881  0.019766804            2 
 2785000   0.81592471   -7.7811566    671.94369  0.020106035  0.019760722            1 
 2786000   0.79181401   -7.7777848     670.3104  0.020049964  0.019754619            2 
 2787000   0.79393096   -7.7823114    669.23013  0.020010469  0.019748503            4 
 2788000   0.80319783    -7.730503    673.51431  0.020131346  0.019742411            2 
 2789000   0.79146229   -7.7571012    669.95828  0.020017876  0.019736309            3 
 2790000   0.80231623   -7.7672757    671.93029  0.020069603  0.019730224            2 
 2791000   0.79826148   -7.7823582    670.97233  0.020033809  0.019724116            2 
 2792000   0.80653315   -7.7813604     669.4702  0.019981799  0.019717992            2 
 2793000   0.79791167   -7.8005269    670.34864  0.020000855  0.019711889            4 
 2794000   0.78548288   -7.8108455    671.09704  0.020016018  0.019705748            2 
 2795000   0.80100575   -7.7660504    672.49968  0.020050676  0.019699647            2 
 2796000   0.78994435   -7.7817985    672.20649  0.020034767  0.019693552            1 
 2797000   0.80123067   -7.7649838    671.41597  0.020004051  0.019687474            2 
 2798000   0.81083579   -7.7734264    671.37471  0.019995673  0.019681365            2 
 2799000   0.81329359   -7.7726973    672.10505  0.020010273  0.019675261            4 
 2800000   0.80888963   -7.7976749    670.22684  0.019947227  0.019669157            2 
 2801000   0.81230023   -7.7524807     671.3819   0.01997447  0.019663066            4 
 2802000   0.81866101   -7.7651256    670.35005  0.019936654  0.019656988            2 
 2803000   0.81104213   -7.7842989    671.56228  0.019965581  0.019650905            3 
 2804000   0.79609819   -7.7760574     672.1428  0.019975713  0.019644828            3 
 2805000   0.80610329   -7.7600263    673.05581  0.019995716  0.019638764            3 
 2806000   0.80261571   -7.7814574    672.15345  0.019961792  0.019632693            4 
 2807000   0.80244421   -7.7585892     670.5089  0.019905857  0.019626611            3 
 2808000   0.80910744   -7.7830442    672.21626  0.019949438  0.019620539            4 
 2809000   0.79564482   -7.7613249    671.51006  0.019921386  0.019614469            4 
 2810000   0.79701917   -7.7422716    671.09413  0.019901961  0.019608389            1 
 2811000   0.80558039   -7.8246284    669.45217  0.019846204  0.019602276            2 
 2812000   0.80837222   -7.8079852    671.08366  0.019887496  0.019596155            3 
 2813000   0.78646003   -7.7774443    673.19611  0.019943006  0.019590053            3 
 2814000   0.79393043   -7.7702467    671.74885   0.01989306  0.019583961            2 
 2815000   0.81445392   -7.7938813    672.80951  0.019917392    0.0195779            2 
 2816000   0.81962748   -7.8300459     672.1995  0.019892267  0.019571839            5 
 2817000   0.78468679   -7.7937468    673.88158  0.019934966  0.019565788            1 
 2818000   0.80304485   -7.7954044    673.03899  0.019902974  0.019559769            2 
 2819000   0.80007806   -7.7558704    673.19821  0.019900621  0.019553737            3 
 2820000   0.80702942   -7.7907196    672.13401  0.019862116  0.019547706            3 
 2821000   0.79922948   -7.7476716    672.95974  0.019879468  0.019541704            7 
 2822000   0.80385877   -7.7794326    674.02316  0.019903826  0.019535716            2 
 2823000   0.80728575    -7.764261    674.06549  0.019898025  0.019529716            3 
 2824000   0.81072357   -7.7846127    672.95546  0.019858223  0.019523698            3 
 2825000   0.78930275   -7.7760619    672.80092  0.019846635  0.019517707            3 
 2826000   0.80936385   -7.7785323    672.47428   0.01982998  0.019511728            3 
 2827000   0.80033216   -7.7695939    675.06073  0.019899208  0.019505722            3 
 2828000   0.80029248   -7.7943722    675.38525  0.019901734   0.01949975            2 
 2829000   0.80965185   -7.7865484    673.07603  0.019826677  0.019493782            2 
 2830000   0.80784255   -7.7991661    673.98277  0.019846371  0.019487823            3 
 2831000   0.78991804   -7.7829342    673.28105  0.019818705  0.019481809            3 
 2832000   0.78895222   -7.7628142    674.53318  0.019848552  0.019475826            3 
 2833000     0.805308   -7.7700591    673.99951  0.019825847  0.019469812            7 
 2834000   0.79998005    -7.796824    674.56822  0.019835575  0.019463823            1 
 2835000   0.79282977   -7.7724291    674.56218    0.0198284  0.019457836            4 
 2836000   0.80538439   -7.8063186    674.89775  0.019831269  0.019451822            2 
 2837000   0.80247422   -7.8014166    673.45085  0.019781778  0.019445812            2 
 2838000    0.8196808    -7.771496    674.09603  0.019793752  0.019439821            2 
 2839000   0.79655785   -7.7867986    673.65129  0.019773726  0.019433804            4 
 2840000   0.80333078   -7.8004128    673.34741  0.019757846  0.019427781            2 
 2841000   0.80946817   -7.7991858    673.47164  0.019754536  0.019421772            3 
 2842000   0.81327807   -7.8130879    673.04936  0.019735203  0.019415751            3 
 2843000   0.80039798   -7.8077996    674.12309  0.019759734  0.019409723            3 
 2844000   0.78667371   -7.8162202    673.68747  0.019740022  0.019403714            2 
 2845000   0.79574954   -7.8199062    673.65199  0.019732044  0.019397707            3 
 2846000   0.80003149   -7.8014381    675.24931  0.019771882  0.019391697            4 
 2847000   0.79822562    -7.799868    675.32953  0.019767285  0.019385674            2 
 2848000   0.81274159   -7.8056055    675.19131    0.0197563  0.019379693            1 
 2849000   0.80076441   -7.7990657    674.82684  0.019738705  0.019373686            2 
 2850000   0.79325601   -7.7827905    675.19553  0.019742559  0.019367715            3 
 2851000   0.81376189   -7.7926537    674.57422  0.019717474  0.019361745            2 
 2852000   0.80245764   -7.7944395    674.85055  0.019718635  0.019355814            2 
 2853000    0.8076825   -7.8285902    674.94427   0.01971446  0.019349839            9 
 2854000   0.80094949   -7.7852057    675.42319  0.019721537  0.019343856            3 
 2855000   0.78689205    -7.795106    675.81208   0.01972598  0.019337906            3 
 2856000   0.81491626   -7.8326422    675.83594   0.01971977  0.019331945            3 
 2857000   0.79314725   -7.8030302    676.30127   0.01972644  0.019325973            2 
 2858000   0.80290367   -7.8121254    676.05327  0.019712307  0.019320043            4 
 2859000   0.78821388   -7.7989853    676.40032  0.019715528  0.019314125            1 
 2860000   0.78315463    -7.775706    676.10804  0.019700118  0.019308202            2 
 2861000    0.7891728   -7.7841967     676.0953  0.019692861  0.019302274            2 
 2862000   0.79976406   -7.8063049     675.6505  0.019673029  0.019296357            2 
 2863000   0.78285373     -7.80145    675.50238  0.019661846  0.019290413            3 
 2864000   0.79980624   -7.8428721    673.54237  0.019597951  0.019284425            2 
 2865000   0.79723819   -7.8029418    675.35081  0.019643712  0.019278461            1 
 2866000   0.79085105   -7.8245705    676.82578  0.019679745  0.019272514            3 
 2867000   0.80772166   -7.8048156    676.66462  0.019668196  0.019266591            3 
 2868000   0.79000663   -7.7884317    675.91338   0.01963951  0.019260693            1 
 2869000   0.78959937   -7.8153748    678.15902  0.019697892  0.019254762            4 
 2870000   0.80328798   -7.8120429    676.68782  0.019648311  0.019248868            2 
 2871000    0.7839161   -7.8138834     676.4077  0.019633336  0.019242955            3 
 2872000   0.78680486    -7.802703    676.72358  0.019635666  0.019237057            4 
 2873000   0.78884784   -7.8367012    677.90244  0.019663025  0.019231169            4 
 2874000   0.79376057   -7.8208104    677.05924  0.019631734  0.019225289            4 
 2875000   0.80526425   -7.8190709    678.50886  0.019666923  0.019219381            2 
 2876000   0.80588911   -7.8558181     676.5355  0.019602906  0.019213462            3 
 2877000   0.78759382   -7.8119236     676.8261   0.01960451   0.01920756            2 
 2878000   0.79549122   -7.7874921    678.77807  0.019654218  0.019201714            3 
 2879000   0.80803529   -7.8259835    677.88044  0.019621409  0.019195853            2 
 2880000   0.79022162   -7.8302115    678.34954   0.01962817  0.019189987            3 
 2881000   0.78252854   -7.8163302    678.40947   0.01962309   0.01918412            2 
 2882000   0.79791282   -7.8129755      678.431  0.019616904   0.01917826            3 
 2883000   0.80377343   -7.8181693     678.5992  0.019614961  0.019172387            2 
 2884000     0.807755   -7.8349332    677.26682  0.019569661  0.019166512            3 
 2885000   0.78248912   -7.8310321    676.10348  0.019529274  0.019160609            2 
 2886000   0.78862216   -7.8489599    676.33775  0.019529272    0.0191547            3 
 2887000   0.79534863    -7.801734     679.5023  0.019613852  0.019148825            3 
 2888000   0.78843914   -7.7961077     677.2672  0.019542567  0.019142971            5 
 2889000   0.79220981   -7.8051596    678.95513  0.019584491  0.019137149            3 
 2890000   0.78552318   -7.7979633    677.66211   0.01954043  0.019131301            3 
 2891000   0.78227092   -7.8240361    677.64042  0.019533046  0.019125436            5 
 2892000   0.78227457    -7.836358    677.78273  0.019530392  0.019119569            2 
 2893000   0.79970186   -7.8136473      677.123  0.019504638  0.019113738            2 
 2894000   0.79240667   -7.8087712    678.74631  0.019544641  0.019107922            3 
 2895000   0.79607961   -7.8212059    678.81786   0.01953995  0.019102114            3 
 2896000   0.78271006   -7.8192979    678.11322  0.019512926  0.019096279            7 
 2897000   0.78631821    -7.847136    679.75665  0.019553465  0.019090463            2 
 2898000   0.79260697   -7.8071068    678.75529  0.019517923  0.019084659            2 
 2899000   0.79293037   -7.8075289    678.15712  0.019493996  0.019078857            3 
 2900000   0.78288946   -7.8174488    678.09128  0.019485382  0.019073023            2 
 2901000   0.77980395   -7.7834555    679.78969  0.019527453  0.019067224            3 
 2902000   0.77755477   -7.8294441    678.38777  0.019480467  0.019061411            4 
 2903000   0.78727586   -7.8365313    677.09578  0.019436668  0.019055569            4 
 2904000   0.80357839   -7.8778229    678.39768  0.019467335  0.019049703            4 
 2905000   0.77884662   -7.8158056    677.75961   0.01944233  0.019043844            6 
 2906000   0.79520723   -7.8501551    677.85404  0.019438347  0.019038022           14 
 2907000   0.78959494    -7.825107    678.32334  0.019445113  0.019032197            4 
 2908000   0.80753642   -7.8161074    678.11661  0.019432503  0.019026354            3 
 2909000   0.77837799   -7.8215886    679.20078   0.01945688  0.019020542            4 
 2910000   0.77949093   -7.8197165    680.52582  0.019488139  0.019014718            2 
 2911000   0.78680677   -7.8037395    681.05522    0.0194966  0.019008919            1 
 2912000   0.77704628   -7.8362814    678.30148    0.0194111  0.019003082            2 
 2913000   0.77924172   -7.8481231    678.85753  0.019420344  0.018997237            2 
 2914000   0.79238342   -7.8224279    678.39811  0.019400541  0.018991355            2 
 2915000   0.79369018   -7.8150427    678.93024  0.019409098  0.018985533            3 
 2916000   0.76808573   -7.8145753    679.54886   0.01942012  0.018979693            2 
 2917000   0.79370706   -7.8145429    680.61156  0.019443822  0.018973872            2 
 2918000   0.79366331    -7.823234    680.83472  0.019443532  0.018968058            2 
 2919000   0.79415115   -7.8243554    678.89114  0.019381385  0.018962243            3 
 2920000   0.79874129   -7.8305608    678.96769  0.019376932  0.018956395            2 
 2921000   0.77360925   -7.8126557    680.15574  0.019404192  0.018950567            2 
 2922000   0.76822903   -7.8009589    678.88479  0.019361305  0.018944761            3 
 2923000   0.78757658   -7.8168743    679.14565  0.019362118  0.018938933            2 
 2924000   0.78579774   -7.8242412    679.94162  0.019378181  0.018933101            3 
 2925000   0.78211506   -7.8282435    677.86896  0.019312506  0.018927269            5 
 2926000   0.77544224   -7.8460564    677.44528  0.019293839  0.018921419            2 
 2927000   0.79119693   -7.8544042    678.25481  0.019310295  0.018915556            3 
 2928000   0.79418043   -7.8428728    677.92741  0.019294382  0.018909692            3 
 2929000   0.78823767   -7.8436767    678.53103  0.019304968  0.018903832            5 
 2930000   0.79288182   -7.8445766    679.04234  0.019312922  0.018897975            3 
 2931000   0.80244422   -7.8470779    677.45879   0.01926131  0.018892101            2 
 2932000   0.78231088   -7.8546238      678.436  0.019282515  0.018886211            4 
 2933000   0.77583644   -7.8781489    678.44295  0.019276138  0.018880321            2 
 2934000   0.76031589   -7.8460186    680.22041  0.019320053  0.018874463            2 
 2935000   0.79942418   -7.8504287    678.72606  0.019271041  0.018868602            3 
 2936000   0.78818514   -7.8228886    679.20253  0.019278001  0.018862742            2 
 2937000   0.78998016   -7.8324155    680.04437  0.019295323  0.018856866            1 
 2938000   0.77585854   -7.8445297    679.74792  0.019280347  0.018851025            3 
 2939000   0.76657438   -7.8385687     679.2554  0.019259822  0.018845184            2 
 2940000    0.7637734    -7.827554    678.90506  0.019243341  0.018839329            2 
 2941000   0.77344174   -7.8581005    678.44616  0.019223795  0.018833481            2 
 2942000   0.78334479   -7.8631875     677.4905  0.019190191   0.01882765            4 
 2943000   0.77666731   -7.8235454    679.72818  0.019247032  0.018821859            2 
 2944000    0.7861453   -7.8397252    678.37791  0.019202273  0.018816057            2 
 2945000   0.78355941   -7.8368698    678.63491  0.019203025  0.018810229            4 
 2946000   0.77554927   -7.8279539    679.16875  0.019211608  0.018804408            2 
 2947000   0.76964187   -7.8239995    679.88498  0.019225342  0.018798574            8 
 2948000   0.77143768   -7.8376302    678.53541  0.019180671  0.018792732            2 
 2949000   0.76982536   -7.8301165    679.52954  0.019202259  0.018786894            2 
 2950000   0.79406819   -7.8277854    681.01432  0.019237693  0.018781063            3 
 2951000   0.77577789   -7.8208422    679.73204  0.019194963  0.018775249            3 
 2952000   0.78171581   -7.8425531     679.2599  0.019175133  0.018769413            5 
 2953000   0.77802814   -7.8284929    680.02993  0.019190369  0.018763577            4 
 2954000   0.79034717   -7.8814188    678.45261  0.019139376  0.018757748            5 
 2955000   0.79386955   -7.8209733    681.20093  0.019210404  0.018751942            2 
 2956000   0.78726554   -7.8294994    680.08707  0.019172504  0.018746133            2 
 2957000       0.7913    -7.830176    679.31219  0.019144183  0.018740323            3 
 2958000   0.78079267    -7.820117    680.22278  0.019163364   0.01873449            5 
 2959000   0.78722314   -7.8834071    677.94494  0.019092738  0.018728625            2 
 2960000   0.77022166   -7.8419233    679.18727  0.019121263  0.018722767            6 
 2961000    0.7805299   -7.8152234    681.17759   0.01917082  0.018716931            2 
 2962000   0.75158571   -7.8491968    680.18413  0.019136398  0.018711115            4 
 2963000   0.76938075   -7.8263051    682.02832  0.019181807  0.018705303            2 
 2964000   0.78901693   -7.8579857     680.1488  0.019122492  0.018699467            3 
 2965000   0.78526314    -7.865991    679.78337  0.019105772  0.018693597            1 
 2966000   0.76939963   -7.8306425    680.65826  0.019123911  0.018687765            3 
 2967000   0.77548762    -7.865972    679.64592  0.019089033  0.018681943            4 
 2968000   0.76777326   -7.8303726    680.71894  0.019112729  0.018676114            2 
 2969000   0.77548914   -7.8233322    679.58353  0.019074423  0.018670288            4 
 2970000   0.76394527   -7.8490779    678.93817  0.019049892  0.018664461            2 
 2971000   0.77295345   -7.8357436    680.10162  0.019076114  0.018658627            4 
 2972000   0.76711559   -7.8632688    679.10519  0.019041756  0.018652809            3 
 2973000   0.78074285   -7.8913814    678.87627  0.019028935  0.018646952            4 
 2974000   0.76546118   -7.8430208    681.91533  0.019107693  0.018641105            2 
 2975000    0.7521188   -7.8490991    679.95455  0.019046346  0.018635277            2 
 2976000   0.80394428   -7.8278946    683.37678  0.019135775  0.018629506            2 
 2977000   0.75896583   -7.8492558    679.95375  0.019033528  0.018623723            2 
 2978000   0.77664102   -7.8292548    682.60002  0.019101187  0.018617951            2 
 2979000   0.76131296   -7.8386919    681.18393  0.019055162  0.018612186            2 
 2980000   0.78587945   -7.8378259     681.6801  0.019062643   0.01860639            4 
 2981000   0.78737467   -7.8691591    679.91187  0.019006817  0.018600603            2 
 2982000   0.77030807   -7.8611276    680.13801  0.019006763  0.018594792            4 
 2983000   0.75694826   -7.8626862    681.01689  0.019024944  0.018588997            2 
 2984000   0.77054096   -7.8743502    681.21379  0.019024067  0.018583199            1 
 2985000   0.77615051   -7.8550139    680.37276  0.018994214  0.018577399            2 
 2986000    0.7751057   -7.8876487    679.63835  0.018967357  0.018571577            7 
 2987000   0.76243467   -7.8957252    680.67616  0.018989961  0.018565763            2 
 2988000   0.76494399   -7.8587687    681.93238  0.019018641  0.018559961            6 
 2989000   0.75792608   -7.8479308    682.97005  0.019041208  0.018554176            1 
 2990000   0.77637795    -7.873826    680.94398  0.018978372   0.01854835            5 
 2991000   0.76431066   -7.8698495    680.31416  0.018954479  0.018542509            2 
 2992000   0.75525422   -7.8587561    680.78338  0.018961213  0.018536691            2 
 2993000   0.77734492   -7.8528197    683.26664  0.019024018  0.018530924            2 
 2994000   0.77380548   -7.8536917    680.49096  0.018940407  0.018525149            3 
 2995000   0.79271523   -7.8537447    681.43942  0.018960473  0.018519388            2 
 2996000   0.77460404   -7.8682016    681.29375  0.018950093  0.018513624            4 
 2997000   0.76976052   -7.8396335    682.41675  0.018974996  0.018507857            3 
 2998000   0.76496048   -7.8526689    682.54391  0.018972201  0.018502085            1 
 2999000   0.76920283   -7.8555179    682.43129  0.018962746  0.018496311            3 
 3000000   0.78070527   -7.8241384    681.11852  0.018919959  0.018490527            2 
 3001000   0.78082386   -7.8620091    681.98493  0.018937713  0.018484752            1 
 3002000    0.7718403   -7.8603603    680.67834  0.018895135  0.018478983            5 
 3003000   0.76997742   -7.8787662    680.63996  0.018887778  0.018473226            2 
 3004000   0.77843894   -7.8733264     680.9443  0.018889933  0.018467458            2 
 3005000   0.77743519   -7.8862771    680.54042  0.018872446   0.01846168            2 
 3006000   0.75151349   -7.8723271    682.45786  0.018919324  0.018455901            2 
 3007000   0.77327499   -7.8496535    681.74794  0.018893358   0.01845014            2 
 3008000   0.75553645   -7.8720582    683.33376  0.018931011  0.018444378            5 
 3009000   0.77825805   -7.8516993    682.44372   0.01890007  0.018438621            2 
 3010000   0.75471122   -7.9108594    681.39054  0.018864633  0.018432838            2 
 3011000   0.77170495   -7.9004975    679.26208   0.01879946  0.018427046            4 
 3012000   0.76413519   -7.8907711    681.64751  0.018859216  0.018421259            4 
 3013000   0.76402413   -7.8929035    681.34571   0.01884461  0.018415494            2 
 3014000   0.77771799   -7.8820233    682.87628  0.018880676  0.018409727            3 
 3015000   0.77758801   -7.9044508    681.22313  0.018828721  0.018403963            3 
 3016000   0.76070558   -7.8840346    682.53172  0.018858635  0.018398167            2 
 3017000   0.76981858   -7.8786605    684.03232  0.018893833  0.018392425            2 
 3018000   0.75399276   -7.8899382     682.7736  0.018852816  0.018386696            2 
 3019000   0.77177788    -7.868327    682.51028  0.018839303   0.01838096            3 
 3020000   0.78365747   -7.8744507    682.68179  0.018837798   0.01837523            2 
 3021000   0.76528112   -7.9001984     680.5555  0.018772909  0.018369488            2 
 3022000   0.76018111   -7.8761346    682.84035  0.018829703  0.018363751            3 
 3023000   0.76468018   -7.8831768    682.69027  0.018819337  0.018358038            2 
 3024000   0.75255481   -7.8378019     683.8942  0.018846291   0.01835236            6 
 3025000   0.77618163   -7.8810007    682.93002  0.018813499  0.018346666            1 
 3026000   0.76572547   -7.8712436    683.37133  0.018819435  0.018340997            7 
 3027000   0.76237567   -7.8753839    683.15958  0.018807388  0.018335314            2 
 3028000   0.76392207   -7.8523191    682.83433  0.018792226  0.018329669            2 
 3029000   0.76101585   -7.8959021    683.60737   0.01880729  0.018323992            2 
 3030000   0.76715361   -7.8772891    684.43782  0.018823922  0.018318315            3 
 3031000   0.78104294   -7.8598992    684.09866  0.018808387  0.018312659            1 
 3032000   0.75773287   -7.8623514    685.25489  0.018833962  0.018306994            2 
 3033000   0.77157048   -7.8987668    682.68406  0.018757118  0.018301302            2 
 3034000   0.77934877   -7.8689407    684.25483  0.018794079  0.018295624            2 
 3035000   0.75950598   -7.8833031     684.7228  0.018800736  0.018289956            3 
 3036000   0.75876578   -7.8761583    684.41495  0.018786093   0.01828428            2 
 3037000   0.75951546   -7.9001851    684.68376  0.018787284  0.018278602            3 
 3038000   0.77472341   -7.8719107    684.55168  0.018777476  0.018272936            2 
 3039000    0.7718062   -7.8789486    682.28867  0.018709243   0.01826726            2 
 3040000   0.77566036   -7.8589524    685.06465  0.018779184  0.018261613            3 
 3041000   0.76805263   -7.8498198    685.87295  0.018795159  0.018256003            2 
 3042000   0.78073846   -7.8765401    685.41264  0.018776371  0.018250375            2 
 3043000   0.76179941   -7.8789117    685.61312  0.018775691   0.01824474            4 
 3044000   0.76178291   -7.8708402     684.5654   0.01874084  0.018239105            3 
 3045000   0.77097568   -7.8655165    684.35444  0.018728912  0.018233459            2 
 3046000   0.74945904   -7.9063651    685.22172   0.01874649  0.018227811            1 
 3047000   0.76925924   -7.8629121    684.80164  0.018728849  0.018222168            3 
 3048000   0.76238895   -7.8605321    685.36162  0.018738015  0.018216524            1 
 3049000    0.7675687   -7.8886847    685.16964  0.018726622  0.018210903            3 
 3050000   0.75274204   -7.8723356    685.87981  0.018739886  0.018205269            4 
 3051000   0.75790763   -7.8664975    685.73656  0.018729831  0.018199624            3 
 3052000    0.7677902   -7.8814928    685.16669  0.018708134  0.018193997            2 
 3053000   0.75180305   -7.8843888    685.73524  0.018717525  0.018188403            6 
 3054000   0.75356801    -7.890067    686.30111  0.018726837  0.018182789            2 
 3055000   0.76172185   -7.8900579    685.01919  0.018685739  0.018177163            1 
 3056000   0.76076796   -7.9057682    685.12549  0.018682523  0.018171549            3 
 3057000   0.76207139   -7.8789134    685.46637  0.018685704   0.01816596            2 
 3058000     0.763716   -7.8885054    684.50557  0.018653411  0.018160384            2 
 3059000   0.77083854    -7.904697    684.78834  0.018655016  0.018154776            2 
 3060000   0.76001397     -7.89356     687.1759  0.018713941  0.018149182            2 
 3061000   0.75308474   -7.8965328    686.72307  0.018695499  0.018143593            6 
 3062000    0.7567879   -7.9048837    685.07198  0.018644459  0.018138016            3 
 3063000   0.77126376   -7.8700556    685.37203  0.018646535  0.018132421            2 
 3064000   0.76818145   -7.8729301    685.54784  0.018645231  0.018126841            2 
 3065000   0.76205219   -7.8935561    683.93802  0.018595379  0.018121221            1 
 3066000   0.75440229   -7.9006564     686.2852  0.018653109  0.018115635            5 
 3067000   0.77388213   -7.8819947     685.5927  0.018628212  0.018110049            3 
 3068000   0.75183326   -7.9113666    686.03529  0.018634161   0.01810446            2 
 3069000   0.78126662   -7.8811443    684.74493  0.018593052  0.018098904            4 
 3070000   0.75060472   -7.8411187     686.9192  0.018646015  0.018093354            1 
 3071000   0.74805955   -7.8517011    687.24643  0.018648823  0.018087797            5 
 3072000   0.74604638   -7.9027444    685.61104   0.01859839  0.018082242            5 
 3073000   0.76067813   -7.8973393    685.63358  0.018592949  0.018076669            4 
 3074000   0.74278681     -7.86432    686.72092  0.018616377  0.018071125            1 
 3075000   0.75606839   -7.8567128    687.84065  0.018640668   0.01806558            1 
 3076000   0.75653978   -7.8876497    687.01057   0.01861212  0.018060039            3 
 3077000   0.74580785   -7.8659133    688.87645  0.018656604  0.018054491            2 
 3078000   0.77111547   -7.8845794    686.22564  0.018578775  0.018048942            2 
 3079000   0.73389982   -7.8982952    685.75729  0.018560065  0.018043368            4 
 3080000   0.76242668   -7.8790033    686.87004  0.018584146  0.018037817            1 
 3081000   0.76945524    -7.877117    687.50146  0.018595192  0.018032266            4 
 3082000   0.74617035   -7.8513567    687.96532  0.018601701  0.018026717            2 
 3083000   0.77912919   -7.8637871    687.30921  0.018577933  0.018021199            4 
 3084000   0.74068447   -7.8889552      687.145  0.018567472   0.01801566            2 
 3085000   0.76943107   -7.8805763    686.83077  0.018552965  0.018010107            6 
 3086000   0.78298625   -7.8903178    687.10572  0.018554378  0.018004565            3 
 3087000   0.75346877   -7.9099698    685.11012  0.018494496  0.017998996            5 
 3088000   0.75423828   -7.9095292      685.909  0.018510066  0.017993407            4 
 3089000   0.74987163   -7.9176066    684.92282  0.018477469  0.017987807            3 
 3090000   0.76325706   -7.9262387    685.87659  0.018497211  0.017982236            2 
 3091000   0.74390435   -7.9011156    686.64345  0.018511901  0.017976646            7 
 3092000   0.76241233   -7.8973484     687.9669  0.018541583  0.017971111            1 
 3093000   0.75600475   -7.8606977    687.48368  0.018522569  0.017965609            1 
 3094000   0.77536773   -7.8619444    687.95003  0.018529143  0.017960093            2 
 3095000   0.74650637   -7.9159736    686.73927  0.018490557  0.017954548            3 
 3096000   0.75741485   -7.9093326    688.13333  0.018522107  0.017948994            2 
 3097000   0.75419079   -7.9079402    687.55602  0.018500592  0.017943431            1 
 3098000   0.75619071   -7.9391346    686.19504  0.018458012  0.017937869            5 
 3099000   0.76096896   -7.8970525    687.68437  0.018492104   0.01793229            2 
 3100000    0.7463592   -7.9025546    687.91887  0.018492443  0.017926726            3 
 3101000   0.75023674   -7.9194945    686.25897  0.018441873   0.01792116            2 
 3102000   0.76186705   -7.9200641    685.96615  0.018428061  0.017915574            3 
 3103000   0.75300434   -7.9254276     687.3268  0.018458664  0.017909997            3 
 3104000   0.76179416   -7.9059647    687.45331  0.018456113   0.01790442            1 
 3105000   0.76684141   -7.9251795    685.93614  0.018409451  0.017898857            2 
 3106000   0.76126523     -7.92319    686.84737  0.018427972  0.017893286            4 
 3107000   0.74801746   -7.9201262    686.15744  0.018403536  0.017887717            1 
 3108000   0.75465608   -7.8984866    687.52556  0.018434297  0.017882167            2 
 3109000   0.75958325   -7.9158265    687.45974  0.018426604  0.017876621            1 
 3110000   0.74564469   -7.8926611    687.75512  0.018428594  0.017871099            3 
 3111000   0.76146235   -7.8829222    687.53876  0.018416875   0.01786556            2 
 3112000   0.75922998   -7.9067127    687.11606  0.018399638  0.017860013            1 
 3113000   0.75267601   -7.9003884    686.99659  0.018390529  0.017854457            3 
 3114000   0.74221065   -7.8925685     687.7105  0.018403728  0.017848891            2 
 3115000   0.77087384   -7.9043162    687.26592  0.018385926  0.017843349            2 
 3116000   0.76522175    -7.888195    687.10215  0.018375646  0.017837801            3 
 3117000   0.73854309   -7.9100322    688.05172  0.018395137  0.017832257            6 
 3118000   0.74224048   -7.9227939    686.65003  0.018351775  0.017826702            2 
 3119000    0.7471163   -7.9427028    686.81119  0.018350197  0.017821139            2 
 3120000   0.75707051     -7.92041    686.40812   0.01833355   0.01781557            4 
 3121000   0.74154262   -7.8970055    688.28498   0.01837779   0.01781004            2 
 3122000   0.74763481   -7.9334587    687.09418  0.018340118    0.0178045            7 
 3123000   0.75869109   -7.8995542    687.78329  0.018352633   0.01779899            2 
 3124000    0.7458148   -7.9021133    688.35167   0.01836192  0.017793508            3 
 3125000    0.7710188   -7.9100087    687.91262  0.018344337  0.017788024            2 
 3126000   0.73459457   -7.9077109    688.52217  0.018354718   0.01778253            1 
 3127000   0.74275707   -7.9114774    687.63551  0.018325219  0.017777043            1 
 3128000   0.75447259   -7.9294241    687.50745  0.018315949  0.017771566            1 
 3129000   0.74131283   -7.9038371    687.25698  0.018303424  0.017766068            1 
 3130000    0.7396249   -7.8877157    689.11483   0.01834704  0.017760566            3 
 3131000   0.73946515   -7.9394627    687.90815  0.018309064  0.017755049            4 
 3132000   0.74531087   -7.9312305    688.46555  0.018318049  0.017749511            5 
 3133000   0.74317007   -7.9546682    687.39071  0.018283613  0.017743974            5 
 3134000   0.75811812   -7.9310742    685.89522  0.018238014   0.01773843            2 
 3135000   0.73210463   -7.9414234    687.42413  0.018272837  0.017732884            5 
 3136000   0.76857047   -7.8893804    689.21948  0.018314718  0.017727368            3 
 3137000   0.74453462   -7.9365409    687.66354  0.018267547  0.017721853            2 
 3138000   0.75119421   -7.9112088    688.52938  0.018284719  0.017716342            2 
 3139000   0.75347145    -7.927625    688.22628  0.018270847  0.017710837            5 
 3140000   0.74208576   -7.9308338    687.16895  0.018236968   0.01770532            4 
 3141000   0.74524283   -7.9026777    687.69545   0.01824513  0.017699814            3 
 3142000    0.7600209   -7.9137944    688.54036  0.018261733  0.017694319            5 
 3143000   0.75233747   -7.8949607    689.24779  0.018274679  0.017688809            2 
 3144000   0.74533621   -7.9116286      689.002  0.018262351  0.017683321            3 
 3145000   0.75933144   -7.9465162    688.58779  0.018245569  0.017677847            4 
 3146000   0.73149772   -7.9506456    688.13466  0.018227767   0.01767234            3 
 3147000   0.72368041   -7.9331311    688.26373  0.018225393  0.017666847            3 
 3148000   0.74215496   -7.9296895    688.19735  0.018217846  0.017661356           11 
 3149000   0.73606009   -7.9223981    687.96058  0.018205795  0.017655889            4 
 3150000   0.75802878   -7.9091388    690.82832  0.018275881  0.017650431            3 
 3151000   0.73600575   -7.9105956     688.9859  0.018221356  0.017644974            3 
 3152000   0.76719306   -7.9249118    687.21934   0.01816887  0.017639502            3 
 3153000   0.75702506   -7.9349183    687.87335  0.018180393  0.017634029            3 
 3154000   0.74960268   -7.9276662     688.9224  0.018202346  0.017628555            2 
 3155000   0.74810397    -7.951702    688.55846  0.018186964  0.017623091            2 
 3156000   0.74744541   -7.9489582    689.72989  0.018212133  0.017617616            3 
 3157000    0.7481856   -7.9415059    688.71117  0.018179473  0.017612147            1 
 3158000   0.74103612    -7.952512    689.34531   0.01819045  0.017606677            2 
 3159000   0.73863794   -7.9346615    689.88519  0.018198934  0.017601206            1 
 3160000   0.75982814   -7.9300022    689.13934  0.018173506  0.017595742            3 
 3161000    0.7305882   -7.9420886    687.74065  0.018130883  0.017590275            3 
 3162000   0.74462179   -7.9656833    688.94667  0.018156933  0.017584808            3 
 3163000   0.75732066   -7.9562397    689.11001  0.018155496  0.017579342            2 
 3164000   0.74489967   -7.9426192    688.75284  0.018140351  0.017573851            2 
 3165000   0.74399892   -7.9343582    688.70909  0.018133467  0.017568367            2 
 3166000   0.75050779   -7.9210752    689.59777  0.018151131  0.017562896            2 
 3167000   0.72732752   -7.9512724    688.26549  0.018110343  0.017557462            2 
 3168000   0.74261411   -7.9245261    689.00875  0.018124178  0.017552014            4 
 3169000   0.75094404   -7.9196642    689.76492  0.018138343  0.017546566            3 
 3170000   0.74002943   -7.9646713    689.06649  0.018114261  0.017541099            3 
 3171000   0.74365795   -7.9283522    688.46625  0.018092774  0.017535604            2 
 3172000   0.76268795   -7.9543658    688.12759  0.018078173  0.017530131            3 
 3173000   0.73842211       -7.925      690.132  0.018125118  0.017524681            4 
 3174000   0.75422748   -7.9049001    690.11265    0.0181189  0.017519234            1 
 3175000   0.75331752   -7.9040535    690.20054    0.0181155  0.017513802            2 
 3176000   0.72939109   -7.9150559    689.86191  0.018100911    0.0175084            2 
 3177000   0.73679085   -7.9002428     690.2008  0.018104102  0.017502992            3 
 3178000    0.7387698     -7.87156    690.61357  0.018109229  0.017497587            2 
 3179000   0.73622707   -7.8987818    690.25386  0.018094104  0.017492211            3 
 3180000   0.75218798   -7.9113972    691.36486  0.018117528   0.01748682            3 
 3181000   0.73185409   -7.9128642    690.92414  0.018100287  0.017481428            7 
 3182000   0.72922782   -7.9403478    690.51079  0.018083773   0.01747602            2 
 3183000   0.74589649   -7.9400118    688.60726  0.018028256  0.017470636            3 
 3184000     0.742217   -7.9460963    690.88284  0.018082151   0.01746522            2 
 3185000   0.73803118   -7.9103296    689.77538  0.018047498  0.017459818            3 
 3186000   0.75030007   -7.9258926    691.11786  0.018076948  0.017454422            4 
 3187000   0.74474722   -7.9285636    690.13382  0.018045545  0.017449002            3 
 3188000   0.76678317   -7.8993037    690.00235  0.018036448  0.017443589            6 
 3189000   0.71802148   -7.9226533      691.614  0.018072907  0.017438198            2 
 3190000   0.72857778   -7.9162359    690.84567   0.01804717  0.017432795            4 
 3191000    0.7277516   -7.9420327    688.90647  0.017990872  0.017427382            7 
 3192000   0.73982323   -7.9435319    690.17774  0.018018425   0.01742196            4 
 3193000   0.72699547   -7.9412574    689.87743  0.018004944  0.017416524            1 
 3194000   0.73164309    -7.961351    689.95656  0.018001371  0.017411086            2 
 3195000   0.74359926   -7.9334493    689.54238  0.017984934  0.017405662            2 
 3196000   0.74160066   -7.9430923    691.12912   0.01802068  0.017400237            3 
 3197000   0.74931357   -7.9310482    688.18789  0.017938377  0.017394786            4 
 3198000   0.72732769   -7.9333988    687.81984  0.017923177  0.017389357            3 
 3199000   0.77264638   -7.9316592    689.31478  0.017956517  0.017383905            4 
 3200000   0.75008312   -7.9360331    689.04594  0.017943905  0.017378472            3 
 3201000   0.74151679   -7.9614427    689.08517   0.01793932  0.017373036            1 
 3202000    0.7372902   -7.9087134    689.97447  0.017956862  0.017367599            8 
 3203000   0.73596721   -7.9367118     688.9348  0.017924206  0.017362144            2 
 3204000   0.74539428   -7.9530696    691.12768  0.017975647  0.017356702            2 
 3205000   0.73464096   -7.9707624    688.26778  0.017895678  0.017351256            5 
 3206000   0.73821799   -7.9505518    688.37086  0.017892776  0.017345807            2 
 3207000   0.74784081    -7.956945    689.16711  0.017907887  0.017340346            5 
 3208000   0.73817606   -7.9510125    688.46928  0.017884177  0.017334895            4 
 3209000   0.73521663   -7.9490416    688.29251  0.017874013  0.017329467            4 
 3210000   0.74430753   -7.9211603    689.32122  0.017895151   0.01732406            3 
 3211000   0.77084931   -7.9519569    689.83871  0.017903008  0.017318668            7 
 3212000   0.73790253   -7.9698131    690.44377  0.017913132  0.017313252            2 
 3213000   0.74160148   -7.9490194    690.93934   0.01792041  0.017307857            1 
 3214000   0.74469229   -7.9227469    691.85778  0.017938648  0.017302468            3 
 3215000   0.73283354   -7.9482252    689.33966  0.017867798  0.017297081            1 
 3216000   0.72017033   -7.9602686    690.33408   0.01788801  0.017291666            3 
 3217000   0.74779295   -7.9496385    690.40645  0.017884324   0.01728626            2 
 3218000   0.73105067   -7.9360311    691.59501  0.017909546  0.017280866            4 
 3219000   0.75671771   -7.9555417     690.7047  0.017880933   0.01727546            3 
 3220000   0.73911884   -7.9377562    691.11491  0.017885997  0.017270047            3 
 3221000   0.74293015   -7.9371183    690.00689  0.017851777  0.017264642            2 
 3222000   0.74127006   -7.9651854    689.95901  0.017844998  0.017259226            2 
 3223000   0.73525958   -7.9568961    689.94357  0.017839062  0.017253826            2 
 3224000   0.74683536   -7.9507458    690.74585  0.017854266  0.017248404            4 
 3225000   0.73054129   -7.9523191    689.97034  0.017828691  0.017242972            3 
 3226000   0.73744454   -7.9635581    689.86086  0.017820336  0.017237557            2 
 3227000   0.72714721   -7.9429573    690.67807  0.017835917  0.017232148            2 
 3228000   0.72500674   -7.9633592    690.86496  0.017835217  0.017226747            4 
 3229000   0.72784795    -7.934776     691.3646  0.017842588  0.017221342            2 
 3230000   0.74528803   -7.9546527    691.23531  0.017833728   0.01721594            1 
 3231000   0.74276747   -7.9751318    692.39536  0.017858128  0.017210533            4 
 3232000   0.72579908   -7.9502696    691.27265  0.017823655  0.017205143            2 
 3233000    0.7391919   -7.9559508    689.66608  0.017776732  0.017199762            3 
 3234000   0.72481115   -7.9550664    689.95978  0.017778803  0.017194361            5 
 3235000   0.74538595   -7.9605333    690.91001  0.017797785  0.017188962            6 
 3236000   0.72895017   -7.9741222    689.71648  0.017761549  0.017183556            4 
 3237000   0.74664466   -7.9731839    690.27853  0.017770532   0.01717816            3 
 3238000   0.73233139   -7.9494574    691.19543  0.017788641  0.017172777            3 
 3239000   0.75038973   -7.9647093    691.01474    0.0177785  0.017167385            2 
 3240000   0.75101836   -7.9686183    691.09039  0.017774959  0.017161982            5 
 3241000   0.72703781   -7.9759743    690.44611  0.017752908  0.017156604            4 
 3242000   0.74936397   -7.9644382    690.57582  0.017750766  0.017151234            5 
 3243000   0.72630089   -7.9643535    689.46157  0.017716661   0.01714584            3 
 3244000    0.7248359   -7.9497662    690.87348  0.017747469   0.01714047            6 
 3245000   0.72796868    -7.972079    692.08301  0.017773061  0.017135105            4 
 3246000   0.74160116   -7.9547321     691.2095  0.017745161   0.01712974            3 
 3247000   0.74900295   -7.9717634    690.67034  0.017725858  0.017124364            2 
 3248000   0.72006028   -7.9531048    689.92012  0.017701152  0.017118969            2 
 3249000   0.73837172   -7.9889329    689.96502  0.017696856  0.017113579            7 
 3250000     0.734285   -7.9734825    689.22743  0.017672498  0.017108189            1 
 3251000   0.73629571   -7.9681072    691.79807  0.017732956  0.017102816            1 
 3252000   0.72767201   -7.9528786    692.04793  0.017733905  0.017097441            3 
 3253000    0.7320063   -7.9925188    690.74566  0.017695093  0.017092074            2 
 3254000   0.73630038   -7.9671708    692.54929  0.017735845   0.01708673            3 
 3255000   0.71632483   -7.9384675    691.57718  0.017705509  0.017081402            3 
 3256000   0.74852197   -7.9620907    692.33866   0.01771956  0.017076062            2 
 3257000   0.72108949   -7.9748857    691.38502   0.01768972  0.017070723            6 
 3258000    0.7286645   -7.9488849    691.46274  0.017686278  0.017065373            3 
 3259000   0.71108285   -7.9803572    690.52393  0.017656846  0.017060011            3 
 3260000   0.73832577   -7.9657004    691.01188  0.017663903  0.017054671            2 
 3261000   0.74446529    -7.964304    692.44114   0.01769501  0.017049334            3 
 3262000   0.73956097   -7.9787978    689.72272  0.017620139  0.017044012            2 
 3263000   0.72657466   -7.9703694    692.57261  0.017687522  0.017038689            4 
 3264000    0.7321503   -7.9811779    691.78038  0.017661877  0.017033354            2 
 3265000   0.71792956   -7.9662612    691.21454  0.017642025  0.017028012            2 
 3266000   0.75109974   -7.9655819    692.23591  0.017662684  0.017022689            4 
 3267000   0.72634212   -7.9767398     690.5224   0.01761357  0.017017368            2 
 3268000   0.72249667   -7.9578698    691.82817  0.017641477  0.017012031            1 
 3269000    0.7305711    -7.973855    692.81691  0.017661285  0.017006725            2 
 3270000   0.71254243   -7.9875671    691.63049   0.01762565  0.017001395            5 
 3271000   0.71294193   -7.9531123    692.60742   0.01764515  0.016996081            3 
 3272000   0.72329599   -7.9672977    692.03933  0.017625289  0.016990776            2 
 3273000   0.72574666   -7.9969891    692.54754  0.017632843  0.016985444            2 
 3274000   0.72479808    -8.000157    690.19056  0.017567465  0.016980097            2 
 3275000   0.71779755   -7.9927226    691.18059  0.017587292  0.016974763            2 
 3276000   0.71910432   -8.0192934    690.72665  0.017570377   0.01696942            3 
 3277000   0.72928255   -7.9852433      693.331  0.017631243  0.016964088            2 
 3278000   0.74420581   -7.9706952    692.84443  0.017613495  0.016958773            2 
 3279000   0.74208022   -7.9625848     691.7046  0.017579155  0.016953465            4 
 3280000   0.73159943   -7.9910574    690.64618  0.017546905  0.016948138            2 
 3281000   0.71691449   -7.9848366    691.21451  0.017555992  0.016942815            2 
 3282000   0.73621353   -7.9782544    692.52981  0.017584039   0.01693751            3 
 3283000   0.72664303   -7.9923762    690.81086  0.017535051  0.016932206            3 
 3284000   0.72894837   -7.9933497     692.0209  0.017560417  0.016926886            3 
 3285000   0.72984691   -7.9733776    691.49626  0.017541762  0.016921564            3 
 3286000   0.70926218   -7.9796288    692.48823   0.01756158  0.016916241            4 
 3287000   0.71616404   -7.9570659    692.66286  0.017560665  0.016910923            1 
 3288000   0.73258461   -7.9818304    692.29528  0.017546008  0.016905584            2 
 3289000   0.73600039   -7.9611928    692.13131  0.017536518  0.016900258            2 
 3290000   0.73530391   -7.9339088    692.63329  0.017543903  0.016894941            2 
 3291000   0.72298047   -7.9660752    691.04064  0.017498244  0.016889625            4 
 3292000   0.72889754   -7.9715715    692.85221  0.017538786  0.016884303            2 
 3293000   0.73108851   -8.0083502    690.82749  0.017482222   0.01687898            2 
 3294000   0.71452858   -7.9701649    692.20899  0.017511865  0.016873654            4 
 3295000   0.71995959   -7.9698214    691.97255   0.01750057  0.016868362            2 
 3296000   0.71332034   -7.9907866    692.26948  0.017502768  0.016863059            5 
 3297000   0.70394849   -7.9825697    691.72555  0.017483711   0.01685775            3 
 3298000   0.71781201   -7.9994596    692.93351  0.017508932  0.016852427            6 
 3299000   0.73316407   -7.9852273    693.28147  0.017512415  0.016847111           10 
 3300000   0.72537984   -7.9783213    692.47479  0.017486737  0.016841815            3 
 3301000   0.71531741   -7.9944319    692.67346  0.017486455  0.016836511            4 
 3302000    0.7333546   -7.9872034    692.19342  0.017469045  0.016831208            2 
 3303000   0.72667487   -7.9763075    693.19428  0.017489007  0.016825906            2 
 3304000   0.72408115   -7.9899249    693.02411  0.017479422  0.016820597            6 
 3305000   0.73634805   -7.9791592    692.36295  0.017457462  0.016815281            6 
 3306000    0.7166826   -7.9748589    693.73777  0.017486836  0.016809982            4 
 3307000    0.7117013   -7.9604732    692.17684  0.017442215  0.016804694            3 
 3308000   0.71625994   -7.9933693    692.62539  0.017448241  0.016799419            2 
 3309000   0.71809752   -7.9768238    693.59156    0.0174673  0.016794142            3 
 3310000   0.71999228   -7.9765676    694.68087  0.017489448  0.016788887            3 
 3311000   0.72333762   -7.9643868     694.2972  0.017474509  0.016783643            2 
 3312000   0.72704419   -7.9580547    693.90112  0.017459267  0.016778403            1 
 3313000   0.70368271   -7.9671622    693.00507  0.017431459  0.016773143            4 
 3314000   0.71636085   -7.9613461    691.98804  0.017400625  0.016767866            2 
 3315000   0.72652922   -7.9837508    693.59255   0.01743571    0.0167626            4 
 3316000   0.71794065   -7.9979288    692.16881  0.017394672  0.016757324            4 
 3317000   0.73305571   -7.9601214    692.96797  0.017409506  0.016752061            2 
 3318000   0.70358432   -7.9710567    693.12097  0.017408102  0.016746809            2 
 3319000   0.72166804   -7.9833183    693.89046  0.017422177  0.016741557            6 
 3320000   0.70996381   -7.9823564    692.60145  0.017384575  0.016736293            2 
 3321000   0.72503531   -7.9881157     693.8293   0.01741015  0.016731015            4 
 3322000   0.71623736   -7.9808173    691.28774  0.017341154  0.016725759            3 
 3323000   0.71628646   -7.9855303    694.58453  0.017418611  0.016720503            2 
 3324000   0.72700707   -7.9850391    695.50051  0.017436335  0.016715263            5 
 3325000   0.71978177   -7.9718008    692.82525  0.017364041  0.016710023            4 
 3326000   0.70471045   -7.9831536    694.19153  0.017393053  0.016704783            8 
 3327000   0.73522956   -7.9760371    693.70226   0.01737557  0.016699533            3 
 3328000   0.73947619   -7.9940739    694.51651  0.017390738  0.016694282            2 
 3329000   0.73642846   -7.9926024    693.85774  0.017369023  0.016689019            3 
 3330000   0.71729301   -7.9668416    694.85434  0.017388747  0.016683758            4 
 3331000   0.72561813   -7.9977456    692.32619  0.017320279  0.016678494            2 
 3332000   0.71907246   -8.0140419    693.76694  0.017351114  0.016673219            2 
 3333000   0.71366222    -7.998939    693.78685  0.017346406  0.016667968            5 
 3334000   0.71827151   -8.0040084     692.7764  0.017315947   0.01666272            2 
 3335000   0.69989841   -7.9812976    692.99456  0.017316206  0.016657479            2 
 3336000   0.70843814   -8.0010823    693.26356  0.017317735  0.016652212            1 
 3337000   0.71133934   -8.0013832    692.08542  0.017283124  0.016646955            4 
 3338000   0.72160699   -7.9762769     693.2527  0.017307088  0.016641705            2 
 3339000   0.71485672   -7.9986616    695.33077  0.017353768  0.016636464            4 
 3340000   0.71882431   -8.0072036    693.31087  0.017298175  0.016631214            4 
 3341000   0.71593315   -7.9914085    693.69974  0.017302697  0.016625959            2 
 3342000   0.70760682   -8.0105429    692.36249  0.017264175  0.016620714            2 
 3343000   0.69882585    -8.018378    694.50061   0.01731231  0.016615483            3 
 3344000   0.71358516   -7.9805349    693.18611  0.017274375  0.016610253            2 
 3345000   0.72847942   -8.0193308    694.09023  0.017291735  0.016605025            3 
 3346000   0.72656012   -8.0059816    693.49981  0.017271862  0.016599783            4 
 3347000   0.72401441    -8.017287    693.53278  0.017267523  0.016594535            3 
 3348000   0.70947594   -8.0043734    693.78549  0.017268655    0.0165893            4 
 3349000   0.72341339   -7.9914959    694.64981  0.017285006  0.016584068            1 
 3350000   0.71357985   -8.0047607    693.02614  0.017239456  0.016578837            3 
 3351000   0.70472335    -7.989607    694.04223   0.01725958  0.016573601            1 
 3352000    0.7040948   -8.0148013    693.43137  0.017239244  0.016568382            2 
 3353000   0.71370221   -8.0281828    692.00706  0.017198704  0.016563145            6 
 3354000   0.71624122   -8.0013595    692.98114  0.017217778  0.016557907            2 
 3355000   0.71796509   -7.9927169    692.28621  0.017195385  0.016552655            3 
 3356000   0.72971566   -8.0104224    692.71221  0.017200839  0.016547393            2 
 3357000   0.72827568   -8.0531705     692.3261  0.017186131  0.016542127            3 
 3358000   0.72307018   -8.0068589    690.70729   0.01714084   0.01653685            4 
 3359000   0.72659694    -8.047141    693.97034   0.01721669  0.016531572            1 
 3360000   0.71584979   -8.0382356    692.82027  0.017183042   0.01652631            3 
 3361000   0.70967786    -8.025793    692.43466  0.017168369  0.016521037            3 
 3362000   0.72094514   -8.0260125    692.29108  0.017159704  0.016515768            3 
 3363000   0.73346599   -8.0361296    691.78562  0.017142076  0.016510511            2 
 3364000   0.72282455   -8.0293408    693.08492  0.017169167  0.016505267            2 
 3365000   0.71178543   -8.0099026    693.09761  0.017164379   0.01650001            3 
 3366000   0.71438576   -8.0365753    693.89192  0.017178944  0.016494776            1 
 3367000   0.71612298   -8.0111166    694.31661  0.017184353  0.016489555            3 
 3368000   0.70442238   -8.0061251    693.43699  0.017157487   0.01648434            2 
 3369000   0.72596988   -8.0255972    692.46643  0.017128387  0.016479111            2 
 3370000    0.7172193    -8.007925     692.7156  0.017129466  0.016473883            2 
 3371000   0.71205452   -8.0123975    691.44946  0.017093085  0.016468653            2 
 3372000   0.70604127   -7.9993001    694.01951   0.01715153  0.016463441            3 
 3373000    0.7104366   -7.9987011    694.45502  0.017157205  0.016458241            4 
 3374000   0.71582013   -8.0223172    694.58552  0.017155343  0.016453032            3 
 3375000   0.70202854   -8.0192285    693.87494  0.017132715  0.016447807            1 
 3376000   0.70129263   -8.0351037    693.41263  0.017116228  0.016442594            2 
 3377000   0.72138002   -8.0236585    693.26682  0.017107562  0.016437374            2 
 3378000   0.70155337   -8.0140731    692.65258  0.017087344  0.016432155            2 
 3379000   0.71496527   -8.0175621    694.67851  0.017132251  0.016426941            1 
 3380000   0.71387283   -8.0175606    694.00753  0.017110639  0.016421727            2 
 3381000   0.71221075    -8.004702    693.31834  0.017088592  0.016416518            1 
 3382000    0.7032784   -8.0062989    693.79709  0.017095335  0.016411315            3 
 3383000   0.72667741   -8.0155444    693.36737  0.017079697  0.016406127            7 
 3384000   0.70125093   -7.9990985    694.65086  0.017106256  0.016400942            2 
 3385000   0.70904346   -7.9964125    693.75819  0.017079227  0.016395768            5 
 3386000   0.69999273   -8.0337054    694.53249  0.017093239  0.016390592            3 
 3387000   0.70193353   -8.0080238    694.55517   0.01708875  0.016385408            4 
 3388000   0.70519818   -7.9996209    694.17514  0.017074359  0.016380212            3 
 3389000   0.70763572   -8.0158298    694.50792  0.017077504   0.01637502            2 
 3390000   0.71670666   -8.0185796    692.90228  0.017032996  0.016369832            2 
 3391000   0.71308629   -8.0184034    693.59362  0.017044963  0.016364617            4 
 3392000   0.70250885   -8.0077021    694.14269  0.017053427  0.016359411            4 
 3393000   0.70863916   -8.0209282     694.8862  0.017066662  0.016354213            3 
 3394000   0.70301335   -8.0491726    693.40352  0.017025229  0.016349012            2 
 3395000   0.70438084   -8.0180174    696.00979  0.017084187  0.016343805            2 
 3396000   0.72365885   -8.0552575    692.80751  0.017000577  0.016338606            1 
 3397000    0.7050529   -8.0300452    692.60271  0.016990548  0.016333395            4 
 3398000    0.7117672   -8.0187633    693.47189  0.017006864  0.016328182            3 
 3399000   0.70005338   -8.0488613    694.30148    0.0170222  0.016322978            5 
 3400000   0.73661575   -8.0087817    693.19641  0.016990108  0.016317756            5 
 3401000   0.72375885   -8.0309013    691.84852  0.016952086  0.016312515            2 
 3402000   0.71496087   -8.0362704    693.34734  0.016983817  0.016307269            2 
 3403000   0.71718728   -8.0464289    693.57369  0.016984369  0.016302037            3 
 3404000   0.70718062   -8.0497796     691.7251  0.016934124  0.016296807            4 
 3405000   0.70159373   -8.0376342    693.88927  0.016982116    0.0162916            1 
 3406000   0.70887594    -8.047298    693.65142  0.016971311  0.016286383            6 
 3407000   0.71735707   -8.0081707    692.58446  0.016940232  0.016281184            2 
 3408000   0.70361337   -8.0174007    693.62531  0.016960713   0.01627599            2 
 3409000   0.71763974   -8.0386484    692.45262  0.016927071  0.016270809            3 
 3410000   0.71655876   -8.0052522    694.14299  0.016963416  0.016265636            3 
 3411000   0.71060818    -8.018423    694.25201  0.016961106  0.016260462            2 
 3412000   0.71681433   -8.0505561    693.26341   0.01693199  0.016255273            5 
 3413000   0.71032127   -8.0062108    693.64266  0.016936289  0.016250106            2 
 3414000   0.71390763   -8.0077871    693.32837  0.016923657  0.016244953            2 
 3415000   0.71491287   -8.0160757    693.97769  0.016934546  0.016239788            4 
 3416000   0.70476243    -8.020699    692.98289   0.01690532  0.016234606            3 
 3417000   0.71782147   -8.0186488    693.17861  0.016905146  0.016229425            3 
 3418000    0.7049605   -8.0375762    693.24337  0.016901779  0.016224257            2 
 3419000   0.71327555   -8.0094488    694.00383  0.016915371   0.01621909            2 
 3420000   0.70226791   -8.0282436    693.88247  0.016907468  0.016213916            3 
 3421000   0.70088045   -8.0139835     694.7823  0.016924444  0.016208744            6 
 3422000   0.69216543   -8.0152784    693.97986  0.016899958  0.016203588            2 
 3423000   0.69967612   -8.0118046    694.45388   0.01690656  0.016198428            3 
 3424000   0.71480075   -8.0369666    693.95711  0.016889532  0.016193277            2 
 3425000   0.70094394   -8.0167992    694.28366  0.016892546  0.016188128            3 
 3426000   0.70019576   -8.0414355    694.52356  0.016893451  0.016182974            2 
 3427000   0.69487112   -8.0087977    695.59663  0.016914615  0.016177855            2 
 3428000   0.71661117   -8.0216464    694.89279  0.016892571  0.016172727            5 
 3429000   0.71234458   -8.0288054    693.17093  0.016845799  0.016167596            3 
 3430000   0.70898011   -8.0253821    694.89724  0.016882829  0.016162463            1 
 3431000   0.70721023   -8.0245711    694.69358  0.016872962   0.01615733            2 
 3432000   0.70849464   -8.0210688    693.91263  0.016849083  0.016152209            1 
 3433000    0.6942823   -8.0231845    693.80756  0.016841624  0.016147074            2 
 3434000    0.7001295   -8.0550252     693.3536  0.016825704  0.016141936            1 
 3435000   0.71570581   -8.0273197    694.07485  0.016838303  0.016136807            2 
 3436000   0.69968275   -8.0191324    693.82394  0.016827317   0.01613168            2 
 3437000   0.71326845   -8.0375392    692.94838  0.016801192  0.016126559            4 
 3438000   0.71927062   -8.0527552     694.4785  0.016833394  0.016121416            6 
 3439000   0.71246332   -8.0473605    693.79325  0.016811894  0.016116289            4 
 3440000   0.69807983    -8.052055    694.50526  0.016824255  0.016111168            4 
 3441000   0.71370233   -8.0325026    693.59456  0.016797311  0.016106052            3 
 3442000   0.69961677   -8.0476123    695.37054  0.016835428  0.016100925            3 
 3443000   0.71572372   -8.0338942      695.742  0.016839529    0.0160958            4 
 3444000   0.70148186   -8.0539678    694.63157  0.016807771  0.016090689            1 
 3445000   0.69886922   -8.0353098     695.9526  0.016834848  0.016085576            5 
 3446000   0.68436417   -8.0583665    693.97041  0.016782028  0.016080457            3 
 3447000   0.68963902   -8.0359948    695.73927  0.016819922   0.01607534            2 
 3448000   0.70573036    -8.032746    695.56197  0.016810759  0.016070242            3 
 3449000   0.69300895   -8.0510155    695.23082  0.016797884  0.016065131            4 
 3450000   0.70520612   -8.0396264    694.75195  0.016781448  0.016060024            4 
 3451000   0.70653104   -8.0333816    694.92696  0.016780811  0.016054909            5 
 3452000   0.67589192   -8.0354403    696.15108  0.016805501   0.01604981            3 
 3453000   0.68962687   -8.0056881    695.94731  0.016795717  0.016044724            5 
 3454000   0.70366266   -8.0446702    695.44452  0.016778723  0.016039626            3 
 3455000   0.68882234   -8.0217835     693.9407  0.016737595  0.016034538            2 
 3456000   0.70334611   -8.0357827    695.46455  0.016769496  0.016029445            2 
 3457000   0.71686372   -8.0328425    694.84135  0.016749623  0.016024361            3 
 3458000   0.71940961   -8.0449893      694.505  0.016736673  0.016019271            3 
 3459000   0.72057649   -8.0447888    694.51368  0.016732044  0.016014177            2 
 3460000    0.7060283   -8.0268081    694.91413  0.016736853  0.016009088            1 
 3461000   0.69096365   -8.0374883    694.77647  0.016728702  0.016004001            3 
 3462000   0.67842636   -8.0737937    694.87655  0.016726279  0.015998907            2 
 3463000   0.67824628    -8.042787    694.58397  0.016714409  0.015993813            8 
 3464000   0.69647914   -8.0336949      694.896   0.01671709  0.015988723            4 
 3465000   0.69464208   -8.0530238    694.80745  0.016710136  0.015983623            3 
 3466000   0.68593784   -8.0681532    695.69587  0.016726675  0.015978522            3 
 3467000   0.69759762   -8.0320487    695.36418  0.016713878  0.015973425            4 
 3468000   0.69472959    -8.065174    694.45801  0.016687284  0.015968328            2 
 3469000   0.70170576   -8.0563597    694.39046  0.016680851  0.015963219            3 
 3470000   0.69941905   -8.0441403    693.44819  0.016653415  0.015958106            3 
 3471000   0.68382239   -8.0635006    695.97691  0.016709328     0.015953            3 
 3472000   0.70667179   -8.0525422    694.66381  0.016672998  0.015947898            3 
 3473000   0.69379636   -8.0803049    693.69625  0.016644982  0.015942793            4 
 3474000   0.69622204   -8.0823526    694.21792  0.016652704  0.015937689            3 
 3475000   0.69157151   -8.0551652    694.65593  0.016658416  0.015932572            2 
 3476000   0.69424654   -8.0646415    694.06457  0.016639446   0.01592746            2 
 3477000   0.70248875   -8.0838361     693.3572  0.016617707  0.015922347            4 
 3478000   0.68367594   -8.0678185    692.88995  0.016601733  0.015917231            2 
 3479000   0.69057679   -8.0629845    693.76587  0.016617943  0.015912111            1 
 3480000   0.70876935   -8.0385745    694.05329   0.01662005  0.015907016            3 
 3481000   0.68757661   -8.0868364    694.23027  0.016619512  0.015901923            3 
 3482000   0.69620827   -8.0634466    695.39898   0.01664271  0.015896814            2 
 3483000   0.70107346    -8.076027    693.25198  0.016586563  0.015891715            4 
 3484000   0.69302868   -8.0816425    693.63921  0.016591064  0.015886607            2 
 3485000   0.68755835   -8.0664236    694.03357  0.016595733  0.015881526            6 
 3486000   0.69446084   -8.0701642    694.14854  0.016593721  0.015876423            3 
 3487000   0.70158278   -8.0622562    694.94051  0.016607889  0.015871339            4 
 3488000   0.68708634   -8.0708697    694.69349  0.016597226  0.015866253            6 
 3489000   0.69045445   -8.0664549    694.69155  0.016592423  0.015861175            5 
 3490000   0.70561528    -8.068637    693.97804  0.016570631  0.015856102            2 
 3491000   0.70328868   -8.0756694    695.22729  0.016595705  0.015851054            4 
 3492000   0.69629465   -8.0650293    694.97448   0.01658492  0.015845998            5 
 3493000   0.69162171   -8.0442859    694.02438  0.016557505  0.015840929            2 
 3494000   0.68789859   -8.0460089    696.05298  0.016601149  0.015835851            4 
 3495000   0.67959009   -8.0859553    693.90852  0.016545268  0.015830795            5 
 3496000   0.68084678   -8.0325937    695.01046  0.016566801  0.015825735            4 
 3497000   0.69407649   -8.0213516    695.18115  0.016566132  0.015820682            5 
 3498000   0.70196358    -8.041135    695.53639  0.016569859  0.015815627            3 
 3499000   0.69246751   -8.0815262    695.16345  0.016556241  0.015810572            3 
 3500000   0.68425274   -8.0553675     695.8816  0.016568609  0.015805509            4 
 3501000   0.68832049   -8.0507995    694.72652  0.016536383  0.015800457            3 
 3502000   0.69347245   -8.0978059    694.29828  0.016521471  0.015795401            2 
 3503000   0.68792612   -8.0663389    693.97984  0.016509179  0.015790339            5 
 3504000   0.69452841    -8.053607    695.51319  0.016540934   0.01578529            3 
 3505000   0.69002748   -8.0340943    694.95893  0.016523037   0.01578024            2 
 3506000   0.68383097   -8.0793515    695.56229  0.016532665  0.015775191            4 
 3507000   0.70450553   -8.0747461    695.15902  0.016518369  0.015770147            3 
 3508000   0.69792722   -8.0579618    696.13436  0.016536829  0.015765108            1 
 3509000   0.68656998   -8.0426604    696.54265  0.016541813  0.015760086            4 
 3510000   0.68620031   -8.0575302    695.99074  0.016523997  0.015755058            2 
 3511000   0.68141312   -8.0526427    695.57016  0.016509308  0.015750028            6 
 3512000   0.69577455    -8.061901    695.45284  0.016501823  0.015744995            3 
 3513000   0.70612869   -8.1027152    693.37246  0.016447776  0.015739943            3 
 3514000   0.68377721   -8.0867941    694.35452  0.016466385  0.015734887            5 
 3515000   0.67806679   -8.0834776    695.31991  0.016484588  0.015729842            2 
 3516000   0.69914021   -8.0584345    694.47131  0.016459786  0.015724793            4 
 3517000   0.68910889   -8.0706854    696.63561  0.016506388   0.01571976            2 
 3518000   0.68548079   -8.0765365    694.81977  0.016458683   0.01571473            2 
 3519000   0.66718727   -8.0895758    695.86932  0.016478861  0.015709699            3 
 3520000   0.67939986    -8.064223    696.27391  0.016483757  0.015704651            3 
 3521000   0.67752075   -8.1092843    695.12129  0.016451796   0.01569961            1 
 3522000    0.6864987   -8.0601821    695.47048  0.016455387   0.01569457            1 
 3523000   0.67912862   -8.0924562    695.31679  0.016447081  0.015689529            2 
 3524000   0.69033795   -8.0953973    693.27177  0.016394054   0.01568448            1 
 3525000   0.66892251   -8.0864366    693.21954  0.016388169  0.015679425            2 
 3526000   0.68910263   -8.0977103    694.28043  0.016408594  0.015674362            3 
 3527000   0.67932863    -8.078079    693.44679  0.016384245  0.015669316            4 
 3528000   0.68791977   -8.0925185    693.73919  0.016386508  0.015664268            2 
 3529000   0.67439105   -8.1133314    691.97487  0.016340202  0.015659185            2 
 3530000   0.67632252   -8.1023305    694.82952  0.016402963   0.01565411            2 
 3531000   0.67665108   -8.0928604    694.94768  0.016401106  0.015649041            4 
 3532000    0.6908059   -8.1116296    695.14291  0.016401069  0.015643971            2 
 3533000     0.683466   -8.1006919    693.47053   0.01635698  0.015638908            2 
 3534000   0.70316605   -8.0972842    695.08515  0.016390425  0.015633858            2 
 3535000   0.69749045   -8.1018855    694.37801  0.016369119  0.015628808            3 
 3536000   0.69865331   -8.0606731    695.20291   0.01638393  0.015623779            3 
 3537000   0.67925916   -8.0999263    694.02354  0.016351511  0.015618733            5 
 3538000   0.68217466   -8.0600315    694.89119  0.016367326  0.015613695            4 
 3539000   0.69516863    -8.086078    692.86147  0.016314907  0.015608671            2 
 3540000   0.67935535   -8.0919815    693.75932  0.016331434  0.015603646            3 
 3541000   0.68154866   -8.0749303    696.39649  0.016388885  0.015598608            3 
 3542000   0.68290625   -8.0909133    694.63682  0.016342858  0.015593572            3 
 3543000   0.68025493   -8.0684728    692.94328  0.016298412  0.015588549            4 
 3544000   0.67879025   -8.0798838    693.90328  0.016316386  0.015583529            2 
 3545000   0.68803881    -8.051047    695.21909  0.016342715  0.015578509            3 
 3546000   0.66820194   -8.0797769    693.11307  0.016288613  0.015573485            3 
 3547000   0.68571381   -8.0906439    694.60601  0.016319096  0.015568462            2 
 3548000   0.69610298   -8.0763054    694.06571  0.016301806  0.015563437            2 
 3549000   0.68556367   -8.0582224     695.5425  0.016331889  0.015558408            3 
 3550000   0.66465029   -8.0892776    693.79666  0.016286307  0.015553396            5 
 3551000   0.69304296   -8.0943638    695.76385  0.016327885  0.015548381            4 
 3552000    0.6854034   -8.0914182    693.58714  0.016272221  0.015543359            4 
 3553000   0.68010832   -8.0787057    694.97256  0.016300135  0.015538332            2 
 3554000   0.68228791   -8.1004321    693.83311  0.016268831  0.015533315            3 
 3555000   0.69937743   -8.0822235    694.11251  0.016270804  0.015528298            2 
 3556000   0.70140986   -8.0745825    694.24209  0.016269265  0.015523285            3 
 3557000   0.67878865    -8.111353    695.70328  0.016298924  0.015518278            2 
 3558000   0.69025563   -8.0928432    694.33216   0.01626223   0.01551327            2 
 3559000   0.67360702   -8.0781094    695.65224   0.01628857  0.015508267            5 
 3560000    0.6798299   -8.0885453    695.72609  0.016285723  0.015503264            4 
 3561000   0.68693771   -8.1083545    694.61728  0.016255202  0.015498247            3 
 3562000   0.67651613   -8.0924281    693.89303  0.016233694  0.015493248            4 
 3563000   0.66343777   -8.0908332    693.77308  0.016226333  0.015488244            2 
 3564000   0.66986015   -8.0936907    693.89889  0.016224722   0.01548325            3 
 3565000   0.68765704   -8.0719379    695.18383  0.016250206  0.015478255            1 
 3566000   0.68631979   -8.0857729    694.47606   0.01622911  0.015473249            2 
 3567000   0.67151055   -8.0802894    694.53197  0.016225866  0.015468251            4 
 3568000   0.66768093   -8.1036522    694.94026  0.016230854  0.015463239            3 
 3569000   0.68912052   -8.1134036    693.90987  0.016202248  0.015458235            3 
 3570000   0.67354601   -8.0803803    692.68687  0.016169161  0.015453234            3 
 3571000   0.67414377   -8.1213917    693.80401  0.016190703  0.015448225            2 
 3572000    0.6804761   -8.1107895    694.32322  0.016198283  0.015443208            2 
 3573000    0.6683039   -8.0988301     693.6675  0.016178457  0.015438204            2 
 3574000   0.69721236   -8.0999629    693.80147  0.016177054  0.015433199            6 
 3575000   0.66426792   -8.1032416    693.61809  0.016168254  0.015428194            2 
 3576000   0.69389658   -8.1093092     693.8096  0.016168195  0.015423188            4 
 3577000   0.69566451   -8.1191353    694.32468  0.016175675  0.015418185            4 
 3578000   0.67296574   -8.0685425    695.88838  0.016207574  0.015413201            3 
 3579000   0.67574867   -8.0958788    694.06047  0.016160484  0.015408227            2 
 3580000   0.68414955   -8.1086292    693.51006  0.016143158  0.015403242            4 
 3581000   0.67595699   -8.1151896    695.72249  0.016190135  0.015398247            4 
 3582000   0.68018787   -8.0864812    694.54647  0.016158256  0.015393263            3 
 3583000   0.68403245   -8.0978131    694.35902  0.016149386  0.015388295            4 
 3584000   0.68669235   -8.0980412    694.25079  0.016142364  0.015383329            2 
 3585000   0.68330836   -8.1128993    693.34819   0.01611688  0.015378358            2 
 3586000   0.66658034   -8.1023752    694.89269  0.016148278   0.01537338            3 
 3587000   0.68438968      -8.1065    695.81688  0.016165247  0.015368405            3 
 3588000   0.68267979   -8.1005072    695.68779  0.016157743  0.015363435            2 
 3589000   0.67355708   -8.0903035    694.98682  0.016136965   0.01535846            3 
 3590000   0.67677257   -8.0984428    694.82265  0.016128659  0.015353498            1 
 3591000   0.67191977   -8.1237991    694.29221  0.016111859  0.015348529            2 
 3592000   0.70012815   -8.0972668    694.37565  0.016109309  0.015343552            3 
 3593000   0.67329751   -8.0988756    695.11577  0.016121991  0.015338574            4 
 3594000   0.68520029   -8.1115617    694.52739  0.016103863  0.015333604            4 
 3595000   0.68909901   -8.0969234    696.43098  0.016143509  0.015328638            4 
 3596000   0.67299247   -8.1178085    693.61528  0.016073769  0.015323666            3 
 3597000   0.66890495   -8.0913281    695.42087  0.016111131  0.015318691            3 
 3598000   0.66697853   -8.1017411    695.36961  0.016105466  0.015313728            2 
 3599000   0.66912577     -8.09136    695.35017  0.016100541  0.015308766            2 
 3600000   0.66512652   -8.0614648    694.10815  0.016067318  0.015303808            1 
 3601000   0.68647557    -8.105281     693.9058  0.016058174  0.015298826            3 
 3602000   0.66471566   -8.1199318    693.39369  0.016041868  0.015293832            4 
 3603000   0.68775675   -8.1180546    694.81206  0.016070221  0.015288846            4 
 3604000   0.68251119   -8.1170373    693.24721  0.016029579  0.015283859            5 
 3605000   0.66808097   -8.1215738    693.71675  0.016035986  0.015278867            1 
 3606000   0.66092365   -8.0988073    692.60537  0.016005855  0.015273884            3 
 3607000   0.67446942    -8.131473     694.3532  0.016041798  0.015268903            1 
 3608000   0.67033951   -8.1082903    694.15211  0.016032708  0.015263917            4 
 3609000   0.65071223   -8.1136803     695.6427  0.016062684  0.015258942            2 
 3610000   0.66801142   -8.1198145    693.97789  0.016019804  0.015253977            3 
 3611000   0.66696849    -8.115859     693.8629  0.016012714   0.01524902            3 
 3612000   0.66583432   -8.1129332    693.80777  0.016007008  0.015244059            5 
 3613000   0.66873692   -8.1042963    695.05576  0.016031363    0.0152391            4 
 3614000   0.68252453    -8.108015    695.67753  0.016041264  0.015234144            8 
 3615000    0.6743313   -8.1246061     694.2528  0.016003983  0.015229185            2 
 3616000   0.68536173   -8.0996191    692.86375  0.015967546   0.01522423            5 
 3617000   0.68411074   -8.1058971    695.04272  0.016013333  0.015219275            2 
 3618000   0.67809217   -8.1196211    693.17569  0.015965904  0.015214317            3 
 3619000   0.68812271   -8.1305644    694.58129  0.015993858  0.015209347            8 
 3620000    0.6753408   -8.1241201    694.41461  0.015985603   0.01520437            3 
 3621000   0.66803021   -8.1101746    694.67239  0.015987121    0.0151994            3 
 3622000    0.6782657   -8.0884422    693.67184  0.015959687  0.015194435            5 
 3623000   0.66276948   -8.1403433    694.03463  0.015963627  0.015189474            1 
 3624000   0.65778836   -8.1282604    695.46298  0.015992066  0.015184509            1 
 3625000   0.66130044    -8.108111    695.63443  0.015991596  0.015179554            4 
 3626000    0.6858999   -8.1092099    695.66915  0.015987984  0.015174607            4 
 3627000   0.67073824   -8.1238844    694.51139  0.015956975  0.015169655            4 
 3628000   0.66200199   -8.0839663    694.16081  0.015944524  0.015164696            3 
 3629000   0.67479577   -8.0980946     694.6598  0.015951589  0.015159742            4 
 3630000   0.65614068   -8.1094809    695.40923  0.015964399  0.015154798            2 
 3631000   0.67135284   -8.0757737    693.19619  0.015909212  0.015149845            3 
 3632000   0.67101882   -8.1097383    694.29476  0.015930038  0.015144905            4 
 3633000   0.65224644   -8.1039068     693.0511  0.015897126  0.015139971            3 
 3634000   0.65813324    -8.098263    694.72275  0.015931085  0.015135033            5 
 3635000   0.66821091   -8.0836178     693.7046  0.015903361    0.0151301            5 
 3636000    0.6759589   -8.1188285     693.6392  0.015897488  0.015125149            6 
 3637000   0.66606159   -8.1176237    693.59926  0.015892202  0.015120208            3 
 3638000   0.68091564    -8.113194    694.38598  0.015905854  0.015115277            2 
 3639000   0.67935527   -8.1180782    694.50219  0.015904145   0.01511034           12 
 3640000    0.6623381   -8.1317145    692.50552  0.015854064  0.015105388            3 
 3641000   0.67155215   -8.1314239    694.70845  0.015900129  0.015100447            4 
 3642000   0.66429549   -8.1320383    693.20152  0.015861283  0.015095514           10 
 3643000   0.67872577   -8.1232182    695.05834  0.015899404   0.01509059            2 
 3644000   0.67725098   -8.1027424    694.26806  0.015876968  0.015085661            4 
 3645000   0.66968491   -8.1065643    694.11858  0.015869195  0.015080729            2 
 3646000    0.6644853   -8.1298323    694.78369  0.015880044  0.015075806            8 
 3647000   0.66932806    -8.111218    694.38857  0.015866661  0.015070878            1 
 3648000   0.66166963   -8.1274559    694.24948  0.015859135  0.015065973            2 
 3649000   0.65715962   -8.1404937    694.45074  0.015859385  0.015061061            3 
 3650000   0.66299638    -8.110495    694.49467  0.015856043  0.015056141            8 
 3651000   0.66243143   -8.1205776    694.03043  0.015841104  0.015051227            8 
 3652000    0.6748171   -8.1123312    695.48456  0.015869947  0.015046331            2 
 3653000   0.66137042   -8.1003673    695.34651  0.015862453  0.015041427            2 
 3654000   0.68218467   -8.1058236    694.46424  0.015837991  0.015036532            3 
 3655000    0.6483938   -8.1328369    695.56739   0.01585881  0.015031638            3 
 3656000   0.66898556   -8.1196191    694.45126  0.015829031  0.015026749            4 
 3657000   0.66546253   -8.1112823    693.40811  0.015800932  0.015021867            3 
 3658000   0.66778643   -8.1317473    695.89738  0.015853321  0.015016972            2 
 3659000   0.66994971   -8.1034608    697.28263  0.015880537  0.015012087            4 
 3660000    0.6528315   -8.1239937    693.75291  0.015795831  0.015007198            3 
 3661000   0.66275343   -8.0892908    695.50865  0.015831482  0.015002313            5 
 3662000   0.65895547   -8.1190961    694.10078  0.015795121  0.014997425            2 
 3663000   0.66559504   -8.1129056    693.81586  0.015784327  0.014992541            2 
 3664000   0.66715341   -8.1298905    695.22574  0.015812085  0.014987652            4 
 3665000   0.66441514   -8.1060607    694.99524  0.015802529  0.014982763            2 
 3666000   0.66795248   -8.1308165     694.0948  0.015777751  0.014977866            2 
 3667000   0.67072192   -8.1295736    693.94273  0.015769992  0.014972987            6 
 3668000   0.66937147   -8.1177568    694.42424  0.015776632  0.014968107            4 
 3669000   0.66693765   -8.1125432    693.36278  0.015748223  0.014963222            4 
 3670000   0.66044437   -8.1219093    693.95722   0.01575743  0.014958347            4 
 3671000   0.65702723   -8.1238102    694.62666  0.015768334  0.014953466            4 
 3672000   0.66891126   -8.1403517    694.75282  0.015766903   0.01494859            3 
 3673000   0.66013958   -8.1264103    695.70865  0.015784296  0.014943731            3 
 3674000   0.66045669   -8.1282597    694.37452   0.01574974  0.014938863            2 
 3675000   0.66026809   -8.1394997    694.00672  0.015737114     0.014934            3 
 3676000   0.66301674   -8.1273443    695.78558  0.015773159  0.014929144            2 
 3677000    0.6654597   -8.1207678    694.72754   0.01574489  0.014924278            3 
 3678000   0.68045657   -8.1129873     694.5398  0.015736356  0.014919408            3 
 3679000   0.66109427   -8.1303875    694.79728  0.015737911  0.014914537            4 
 3680000   0.66145001   -8.1130475    695.02852   0.01573887  0.014909682            2 
 3681000   0.67103515   -8.1315442    693.79112  0.015706582   0.01490483            3 
 3682000   0.65370317    -8.140117    695.66802  0.015744795  0.014899974            2 
 3683000    0.6587177   -8.1461533    693.65205  0.015694906  0.014895105            3 
 3684000   0.65773768   -8.1438805    694.13885  0.015701657  0.014890235            2 
 3685000   0.65915941   -8.1325538    692.67294  0.015664246  0.014885364            3 
 3686000    0.6558217   -8.1631587    693.60783  0.015681132  0.014880487            3 
 3687000   0.66654741   -8.1272583    694.30727  0.015692688  0.014875602            4 
 3688000   0.64614099   -8.1375795    694.88786  0.015701551  0.014870722            2 
 3689000   0.65429507   -8.1344837    692.79515  0.015650021  0.014865849            4 
 3690000   0.66708652   -8.1246525    695.19183  0.015699906  0.014860975            3 
 3691000   0.65153535   -8.1426402    693.79128  0.015664031  0.014856113            2 
 3692000   0.66554985   -8.1327531    694.68773  0.015680023  0.014851237            3 
 3693000   0.66145357   -8.1387153    694.02934   0.01566092   0.01484637            2 
 3694000   0.66805865   -8.1421093    694.16493   0.01565974  0.014841509            1 
 3695000   0.65293301   -8.1701021    694.03815  0.015652642  0.014836643            3 
 3696000   0.65914665   -8.1517577    694.36742  0.015655831  0.014831765            1 
 3697000   0.65872788   -8.1313392    693.46482  0.015631251  0.014826914            2 
 3698000   0.64620016   -8.1284248    694.67921   0.01565439  0.014822063            1 
 3699000   0.66153963   -8.1527458    694.28488  0.015641274  0.014817213            1 
 3700000   0.64491324   -8.1526602    693.85752  0.015627422  0.014812352            3 
 3701000   0.66163898   -8.1352577    692.99088  0.015603685  0.014807486            2 
 3702000   0.66644599   -8.1567517    693.33941  0.015607316  0.014802617            4 
 3703000   0.65340772   -8.1374883    693.93645  0.015616537  0.014797741            2 
 3704000   0.65727753   -8.1418678    693.68594  0.015606685  0.014792867            2 
 3705000   0.64000264   -8.1574745    693.19378  0.015591403  0.014787996            3 
 3706000   0.66409527   -8.1624777    693.07218  0.015584462  0.014783125            2 
 3707000   0.65672872   -8.1671908    694.03844  0.015601979  0.014778272            2 
 3708000   0.67180244   -8.1448014    692.97601  0.015573894  0.014773403            3 
 3709000   0.64689503    -8.164951    695.02033  0.015615627  0.014768551            1 
 3710000   0.64408967   -8.1419058    694.62166  0.015602463  0.014763692            2 
 3711000   0.65320705   -8.1536318    693.94683  0.015583105  0.014758841            2 
 3712000   0.65249376   -8.1628267    693.58489  0.015570781   0.01475399            4 
 3713000   0.66983959   -8.1758132    692.35852  0.015539064  0.014749121            3 
 3714000   0.66414504   -8.1662505    692.84603  0.015545818   0.01474425            2 
 3715000   0.65762161   -8.1588867    693.03684  0.015545914  0.014739376            2 
 3716000   0.67741177   -8.1556685    693.26072  0.015546751   0.01473452            2 
 3717000   0.65743605   -8.1421074    692.76706  0.015531501   0.01472966            3 
 3718000   0.65599379   -8.1739443    692.97015  0.015531875  0.014724799            2 
 3719000   0.64542415   -8.1700529    693.62822  0.015542445  0.014719933            3 
 3720000   0.66364965   -8.1893605    693.09571  0.015526338  0.014715063            3 
 3721000   0.66432749   -8.1695027    692.62493  0.015511622   0.01471019            3 
 3722000   0.64871742   -8.1502822    692.28002  0.015499732  0.014705333            2 
 3723000   0.64743348   -8.1488256    694.30616   0.01554092  0.014700482            2 
 3724000   0.65646562   -8.1547689    692.79184  0.015502861  0.014695628            3 
 3725000   0.66277223   -8.1562579    692.83343  0.015499629  0.014690775            3 
 3726000   0.64469451   -8.1518742    692.48768  0.015487737  0.014685916            1 
 3727000   0.64719058   -8.1560184    692.27795  0.015478892  0.014681069            1 
 3728000   0.65756998   -8.1691324    694.15057  0.015516599  0.014676207            2 
 3729000   0.65590452   -8.1618129    692.46455   0.01547476   0.01467135            1 
 3730000   0.64558832   -8.1619976    692.34105  0.015467852  0.014666497            2 
 3731000   0.65574906   -8.1530028    693.40619  0.015487496  0.014661646            4 
 3732000   0.66457375   -8.1640261    692.09929  0.015454164  0.014656805            4 
 3733000   0.63224512   -8.1710899    692.62284  0.015461712  0.014651965            3 
 3734000   0.64417121   -8.1480221    694.03404  0.015489065  0.014647121            4 
 3735000    0.6649721   -8.1589412    693.28541  0.015468215  0.014642288            3 
 3736000   0.65709475   -8.1767701    693.77305  0.015474952  0.014637445            2 
 3737000   0.64465554   -8.1566467    692.34627  0.015438995  0.014632608            7 
 3738000   0.65816352   -8.1601406    694.61345  0.015485408  0.014627777            2 
 3739000   0.64851406   -8.1599224    693.90957  0.015465578  0.014622949            4 
 3740000    0.6386231   -8.1417144    692.64001  0.015433155  0.014618123            2 
 3741000   0.67596108   -8.1462345    694.58951  0.015472456  0.014613302            2 
 3742000   0.64514397   -8.1643998    694.13186   0.01545813  0.014608491            4 
 3743000   0.64850392   -8.1664927    692.16972  0.015410315  0.014603671            2 
 3744000   0.65849141   -8.1676829    693.91476   0.01544504  0.014598852            3 
 3745000   0.65352948   -8.1637744    693.42716  0.015430066  0.014594033            3 
 3746000   0.64639982   -8.1340356     693.3275   0.01542373  0.014589228            3 
 3747000   0.66917459   -8.1410685    693.60513  0.015425788  0.014584413            2 
 3748000   0.64191554   -8.1563024    693.12853  0.015411075  0.014579606            2 
 3749000   0.65583646   -8.1414059    695.52217  0.015460171  0.014574805            4 
 3750000   0.66200234   -8.1425276    695.63574  0.015458572  0.014570011            2 
 3751000    0.6568427    -8.169808    692.90802  0.015393851  0.014565204            3 
 3752000      0.65781    -8.146352    693.56166  0.015404266  0.014560392            5 
 3753000   0.64512753   -8.1556348    692.62088  0.015379272  0.014555584            2 
 3754000   0.66004797   -8.1799979    693.38727  0.015392188  0.014550775            3 
 3755000   0.64939834   -8.1795474    693.24023  0.015384825  0.014545975            4 
 3756000   0.66265642   -8.1722374     694.3404  0.015405138  0.014541181            3 
 3757000   0.65529254    -8.152537    693.92558  0.015391837  0.014536383            3 
 3758000   0.63672149   -8.1732671    691.31873  0.015329934   0.01453158            3 
 3759000     0.658128   -8.1579428    694.38599  0.015393854   0.01452679            4 
 3760000   0.65474175   -8.1555712    693.67857  0.015374082  0.014521998            3 
 3761000    0.6581509   -8.1507587    694.04609  0.015378137  0.014517209            4 
 3762000   0.65049818   -8.1601305    693.48309  0.015361578  0.014512421            3 
 3763000   0.65625952   -8.1722637    693.62767  0.015360698  0.014507621            2 
 3764000   0.64287724   -8.1551929    693.89602  0.015362558  0.014502833            8 
 3765000    0.6342154   -8.1629318    693.17207  0.015342454   0.01449804            4 
 3766000   0.65387774   -8.1641832     692.1843  0.015316523   0.01449325            4 
 3767000   0.64844687   -8.1863749    692.19772  0.015312754  0.014488458            3 
 3768000   0.66072172   -8.1716472     693.3537  0.015334256  0.014483663            4 
 3769000    0.6446719   -8.1718416    692.49261  0.015311148  0.014478873            3 
 3770000   0.64931048   -8.1685654    693.87331  0.015337606  0.014474081            2 
 3771000   0.65377187   -8.1827597    693.01287  0.015314525   0.01446929            5 
 3772000   0.64436538   -8.1766456    693.09358  0.015312248  0.014464502            3 
 3773000   0.64292088   -8.1644222    692.69135  0.015299305  0.014459715            3 
 3774000   0.64506064   -8.1993535     694.3713  0.015332346  0.014454922            4 
 3775000   0.65812759   -8.1937141    692.47625  0.015286451  0.014450128            2 
 3776000   0.64688981   -8.1652325    693.81992  0.015312057  0.014445341            4 
 3777000   0.64457724   -8.1520626    693.59731  0.015303091  0.014440557            3 
 3778000   0.65571383   -8.1842736     693.9216  0.015306194  0.014435779            3 
 3779000   0.65048274    -8.186346    693.57339  0.015294465  0.014430996            1 
 3780000    0.6498311   -8.1532729    693.73953  0.015294081  0.014426217            3 
 3781000     0.640288   -8.1609874    694.35013  0.015303494   0.01442144            2 
 3782000   0.64391327   -8.1616181    693.27371   0.01527573  0.014416669            3 
 3783000   0.64211316   -8.1677894    693.04841  0.015266729  0.014411897            7 
 3784000   0.65317355   -8.1576918    692.95922   0.01526073  0.014407119            2 
 3785000   0.64914981   -8.1738565    693.58759  0.015270533  0.014402341            3 
 3786000   0.65912686   -8.1972707    691.57655  0.015222234  0.014397573            6 
 3787000   0.66502684   -8.1730846    692.99034  0.015249325  0.014392792            1 
 3788000   0.63378859   -8.1624346    693.75246  0.015262066  0.014388026            3 
 3789000   0.66875642   -8.1810332    693.32675  0.015248675  0.014383263            3 
 3790000   0.64491644   -8.1680784    692.62981  0.015229327  0.014378503            5 
 3791000   0.64550369   -8.1805248    691.46482  0.015199701  0.014373738            2 
 3792000   0.63723956   -8.1842865     692.9622    0.0152286   0.01436897            5 
 3793000   0.64855877   -8.2063734    692.54799  0.015215484  0.014364207            5 
 3794000    0.6384256   -8.2100578    691.26357  0.015183262  0.014359437            5 
 3795000   0.64948477   -8.1982942    691.24645  0.015178886  0.014354656            5 
 3796000   0.64181442   -8.1894875    692.19481  0.015195706  0.014349868            7 
 3797000   0.62711688   -8.1972889    692.57732  0.015200099  0.014345091            1 
 3798000    0.6558431   -8.1959715    693.10252  0.015207621  0.014340311            2 
 3799000    0.6416352   -8.1817451    692.94954  0.015200262  0.014335541            2 
 3800000   0.63271095   -8.2034189    692.81722   0.01519336  0.014330773            3 
 3801000   0.64546671   -8.1874473    691.28052  0.015155672  0.014325998            2 
 3802000   0.64034645   -8.2063176    691.85573  0.015164294  0.014321224            3 
 3803000   0.64657408   -8.1907261    691.70634  0.015157033  0.014316447            2 
 3804000   0.63397425   -8.1983253    692.35097   0.01516717  0.014311676            5 
 3805000   0.63846028   -8.1739651    692.97347  0.015176817   0.01430691            1 
 3806000   0.63716443   -8.1937587    692.02187  0.015151994  0.014302151            3 
 3807000   0.65113243   -8.1867655    692.26859  0.015153414  0.014297392            3 
 3808000   0.65001927   -8.1888908    692.78706  0.015160781  0.014292632            3 
 3809000   0.64997648   -8.2041419    691.73165  0.015133711  0.014287873            3 
 3810000   0.63768021   -8.1872173    691.53741   0.01512549  0.014283116            3 
 3811000   0.64573219   -8.1976965    692.47994  0.015142131  0.014278367            3 
 3812000   0.64281186     -8.21576    692.98892  0.015149285  0.014273608            3 
 3813000   0.62240376   -8.1956309    693.37883  0.015153834  0.014268848            6 
 3814000   0.63878431   -8.2111917    691.31198  0.015104702  0.014264086            2 
 3815000   0.64181011   -8.1997564    692.91174  0.015135687  0.014259326            1 
 3816000    0.6381473   -8.2065373    692.15305  0.015115152  0.014254576            2 
 3817000   0.63783732   -8.1818467    692.62267  0.015121445  0.014249824            2 
 3818000    0.6380077   -8.1896506    692.10484  0.015106182  0.014245073            2 
 3819000   0.61335029   -8.1973239    692.09475  0.015102006  0.014240312            2 
 3820000   0.64591641   -8.2198379    691.35673  0.015081953  0.014235559            2 
 3821000   0.63547726    -8.194895      692.869  0.015110988    0.0142308            3 
 3822000   0.64238426   -8.2066981    692.57076  0.015100531  0.014226045            4 
 3823000   0.65677926   -8.2106626    691.86863  0.015081276  0.014221291            2 
 3824000   0.63619892   -8.2120199    692.60454   0.01509337  0.014216552            4 
 3825000    0.6355151    -8.223653    690.89105  0.015052093  0.014211808            2 
 3826000   0.64912713   -8.1947099    690.76353  0.015045381  0.014207063            8 
 3827000   0.63877526   -8.2027072    691.41622  0.015055662   0.01420232            4 
 3828000   0.63939072   -8.2384276    690.67926  0.015035686  0.014197561            2 
 3829000   0.62458033   -8.2147252    692.59906  0.015073541  0.014192811            3 
 3830000   0.64274693   -8.1997793    691.17229  0.015038562  0.014188058            3 
 3831000   0.64040404   -8.2112637    691.86678  0.015049743  0.014183318            4 
 3832000   0.61948774   -8.2221939     690.9892  0.015026731  0.014178579            1 
 3833000   0.64393179   -8.2102279    691.79516  0.015040333  0.014173844            3 
 3834000   0.64285376   -8.2087039    692.17837  0.015044739  0.014169104            2 
 3835000   0.63679356    -8.225262     692.6339  0.015050715  0.014164368            5 
 3836000   0.62592596   -8.1879374    690.84439  0.015007916  0.014159627            3 
 3837000   0.63696719   -8.2146502    692.08718  0.015030996  0.014154886            2 
 3838000   0.64033461   -8.2194649    691.29372  0.015009851  0.014150154            2 
 3839000   0.64486998   -8.2123838    691.79113  0.015016739   0.01414542            4 
 3840000   0.64635279     -8.20032    691.52435  0.015007039  0.014140685            1 
 3841000   0.62717203   -8.2185101    692.83444  0.015031555  0.014135961            3 
 3842000    0.6309031   -8.1920793    692.53295  0.015021103  0.014131244            2 
 3843000   0.62325668   -8.1973773    692.21548   0.01501031  0.014126533            2 
 3844000   0.64191174   -8.2126603    693.29944  0.015029905  0.014121824            2 
 3845000   0.63876789   -8.2184201    692.88687  0.015017054  0.014117113            2 
 3846000    0.6247164   -8.2369899    692.00685  0.014994081  0.014112401            4 
 3847000   0.64887632   -8.2096706    692.53993  0.015001732  0.014107691            4 
 3848000   0.63953692    -8.203447    691.05226  0.014965615  0.014102984            1 
 3849000   0.63214166   -8.2017327    692.66761  0.014996701  0.014098274            3 
 3850000   0.62982661   -8.2132403    691.79415  0.014973899  0.014093562            5 
 3851000   0.63665232   -8.2032216    692.13222  0.014977327  0.014088855            1 
 3852000   0.62264385   -8.2375499    692.85929  0.014989168  0.014084154            3 
 3853000   0.63542302   -8.1988643    693.09538  0.014990384  0.014079458            2 
 3854000   0.63700121    -8.233898     692.0573  0.014964048  0.014074763            3 
 3855000   0.64481423   -8.1971315    692.64967  0.014972972  0.014070068            1 
 3856000   0.63896142   -8.2303209    692.46893  0.014965183  0.014065371            3 
 3857000   0.63489011   -8.2094224    691.44384  0.014939155  0.014060675            3 
 3858000   0.63132986   -8.1899142    692.76397  0.014963797  0.014055988            2 
 3859000   0.61623778   -8.1930686    692.34119   0.01495079  0.014051299            2 
 3860000   0.63686661   -8.2110592    692.17954  0.014943427  0.014046615            2 
 3861000   0.63459521   -8.1786197    689.94589  0.014891347  0.014041937            6 
 3862000     0.632163   -8.1897738    692.24012  0.014936996   0.01403725            3 
 3863000   0.63886286   -8.2173023     692.9017    0.0149474   0.01403256            3 
 3864000   0.62571799   -8.2196324    692.93984  0.014944355  0.014027879            4 
 3865000   0.64203704   -8.2327984    691.12209  0.014901296    0.0140232            3 
 3866000   0.63229474   -8.2519984    691.06768  0.014896268  0.014018513            4 
 3867000   0.63075496    -8.230467    691.82644  0.014908767  0.014013827            2 
 3868000   0.63795013   -8.2181033    692.47455  0.014918876  0.014009147            1 
 3869000    0.6334226   -8.2057448    691.99422  0.014904674  0.014004472            3 
 3870000   0.62750559   -8.2292167     691.7867  0.014896354  0.013999804            4 
 3871000   0.64035456   -8.2371593    691.18656  0.014879587  0.013995128            2 
 3872000   0.64388381   -8.2566577    690.61267  0.014863392  0.013990454            3 
 3873000   0.61526944   -8.2361354    691.43021  0.014877145  0.013985785            2 
 3874000   0.62690467   -8.2193544    692.42453  0.014894694  0.013981116            4 
 3875000   0.62792053   -8.2155183    691.36562  0.014868078  0.013976445            5 
 3876000   0.63601857   -8.2080546    691.86098  0.014874892  0.013971784            6 
 3877000    0.6295977   -8.2298757    691.57774  0.014864967  0.013967113            5 
 3878000   0.63177434   -8.2171569    690.79862  0.014844392  0.013962446            5 
 3879000   0.62818479   -8.2073604    692.55383  0.014878273  0.013957779            6 
 3880000   0.62895984   -8.2167229    691.85269  0.014859379  0.013953116            2 
 3881000   0.62771537   -8.2278742    692.38134  0.014866902  0.013948462            4 
 3882000   0.63521451   -8.2211187    692.82545  0.014872605  0.013943819            2 
 3883000   0.64084963   -8.2262473    692.91524  0.014870702  0.013939168            4 
 3884000   0.62897184   -8.2013203    690.53151  0.014815729  0.013934513            8 
 3885000   0.64385103    -8.228535    692.28539  0.014849537  0.013929873            4 
 3886000   0.62386598    -8.226923    692.10761  0.014841903  0.013925226            5 
 3887000   0.63893561   -8.2324539    692.44854  0.014845394  0.013920589            2 
 3888000   0.63995039   -8.2224931    691.98371  0.014831612  0.013915944            3 
 3889000   0.63772266    -8.212188    692.71168  0.014843398  0.013911304            4 
 3890000   0.63384053   -8.2250881    692.02986  0.014824976  0.013906668            4 
 3891000   0.62111866   -8.2257221    692.65445  0.014834542  0.013902036            7 
 3892000   0.60801822   -8.2228136     692.9117  0.014836239  0.013897402            9 
 3893000    0.6251706   -8.2043512    691.24108  0.014796667  0.013892779           11 
 3894000   0.62373904   -8.2329622    692.25757   0.01481462   0.01388815            2 
 3895000   0.62757089   -8.2119107    691.40391  0.014792553   0.01388352            2 
 3896000   0.63401702   -8.1967389    691.86759  0.014798674  0.013878896            4 
 3897000   0.62998057   -8.2112381     692.3501  0.014805194  0.013874278            3 
 3898000   0.62524657   -8.2095948    692.32009  0.014800755  0.013869664            4 
 3899000   0.60606135    -8.220617    693.59859  0.014824284  0.013865048            5 
 3900000   0.62950994   -8.2275335    691.89049  0.014783985  0.013860432            5 
 3901000   0.62574753   -8.2140238    691.09872  0.014763281   0.01385582            4 
 3902000   0.63504715   -8.2168014    692.76914  0.014795172  0.013851206            5 
 3903000   0.62670903   -8.2317089    692.69621  0.014789824  0.013846596            2 
 3904000   0.60919531   -8.2311068    692.36033  0.014778866  0.013841987            5 
 3905000    0.6101844   -8.2579032     692.1016   0.01476956  0.013837377            3 
 3906000   0.61722961   -8.2072307    692.44574  0.014773121   0.01383277            5 
 3907000   0.63105403    -8.232408    693.32461  0.014788086   0.01382817            2 
 3908000   0.61950443   -8.2030843    692.26157  0.014761634  0.013823561            3 
 3909000   0.61567902   -8.2262206    692.27335  0.014758108  0.013818966            4 
 3910000    0.6367945   -8.2198145    692.36118  0.014756206  0.013814364            3 
 3911000   0.61867859   -8.2167175    692.11228  0.014747129  0.013809758            3 
 3912000   0.62546542   -8.2134145    692.29225  0.014747193   0.01380517            5 
 3913000   0.61811153    -8.249272    691.68962  0.014730591  0.013800574            3 
 3914000   0.62746527   -8.2282468    692.72965  0.014748971  0.013795978            5 
 3915000   0.63087343   -8.2193077    691.17186  0.014712045  0.013791386            3 
 3916000   0.62035715   -8.2394451    692.43775  0.014735226  0.013786795            3 
 3917000   0.63286606   -8.2068089    692.26032   0.01472769  0.013782206            3 
 3918000   0.61837909   -8.2185571    692.70419  0.014733371  0.013777616            2 
 3919000   0.61467629   -8.2388983    691.37516  0.014701351  0.013773027            5 
 3920000   0.63692425   -8.2100548    692.63266  0.014724334  0.013768448            2 
 3921000   0.61610402   -8.2238885    693.16948  0.014731988  0.013763867            6 
 3922000   0.62702482   -8.2440806    691.60145  0.014694914  0.013759278            3 
 3923000   0.61783454   -8.2245257    692.50546  0.014710372  0.013754706            4 
 3924000   0.62744481   -8.2543922    692.05402  0.014697036   0.01375012            2 
 3925000   0.60816224   -8.2429234    691.49996  0.014681528  0.013745538            7 
 3926000   0.62916718   -8.2394484     691.5888  0.014679674  0.013740962            3 
 3927000   0.61221683   -8.2322224    692.69725  0.014699458  0.013736391            5 
 3928000   0.60528284    -8.214944    692.80939  0.014698095   0.01373182            4 
 3929000   0.63414195   -8.2360837    692.68331   0.01469168  0.013727245            4 
 3930000    0.6203281   -8.2127223    691.68906  0.014666859  0.013722673            5 
 3931000   0.62047039   -8.2182741    692.71561   0.01468489  0.013718101            4 
 3932000   0.63237374   -8.2307343    691.90082  0.014663886  0.013713543            4 
 3933000   0.61603366   -8.2398192     692.7418  0.014677977  0.013708976            6 
 3934000   0.61596161   -8.2524313    691.34844  0.014644731  0.013704416            1 
 3935000   0.64192381    -8.224823    692.96225  0.014675185   0.01369986            2 
 3936000   0.61475767   -8.2380435    692.74459  0.014666849  0.013695295            5 
 3937000   0.62376383   -8.2222834    691.72603  0.014641563  0.013690738            2 
 3938000   0.63969823   -8.2321753    692.28954   0.01464977  0.013686189            2 
 3939000   0.62627403   -8.2529371    690.35615  0.014605148  0.013681636            4 
 3940000   0.62611356   -8.2226611    692.03658  0.014636984  0.013677069            5 
 3941000    0.6091935   -8.2529071    691.85502   0.01462943  0.013672509            3 
 3942000   0.61777337   -8.2447443    692.88442  0.014647481  0.013667955            2 
 3943000   0.61730117    -8.241317    692.76726   0.01464129  0.013663403            3 
 3944000   0.62196926   -8.2289274    692.51808  0.014632312  0.013658857            2 
 3945000   0.61960927   -8.2725652    692.97773  0.014638313  0.013654308            2 
 3946000   0.62832613   -8.2287059    692.50403  0.014624599  0.013649762            4 
 3947000   0.62308878   -8.2334454    692.39717  0.014618638  0.013645226            3 
 3948000    0.6062092   -8.2540216    691.93864  0.014605257  0.013640689            3 
 3949000   0.62488976   -8.2613502    691.16598  0.014585253  0.013636151            2 
 3950000   0.62197399   -8.2674519    691.52585  0.014589153  0.013631605            2 
 3951000   0.62543958   -8.2595244    692.17073  0.014599062   0.01362707            2 
 3952000   0.62608742   -8.2481789    692.82498  0.014609164  0.013622539            4 
 3953000   0.62636226   -8.2402905    692.46659  0.014597913  0.013618004            4 
 3954000     0.630085   -8.2429923    690.87029  0.014560578   0.01361347            3 
 3955000   0.60569027    -8.243696    691.86574  0.014577871  0.013608932            3 
 3956000   0.62369822   -8.2688076    691.60494  0.014568692  0.013604398            2 
 3957000   0.61060837   -8.2401775    691.82527   0.01456965  0.013599868            3 
 3958000   0.62617266   -8.2764813    692.18571  0.014573558  0.013595343            1 
 3959000   0.61906009   -8.2511643    692.47962  0.014576063  0.013590814            5 
 3960000    0.6169297   -8.2536096    691.90953  0.014560386  0.013586284            6 
 3961000   0.61343574   -8.2392265    693.20619  0.014583989  0.013581766            4 
 3962000   0.61207301   -8.2449189    692.36945  0.014562709  0.013577249            2 
 3963000   0.62458365   -8.2653776    692.18789  0.014555217  0.013572729            3 
 3964000   0.62344451   -8.2538331     691.7987  0.014543363  0.013568218            5 
 3965000   0.62711491   -8.2705328     691.7641  0.014538968  0.013563694            5 
 3966000   0.62353924    -8.239754    691.97481  0.014539729  0.013559168            2 
 3967000   0.62164116   -8.2683919    692.33126  0.014543552  0.013554653            5 
 3968000   0.61342337   -8.2666732    691.50592  0.014522554  0.013550138            6 
 3969000   0.62348848   -8.2441608    691.97168  0.014528674  0.013545622            3 
 3970000   0.61459758   -8.2339651    691.36589  0.014512298  0.013541118            4 
 3971000   0.60772426   -8.2472843    693.38967  0.014551114  0.013536613            2 
 3972000    0.6269978   -8.2603368    693.01268  0.014539541  0.013532109            3 
 3973000    0.6182086   -8.2767179    691.88711  0.014512273  0.013527604            2 
 3974000   0.62006861    -8.270832    691.11538  0.014492438  0.013523099            5 
 3975000   0.61782654   -8.2597011    691.38326  0.014494408  0.013518595            3 
 3976000   0.62710092   -8.2762922    691.34967  0.014490058  0.013514087            3 
 3977000   0.60477654   -8.2723827     691.7887  0.014495614  0.013509576            5 
 3978000   0.62118495   -8.2594364    691.70598  0.014490238  0.013505081            4 
 3979000   0.63147718   -8.2674185    692.28483  0.014498719   0.01350059            4 
 3980000   0.60062404   -8.2754543    692.05381  0.014490239  0.013496101            3 
 3981000   0.60746791   -8.2447308    691.62442  0.014477611  0.013491607            6 
 3982000   0.62467361   -8.2690741    691.76259  0.014476866  0.013487126            4 
 3983000   0.60936764     -8.26849    691.62383  0.014470329  0.013482638            6 
 3984000   0.62245645   -8.2893139    691.92612   0.01447302  0.013478152            6 
 3985000   0.62097647   -8.2783508    692.55618  0.014482563  0.013473667            2 
 3986000   0.61110942   -8.2727636    691.06629  0.014447782  0.013469179            3 
 3987000   0.61417387   -8.2648333    692.21406  0.014468148  0.013464699            4 
 3988000   0.62226919   -8.2626422    692.29438  0.014466198  0.013460219            5 
 3989000   0.61266465   -8.2526619    691.95147  0.014455408  0.013455741            4 
 3990000   0.59993856   -8.2720989    692.44638  0.014462122  0.013451259            6 
 3991000   0.61597056   -8.2626906    692.66043  0.014462967  0.013446773            5 
 3992000   0.60715488   -8.2667016    691.69674  0.014439227  0.013442292            4 
 3993000   0.61932233   -8.2997155    692.48826   0.01445213  0.013437818            2 
 3994000   0.59934592   -8.2762826     691.3993  0.014425791  0.013433341           10 
 3995000   0.62886318   -8.2906386     692.2667  0.014440273  0.013428867            3 
 3996000   0.61870064   -8.2789397    691.88486  0.014428697  0.013424392            4 
 3997000    0.5999278   -8.2613134    690.04349  0.014386696  0.013419914            5 
 3998000   0.59013394   -8.2751958    690.90787  0.014401114  0.013415436            5 
 3999000   0.60713678    -8.288394     691.9716   0.01441968   0.01341096            3 
 4000000   0.60164591   -8.2739455    691.12651  0.014398469  0.013406487            2 
 4001000   0.61166236   -8.2595309    691.85983  0.014410144  0.013402015            3 
 4002000   0.60949345   -8.2707338    690.54666  0.014379199   0.01339754            8 
 4003000   0.60771154   -8.2577138    692.33309  0.014412797   0.01339307            4 
 4004000   0.61071425   -8.2525492    691.58271   0.01439358  0.013388605            8 
 4005000    0.6144029   -8.2693354    691.79805  0.014394466  0.013384141            4 
 4006000   0.60005882   -8.2783633    691.62657  0.014387306  0.013379671            7 
 4007000   0.61036629    -8.279949     691.7868  0.014387048  0.013375203            3 
 4008000   0.62087485   -8.2781504     690.5555  0.014357857  0.013370731            3 
 4009000   0.62522739   -8.2630292    691.90264  0.014382278  0.013366267            2 
 4010000   0.61131263    -8.266042    691.86689  0.014377949  0.013361806            6 
 4011000   0.61710509   -8.2694933    691.60834  0.014368992  0.013357345            9 
 4012000   0.61545529   -8.2681318    691.66606   0.01436661  0.013352891            2 
 4013000   0.60284018   -8.2699142    690.78778  0.014344792  0.013348439            2 
 4014000   0.62128114    -8.271659    690.50495  0.014335346  0.013343978            2 
 4015000   0.60770459   -8.2775262    691.29263  0.014348124  0.013339519            6 
 4016000   0.60437726   -8.2798287    691.66174  0.014352211   0.01333507            3 
 4017000   0.59878638   -8.2749829    691.89555  0.014353488  0.013330616            4 
 4018000   0.63050039   -8.2910696    690.26677  0.014316135  0.013326164            4 
 4019000   0.59177173    -8.262109    692.10155  0.014350617  0.013321724            4 
 4020000   0.61089751    -8.284984    691.33731  0.014331205  0.013317282            6 
 4021000   0.61932186   -8.2848683     691.4652  0.014330291  0.013312832            5 
 4022000    0.6021954   -8.2836319    689.91867  0.014294685  0.013308383            3 
 4023000   0.61612065   -8.2755823    691.08512  0.014315294  0.013303934            3 
 4024000   0.60854334   -8.2712479    691.84721  0.014327518  0.013299484            4 
 4025000   0.60457293   -8.2609589    690.42988  0.014294615  0.013295043            2 
 4026000   0.59708705   -8.2968262    691.74869  0.014318362  0.013290602            3 
 4027000   0.60407894   -8.2759621    690.43381  0.014287596  0.013286161            5 
 4028000   0.59286852   -8.2907261    691.01926  0.014296162  0.013281719            4 
 4029000   0.59616354   -8.2983598    692.10081  0.014314983  0.013277286            4 
 4030000   0.60383797   -8.2737654    692.19776  0.014313436   0.01327285            5 
 4031000   0.60823332   -8.2900504    691.31482  0.014291632  0.013268413            3 
 4032000   0.59930807   -8.2811288    691.83439  0.014298826  0.013263973            2 
 4033000   0.60733717   -8.2892187    690.53871  0.014268508  0.013259533            3 
 4034000   0.59396615   -8.2769296    690.37026  0.014261491    0.0132551            1 
 4035000   0.60921489   -8.2956449    691.17109  0.014274496  0.013250663            4 
 4036000   0.60351714   -8.3138658    690.88449  0.014265042  0.013246232            3 
 4037000   0.60457877   -8.3254804    689.37182  0.014230283  0.013241803            9 
 4038000   0.59972479   -8.3018842     690.5435  0.014250939  0.013237372            2 
 4039000   0.60740435   -8.3060086    690.78029  0.014252296  0.013232941            4 
 4040000   0.60039565   -8.2921699    690.95503  0.014252373  0.013228514            4 
 4041000   0.61682651   -8.2991033    691.97876  0.014269957  0.013224089            3 
 4042000   0.60791793   -8.2936589    690.02031   0.01422605  0.013219666            7 
 4043000   0.62132783   -8.3108661    692.17404  0.014266923  0.013215248            2 
 4044000   0.60367316   -8.2896024    690.50576  0.014229017  0.013210833            3 
 4045000   0.59708925   -8.2809867    689.46304  0.014204018  0.013206423            7 
 4046000   0.62462858   -8.2878339    690.57692   0.01422345  0.013202014            6 
 4047000   0.61965703   -8.2843282     691.4892   0.01423872  0.013197606            4 
 4048000   0.60638189   -8.2706918    691.27811  0.014230857  0.013193203            4 
 4049000   0.59623528   -8.2745872     690.6814  0.014215061  0.013188801            3 
 4050000   0.61074059   -8.3067482    690.89088  0.014215862  0.013184394            3 
 4051000   0.60451179   -8.3087132    691.45704  0.014223999  0.013179989            3 
 4052000   0.59364886     -8.27349    691.08714  0.014212881   0.01317559            6 
 4053000   0.61114969   -8.2875713    690.72917  0.014202014  0.013171193            4 
 4054000   0.60101881   -8.2905296    690.99955  0.014204069  0.013166802            4 
 4055000   0.59524684   -8.2909821    691.10978  0.014202831  0.013162404            6 
 4056000   0.60415232   -8.3019482    691.07943  0.014198706  0.013158007            1 
 4057000   0.59568628   -8.3048749    691.70586  0.014208074  0.013153613            9 
 4058000   0.60743856   -8.2942069    690.55857  0.014181012  0.013149217            3 
 4059000   0.60351448   -8.2767283    691.95057  0.014206097  0.013144823            8 
 4060000   0.59298224   -8.3178968    690.17762  0.014166207  0.013140433            4 
 4061000   0.61644108    -8.294575    691.77201  0.014195436  0.013136039            2 
 4062000   0.59740593   -8.3311276      690.524  0.014166338  0.013131646            5 
 4063000   0.59903416    -8.314004    691.11788  0.014175032  0.013127251            4 
 4064000   0.60980739      -8.2831    691.00013   0.01416913   0.01312286            4 
 4065000   0.60249974   -8.3071546    691.15941   0.01416891  0.013118479            4 
 4066000   0.60120878   -8.3019728    691.18081  0.014165863  0.013114088            4 
 4067000   0.59482998    -8.267904    691.08466   0.01416041  0.013109711            3 
 4068000   0.60329001   -8.3081515    691.43989  0.014164206  0.013105337            2 
 4069000   0.60311541   -8.3011237    691.45844  0.014161105  0.013100959            6 
 4070000   0.59237072    -8.286814    690.33782  0.014134681  0.013096582            3 
 4071000   0.59852875   -8.2936875    691.68362  0.014158757  0.013092206            4 
 4072000   0.61065204   -8.2819287    689.26416  0.014105766  0.013087839            5 
 4073000    0.5861936   -8.2895144    692.09326  0.014160186  0.013083464            3 
 4074000   0.59682786   -8.2690423    691.07629  0.014135908  0.013079088            3 
 4075000   0.60154599   -8.2864159    691.39227  0.014138901  0.013074719            4 
 4076000   0.59989857   -8.3134795    691.11074  0.014129677  0.013070351            7 
 4077000   0.59845141   -8.2870555      690.864  0.014121168  0.013065986            1 
 4078000   0.60755232   -8.2829485    690.73029  0.014114972  0.013061623            9 
 4079000   0.58091441   -8.2953094    690.86024  0.014114167  0.013057264            1 
 4080000   0.59913874   -8.3087896    691.20616  0.014117773  0.013052899            2 
 4081000   0.59494432   -8.3048725    691.15504   0.01411327  0.013048519            2 
 4082000   0.60214763   -8.2863023    689.57318  0.014077519  0.013044154            4 
 4083000   0.60896808   -8.3063525    689.77246  0.014078138  0.013039785            6 
 4084000   0.60453294   -8.3090592    690.03864  0.014080122  0.013035414            5 
 4085000   0.59680192   -8.3001229     690.8641  0.014093515  0.013031043            6 
 4086000   0.60295467   -8.3127617    691.29413  0.014098836  0.013026678            2 
 4087000    0.5938998   -8.3265618    691.58142  0.014101244  0.013022309            7 
 4088000   0.57735735   -8.3134792     690.3295  0.014072275  0.013017944            1 
 4089000   0.59183896   -8.3328492    691.25217  0.014087637  0.013013578            4 
 4090000   0.59308055   -8.2981812    690.26295  0.014064037  0.013009215            7 
 4091000   0.60325884   -8.2960426    690.40043    0.0140634  0.013004853            6 
 4092000   0.59996452   -8.3015985    690.66524  0.014065356  0.013000497            2 
 4093000   0.59512462   -8.3241633    691.25357  0.014073898  0.012996145            2 
 4094000   0.59165528   -8.3014754    690.31319  0.014051319  0.012991804            2 
 4095000   0.59474544   -8.3196049    689.81518  0.014037753  0.012987458            2 
 4096000   0.58993446   -8.3202271    690.09674  0.014040054  0.012983112            6 
 4097000   0.58888353   -8.2966854    691.09544  0.014056941  0.012978763            5 
 4098000   0.60666906   -8.3134676    690.64089  0.014044267  0.012974407            2 
 4099000   0.58988825   -8.3109622    690.10932  0.014030034  0.012970058            2 
 4100000   0.59496292   -8.3242092    691.16442  0.014048057  0.012965716            5 
 4101000   0.60239674   -8.3228289    690.89866  0.014039232  0.012961378            3 
 4102000   0.59651546   -8.3155445    691.02334  0.014038342  0.012957043            3 
 4103000   0.59856547   -8.2934678       689.57  0.014005403  0.012952716            3 
 4104000   0.59461044   -8.3378289    691.05245  0.014032092  0.012948387            5 
 4105000   0.60245395   -8.3033084    690.50253   0.01401751  0.012944056            5 
 4106000   0.58732427   -8.3136736    690.19507  0.014007856  0.012939725            3 
 4107000   0.59914796   -8.2966191    690.57234    0.0140121    0.0129354            2 
 4108000   0.59720946   -8.3199281    690.67915  0.014010856  0.012931078            4 
 4109000   0.59104486   -8.3144771     690.8742  0.014011402  0.012926753            3 
 4110000    0.5911778   -8.3135209    689.37776  0.013977651  0.012922432            2 
 4111000   0.59007433    -8.325466    690.74041  0.014001873  0.012918108            2 
 4112000   0.58905925   -8.3127688    690.32175  0.013989984   0.01291379            4 
 4113000   0.59341721   -8.3030434    691.03794  0.014001093  0.012909464            3 
 4114000   0.59740235   -8.2930769    689.10712  0.013958579   0.01290515            4 
 4115000   0.59773616   -8.3187697    690.17817  0.013976877  0.012900831            3 
 4116000   0.58543895   -8.2969907    690.68556  0.013983754  0.012896518            6 
 4117000   0.59314378   -8.3193057    690.66863  0.013980014  0.012892207            2 
 4118000    0.5991779   -8.3123934    689.39163  0.013950778  0.012887893            6 
 4119000   0.58525459   -8.3062853    689.89163  0.013957506  0.012883591            3 
 4120000   0.58716142   -8.2869435     690.1374   0.01395909  0.012879294            4 
 4121000   0.59104621   -8.3020861    689.94243   0.01395176  0.012874989            4 
 4122000   0.60476386   -8.3147139    690.79465  0.013965604  0.012870684            3 
 4123000   0.59211919   -8.2989114    689.91524  0.013944443  0.012866386            5 
 4124000   0.59031913   -8.3011766    691.62255  0.013975561   0.01286209            6 
 4125000   0.58655861   -8.3268242    690.51337  0.013949765  0.012857799            6 
 4126000   0.59156581   -8.3062992    691.17678  0.013959783  0.012853506            3 
 4127000   0.59851995   -8.3039051    690.45991  0.013941925  0.012849212            3 
 4128000   0.57999843   -8.3000869    691.06064  0.013950675  0.012844918            3 
 4129000   0.59763201   -8.3144096    690.41934  0.013934353   0.01284062            3 
 4130000   0.58584528   -8.2960294    689.47377    0.0139119  0.012836322            4 
 4131000    0.5835737   -8.3112901    688.92077  0.013897377  0.012832025            6 
 4132000     0.599222   -8.3078628    690.99284  0.013935803  0.012827725            3 
 4133000   0.59185068    -8.320777    689.89108  0.013910216  0.012823433            3 
 4134000   0.58547231   -8.3292859    690.68119  0.013922778  0.012819143            4 
 4135000   0.58363312   -8.3157329    690.72573  0.013920309  0.012814855            5 
 4136000   0.57923201   -8.3186581    691.17762  0.013926048  0.012810566            2 
 4137000   0.58926848   -8.3163569    689.73555  0.013893634  0.012806273            3 
 4138000   0.57787307   -8.3023497    691.35814  0.013922953  0.012801985            5 
 4139000   0.58373216   -8.2815595    690.32851  0.013898859  0.012797707            3 
 4140000   0.59422895   -8.3299441    690.44929  0.013897933   0.01279343            2 
 4141000    0.5931724    -8.304547    690.54529  0.013896508  0.012789149            3 
 4142000   0.58915526   -8.3201252    689.27406  0.013867577  0.012784874            2 
 4143000   0.57633317   -8.3156737    689.51165  0.013869009   0.01278059            4 
 4144000   0.60218561   -8.3340967    689.72286  0.013869909   0.01277631            3 
 4145000   0.58309063   -8.3222032    689.24441  0.013856944  0.012772033            2 
 4146000   0.59524824   -8.3156696     689.5783  0.013860313  0.012767758            5 
 4147000   0.59538244    -8.314787    690.21336  0.013869732  0.012763484            3 
 4148000   0.60292372   -8.3447549    688.79065  0.013837806  0.012759211            4 
 4149000   0.59368428   -8.3340987    689.96344  0.013858027  0.012754944            2 
 4150000   0.60203659   -8.3116877    689.17534  0.013838862  0.012750678            3 
 4151000   0.60061661   -8.3315247    689.95949  0.013851271  0.012746409            3 
 4152000   0.57594513   -8.3274428    687.93999  0.013807402  0.012742134            4 
 4153000   0.57605977   -8.3358457    690.16984  0.013848821  0.012737864            5 
 4154000   0.58215004   -8.3272304    689.62692  0.013834596  0.012733592            3 
 4155000   0.60142961   -8.3277245    689.61194  0.013830965  0.012729319            4 
 4156000   0.58303423   -8.3207398    689.50929  0.013825579  0.012725056            2 
 4157000   0.58767328   -8.3100487    690.55063  0.013843129  0.012720798            4 
 4158000   0.58922998   -8.3360261    689.37357  0.013816209  0.012716535            5 
 4159000   0.58184633     -8.33341     689.7926  0.013821283  0.012712281            1 
 4160000    0.5947911   -8.3440063    689.45682  0.013811234  0.012708021            3 
 4161000   0.58655583   -8.3257178    689.60184  0.013810819  0.012703764            4 
 4162000   0.59511071   -8.3403687    689.98342  0.013815141  0.012699507            3 
 4163000   0.58554262   -8.3295096    688.60128  0.013784156  0.012695252            2 
 4164000   0.59706485   -8.3449013    688.73327  0.013783487  0.012691001            4 
 4165000     0.600221    -8.312435    689.35349  0.013792587   0.01268675            2 
 4166000   0.58920976   -8.3235009    688.61035  0.013774411  0.012682496            6 
 4167000   0.59308048   -8.3207338    689.53633  0.013789623  0.012678247            4 
 4168000   0.58296609    -8.321084    691.37131  0.013823003  0.012673999            4 
 4169000    0.5856512   -8.3304386     688.9739  0.013771766   0.01266975            4 
 4170000   0.59438357   -8.3271784    689.43756  0.013777729  0.012665505            3 
 4171000   0.59564596   -8.3457679    689.21184  0.013769916  0.012661258            3 
 4172000   0.58079579   -8.3279104    689.53796   0.01377313  0.012657019            4 
 4173000   0.58238636    -8.331944    688.87991  0.013756688  0.012652771            3 
 4174000   0.59453078   -8.3631259    688.99325  0.013755655  0.012648528            4 
 4175000   0.59341377   -8.3473106     689.6944  0.013766355  0.012644287            7 
 4176000   0.58182785   -8.3299187    689.40962  0.013757376  0.012640048            5 
 4177000   0.58231787   -8.3312118    689.80147    0.0137619  0.012635812            3 
 4178000   0.57348827   -8.3362788    689.40222  0.013750643  0.012631579            4 
 4179000   0.57857939   -8.3287214    689.68009  0.013752893   0.01262735            5 
 4180000   0.57700299   -8.3204742    690.77739  0.013771479  0.012623126            4 
 4181000   0.58172306   -8.3347431    689.15153   0.01373578  0.012618903            4 
 4182000   0.58927518   -8.3301489    688.93883  0.013728257   0.01261468            3 
 4183000   0.58071472   -8.3302336    689.31969  0.013732562  0.012610458            3 
 4184000   0.57935993   -8.3248409    688.31827  0.013709335  0.012606242            3 
 4185000   0.58440173   -8.3150055    689.49001  0.013729391  0.012602022            5 
 4186000   0.57598163   -8.3236852    689.88102  0.013733895  0.012597809            3 
 4187000   0.58266584   -8.3432137    690.18014  0.013736568  0.012593602            5 
 4188000   0.58587362   -8.3298945    690.68297  0.013743294  0.012589394            4 
 4189000   0.58095361   -8.3147672    690.04889  0.013727399  0.012585183            4 
 4190000   0.57509633   -8.3444293    689.48671  0.013712942  0.012580974            5 
 4191000   0.59453141   -8.3265847     689.1284  0.013702545  0.012576766            3 
 4192000   0.58113229    -8.322669    690.38171  0.013724191  0.012572561            4 
 4193000   0.57352883   -8.3315942    690.63059  0.013725864  0.012568363            3 
 4194000   0.56978396   -8.3255259    690.33469  0.013716712  0.012564169            4 
 4195000   0.58491818   -8.3602449    689.72955  0.013701421   0.01255997            4 
 4196000   0.56582774   -8.3520211    689.51974  0.013693989  0.012555777            4 
 4197000   0.58776692   -8.3247741    689.31428  0.013686647   0.01255159            5 
 4198000   0.58332513   -8.3593373    691.52288  0.013727229    0.0125474            5 
 4199000   0.57377354   -8.3353297    689.87826  0.013691321  0.012543202            4 
 4200000   0.57422784   -8.3338734    688.69498  0.013664583  0.012539005            3 
 4201000   0.57535127   -8.3366999    689.81152  0.013683478  0.012534813            2 
 4202000   0.56805711   -8.3315388    691.32721  0.013710281  0.012530629            4 
 4203000   0.58002356   -8.3374663    690.32593  0.013687167  0.012526435            3 
 4204000   0.57829958   -8.3619705    690.26764  0.013682755  0.012522245            6 
 4205000   0.57922506   -8.3546955    689.17013  0.013657751  0.012518057            5 
 4206000   0.57005459   -8.3380401    689.96198  0.013670193  0.012513868            3 
 4207000   0.57845672   -8.3418708    689.29357  0.013653703  0.012509677            4 
 4208000   0.57742547   -8.3674533    688.97784  0.013644206  0.012505492            4 
 4209000   0.57828972   -8.3538871    688.55419  0.013632577  0.012501308            3 
 4210000   0.57747952   -8.3434176    689.41377  0.013646353  0.012497127            4 
 4211000   0.58086972   -8.3569658    689.63143   0.01364742  0.012492945            5 
 4212000   0.58534185   -8.3510464    688.41716  0.013620156  0.012488765            4 
 4213000   0.57726408   -8.3622613    688.67025  0.013621929  0.012484596            3 
 4214000   0.57838805   -8.3423659    689.13124  0.013627813  0.012480418            4 
 4215000   0.56776683   -8.3425202    688.87617  0.013619537  0.012476241            4 
 4216000   0.57408115   -8.3711336    688.57965  0.013610445  0.012472067            6 
 4217000   0.58208545   -8.3511592    687.99983   0.01359576  0.012467893            4 
 4218000   0.57844726   -8.3665111    689.04901  0.013613265  0.012463724            4 
 4219000   0.57321401   -8.3294022     688.9755  0.013608586  0.012459554            4 
 4220000   0.57776423   -8.3594106    689.42857  0.013614308  0.012455389            7 
 4221000   0.58138598   -8.3480352     689.9401  0.013621182  0.012451226            6 
 4222000   0.56904484    -8.352749    688.80304  0.013595512  0.012447061            4 
 4223000   0.57641077   -8.3478861    688.67705  0.013589807  0.012442894            3 
 4224000   0.56983889   -8.3462583    689.97977   0.01361229  0.012438731            2 
 4225000    0.5754758   -8.3280731    689.57564  0.013601097  0.012434573            2 
 4226000   0.57528474   -8.3593281    689.72251  0.013600775  0.012430421            8 
 4227000   0.56934117   -8.3517539    689.09692  0.013585224  0.012426265            5 
 4228000    0.5704291   -8.3663875    689.59329  0.013591795  0.012422111            4 
 4229000   0.58919498   -8.3567307    688.65219  0.013570036  0.012417958            3 
 4230000    0.5648022   -8.3474876    689.46518  0.013582844  0.012413804            3 
 4231000   0.58643594   -8.3585979    689.55813  0.013581465  0.012409651            5 
 4232000   0.58007412   -8.3393352    690.29028  0.013592672  0.012405502            4 
 4233000   0.56943142   -8.3467155    690.01219  0.013583987  0.012401352            6 
 4234000   0.57464639   -8.3591518    689.61162  0.013572895  0.012397203            3 
 4235000   0.56743196    -8.328371    689.73664  0.013572149  0.012393056            3 
 4236000   0.57855537   -8.3462093    689.44948  0.013563296  0.012388917            6 
 4237000   0.58459668   -8.3513565    688.74635  0.013546266  0.012384772            3 
 4238000   0.56427257   -8.3619108     689.9829  0.013567384   0.01238063            4 
 4239000   0.58263575   -8.3575914    688.91998  0.013543288  0.012376488            4 
 4240000   0.58812097   -8.3573912    688.58654  0.013533541  0.012372353            3 
 4241000   0.57402666   -8.3676962    688.41144  0.013526909  0.012368219            5 
 4242000   0.56888129   -8.3630687    688.92129  0.013533736  0.012364085            3 
 4243000   0.57515392   -8.3668435     689.1342  0.013534728  0.012359955            7 
 4244000   0.57123047   -8.3668726    689.60617  0.013540806   0.01235582            4 
 4245000   0.58901828   -8.3562349    688.26897  0.013511366  0.012351688            4 
 4246000   0.58192404   -8.3507294    689.19777  0.013526413  0.012347558            3 
 4247000   0.56399468   -8.3530059    687.67138  0.013493277  0.012343426            2 
 4248000   0.57395257   -8.3761602     688.5333  0.013507009  0.012339299            4 
 4249000   0.57910677   -8.3644846    687.93071  0.013492012  0.012335172            5 
 4250000   0.57598662   -8.3562705    688.56902  0.013501353  0.012331048            3 
 4251000   0.57450792   -8.3514195    688.61308  0.013499041  0.012326928            5 
 4252000   0.56816422   -8.3835264    688.27543  0.013489249  0.012322806            4 
 4253000   0.57529649   -8.3561524    688.17961    0.0134842  0.012318683            4 
 4254000    0.5542605   -8.3555986    689.14541  0.013499949  0.012314566            4 
 4255000   0.57161404   -8.3704035    689.74885  0.013508595  0.012310456            3 
 4256000   0.57381609   -8.3541407    689.04835  0.013491705  0.012306345            5 
 4257000   0.56474603   -8.3551203    688.15243  0.013470997  0.012302236            3 
 4258000    0.5587116   -8.3646432    688.32989  0.013471307  0.012298128            5 
 4259000   0.58638209   -8.3593653      687.473  0.013451378  0.012294016            3 
 4260000   0.55597971   -8.3822663    688.50758  0.013468458  0.012289905            4 
 4261000   0.56468713   -8.3729558    688.69323  0.013468928  0.012285799            3 
 4262000   0.55874497   -8.3755446    688.82282  0.013468302  0.012281686            4 
 4263000   0.56436538   -8.3648189    689.03159  0.013469223  0.012277585            5 
 4264000   0.56249241   -8.3894984    688.42194   0.01345415  0.012273485            3 
 4265000   0.56377892   -8.3636906    689.11756  0.013464587  0.012269381            5 
 4266000    0.5668941   -8.3690235    688.83042  0.013455822  0.012265279            2 
 4267000   0.57786047   -8.3798097    688.32771   0.01344285  0.012261179            5 
 4268000   0.56165492   -8.3705501    688.22469  0.013437689  0.012257086            2 
 4269000   0.56810014   -8.3608722    687.68687  0.013424043  0.012252988            2 
 4270000   0.57652408   -8.3689434    688.15591  0.013430053  0.012248892            2 
 4271000   0.56469691   -8.3584726    687.95667  0.013423021  0.012244792            2 
 4272000   0.55815517   -8.3727919    688.39785  0.013428485  0.012240698            2 
 4273000   0.56578043   -8.3625222    687.61151  0.013410007  0.012236605            1 
 4274000   0.56876246   -8.4021462    688.56574  0.013425475   0.01223251            1 
 4275000   0.55678424   -8.3580643    689.34439  0.013437512  0.012228424            4 
 4276000   0.56398132   -8.3750748    688.97772  0.013427224  0.012224334            2 
 4277000   0.56522225   -8.3640754    688.49298   0.01341464   0.01222025            5 
 4278000   0.56024587   -8.3678535    689.17919  0.013424871  0.012216166            2 
 4279000   0.55617932   -8.3842527    688.26818  0.013403992  0.012212079            2 
 4280000   0.56838897   -8.3771326    689.15375  0.013418103  0.012208002            2 
 4281000    0.5651495   -8.3635465    687.57551  0.013384247  0.012203925            3 
 4282000   0.57144571   -8.3733212    688.13928  0.013392092  0.012199848            2 
 4283000   0.56542536   -8.3643404    689.26089  0.013410789  0.012195768            4 
 4284000   0.56337943   -8.3590091    686.79774  0.013359744  0.012191686            3 
 4285000   0.57042152   -8.3693421    688.13508  0.013382635  0.012187613            3 
 4286000   0.56234408    -8.389335    688.06481  0.013378146  0.012183536            3 
 4287000   0.55339598   -8.3946138    689.35826  0.013400168  0.012179461            2 
 4288000   0.56216712   -8.3776642    688.74621  0.013385149  0.012175386            2 
 4289000    0.5579163   -8.3760303    689.63005  0.013399201  0.012171306            3 
 4290000   0.57513664    -8.374617    687.92669  0.013362989  0.012167233            4 
 4291000   0.56130949   -8.3833565    688.79759  0.013376788  0.012163159            4 
 4292000   0.57309889   -8.3852371    688.12155  0.013360546  0.012159085            5 
 4293000    0.5657708   -8.3818631    688.75699  0.013369768  0.012155011            2 
 4294000   0.56264277    -8.384542    687.63513  0.013344883  0.012150945            4 
 4295000   0.55072324   -8.3616871    688.81639  0.013364695  0.012146881            5 
 4296000   0.55915175   -8.3857247    688.13894  0.013348443  0.012142822            3 
 4297000   0.56658887    -8.374349    687.80447   0.01333885  0.012138756            2 
 4298000   0.55808594    -8.367727    689.50626  0.013368742  0.012134699            2 
 4299000   0.56969624   -8.3640732    688.45019  0.013345162  0.012130642            3 
 4300000   0.55704305   -8.3859243    688.22151  0.013337626  0.012126585            5 
 4301000   0.57732763   -8.3896374    687.68746  0.013324178  0.012122523            2 
 4302000   0.56536292   -8.3971075    688.76891  0.013342029  0.012118462            3 
 4303000   0.56417652   -8.4051963     687.2255  0.013309038  0.012114402            5 
 4304000   0.56259062   -8.3996977    687.66418   0.01331444  0.012110347            3 
 4305000    0.5727974   -8.3788888    688.14598  0.013320673  0.012106291            2 
 4306000   0.56010946   -8.3778224     687.7786   0.01331047  0.012102236            3 
 4307000   0.56507038   -8.3850734    687.94623  0.013310623  0.012098184            3 
 4308000   0.54647287   -8.4061999    687.56891  0.013300234  0.012094137            3 
 4309000     0.569948   -8.3805423    687.93407   0.01330421  0.012090091            4 
 4310000   0.57674571     -8.38246    687.70513  0.013296696  0.012086044            4 
 4311000   0.54827866   -8.3930978    687.71181  0.013293741  0.012081998            1 
 4312000   0.56908176   -8.4063581    689.19835  0.013319387  0.012077955            2 
 4313000    0.5703144   -8.3931428    687.52185  0.013283906  0.012073908            4 
 4314000   0.56827241   -8.3901085    688.90065  0.013307461   0.01206986            4 
 4315000   0.56147763   -8.3874815    688.60644  0.013298695  0.012065821            2 
 4316000   0.55108889   -8.3860481    687.38239   0.01327198  0.012061778            3 
 4317000   0.55625912   -8.3802985    688.09715  0.013282703   0.01205774            3 
 4318000   0.55559901   -8.4177869    688.11904  0.013280049  0.012053699            3 
 4319000   0.56207973   -8.4068098     686.1688  0.013239345  0.012049658            5 
 4320000   0.56237192   -8.3855698    688.46039  0.013280486  0.012045625            4 
 4321000   0.55169434   -8.3904035     687.9664  0.013267885  0.012041591            2 
 4322000   0.56839631   -8.4183872    687.41637   0.01325421  0.012037558            5 
 4323000   0.55969293   -8.4042644    688.04236  0.013263212  0.012033532            4 
 4324000    0.5687127   -8.3757436    687.32353  0.013246291  0.012029502            3 
 4325000   0.55412321   -8.3969688    687.34467  0.013243635   0.01202548            2 
 4326000   0.54256154   -8.3998968     687.8582  0.013250466  0.012021457            3 
 4327000   0.55457727   -8.3882286    687.99616  0.013250061  0.012017432            3 
 4328000   0.56063323    -8.373184    689.16416  0.013269489  0.012013413            4 
 4329000   0.55286393   -8.4006711    687.62867  0.013236865  0.012009399            4 
 4330000   0.56129114   -8.3931782    688.11252   0.01324312  0.012005381            4 
 4331000   0.54576167   -8.3887021    688.27121  0.013243116  0.012001363            3 
 4332000    0.5666587   -8.3762407    688.15065  0.013237739  0.011997346            5 
 4333000   0.55590808   -8.3826073    688.58272  0.013242994  0.011993333            4 
 4334000   0.56386901   -8.4055677    686.95186  0.013208581  0.011989323            3 
 4335000   0.55993657   -8.3955619    686.80604   0.01320273  0.011985314            2 
 4336000   0.55793937   -8.3905562    687.29651  0.013209112  0.011981304            3 
 4337000   0.55845015   -8.4012741    687.18928  0.013204006  0.011977298            6 
 4338000   0.55106803   -8.3934556    688.75026  0.013230949   0.01197329            3 
 4339000    0.5612522   -8.4058153    687.60791   0.01320596  0.011969284            2 
 4340000   0.56307981   -8.3914274    686.53456  0.013182307   0.01196528            4 
 4341000    0.5520406   -8.3920654    686.73831  0.013183182  0.011961279            4 
 4342000   0.55610672    -8.391393    688.58098  0.013215511  0.011957285            2 
 4343000   0.55486007   -8.3963262     687.6911  0.013195393  0.011953288            3 
 4344000   0.56235301   -8.3999468    686.57966  0.013171034  0.011949289            6 
 4345000    0.5446691   -8.3840547    687.72705  0.013190009  0.011945292            3 
 4346000   0.56171146   -8.4208486    688.02805  0.013192745  0.011941297            6 
 4347000   0.54987323   -8.3960793    688.02957  0.013189739  0.011937305            5 
 4348000   0.55112785   -8.4003779    688.57028  0.013197069  0.011933316            2 
 4349000   0.55756638   -8.3855319    687.34312   0.01317052  0.011929323            6 
 4350000   0.54313543   -8.4057397    687.82422  0.013176709  0.011925335            3 
 4351000    0.5465135   -8.3908089    686.67536  0.013151677  0.011921349            2 
 4352000   0.54670301   -8.3977212    686.87368  0.013152452  0.011917365            2 
 4353000    0.5607753   -8.3869013     687.4273   0.01316003  0.011913382            5 
 4354000   0.54776538   -8.4050292    686.56408  0.013140485  0.011909397            4 
 4355000   0.54822945   -8.4028948    687.51856  0.013155732  0.011905414            2 
 4356000    0.5511723   -8.4010651    686.57925  0.013134742  0.011901432            5 
 4357000   0.56035448   -8.3933519    686.31035  0.013126585  0.011897448            3 
 4358000   0.56914117   -8.4094293     688.8154  0.013171474  0.011893468            3 
 4359000    0.5651909   -8.3880763    687.77386  0.013148541   0.01188949            3 
 4360000   0.55401809   -8.3887391    688.31446  0.013155857  0.011885516            5 
 4361000   0.55037103   -8.3933091    686.98432  0.013127423   0.01188154            3 
 4362000   0.54699517   -8.4076196    688.66022  0.013156431  0.011877563            4 
 4363000   0.55496878   -8.3837668     688.2551  0.013145678  0.011873587            3 
 4364000   0.55609862   -8.4018591    687.77304   0.01313346  0.011869612            7 
 4365000   0.55684992   -8.4109207    686.77821  0.013111459  0.011865642            5 
 4366000   0.54100547   -8.4217367    687.45915  0.013121453   0.01186167            3 
 4367000   0.55124566   -8.4008752    687.59632  0.013121066  0.011857699            4 
 4368000   0.56062463   -8.4089067     688.7694  0.013140442  0.011853729            3 
 4369000   0.56547261   -8.4022668    686.81345  0.013100127  0.011849762            5 
 4370000   0.54180419   -8.4058265    686.89343  0.013098654    0.0118458            5 
 4371000   0.56205687   -8.4061063    687.08711   0.01309935  0.011841829            4 
 4372000   0.54814514   -8.4127785    687.86487  0.013111179  0.011837867            4 
 4373000   0.55157193   -8.3937432    687.51504  0.013101514  0.011833903            3 
 4374000   0.55627371   -8.4008595    687.38031  0.013095952   0.01182994            5 
 4375000   0.54679294   -8.4072886    686.28182  0.013072035   0.01182598            3 
 4376000   0.55443399   -8.4194489    687.26647  0.013087798  0.011822024            4 
 4377000   0.55730784   -8.4260126    686.99139  0.013079571  0.011818067            5 
 4378000   0.56042114   -8.3841762    687.10252  0.013078699  0.011814112            3 
 4379000   0.53890532   -8.3958226    686.90028  0.013071863   0.01181016            4 
 4380000   0.54470966   -8.4110575    686.84383  0.013067805  0.011806209            3 
 4381000   0.54824895   -8.4148627    686.77733  0.013063557  0.011802257            8 
 4382000    0.5398081    -8.430843    686.77378  0.013060508  0.011798305            6 
 4383000   0.55402194   -8.4074959    687.80933  0.013077218  0.011794358            4 
 4384000   0.55513202   -8.3970531    687.22814  0.013063187  0.011790412            6 
 4385000   0.54582186   -8.4012019    686.89337  0.013053846   0.01178647            3 
 4386000   0.54831184    -8.389854    685.93234   0.01303261  0.011782526            7 
 4387000   0.55836844   -8.4310228     687.2526  0.013054718  0.011778588            3 
 4388000   0.55488493   -8.4061365     686.3989  0.013035531  0.011774651            2 
 4389000    0.5612246   -8.4123135    686.91344   0.01304233  0.011770715            4 
 4390000   0.55310365   -8.4182431    687.13343  0.013043535  0.011766777            5 
 4391000   0.54468768   -8.4136394    686.12233  0.013021376  0.011762844            4 
 4392000   0.54291112   -8.4079037     686.4066  0.013023805  0.011758909            3 
 4393000   0.55187864   -8.3986136    686.52234  0.013023035  0.011754977            3 
 4394000   0.55071448   -8.3963897    686.66824  0.013022839  0.011751045            3 
 4395000   0.54506938   -8.3951303    686.07296  0.013008589  0.011747118            5 
 4396000   0.54995393   -8.4227969    686.07258  0.013005622  0.011743189            5 
 4397000   0.55428316   -8.4181538    685.93336  0.013000026  0.011739263            3 
 4398000   0.55586168   -8.4061682     686.3197   0.01300439  0.011735337            3 
 4399000   0.54778814   -8.4201097    686.17083  0.012998614  0.011731413            4 
 4400000   0.54409723   -8.4046268    687.18955  0.013014954  0.011727489            2 
 4401000   0.55411581     -8.38445    686.94956  0.013007452   0.01172357            7 
 4402000   0.54281004   -8.3950055    686.37807  0.012993678  0.011719657            4 
 4403000   0.54444866   -8.3962693    687.60916  0.013014028  0.011715742            8 
 4404000   0.54706422   -8.4111173    687.87611  0.013016124  0.011711829            3 
 4405000   0.53994928   -8.4050045     686.8259  0.012993301  0.011707917            8 
 4406000    0.5436134   -8.4272138    686.99618  0.012993573  0.011704003            6 
 4407000   0.54588098   -8.4111864    686.55672  0.012982315  0.011700093            3 
 4408000   0.55204813   -8.4120719    686.21245  0.012972861  0.011696183            4 
 4409000   0.53769387   -8.4281542    687.26351  0.012989784  0.011692278            2 
 4410000   0.53914437    -8.403363    687.26503  0.012986868  0.011688366            5 
 4411000   0.54663453   -8.4114282    686.51087  0.012969676  0.011684456            3 
 4412000   0.55953081   -8.4133483    687.71814  0.012989539   0.01168055            2 
 4413000   0.53922907   -8.4078996    686.27172  0.012959282  0.011676648            3 
 4414000    0.5532315   -8.4171416    686.21503  0.012955276  0.011672744            4 
 4415000   0.54093018       -8.419    687.11087   0.01296925  0.011668847            5 
 4416000   0.54778333   -8.4143191    686.96018   0.01296347  0.011664951            2 
 4417000   0.54483184   -8.4269211    687.22502  0.012965531  0.011661052            3 
 4418000   0.54435297   -8.4346124    686.34324  0.012945964  0.011657151            5 
 4419000   0.53034364   -8.4252977    686.28148   0.01294187  0.011653254            2 
 4420000   0.55221538   -8.4053411    686.84757  0.012949615   0.01164936            4 
 4421000   0.54015966   -8.4260354    686.40778  0.012938396  0.011645471            2 
 4422000    0.5426198   -8.4093606    686.46207  0.012936493  0.011641582            4 
 4423000   0.53470535    -8.440542      687.021  0.012944099  0.011637693            5 
 4424000   0.53969451   -8.4082867    686.31978  0.012927965  0.011633805            1 
 4425000   0.53505874   -8.4304148    686.88147  0.012935621   0.01162992            2 
 4426000   0.55161681   -8.4019839    687.18965  0.012938501  0.011626037            4 
 4427000   0.54102291   -8.4332092    686.88654  0.012929872  0.011622158            3 
 4428000   0.54676873   -8.4177566    686.87545  0.012926744  0.011618278            4 
 4429000   0.54873935   -8.4266817    685.43851  0.012896788  0.011614399            2 
 4430000   0.53854735   -8.4368484    686.30976  0.012910266  0.011610516            3 
 4431000   0.55480909   -8.4110324     686.4552  0.012910088  0.011606638            6 
 4432000    0.5437592   -8.4252704    687.76715  0.012931843  0.011602766            3 
 4433000   0.54038483   -8.4181212     686.8177  0.012911078  0.011598889            2 
 4434000   0.54932589   -8.4011399    685.92942  0.012891472  0.011595017            3 
 4435000   0.53745431    -8.435623    687.28378  0.012914013  0.011591147            5 
 4436000    0.5539102   -8.4149546    686.55401  0.012897393  0.011587279            6 
 4437000   0.55061502   -8.4264052    686.51322   0.01289372  0.011583411            3 
 4438000   0.53705185   -8.4192318    687.55901  0.012910452   0.01157954            3 
 4439000   0.54515517   -8.4166818    686.02045   0.01287866  0.011575675            4 
 4440000   0.54402368   -8.4206899    686.85216  0.012891369   0.01157181            2 
 4441000   0.56143621    -8.424964    686.17421  0.012875745  0.011567948            1 
 4442000   0.54845476    -8.415785    687.17999  0.012891715   0.01156409            2 
 4443000   0.53190246   -8.4152484    686.66367   0.01287913  0.011560228            2 
 4444000   0.55193675   -8.4387333    686.16934  0.012866962  0.011556366            3 
 4445000   0.53431825   -8.4165397    685.66715  0.012854652   0.01155251            4 
 4446000   0.54350109   -8.4335557    686.86175  0.012874152  0.011548657            4 
 4447000   0.52893866   -8.4235498    686.36596  0.012861966  0.011544804            2 
 4448000   0.55325469    -8.441824    686.19273  0.012855829  0.011540955            4 
 4449000   0.53809622    -8.417648    685.58155  0.012841492  0.011537105            5 
 4450000   0.53794472   -8.4257563    686.33524   0.01285272  0.011533256            3 
 4451000   0.53825841   -8.4248539    685.71776  0.012838272  0.011529412            2 
 4452000   0.53382026   -8.4292111    685.88262  0.012838474   0.01152557            3 
 4453000   0.54560766   -8.4232727    687.45152  0.012864951  0.011521728            3 
 4454000   0.53827609   -8.4362248    686.62982  0.012846689  0.011517885            5 
 4455000   0.55175529   -8.4112046    687.05132   0.01285169  0.011514049            5 
 4456000   0.53914433   -8.4102532     686.6593  0.012841474  0.011510213            4 
 4457000   0.54191924   -8.4323794    686.08549  0.012827864  0.011506379            3 
 4458000   0.53989664   -8.4146349    685.54141  0.012814816  0.011502543            4 
 4459000   0.53327674   -8.4202383    686.63049  0.012832296  0.011498707            4 
 4460000   0.53103351   -8.4285521    686.40294  0.012825167  0.011494875            2 
 4461000   0.53661021   -8.4209694    686.05052  0.012815709  0.011491041            3 
 4462000   0.55536372   -8.4269427    687.49036  0.012839727  0.011487212            1 
 4463000   0.54774622   -8.4530498    685.76181  0.012804575  0.011483384            5 
 4464000   0.53769674   -8.4225283    686.46951  0.012814918   0.01147956            3 
 4465000   0.53211911    -8.413549    685.35284  0.012791206  0.011475733            3 
 4466000   0.54021666   -8.4293259    686.00174   0.01280045  0.011471913            6 
 4467000   0.53931531   -8.4084473    686.41697  0.012805331  0.011468093            3 
 4468000   0.53104254   -8.4299022    686.50578  0.012804122  0.011464271            2 
 4469000   0.53667212   -8.4355046    686.12766  0.012794206  0.011460452            2 
 4470000   0.52065105   -8.4277288    686.03065  0.012789535   0.01145663            4 
 4471000   0.53625545   -8.4281088    685.81631  0.012782679  0.011452816            3 
 4472000   0.53404944   -8.4353691    687.11524  0.012804026  0.011449005            2 
 4473000   0.54038372   -8.4421226    686.63542  0.012792224  0.011445189            2 
 4474000   0.53354769   -8.4127267    686.63855  0.012789423  0.011441381            2 
 4475000   0.53471131   -8.4175274    686.51364  0.012784239  0.011437577            2 
 4476000    0.5475081   -8.4275444     686.0053  0.012771919  0.011433772            4 
 4477000    0.5411846   -8.4237149    686.04648  0.012769832  0.011429965            3 
 4478000   0.53506215   -8.4270414    685.92354  0.012764693  0.011426158            6 
 4479000   0.51534401   -8.4438788    686.61466  0.012774702  0.011422357            1 
 4480000   0.52920946   -8.4167017    687.47666  0.012787884  0.011418556            2 
 4481000   0.52452294   -8.4287938    686.53045  0.012767434  0.011414755            3 
 4482000   0.54441923   -8.4288475     686.6975  0.012767691  0.011410956            2 
 4483000   0.52938535   -8.4278407    686.76128  0.012766029  0.011407159            5 
 4484000   0.52725944   -8.4408026    687.48243  0.012776584  0.011403364            5 
 4485000   0.53154462   -8.4207877    686.02263  0.012746611  0.011399574            3 
 4486000   0.54700375   -8.4395096    685.55593    0.0127351  0.011395779            3 
 4487000   0.53884431   -8.4482714    685.43267  0.012729973  0.011391989            3 
 4488000   0.53298118   -8.4457776    686.40475  0.012745186  0.011388199            1 
 4489000   0.53084355   -8.4327643    686.43364  0.012742883  0.011384409            6 
 4490000   0.53393718   -8.4327279    688.14628  0.012771832   0.01138062            1 
 4491000   0.53018306   -8.4419229    687.55239  0.012757968  0.011376833            3 
 4492000   0.52982416   -8.4224227     686.3717  0.012733224  0.011373052            2 
 4493000   0.52325681   -8.4310514     686.3808  0.012730559  0.011369271            4 
 4494000    0.5308472   -8.4350017    685.99556  0.012720582  0.011365492            4 
 4495000   0.54083273   -8.4304968    686.38915  0.012725049  0.011361716            3 
 4496000   0.53536544   -8.4531984    686.44868  0.012723322  0.011357937            5 
 4497000   0.52859762   -8.4403396    687.05178  0.012731669  0.011354163            3 
 4498000    0.5421614   -8.4331551    686.72431  0.012722771  0.011350384            3 
 4499000   0.52677169   -8.4296244    687.40408  0.012732535  0.011346614            5 
 4500000   0.53394697    -8.435329     685.3789  0.012692202  0.011342841            2 
 4501000   0.52412405   -8.4527919    686.56312  0.012711307  0.011339069            3 
 4502000   0.52799852   -8.4600141    685.96394  0.012697393  0.011335297            3 
 4503000   0.53791824    -8.443121    685.91516   0.01269367  0.011331531            2 
 4504000   0.53145552   -8.4459447    686.54001  0.012702413  0.011327765            3 
 4505000   0.53793172   -8.4371384    685.58752  0.012681974  0.011324001            5 
 4506000   0.52575348   -8.4228253     687.1539  0.012708128  0.011320241            2 
 4507000   0.53021526   -8.4472602     685.6663  0.012677803  0.011316478            5 
 4508000   0.52494803   -8.4279035    685.83055  0.012678027  0.011312718            2 
 4509000   0.53732195   -8.4408979    687.19004  0.012700341  0.011308959            4 
 4510000   0.54164765   -8.4252813    686.58288  0.012686306  0.011305204            6 
 4511000   0.52212378   -8.4308438    686.19471  0.012676323  0.011301448            4 
 4512000   0.54049854    -8.430676    684.84647  0.012648612  0.011297691            6 
 4513000     0.526041   -8.4445765    686.72592  0.012680514  0.011293936            3 
 4514000   0.51811149   -8.4183299     686.0603  0.012665417  0.011290177            2 
 4515000   0.53001898   -8.4415272    685.61017  0.012654304  0.011286424            2 
 4516000   0.52977239   -8.4248419    685.72373  0.012653597  0.011282671            3 
 4517000   0.51231002    -8.438045    686.53235  0.012665714  0.011278921            2 
 4518000   0.52113055   -8.4571482    684.86916  0.012632233  0.011275172            4 
 4519000   0.52067943   -8.4471196    685.15547  0.012634718  0.011271425            4 
 4520000   0.54347123   -8.4403929    685.65163   0.01264107  0.011267683            3 
 4521000   0.52889243   -8.4267873    685.87314  0.012642357  0.011263938            6 
 4522000   0.52761995   -8.4331341    687.34856  0.012666751  0.011260196            2 
 4523000    0.5212806   -8.4416916    687.20935  0.012661385  0.011256456            2 
 4524000   0.53185752   -8.4532077    686.12979  0.012638701  0.011252716            3 
 4525000    0.5379546   -8.4385668    685.74003   0.01262873   0.01124898            2 
 4526000    0.5256528   -8.4441077    686.09007  0.012632385  0.011245245            3 
 4527000   0.53028955   -8.4585716    685.66874  0.012621838  0.011241511            5 
 4528000   0.53211819   -8.4499666     686.2806  0.012630311  0.011237777            6 
 4529000   0.51987824   -8.4680656    685.31851   0.01260982  0.011234048            7 
 4530000    0.5372866   -8.4376318    685.07169  0.012602496  0.011230319            3 
 4531000    0.5335713    -8.448697    685.17827  0.012601675  0.011226589            1 
 4532000   0.52678852   -8.4590922    687.14291   0.01263502  0.011222862            1 
 4533000   0.52401247   -8.4565069     685.7089   0.01260587  0.011219131            2 
 4534000   0.53097268   -8.4470052    685.55363  0.012600236  0.011215405            2 
 4535000   0.53047944   -8.4447421    685.32199  0.012593201  0.011211682            5 
 4536000   0.53727677   -8.4463652    685.26016  0.012589289  0.011207956            5 
 4537000   0.51688484   -8.4604022    686.64697  0.012611986  0.011204235            6 
 4538000   0.52091331   -8.4434939    685.19104  0.012582471  0.011200515            3 
 4539000   0.52231454   -8.4467881     684.8817   0.01257402  0.011196792            4 
 4540000   0.52714981   -8.4458346    685.89113  0.012589778  0.011193074            3 
 4541000   0.52918304   -8.4707938    685.65754  0.012582719  0.011189358            3 
 4542000   0.52765787   -8.4591105    684.56562  0.012559915  0.011185647            4 
 4543000   0.52831927   -8.4468873    685.71972  0.012578321  0.011181933            5 
 4544000    0.5349802   -8.4496773    685.30338  0.012567917   0.01117822            4 
 4545000    0.5321924   -8.4624948    684.40476  0.012548675  0.011174506            4 
 4546000   0.52841408   -8.4442259    684.99826  0.012556795  0.011170798            3 
 4547000    0.5155457   -8.4481246    684.92757  0.012552737  0.011167087            4 
 4548000   0.52315935    -8.449319     685.2984  0.012556772  0.011163381            4 
 4549000   0.52258469    -8.447476    685.92993  0.012565581  0.011159677            4 
 4550000   0.51547299   -8.4448428    686.55044  0.012574184  0.011155971            4 
 4551000   0.51978723   -8.4487826    685.28559   0.01254826  0.011152272            4 
 4552000   0.51179409   -8.4457473    685.70558  0.012553192  0.011148575            3 
 4553000   0.52052736   -8.4521744    685.24619  0.012542027  0.011144878            2 
 4554000   0.52089185   -8.4317691    685.48094  0.012543569  0.011141181            4 
 4555000   0.52582451   -8.4552351    685.86322  0.012547809  0.011137487            2 
 4556000   0.52600839   -8.4392959     685.8325  0.012544493  0.011133792            6 
 4557000   0.53562915   -8.4590675    685.17841  0.012529778  0.011130097            4 
 4558000   0.51763375   -8.4504029    685.93951  0.012540945  0.011126405            4 
 4559000    0.5073524   -8.4453136    685.31283  0.012526739  0.011122717            3 
 4560000    0.5226377   -8.4522272    684.94975  0.012517357   0.01111903            5 
 4561000   0.51207874   -8.4516556    686.74857  0.012547478  0.011115344            4 
 4562000   0.51465004   -8.4418999     685.7249  0.012526028  0.011111659            3 
 4563000   0.52579919   -8.4539115    685.97933   0.01252793  0.011107976            5 
 4564000   0.51708856   -8.4507649    685.28804  0.012512563  0.011104296            8 
 4565000   0.51902736   -8.4419501    685.27346  0.012509556  0.011100615            2 
 4566000   0.52913678   -8.4548925    685.02747  0.012502326  0.011096934            5 
 4567000   0.51467886   -8.4431488    685.40771  0.012506527  0.011093257            3 
 4568000   0.53141441   -8.4680912    685.62541  0.012507761  0.011089581            2 
 4569000   0.52294368   -8.4567844    685.59654  0.012504497  0.011085905            2 
 4570000   0.52849274   -8.4534953    685.57187  0.012501311  0.011082232            1 
 4571000   0.53247651     -8.44661    685.28572  0.012493359  0.011078561            2 
 4572000   0.52959377   -8.4586086    685.81504  0.012500274  0.011074893            3 
 4573000   0.52560299   -8.4475564    685.14032  0.012485245  0.011071226            1 
 4574000   0.51626381   -8.4546962    686.76412    0.0125121   0.01106756            5 
 4575000   0.51679226   -8.4523485    686.43687  0.012503404  0.011063896            2 
 4576000   0.51675101   -8.4502787    686.00433  0.012492794  0.011060231            3 
 4577000   0.51337878   -8.4467922    685.61109  0.012482905  0.011056566            3 
 4578000   0.51750025   -8.4621513    685.50446  0.012478238   0.01105291            4 
 4579000   0.52320731   -8.4441867    685.71063  0.012479265  0.011049251            3 
 4580000   0.52121456   -8.4560898    685.65959  0.012475611  0.011045595            4 
 4581000   0.51539503   -8.4708145    684.37242  0.012449473   0.01104194            2 
 4582000   0.52696578   -8.4764712    684.56636  0.012450283  0.011038284            4 
 4583000   0.51434883   -8.4659738    685.12331  0.012457693  0.011034632            3 
 4584000   0.52120421   -8.4433937    685.39889  0.012459986  0.011030981            3 
 4585000   0.51213922   -8.4475002    684.38556  0.012438851  0.011027329            2 
 4586000   0.51740918   -8.4592162    685.44389  0.012455369  0.011023679            3 
 4587000   0.51977633   -8.4672315    685.44099  0.012452601  0.011020031            2 
 4588000   0.52367396   -8.4577781     683.9293   0.01242243  0.011016381            3 
 4589000   0.50431693   -8.4638871    685.50702  0.012448373  0.011012735            5 
 4590000    0.5103192    -8.457025    684.97904  0.012436076  0.011009087            4 
 4591000   0.52167816   -8.4617776    684.86133   0.01243123  0.011005445            3 
 4592000   0.51725716   -8.4499307    684.95778  0.012430273  0.011001806            3 
 4593000   0.52271061   -8.4480415    685.90476  0.012444748  0.010998164            2 
 4594000   0.52084451   -8.4641601    685.62552  0.012436974  0.010994526            2 
 4595000   0.51455689   -8.4548369    685.80148  0.012437459   0.01099089            3 
 4596000    0.5277795   -8.4553963    684.44288  0.012410119  0.010987254            3 
 4597000   0.51309146   -8.4644109    686.22891  0.012439796  0.010983618            2 
 4598000   0.50877798   -8.4710788    685.17984  0.012418077  0.010979986            4 
 4599000   0.51328259   -8.4460929    685.33645  0.012418215  0.010976358            4 
 4600000   0.51415597   -8.4665186    685.29517  0.012414768  0.010972725            6 
 4601000   0.51732335    -8.452769    684.95208  0.012405855   0.01096909            2 
 4602000   0.52078546   -8.4711672    685.24715  0.012408503   0.01096546            5 
 4603000   0.50688887   -8.4709557    685.57241  0.012411695  0.010961832            3 
 4604000    0.5079891   -8.4747424    685.63798  0.012410187  0.010958204            3 
 4605000   0.51441215   -8.4525749    685.24454  0.012400372  0.010954576            2 
 4606000   0.50565233   -8.4830996    685.10289  0.012395117   0.01095095            2 
 4607000   0.50634902    -8.457107    684.37305  0.012379225  0.010947321            4 
 4608000   0.50999936   -8.4611709    685.67711  0.012400121  0.010943695            3 
 4609000   0.51185628    -8.462769    685.01053  0.012385379  0.010940073            3 
 4610000   0.52063568     -8.47123    683.96699  0.012363828  0.010936452            2 
 4611000    0.5093332   -8.4614389    684.14591  0.012364381  0.010932832            2 
 4612000   0.51441232   -8.4567807    685.81744  0.012391902  0.010929218            2 
 4613000    0.5097358   -8.4595436    685.14924  0.012377145    0.0109256            2 
 4614000   0.52090948   -8.4585786    684.15534  0.012356512  0.010921984            3 
 4615000   0.51492035   -8.4523885    685.03773  0.012369768  0.010918371            4 
 4616000   0.52054586   -8.4838496    686.51996  0.012393847   0.01091476            7 
 4617000   0.51800285   -8.4737585    685.45651  0.012371968  0.010911148            4 
 4618000   0.50249801   -8.4622248    684.58402  0.012353544  0.010907533            2 
 4619000   0.52341996   -8.4808308    685.22281  0.012362395  0.010903923            5 
 4620000   0.50815825   -8.4614696    684.02998  0.012338203  0.010900316            5 
 4621000   0.52988438    -8.471241     685.0677  0.012354247  0.010896709            1 
 4622000   0.51012969   -8.4694173    686.32864  0.012374308  0.010893106            1 
 4623000   0.51220928   -8.4535872    684.98801  0.012347466  0.010889499            3 
 4624000   0.50687094   -8.4451081    685.02713  0.012345501  0.010885898            3 
 4625000   0.51016915   -8.4541296     685.6579  0.012354196  0.010882299            4 
 4626000   0.52417258   -8.4723136    685.10916  0.012341641    0.0108787            2 
 4627000    0.5211779   -8.4592518    685.26297  0.012341744  0.010875101            3 
 4628000   0.50437087   -8.4564315    685.09573  0.012336065  0.010871507            3 
 4629000   0.51847543    -8.470124    684.30661  0.012319194  0.010867917            2 
 4630000    0.5029784   -8.4637674     685.1728  0.012332124  0.010864328            3 
 4631000   0.51940907   -8.4606055    684.08685   0.01230992  0.010860741            3 
 4632000   0.50981096   -8.4719691    684.88998  0.012321711  0.010857155            3 
 4633000   0.51579088   -8.4665139    684.97484  0.012320578  0.010853572            4 
 4634000   0.49781331   -8.4849261    684.74467   0.01231378  0.010849987            3 
 4635000   0.50012125   -8.4641309    685.16588  0.012318696  0.010846405            2 
 4636000   0.51683581   -8.4542195    685.69576  0.012325564   0.01084283            3 
 4637000   0.52034393   -8.4594196    684.11522  0.012294501  0.010839249            3 
 4638000   0.50624338   -8.4739217    684.67041  0.012301826  0.010835671            5 
 4639000   0.50572811   -8.4739933    684.47339  0.012295635  0.010832097            5 
 4640000    0.5102416   -8.4798445        684.5  0.012293463  0.010828523            2 
 4641000   0.51068898   -8.4557393     685.0307  0.012300343  0.010824948            4 
 4642000   0.51143223   -8.4639143    684.63947   0.01229067  0.010821379            3 
 4643000    0.5063507    -8.481213    684.66995   0.01228857  0.010817812            4 
 4644000   0.51271334   -8.4602763    685.74165  0.012305154  0.010814241            1 
 4645000   0.49685775   -8.4635724    684.71857  0.012284151  0.010810674            4 
 4646000   0.50806765   -8.4723958    685.36784  0.012293152  0.010807104            3 
 4647000   0.49975356   -8.4839239    685.20735  0.012287629  0.010803538            1 
 4648000    0.5090393    -8.471894    684.64576  0.012274917  0.010799973            6 
 4649000   0.50376112   -8.4587654    684.78533  0.012274778  0.010796407            3 
 4650000   0.49662242   -8.4530653    684.25712  0.012262672  0.010792845            3 
 4651000   0.51259787    -8.471869    685.68928  0.012285696  0.010789281            6 
 4652000   0.50732712   -8.4718426    684.78407   0.01226684  0.010785722            3 
 4653000   0.50434149   -8.4752875    685.07752  0.012269459  0.010782163            1 
 4654000   0.50583422    -8.475468     684.6679  0.012259488  0.010778604            3 
 4655000   0.50905249   -8.4710224     684.9254  0.012261464  0.010775047            1 
 4656000   0.50404507   -8.4646427    685.56667  0.012270308   0.01077149            6 
 4657000   0.50922493   -8.4694589    683.42062  0.012229272  0.010767936            4 
 4658000   0.49696046   -8.4653752    684.32287  0.012242788  0.010764384            2 
 4659000   0.50608835   -8.4533655    682.84068  0.012213649  0.010760833            3 
 4660000   0.49895548   -8.4914087     684.7865  0.012245824  0.010757286            4 
 4661000   0.50258288   -8.4664812    684.95535  0.012246216  0.010753736            2 
 4662000   0.49649863   -8.4726845    685.26342  0.012249096  0.010750192            3 
 4663000   0.50690999   -8.4703539    684.86187  0.012239293   0.01074665            3 
 4664000   0.50499851   -8.4696003    684.96159   0.01223845   0.01074311            3 
 4665000   0.49892397   -8.4845095     685.1917  0.012239937  0.010739564            2 
 4666000   0.50472372   -8.4711425    685.12889  0.012236192  0.010736027            3 
 4667000   0.50239123   -8.4708252    684.41242  0.012220777  0.010732483            2 
 4668000   0.51062284   -8.4825586    684.09286  0.012212455  0.010728947            5 
 4669000   0.49023461   -8.4765118    684.73173  0.012221242  0.010725411            4 
 4670000   0.50017828   -8.4810965    684.24667  0.012209969  0.010721875            5 
 4671000   0.50111772   -8.4779458    684.88235  0.012218696  0.010718342            2 
 4672000   0.50160717   -8.4542662    684.58722  0.012210817  0.010714811            3 
 4673000   0.51082687   -8.4838819    685.66063  0.012227345  0.010711278            2 
 4674000   0.51535111   -8.4913342    685.08379  0.012214445  0.010707748            3 
 4675000   0.50104398   -8.4715011    683.92911   0.01219125  0.010704219            3 
 4676000   0.50877721   -8.4769019    683.84115  0.012187075  0.010700692            3 
 4677000   0.50398862   -8.4926159    683.74983  0.012182842  0.010697165            3 
 4678000   0.51276388   -8.4807685    684.47231  0.012193108  0.010693639            4 
 4679000   0.49985898   -8.4834917    684.23655  0.012186303  0.010690117            3 
 4680000   0.49927554   -8.4802399    685.17887  0.012200479  0.010686597            4 
 4681000   0.50379084   -8.4894417    682.97688  0.012158671  0.010683078            4 
 4682000   0.50269109   -8.4929775    685.25219  0.012196572   0.01067956            4 
 4683000    0.5065974   -8.4934214     684.5344  0.012181194  0.010676046            2 
 4684000   0.50696062   -8.4843391    684.49882  0.012177961   0.01067253            3 
 4685000   0.50491481   -8.4926347    684.70476  0.012179025   0.01066902            5 
 4686000   0.50558565   -8.4912798    684.52183  0.012173172  0.010665514            1 
 4687000   0.50589159   -8.4902385    683.32447  0.012149286  0.010662003            2 
 4688000   0.50450823   -8.4999441    684.57756   0.01216897  0.010658496            4 
 4689000   0.49838845   -8.4700366    683.80489  0.012152642   0.01065499            6 
 4690000   0.49260207   -8.4736282    683.78387  0.012149678  0.010651486            3 
 4691000   0.50265883   -8.4783065    683.58693  0.012143589  0.010647984            2 
 4692000   0.50122247   -8.4731624    684.77681  0.012162134  0.010644479            3 
 4693000   0.51011947   -8.4919955    685.32019  0.012169192  0.010640979            3 
 4694000   0.50586934   -8.4684637    683.26869  0.012130179  0.010637479            3 
 4695000   0.51084219   -8.4795051    684.42111   0.01214805  0.010633982            5 
 4696000   0.50632834   -8.4980727     684.2923  0.012143177  0.010630485            4 
 4697000   0.50915013    -8.478476    683.59391  0.012128201  0.010626991            5 
 4698000    0.5032986   -8.4796089     685.0682   0.01215177  0.010623499            3 
 4699000   0.50149325    -8.483546     683.4723  0.012120882  0.010620007            3 
 4700000   0.49952406   -8.4836081    684.30469  0.012133062  0.010616516            7 
 4701000   0.49726803   -8.4970159    684.12822  0.012127353  0.010613027            2 
 4702000   0.49363014   -8.4897767    683.65967  0.012116469   0.01060954            5 
 4703000   0.49058014   -8.4873872    685.11326  0.012139649  0.010606054            3 
 4704000   0.50226125   -8.4830716    683.50732  0.012108619  0.010602568            3 
 4705000   0.49607929   -8.4996679    683.70368  0.012109523  0.010599082            4 
 4706000    0.5057972   -8.4794328    684.97667  0.012129492  0.010595598            3 
 4707000   0.50206784     -8.50042     685.0089  0.012127486  0.010592116            4 
 4708000     0.496156    -8.484216    684.29618  0.012112294  0.010588638            3 
 4709000   0.49173459   -8.4702545    684.98463  0.012121905  0.010585163            3 
 4710000   0.49286267   -8.4728076    685.73481  0.012132605  0.010581688            2 
 4711000   0.50408811   -8.4803278    684.09068  0.012100946  0.010578215            4 
 4712000   0.50230189   -8.4845166    685.12791  0.012116722  0.010574743            3 
 4713000   0.49856806   -8.4888335    684.35634  0.012100508  0.010571271            3 
 4714000   0.49691381   -8.4899812    684.42921  0.012099229  0.010567799            2 
 4715000   0.49853315   -8.4895315    683.65012  0.012082894  0.010564328            4 
 4716000   0.49052863   -8.4936912     684.8033  0.012100709   0.01056086            2 
 4717000   0.49704053   -8.4860287    685.06289  0.012102729  0.010557399            4 
 4718000   0.48749334   -8.4745188    684.12298  0.012083563  0.010553939            5 
 4719000   0.50736533   -8.4855103    683.59856  0.012071741  0.010550476            4 
 4720000   0.49548019   -8.4832743    683.77256  0.012072256  0.010547016            3 
 4721000   0.49825693   -8.4989548    684.33622  0.012079648  0.010543555            4 
 4722000    0.4912576   -8.4816985    683.73061  0.012066402  0.010540097            5 
 4723000   0.49124634   -8.4903225    684.82069  0.012083081  0.010536642            3 
 4724000   0.49283103   -8.4842561    684.48567  0.012074613  0.010533186            4 
 4725000    0.5032316   -8.4874078    684.34323  0.012069545  0.010529733            2 
 4726000   0.49939304   -8.4883632    683.41039  0.012050543  0.010526282            3 
 4727000   0.49661654   -8.4957582      684.272  0.012063183  0.010522832            5 
 4728000   0.49372745   -8.4993374    683.77028  0.012051789  0.010519383            3 
 4729000   0.49375991   -8.4972063    684.22342  0.012057225  0.010515933            3 
 4730000   0.49363569   -8.4858299    684.42507  0.012058229  0.010512484            5 
 4731000   0.49431813   -8.5059965    685.04902  0.012066671  0.010509037            2 
 4732000   0.49466272   -8.4903272    684.39864  0.012052667  0.010505593            3 
 4733000   0.49220884   -8.4875099    683.63335  0.012036646  0.010502148            3 
 4734000   0.49533301   -8.5006436    684.63044  0.012051655  0.010498709            4 
 4735000   0.48717135   -8.4914975    683.67126  0.012032229  0.010495269            2 
 4736000   0.49909086   -8.4857186    684.65402  0.012046981  0.010491828            6 
 4737000    0.4942665   -8.4943852    684.45066   0.01204086  0.010488385            6 
 4738000   0.48929422    -8.493225    684.55188  0.012040099  0.010484949            6 
 4739000   0.48468523   -8.4953477    683.16029  0.012013088  0.010481511            3 
 4740000   0.49465248   -8.5020862    684.38341  0.012032057  0.010478073            4 
 4741000    0.5016635   -8.4769064    683.74044  0.012018218  0.010474637            3 
 4742000   0.49400391    -8.497107    684.32064  0.012025879  0.010471204            3 
 4743000   0.49270215   -8.5015073    684.29234  0.012022847  0.010467771            3 
 4744000   0.48452556    -8.495103    683.80475  0.012011747   0.01046434            5 
 4745000   0.49466939   -8.4905588    682.97184  0.011994588   0.01046091            3 
 4746000   0.49138651   -8.5012975    684.14115  0.012012592  0.010457482            2 
 4747000   0.48963469    -8.498209    684.31432  0.012013102  0.010454054            4 
 4748000   0.48837046   -8.4823741    684.14635  0.012007623   0.01045063            5 
 4749000   0.49296421    -8.498558      684.416  0.012009827  0.010447205            4 
 4750000   0.48620002   -8.4981697    684.38755  0.012006799  0.010443784            3 
 4751000   0.49890585   -8.5072686    683.85862  0.011994994  0.010440361            3 
 4752000    0.4992274   -8.4909301    682.53881  0.011969325  0.010436946            2 
 4753000    0.4901418   -8.4983407    683.62752  0.011985895  0.010433526            2 
 4754000   0.49366204   -8.5100349    683.62988  0.011983415  0.010430113            4 
 4755000   0.48767038   -8.5007457     685.3542  0.012011115    0.0104267            2 
 4756000   0.48820078   -8.5063378    684.23564   0.01198899  0.010423285            2 
 4757000   0.49253744   -8.4853856    683.97587  0.011981919  0.010419872            5 
 4758000   0.49649038   -8.4924067    683.77162  0.011975824  0.010416465            5 
 4759000   0.48638627    -8.487914    683.66227  0.011971392  0.010413056            4 
 4760000   0.49683449   -8.5040435    684.67058   0.01198653  0.010409647            3 
 4761000   0.48514169   -8.4904468    684.59883  0.011982756  0.010406239            2 
 4762000   0.48960752    -8.498704    683.04378  0.011953027  0.010402837            3 
 4763000   0.48527427   -8.5125989     684.4225   0.01197464  0.010399434            2 
 4764000   0.48081559   -8.4897517    684.58385  0.011974948  0.010396036            5 
 4765000    0.4966648   -8.4928719    683.75886  0.011958007  0.010392639            2 
 4766000   0.47898365   -8.5046219    683.76825  0.011955662  0.010389242            3 
 4767000   0.48193037   -8.4985915    683.96502  0.011956594  0.010385845            5 
 4768000   0.48655896   -8.5036596    683.55962  0.011947001  0.010382449            3 
 4769000   0.49081838   -8.4851419    683.84148  0.011949421  0.010379052            5 
 4770000   0.49031795   -8.4950375     683.7895  0.011946008  0.010375662            3 
 4771000   0.49885112   -8.4962512    684.36285  0.011953519  0.010372274            3 
 4772000   0.49518144   -8.5170069    683.29628  0.011932388  0.010368885            4 
 4773000   0.47982607   -8.4884215    683.76307  0.011938038  0.010365497            3 
 4774000   0.47645185   -8.4818344    683.52933  0.011931457  0.010362113            2 
 4775000   0.48487672   -8.5021606    683.67119  0.011931434  0.010358726            4 
 4776000   0.48980224   -8.4972738    683.78428  0.011930909  0.010355342            2 
 4777000   0.49420875   -8.5003757    684.10465  0.011934001  0.010351958            2 
 4778000   0.48668875   -8.4809619    684.25728  0.011934165  0.010348577            3 
 4779000   0.48880298    -8.500749    684.13222  0.011929487  0.010345198            4 
 4780000   0.48374493    -8.492467    684.35836  0.011930934  0.010341819            3 
 4781000   0.49275532   -8.4987539    683.91619  0.011920731  0.010338438            4 
 4782000   0.48510734   -8.5060503    684.63303   0.01193073  0.010335061            3 
 4783000   0.47877909   -8.5038858    683.02618   0.01190024  0.010331686            5 
 4784000   0.48032933   -8.4896964    683.50148  0.011906032  0.010328313            4 
 4785000   0.49593205   -8.5106147    683.44796  0.011902612  0.010324937            2 
 4786000   0.48393578   -8.5005657    682.69389  0.011886995  0.010321566            3 
 4787000   0.49045724   -8.5031715    683.61234    0.0119005  0.010318196            2 
 4788000    0.4792745   -8.5005142    683.68179  0.011899224  0.010314827            2 
 4789000   0.48766535   -8.5019838    683.83523  0.011899409  0.010311455            2 
 4790000   0.48817804   -8.5065562      683.336  0.011888239  0.010308087            3 
 4791000   0.48339981   -8.4881447    682.22945  0.011866511   0.01030472            3 
 4792000   0.47472376   -8.5153914    683.56803  0.011887313  0.010301353            4 
 4793000   0.49297463    -8.513668    683.41117  0.011882105  0.010297987            4 
 4794000   0.47677917   -8.4980508    683.51195  0.011881379  0.010294622            5 
 4795000   0.49257021   -8.5096807    683.48356  0.011878407  0.010291258            3 
 4796000    0.4789777   -8.5243778     683.0344  0.011868126  0.010287892            3 
 4797000    0.4837423   -8.5213985    683.89033  0.011880521  0.010284531            3 
 4798000   0.48513592   -8.4855621    683.67339  0.011874277  0.010281172            2 
 4799000   0.49083709   -8.5252305    682.84206  0.011857367   0.01027781            3 
 4800000   0.48596959    -8.495237    684.42521  0.011882382  0.010274455            4 
 4801000   0.48905095   -8.5113094    683.32878  0.011860876    0.0102711            2 
 4802000   0.48099317   -8.5094394    683.86204   0.01186766  0.010267748            6 
 4803000   0.48427377    -8.500483    682.94094  0.011849208  0.010264395            3 
 4804000   0.48510356   -8.5031681        683.7  0.011859908  0.010261047            4 
 4805000   0.48124709   -8.5100892    683.90262  0.011860954  0.010257698            3 
 4806000   0.48503691   -8.5137345    683.06136  0.011843899   0.01025435            3 
 4807000   0.47846326   -8.5089099    682.27844  0.011827863  0.010251005            3 
 4808000   0.48587844   -8.5165531    682.72456  0.011833135  0.010247659            5 
 4809000   0.48026903   -8.5094852    683.67018  0.011847061  0.010244313            4 
 4810000   0.48578084   -8.5012882    683.54814  0.011842483  0.010240967            3 
 4811000   0.48208654   -8.4961311    681.68139  0.011807687  0.010237626            4 
 4812000    0.4800534    -8.515687    683.58542  0.011838207  0.010234286            4 
 4813000   0.48493977   -8.5079768    684.08546  0.011844405  0.010230951            3 
 4814000   0.49304359   -8.5061242    682.91042  0.011821604  0.010227617            3 
 4815000   0.49085537   -8.5104654    683.41107  0.011827814  0.010224283            4 
 4816000   0.49386858   -8.5125841    683.20294  0.011821756  0.010220949            3 
 4817000   0.47994329    -8.505125    683.49493  0.011824353  0.010217611            5 
 4818000   0.48218771   -8.5107123    683.29648  0.011818467  0.010214276            3 
 4819000   0.48442699    -8.511666    682.38119  0.011800187  0.010210944            1 
 4820000   0.48331332   -8.5132993    684.17644  0.011828777  0.010207615            5 
 4821000   0.47972117   -8.5311843    684.31738  0.011828759  0.010204287            3 
 4822000   0.48014365   -8.5032884    682.47154  0.011794407  0.010200958            3 
 4823000   0.47699704   -8.4950808    682.49474  0.011792362  0.010197633            5 
 4824000    0.4863006   -8.5124417    682.96593  0.011798057  0.010194309            3 
 4825000   0.48841269   -8.5261102    683.09749  0.011797884  0.010190984            3 
 4826000   0.46717596   -8.5309555    683.45169  0.011801556  0.010187659            3 
 4827000   0.47820627   -8.5044012    683.95865  0.011807863  0.010184337            2 
 4828000   0.47793916   -8.5206227    682.77657  0.011785014   0.01018102            4 
 4829000   0.47453789    -8.508306    683.29909  0.011791591  0.010177701            4 
 4830000   0.47756306   -8.5187899    683.47509  0.011792186  0.010174384            3 
 4831000   0.48495465   -8.5131248    682.84398  0.011778858  0.010171069            2 
 4832000   0.47851003   -8.5167791    682.61789  0.011772522  0.010167758            3 
 4833000   0.48130278   -8.5105609    682.64773    0.0117706  0.010164448            8 
 4834000   0.47799523   -8.5124384    683.19444   0.01177759  0.010161137            3 
 4835000   0.47563343   -8.5300332    681.75885  0.011750411  0.010157828            4 
 4836000   0.46845616   -8.5119541    683.49946  0.011777975   0.01015452            4 
 4837000   0.47955196   -8.5222583     684.1587  0.011786898  0.010151213            3 
 4838000   0.47782018   -8.5227727     683.2807  0.011769338  0.010147905            4 
 4839000   0.47318352   -8.5227388    683.43229  0.011769517    0.0101446            4 
 4840000   0.46588855   -8.5199034    682.96052  0.011758962  0.010141297            2 
 4841000   0.48993904   -8.5162217    683.60416  0.011767613  0.010137995            4 
 4842000   0.47213123    -8.513378    684.21176   0.01177564  0.010134694            4 
 4843000   0.47371896    -8.522536    683.56957  0.011762158  0.010131399            2 
 4844000   0.48457164   -8.5273797    683.77316  0.011763232    0.0101281            4 
 4845000   0.47141042   -8.5140017      683.975  0.011764276  0.010124802            4 
 4846000   0.47591912   -8.5008425     683.3149  0.011750497  0.010121507            4 
 4847000   0.46482094   -8.5293527     682.3858  0.011732099  0.010118213            3 
 4848000   0.48095774   -8.5314587    683.50882  0.011748983   0.01011492            4 
 4849000   0.47350236   -8.5237591    682.60799  0.011731078   0.01011163            5 
 4850000   0.46120695   -8.5265542    682.57561  0.011728103  0.010108344            2 
 4851000   0.47163496   -8.5293855    682.79639  0.011729478  0.010105055            3 
 4852000   0.48082836    -8.524386    682.20064  0.011716829  0.010101771            4 
 4853000   0.47583923   -8.5358436    682.89259  0.011726296  0.010098489            2 
 4854000   0.47209033   -8.5316844    683.45511  0.011733538  0.010095206            3 
 4855000   0.47791666   -8.5210836    683.73994   0.01173601  0.010091928            2 
 4856000   0.46825101   -8.5305442    683.80174  0.011734654  0.010088648            3 
 4857000   0.47518464   -8.5260401    683.62234   0.01172916  0.010085369            2 
 4858000   0.46873392   -8.5226211    684.50328  0.011741857  0.010082092            1 
 4859000   0.47507936   -8.5367326    683.88263  0.011728796  0.010078817            5 
 4860000   0.47457763   -8.5109005    683.50443  0.011719898  0.010075547            3 
 4861000   0.47486026   -8.5278862    683.55502  0.011718354  0.010072272            2 
 4862000    0.4757389   -8.5161633    683.38784  0.011713078  0.010068999            4 
 4863000   0.47971088   -8.5275882    682.73681  0.011699514  0.010065729            3 
 4864000   0.48287677   -8.5295935    683.17706  0.011704651  0.010062463            2 
 4865000     0.471152   -8.5300414    683.05955  0.011700232  0.010059193            5 
 4866000   0.47072952   -8.5021705    682.88625   0.01169486  0.010055927            2 
 4867000   0.47856102   -8.5197512    683.11588  0.011696389   0.01005266            4 
 4868000   0.47477456   -8.5307762    683.13557  0.011694323  0.010049397            3 
 4869000   0.46959769   -8.5431707    682.83751   0.01168682  0.010046132            2 
 4870000   0.48408527   -8.5271852    683.64267  0.011698198  0.010042869            3 
 4871000     0.471118   -8.5368626     684.0263  0.011702359  0.010039608            3 
 4872000   0.47510972   -8.5283941    682.25721  0.011669698  0.010036351            2 
 4873000   0.47102557    -8.524969      682.699  0.011674858  0.010033095            4 
 4874000   0.45749807   -8.5290677    682.78413  0.011673918  0.010029836            4 
 4875000   0.47264227   -8.5281417    682.28076  0.011662919  0.010026582            2 
 4876000   0.46689548   -8.5280185    682.79197  0.011669264  0.010023329            2 
 4877000   0.48257872   -8.5151987    683.24127  0.011674548  0.010020076            2 
 4878000   0.47989105   -8.5348456    683.49574  0.011676502  0.010016823            3 
 4879000   0.46980772   -8.5304658    683.62618  0.011676337  0.010013568            3 
 4880000   0.46072319   -8.5268532     683.2823  0.011668072  0.010010317            3 
 4881000   0.46421312   -8.5347324    683.27588  0.011665572  0.010007071            5 
 4882000   0.46847845   -8.5208871    682.35416  0.011647449  0.010003822            4 
 4883000   0.46634435   -8.5286459    682.02205  0.011639396  0.010000577            3 
 4884000   0.46680426   -8.5270835     682.2234  0.011640448 0.0099973334            3 
 4885000    0.4643167   -8.5313563    682.07782  0.011635582 0.0099940897            3 
 4886000   0.46429925   -8.5346586    682.85362  0.011646432 0.0099908497            3 
 4887000   0.47135624   -8.5323782    681.62887  0.011623165  0.009987608            4 
 4888000    0.4669745   -8.5282259    683.18357  0.011647292 0.0099843688            2 
 4889000   0.46001319    -8.537795    682.75003   0.01163752 0.0099811289            2 
 4890000   0.46738432   -8.5328759    682.26173  0.011626819 0.0099778908            3 
 4891000   0.47294339   -8.5249617    681.36124  0.011609099 0.0099746562            3 
 4892000   0.46218873   -8.5270893    683.00379  0.011634706 0.0099714217            2 
 4893000   0.47567499   -8.5542328    682.19546  0.011618562 0.0099681887            2 
 4894000   0.46353082   -8.5452386    683.01421  0.011630129 0.0099649579            2 
 4895000   0.45930213   -8.5306447    682.93896  0.011626472 0.0099617302            3 
 4896000   0.46551185   -8.5270232    682.79048   0.01162157 0.0099585027            2 
 4897000   0.46613285   -8.5458285    682.70203  0.011617692 0.0099552758            3 
 4898000    0.4598681   -8.5439547    682.61725  0.011613877 0.0099520543            5 
 4899000   0.47174632   -8.5357071    683.57748   0.01162784 0.0099488294            2 
 4900000   0.46429729    -8.533562    683.01015  0.011615819 0.0099456083            5 
 4901000   0.46597779   -8.5406815    682.72771  0.011608646  0.009942389            4 
 4902000   0.46724935   -8.5273687    682.45933  0.011601716 0.0099391713            2 
 4903000   0.46563979   -8.5451394    683.14554  0.011611013  0.009935952            3 
 4904000   0.45592274   -8.5363037    682.68562   0.01160083 0.0099327342            3 
 4905000    0.4713937   -8.5107049    682.60051  0.011597019 0.0099295181            2 
 4906000   0.46767364   -8.5122077    683.30984  0.011606703 0.0099263056            3 
 4907000   0.47699382   -8.5363396    683.77609  0.011612256 0.0099230922            3 
 4908000   0.46903011     -8.52897     681.9101  0.011578207 0.0099198786            2 
 4909000   0.47707828    -8.550527    682.97051   0.01159385   0.00991667            3 
 4910000   0.46783816   -8.5268968    681.90477  0.011573401 0.0099134596            5 
 4911000   0.46134097   -8.5352163    683.12994  0.011591834 0.0099102514            3 
 4912000   0.48256723   -8.5333293     682.0054  0.011570396 0.0099070447            4 
 4913000   0.47233168   -8.5229975    682.73368  0.011580393 0.0099038436            3 
 4914000   0.47393369   -8.5365372    682.02871  0.011566082 0.0099006419            4 
 4915000   0.47209508   -8.5391534    682.42287  0.011570412  0.009897437            1 
 4916000   0.46366307   -8.5300395    682.48623  0.011569132  0.009894234            2 
 4917000   0.47402735   -8.5512051    683.60585  0.011585754 0.0098910331            1 
 4918000   0.46644646   -8.5335474    682.65685  0.011567318 0.0098878322            2 
 4919000   0.46850093   -8.5445975    682.82226  0.011567769 0.0098846331            3 
 4920000   0.46591895   -8.5419847    681.70046  0.011546417 0.0098814361            2 
 4921000   0.45248998    -8.541664    682.38217  0.011555615  0.009878238            4 
 4922000   0.45957106   -8.5337919    682.06616  0.011547917 0.0098750439            3 
 4923000   0.46369981   -8.5351971    682.14165  0.011546849  0.009871848            4 
 4924000   0.46683691    -8.543131    682.48405  0.011550299 0.0098686568            2 
 4925000    0.4700355   -8.5332362    682.05214  0.011540645 0.0098654662            4 
 4926000   0.46171912   -8.5587803    682.79754  0.011550913 0.0098622747            3 
 4927000   0.46143917   -8.5536163    682.36872  0.011541315 0.0098590833            4 
 4928000    0.4621584   -8.5397825    681.33394  0.011521475  0.009855896            3 
 4929000   0.44746552   -8.5545846    682.39853  0.011537136  0.009852708            3 
 4930000   0.46425996   -8.5354967    682.52513  0.011536936 0.0098495226            2 
 4931000   0.46204115   -8.5574924    683.63493  0.011553352 0.0098463398            4 
 4932000   0.44566753   -8.5408177    682.05401  0.011524297 0.0098431583            2 
 4933000   0.45739294   -8.5315081    681.85431  0.011518588 0.0098399768            4 
 4934000   0.46589035    -8.535699    683.05441  0.011536522 0.0098367996            1 
 4935000   0.45080308   -8.5548243    683.02968  0.011533767  0.009833623            3 
 4936000   0.46671017    -8.540557    682.67012   0.01152536 0.0098304477            2 
 4937000   0.45245988   -8.5581194    681.97034  0.011511214 0.0098272719            4 
 4938000   0.45988682   -8.5399011    683.44045  0.011533692 0.0098240983            2 
 4939000   0.46579815   -8.5529565    682.81427  0.011520791 0.0098209239            3 
 4940000   0.45972984   -8.5362991     682.2889  0.011509597 0.0098177537            5 
 4941000   0.46367883   -8.5513129    682.80296  0.011515937 0.0098145823            3 
 4942000    0.4620842   -8.5468595    682.20194  0.011503473 0.0098114147            2 
 4943000   0.46582129   -8.5380443    682.56013  0.011507184 0.0098082514            4 
 4944000   0.45872183    -8.525098    682.76642  0.011508334 0.0098050854            2 
 4945000   0.45854882   -8.5568781    681.86381  0.011490796  0.009801919            3 
 4946000   0.45260895   -8.5409423    682.48725  0.011498976 0.0097987561            2 
 4947000   0.46130179   -8.5340478    683.05156  0.011506158 0.0097955957            4 
 4948000   0.46287606   -8.5378665    682.00012  0.011486124  0.009792433            4 
 4949000   0.46285303   -8.5394228    683.01335  0.011500865 0.0097892726            3 
 4950000   0.46012588   -8.5490036    682.92875  0.011497117 0.0097861146            3 
 4951000   0.46415021    -8.550974    682.58288  0.011488973 0.0097829587            4 
 4952000   0.45693971   -8.5497159    682.28886  0.011481705 0.0097798052            2 
 4953000   0.45425366   -8.5324561    682.11182  0.011476408 0.0097766507            5 
 4954000    0.4616955   -8.5456631      682.106  0.011473994 0.0097734953            1 
 4955000   0.46448607   -8.5445303    682.43756  0.011477255 0.0097703416            4 
 4956000   0.45759268   -8.5608847    682.31399  0.011472861 0.0097671903            2 
 4957000   0.46316416   -8.5540228    682.91398  0.011480633 0.0097640396            2 
 4958000    0.4560864    -8.563289    682.15813  0.011465613 0.0097608891            2 
 4959000   0.45826041    -8.544185    681.69354  0.011455494 0.0097577414            3 
 4960000   0.45831321   -8.5503836    681.67054  0.011452798 0.0097545976            3 
 4961000   0.46348902     -8.55879    682.61099  0.011466287 0.0097514559            1 
 4962000   0.45708728   -8.5395504    682.03769  0.011454348 0.0097483133            2 
 4963000   0.46122146   -8.5350164    681.99137  0.011451262 0.0097451736            2 
 4964000   0.45289789   -8.5374011    681.81431  0.011445983  0.009742033            3 
 4965000   0.45635013   -8.5409269     682.1896  0.011449977 0.0097388958            4 
 4966000   0.46008668   -8.5498308    682.40346   0.01145126 0.0097357609            4 
 4967000   0.45904406   -8.5396833     682.2587  0.011446525 0.0097326254            2 
 4968000   0.45898653   -8.5401669    683.00341  0.011456713 0.0097294884            3 
 4969000   0.45708964   -8.5479407     682.3916  0.011444147 0.0097263547            4 
 4970000   0.46045196   -8.5556859    682.72419  0.011447421 0.0097232213            4 
 4971000   0.44360274   -8.5467994    682.81483  0.011446638 0.0097200871            3 
 4972000   0.45699115   -8.5378491    681.60968  0.011424137 0.0097169562            2 
 4973000   0.45450989   -8.5566062    682.28672  0.011433185 0.0097138266            2 
 4974000   0.45496107   -8.5420202    683.04366  0.011443567  0.009710696            2 
 4975000   0.46285449   -8.5512302    681.63952  0.011417747 0.0097075672            2 
 4976000    0.4574163   -8.5549604     681.9305  0.011420326 0.0097044398            4 
 4977000   0.45210528   -8.5510558    681.89181  0.011417383 0.0097013127            3 
 4978000   0.44756267   -8.5638778    682.91711  0.011432254 0.0096981881            3 
 4979000   0.44889284   -8.5425577    682.13188  0.011416815 0.0096950659            3 
 4980000   0.45609945   -8.5530702     682.5537  0.011421581 0.0096919439            2 
 4981000   0.46666103   -8.5505278     682.5297  0.011418887 0.0096888239            2 
 4982000    0.4464921   -8.5426355    681.81979   0.01140472 0.0096857041            2 
 4983000   0.45017414   -8.5557711     682.2636  0.011409854  0.009682585            4 
 4984000    0.4615282   -8.5550102    681.90382  0.011401549 0.0096794692            5 
 4985000   0.45241132    -8.561205    682.12317  0.011402928 0.0096763534            3 
 4986000   0.45480497   -8.5545982      681.529  0.011390711 0.0096732411            3 
 4987000   0.45400301   -8.5517044      681.066   0.01138069 0.0096701269            5 
 4988000   0.45794992   -8.5585632    682.07341  0.011395239 0.0096670135            1 
 4989000   0.46600086   -8.5560367    681.81971  0.011388717 0.0096639017            4 
 4990000    0.4626189   -8.5525193    682.78181  0.011402502 0.0096607935            3 
 4991000   0.45062575   -8.5577402    681.58142  0.011380175 0.0096576849            3 
 4992000   0.45106578   -8.5448958    681.65026  0.011379044 0.0096545763            5 
 4993000    0.4480438   -8.5479574    682.12488  0.011384687 0.0096514711            4 
 4994000   0.44493744   -8.5425879    682.24115  0.011384347 0.0096483664            5 
 4995000   0.46745146   -8.5641976    681.94235  0.011377083 0.0096452631            2 
 4996000   0.44540137   -8.5505232    681.74417    0.0113715  0.009642161            4 
 4997000    0.4649386   -8.5525095    682.08775  0.011374954  0.009639063            4 
 4998000   0.45193633   -8.5588696    682.16864  0.011374027 0.0096359632            3 
 4999000   0.46131248   -8.5492493     682.0559  0.011369872 0.0096328651            2 
 5000000   0.44095498    -8.550977    681.71938   0.01136199 0.0096297654            2 
 5001000   0.44210101    -8.568621    681.73175  0.011359924 0.0096266694            3 
 5002000   0.45444624   -8.5655879    682.27999  0.011366786 0.0096235749            4 
 5003000   0.45817026   -8.5424616    681.58034  0.011352861  0.009620483            2 
 5004000   0.44451603   -8.5701173    681.80365  0.011354311 0.0096173924            2 
 5005000   0.45302247   -8.5608206    681.43152  0.011345846 0.0096143047            5 
 5006000   0.45632189   -8.5744475    681.80927  0.011349868 0.0096112139            3 
 5007000   0.46358141   -8.5480894    681.99217  0.011350645 0.0096081275            3 
 5008000   0.45139788   -8.5424541    680.23953  0.011319215 0.0096050398            3 
 5009000   0.45122816   -8.5657467    681.88232  0.011344286 0.0096019539            3 
 5010000   0.44760718   -8.5514208    681.70409  0.011339057 0.0095988672            3 
 5011000   0.44509249   -8.5475707    680.54107  0.011317453 0.0095957832            2 
 5012000   0.45175636   -8.5483369    682.07393  0.011340681 0.0095927015            1 
Loop time of 11857.3 on 48 procs for 5000000 steps with 4000 atoms

Performance: 72866.235 tau/day, 421.680 timesteps/s
99.4% CPU use with 48 MPI tasks x no OpenMP threads

MPI task timing breakdown:
Section |  min time  |  avg time  |  max time  |%varavg| %total
---------------------------------------------------------------
Pair    | 741.75     | 790.42     | 838.25     |  94.5 |  6.67
Neigh   | 77.295     | 80.593     | 83.885     |  19.3 |  0.68
Comm    | 748.69     | 799.04     | 858.5      | 106.3 |  6.74
Output  | 13.656     | 13.661     | 13.758     |   0.4 |  0.12
Modify  | 10055      | 10070      | 10099      |   7.6 | 84.92
Other   |            | 104        |            |       |  0.88

Nlocal:        83.3333 ave          92 max          76 min
Histogram: 1 6 4 5 10 11 6 3 0 2
Nghost:        2011.94 ave        2036 max        1991 min
Histogram: 2 6 7 4 10 4 6 2 5 2
Neighs:        13028.1 ave       14836 max       11375 min
Histogram: 1 4 3 7 11 12 4 4 1 1
FullNghs:      26055.6 ave       28979 max       23475 min
Histogram: 1 4 6 4 14 9 4 4 0 2

Total # of neighbors = 1250671
Ave neighs/atom = 312.66775
Neighbor list builds = 268012
Dangerous builds = 0

#clear
#
#next RN
#
#jump SELF
Total wall time: 3:17:40
