
units lj                  # Use reduced LJ style units
atom_style atomic         # Uncharged point particles
atom_modify map hash      # Needed for indexing of clusters etc
                          # Used to be able to find where atoms are in relation to each other.

lattice fcc 1.0 spacing 1 1 1
Lattice spacing in x,y,z = 1.5874011 1.5874011 1.5874011
region box block 0 10 0 10 0 10 units lattice
create_box 2 box
Created orthogonal box = (0.0000000 0.0000000 0.0000000) to (15.874011 15.874011 15.874011)
  3 by 4 by 4 MPI processor grid
create_atoms 1 box
Created 4000 atoms
  using lattice units in orthogonal box = (0.0000000 0.0000000 0.0000000) to (15.874011 15.874011 15.874011)
  create_atoms CPU = 0.002 seconds
set type 1 type/fraction 2 0.72 78393
Setting atom values ...
  2894 settings made for type/fraction
mass 1 1.0
mass 2 1.0
pair_style lj/cut  3.5
pair_modify tail  yes
pair_coeff 1  1  1.0  1.0   # Intearaction between 1 and 1 set with epsilon = 1 and sigma = 1
pair_coeff 1  2  1.5  0.8
pair_coeff 2  2  0.5  0.88

write_data data.0
System init for write_data ...
Neighbor list info ...
  update every 1 steps, delay 10 steps, check yes
  max neighbors/atom: 2000, page size: 100000
  master list distance cutoff = 3.8
  ghost atom cutoff = 3.8
  binsize = 1.9, bins = 9 9 9
  1 neighbor lists, perpetual/occasional/extra = 1 0 0
  (1) pair lj/cut, perpetual
      attributes: half, newton on
      pair build: half/bin/atomonly/newton
      stencil: half/bin/3d
      bin: standard
WARNING: Not all mixed pair coeffs generated from mixing. Use write_data with 'pair ij' option to store all pair coeffs. (../write_data.cpp:312)


#############################
#   M E L T   S Y S T E M   #
#############################

velocity all create 2.4 9580093 mom yes dist gaussian # Assign velocities
                                                    # Temperature 2.4, random number seed, zero linear momentum
                                                                                # Gaussian distribution

timestep 0.002   # simulation timestep
thermo 1000       # output thermodynamic data every 1000 steps bf 100

# Define a fix  in this case with index 1 applied to all
# particles in the simulation. This fix is for simulations
# in the anisotropic NPT ensemble. Note that we use the MTK
# correction.
fix 1 all npt temp 2.4 2.4 0.1 iso 5.68 5.68 0.5 mtk yes tchain 5 pchain 5 # Use NPT ensemble
                                                                         # Set temperature and pressure and damping
                                                                         # Numbers of thermostats in chain and in barostat
run 10000          # run for 10000 steps
Per MPI rank memory allocation (min/avg/max) = 3.642 | 3.644 | 3.648 Mbytes
Step Temp E_pair E_mol TotEng Press Volume 
       0          2.4   -4.0785584            0  -0.47945841   -3.6688173         4000 
    1000    2.3696287   -3.6750474            0  -0.12149293    5.7355413    3665.2221 
    2000    2.3943592   -3.6533602            0 -0.062719264    5.8784512     3662.128 
    3000    2.4108035   -3.6618363            0 -0.046535106     5.497742    3684.0401 
    4000    2.3965816   -3.6847792            0 -0.090805603    5.5425323    3670.7166 
    5000    2.3851402    -3.683504            0  -0.10668812    5.6407361    3666.1442 
    6000    2.4376021   -3.6530099            0 0.0024791746    5.8076169    3659.5889 
    7000    2.3926245   -3.6479503            0 -0.059910777      5.50906    3690.9766 
    8000    2.3947128   -3.6618404            0 -0.070669139    5.7585637    3674.6581 
    9000    2.4374914   -3.6444145            0  0.010908587    5.7927946    3676.6773 
   10000    2.3786191   -3.7270299            0  -0.15999333    5.6481166    3638.7834 
Loop time of 2.63826 on 48 procs for 10000 steps with 4000 atoms

Performance: 654977.221 tau/day, 3790.377 timesteps/s
99.6% CPU use with 48 MPI tasks x no OpenMP threads

MPI task timing breakdown:
Section |  min time  |  avg time  |  max time  |%varavg| %total
---------------------------------------------------------------
Pair    | 1.206      | 1.2578     | 1.3485     |   2.4 | 47.67
Neigh   | 0.21689    | 0.22357    | 0.23053    |   0.8 |  8.47
Comm    | 0.80102    | 0.88192    | 0.94722    |   3.3 | 33.43
Output  | 0.0002472  | 0.00025275 | 0.00032001 |   0.0 |  0.01
Modify  | 0.24       | 0.25925    | 0.28533    |   2.1 |  9.83
Other   |            | 0.01548    |            |       |  0.59

Nlocal:        83.3333 ave          97 max          75 min
Histogram: 4 6 8 8 6 12 2 0 1 1
Nghost:        1746.85 ave        1766 max        1718 min
Histogram: 1 1 1 5 7 11 5 7 7 3
Neighs:        10494.2 ave       12176 max        9192 min
Histogram: 3 3 7 6 13 6 7 1 0 2

Total # of neighbors = 503721
Ave neighs/atom = 125.93025
Neighbor list builds = 909
Dangerous builds = 228

# Equilibrate just above the melting temperature to avoid step fn in T

fix 1 all npt temp 1.25 1.25 0.1 iso 5.68 5.68 0.5 mtk yes tchain 5 pchain 5
run 2000
Per MPI rank memory allocation (min/avg/max) = 3.644 | 3.646 | 3.649 Mbytes
Step Temp E_pair E_mol TotEng Press Volume 
   10000    2.3786191   -3.7270299            0  -0.15999333    5.6481166    3638.7834 
   11000     1.241648   -5.3934907            0   -3.5314843    5.5439755    2814.7123 
   12000    1.2642165   -5.4009155            0   -3.5050649    6.1218565    2787.1974 
Loop time of 0.673738 on 48 procs for 2000 steps with 4000 atoms

Performance: 512958.842 tau/day, 2968.512 timesteps/s
99.6% CPU use with 48 MPI tasks x no OpenMP threads

MPI task timing breakdown:
Section |  min time  |  avg time  |  max time  |%varavg| %total
---------------------------------------------------------------
Pair    | 0.29804    | 0.32502    | 0.3764     |   2.8 | 48.24
Neigh   | 0.041725   | 0.044237   | 0.05171    |   0.9 |  6.57
Comm    | 0.1993     | 0.25304    | 0.27985    |   3.4 | 37.56
Output  | 5.164e-05  | 5.3044e-05 | 6.9173e-05 |   0.0 |  0.01
Modify  | 0.039329   | 0.046406   | 0.05114    |   1.7 |  6.89
Other   |            | 0.004983   |            |       |  0.74

Nlocal:        83.3333 ave          89 max          75 min
Histogram: 1 0 5 6 5 8 3 11 3 6
Nghost:        2093.44 ave        2116 max        2075 min
Histogram: 2 7 6 6 6 7 9 2 2 1
Neighs:        13701.1 ave       15271 max       12346 min
Histogram: 2 7 5 11 2 7 4 3 3 4

Total # of neighbors = 657651
Ave neighs/atom = 164.41275
Neighbor list builds = 144
Dangerous builds = 8

#############################
# L I N E A R  Q U E N C H  #
#############################

# Define solid atoms. This closely follows ten Wolde  Ruiz-Montero and Frenkel  Faraday Discuss  1996  104  93-110
# Compute components of the per-atom q6 vector
compute q6 all orientorder/atom degrees 1 6 components 6 nnn NULL cutoff 1.3 # compute the Q6 parameter.
                                                                             # Use all neighbours within 1.3 unit cell.

# get number of connections
compute coord_number all coord/atom orientorder q6 0.5

# An atom is solid if it has 8 or more connections (of a possible 14)
variable is_solid atom c_coord_number>=8
group solid dynamic all var is_solid    # Must be dynamic to update
dynamic group solid defined

# do clustering
compute cluster solid cluster/atom 1.3 # Create a cluster where all atoms within are solid and max 1.3 units from another member

# define chunks one chunk per cluster
compute clus_chunks solid chunk/atom c_cluster nchunk every compress yes  # Says which atoms are in which chunk

# count the size of each chunk
compute size_chunks solid property/chunk clus_chunks count


# Find the maximum entry in the vector of chunk sizes
variable max_n equal max(c_size_chunks)


# Thermo style which includes this variable
# thermo_style custom step temp pe vol v_max_n

thermo ${N}  # Print the thermo information every 100 steps
thermo 1000  

# Reset the npt fix at a lower temperature (below freezing)
fix 1  all npt temp  ${temp} ${temp}  0.1  iso  5.68  5.68  0.5  mtk yes tchain  5  pchain  5
fix 1  all npt temp  0.45 ${temp}  0.1  iso  5.68  5.68  0.5  mtk yes tchain  5  pchain  5
fix 1  all npt temp  0.45 0.45  0.1  iso  5.68  5.68  0.5  mtk yes tchain  5  pchain  5

dump dmp2 all dcd ${N} traj.dcd
dump dmp2 all dcd 1000 traj.dcd


compute msd all msd com yes
variable twopoint equal c_msd[4]/6/(step*dt+1.0e-6)
fix 9 all vector 10 c_msd[4]
variable fit equal slope(f_9)/6/(10*dt)
thermo_style custom step temp pe c_msd[4] v_twopoint v_fit v_max_n

fix 1 all npt temp 1.25 ${temp} 0.1 iso 5.68 5.68 0.5 mtk yes tchain 5 pchain 5
fix 1 all npt temp 1.25 0.45 0.1 iso 5.68 5.68 0.5 mtk yes tchain 5 pchain 5
run 2000000 # 5000000  # Run for this many steps
Neighbor list info ...
  update every 1 steps, delay 10 steps, check yes
  max neighbors/atom: 2000, page size: 100000
  master list distance cutoff = 3.8
  ghost atom cutoff = 3.8
  binsize = 1.9, bins = 8 8 8
  4 neighbor lists, perpetual/occasional/extra = 1 3 0
  (1) pair lj/cut, perpetual
      attributes: half, newton on
      pair build: half/bin/atomonly/newton
      stencil: half/bin/3d
      bin: standard
  (2) compute orientorder/atom, occasional
      attributes: full, newton on
      pair build: full/bin/atomonly
      stencil: full/bin/3d
      bin: standard
  (3) compute coord/atom, occasional
      attributes: full, newton on
      pair build: full/bin/atomonly
      stencil: full/bin/3d
      bin: standard
  (4) compute cluster/atom, occasional
      attributes: full, newton on
      pair build: full/bin/atomonly
      stencil: full/bin/3d
      bin: standard
Per MPI rank memory allocation (min/avg/max) = 9.845 | 9.848 | 9.852 Mbytes
Step Temp PotEng c_msd[4] v_twopoint v_fit v_max_n 
   12000    1.2642165   -5.4009155 8.3678421e-31 5.8110012e-33 8.3333333e+20            1 
   13000    1.2666409   -5.3926047   0.67214831 0.0043086428  0.056298388            4 
   14000    1.2413267   -5.4286949    1.2970879  0.007720761  0.054301487            3 
   15000    1.2753093   -5.4176171    1.9451402  0.010806334   0.05356063            3 
   16000    1.2482383   -5.4548266    2.6180178  0.013635509  0.054008579            2 
   17000    1.2555064   -5.4182218    3.3045545  0.016198796  0.054564078            3 
   18000    1.2589163   -5.4043956    3.8928798  0.018022591  0.054678936            2 
   19000    1.2373527    -5.417552    4.5502414  0.019957199  0.054306948            3 
   20000    1.2475557   -5.4218976    5.1872294  0.021613455  0.053962955            1 
   21000    1.2455599    -5.415193    5.9042268  0.023429471  0.054104634            2 
   22000    1.2580725   -5.4288508    6.5390891  0.024769276  0.054246533            4 
   23000    1.2461602   -5.4584063    7.2417268   0.02623814  0.054356166            3 
   24000    1.2243762   -5.4416337    7.8226782  0.027162076  0.054474508            2 
   25000    1.2433609   -5.4117758    8.4236289  0.028078763  0.054355061            3 
   26000    1.2489219   -5.4521823    9.0417844  0.028980078  0.054178966            2 
   27000    1.2305618   -5.4602553    9.6123623  0.029667784  0.053904663            2 
   28000     1.238234   -5.4050543    10.366857   0.03085374  0.053790271            2 
   29000    1.2155782   -5.4727661    10.956116  0.031483091  0.053689543            1 
   30000    1.2401599   -5.4254958    11.589413  0.032192813  0.053622869            2 
   31000     1.237555   -5.4453848    12.334822  0.033158123  0.053629591            1 
   32000    1.2636816   -5.4699027    12.996731  0.033845654   0.05372779            1 
   33000    1.2664365   -5.4955309    13.660432  0.034496041  0.053829445            2 
   34000    1.2170924   -5.4360083     14.26232  0.034956666   0.05386547            2 
   35000    1.2458626   -5.4387418    14.753843  0.035128198   0.05382194            1 
   36000    1.2383019   -5.4368412    15.328512  0.035482665  0.053686663            1 
   37000    1.2500149    -5.430347    16.018253  0.036077146  0.053573581            1 
   38000    1.2336619   -5.4405563    16.711803  0.036648691  0.053499157            1 
   39000    1.2639946   -5.4338814    17.215883  0.036786075  0.053437233            1 
   40000    1.2425618    -5.470783    18.009373  0.037519527  0.053383339            1 
   41000    1.2375878   -5.4607422    18.627024  0.037859805  0.053392416            1 
   42000      1.23822   -5.4905139    19.274764  0.038243579  0.053384625            5 
   43000    1.2464142    -5.460898    19.895058  0.038556314  0.053374518            2 
   44000    1.2141165   -5.4481916    20.389342  0.038616178   0.05332029            3 
   45000    1.2251664   -5.4563483    21.060891   0.03900165  0.053250736            3 
   46000    1.2127042   -5.4061171    21.848883  0.039581309  0.053238737            3 
   47000    1.2344633   -5.4953642    22.447366  0.039800294  0.053265857            1 
   48000    1.2554779   -5.4583575    23.211573   0.04029787   0.05328535            7 
   49000    1.2656846   -5.4590912    23.927115  0.040692373  0.053352116            2 
   50000    1.2602537   -5.4359735    24.655688  0.041092813  0.053406396            2 
   51000    1.2470919   -5.4700194    25.262347  0.041278344  0.053452467            2 
   52000    1.2113844    -5.460516    25.804661  0.041353624  0.053508665            2 
   53000    1.2431174   -5.4734425    26.384216  0.041484616  0.053529013            3 
   54000    1.2292551   -5.4176793    27.387668  0.042264919  0.053570886            2 
   55000     1.226189   -5.4822331    27.991426  0.042411251  0.053636155            3 
   56000    1.2044604    -5.436378     28.67879   0.04267677  0.053726659            1 
   57000     1.234466   -5.4634836    29.341906  0.042897523  0.053780651            4 
   58000    1.2247058   -5.4770191    29.897537  0.042956231  0.053839744            2 
   59000    1.2478216   -5.4046346    30.700877  0.043362821  0.053885908            3 
   60000    1.2387645   -5.4779134    31.321701  0.043502362  0.053948464            2 
   61000    1.2344868   -5.4682107    31.871114  0.043539773  0.054013447            2 
   62000    1.2246402   -5.4859611    32.602898  0.043821099  0.054065947            4 
   63000    1.2433785   -5.4634749    33.301722  0.044049896  0.054103932            2 
   64000    1.2630195   -5.4834033    33.934616  0.044185698  0.054153086            3 
   65000    1.2331949   -5.4704709    34.711258  0.044501612   0.05421899            4 
   66000    1.2239423   -5.4894483    35.279438  0.044544745  0.054281369            2 
   67000    1.2400727   -5.5032972    36.008178   0.04478629  0.054327109            4 
   68000    1.2483768   -5.4796878    36.529309   0.04476631   0.05436982            8 
   69000    1.2302768   -5.4880442    37.246322   0.04498348  0.054397422            3 
   70000    1.2185518   -5.4411928    38.081152  0.045334705  0.054417649            1 
   71000    1.2018707    -5.467934    38.568201  0.045267841  0.054453198            3 
   72000    1.2343817   -5.4362896    39.256239  0.045435462  0.054465893            2 
   73000    1.2407707   -5.5315896    39.604138  0.045210202  0.054464216            1 
   74000    1.2038645   -5.4700849    40.367025  0.045458361  0.054462243            1 
   75000    1.2064424   -5.4320405     40.85608  0.045395644  0.054463729            2 
   76000    1.2205589   -5.4489201    41.582492  0.045594838  0.054439033            4 
   77000    1.2604372   -5.4553212    41.863859  0.045307206   0.05439827            2 
   78000    1.2098617   -5.4424554    42.690275  0.045609268   0.05434481            1 
   79000    1.2282266   -5.4817277    43.120781  0.045486055  0.054289728            4 
   80000    1.1994853   -5.4549233    43.607224  0.045424192  0.054228689            4 
   81000    1.2376879    -5.495377    44.195337  0.045468453  0.054172447            1 
   82000    1.2359888   -5.5067419    44.877875  0.045607597  0.054110441            2 
   83000    1.2309381   -5.5012415     45.48398  0.045666647  0.054055649            4 
   84000    1.2125909   -5.5021346    46.038019  0.045672638  0.054002485            6 
   85000    1.2180805    -5.480825      46.7385  0.045822059  0.053940985            2 
   86000    1.2237686   -5.5015626    46.989989  0.045532935  0.053885895            3 
   87000    1.2101515   -5.4812298    48.065242  0.046039504  0.053833435            2 
   88000    1.2196353   -5.4917165    48.710257  0.046127137  0.053794404            2 
   89000    1.2213411   -5.4652829    49.382908  0.046238678  0.053765631            3 
   90000    1.2178662   -5.4648033    49.871119  0.046176962  0.053729005            3 
   91000    1.2328415   -5.4884123    50.159664  0.045933758  0.053676514            3 
   92000    1.2429551   -5.4799003    50.949925  0.046150294  0.053616227            2 
   93000    1.2266196   -5.4880392    51.479378  0.046128475  0.053561812            5 
   94000    1.2292617   -5.5125111    52.159803   0.04624096  0.053507564            6 
   95000     1.215488   -5.5299086    52.851465  0.046360934  0.053454836            2 
   96000    1.2141804    -5.481076    53.256546   0.04622964  0.053398057            1 
   97000    1.2039445   -5.5347073    53.902122  0.046307665  0.053342015            1 
   98000    1.2225367    -5.470483     54.40213  0.046260315  0.053286792            2 
   99000    1.2137981   -5.5069325    55.004389  0.046299991   0.05324216           12 
  100000    1.2235421   -5.4725596    55.713707  0.046428089  0.053194337            3 
  101000    1.2407329   -5.5707656    56.041414   0.04623879  0.053140163            4 
  102000    1.2319899   -5.4936714    56.875359  0.046466797  0.053096055            1 
  103000    1.2421865   -5.5151782    57.579637  0.046585467  0.053049231            2 
  104000    1.2248662   -5.4778484    58.134027  0.046581752  0.052998687            3 
  105000    1.1754059    -5.477688    58.815338  0.046678839   0.05294781            5 
  106000    1.1907818   -5.4795856    59.375846  0.046679124  0.052905416            2 
  107000      1.21851   -5.5220705    59.717601  0.046509034  0.052859866            3 
  108000    1.1939517   -5.4981283    60.876441  0.046972563  0.052819129            2 
  109000    1.2217434   -5.5217986    61.158617  0.046757352  0.052783737            1 
  110000    1.2265466   -5.5072117    61.934646  0.046920186  0.052747241            2 
  111000    1.2072419   -5.5299169    62.400219  0.046847011  0.052715153            1 
  112000     1.211953   -5.4969451    63.305779  0.047102514  0.052691411            2 
  113000    1.2136304   -5.4784597    64.095268  0.047267897  0.052671762            2 
  114000    1.1875901   -5.5064585    64.337706  0.047030487  0.052652074            1 
  115000    1.2142875   -5.5128565    64.634671  0.046836718  0.052622693            3 
  116000    1.2170028   -5.5167226    65.255745  0.046879127  0.052582052            6 
  117000    1.2288788    -5.502065    66.099047  0.047079093   0.05254704            2 
  118000    1.2044618   -5.5151901    66.560826  0.047006233  0.052504424            2 
  119000    1.2117655   -5.4956128    66.998583  0.046917775  0.052468476            2 
  120000    1.1843831   -5.5424772     67.44599  0.046837493  0.052427986            1 
  121000    1.1818253   -5.4907176    68.543876  0.047206526   0.05239289            1 
  122000    1.2365522   -5.4870195    68.722485  0.046941588  0.052356126            2 
  123000    1.2235752   -5.5287054    69.370053  0.046998681   0.05231961            2 
  124000    1.2051612   -5.4995447    70.343473  0.047273839  0.052290364            2 
  125000    1.2024256   -5.4968846    71.071951    0.0473813  0.052264124            3 
  126000    1.1940041   -5.5112588    71.129344  0.047043217  0.052235028            4 
  127000    1.1952108   -5.5077904    72.041103  0.047271065   0.05220691            3 
  128000     1.189549   -5.5099829    72.635159  0.047288515  0.052175754            2 
  129000     1.206957   -5.5216871    73.211645  0.047294344  0.052152112            2 
  130000    1.1920663   -5.4758858    73.899494   0.04737147  0.052128094            2 
  131000    1.2010408   -5.5105893    74.353187  0.047298465  0.052097766            1 
  132000    1.2039486   -5.5327281    74.487958  0.047025226  0.052061365            4 
  133000    1.1923422   -5.5166432    75.302297   0.04718189  0.052022756            3 
  134000    1.2008744   -5.5068805     75.49809  0.046951548  0.051982788            5 
  135000    1.1952289    -5.559773    75.946093  0.046880304  0.051935445            3 
  136000     1.189023   -5.5564141    76.465486  0.046853852  0.051883356            2 
  137000    1.2439675   -5.5416761    76.894966  0.046773093  0.051834082            3 
  138000    1.2084038   -5.5192121    77.733584   0.04694057  0.051788728            1 
  139000    1.2065957   -5.5058713    78.644038  0.047148704  0.051744257            2 
  140000    1.2047251    -5.518118    79.137946   0.04710592  0.051696373            4 
  141000    1.1913577   -5.5580813    79.395847   0.04692426  0.051653947            2 
  142000    1.2400735   -5.5353869    80.049134  0.046977191  0.051613301            2 
  143000    1.2093325   -5.5533461    80.430118  0.046870698  0.051574792            2 
  144000    1.2003918   -5.5124661    81.170309  0.046973558  0.051532147            4 
  145000    1.1958477   -5.5252475    81.880161  0.047057563  0.051491339            1 
  146000    1.2128127   -5.5223501     82.77102  0.047243733   0.05145653            2 
  147000    1.2096068   -5.5244097    83.172321  0.047149842  0.051423888            3 
  148000    1.2034934   -5.5142324    83.895954  0.047238713  0.051387772            3 
  149000     1.174111   -5.5492735    83.916399  0.046933109  0.051353447            2 
  150000    1.1924747   -5.5154963     84.65668  0.047031489  0.051315218            2 
  151000    1.2043471   -5.5496758    84.985102   0.04690127  0.051276156            3 
  152000    1.2064004   -5.5235925     85.58064  0.046919211  0.051232435            3 
  153000    1.1983228   -5.5557077    86.056133  0.046871532   0.05119263            3 
  154000    1.2115946   -5.5007104    86.979311  0.047066727  0.051152843            4 
  155000    1.2111165   -5.5423288    87.329905  0.046951561  0.051115402            4 
  156000    1.1898138   -5.5150571    88.012286   0.04701511  0.051076209            4 
  157000    1.2011654   -5.5382906    88.282447  0.046859048  0.051038338            4 
  158000    1.2145244   -5.5514757    88.919625  0.046898536   0.05099745            2 
  159000    1.2045799   -5.5336461    89.287225   0.04679624  0.050957243            2 
  160000    1.2005143   -5.5667657    89.637552  0.046686225   0.05091436            2 
  161000    1.1958158   -5.5672595    90.391765  0.046786628  0.050872548            3 
  162000    1.1987955   -5.5898483    90.880426   0.04674919  0.050829001            4 
  163000    1.1586732   -5.5375911    91.535698  0.046797391  0.050790035            3 
  164000    1.1928803   -5.5277399    92.401689  0.046952078  0.050750611            2 
  165000    1.1894794   -5.5557341    92.556959  0.046745939  0.050713887            2 
  166000    1.2080916   -5.5297389     93.44797  0.046911632  0.050674841            2 
  167000    1.2218773   -5.5371223    93.880588  0.046846601  0.050635504            1 
  168000    1.2091249   -5.5355066    94.465779  0.046858025  0.050599062            4 
  169000    1.1931388   -5.5667028    95.213625  0.046949519  0.050561363            2 
  170000    1.1826216   -5.5185632     95.48296  0.046805373  0.050522636            2 
  171000    1.1903003   -5.5364547    95.966954  0.046767521  0.050482796            3 
  172000    1.1793195   -5.5525547    96.422383  0.046716271  0.050442167            3 
  173000    1.1806624   -5.5326244    97.280248  0.046859464  0.050405341            3 
  174000    1.2175807    -5.560657    97.861807  0.046868681   0.05037308            2 
  175000    1.1980398   -5.4800392    99.032152  0.047158168  0.050343824            3 
  176000    1.1734842   -5.5685482    99.037462  0.046892738  0.050318021            2 
  177000    1.2037517   -5.5686015    99.317901   0.04675984  0.050286867            2 
  178000    1.2090627   -5.5697741    99.961351  0.046798385  0.050249309            2 
  179000    1.1769603    -5.559995    100.60416  0.046836203  0.050215681            6 
  180000    1.1933917   -5.5407801    101.16224   0.04683437  0.050182845            1 
  181000    1.1810192   -5.5662162    101.52047  0.046740547  0.050154642            2 
  182000    1.2043184   -5.5883478    102.01281  0.046709164  0.050120532            2 
  183000    1.1640451   -5.5805817    102.54563  0.046696554  0.050085877            2 
  184000    1.1575957    -5.563368    103.59809  0.046919422  0.050051277            2 
  185000    1.2026402   -5.5726207    103.92914  0.046814928  0.050017221            2 
  186000    1.1778439   -5.5634677    104.56694  0.046848989   0.04998234            2 
  187000    1.1895763   -5.5666579    104.65167  0.046636217  0.049947724            4 
  188000    1.1736914   -5.5484647    105.06596  0.046571789  0.049913735            2 
  189000    1.1950381   -5.5174555    105.94689  0.046713796  0.049879181            7 
  190000    1.2017931   -5.5604115    106.78947  0.046837485  0.049846211            2 
  191000     1.189748   -5.5855796    106.93496  0.046655741  0.049815202            3 
  192000    1.1780533   -5.5451153    108.01152  0.046879998  0.049783483            3 
  193000    1.1759643    -5.584707    107.88134  0.046580889  0.049751291            1 
  194000      1.17777   -5.5560685    108.51983  0.046615048  0.049718508            1 
  195000    1.1623517   -5.6309188    108.80029  0.046495849  0.049684239            1 
  196000    1.1598707   -5.5947569    109.22642  0.046439804  0.049645201            1 
  197000    1.1873511   -5.6270603    109.36307  0.046261873   0.04960835            2 
  198000    1.1790912   -5.5808126    110.75919  0.046615819  0.049571061            2 
  199000     1.181752   -5.5430691    111.10712   0.04652727  0.049541535            4 
  200000    1.1641992   -5.6108388    111.51121  0.046463002  0.049508785            2 
  201000    1.1917024   -5.5760078    112.50286  0.046642976  0.049477374            4 
  202000     1.142515   -5.5834623    113.07796  0.046649323  0.049444411            6 
  203000    1.1703958   -5.5789578    113.36357  0.046536771  0.049415608            5 
  204000    1.1587374   -5.5793237    114.21466  0.046656316  0.049382795            6 
  205000    1.1722585   -5.5944172    114.49259  0.046541705  0.049351687            2 
  206000     1.166236   -5.5800348    115.27582  0.046632611  0.049320251            3 
  207000    1.1892537   -5.5833211    115.76397  0.046603853  0.049294477            2 
  208000    1.1711631   -5.5806838     116.4757  0.046664944  0.049267825            9 
  209000    1.1753443   -5.6216212    116.38691  0.046406265  0.049241949            4 
  210000    1.1700682   -5.6067818    116.74024  0.046325492  0.049212589            3 
  211000    1.1878763   -5.6218938    117.31139  0.046331512  0.049182182            2 
  212000    1.1630257   -5.5544766    118.20876  0.046465709  0.049151486            2 
  213000    1.1587016   -5.5735328    118.52284  0.046370438    0.0491205            3 
  214000    1.1826288   -5.6205282    118.67434  0.046212747  0.049085736            2 
  215000    1.1800557   -5.5593005     119.5716  0.046345582  0.049052666            2 
  216000    1.1613043     -5.61184    119.82779  0.046229858   0.04901871            1 
  217000    1.1788849   -5.5714261    120.15088  0.046140891  0.048983735            6 
  218000    1.1606602   -5.6224568    120.82249  0.046185966   0.04895053            2 
  219000     1.160505   -5.6352443     121.1026  0.046081659  0.048918607            4 
  220000    1.1420164   -5.5926517    121.66072  0.046083605   0.04888572            2 
  221000    1.1529266   -5.6064973    122.88082   0.04633515  0.048856635            3 
  222000    1.1752593    -5.619541    123.34551  0.046300866  0.048825426            2 
  223000    1.1775797   -5.6212061    123.43296  0.046125918   0.04879538            2 
  224000    1.1583389   -5.5574928    124.87646  0.046457016  0.048764371            1 
  225000    1.1707245   -5.6214715     124.7275  0.046195371  0.048734641            3 
  226000    1.1732857   -5.6075516    125.05883  0.046113138  0.048702988            1 
  227000    1.1789321   -5.6232574    125.66532  0.046132645  0.048672552            1 
  228000    1.1732256    -5.614272    126.20238  0.046126602  0.048640839            3 
  229000    1.1695466   -5.6174661    126.39111  0.045993854  0.048610677            3 
  230000    1.1689562   -5.6292272    127.12601  0.046060147   0.04858104            1 
  231000    1.1471909   -5.6020386    127.19287  0.045884875  0.048549764            2 
  232000     1.164503   -5.5943659    127.24514  0.045705868  0.048511591            1 
  233000    1.1669546   -5.6046325    128.43566    0.0459355   0.04847604            1 
  234000    1.1607405   -5.6173724    128.51512  0.045767493  0.048441031            4 
  235000    1.1548963   -5.6036956    128.99321  0.045742274  0.048404212            3 
  236000     1.171734   -5.6262722    129.37951  0.045684855  0.048368831            3 
  237000    1.1492221   -5.6288213    130.11484  0.045750645  0.048332046            2 
  238000    1.1536741   -5.6265104    130.50432   0.04569479  0.048296954            5 
  239000    1.1682495    -5.655397    130.66804  0.045560684  0.048261943            3 
  240000    1.1451924   -5.6160834    131.26565  0.045578349  0.048226247            3 
  241000    1.1606139    -5.600902    132.05718  0.045662924  0.048190105            1 
  242000    1.1468542   -5.6071334    132.58761  0.045656889  0.048155968            5 
  243000    1.1582782   -5.6318398    132.73264  0.045518738  0.048121013            3 
  244000    1.1740389   -5.5932763    133.16785  0.045480825  0.048083834            4 
  245000    1.1470261   -5.6240803    133.60098  0.045442509  0.048045486            4 
  246000    1.1589081   -5.6656941    133.84738  0.045341255  0.048004234            4 
  247000    1.1781028   -5.6345724    134.66355  0.045433048  0.047963592            1 
  248000    1.1504384   -5.6027219    134.87323  0.045320306  0.047922795            6 
  249000    1.1578017   -5.6771135     135.7722  0.045439157  0.047883357            4 
  250000    1.1662732   -5.6390838    136.52866  0.045509554  0.047846478            6 
  251000    1.1509829   -5.6222304    136.36505  0.045273919  0.047809616            1 
  252000    1.1517961    -5.622051    137.04177  0.045318047  0.047771628            2 
  253000     1.147299   -5.6107331    138.06084  0.045474584  0.047734793            2 
  254000    1.1413991    -5.617277     138.2128  0.045345405  0.047697106            3 
  255000    1.1637573    -5.604253    138.40316   0.04522979  0.047660936            3 
  256000    1.1727511   -5.6231952    138.87948  0.045208162  0.047624442            6 
  257000    1.1416657   -5.6289835    139.22473  0.045144206  0.047585544            1 
  258000    1.1718834   -5.6255166    139.16352  0.044949457  0.047545423            2 
  259000    1.1303982   -5.6408175    139.99113  0.045042192  0.047506944            4 
  260000    1.1588787   -5.6268293    140.59818   0.04506352  0.047467549            4 
  261000    1.1586091   -5.6605021    141.00785  0.045021663  0.047432465            3 
  262000    1.1823348   -5.6484428    141.24153  0.044924152  0.047394574            3 
  263000    1.1585619   -5.5831802    143.14364  0.045356034  0.047359864            5 
  264000    1.1461643   -5.6215205    142.41068  0.044952867  0.047325118            3 
  265000     1.148047    -5.673659    142.73339  0.044884715  0.047287467            2 
  266000    1.1234736   -5.6560695    144.02339   0.04512011  0.047251303            4 
  267000      1.16361   -5.6620155    144.21124  0.045009749  0.047214403            2 
  268000    1.1653436   -5.6624596    144.41419  0.044904909  0.047177476            4 
  269000    1.1304709   -5.6207314    145.42958  0.045052534  0.047140528            3 
  270000    1.1407185   -5.6694627    145.24262  0.044827969  0.047103771            7 
  271000    1.1425115   -5.6846382    145.37033  0.044701823  0.047066293            6 
  272000    1.1368896   -5.6403638    146.34319  0.044835537  0.047027796            2 
  273000     1.127069   -5.6470263    146.87611  0.044833976  0.046991095            3 
  274000    1.1449976   -5.6536538    147.16171  0.044757211  0.046956151            4 
  275000    1.1787983   -5.6481148    147.81406   0.04479214   0.04692016            2 
  276000    1.1475952   -5.6614003    148.33183  0.044786179  0.046885605            3 
  277000     1.122183     -5.63986    148.96918  0.044816241  0.046853181            3 
  278000    1.1293439   -5.6244713    149.51258   0.04481792  0.046818938            1 
  279000     1.165943    -5.624666    149.89514  0.044771547  0.046785462            4 
  280000    1.1551254   -5.6350572    150.66687  0.044841329  0.046752159            3 
  281000    1.1457645   -5.6364608    151.58697  0.044954618  0.046720136            4 
  282000     1.172168    -5.644725     151.9564  0.044904373  0.046690559            3 
  283000    1.1370142   -5.6872401    152.07795  0.044781493  0.046660601            2 
  284000    1.1526203    -5.660188    151.88575  0.044567414  0.046629964            5 
  285000     1.160758   -5.6667299    152.56192  0.044608749   0.04659758            2 
  286000    1.1451188   -5.6432705    153.48049  0.044720421   0.04656661            2 
  287000    1.1382822   -5.6501375    153.59595  0.044598128  0.046536168            2 
  288000    1.1528907   -5.6818054    154.43806  0.044686938  0.046504506            7 
  289000    1.1399655   -5.6383149    155.22505  0.044759242  0.046474539            1 
  290000    1.1622144   -5.6313436    155.62306   0.04471927  0.046444901            3 
  291000    1.1528893   -5.6569839    156.08719  0.044698508   0.04641489            4 
  292000    1.1310983   -5.6369522    155.92759  0.044499882  0.046382402            2 
  293000    1.1199407   -5.6333451    156.38619  0.044478438  0.046349195            4 
  294000    1.1744984   -5.7034466    156.16172  0.044263525  0.046315853            5 
  295000    1.1367394   -5.6499887    157.63806  0.044530525  0.046282735            4 
  296000    1.1369894   -5.6897937    157.66975  0.044389005   0.04625214            2 
  297000     1.136854   -5.6384934    158.96434  0.044602789  0.046220094            3 
  298000    1.1336758   -5.6894434    158.20221  0.044239991   0.04618879            3 
  299000    1.1270115   -5.6757103    158.97041  0.044306133  0.046158175            2 
  300000    1.1305952   -5.6263442    159.98042  0.044439005  0.046128566            2 
  301000    1.1262332   -5.6990207    160.04916  0.044310399  0.046096055            2 
  302000    1.1322336   -5.6923461     160.0979  0.044177124  0.046063018            6 
  303000    1.1347211   -5.6768286    160.52208  0.044147988  0.046031629            8 
  304000    1.1178279   -5.6589088     161.4339  0.044252715  0.045997605            3 
  305000    1.1408588   -5.6566504    161.95201  0.044249183  0.045965364            4 
  306000    1.1319586   -5.6716178    161.94695  0.044103201  0.045932987            2 
  307000    1.1265647    -5.654674    162.75792  0.044179674  0.045900403            1 
  308000    1.1381644   -5.6812049    163.08329  0.044124267  0.045867432            3 
  309000    1.1152967   -5.6546709     163.7748  0.044167962  0.045835429            3 
  310000    1.1202709     -5.69624    163.47276  0.043944291  0.045803008            4 
  311000    1.1266458   -5.6802754    164.20374  0.043998859  0.045770319            4 
  312000    1.1626048   -5.6722635    165.46852  0.044195651  0.045739361            3 
  313000    1.1419626   -5.6481156    166.06095  0.044212181  0.045708787            7 
  314000    1.1501079   -5.6869134    165.47689  0.043916372  0.045677633            4 
  315000    1.1104983   -5.6678705     166.6575  0.044089286  0.045645945            2 
  316000    1.1445039   -5.6883624     166.3716  0.043874366  0.045614506            5 
  317000    1.1344686   -5.6585158    167.16447  0.043944393  0.045583764            3 
  318000    1.1197361   -5.6728993     167.8908   0.04399654  0.045553033            4 
  319000    1.1177167   -5.6372827    168.48884  0.044014848   0.04552211            2 
  320000    1.1092852   -5.6831805    169.10333  0.044037327  0.045492087            1 
  321000    1.1478725   -5.6677273    169.73033   0.04406291  0.045463606            2 
  322000    1.1352011   -5.6775309    169.78888  0.043941221  0.045435218            3 
  323000    1.1400658   -5.6693395    170.94422  0.044103256  0.045409144            4 
  324000     1.127614   -5.6403218    171.43156   0.04409248  0.045384861            2 
  325000    1.1141719    -5.679385    172.38487  0.044201249  0.045360975            2 
  326000    1.1394196    -5.668177    172.95338  0.044210987  0.045336686            7 
  327000    1.1210547   -5.7198544    172.91644  0.044066371  0.045314812            3 
  328000    1.1197862   -5.7139121    173.61455  0.044109387   0.04529428            4 
  329000    1.1336269    -5.643691    174.65557  0.044238998  0.045273386            1 
  330000    1.1216106   -5.7187253    174.47844  0.044060212  0.045251897            3 
  331000    1.1368077   -5.6827038    175.90701   0.04428676  0.045231737            5 
  332000     1.122844   -5.6554579    176.57398  0.044320778  0.045212306            3 
  333000    1.0935516   -5.6954967    176.88055  0.044264402  0.045192751            4 
  334000    1.0995213   -5.6882524    177.36643  0.044253102  0.045173701            8 
  335000    1.1099395   -5.7117997    177.83272  0.044236995  0.045155294            2 
  336000    1.0947384   -5.6677054    177.58962  0.044045044  0.045134541            3 
  337000    1.1295947   -5.6958958    177.99484  0.044014551  0.045113147            3 
  338000    1.1206783   -5.7275788    178.56757  0.044025534  0.045090802            2 
  339000    1.1158448    -5.675129    178.49636  0.043878161  0.045068372            3 
  340000    1.1186813   -5.6786867    178.90456  0.043849157  0.045045169            2 
  341000    1.1012332   -5.7407874    178.96222  0.043734657  0.045020792            2 
  342000    1.1253655   -5.7022088    179.62848  0.043769123   0.04499517            6 
  343000    1.1118175   -5.6573244    179.76063  0.043673622  0.044970431            4 
  344000    1.1005276   -5.7000121    180.10645  0.043630438  0.044943365            3 
  345000    1.1183074   -5.6841292    180.88512  0.043692058  0.044916715            2 
  346000    1.1154639   -5.7237864    180.83719  0.043554235  0.044890777            3 
  347000    1.1016901   -5.7405558    180.68059  0.043391112  0.044864337            2 
  348000    1.1030336   -5.7104488    181.81977  0.043539216  0.044839136            2 
  349000    1.1166921   -5.7670222    181.80767  0.043411573  0.044812147            2 
  350000    1.1158817   -5.7021795    182.36029  0.043419117  0.044784982            4 
  351000    1.1291283    -5.716931    183.51743   0.04357014  0.044759187            2 
  352000      1.13759   -5.7175546    183.37179  0.043411881   0.04473346            3 
  353000    1.1069926    -5.679529      185.276  0.043738432  0.044707851            3 
  354000    1.0973116   -5.7083603     185.2581  0.043610663  0.044683325            2 
  355000    1.1107898   -5.6663747    185.75792  0.043605147  0.044658519            4 
  356000    1.1246206   -5.7347093    185.74883  0.043480531  0.044634715            1 
  357000    1.1350402   -5.6571835    186.44924   0.04352223  0.044610203            2 
  358000    1.1267666   -5.7458623    185.87678  0.043267406  0.044585979            4 
  359000     1.114473   -5.6900234    186.50697  0.043293168  0.044559497            4 
  360000    1.1195788   -5.7306191    186.47612  0.043165768  0.044533017            3 
  361000    1.1110782   -5.7277062    187.62824  0.043312151  0.044507459            2 
  362000    1.1206793   -5.7096728    188.28003  0.043342548  0.044481649            3 
  363000     1.094381   -5.7115256    189.03667  0.043396847  0.044456913            6 
  364000    1.0992568   -5.6878809    189.77257  0.043446101  0.044431348            4 
  365000    1.0820185   -5.7389087    188.36951  0.043006738  0.044405323            2 
  366000    1.1011868   -5.7643586     189.6334  0.043177003  0.044379134            3 
  367000    1.1111448   -5.7021776     190.1712  0.043181471  0.044353623            4 
  368000    1.1151964   -5.7346816    190.74596  0.043194284  0.044328249            2 
  369000    1.0943015    -5.745384    190.95949  0.043125449  0.044302221            2 
  370000     1.108642   -5.7393256    191.52288  0.043135783  0.044276745            3 
  371000    1.0932994   -5.7402108    191.51189  0.043017047  0.044250461            3 
  372000     1.120959   -5.7200515    192.74299  0.043177193  0.044224391            4 
  373000    1.1179621   -5.7011104    193.13897  0.043149904  0.044198746            5 
  374000    1.1088304   -5.7279669    192.56389  0.042906392  0.044172884            2 
  375000    1.1044231   -5.7070051    194.38757  0.043197238  0.044147059            3 
  376000    1.1037287   -5.7665611    194.27323   0.04305701  0.044121887            2 
  377000    1.1258392   -5.7415773    194.73383  0.043044612  0.044095722            2 
  378000    1.1119491   -5.7184048    195.29897  0.043055328  0.044070238            3 
  379000    1.0997048   -5.6993589    196.17573  0.043134505  0.044045617            2 
  380000    1.0772706   -5.7781388    195.38446  0.042847469   0.04402021            3 
  381000    1.1186169   -5.7169996    195.84469  0.042835672  0.043994763            3 
  382000    1.0817181   -5.7418887    196.83246  0.042939019  0.043969299            3 
  383000      1.10631   -5.7289678    196.94911  0.042852286  0.043944256            3 
  384000    1.1012199   -5.7370154    197.73108   0.04291039  0.043920299            2 
  385000    1.1006482   -5.7459965    197.74911  0.042802837  0.043895439            3 
  386000    1.0958733   -5.7183135    198.18085  0.042785157  0.043870914            6 
  387000    1.1184123    -5.713694    198.89938  0.042829324  0.043846149            3 
  388000     1.104208   -5.7515998    198.58895  0.042652267  0.043819667            4 
  389000    1.1082563   -5.7282503    199.82336   0.04280706  0.043794021            2 
  390000    1.0717679    -5.707715    199.98289  0.042731386  0.043768603            3 
  391000    1.0922803   -5.7347664    201.42348  0.042929131   0.04374431            3 
  392000    1.1181311   -5.7025044    202.14588  0.042973188  0.043720419            5 
  393000    1.1042749   -5.7191773    201.67337  0.042763649  0.043697014            4 
  394000    1.0878614   -5.7544201    201.53499  0.042625845  0.043672388            3 
  395000    1.0963485   -5.7818852    201.48796  0.042508009  0.043646981            6 
  396000    1.0819166   -5.7315364    202.17772  0.042545817  0.043622481            2 
  397000    1.1250562   -5.7702458    202.52746  0.042512062  0.043597415            3 
  398000     1.093951   -5.7821216     202.7701  0.042456051   0.04357245            3 
  399000    1.1110044   -5.7502688    203.05887  0.042409956   0.04354638            6 
  400000    1.0880061   -5.7661959    203.42992  0.042381234  0.043519945            3 
  401000    1.0898288   -5.7783099    203.08111  0.042203057  0.043491614            3 
  402000    1.0973064   -5.7135784    204.97728  0.042491144  0.043464931            4 
  403000    1.0866263   -5.7476684    205.19533  0.042430796  0.043439557            3 
  404000    1.0805796   -5.7319076    206.03489  0.042498946  0.043414292            3 
  405000    1.1176193    -5.776541    206.35104  0.042459062  0.043389514            4 
  406000    1.1130288   -5.7635338     205.9643  0.042275102  0.043364281            4 
  407000     1.074829    -5.727104    207.37533  0.042460141   0.04333926            6 
  408000    1.1030834   -5.7590608    207.04711  0.042289033  0.043313155            3 
  409000    1.0831045   -5.7548472    207.07895  0.042192126  0.043287258            2 
  410000    1.1026028   -5.7336998    208.34565  0.042346676  0.043260621            4 
  411000    1.0925919   -5.7720998    207.67678  0.042108025  0.043234159            3 
  412000    1.1199533   -5.7987288    209.02734  0.042278992  0.043208197            3 
  413000    1.0778106   -5.7232835    210.37884  0.042449322  0.043183148            2 
  414000    1.1081069   -5.7497081    209.85507  0.042241359  0.043159034            3 
  415000    1.0822094    -5.775653    210.04795  0.042178302  0.043133549            3 
  416000    1.0974295   -5.7993998    210.51821  0.042171116  0.043109071            2 
  417000    1.1112711   -5.7568773    211.37618  0.042241443  0.043084278            2 
  418000    1.0881015   -5.7822539    211.06274    0.0420779  0.043058815            3 
  419000    1.0797798   -5.7912149    211.34568  0.042033748  0.043033419            3 
  420000    1.0773588   -5.8239578    211.08544  0.041882031  0.043007847            6 
  421000    1.0771415   -5.7698491    212.09945  0.041983264  0.042982852            3 
  422000    1.1096898    -5.802181    212.60631  0.041983868  0.042957034            6 
  423000     1.088764   -5.7805875    212.74413  0.041911766  0.042931963            1 
  424000    1.0894868    -5.782968    213.62854  0.041986741  0.042907155            4 
  425000    1.0863941   -5.7692451    214.17585  0.041995264   0.04288307            6 
  426000    1.0926968   -5.7916919    214.50533  0.041961137  0.042857245            5 
  427000    1.0737875   -5.8169567    214.32795  0.041828249  0.042831431            4 
  428000    1.0859328    -5.786386     214.3301  0.041730938  0.042804419            6 
  429000    1.0814096   -5.7733001    215.57964  0.041876387    0.0427787            4 
  430000     1.070787   -5.8240312    214.90361  0.041647987  0.042751959            3 
  431000    1.0750081   -5.7708177    216.54128  0.041867997  0.042725209            4 
  432000    1.1032357   -5.7868587    217.14848   0.04188821  0.042699742            1 
  433000    1.0853694   -5.8050527    215.95105  0.041561019  0.042673011           12 
  434000    1.0935677   -5.7664116    217.28866  0.041722092  0.042645875            3 
  435000    1.0743485   -5.7776169    217.77571  0.041719485  0.042620455            3 
  436000    1.0897404   -5.7855587    217.46049  0.041563549  0.042593813            5 
  437000    1.0906437   -5.7949897    218.23144  0.041615453   0.04256723            2 
  438000    1.0755205   -5.7858664    218.18967  0.041512494   0.04254056            2 
  439000    1.0718655   -5.7518659    219.76784  0.041717509  0.042513337            2 
  440000    1.0746427   -5.8090689    218.57456  0.041396696  0.042486118            3 
  441000    1.0820555   -5.7819316    218.94946   0.04137367  0.042458295            9 
  442000    1.0698563    -5.778836    219.78875  0.041438301  0.042431298            1 
  443000    1.0799478   -5.7771575    220.19229  0.041420671  0.042404316            3 
  444000    1.0654826   -5.8015789    220.48152  0.041381666  0.042377251            4 
  445000     1.088971   -5.7678771    221.41832  0.041464106   0.04235066            2 
  446000    1.0784669   -5.8198454    221.07802  0.041307551  0.042324347            6 
  447000    1.0780577   -5.7946673    221.51613  0.041296818  0.042297888            3 
  448000    1.0611375   -5.7799981     222.0397  0.041302027  0.042271019            3 
  449000    1.0642614   -5.7978064    222.15274   0.04123102  0.042243819            2 
  450000     1.104246   -5.8186961    221.64285  0.041044973  0.042216717            3 
  451000    1.0612533   -5.8072821    222.46782  0.041106396  0.042189412            4 
  452000    1.0664231   -5.8027286    223.13931  0.041139253  0.042162693            4 
  453000    1.0553724   -5.8376458    223.61018  0.041135058  0.042134806            5 
  454000    1.0811237   -5.7885918     224.0834  0.041131314  0.042107664            6 
  455000    1.0530503   -5.7572764    225.19907  0.041245252  0.042081079            3 
  456000     1.053381   -5.7934148    225.19453  0.041153972  0.042053696            1 
  457000    1.0545716   -5.7891906    225.44528  0.041109642  0.042025959            3 
  458000    1.0565359   -5.7943108     225.6811  0.041062791  0.041999256            3 
  459000    1.0755252   -5.7943161    225.57926  0.040954841  0.041971767            3 
  460000     1.069498   -5.7760373    226.20335  0.040978868  0.041944848            3 
  461000     1.031113   -5.8016163    226.47108  0.040938374  0.041917868            2 
  462000    1.0799621   -5.8298067    226.82352  0.040913334  0.041891263            8 
  463000    1.0549862   -5.8484822    226.84971  0.040829682  0.041863901            2 
  464000    1.0894071   -5.8024766    227.59761  0.040876008  0.041836663           13 
  465000    1.0488192   -5.7846177    228.29331   0.04091278  0.041810188            2 
  466000    1.0599244   -5.8245273    229.35779  0.041015341  0.041783763            2 
  467000    1.0524383     -5.82817    228.44364  0.040764389  0.041757178            3 
  468000    1.0635059   -5.8150325    229.68272   0.04089792   0.04173043            4 
  469000    1.0717266   -5.7827978    230.07074  0.040879662  0.041705467            2 
  470000    1.0389516   -5.7911496    231.58614  0.041061372  0.041680767            2 
  471000    1.0891599   -5.8095944    231.86612   0.04102373  0.041656691            5 
  472000    1.1055956   -5.7874579    231.66994  0.040902178  0.041631891            2 
  473000    1.0427399   -5.8345704    231.51927  0.040789159  0.041607406            4 
  474000    1.0827546   -5.8154143    232.10231   0.04080561  0.041582787            4 
  475000    1.0628901   -5.8270656    232.36283  0.040765409  0.041558029            5 
  476000    1.0610851   -5.8228084    232.70864  0.040740309  0.041532326            5 
  477000    1.0571295   -5.8534312    231.22382  0.040395496  0.041506422            4 
  478000    1.0531303   -5.8106783    233.84111  0.040767278   0.04148046            2 
  479000    1.0677769   -5.7897987    233.39643  0.040604807  0.041455222            4 
  480000    1.0657199   -5.8141096    234.31696  0.040680028  0.041430413            2 
  481000    1.0524421   -5.8098652    234.80905  0.040680708  0.041405291            3 
  482000    1.0707622   -5.8022718    235.87845  0.040781199  0.041380874            2 
  483000    1.0725185   -5.8280167    234.61115  0.040478113  0.041356288            3 
  484000    1.0691786   -5.8073622    236.73016  0.040759325  0.041331724            4 
  485000     1.066036   -5.8973624    235.65484  0.040490522  0.041307546            3 
  486000    1.0627439   -5.8536621    236.48976   0.04055037   0.04128314            3 
  487000    1.0649569   -5.8668873     236.8272  0.040524846  0.041258717            6 
  488000    1.0932061   -5.9035661     236.5874  0.040400853  0.041233861            2 
  489000    1.0623096   -5.8356002    238.49468  0.040643265  0.041209187            2 
  490000    1.0653353   -5.8156128    238.08726  0.040491031  0.041185601            4 
  491000    1.0517555   -5.8387166    239.07356  0.040575961  0.041161485            2 
  492000    1.0676582    -5.831397    239.24368  0.040522304  0.041136972            3 
  493000    1.0589995   -5.8238706    239.75879  0.040527179  0.041112096            3 
  494000    1.0759524   -5.8298492    239.71107   0.04043709  0.041086932            2 
  495000    1.0479297   -5.8366176    239.15184  0.040261253  0.041061423            4 
  496000    1.0522196   -5.8780963     239.1029  0.040171858  0.041035176            4 
  497000    1.0610499   -5.8338755    239.69947  0.040191057  0.041009488            3 
  498000      1.07396   -5.7905565     240.9564  0.040320682  0.040983925            2 
  499000    1.0703296   -5.8377824    240.84922   0.04022198  0.040958891            7 
  500000    1.0455187   -5.8600595    240.88824   0.04014804    0.0409335            4 
  501000    1.0784905    -5.846716    241.67119  0.040198136  0.040907637            6 
  502000    1.0647986   -5.8163913    242.49768  0.040255259  0.040882275            2 
  503000    1.0758173   -5.8572197    241.49273  0.040008736  0.040857781            2 
  504000    1.0296401   -5.8408251    242.43289  0.040084803  0.040832187            5 
  505000    1.0566659   -5.8739211    242.67541  0.040045448   0.04080757            2 
  506000    1.0488113   -5.8640618    243.49431  0.040101171  0.040782451            5 
  507000    1.0461219   -5.8473164    243.39148  0.040005174  0.040756826            3 
  508000    1.0497595   -5.8579366    244.29357  0.040074404  0.040731036            3 
  509000    1.0382546   -5.8959103    244.72709  0.040066649   0.04070596            4 
  510000    1.0527628   -5.8355206    245.52075   0.04011777  0.040681705            3 
  511000    1.0354258   -5.8561303    245.91893  0.040104196  0.040657689            3 
  512000    1.0661924   -5.8471815    244.92401  0.039863933  0.040632905            4 
  513000    1.0336021   -5.8579572    245.45328  0.039872203  0.040608469            3 
  514000    1.0400309   -5.8703782    245.85321   0.03985947  0.040583488            4 
  515000    1.0530857   -5.8687955     247.1556  0.039992816  0.040558441            2 
  516000    1.0470509   -5.9012072    245.86346  0.039706631   0.04053366            2 
  517000    1.0591631   -5.8756088    246.94018  0.039803381  0.040509459            2 
  518000    1.0244501   -5.8569965    247.84345  0.039871854  0.040485122            3 
  519000    1.0656841   -5.8502391    248.08663  0.039834077  0.040461063            2 
  520000    1.0586936   -5.9000445    248.68328   0.03985309  0.040436699            3 
  521000    1.0763392   -5.8867951    248.51295  0.039749353  0.040412927            4 
  522000    1.0380845   -5.8282958    250.22428  0.039946404  0.040389684            3 
  523000    1.0523537   -5.8557033    250.20232  0.039866527  0.040366911            4 
  524000    1.0534424   -5.8221438    251.31101  0.039966764  0.040344442            4 
  525000    1.0585356   -5.8607799    251.02179  0.039844729  0.040321481            2 
  526000    1.0408433   -5.8634831    250.48236  0.039683518  0.040298482            4 
  527000    1.0460678   -5.8724379    250.98488  0.039687679  0.040274631            4 
  528000    1.0370334   -5.8746573    251.37791  0.039674543  0.040250241            3 
  529000    1.0304415   -5.8529786     251.5934   0.03963349  0.040226128            6 
  530000    1.0487897   -5.8897155    252.24352  0.039660931  0.040202355            3 
  531000    1.0337165   -5.8754125    252.13193  0.039568727  0.040179001            2 
  532000    1.0280477   -5.8977169     252.9353  0.039620191  0.040154894            3 
  533000    1.0582381   -5.8701594    253.56595  0.039644457  0.040131888            3 
  534000    1.0656644   -5.8382546    253.31917  0.039531705  0.040108937            2 
  535000    1.0490871   -5.8835091    253.83144  0.039537607  0.040086407            3 
  536000    1.0407514   -5.8657504    254.86397  0.039624373  0.040063509            2 
  537000    1.0304984   -5.9077327    254.73336  0.039530316  0.040040729            4 
  538000     1.042974   -5.8835179    255.23239  0.039534138   0.04001839           11 
  539000     1.044745   -5.8857757     255.0441  0.039431679  0.039995022            3 
  540000     1.025796   -5.8757318    255.94551  0.039497764  0.039971673            3 
  541000    1.0488318   -5.8780326    255.46819  0.039351231  0.039948663            4 
  542000    1.0277664   -5.8833901     255.5566   0.03929222  0.039924855            5 
  543000    1.0371632   -5.8876759    255.08567  0.039147586  0.039900862            2 
  544000    1.0346824   -5.8882402    256.51814  0.039295058   0.03987657            4 
  545000    1.0430631   -5.8571964    257.08591  0.039309772   0.03985228            3 
  546000    1.0318966   -5.8847155    256.88324  0.039206844  0.039827929            3 
  547000    1.0369332    -5.888146    256.58055  0.039089054   0.03980311            5 
  548000     1.034175   -5.9306977    255.97333  0.038925385  0.039777302            4 
  549000    1.0198014   -5.8463761    258.28867   0.03920593  0.039751974            3 
  550000    1.0399137   -5.8774252    258.91547  0.039229617  0.039727377            6 
  551000    1.0228334   -5.8453464    259.28561    0.0392144  0.039703746            1 
  552000     1.016736   -5.8658097    258.86156  0.039079342  0.039678821            4 
  553000    1.0327207   -5.9015888    258.44147  0.038945369  0.039654199            4 
  554000    1.0332222   -5.8895155    259.74696  0.039071443  0.039629513            3 
  555000    1.0265943   -5.8766541    260.21552  0.039071399  0.039605019            2 
  556000    1.0299141   -5.8770703    259.86204  0.038948147  0.039579894            4 
  557000    1.0265756    -5.873811    260.81076  0.039020162   0.03955445            3 
  558000    1.0314968   -5.8980063    259.62331  0.038772896  0.039528341            5 
  559000    1.0357403   -5.8667365    261.15617  0.038932047  0.039502547            5 
  560000    1.0265949   -5.8735825    260.42859  0.038754255   0.03947723            3 
  561000    1.0601767   -5.8579536    261.69208  0.038872858  0.039451718            4 
  562000     1.034531   -5.8935366    261.84357  0.038826153  0.039426684            6 
  563000    1.0169594   -5.8994598    262.53862  0.038860068  0.039401465            4 
  564000    1.0332102   -5.8449839    263.84962  0.038984873  0.039376744            4 
  565000    1.0284038   -5.9224342    262.76879  0.038756459  0.039351802            3 
  566000    1.0335219    -5.907397    262.66888  0.038673275  0.039325937            8 
  567000    1.0153219   -5.9013325    262.76725  0.038619525  0.039300822            7 
  568000    1.0113152   -5.9210143    262.46265  0.038506844   0.03927534            4 
  569000    1.0288672   -5.9132133    263.22196  0.038550375  0.039249551            3 
  570000    1.0335117   -5.9215765     264.0928  0.038610059  0.039223939            3 
  571000    1.0137701   -5.9176319    263.74551  0.038491755  0.039197763            2 
  572000    1.0375546   -5.8783378    263.64938  0.038410457  0.039170894            4 
  573000    1.0053575   -5.8957397    264.80852  0.038512002   0.03914401            5 
  574000    1.0188238   -5.9082543    264.14691  0.038348854  0.039116774            4 
  575000    1.0028841   -5.9084044     264.7915  0.038375579  0.039089958            3 
  576000    1.0293185   -5.8982638    265.43485  0.038402032  0.039063665            3 
  577000    1.0172637   -5.8758826    266.78708  0.038530774  0.039037017            5 
  578000    1.0298387   -5.9120536    265.38089  0.038261373   0.03901044            4 
  579000    1.0261778   -5.8935294    266.25003  0.038320384  0.038984451            5 
  580000   0.97781858   -5.8958762     267.7751  0.038473434  0.038958694            4 
  581000    1.0209191   -5.8810842    267.25754   0.03833298  0.038933291            3 
  582000    1.0292902   -5.9145534    266.78668  0.038199696  0.038907729            6 
  583000    1.0493053   -5.9423333     266.4791  0.038090209  0.038881592            4 
  584000    1.0235767   -5.9473767    268.10983  0.038257682  0.038855506            3 
  585000    1.0153006   -5.9140718    267.81819  0.038150739   0.03882932            6 
  586000    1.0503083   -5.9369635    268.35285  0.038161668  0.038803489            2 
  587000    1.0327559    -5.932784    268.99994  0.038188521  0.038777537            4 
  588000   0.99388322   -5.9523069    268.91887  0.038112084  0.038751899            3 
  589000    1.0314809   -5.8924234    270.22231  0.038231792  0.038726771            4 
  590000    1.0315104   -5.9040608    269.83138  0.038111776  0.038701263            4 
  591000    1.0176258   -5.9324277    270.25677  0.038107272   0.03867606            5 
  592000    1.0269814   -5.9229735    270.77724  0.038116166  0.038650585            5 
  593000    0.9952226   -5.9379285    270.36461  0.037993903  0.038624321            4 
  594000    1.0200139   -5.9588011    269.56607  0.037817912  0.038597855            7 
  595000    1.0415149   -5.9407311     270.5532  0.037892605   0.03857092            5 
  596000   0.99400519    -5.955533    270.79469  0.037862792  0.038544066            2 
  597000    1.0175874   -5.9324581    270.56413  0.037767188  0.038517559            3 
  598000   0.99991411   -5.9043939    271.78582  0.037874278  0.038490465            4 
  599000    1.0188667   -5.9172454     271.4739  0.037767655  0.038463532            3 
  600000    1.0076986   -5.9599088    271.27028  0.037676427  0.038436896            3 
  601000    1.0203508   -5.9105963    272.08293  0.037726418  0.038410146            6 
  602000    1.0208933    -5.923062    273.23103  0.037822679  0.038384407            4 
  603000    1.0079015    -5.958143    272.44897  0.037651875  0.038358626            2 
  604000    1.0249954   -5.9388645    274.29203  0.037843823  0.038333046            5 
  605000    1.0005788   -5.9398822    273.69565  0.037699125  0.038307699            6 
  606000    1.0086438   -5.8983877    274.54847   0.03775419  0.038282531            4 
  607000    1.0068332   -5.9218611     274.4876  0.037683635  0.038257815            8 
  608000    1.0134993    -5.940857    274.64588   0.03764335   0.03823254            3 
  609000    1.0472369   -5.9368556    274.76283  0.037597542  0.038207126           11 
  610000    1.0100002   -5.9605968    275.45552  0.037630535  0.038181765            5 
  611000   0.98160347   -5.9317693    275.65839  0.037596616  0.038156349            4 
  612000    1.0234178   -5.9097768    276.23469  0.037613656  0.038131493            5 
  613000    1.0123981   -5.9520256    276.89743  0.037642392  0.038106785            4 
  614000     1.014914   -5.9567676    276.79423  0.037567078  0.038081716            4 
  615000    1.0059901   -5.9547628    276.95622  0.037527943    0.0380566            2 
  616000   0.99658175   -5.9266543     278.3643  0.037657508  0.038032146            4 
  617000   0.99822348   -5.9589389    277.43482  0.037470937  0.038007174            4 
  618000    1.0073452   -5.9459379    277.45502  0.037413029  0.037981958            4 
  619000    1.0209809   -5.9531523    278.25246  0.037459944  0.037956822            4 
  620000    1.0069179   -5.9767773    278.15787  0.037386811  0.037931696            3 
  621000    1.0245499   -5.9775067    279.25934  0.037474415  0.037906871            3 
  622000    1.0261058   -5.9573143    278.22059  0.037274999  0.037881533            7 
  623000      1.01852   -5.9724687    279.11358  0.037334614   0.03785642            4 
  624000    1.0257226    -5.948067    278.99329  0.037258719  0.037830955            4 
  625000    1.0078095   -5.9618438    279.52419  0.037269892  0.037805779            7 
  626000    1.0141929   -5.9817293    279.33083  0.037184615  0.037780736            3 
  627000    1.0153941   -5.9933522    280.01028  0.037215614  0.037755477            3 
  628000    1.0213479   -5.9873604    280.39316   0.03720716  0.037730489            3 
  629000    1.0145173   -5.9867173     280.3762  0.037145761  0.037705754            3 
  630000     1.020946   -5.9784838    280.68233  0.037127292  0.037680788            3 
  631000     1.004201   -5.9471218    281.70801  0.037203911   0.03765638            4 
  632000   0.99540561   -5.9469329    281.41364  0.037106228   0.03763189            2 
  633000   0.97886013   -5.9455915    282.83416  0.037234618  0.037606431            6 
  634000   0.99342505   -5.9327122    281.94669  0.037059239  0.037581563            2 
  635000   0.99944931   -5.9508567    282.44284  0.037065989  0.037556632            4 
  636000   0.98422129   -5.9655749    282.28214  0.036986654  0.037531342            3 
  637000   0.99951807   -5.9657372    281.61719  0.036841599  0.037506252            5 
  638000   0.98128546   -5.9504254    282.78339   0.03693618  0.037480281            2 
  639000   0.98144273   -5.9948934    282.39747  0.036828048  0.037454285            2 
  640000    1.0146509   -6.0094652    282.85446  0.036830008  0.037428166            4 
  641000    1.0005135   -5.9677242    284.54556  0.036992403  0.037402837            7 
  642000   0.99435402   -5.9654247    283.37222  0.036782479  0.037377636            4 
  643000    1.0088591   -5.9766096    284.14132   0.03682495  0.037352774            9 
  644000   0.99370104    -5.959767    284.18815  0.036773829  0.037326759            4 
  645000   0.99590094   -6.0018535     284.6888  0.036781498  0.037300774            5 
  646000   0.98510718   -5.9788423    284.76682  0.036734625  0.037275436            3 
  647000    1.0023352    -5.977486    283.72977  0.036544277  0.037249346            3 
  648000    1.0064733   -5.9816358    284.53218  0.036591073  0.037223025            2 
  649000   0.98262063    -5.991922    285.10979  0.036608859  0.037196763            8 
  650000   0.98472432   -5.9586086    285.47962  0.036599952  0.037171012            5 
  651000    1.0010793   -5.9402976    286.65037  0.036693596  0.037145174            3 
  652000   0.98803273   -5.9933258    286.54969  0.036624449  0.037119783            8 
  653000    1.0180797   -5.9523539    286.70881  0.036588669  0.037094501            3 
  654000   0.98596304   -5.9821186    286.22854  0.036471526  0.037069076            6 
  655000   0.98095433   -5.9990144    286.56265  0.036458352  0.037042902            3 
  656000   0.99000383   -5.9902351    287.03442  0.036462705  0.037017361            3 
  657000    1.0120676   -6.0280008    286.73087  0.036368705   0.03699137            7 
  658000   0.99121291   -5.9929351    288.18287  0.036497324  0.036965568            4 
  659000   0.99057681   -5.9733098     288.2841  0.036454742  0.036939754            3 
  660000   0.98530656   -5.9557191    288.26569  0.036397183  0.036914152            7 
  661000    1.0083713   -6.0099134      289.253  0.036466591  0.036888979            3 
  662000    1.0036407   -5.9864665    289.26613  0.036413158  0.036863854            5 
  663000   0.99549553    -5.966262    289.56222  0.036395452  0.036838692            3 
  664000   0.98516525   -6.0402705    289.37778  0.036317492  0.036813286            3 
  665000   0.95274559   -6.0407452    289.19181  0.036239575  0.036787837            8 
  666000   0.98270809   -6.0226358     289.5714  0.036232657  0.036762354            5 
  667000   0.98000621   -6.0050528    290.47852  0.036291669  0.036736933            5 
  668000   0.98000084   -5.9702716     291.1905   0.03632616  0.036711789            3 
  669000   0.98018444   -6.0090964    290.58229    0.0361961   0.03668612            3 
  670000    0.9978839   -6.0315283    291.06508  0.036202124  0.036660976            3 
  671000    1.0124154   -6.0257971    289.76981  0.035987309  0.036635593            4 
  672000   0.99902024   -6.0083891    290.90918  0.036075047  0.036610145            4 
  673000     1.014937   -6.0001817    291.53893  0.036099421  0.036584982            3 
  674000   0.98947549   -6.0230813    292.81229  0.036203299  0.036559729            5 
  675000   0.99694815   -6.0454876    291.71772  0.036014534  0.036534519            2 
  676000   0.96303948   -6.0027732    292.25711  0.036027751  0.036508959            6 
  677000   0.99098317   -6.0212772     291.0791   0.03582953  0.036483608            7 
  678000   0.95731811   -6.0176113     292.2219  0.035917146  0.036457846            5 
  679000   0.97077808   -6.0180563     292.9453  0.035953031  0.036432503            3 
  680000   0.99243325   -6.0308336    293.02205  0.035909564  0.036406815            3 
  681000   0.98714392   -5.9876329    293.85164   0.03595835  0.036381313            4 
  682000   0.98273116    -6.036394    292.68418  0.035762973  0.036355845            2 
  683000   0.98297388   -6.0003168    294.02791  0.035874562  0.036330616            3 
  684000    1.0162644    -6.046538    294.06309    0.0358264  0.036305121            6 
  685000   0.97998551   -6.0732087    293.49059  0.035704451  0.036279225            6 
  686000   0.99573456    -6.017321    294.94755  0.035829391  0.036253817            4 
  687000   0.97976124   -6.0038224    294.95506  0.035778149  0.036228811            4 
  688000     0.975439   -5.9989505    294.70951  0.035696404  0.036203203            4 
  689000   0.98035685   -6.0038212     295.1103  0.035693069  0.036178058            2 
  690000   0.99327452   -5.9861946     295.8561  0.035731412  0.036152574            4 
  691000   0.97005584   -6.0148481    295.14353  0.035593769   0.03612716           10 
  692000   0.97084571   -6.0169652    295.50064  0.035585337  0.036101329            7 
  693000   0.98923006    -5.979557    296.97337  0.035711084  0.036076274            1 
  694000   0.97970511   -6.0500516    296.74964  0.035632762  0.036051376            2 
  695000   0.96873465   -5.9813389    298.09245    0.0357425  0.036026231            3 
  696000   0.97412815   -5.9858828     298.4915  0.035738925  0.036001826            5 
  697000   0.96618838   -6.0060837    298.22822  0.035656172  0.035977396            4 
  698000   0.97123113   -6.0026262    298.36843  0.035621828  0.035953247            3 
  699000   0.95016619   -6.0705377    297.75448  0.035497673  0.035928782            2 
  700000    0.9679295   -6.0242011    298.02176   0.03547878  0.035903981            9 
  701000   0.96803469   -6.0662322     298.1436  0.035442653  0.035879764            3 
  702000   0.98139432   -6.0509795    298.31343  0.035412325  0.035855311            3 
  703000   0.96541005   -6.0195682    299.70894  0.035527375  0.035830688            2 
  704000    0.9764826   -6.0052875    299.87934  0.035497081  0.035806089            9 
  705000   0.98317248   -5.9935703    299.91823  0.035451327  0.035781862            4 
  706000   0.98418958    -6.036596    300.67353  0.035490265  0.035757697            5 
  707000   0.99035653   -6.0215198    300.34171  0.035400956  0.035733283            6 
  708000    0.9778007   -6.0188438    300.43079   0.03536144  0.035708576            3 
  709000   0.99209634   -6.0346755    300.27669  0.035293452  0.035683997            6 
  710000   0.98094777   -6.0353791    300.54086  0.035274749  0.035659308            8 
  711000   0.98312045   -6.0516701    301.01432  0.035280628  0.035634687            4 
  712000   0.96454354   -6.0238058    302.28192  0.035379438  0.035610018            8 
  713000    0.9663907   -6.0602377    300.37618  0.035107081  0.035585337            4 
  714000    1.0026289   -6.0322866    302.32328  0.035285163   0.03556096            4 
  715000   0.95686826    -6.046458    302.12668    0.0352129  0.035536714            5 
  716000   0.97269279   -6.0303563    302.18389  0.035170378  0.035512665            5 
  717000   0.96275117    -6.032632    302.35837  0.035141605  0.035488309            3 
  718000   0.97112517   -6.0485061    302.45039  0.035103342   0.03546442            5 
  719000    0.9987333    -6.026046     304.1532  0.035251877  0.035440645            6 
  720000   0.96319275   -6.0471733    303.10562  0.035081669  0.035416921            2 
  721000   0.97277722   -6.0393322    304.18653  0.035157944  0.035393163            5 
  722000   0.96252992   -6.0297371    303.92145  0.035078653  0.035369629            5 
  723000   0.96617159   -6.0776089    304.69409   0.03511919  0.035346056            5 
  724000   0.96122979   -6.0354228    305.20346  0.035129312  0.035322138            7 
  725000   0.94975373   -6.0595438    304.66436  0.035018892  0.035298879            5 
  726000   0.97155267    -6.037377    305.44923  0.035060748  0.035275104            4 
  727000   0.94892272   -6.0560969    305.99431  0.035075002  0.035251618            9 
  728000   0.96112824   -6.0534073    305.76393   0.03500045  0.035228257            7 
  729000   0.95608992      -6.0304    306.37644  0.035022456   0.03520519           10 
  730000   0.96333951   -6.0766249    306.94252    0.0350391  0.035182379            5 
  731000   0.96531647   -6.0480695    306.38401  0.034927498  0.035159211            5 
  732000   0.98347201   -6.0160133    307.97407    0.0350608  0.035136359            4 
  733000   0.97472016    -6.078855    307.29708  0.034936003  0.035113178            8 
  734000   0.94624519   -6.0900513    306.79946   0.03483191  0.035089908            6 
  735000   0.96070646    -6.092844    306.36927  0.034735745  0.035066464            3 
  736000   0.96757854   -6.0675997     308.2596  0.034902581  0.035043044            8 
  737000    0.9546067   -6.0627606    307.96088  0.034821447   0.03501991            3 
  738000   0.94393673   -6.0455763    309.11481  0.034904563  0.034997152            5 
  739000   0.96030786   -6.0738574    308.07223  0.034739764  0.034974419            2 
  740000    0.9745735   -6.1014053    308.67939  0.034761192  0.034951509            6 
  741000   0.98610122   -6.0772081    310.78156  0.034950693  0.034929302            4 
  742000   0.94328464   -6.0945323    309.44395  0.034753363  0.034906711            5 
  743000   0.93847639   -6.0563775    309.23774  0.034683461  0.034884186            4 
  744000   0.94112521   -6.0572478    310.69027  0.034799538  0.034861914            4 
  745000    0.9626971   -6.0594316    311.96749  0.034895692  0.034840272            4 
  746000   0.95282703   -6.0537379    311.50167   0.03479688  0.034818514            4 
  747000   0.97867498   -6.0390288    312.11271  0.034818464  0.034796793            8 
  748000   0.94771691   -6.0910979    312.25632  0.034787915  0.034774901            4 
  749000   0.96280393    -6.070363    312.17576  0.034732506  0.034752821            4 
  750000   0.94794252   -6.0671483    313.78475  0.034864973  0.034730568            3 
  751000    0.9434131   -6.0622122    312.45825  0.034671354  0.034709288            5 
  752000   0.95460705   -6.0444607    314.68672  0.034872199  0.034687647            2 
  753000   0.95135846   -6.0627516    314.00013  0.034749903  0.034666293            4 
  754000   0.94339367   -6.0922922    314.17435  0.034723071  0.034644384           10 
  755000   0.95094886   -6.0990949    312.97476  0.034544675  0.034622714            4 
  756000   0.94972614   -6.0975344    313.60308  0.034568241  0.034600488            5 
  757000   0.93502723    -6.073151     313.8436  0.034549053  0.034578521            3 
  758000   0.91076557    -6.097916    314.12432  0.034534336   0.03455655            6 
  759000   0.94737049   -6.0987166    314.68964  0.034550904  0.034534511            4 
  760000   0.96719079   -6.0641182    315.35807  0.034578735  0.034512679            4 
  761000   0.95003143   -6.0903781    315.44836  0.034543184  0.034491033            3 
  762000   0.94645965   -6.0687924    315.77978  0.034534097  0.034469035            6 
  763000   0.95541976   -6.0701355    316.23052  0.034538065  0.034447056            7 
  764000   0.95413598   -6.0928225    314.61959  0.034317145  0.034425257            3 
  765000   0.95535323    -6.101531    316.42203   0.03446863  0.034403214            5 
  766000   0.93133358   -6.0890478    316.98191  0.034484542  0.034381436            9 
  767000   0.97002077   -6.0825775    315.90235   0.03432229  0.034359446            5 
  768000     0.923756   -6.1023447    316.49278  0.034341665  0.034337261            1 
  769000    0.9543291   -6.1172376    316.43443  0.034290683  0.034315214            5 
  770000   0.92159009    -6.107165    317.67755  0.034380687  0.034293627            6 
  771000   0.94125121   -6.0747523    317.72484  0.034341207  0.034272044            5 
  772000   0.94816586   -6.0606915    318.38766  0.034368271  0.034250519            3 
  773000   0.92964829    -6.130174    317.44034  0.034221684  0.034228669            6 
  774000   0.93874497   -6.1162488    316.88427    0.0341176  0.034206699            9 
  775000   0.96329202   -6.1054252    317.10572  0.034097389  0.034184793            4 
  776000   0.94633623   -6.0909707    318.03881  0.034153652  0.034163109            3 
  777000   0.96837172   -6.0950663    318.74308   0.03418523   0.03414164            5 
  778000   0.95400606   -6.0909632     318.6239  0.034128524  0.034119971            3 
  779000   0.93048777   -6.1032065    318.57397  0.034079372  0.034098012            5 
  780000   0.94079168   -6.0682709    319.01366  0.034082656  0.034076381            5 
  781000   0.94701341   -6.1093569    319.85154  0.034128419  0.034054546            4 
  782000   0.93400076   -6.1306291    319.57929  0.034055764  0.034033098            8 
  783000   0.95547601   -6.0926326    319.48268  0.034001988  0.034011982            2 
  784000   0.95236489   -6.1355841    320.42718  0.034059011  0.033990873            4 
  785000   0.92581359   -6.0588548    321.59565  0.034139665  0.033969794            6 
  786000   0.96479102   -6.0894787    321.37866  0.034073225  0.033948747            5 
  787000   0.94441899   -6.1259557    320.85553  0.033974537  0.033927365            3 
  788000   0.93601537   -6.1146346    321.64374  0.034014778  0.033906062            6 
  789000   0.93325523   -6.0966179     322.0858  0.034018357  0.033885079            2 
  790000   0.93961982    -6.140369    320.86083   0.03384608  0.033864237            4 
  791000   0.94099597   -6.1094645     321.7899  0.033901169  0.033843017            4 
  792000   0.94400083   -6.1365642    322.29447  0.033911455  0.033821832           11 
  793000   0.93605671   -6.0989685    322.26436  0.033865527  0.033800864            3 
  794000   0.93514669   -6.0683633    323.51058  0.033953672   0.03378025            3 
  795000    0.9339789   -6.0992862    323.56888  0.033917073  0.033759507            5 
  796000   0.93653644   -6.1045718    324.14639  0.033934923  0.033739017            2 
  797000   0.94224589   -6.1248487    324.29368  0.033907746  0.033718622            6 
  798000   0.93997121    -6.107467    324.61971  0.033899302  0.033697919            3 
  799000   0.95284301    -6.112185    323.45372  0.033735265  0.033677417            6 
  800000   0.91360036   -6.1285263    324.64158  0.033816832  0.033657042            4 
  801000   0.94876736   -6.1224745    325.74083  0.033888975  0.033637227            5 
  802000   0.95000702   -6.0964283    326.08347  0.033882322  0.033617342            5 
  803000   0.95267045   -6.1377118    325.68458  0.033798732   0.03359737            5 
  804000   0.92998679   -6.1384788    326.22339   0.03381254  0.033577315           10 
  805000   0.92878013   -6.1150707    327.57109  0.033910051  0.033557588            4 
  806000   0.94323066   -6.1059508    327.71521   0.03388288  0.033537984            4 
  807000   0.92467146   -6.1375008     327.4014  0.033808488  0.033518443            5 
  808000   0.93931391   -6.1505774    327.42314  0.033768888  0.033498945            9 
  809000   0.92634897   -6.1389438    328.15433  0.033802465  0.033479201            6 
  810000   0.91378477   -6.1400553    327.47359  0.033690699  0.033459249            6 
  811000   0.93283914   -6.1045454    329.47684  0.033854998  0.033439921            5 
  812000   0.94094753   -6.0815419    328.60104  0.033723423  0.033420458            3 
  813000   0.93907895   -6.1520357    328.93297  0.033715966  0.033401161            5 
  814000   0.91581436   -6.1364627    329.55206  0.033737926  0.033382001            4 
  815000   0.93711787    -6.159732    329.30323  0.033671087  0.033362628            3 
  816000   0.93808469   -6.1263835    329.81895  0.033682491  0.033343252            6 
  817000   0.93131333   -6.1543533    330.07138  0.033667011  0.033323972            4 
  818000   0.94852698   -6.1112713    331.29279  0.033750285  0.033304697            2 
  819000   0.91088736   -6.1617657    329.67542  0.033544508  0.033285337            4 
  820000    0.9234348   -6.1507786    331.42515  0.033681417  0.033265818            5 
  821000   0.93397633   -6.1469969    331.24697  0.033622308  0.033246657           10 
  822000   0.93977698   -6.1455105    330.47411  0.033503052  0.033227433            8 
  823000   0.91028083   -6.1545421    330.79717  0.033495056  0.033208071            8 
  824000   0.91489193   -6.1425892    331.15074  0.033490164  0.033188583            6 
  825000   0.93296724   -6.1631993     332.2313  0.033558718  0.033169311            4 
  826000   0.93122466     -6.16449    330.60707  0.033354224  0.033149465            7 
  827000   0.91180627   -6.1456981    331.41818  0.033395625  0.033129542            2 
  828000   0.95088152   -6.1402336    331.91108  0.033404899  0.033109598            4 
  829000   0.93207371   -6.1622931    332.50044  0.033423848  0.033089973            4 
  830000   0.91349917   -6.1508089    331.39059  0.033272148   0.03307049            9 
  831000   0.91486608   -6.1709731    332.13011  0.033306268  0.033050869            6 
  832000    0.9275754   -6.1595137    332.41126  0.033294397  0.033031109            5 
  833000   0.91997524    -6.171494    332.39551  0.033252852  0.033011551            3 
  834000   0.92894062   -6.1307483     333.6567  0.033338999  0.032992175            7 
  835000    0.9011406   -6.1500719    333.28829  0.033262304  0.032972722            4 
  836000   0.93632184   -6.0952345    334.31777  0.033325137  0.032953419            9 
  837000   0.93978419   -6.1355093    334.59561  0.033312984  0.032934023            5 
  838000   0.92349634   -6.1670658    333.34762  0.033149127  0.032914326            3 
  839000    0.9285095   -6.1516048    333.73599  0.033148191  0.032894578            4 
  840000   0.91473697   -6.1476473    334.15255  0.033150055  0.032874703           11 
  841000   0.92542248   -6.1587235    334.81882  0.033176656  0.032855337            6 
  842000   0.91834742   -6.1678811    335.69155  0.033223629  0.032835643            7 
  843000    0.9133763   -6.1483449    334.61156  0.033077458  0.032816247            3 
  844000   0.91116023    -6.173659     334.3237  0.033009844  0.032796582            4 
  845000   0.92449437   -6.1750539    335.67757  0.033104297  0.032777081            4 
  846000   0.90543936   -6.1984527    336.01828  0.033098728  0.032757343           18 
  847000   0.91512808   -6.1743822    336.26324   0.03308375  0.032737607            3 
  848000   0.92184913   -6.1479655    336.34788  0.033053054  0.032718116            5 
  849000   0.90776612   -6.1816461    336.13023  0.032992759  0.032698897            9 
  850000   0.91576764   -6.1946269    335.54757  0.032896821  0.032679358           12 
  851000   0.92006539   -6.1520943    337.39558  0.033039129  0.032659922            5 
  852000   0.90375706   -6.1801775    336.90998  0.032952854  0.032640429            5 
  853000   0.92330048   -6.2010968    336.71766  0.032895434   0.03262089            4 
  854000   0.91879774   -6.2029754    337.23434  0.032907332  0.032601278            3 
  855000   0.91641804   -6.1705076    338.18845  0.032961838  0.032581492            5 
  856000      0.94234    -6.169785     336.4724  0.032756269  0.032561656            4 
  857000   0.91212365   -6.1418078    338.33808  0.032899464  0.032542036            7 
  858000   0.91718435   -6.1561332     339.0487  0.032930138  0.032522702            5 
  859000   0.92604045   -6.1436875    338.58762  0.032847072  0.032503074            5 
  860000   0.90873294    -6.144465    338.81212  0.032830632  0.032483501            4 
  861000   0.92431419   -6.1696174    337.52674  0.032668094  0.032463629            5 
  862000   0.90930047   -6.1607926    338.38027   0.03271271   0.03244344            4 
  863000   0.90677801   -6.1668715    337.24234  0.032564923  0.032423294            9 
  864000   0.91740349   -6.2067917    337.65813  0.032567335  0.032403069            8 
  865000   0.91408061   -6.1676108    338.65252  0.032625484  0.032382893            3 
  866000   0.92264196   -6.2171521    338.37325  0.032560937  0.032362384            7 
  867000   0.91605893   -6.1833332    339.28788  0.032611292  0.032341863            4 
  868000   0.91075094   -6.1885252    339.41617  0.032586038   0.03232163            5 
  869000   0.91249309   -6.1826118    339.69822  0.032575587   0.03230195            5 
  870000   0.91439954   -6.1735009    338.81592  0.032453633  0.032282187            8 
  871000   0.89598872   -6.2264881    339.04863  0.032438636  0.032262091            8 
  872000   0.91457756   -6.1982815    339.22781   0.03241856  0.032242143            4 
  873000    0.9073685   -6.2090442    340.48539  0.032501469  0.032222292            3 
  874000   0.92398035   -6.2093067    339.87927   0.03240649   0.03220238            9 
  875000   0.89242689   -6.1890396    340.10074  0.032390546  0.032182545            3 
  876000   0.88627336    -6.160608    341.66605  0.032502478  0.032163052            7 
  877000   0.90905361   -6.1940534    342.26325  0.032522163  0.032143593            5 
  878000   0.90931416   -6.2347693    340.53212  0.032320816  0.032123789            6 
  879000   0.88537134   -6.1865417    343.16055  0.032533233   0.03210396            4 
  880000   0.94208821   -6.1946506     341.3331   0.03232321  0.032084329            4 
  881000   0.89391384   -6.2045953    341.62815  0.032314429   0.03206478            5 
  882000   0.90990404   -6.2259526    341.85998  0.032299696  0.032045113            5 
  883000   0.88547428   -6.1790881    342.75522  0.032347605  0.032025731            7 
  884000   0.89106303   -6.1928759    343.20551   0.03235346    0.0320065           16 
  885000    0.8904177   -6.2303484     342.9743  0.032295132  0.031987132            4 
  886000   0.91474414   -6.1989888    343.41075  0.032299732  0.031967747            5 
  887000   0.89333322    -6.199294    343.69952  0.032290447  0.031948292           10 
  888000   0.89332541   -6.2359467    343.75136  0.032258949  0.031928974           13 
  889000   0.90638355   -6.2287597    343.95701  0.032241939  0.031909616            4 
  890000   0.91942911   -6.2298661    343.63965  0.032175997  0.031890361            7 
  891000   0.89154679   -6.2573431    343.68988  0.032144583  0.031871228            5 
  892000   0.90689514   -6.2100913    344.26687  0.032162451  0.031852073            3 
  893000   0.90675716   -6.2195706    344.47971  0.032146296  0.031833026            4 
  894000   0.89101184   -6.2275863    345.14364  0.032172226  0.031813645            7 
  895000    0.8759405   -6.2445503    343.87921  0.032018548  0.031793848            5 
  896000   0.89743693   -6.2036363    345.79631  0.032161115   0.03177435            4 
  897000   0.92763985   -6.2253529    344.66676  0.032020324  0.031755147            5 
  898000   0.88954534   -6.2271359    346.01134  0.032109441  0.031735733            3 
  899000   0.90996548   -6.2104541    344.73102  0.031955044  0.031716092            6 
  900000   0.91475679    -6.216425    345.92257  0.032029868  0.031696371           13 
  901000   0.86949182   -6.2324038    344.56112  0.031868398  0.031676489            5 
  902000    0.8925946   -6.2658186    345.24955   0.03189667  0.031656822            4 
  903000   0.89229298   -6.2263974    346.02145  0.031932581  0.031637094            4 
  904000   0.90854164   -6.2073121    346.43456  0.031935339  0.031617445            3 
  905000    0.8988493   -6.2013556    346.59608  0.031914925  0.031597977            4 
  906000   0.88992655    -6.203417    346.81021  0.031899394  0.031578379            6 
  907000   0.88505916   -6.2328105    346.93566   0.03187575  0.031559207            9 
  908000   0.91600368   -6.2620593    347.32821  0.031876671  0.031539707            6 
  909000   0.89080999   -6.2272805     346.9858  0.031810213  0.031519891           11 
  910000   0.88971313    -6.215891    347.44119  0.031816959  0.031500359            4 
  911000    0.8769396   -6.2211338    348.21959  0.031853237  0.031481027            6 
  912000   0.88682633   -6.2252609    348.55232  0.031848714   0.03146171            4 
  913000   0.89731936   -6.2182195    347.97793  0.031761403   0.03144237            3 
  914000   0.88416552   -6.2413618    347.78726  0.031709268  0.031422989            4 
  915000   0.90673482   -6.2254585    349.50472  0.031831031  0.031403602            4 
  916000   0.88010317   -6.2247949    348.86886  0.031738434  0.031384322            6 
  917000    0.8804552   -6.2142707    349.13525  0.031728031  0.031365142            4 
  918000     0.890969   -6.2395324    348.25234  0.031613321  0.031345877            5 
  919000   0.89043025    -6.218049     348.5478  0.031605713  0.031326422            9 
  920000   0.90839331   -6.2095867    349.39397  0.031648005  0.031307197            4 
  921000   0.88746137   -6.2499554    349.55537  0.031628246  0.031287772            3 
  922000   0.90188129   -6.1909806    350.73597  0.031700648  0.031268744            5 
  923000   0.89464989   -6.2235646     349.6568  0.031568869  0.031249884            4 
  924000   0.89256942   -6.2740863    348.95448  0.031471363  0.031230378            7 
  925000   0.87706638   -6.2380181    349.80005  0.031513518  0.031210767            3 
  926000   0.86500267   -6.2210732    349.58073  0.031459749    0.0311912            4 
  927000   0.89349538   -6.2486556    349.43975  0.031413138  0.031171568            5 
  928000    0.8839793   -6.2777973    349.78316  0.031410125  0.031151896            3 
  929000   0.88124429   -6.2782962    350.12672  0.031407133  0.031132122            5 
  930000   0.89832924   -6.2737826    349.85326  0.031348858  0.031112335           12 
  931000   0.87592318   -6.2243033    351.62601  0.031473864  0.031092927            8 
  932000   0.88185005   -6.2476069    350.78446  0.031364848  0.031073568            8 
  933000   0.88141731   -6.2629663    351.17953  0.031366518  0.031054223            6 
  934000   0.87498683   -6.2296935    351.69037  0.031378513  0.031034958            4 
  935000   0.88869466   -6.2547268    351.49449  0.031327495  0.031015624            5 
  936000   0.87832521     -6.25351    351.96654  0.031336052  0.030996296            7 
  937000   0.88775527   -6.2711256    351.91073  0.031297646  0.030977093            5 
  938000   0.89570035   -6.2383904    352.82721  0.031345701  0.030957951            6 
  939000   0.88163016   -6.2254147    352.97421  0.031325364  0.030939064            4 
  940000   0.87714075   -6.2272763    353.18246  0.031310502    0.0309202            3 
  941000   0.88306567   -6.2895844    354.02424  0.031351774  0.030901467            6 
  942000   0.88687928   -6.2653194    353.91286  0.031308639  0.030882511           15 
  943000   0.90034196   -6.2869787    353.24236  0.031216185  0.030863434            9 
  944000   0.88323901   -6.2581287    353.85808  0.031237472  0.030844565            3 
  945000   0.88376453   -6.2756929    353.96104  0.031213496  0.030825662            4 
  946000   0.88479563   -6.3111133    353.12656  0.031106991  0.030806654            5 
  947000   0.86222539   -6.2612697    354.13411  0.031162804  0.030787495            7 
  948000   0.89925366   -6.2577745    354.13829    0.0311303  0.030768583            4 
  949000   0.88676629   -6.2573844    354.84779  0.031159799  0.030749991            6 
  950000    0.8794486   -6.2386951    355.58426  0.031191602  0.030731336            6 
  951000   0.88391037    -6.287434    355.12776  0.031118801  0.030712696            3 
  952000   0.87445085   -6.2767854    355.46237  0.031115404  0.030693944           11 
  953000   0.87222141   -6.2608567    354.30884  0.030981886  0.030675094            8 
  954000   0.88217968   -6.2735585    354.77401  0.030990043  0.030656296            5 
  955000   0.86381695   -6.2841561    354.17754  0.030905544  0.030637144            8 
  956000   0.86627623   -6.2791905     355.4238  0.030981851  0.030617919            6 
  957000   0.88660695   -6.2789908     355.4452  0.030951341  0.030598787           12 
  958000   0.88106116   -6.2654407    355.17216  0.030895282  0.030579846            8 
  959000   0.87210077    -6.255927    355.95001  0.030930658   0.03056065            5 
  960000   0.87128698    -6.337385    354.74708  0.030794017  0.030541507            6 
  961000   0.87605441   -6.2668376    355.96143  0.030867276  0.030522446            7 
  962000   0.88653861   -6.2647828    356.03754  0.030841783  0.030503317            5 
  963000   0.86267865    -6.290986    354.61418  0.030686585  0.030484054            6 
  964000   0.87029723   -6.3011307    355.73813  0.030751913  0.030464972            6 
  965000   0.84946481   -6.2835506    356.19057  0.030759117  0.030445954           10 
  966000   0.84121831   -6.2612663    357.15335   0.03081033  0.030426914            6 
  967000   0.86862422   -6.2885391    356.78793  0.030746978  0.030408057            4 
  968000   0.85834062   -6.2797625    357.37749  0.030765969  0.030389108            6 
  969000   0.86910511   -6.2731983    357.63707  0.030756542  0.030370224            4 
  970000   0.86671427   -6.2583815     358.6796  0.030814399  0.030351184            4 
  971000   0.86433298   -6.3082562    357.11759  0.030648609  0.030331904            9 
  972000   0.87255183    -6.290641    356.67952   0.03057952  0.030312605            5 
  973000   0.87292424   -6.3103485     357.2069   0.03059326  0.030293438            8 
  974000   0.87802497   -6.3011801    357.66717   0.03060123  0.030273856           11 
  975000   0.85069204   -6.3104785    357.64937  0.030568323  0.030254348            8 
  976000   0.86069949    -6.252979    358.96396  0.030649245   0.03023495           11 
  977000   0.86806294   -6.2941252    357.16585  0.030464504  0.030215639            7 
  978000   0.84688087   -6.3017964    357.82996  0.030489942   0.03019634           31 
  979000   0.87138317   -6.2706072    358.47446  0.030513659  0.030176962            9 
  980000   0.86253237    -6.270464    359.32203  0.030554594  0.030157872            7 
  981000   0.86585161   -6.3152475    358.39948   0.03044508  0.030138592            7 
  982000   0.85870825    -6.280864    358.63886  0.030434391  0.030119186            5 
  983000   0.86424384     -6.26597    359.37091  0.030465489   0.03009977            3 
  984000   0.84976599   -6.2925401    358.30441  0.030344208  0.030080488            6 
  985000   0.85076132   -6.3132366    358.07952  0.030294376  0.030061209            5 
  986000   0.84428518   -6.2904658    358.52664   0.03030144  0.030041984            7 
  987000   0.84006059   -6.2777023    359.86746  0.030383946   0.03002271            7 
  988000   0.87543052   -6.2915563    359.01119   0.03028097  0.030003385            7 
  989000   0.84824785   -6.3209963    358.81136  0.030233515   0.02998409            9 
  990000   0.85830207    -6.305502    360.36157  0.030333466  0.029964679            7 
  991000   0.84680082   -6.2925025    360.55885  0.030319446  0.029945299            6 
  992000   0.85448062   -6.3143781    359.19093  0.030173969  0.029926073            8 
  993000   0.85224892   -6.3293169    359.61701   0.03017934   0.02990682            9 
  994000   0.84288109   -6.3400892    359.64511  0.030151334  0.029887476            9 
  995000   0.84633177   -6.3063849    360.10029  0.030159154  0.029868086            9 
  996000   0.86019097    -6.277052    361.44696  0.030241546  0.029848874            4 
  997000   0.85519244   -6.3129646    359.88125  0.030080345  0.029829583            4 
  998000   0.84989143   -6.3223181    360.98354  0.030142246  0.029809998           11 
  999000   0.86768996   -6.3152406    360.92428   0.03010713   0.02979051            5 
 1000000   0.84964927   -6.2995734    360.73654  0.030061378  0.029770938            8 
 1001000   0.86066237   -6.3274352    361.82345  0.030121832  0.029751546            6 
 1002000   0.85066334   -6.2889498    361.46974  0.030062353  0.029732308            7 
 1003000   0.85046388   -6.3208984    362.08493  0.030083494  0.029713395            7 
 1004000   0.85312747    -6.294442    361.96874  0.030043886  0.029694135            6 
 1005000   0.85909703   -6.3475502    361.93997  0.030011606  0.029674741            8 
 1006000   0.83568107   -6.3249465    361.35261  0.029933119  0.029655533            6 
 1007000   0.85428563   -6.3555498    360.71058  0.029850263  0.029636111            7 
 1008000    0.8556463   -6.3153212     362.2106  0.029944659  0.029616701            8 
 1009000    0.8750569   -6.3245518    362.33011  0.029924852  0.029597418            4 
 1010000   0.85012544   -6.3395566    362.43799  0.029904125  0.029578143           10 
 1011000    0.8385016   -6.3186632    362.96044  0.029917609  0.029558963            9 
 1012000   0.84346982   -6.3590162    361.19463  0.029742641   0.02953932           19 
 1013000   0.84503637   -6.3557695    361.38193  0.029728688  0.029519698            6 
 1014000   0.82730494   -6.3242013    363.66585  0.029887068  0.029500247            3 
 1015000   0.86936845   -6.3243129     363.2795  0.029825903   0.02948102            6 
 1016000   0.86308258   -6.3273608    363.77411  0.029837116  0.029461741            7 
 1017000   0.86185487    -6.312266     363.2082  0.029761406  0.029442596            9 
 1018000   0.84615384   -6.3916101     361.7105   0.02960957  0.029423261            6 
 1019000   0.84433593   -6.3433506    363.75353   0.02974759  0.029403692            5 
 1020000   0.84369819   -6.3304042     364.4679  0.029776789  0.029384352            9 
 1021000   0.83524689   -6.3360639    363.37668  0.029658561  0.029365199           10 
 1022000   0.86276517   -6.3567685    363.83277   0.02966673  0.029346075            5 
 1023000   0.84420589   -6.3350122    363.89987  0.029643196  0.029326936            4 
 1024000   0.84955506   -6.3575109    364.20666  0.029639214  0.029307906            8 
 1025000   0.85414112   -6.3402338    364.95412  0.029671067  0.029288882            9 
 1026000   0.86311612   -6.3431149    364.85286  0.029633923  0.029269887            9 
 1027000   0.86234761   -6.3476981    365.60947  0.029666462  0.029250964            7 
 1028000   0.82070728   -6.3186842    365.56406  0.029633922  0.029232316            5 
 1029000   0.85302768   -6.3255892    365.64345  0.029611552  0.029213629           10 
 1030000   0.84536386   -6.3535689    365.58476  0.029578055  0.029194845            3 
 1031000   0.83931404   -6.3691133    366.33826   0.02961027  0.029175901            9 
 1032000   0.84278905   -6.3614347    365.74121  0.029533366  0.029157136            7 
 1033000   0.82029313   -6.3582119    366.48676  0.029564921  0.029138346           15 
 1034000    0.8261457   -6.3944491    365.63744  0.029467879   0.02911945            9 
 1035000   0.83942073   -6.3718126    366.43575  0.029503683  0.029100379            7 
 1036000   0.84065067   -6.3129785    366.90378  0.029512853  0.029081553            4 
 1037000   0.82390154   -6.3485978    367.02108  0.029493819  0.029062667            7 
 1038000   0.84981729   -6.3605281    366.62014  0.029433216  0.029043802            4 
 1039000   0.84179618   -6.3675664     366.4533  0.029391507  0.029024852           14 
 1040000   0.82479366   -6.3897651    365.51383  0.029287967   0.02900579           12 
 1041000   0.83413559   -6.3869205    366.41865  0.029332264  0.028986761           12 
 1042000   0.83987606   -6.4008863    366.77592  0.029332687  0.028967761           13 
 1043000   0.84819374   -6.3898633    366.98373  0.029321168  0.028948886            8 
 1044000   0.83717676   -6.3881759    367.43557  0.029329149  0.028929993            5 
 1045000   0.83622408   -6.3547135    367.73485  0.029324948  0.028911153            8 
 1046000   0.83723273    -6.365475    368.80293  0.029382005   0.02889243            9 
 1047000   0.83326347   -6.3703151    368.22342  0.029307817  0.028873712           10 
 1048000   0.81687635   -6.3508687    368.98531  0.029340435  0.028854913            5 
 1049000   0.82943864   -6.3631006    367.86365  0.029223359  0.028836273            3 
 1050000   0.83828882   -6.4109278    367.46066  0.029163544  0.028817094            8 
 1051000     0.833132   -6.3902477    368.43789   0.02921328  0.028798051            5 
 1052000   0.83389227   -6.3678882    367.85806   0.02913958  0.028779178            9 
 1053000    0.8394416   -6.3349418    368.73805  0.029181548  0.028760576           10 
 1054000   0.83266423   -6.3658186    368.64636  0.029146613  0.028741897           12 
 1055000   0.83445053   -6.3599045    369.30058  0.029170662  0.028723163            5 
 1056000   0.83422311   -6.3584791    369.31962   0.02914454  0.028704265            8 
 1057000   0.84293158   -6.3646187    368.72429  0.029070032  0.028685484            5 
 1058000   0.83143416   -6.3532163    370.50806  0.029183055  0.028666782            6 
 1059000   0.82703618   -6.3667579    369.12346  0.029046542  0.028647903            6 
 1060000   0.82735652   -6.3615888    369.66451  0.029061675  0.028629079            4 
 1061000   0.83770065   -6.3618066    369.27014   0.02900331   0.02861021            9 
 1062000     0.840472   -6.3656049    369.17363  0.028968427  0.028591317            6 
 1063000   0.84244468   -6.3795557    369.14426  0.028938873  0.028572312            5 
 1064000   0.82829836   -6.3463473    370.43868  0.029013055  0.028553233            7 
 1065000   0.81980015   -6.3876651     369.2231  0.028890696  0.028534343            7 
 1066000   0.82481109   -6.3813292    370.23122  0.028942403  0.028515342            4 
 1067000   0.83788954   -6.3997754    369.62807  0.028868172  0.028496434           10 
 1068000   0.84611955   -6.3918446    370.42003  0.028902936  0.028477325            8 
 1069000   0.82300537   -6.3780355    369.86959   0.02883299  0.028458384            5 
 1070000   0.82888574   -6.4191168    369.23922  0.028756948  0.028439285            3 
 1071000   0.82287396   -6.3854307    369.28024  0.028733289  0.028420116            7 
 1072000   0.83347169    -6.404678    370.33468  0.028788454  0.028400967            9 
 1073000   0.82483382   -6.3957087    369.34676  0.028684899   0.02838178           10 
 1074000   0.83337951    -6.396929    369.53977  0.028673167  0.028362536            5 
 1075000   0.81681234   -6.3863072    369.20944  0.028620887  0.028343262            6 
 1076000   0.80897319   -6.3786499    369.72168  0.028633959  0.028324043           11 
 1077000   0.81757341   -6.4198728    369.75498  0.028609949  0.028304885            5 
 1078000   0.81445733   -6.4247986    369.64328  0.028574774  0.028285634           12 
 1079000   0.81580658   -6.3801261    370.07613  0.028581722  0.028266393            7 
 1080000   0.82183221   -6.3999767    370.81127  0.028611981   0.02824721            6 
 1081000   0.83245837   -6.3657055    371.67007  0.028651717  0.028228202           12 
 1082000   0.81554206   -6.3800242     372.0131  0.028651656  0.028209561            9 
 1083000   0.82065232    -6.412516    370.97429  0.028545267  0.028190656            8 
 1084000   0.83224306   -6.3994457    371.43878  0.028554642  0.028171782           10 
 1085000   0.80914633   -6.4091894    372.25066  0.028590681  0.028152946           10 
 1086000   0.81414762   -6.3772921    371.61279  0.028515407  0.028134115            5 
 1087000   0.82555699   -6.4167689    371.84798  0.028507205  0.028115286           11 
 1088000   0.81261286   -6.4340076    371.69409  0.028469216  0.028096261            7 
 1089000   0.82220779   -6.4379591    371.11017  0.028398391  0.028077124            8 
 1090000   0.80631832   -6.4245525    372.41784  0.028472312  0.028058186            7 
 1091000      0.82384   -6.4065385    372.19507  0.028429198  0.028039334           11 
 1092000   0.82322471   -6.4368046    372.40584  0.028419249   0.02802041            9 
 1093000   0.79888451   -6.4303764    371.57831  0.028330155   0.02800139            5 
 1094000   0.78690304   -6.4311627    371.81845  0.028322551  0.027982267            6 
 1095000   0.83025855   -6.4628288    371.06073   0.02823902  0.027963256            4 
 1096000   0.81461145    -6.414963    372.59768  0.028330115  0.027944223           11 
 1097000   0.82963893   -6.4316534    373.61012    0.0283812  0.027925133            4 
 1098000   0.81459015   -6.3977432    373.26652  0.028329274  0.027906232            5 
 1099000   0.82110612   -6.4576754    372.14949  0.028218796  0.027887336           13 
 1100000   0.83401266   -6.4370279     371.2476  0.028124818  0.027868208           11 
 1101000   0.80724238   -6.4318935    372.09279  0.028163245  0.027849026            7 
 1102000   0.81107451    -6.425401    372.16094  0.028142841  0.027830072            7 
 1103000   0.83018714   -6.4202825    372.59547  0.028150156  0.027810998           10 
 1104000   0.81439551   -6.4535733    372.00384      0.02808  0.027791905            3 
 1105000   0.83238704   -6.4670953    372.56766  0.028097109  0.027772862           14 
 1106000   0.82018701   -6.4468619    372.57972  0.028072613  0.027753798           13 
 1107000   0.82997536   -6.4492392    373.57174  0.028121932  0.027734646           12 
 1108000   0.81625132   -6.4376989    372.67855  0.028029374  0.027715641            4 
 1109000   0.82266922   -6.4320053    372.55171  0.027994568  0.027696537            9 
 1110000   0.81501727   -6.4402289    373.02463  0.028004852  0.027677308           16 
 1111000   0.82914386   -6.4644005    372.49595   0.02793999  0.027658396            6 
 1112000   0.82686023   -6.4429529    373.53642  0.027992837  0.027639421            5 
 1113000    0.8124028   -6.4292127    373.55361  0.027968974  0.027620391            6 
 1114000   0.80596528   -6.4608377    374.10126  0.027984834  0.027601595           10 
 1115000   0.80003007   -6.4527504    374.34487  0.027977943  0.027582676           11 
 1116000   0.82672551   -6.4626138    374.14631  0.027938046  0.027563843           12 
 1117000   0.81398885   -6.4745355    374.27896  0.027922931  0.027544901            8 
 1118000   0.80871382   -6.4515353    374.63214   0.02792428  0.027526208            3 
 1119000   0.79592462   -6.4698507    374.02988  0.027854474  0.027507509            6 
 1120000   0.82401865   -6.4406292     375.3081   0.02792471  0.027488702            8 
 1121000   0.81747353    -6.457444     373.8714  0.027792997  0.027469973           13 
 1122000   0.79775525   -6.4643341    374.76645  0.027834704  0.027451026           10 
 1123000   0.78818682   -6.4230398     376.0023  0.027901625  0.027432382           20 
 1124000   0.80940239    -6.449268    374.98951  0.027801713  0.027413735           13 
 1125000   0.80913697   -6.4578511    374.76648   0.02776048  0.027395021           14 
 1126000   0.81783129   -6.4661784    376.10435   0.02783484  0.027376253            6 
 1127000   0.80165155   -6.4787799    374.71944  0.027707738  0.027357598            5 
 1128000   0.79300938   -6.4763001    374.89558  0.027696187  0.027338807            6 
 1129000   0.78358705   -6.4628959    376.17676  0.027766221  0.027320287            8 
 1130000   0.80555504   -6.4753155    376.37193  0.027756042  0.027301891            9 
 1131000   0.80741476   -6.4854807    375.93794  0.027699524   0.02728354           11 
 1132000   0.80023692   -6.4738472    376.42978  0.027711261  0.027265206            6 
 1133000   0.79016459   -6.4427331    377.88013  0.027793478  0.027247028            6 
 1134000   0.78874517   -6.4200742    377.91007  0.027771169  0.027228895            5 
 1135000   0.81711976   -6.4755063    375.74837  0.027587986  0.027210518            7 
 1136000   0.79831307   -6.4738221    376.52085  0.027620368  0.027191924            8 
 1137000   0.81171205   -6.4832683     376.8745  0.027621995  0.027173428           10 
 1138000   0.78287956    -6.459861    376.43661  0.027565657   0.02715483            5 
 1139000   0.80582504     -6.48528    376.38354  0.027537572    0.0271362            9 
 1140000   0.80139213    -6.462532    377.33762   0.02758316  0.027117563            5 
 1141000   0.79637635   -6.5184232    376.08494  0.027467495  0.027098906           12 
 1142000   0.81759434   -6.4940813    376.12438  0.027446321  0.027080098            6 
 1143000   0.80443659   -6.4788025    377.79397  0.027544034  0.027061266            6 
 1144000   0.81227545   -6.4631912    378.25518  0.027553553  0.027042452            7 
 1145000   0.80325125   -6.4707025    377.38043  0.027465824  0.027023693           13 
 1146000    0.8144023   -6.4607355    376.31634  0.027364481  0.027004901            8 
 1147000   0.79063652   -6.4711345    377.17603  0.027403083   0.02698615           12 
 1148000   0.79601561   -6.4673396    376.23651  0.027311012  0.026967508            9 
 1149000   0.79569231    -6.490192     377.4618   0.02737611  0.026948918            8 
 1150000   0.78485634   -6.4450468     377.2171  0.027334572  0.026930152           16 
 1151000   0.80214018   -6.4539682    377.97229    0.0273655  0.026911474            7 
 1152000   0.80311349   -6.4777232    378.37784  0.027371082  0.026893051            9 
 1153000   0.79350699   -6.4503682    378.78634  0.027376867  0.026874363           18 
 1154000   0.78793139   -6.4922266    376.61225  0.027196148  0.026855803           23 
 1155000   0.79837316   -6.4804753    377.34333  0.027225349  0.026837223            6 
 1156000   0.78850101   -6.4973069    377.35457  0.027202607  0.026818614           13 
 1157000   0.77751848    -6.520129    376.55184  0.027121279  0.026799742            9 
 1158000   0.78772632   -6.4548102    378.16464   0.02721392  0.026780964           12 
 1159000   0.78279915   -6.4869843    377.90481  0.027171758   0.02676216            7 
 1160000     0.803743   -6.4842687    377.01206    0.0270842   0.02674342            6 
 1161000   0.78943241   -6.4968383    377.87612  0.027122892  0.026724606            8 
 1162000   0.80615173    -6.511107    377.17537  0.027049295  0.026705642           74 
 1163000   0.79385451   -6.5102559     376.4941  0.026977221  0.026686683            5 
 1164000   0.79927447   -6.5144374    378.15234  0.027072762  0.026667727            8 
 1165000   0.78359872   -6.4853612    378.61317  0.027082487  0.026648815            6 
 1166000   0.79849409   -6.4855407     378.5667  0.027055939  0.026630016            7 
 1167000   0.78466192   -6.4897364    378.34369   0.02701683  0.026611273            9 
 1168000   0.78200607   -6.4874358     378.7212  0.027020633  0.026592645           11 
 1169000   0.79660122   -6.5059325    377.55055  0.026914069  0.026573937           13 
 1170000   0.75324459   -6.4932506    378.75444  0.026976812  0.026555261            7 
 1171000   0.78839832   -6.4777688    379.38715  0.026998801  0.026536667           17 
 1172000   0.78271958   -6.5079275    378.11146  0.026885058  0.026517931           16 
 1173000   0.78899547   -6.4744093    379.19307  0.026938979  0.026499355            6 
 1174000   0.77977535   -6.5019973    377.66237   0.02680738  0.026480749           12 
 1175000   0.79261267   -6.5179374    378.65775   0.02685516  0.026462076            7 
 1176000   0.77560678   -6.5101938    377.24196  0.026731998  0.026443211           11 
 1177000   0.78436051   -6.4986897    377.92386  0.026757566  0.026424177            7 
 1178000   0.78203348   -6.4846457    378.92711  0.026805822  0.026405199           10 
 1179000   0.78486435   -6.5098623    379.61983  0.026832049   0.02638637            9 
 1180000   0.76118758   -6.4838146    379.20091  0.026779725  0.026367618            4 
 1181000   0.77758287   -6.5182749    377.84723  0.026661532  0.026348822            7 
 1182000   0.75686846   -6.5192049    378.60041  0.026692076  0.026329825           13 
 1183000   0.79106727   -6.5018339    379.19171  0.026711166  0.026310947            8 
 1184000   0.78882441   -6.5200318    378.49107  0.026639293  0.026292043           16 
 1185000   0.77855978    -6.500479    378.72764  0.026633449  0.026273302           13 
 1186000   0.78400575   -6.5129872    378.93256  0.026625391  0.026254477           10 
 1187000   0.77032334    -6.502507    379.94106  0.026673761  0.026235569            7 
 1188000   0.76475154   -6.4898757     379.9653  0.026653009  0.026216922            8 
 1189000   0.78344007   -6.5103418    378.17799  0.026505326  0.026198184           20 
 1190000   0.75980869   -6.5254537    378.66564  0.026517202   0.02617938           11 
 1191000   0.77307654   -6.5106819    379.69103  0.026566683  0.026160471           15 
 1192000   0.77241864   -6.5151369     378.9035  0.026489339  0.026141794            8 
 1193000   0.77902406   -6.5254005    379.93218   0.02653899  0.026123005           10 
 1194000   0.78881152   -6.5095242    379.90064  0.026514562  0.026104164           15 
 1195000   0.78861687   -6.5295281    379.66149  0.026475696  0.026085345           26 
 1196000   0.77962131   -6.5321708    380.18339  0.026489924  0.026066633           15 
 1197000   0.79070154   -6.5136378    379.77324   0.02643924  0.026047798           11 
 1198000   0.76293989   -6.5290685    379.85434  0.026422812  0.026029184            5 
 1199000   0.76689986   -6.5148452    380.29518  0.026431413  0.026010558            8 
 1200000   0.77748449   -6.5074594    379.90501  0.026382293  0.025991842            8 
 1201000   0.76212449   -6.5343066    380.60722   0.02640905  0.025973376            7 
 1202000   0.76650017   -6.5338575    379.78718  0.026330226  0.025954833           12 
 1203000   0.77572246   -6.5631445    378.87293  0.026245007  0.025936145           15 
 1204000   0.76735641   -6.5273406    381.00438  0.026370735  0.025917439            7 
 1205000   0.76400382   -6.5591103    380.37683  0.026305452   0.02589877            6 
 1206000   0.77131282   -6.5537556    380.43711  0.026287805  0.025880045            7 
 1207000   0.77679408   -6.5511788     380.3609  0.026260764  0.025861405            6 
 1208000   0.77653968   -6.5510801    380.91753  0.026277424  0.025842767           12 
 1209000   0.76795734   -6.5396857    381.14103  0.026271094   0.02582408            8 
 1210000   0.78860337   -6.5658844    380.24145  0.026187428   0.02580547           13 
 1211000   0.76849298   -6.5395704    380.85263  0.026207861  0.025787042            8 
 1212000   0.75857039   -6.5262832    381.26741  0.026214756    0.0257687            9 
 1213000   0.76212749   -6.5416933    381.34945  0.026198781   0.02575025            7 
 1214000   0.76799128   -6.5377334    381.50506  0.026187882  0.025731729           13 
 1215000   0.75743909   -6.5458702    381.27863  0.026150798  0.025713182            6 
 1216000   0.78121569   -6.5481023    380.12847  0.026050471  0.025694655           11 
 1217000   0.77533136   -6.5582538    381.33335  0.026111569  0.025676061            8 
 1218000   0.74764219    -6.541678    382.16084  0.026146746   0.02565751            6 
 1219000   0.76890099   -6.5692761    380.84407   0.02603528  0.025638973            8 
 1220000   0.77213582   -6.5345762    380.95295  0.026021376  0.025620436            8 
 1221000   0.74388102   -6.5651535     381.1206  0.026011507  0.025601864           10 
 1222000   0.76800151   -6.5448643    382.16714  0.026061589  0.025583303           18 
 1223000   0.75931482   -6.5486245    381.36411  0.025985562  0.025564844           23 
 1224000   0.76206207   -6.5491519    381.61631  0.025981503  0.025546349           20 
 1225000   0.75636797   -6.5589311     381.7293  0.025967979  0.025527774            9 
 1226000    0.7749422   -6.5529932    380.61535  0.025871081  0.025509185            7 
 1227000   0.76318672   -6.5676171    381.70351  0.025923901  0.025490589            6 
 1228000   0.76994614   -6.5257153    381.40414  0.025882474  0.025472063           13 
 1229000   0.76280385    -6.559483     381.3647   0.02585874  0.025453594           11 
 1230000   0.77085942   -6.6001196     381.6714  0.025858496   0.02543507            8 
 1231000   0.76265827   -6.5813654    382.19932  0.025873228  0.025416391           18 
 1232000   0.75507116   -6.5584742    382.58992  0.025878647  0.025397817           11 
 1233000   0.77019469   -6.5714754    382.60447  0.025858642  0.025379415           10 
 1234000   0.74408693   -6.5556273      382.402  0.025824014  0.025360963           14 
 1235000   0.76523894   -6.5887834    381.58833    0.0257482  0.025342487           22 
 1236000   0.76759461   -6.5856347    381.22834  0.025703097  0.025323867           15 
 1237000   0.76008756   -6.5655665     382.1282   0.02574294  0.025305362            9 
 1238000   0.76909396   -6.5724989    380.97817  0.025644734  0.025286791            7 
 1239000    0.7540836   -6.5721061    381.51684  0.025660267  0.025268281           13 
 1240000   0.76432626    -6.582274    381.57329  0.025643366  0.025249827           18 
 1241000   0.77264589   -6.6122071     381.5212  0.025619205  0.025231284            6 
 1242000   0.75649666   -6.5773651    383.03152  0.025699914  0.025212834           11 
 1243000   0.74417045   -6.5950933    382.83957  0.025666369  0.025194442           12 
 1244000   0.75318512    -6.554275    384.00327  0.025723692  0.025176203           27 
 1245000   0.75550311    -6.578992    383.23318  0.025651485  0.025157936           13 
 1246000   0.76704114   -6.5843063    382.49569  0.025581574  0.025139586           15 
 1247000   0.76450911   -6.5965692    382.89535  0.025587767  0.025121142            9 
 1248000   0.76658429   -6.5751616    383.19473  0.025587255   0.02510286           11 
 1249000   0.74058706   -6.5732482     382.3468  0.025510195  0.025084467           10 
 1250000   0.73870383   -6.5794397     383.1657   0.02554438  0.025066148           12 
 1251000    0.7478391   -6.6177038    382.80368  0.025499846  0.025047714           19 
 1252000   0.74060216    -6.582464    382.21993  0.025440623  0.025029181           16 
 1253000    0.7405347   -6.5733424     384.0107  0.025539419  0.025010614           12 
 1254000   0.76990959   -6.6062854    382.55644  0.025422411  0.024992247           10 
 1255000    0.7665868   -6.6070181    383.80924  0.025485341   0.02497393            6 
 1256000   0.76318275    -6.573077    383.82803  0.025466297  0.024955566            9 
 1257000   0.75165159   -6.6290569      382.642  0.025367409  0.024937212           10 
 1258000   0.75156361   -6.5988326    382.87938  0.025362969  0.024918837           11 
 1259000   0.73185876   -6.6169537    383.14533  0.025360427   0.02490048           13 
 1260000   0.76296029   -6.6015203    382.81974  0.025318766  0.024882184           20 
 1261000   0.73666107   -6.6208029    383.31369   0.02533133  0.024863917           16 
 1262000   0.74977835    -6.597998    383.15249  0.025300613  0.024845642           12 
 1263000   0.74359363    -6.640059    382.13502  0.025213448  0.024827302           24 
 1264000   0.76070178   -6.5965354    383.03129   0.02525259   0.02480888            7 
 1265000   0.75911461   -6.5850052    384.31523  0.025317209  0.024790537            7 
 1266000   0.74644678   -6.5737028    384.20243  0.025289786  0.024772295            7 
 1267000   0.75162739   -6.5961707    383.78635  0.025242459   0.02475407           15 
 1268000   0.74285512   -6.6131616    383.07792  0.025175994  0.024735966           11 
 1269000   0.74533128    -6.622973    383.15835  0.025161436  0.024717692           23 
 1270000   0.73342594   -6.6240498    383.18275  0.025143225  0.024699403           16 
 1271000   0.74452235   -6.6342027    383.41974  0.025138981   0.02468114           17 
 1272000   0.75731293   -6.5972328    383.63548  0.025133352   0.02466291           15 
 1273000   0.74841536   -6.6063133    383.55917  0.025108613  0.024644754           10 
 1274000   0.74866891    -6.618522    383.99205  0.025117219   0.02462658           16 
 1275000   0.73363359   -6.5887766     384.3587  0.025121484  0.024608513           12 
 1276000   0.71834658   -6.6187847    383.73141  0.025060828  0.024590377           11 
 1277000    0.7259455   -6.5879956     383.6486    0.0250358  0.024572108            7 
 1278000   0.75271492   -6.5961742    384.78294  0.025090176  0.024553925            6 
 1279000   0.76736575   -6.6181482    385.14442  0.025094111  0.024535838           10 
 1280000   0.72545777   -6.6092288    384.46583  0.025030327  0.024517727            9 
 1281000     0.741411   -6.6130269    383.57344  0.024952735  0.024499438           47 
 1282000   0.74758497   -6.6458991    383.92464    0.0249561  0.024481227            6 
 1283000   0.75215632   -6.6108139    384.38934  0.024966832  0.024463015           10 
 1284000   0.73763861    -6.633234    384.09398  0.024928218   0.02444478           16 
 1285000   0.72004873   -6.6209662    383.72632  0.024884975  0.024426513            8 
 1286000   0.73656852   -6.6440787    383.33958  0.024840564   0.02440825           15 
 1287000   0.74634243   -6.6285187    383.58009  0.024836835  0.024389925           11 
 1288000   0.74011644   -6.6163354    383.77678  0.024830279  0.024371649           19 
 1289000   0.75218082   -6.6087646    384.02625  0.024827143  0.024353505           12 
 1290000   0.72068903   -6.6285078    384.13536  0.024814946  0.024335355           10 
 1291000   0.73251536   -6.6189987    384.02967  0.024788902  0.024317131            8 
 1292000   0.74326439   -6.6288986    384.67759  0.024811506  0.024298918           15 
 1293000   0.73123494   -6.6502529     383.8062  0.024736156    0.0242807           26 
 1294000    0.7534094    -6.646299    383.60865  0.024704318  0.024262426           16 
 1295000   0.73640489   -6.6618285    383.88475  0.024703008  0.024244011           56 
 1296000   0.73536892   -6.6569228    383.42794  0.024654574  0.024225689           16 
 1297000   0.74354931   -6.6391538    384.28458  0.024690605  0.024207454           13 
 1298000   0.73730448   -6.6317983    384.25131  0.024669447  0.024189234            9 
 1299000   0.73787198   -6.6357636    384.58972  0.024672166  0.024171012           16 
 1300000   0.72818832    -6.617599     383.6302  0.024591679  0.024152851            8 
 1301000   0.73254361   -6.6375645     384.1721  0.024607488  0.024134681           13 
 1302000   0.73293293   -6.6179474    384.50993  0.024610211  0.024116526            9 
 1303000   0.74595956    -6.643182    384.63034  0.024599024  0.024098431           10 
 1304000   0.73336071   -6.6256198    384.83346   0.02459314  0.024080291           23 
 1305000   0.74510875   -6.6289878    384.88803   0.02457778  0.024062136            8 
 1306000    0.7394242   -6.6237362     385.4002  0.024591641  0.024044125           14 
 1307000   0.72576416   -6.6377828    384.55073  0.024518664  0.024026157           19 
 1308000   0.71530655   -6.6452275    385.32884  0.024549493  0.024008153           22 
 1309000   0.74517975   -6.6419081    384.81265  0.024497877  0.023990215            6 
 1310000   0.72861302    -6.639149    385.22744  0.024505562  0.023972221           21 
 1311000   0.72760063   -6.6771121    384.04876  0.024411947  0.023954199           12 
 1312000    0.7289072   -6.6773863    384.05639  0.024393825  0.023936209           15 
 1313000   0.72814216   -6.6690248    384.91066  0.024429466   0.02391807           18 
 1314000    0.7165624   -6.6429198    385.03051  0.024418475  0.023900164           13 
 1315000   0.72484563   -6.6559872     384.3086  0.024354157  0.023882296           16 
 1316000    0.7413634   -6.6255756    385.11426  0.024386668  0.023864321            7 
 1317000   0.73125429   -6.6279607    385.20978  0.024374195  0.023846345            7 
 1318000   0.72775097   -6.6810295    385.08012  0.024347504  0.023828302           16 
 1319000   0.71340152   -6.6466048    385.25542   0.02434012  0.023810265           11 
 1320000   0.72434361   -6.6563914    384.73356  0.024288735   0.02379222           18 
 1321000   0.71721034   -6.6247713    385.32968  0.024307953  0.023774201           11 
 1322000   0.72980816   -6.6310809    384.92276  0.024263916  0.023756321           14 
 1323000   0.72488215   -6.6499397    384.76424  0.024235591  0.023738466           19 
 1324000   0.73003132   -6.6650314    384.67695  0.024211792  0.023720565           16 
 1325000   0.72600741    -6.687625     384.1457  0.024160107  0.023702547           15 
 1326000   0.73644827    -6.646573    385.75627  0.024243104  0.023684567            9 
 1327000   0.74363554   -6.6752249    385.20748  0.024190371  0.023666674            7 
 1328000   0.72459528   -6.6757091    386.27241  0.024238981  0.023648803            4 
 1329000   0.70971197   -6.6694279    385.10779  0.024147717  0.023630921           22 
 1330000   0.74327904   -6.6696753    386.20718  0.024198445  0.023612989           21 
 1331000   0.72071609   -6.6975813    384.79883  0.024092088  0.023594893           28 
 1332000   0.73049106   -6.6724625    384.30893  0.024043352  0.023576862           15 
 1333000   0.70815449   -6.6669895    385.52518  0.024101349  0.023558879           12 
 1334000   0.71044596   -6.6741276    385.38102  0.024074277  0.023540931           19 
 1335000   0.70387076   -6.6940041    384.77416  0.024018362    0.0235229           17 
 1336000    0.7194801   -6.6991125    384.79152  0.024001467  0.023504904           11 
 1337000    0.7472326   -6.6919672    385.70223  0.024040279  0.023486944           12 
 1338000   0.72584471   -6.6956101     384.3803  0.023939979  0.023468936           14 
 1339000    0.7285351   -6.6906457    385.24663  0.023976016  0.023450962           17 
 1340000   0.74029403   -6.6842043    385.15114  0.023952185  0.023433023           16 
 1341000    0.7229479   -6.7036908    385.01897  0.023926111  0.023415042           30 
 1342000   0.72872337   -6.6869498    385.30138  0.023925818  0.023397071           31 
 1343000    0.7131352   -6.6722342    384.66989  0.023868819  0.023379098           17 
 1344000   0.73657319   -6.6982259    385.11847  0.023878874  0.023361151           25 
 1345000   0.72345539   -6.7089295    384.74384  0.023837909  0.023343063           38 
 1346000   0.72628752   -6.7098639    385.15843  0.023845866  0.023325004           60 
 1347000   0.70783694   -6.7090044    384.74407  0.023802529   0.02330692           58 
 1348000   0.73321651   -6.6858073    384.69625  0.023781915  0.023288807           50 
 1349000    0.7254948   -6.7208239    384.21273  0.023734416  0.023270685           55 
 1350000   0.70331317   -6.7029898    384.85719  0.023756617  0.023252659           49 
 1351000   0.71927694   -6.7217033    384.74784  0.023732287  0.023234671           55 
 1352000   0.71851849   -6.7084863    385.04456  0.023733022  0.023216708           29 
 1353000   0.70605226   -6.7177863    386.13714  0.023782775   0.02319867           47 
 1354000   0.71518149   -6.7384802    384.40161  0.023658396   0.02318079           61 
 1355000   0.70844549     -6.70555    385.99648  0.023739021  0.023162949           16 
 1356000   0.70726403   -6.7143639    386.41955  0.023747514  0.023145019           21 
 1357000   0.70617331   -6.7140734    385.80912  0.023692528  0.023127228           18 
 1358000   0.71943888   -6.7142735    385.69182  0.023667883  0.023109442           10 
 1359000   0.70923038   -6.7052172    385.20816   0.02362081  0.023091624            8 
 1360000   0.70321087   -6.6928485    386.12857  0.023659839  0.023073818           13 
 1361000    0.7135835   -6.6962846    385.78995  0.023621721  0.023056023           27 
 1362000    0.7095037   -6.6986259     385.9207  0.023612378  0.023038278           11 
 1363000    0.7129793   -6.7119744      386.549  0.023633468  0.023020516           17 
 1364000   0.71306966   -6.7071222    386.13104  0.023590606   0.02300277            9 
 1365000   0.70739554   -6.6812425    386.56762  0.023599977  0.022985069           11 
 1366000   0.69581956   -6.6862535    386.76085  0.023594488  0.022967354           20 
 1367000   0.69826955   -6.7173523     386.1851   0.02354213  0.022949653           12 
 1368000   0.70825925   -6.6871371    385.66356   0.02349315  0.022931999           13 
 1369000   0.71220832   -6.6970749    385.47255  0.023464363  0.022914387           23 
 1370000   0.71065893   -6.7149317    386.66498  0.023519768  0.022896713           18 
 1371000   0.71452651   -6.7346321    385.66352  0.023441741  0.022879041            9 
 1372000    0.7101264   -6.7445355    385.33377  0.023404627  0.022861355            7 
 1373000   0.69432021   -6.7356064     386.2326  0.023442134  0.022843696           16 
 1374000   0.70924736    -6.722641    385.99267  0.023410521  0.022826062           29 
 1375000   0.70189486   -6.7144701    386.19631  0.023405837  0.022808459           40 
 1376000   0.70954539    -6.739876    385.95556  0.023374246  0.022790882           17 
 1377000   0.71071209   -6.7243909    385.36111  0.023321297   0.02277327           17 
 1378000   0.70428908    -6.721215    386.18814  0.023354387  0.022755697           16 
 1379000   0.70913016   -6.7176778     386.9847  0.023385587   0.02273815           12 
 1380000   0.68799412   -6.7395954    386.25131  0.023324354  0.022720678           15 
 1381000   0.69656588   -6.7341693    386.78627  0.023339746  0.022703176           19 
 1382000   0.69986794   -6.7370511    387.05742  0.023339208  0.022685682           12 
 1383000   0.68247606    -6.735381    386.89943  0.023312812  0.022668241           11 
 1384000   0.70225782   -6.7191397    387.40573  0.023326453  0.022650763           17 
 1385000   0.70833923   -6.7464566    386.18048  0.023235889  0.022633305           30 
 1386000   0.69405921   -6.7482553    386.13915  0.023216639  0.022615851           30 
 1387000     0.715716   -6.7599086    386.46197  0.023219296   0.02259843           14 
 1388000   0.71202199   -6.7255906    386.84551  0.023225595  0.022581067           14 
 1389000   0.70801967   -6.7007322    386.75416  0.023203393  0.022563735           20 
 1390000   0.70501597   -6.7532692    387.51672  0.023232417  0.022546386           17 
 1391000   0.69922941   -6.7384208     386.6327  0.023162754  0.022529016            8 
 1392000   0.71205519    -6.749666     385.8929  0.023101826  0.022511657           12 
 1393000   0.70830212   -6.7498388    386.92064  0.023146724  0.022494237           13 
 1394000   0.69461253   -6.7668334    385.73512  0.023059249  0.022476854           36 
 1395000   0.68871981   -6.7292721    386.95034  0.023115313  0.022459467           10 
 1396000   0.69559167   -6.7712948    385.69069  0.023023561  0.022442033           12 
 1397000   0.69986214   -6.7713012    386.04836  0.023028416  0.022424539           13 
 1398000   0.70082874   -6.7645208    386.85774  0.023060189  0.022407065           14 
 1399000   0.68192863   -6.7619094    386.89199  0.023045746  0.022389627           17 
 1400000   0.70386301   -6.7504611    386.44221  0.023002512  0.022372213           21 
 1401000   0.68924894    -6.769508    386.43814  0.022985852  0.022354824           15 
 1402000   0.68009822   -6.7501315     387.3909  0.023026088  0.022337434           20 
 1403000   0.68895588   -6.7987257    385.66828  0.022907358  0.022320088           44 
 1404000   0.69950094   -6.7777516    386.37524  0.022933003   0.02230271           42 
 1405000   0.69561865    -6.782273    385.82973  0.022884326  0.022285328           37 
 1406000   0.67811079    -6.785936    386.57448   0.02291219  0.022268066           47 
 1407000   0.67383303   -6.7421425      386.338    0.0228819  0.022250776           20 
 1408000   0.70249868   -6.7470275    386.95346  0.022902075  0.022233587           24 
 1409000   0.68369592   -6.7386986    387.20249  0.022900549  0.022216428           37 
 1410000   0.70021484   -6.7502829    387.48334  0.022900907  0.022199245           40 
 1411000   0.69000855   -6.7720935    387.12243  0.022863361  0.022182048           20 
 1412000   0.68867528   -6.7379068    388.23562  0.022912867  0.022164858           27 
 1413000   0.69611239   -6.7741919    387.23754  0.022837788  0.022147709           17 
 1414000   0.68132542   -6.7405709    386.86571  0.022799723  0.022130551           20 
 1415000   0.69713453   -6.7681142    387.70448  0.022833008  0.022113407           23 
 1416000   0.68138584   -6.7853306     387.7389  0.022818909  0.022096283           13 
 1417000   0.67983692   -6.7639665    387.07809  0.022763943  0.022079185           18 
 1418000   0.69026609   -6.7826652    387.23939  0.022757369  0.022062026           24 
 1419000   0.67715989   -6.7857028    386.85976  0.022719037  0.022044822           20 
 1420000   0.69674494   -6.7744092    388.03045   0.02277174  0.022027651           22 
 1421000   0.67815703   -6.7969346    387.43551  0.022720825  0.022010594           47 
 1422000   0.68430598    -6.771425    386.95021  0.022676407  0.021993517           30 
 1423000   0.68101635   -6.7743516     386.8043  0.022651927  0.021976415           42 
 1424000   0.68597784   -6.7921166    386.48051  0.022617071  0.021959273           22 
 1425000   0.68038694   -6.7806169    386.77246  0.022618273  0.021942147           13 
 1426000   0.69044774   -6.7910113    387.62802  0.022652409  0.021925024           15 
 1427000   0.68571514   -6.7805818    386.54469  0.022573271  0.021907958           20 
 1428000   0.68501432   -6.7868147    386.83957  0.022574671  0.021890888           15 
 1429000   0.68209152   -6.7841493    387.48276  0.022596382  0.021873881           33 
 1430000   0.68551938   -6.7581401    387.03037  0.022554217  0.021856866           38 
 1431000   0.68004842   -6.7833019    387.84775  0.022586056   0.02183988           32 
 1432000   0.67456015   -6.7903811    387.65241  0.022558916   0.02182287           24 
 1433000   0.67844352   -6.8036918      387.184  0.022515934   0.02180592           24 
 1434000   0.68355636   -6.8019844    387.70076  0.022530262  0.021788958            7 
 1435000   0.69012533     -6.77613    387.82266  0.022521641  0.021771933           17 
 1436000   0.67789099   -6.8087146    387.30363  0.022475837  0.021754912            9 
 1437000   0.67617237   -6.7887008    387.86219  0.022492588   0.02173792           15 
 1438000   0.68323582   -6.7793733    387.06427  0.022430707  0.021720932           16 
 1439000     0.677628   -6.8278139    386.05617  0.022356739  0.021703885           13 
 1440000   0.68730067   -6.7639451    387.62516  0.022432012  0.021686857           20 
 1441000   0.69250331   -6.7882821    387.25914  0.022395278  0.021669886           29 
 1442000    0.6759034   -6.7987507    387.35437   0.02238525  0.021652883           15 
 1443000   0.68908754   -6.7795781    387.22075  0.022362021  0.021635947           26 
 1444000   0.66225769   -6.8048134    386.12762   0.02228345  0.021618956           20 
 1445000   0.67396978   -6.7876386    386.45642  0.022286991  0.021601897           34 
 1446000   0.68347884   -6.8157371    386.50348   0.02227429  0.021584869           35 
 1447000   0.66656503   -6.8311798    385.68764  0.022211912  0.021567805           52 
 1448000    0.6865647   -6.7963507     387.1809   0.02228251  0.021550766           36 
 1449000   0.67879312   -6.8171293     386.7915  0.022244738  0.021533745           25 
 1450000   0.66737039   -6.7909531    386.87642  0.022234277  0.021516661           58 
 1451000   0.66366617   -6.7991443    385.32529   0.02212987  0.021499597           24 
 1452000   0.67698571   -6.8194752    385.61034  0.022130988  0.021482519           30 
 1453000   0.68147045   -6.8008317     386.5774   0.02217122  0.021465468           30 
 1454000   0.66138522   -6.8074071    387.32209  0.022198653  0.021448446           17 
 1455000   0.66417983   -6.7942764    386.47668  0.022134976   0.02143151           13 
 1456000    0.6582563   -6.8056247    386.25562  0.022107121  0.021414562           10 
 1457000   0.66944255   -6.8234021    386.24497  0.022091339  0.021397665           60 
 1458000   0.68154462   -6.8287696    387.15382  0.022128133  0.021380758           16 
 1459000   0.66802045   -6.8295365    386.24173  0.022060871  0.021363804           20 
 1460000   0.66760106   -6.8343581    385.60201  0.022009247  0.021346804           35 
 1461000   0.66889765   -6.8353437    386.02834    0.0220185  0.021329854           18 
 1462000   0.66406143   -6.8248859    386.58047  0.022034911  0.021312968           32 
 1463000   0.67380173   -6.8260048    387.97996  0.022099565  0.021296084            9 
 1464000   0.66020888   -6.8546306    386.80428  0.022017548  0.021279236           13 
 1465000    0.6842615   -6.8160041    387.12105  0.022020537  0.021262345           15 
 1466000   0.66633825   -6.8443912     385.6614  0.021922544   0.02124545           34 
 1467000   0.67047021   -6.8189143     387.1989  0.021994938  0.021228562           24 
 1468000   0.68062755   -6.8211349    387.15431  0.021977424  0.021211735           46 
 1469000   0.67307379   -6.8125468    387.10677  0.021959767  0.021194959           22 
 1470000   0.66515056   -6.8058114    388.00406  0.021995695  0.021178225           19 
 1471000   0.67676471   -6.8198325    386.45184  0.021892808  0.021161545           28 
 1472000   0.66087992   -6.8335945    386.94989   0.02190613  0.021144926           18 
 1473000   0.66911824   -6.8333204     387.4869   0.02192164  0.021128264           29 
 1474000   0.67115068    -6.816302    387.99938  0.021935741  0.021111635           28 
 1475000   0.65955592   -6.8482969    386.95089  0.021861632  0.021094962           36 
 1476000   0.67069965   -6.8452673     386.2492  0.021807204  0.021078299           43 
 1477000   0.65607349   -6.8401605      387.215  0.021846931  0.021061665           39 
 1478000   0.65660356   -6.8539677    387.24031  0.021833576  0.021044927           30 
 1479000   0.67348674    -6.849059    387.15457  0.021813983  0.021028197           31 
 1480000   0.64942505   -6.8455199    387.05566  0.021793675  0.021011491           27 
 1481000   0.66475143   -6.8469008    386.69182  0.021758486  0.020994802           25 
 1482000   0.67569706   -6.8417144    387.48688  0.021788511  0.020978185           33 
 1483000   0.65586813    -6.808719    387.49871  0.021774483  0.020961525           38 
 1484000   0.66272378   -6.8692252    385.99253  0.021675232  0.020944875           38 
 1485000   0.67010652   -6.8744869    386.37298  0.021681986   0.02092821           15 
 1486000   0.67713081    -6.863278     387.1638  0.021711743  0.020911529           39 
 1487000   0.67726314   -6.8654525    386.62468  0.021666929  0.020894813           36 
 1488000   0.65433947   -6.8683535    386.36354  0.021637743  0.020878118           44 
 1489000    0.6595862    -6.867994    386.22487  0.021615451  0.020861354           69 
 1490000   0.66969933   -6.8372429    386.75294  0.021630477   0.02084468           42 
 1491000   0.65570561   -6.8560057    386.88404  0.021623297  0.020828028           19 
 1492000   0.66240415    -6.867649    385.97981    0.0215583  0.020811409           29 
 1493000   0.66006076   -6.8602381    387.20343  0.021612158  0.020794775           19 
 1494000   0.65577176   -6.8680029    387.06294  0.021589856  0.020778184           17 
 1495000   0.66917565   -6.8630008    385.86852  0.021508836  0.020761594           22 
 1496000   0.64561736   -6.8480922    386.65615  0.021538333  0.020745057           47 
 1497000   0.65345741   -6.8585919    386.85564   0.02153505  0.020728539           25 
 1498000   0.65350367   -6.8934175    386.80036  0.021517599  0.020712105           32 
 1499000   0.66904956   -6.8645104    387.45839  0.021539826  0.020695607           30 
 1500000   0.65461019   -6.8580539    387.39894  0.021522163  0.020679147           22 
 1501000   0.67099731   -6.8783264     386.8297  0.021476221  0.020662729           24 
 1502000   0.67097313   -6.8683662    387.25738  0.021485652   0.02064629           40 
 1503000   0.64494747   -6.8432972    387.22596  0.021469614  0.020629913           41 
 1504000   0.66150418   -6.8702526    386.84831  0.021434415   0.02061356           32 
 1505000   0.64503861   -6.8458954    387.37964  0.021449592  0.020597276           43 
 1506000   0.67665537   -6.8726166    386.83332  0.021405119  0.020580964           68 
 1507000   0.65579875   -6.8735219     388.0126  0.021456127  0.020564689           30 
 1508000   0.65751088   -6.8439618    387.91705  0.021436619  0.020548412           30 
 1509000   0.64609045   -6.8443134    387.85782  0.021419142  0.020532171           22 
 1510000   0.65010915   -6.8316967    387.88242  0.021406315  0.020515998           23 
 1511000   0.65076861   -6.8359506    387.71649  0.021382996  0.020499849           45 
 1512000   0.65366383   -6.8625447     387.2579  0.021343579  0.020483651          108 
 1513000   0.65085759   -6.8733064    387.07152  0.021319207  0.020467431           19 
 1514000   0.66433438   -6.8748709    386.41113  0.021268777  0.020451213           44 
 1515000   0.65633216   -6.8862335    386.68474  0.021269788  0.020434963           37 
 1516000   0.63862457   -6.8714588    387.33695  0.021291609  0.020418773           57 
 1517000   0.65008291    -6.878901    388.00185  0.021314099  0.020402588           86 
 1518000   0.64388512   -6.8658615    388.24118  0.021313196  0.020386407           78 
 1519000   0.64707905   -6.8629882    387.36858  0.021251294  0.020370256          101 
 1520000   0.64739686   -6.8743025     387.7228  0.021256732  0.020354195           80 
 1521000   0.64257339   -6.8750225    387.65152  0.021238851  0.020338114           37 
 1522000   0.64250792    -6.890366    388.24767  0.021257538  0.020322077           83 
 1523000   0.64341411   -6.8685639    387.91066   0.02122514  0.020306084           41 
 1524000    0.6457637   -6.8766763    388.38504  0.021237152  0.020290057           89 
 1525000   0.64180971   -6.8766819    387.84463  0.021193696  0.020274064           23 
 1526000   0.64407868   -6.8948749    387.60778  0.021166873  0.020258039           76 
 1527000      0.64739   -6.8988729    387.92568   0.02117036  0.020242022           68 
 1528000   0.63156684   -6.9036061    387.25838  0.021120112   0.02022601           60 
 1529000   0.63843235    -6.911409    387.66411  0.021128413  0.020209934          107 
 1530000   0.63514071   -6.9061808    387.67133  0.021114996  0.020193939           70 
 1531000   0.64426991   -6.9028426    386.78876  0.021053165   0.02017795           58 
 1532000   0.65536233   -6.9273307    387.15051  0.021059101  0.020161883           27 
 1533000   0.64203814   -6.9326161    386.69199  0.021020439  0.020145838          101 
 1534000   0.64760279   -6.9235363    386.66514  0.021005277  0.020129796          107 
 1535000   0.65455796   -6.8961151    387.84872  0.021055848  0.020113808           85 
 1536000   0.65196664   -6.9292484    387.30025  0.021012383  0.020097829          129 
 1537000   0.63211392   -6.9068729    387.33023  0.021000338   0.02008183           76 
 1538000   0.64416067    -6.930081     386.1135  0.020920758  0.020065829          115 
 1539000   0.64271689   -6.9578793    386.43625   0.02092464  0.020049817           81 
 1540000   0.64063359    -6.912645    387.00098  0.020941611  0.020033802           66 
 1541000   0.62315623   -6.9420213    387.42289  0.020950838  0.020017816           60 
 1542000   0.63464326   -6.9211448     387.3549  0.020933576  0.020001872           59 
 1543000   0.63136468   -6.9054093    387.74527  0.020941093  0.019985997           91 
 1544000   0.64277929   -6.9311065    387.08148  0.020891704  0.019970112           66 
 1545000   0.62553713   -6.9055463    387.14557  0.020881638  0.019954205          119 
 1546000   0.64130735   -6.9112612    387.59174  0.020892181  0.019938323           88 
 1547000   0.62102099   -6.9236364    387.17331  0.020856136   0.01992243           53 
 1548000   0.62142304   -6.9255158    386.79812  0.020822466  0.019906535           35 
 1549000   0.63961633   -6.9384342    386.85374  0.020812015  0.019890658           65 
 1550000   0.63939685   -6.9350622    387.11847  0.020812821  0.019874884           80 
 1551000   0.64160551   -6.9359762    387.31863  0.020810156  0.019859017           51 
 1552000   0.62189248   -6.9335434    387.62698  0.020813304  0.019843184           64 
 1553000   0.62061052   -6.9102213    386.65508  0.020747751  0.019827339           98 
 1554000   0.63829921   -6.9069586    387.76356  0.020793842   0.01981154          108 
 1555000   0.63616265     -6.92778    387.22739  0.020751736  0.019795763          111 
 1556000   0.63189107   -6.9074176    387.69039  0.020763196  0.019780004           59 
 1557000    0.6412289   -6.9273796    387.95908  0.020764241  0.019764254           36 
 1558000   0.63217466   -6.9188266    387.70993  0.020737587  0.019748529           37 
 1559000   0.63214631   -6.9202604     388.0371  0.020741774  0.019732847           51 
 1560000   0.62391709   -6.9458442    386.96844  0.020671391  0.019717116           32 
 1561000    0.6332842   -6.9484357    386.97636  0.020658572  0.019701331          102 
 1562000   0.60979484   -6.9416577    385.65833  0.020575028  0.019685572           85 
 1563000   0.62398778   -6.9247543    387.90793  0.020681805   0.01966984           58 
 1564000   0.62731869   -6.9512324    387.34855  0.020638776  0.019654165           95 
 1565000   0.63429462   -6.9383159    387.02262  0.020608233   0.01963844          152 
 1566000   0.62283649   -6.9328403    387.08954  0.020598635  0.019622692          111 
 1567000   0.61963067    -6.936024    387.36287  0.020600025  0.019606957          207 
 1568000   0.62583692   -6.9504599    387.15375  0.020575773  0.019591207          172 
 1569000     0.634466   -6.9533986    387.27988  0.020569358  0.019575513          122 
 1570000   0.61566092   -6.9428945    387.12847   0.02054822   0.01955981          177 
 1571000   0.62862088   -6.9602409    386.31973  0.020492241  0.019544146          251 
 1572000   0.62468739   -6.9414886    387.29376  0.020530839  0.019528499          165 
 1573000   0.62789882   -6.9604765    387.08832  0.020506904  0.019512906          146 
 1574000   0.63068752   -6.9497692    386.04525  0.020438651  0.019497279          244 
 1575000    0.6211044   -6.9689093    386.43101  0.020446085  0.019481655          176 
 1576000   0.61968913   -6.9404045    386.79893  0.020452566  0.019466028          132 
 1577000   0.62597614   -6.9517581    388.35965   0.02052207  0.019450451          214 
 1578000   0.61624385    -6.955819    386.26998  0.020398711  0.019434922          162 
 1579000   0.62380181   -6.9724722    386.96268  0.020422349  0.019419379          117 
 1580000   0.61663551   -6.9644642    387.19206  0.020421522  0.019403831          171 
 1581000   0.63212813   -6.9604742    387.04771  0.020400997  0.019388271          112 
 1582000   0.62264598   -6.9503576    388.07625   0.02044228  0.019372734          113 
 1583000   0.62502067   -6.9646414    387.19536  0.020382994  0.019357234           64 
 1584000   0.61768131   -6.9488758    388.09012  0.020417199  0.019341707           71 
 1585000   0.61067329   -6.9592372      386.792  0.020336067   0.01932622           52 
 1586000   0.61663064   -7.0068641    386.65386  0.020315987   0.01931074          159 
 1587000   0.64463551   -6.9584456    387.61053   0.02035342  0.019295234          115 
 1588000   0.61469853   -6.9630551    386.63043   0.02028917  0.019279722          186 
 1589000   0.62650901   -6.9723617    386.44526  0.020266691  0.019264254          160 
 1590000    0.6120328   -6.9523947    387.02644  0.020284404  0.019248843          169 
 1591000   0.62037449    -6.967628    387.21802  0.020281689  0.019233438          120 
 1592000   0.61222674   -6.9765292    386.11157  0.020211033  0.019217994          133 
 1593000   0.62008642   -6.9736068    386.56568  0.020222101  0.019202552           98 
 1594000   0.61635358   -6.9745772    386.93743   0.02022885  0.019187115          245 
 1595000    0.6220707   -6.9930816    387.63793  0.020252765  0.019171723          106 
 1596000   0.62557562   -6.9751004     387.1863  0.020216494  0.019156334           95 
 1597000   0.61080623   -6.9847259    387.65019  0.020228042  0.019140972          262 
 1598000   0.62715981   -6.9872297    387.16921  0.020190301  0.019125604          117 
 1599000   0.59538411   -7.0031338    386.18582  0.020126424  0.019110225          150 
 1600000   0.60857526   -6.9822243    386.82252  0.020147006  0.019094833          371 
 1601000   0.62052235   -6.9957395    387.21339  0.020154767  0.019079472          349 
 1602000   0.61000865   -6.9913558    387.20473  0.020141736  0.019064117          266 
 1603000   0.61309464   -6.9756407    386.53315  0.020094258  0.019048741          173 
 1604000   0.61530175   -7.0143195      386.466  0.020078242  0.019033383          173 
 1605000   0.62890452   -7.0019623    386.38418  0.020061484  0.019018063          327 
 1606000   0.59982307   -6.9806482    386.93463  0.020077554  0.019002782          252 
 1607000   0.61824003   -7.0239115    386.37864  0.020036229  0.018987488          207 
 1608000   0.60995544   -6.9810637    387.27042  0.020069985  0.018972218          287 
 1609000   0.62836161   -6.9960114    386.86535  0.020036532   0.01895699          339 
 1610000   0.62060161   -7.0116156    386.80692  0.020021062  0.018941774          233 
 1611000   0.60434103    -6.989537    386.86259  0.020011514  0.018926571          413 
 1612000   0.60560307   -6.9774332    386.92718  0.020002439  0.018911342          147 
 1613000   0.62414673   -7.0240331    387.04216  0.019995978  0.018896128          142 
 1614000   0.60002357   -6.9957255    386.53573  0.019957442  0.018880878          194 
 1615000   0.60323286   -6.9997912    386.59078  0.019947925  0.018865704          198 
 1616000   0.61101314   -6.9966223    387.08228  0.019960926  0.018850503          281 
 1617000   0.59639024   -6.9941467    386.58283  0.019922842  0.018835334          144 
 1618000   0.59092184   -7.0032129    386.54663  0.019908664  0.018820197          143 
 1619000   0.60093013   -7.0103722    386.84921  0.019911942  0.018805039          182 
 1620000   0.60303737   -7.0045678    386.89096  0.019901798  0.018789912          283 
 1621000   0.60403847   -7.0083739    386.57706  0.019873383  0.018774836          105 
 1622000   0.60468971   -7.0119176    386.73554  0.019869273  0.018759742          155 
 1623000   0.59739569   -6.9998352    387.19365  0.019880553  0.018744678          373 
 1624000    0.5987947   -7.0150932    386.82811  0.019849554  0.018729657          193 
 1625000     0.610658    -7.007634    386.81324  0.019836576  0.018714628          312 
 1626000   0.60846518   -7.0166461    386.59715  0.019813302  0.018699629          313 
 1627000   0.61278754   -7.0151369    387.06352  0.019825011  0.018684604          180 
 1628000   0.60664155     -7.02438    386.82799  0.019800777  0.018669584          205 
 1629000   0.59431585   -7.0229918    386.40199   0.01976683  0.018654566          163 
 1630000   0.60092874   -7.0239466    386.63902  0.019766821  0.018639545          190 
 1631000   0.60136574    -7.028299    386.50753  0.019747984  0.018624497          253 
 1632000   0.61248862   -7.0095532    385.66527  0.019692875  0.018609462          142 
 1633000   0.60009648   -7.0158864    386.82989  0.019740247  0.018594436          348 
 1634000   0.59794986   -7.0065335    384.74459  0.019621817  0.018579417          404 
 1635000   0.60076143    -7.022657    386.62608  0.019705712  0.018564356          189 
 1636000   0.59813049   -7.0262019     386.2602  0.019675031  0.018549348          450 
 1637000   0.58894006   -7.0082471    386.87244  0.019694178  0.018534372          250 
 1638000   0.59602051   -7.0334783    385.87071  0.019631192  0.018519388          434 
 1639000   0.60037641   -7.0275182    385.92334   0.01962189   0.01850441          214 
 1640000   0.59834469    -7.029021    386.01818  0.019614745  0.018489453          195 
 1641000   0.60521044   -7.0105524    385.31288  0.019566975  0.018474508          241 
 1642000   0.60416327   -7.0182584     386.1043  0.019595224  0.018459564          407 
 1643000   0.58636824   -7.0194827    386.56393   0.01960661   0.01844466          231 
 1644000   0.59357122   -7.0435426    385.52181   0.01954186  0.018429721          226 
 1645000   0.59441937   -7.0338696    386.23288  0.019566002    0.0184148          490 
 1646000   0.59737143   -7.0197622    386.53092  0.019569204  0.018399891          422 
 1647000   0.59422288   -7.0314989    384.98947  0.019479329  0.018384991          235 
 1648000    0.6108137   -7.0309097    385.68554  0.019502707  0.018370076          306 
 1649000   0.60122893   -7.0469628    385.65222  0.019489196  0.018355192          397 
 1650000   0.59018352   -7.0356108    385.18201  0.019453637  0.018340337          398 
 1651000   0.59530649   -7.0380979    386.17182  0.019491814  0.018325489          387 
 1652000   0.60404237   -7.0482362     386.7956  0.019511481  0.018310655          217 
 1653000   0.58882453   -7.0552122     386.3596  0.019477697  0.018295816          243 
 1654000   0.58775287   -7.0390809    385.54386  0.019424821  0.018281004          194 
 1655000   0.59193023   -7.0480509    386.27888  0.019450095  0.018266235          399 
 1656000   0.59355123   -7.0391482    385.91735  0.019420157  0.018251445          400 
 1657000   0.58897788   -7.0259031    385.71526  0.019398273  0.018236702          230 
 1658000    0.5956308   -7.0443653    385.23573  0.019362471  0.018221927          259 
 1659000    0.5951595   -7.0445762    386.34149  0.019406344   0.01820719          322 
 1660000   0.58763447   -7.0517301    386.18087   0.01938659  0.018192469          279 
 1661000   0.59502615   -7.0338451    385.69477   0.01935053  0.018177743          385 
 1662000   0.58389281   -7.0573218    385.52766  0.019330508  0.018163084          245 
 1663000   0.57623537   -7.0687636    386.44738  0.019364972   0.01814835          269 
 1664000   0.60609999   -7.0407556    385.69371  0.019315591  0.018133651          226 
 1665000   0.58754782   -7.0409205    386.80902  0.019359811  0.018118956          220 
 1666000   0.58642782    -7.053792    385.64834  0.019290133  0.018104249          451 
 1667000   0.58982819   -7.0620137    385.34519  0.019263407  0.018089584          278 
 1668000   0.58552115   -7.0800509    385.05416  0.019237318  0.018074912          337 
 1669000     0.584357   -7.0642273    386.33292   0.01928964  0.018060247          288 
 1670000   0.58796143   -7.0748362    385.30925  0.019227008   0.01804558          267 
 1671000   0.59142995   -7.0644196    385.97891  0.019248898  0.018030924          488 
 1672000   0.57813949   -7.0723923    385.59209  0.019218106  0.018016264          533 
 1673000   0.58364383   -7.0978485    384.90417  0.019172354  0.018001627          352 
 1674000   0.58699089   -7.0644403    386.04976  0.019217929  0.017986961          302 
 1675000   0.58714812   -7.0913317    385.30969  0.019169636  0.017972346          276 
 1676000   0.59361003   -7.0776104    385.45112  0.019165231  0.017957747          390 
 1677000   0.59254065   -7.0643033    385.42055  0.019152283  0.017943174          467 
 1678000   0.58874955   -7.0746319    385.53753  0.019146679  0.017928584          355 
 1679000   0.57955242   -7.0702381    385.80142  0.019148373  0.017914004          231 
 1680000   0.58081972   -7.0607252     385.7415  0.019134003   0.01789943          602 
 1681000   0.57197052   -7.0786656    384.79301  0.019075601  0.017884896          249 
 1682000   0.58287622   -7.0985965    385.08011  0.019078484  0.017870352          562 
 1683000   0.57869189   -7.0883303    385.77901  0.019101753  0.017855819          271 
 1684000   0.59813792   -7.0786117     384.8033  0.019042127  0.017841318          502 
 1685000    0.5738853   -7.0913202    385.60165  0.019070309  0.017826845          434 
 1686000   0.57626408   -7.0688413    384.92178  0.019025394  0.017812366          498 
 1687000   0.58480062   -7.0726697    385.50512  0.019042932  0.017797913          237 
 1688000   0.57641826   -7.0770997    385.62194  0.019037418  0.017783448          527 
 1689000   0.58143534   -7.0699146    385.31646  0.019011075  0.017769004          454 
 1690000   0.57302485   -7.0680535     385.5064  0.019009191  0.017754565          528 
 1691000   0.57422217   -7.0923241    385.20554  0.018983123  0.017740119          488 
 1692000   0.58602864   -7.1010257    385.63716  0.018993162  0.017725679          575 
 1693000   0.57241239   -7.0947888    385.60454  0.018980338  0.017711248          322 
 1694000   0.57575263   -7.0901606    385.04817  0.018941764  0.017696836          272 
 1695000   0.56651258   -7.0954248    385.20756  0.018938425  0.017682405          639 
 1696000   0.57633132   -7.1188385    385.22535  0.018928132   0.01766797          656 
 1697000    0.5808526   -7.1079606    384.57001  0.018884797    0.0176536          234 
 1698000   0.57135815    -7.082836    385.38979  0.018913908  0.017639256          329 
 1699000     0.577615   -7.0903784    384.76361  0.018872063  0.017624901          534 
 1700000   0.56243124   -7.1014287    384.70818  0.018858244  0.017610541          567 
 1701000   0.57683274   -7.1044158    384.95988  0.018859488  0.017596204          604 
 1702000   0.57555678   -7.1209048    385.20528  0.018860423  0.017581906          616 
 1703000   0.58829262   -7.0948576    384.49812  0.018814745  0.017567601          572 
 1704000   0.57724492   -7.1090561    385.21362  0.018838694    0.0175533          592 
 1705000   0.57896934   -7.0975545    384.89408  0.018812027  0.017539045          204 
 1706000     0.573694   -7.0763339    385.55401  0.018833236   0.01752481          391 
 1707000   0.56790726   -7.1240081    385.68017  0.018828362  0.017510604          367 
 1708000    0.5487002   -7.0962404     384.8446  0.018776571  0.017496398          426 
 1709000   0.57129452   -7.0919443    385.51287   0.01879817   0.01748222          468 
 1710000   0.57805093   -7.0994214     385.4267  0.018782978  0.017468032          287 
 1711000    0.5722932   -7.1027989    385.44017  0.018772656  0.017453874          361 
 1712000   0.58272752   -7.1047647     385.3738   0.01875846    0.0174397          529 
 1713000   0.55534537   -7.1183884    384.85656  0.018722347  0.017425508          499 
 1714000   0.57576694   -7.1060859    384.97275  0.018717073  0.017411313          486 
 1715000   0.56801965   -7.1153733    384.76959  0.018696287  0.017397152          463 
 1716000   0.57238363   -7.1118257    385.14826  0.018703781  0.017382995          562 
 1717000   0.56304026   -7.1166399    384.62019  0.018667258  0.017368842          460 
 1718000   0.57472624   -7.1143045    384.39537  0.018645487  0.017354735          454 
 1719000   0.55682595    -7.137115    385.66813  0.018696341   0.01734062          454 
 1720000   0.56882986   -7.1277216      384.693  0.018638227  0.017326514          330 
 1721000   0.55927248   -7.1205045    384.98252  0.018641416   0.01731245          494 
 1722000   0.56420708   -7.1263537     385.4251  0.018652008  0.017298414          474 
 1723000    0.5654325   -7.1154438    384.52034  0.018597424  0.017284383          249 
 1724000   0.57152094   -7.1249043     384.2883   0.01857542  0.017270359          509 
 1725000    0.5675816   -7.1149784    385.37768  0.018617279  0.017256334          552 
 1726000   0.55496185   -7.1080248    385.16329  0.018596142  0.017242309          287 
 1727000   0.56029629   -7.1282217    384.66227  0.018561198  0.017228275          522 
 1728000   0.56738263   -7.1042978    384.74858  0.018554619  0.017214271          192 
 1729000   0.55529152   -7.1229602    385.24592  0.018567858  0.017200316          495 
 1730000   0.58010466   -7.1044121    384.97124  0.018543894  0.017186341          481 
 1731000   0.56577162   -7.1144318    385.36809  0.018552286  0.017172385          485 
 1732000   0.55677491   -7.1162828    385.35012   0.01854071  0.017158405          591 
 1733000   0.56416592   -7.1345739    385.02666  0.018514458  0.017144457          662 
 1734000   0.56102808   -7.1417221    384.59328  0.018482953  0.017130525          580 
 1735000   0.56419706   -7.1348473    384.67004  0.018475986  0.017116598          559 
 1736000   0.56765198   -7.1461913    384.87059  0.018474971  0.017102667          551 
 1737000   0.55316517   -7.1351087    384.15362  0.018429938  0.017088729          582 
 1738000   0.56519428   -7.1371895    384.52625    0.0184372  0.017074813          522 
 1739000   0.55760453   -7.1448249    384.59777  0.018430025  0.017060872          522 
 1740000   0.54832639   -7.1473905    384.84347    0.0184312   0.01704699          570 
 1741000   0.55490072   -7.1387498    384.38508  0.018398673  0.017033091          500 
 1742000   0.54944717   -7.1358262     383.9548  0.018367528  0.017019197          287 
 1743000   0.55247894    -7.155355     384.6325  0.018389391  0.017005334          580 
 1744000   0.54930833   -7.1562957     383.9025  0.018343965  0.016991462          319 
 1745000   0.55352665    -7.164528    383.50267  0.018314359  0.016977609          309 
 1746000   0.56452129   -7.1640856    383.74536  0.018315453  0.016963761          646 
 1747000   0.55522185   -7.1362239    384.66624  0.018348895  0.016949921          712 
 1748000   0.54624189   -7.1425686    384.16506  0.018314505  0.016936115          278 
 1749000   0.56130546   -7.1467548    384.75682  0.018332229  0.016922323          612 
 1750000   0.54049831   -7.1363513    384.54113  0.018311483   0.01690853          628 
 1751000   0.54650074   -7.1355605    384.92545  0.018319315  0.016894756          660 
 1752000   0.56961103   -7.1541972    384.04874  0.018267159  0.016880992          611 
 1753000   0.54630257    -7.161887    384.49866  0.018278126  0.016867255          659 
 1754000   0.55684584   -7.1413089    383.84609  0.018236702  0.016853518          687 
 1755000   0.54470867    -7.127497     384.2524  0.018245603  0.016839783          739 
 1756000   0.55514115   -7.1409517    384.62752  0.018253014  0.016826055          797 
 1757000   0.56053498   -7.1408088    383.89137  0.018207711  0.016812364          765 
 1758000   0.54491797   -7.1542179    383.66981  0.018186851  0.016798648          750 
 1759000   0.54469614   -7.1619001    384.09553  0.018196681  0.016784944          635 
 1760000   0.55731021   -7.1689041     383.6294  0.018164271  0.016771259          770 
 1761000   0.54665184    -7.157503    383.89584  0.018166564  0.016757585          742 
 1762000    0.5556161   -7.1554531    383.79945  0.018151696  0.016743936          744 
 1763000   0.54249628   -7.1741444     382.7912  0.018093742  0.016730277          639 
 1764000   0.53965083   -7.1619067    383.83988  0.018133025  0.016716636          715 
 1765000   0.53432803   -7.1605264    383.54891  0.018109014  0.016703015          711 
 1766000   0.55697146   -7.1765759    383.56323  0.018099435  0.016689395          841 
 1767000   0.54677313   -7.1549734    384.88251   0.01815141  0.016675772          774 
 1768000   0.55468429   -7.1768628    383.57632  0.018079578  0.016662176          785 
 1769000   0.55508236   -7.1598161    383.59265  0.018070127  0.016648602          778 
 1770000   0.54431148   -7.1575625    382.92891  0.018028668   0.01663501          754 
 1771000   0.54003834   -7.1589098    383.28231  0.018035117  0.016621406          760 
 1772000    0.5482399    -7.167348    383.57936  0.018038909  0.016607841          859 
 1773000   0.55184934   -7.1725745    383.62287   0.01803078   0.01659428          779 
 1774000   0.54923423   -7.1670866    383.83951  0.018030792  0.016580744          758 
 1775000    0.5579814   -7.1756111    384.09157  0.018032468   0.01656721          749 
 1776000   0.54724921   -7.1743746    383.23509  0.017982127  0.016553668          377 
 1777000    0.5518776    -7.160393     383.9362  0.018004886  0.016540156          657 
 1778000   0.54072712   -7.1906228    383.82668  0.017989627  0.016526633          717 
 1779000   0.54480589   -7.1855037     382.8782  0.017935085  0.016513118          744 
 1780000   0.53937237   -7.1698501    383.76047  0.017966314  0.016499644          751 
 1781000   0.53612455   -7.1684834    383.63683  0.017950441   0.01648615          690 
 1782000   0.54745208   -7.1862295    383.52394  0.017935089  0.016472715          802 
 1783000   0.54845496   -7.1649303    383.81648  0.017938703  0.016459278          788 
 1784000   0.54400403   -7.1909475     383.5495  0.017916176  0.016445848          718 
 1785000   0.53390696   -7.1741952    383.13017  0.017886563  0.016432422          760 
 1786000   0.53766868   -7.1794812    383.88658  0.017911841  0.016418999          824 
 1787000   0.54214683   -7.1727955     383.4259  0.017880335  0.016405604          807 
 1788000   0.54414044    -7.190097    382.99795  0.017850389  0.016392225          876 
 1789000   0.53464894    -7.204239    383.41873  0.017860012  0.016378856          880 
 1790000   0.54459904   -7.1661617     382.9238  0.017826992  0.016365491          929 
 1791000   0.53872637    -7.200476    383.23646  0.017831587  0.016352133          843 
 1792000    0.5348186     -7.18192    383.75186  0.017845604  0.016338788          745 
 1793000   0.53400084   -7.1859778    383.48767  0.017823372  0.016325469          918 
 1794000   0.53443553   -7.2016021    382.75092  0.017779214   0.01631215          725 
 1795000   0.55412298   -7.1892046    383.37384  0.017798228  0.016298848          818 
 1796000   0.54673726   -7.1953069    383.08413  0.017774876  0.016285569          834 
 1797000   0.54876311   -7.1850789    384.29358  0.017821071  0.016272303          880 
 1798000   0.53600115   -7.2048872    383.57776  0.017777983  0.016259037          803 
 1799000   0.52834344   -7.1889765    383.72649   0.01777499  0.016245791          783 
 1800000   0.53432626   -7.1865893    383.31865  0.017746234  0.016232556          895 
 1801000   0.54379826    -7.196453    383.31139  0.017736044  0.016219328          794 
 1802000    0.5443873   -7.1808963    382.92353  0.017708265  0.016206109          855 
 1803000   0.52760607   -7.2006736     383.1694  0.017709808    0.0161929          862 
 1804000    0.5254112   -7.2048245    383.32461   0.01770716  0.016179694          882 
 1805000   0.53633862   -7.2195119    382.70667  0.017668821  0.016166487          891 
 1806000   0.51533081   -7.2034561    382.60508   0.01765435  0.016153286          930 
 1807000   0.53021959   -7.1926036    383.06582  0.017665828  0.016140091          877 
 1808000   0.53736561   -7.2006538    383.25924  0.017664972  0.016126907          928 
 1809000   0.54111448   -7.2007342    382.81087  0.017634553  0.016113731          883 
 1810000   0.52386921   -7.2135885    382.58764  0.017614532  0.016100576          864 
 1811000     0.533791   -7.1965195    383.34491  0.017639652  0.016087429          816 
 1812000   0.52616776   -7.2137103    383.38631  0.017631821  0.016074289          894 
 1813000    0.5348159   -7.2153036    382.33503  0.017573774  0.016061173          899 
 1814000   0.52419652   -7.2189282    383.00462  0.017594847  0.016048033          958 
 1815000   0.53533464   -7.2119028    382.73753  0.017572889  0.016034922         1015 
 1816000   0.52826589   -7.2197864     382.9226  0.017571705  0.016021823          856 
 1817000   0.53275602    -7.220303    382.76629  0.017554865  0.016008745          957 
 1818000   0.54303617   -7.2328977    382.84031  0.017548602  0.015995668          891 
 1819000   0.53469519   -7.2330231    382.57321  0.017526718  0.015982605          945 
 1820000   0.52121469   -7.2248686    382.35133  0.017506929  0.015969561          893 
 1821000   0.51852911   -7.2277366    383.50006  0.017549884  0.015956546          814 
 1822000   0.52260667   -7.2248989     382.4748  0.017493359  0.015943519          869 
 1823000   0.51599684   -7.2232072    382.56476  0.017487875    0.0159305          939 
 1824000   0.52220419   -7.2118537     382.8482  0.017491237  0.015917485          868 
 1825000    0.5299678   -7.2157838    382.34892  0.017458855  0.015904494          853 
 1826000   0.52463851   -7.2259237    382.65866  0.017463429  0.015891505          949 
 1827000    0.5288081   -7.2194619    382.71472  0.017456428  0.015878522         1026 
 1828000   0.52301774   -7.2268238    382.12779  0.017420122  0.015865542         1011 
 1829000   0.52454843   -7.1992941    382.22058  0.017414825   0.01585259          932 
 1830000   0.52263218   -7.2294295    382.38145  0.017412634  0.015839637         1008 
 1831000   0.51974262   -7.2352567    382.03315  0.017387272  0.015826696          909 
 1832000   0.51933186   -7.2203407    382.14919   0.01738306  0.015813773          898 
 1833000   0.51691788   -7.2336982    382.66382  0.017396973  0.015800864          985 
 1834000     0.521759   -7.2366903    381.93262  0.017354263  0.015787961          996 
 1835000   0.51783998   -7.2282157    382.03533   0.01734947  0.015775075          936 
 1836000   0.52392716   -7.2231632    381.87159  0.017332588  0.015762199          933 
 1837000   0.53157544   -7.2229405    382.85842   0.01736792  0.015749336          991 
 1838000   0.52760609   -7.2378727    382.54007  0.017344037  0.015736471         1031 
 1839000   0.51882432   -7.2357664    381.56102   0.01729024  0.015723604         1018 
 1840000    0.5119268   -7.2216598    382.39773  0.017318738  0.015710747          952 
 1841000   0.52653629   -7.2551893    382.07176  0.017294575  0.015697912          931 
 1842000    0.5125292   -7.2476087    382.05152   0.01728427  0.015685075          976 
 1843000   0.51774554   -7.2510477    382.29574  0.017285935  0.015672276         1035 
 1844000   0.52201848   -7.2418282    382.13163  0.017269145  0.015659463          985 
 1845000   0.51405139   -7.2398428    382.25914  0.017265544  0.015646688         1000 
 1846000   0.51637337   -7.2353404    382.68755   0.01727553  0.015633934          926 
 1847000   0.51972092   -7.2410582    382.45189  0.017255545  0.015621183          971 
 1848000   0.50405399   -7.2604416    381.61257  0.017208359  0.015608435         1048 
 1849000   0.51251801   -7.2281703    381.85486  0.017209972  0.015595707          976 
 1850000    0.5139981   -7.2484529    381.86779  0.017201252  0.015582985          990 
 1851000   0.52425909   -7.2374807    382.36346  0.017214274  0.015570271          936 
 1852000   0.51302898   -7.2367277    382.45025  0.017208884  0.015557563         1020 
 1853000   0.51342127   -7.2381564    382.71941  0.017211702  0.015544881         1013 
 1854000   0.50462634   -7.2535645    382.70981  0.017201987  0.015532201         1005 
 1855000   0.50051091   -7.2552805    381.16432  0.017123285  0.015519525         1044 
 1856000   0.50872528   -7.2347925    382.23732  0.017162236  0.015506866          957 
 1857000   0.51445461   -7.2440904    382.32324   0.01715685   0.01549423         1013 
 1858000   0.51418557   -7.2478608    382.18707  0.017141508  0.015481588          983 
 1859000   0.51817871   -7.2525933    382.45752  0.017144411  0.015468971         1019 
 1860000   0.51452856   -7.2472238    381.89106  0.017109814  0.015456348         1044 
 1861000   0.50022702   -7.2688337    381.23657  0.017071313  0.015443747         1102 
 1862000   0.50704017   -7.2402524    381.80202  0.017087452  0.015431154         1020 
 1863000   0.49720884   -7.2473207    381.99849  0.017087068  0.015418587         1100 
 1864000   0.51103873   -7.2559496    382.04595  0.017080023   0.01540604         1054 
 1865000   0.49729494    -7.232089    381.63282  0.017052405  0.015393481         1099 
 1866000   0.50879198   -7.2437789    381.59501  0.017041578  0.015380959         1014 
 1867000    0.5014117   -7.2555717    382.03647  0.017052154  0.015368447         1074 
 1868000   0.51171291   -7.2579878    381.90622  0.017037215  0.015355943         1099 
 1869000   0.50626603     -7.25365    381.64395  0.017016406  0.015343436         1039 
 1870000   0.50393051   -7.2488664    382.19349  0.017031796  0.015330953         1085 
 1871000   0.49781083   -7.2432817     381.6131  0.016996842  0.015318466         1045 
 1872000   0.50418417   -7.2472026    381.96685   0.01700351  0.015305993         1162 
 1873000   0.51978966   -7.2551412    381.96577  0.016994384   0.01529354         1125 
 1874000   0.49088922   -7.2468618    381.30955  0.016956134  0.015281091         1098 
 1875000   0.49553137   -7.2718701    381.04559   0.01693536  0.015268647         1115 
 1876000   0.50613141   -7.2552552    382.26904  0.016980679  0.015256227         1158 
 1877000   0.50216101   -7.2727118     381.6737  0.016945201  0.015243829         1121 
 1878000   0.51636993     -7.25096    382.02934  0.016951958   0.01523143         1132 
 1879000    0.5057071    -7.273881     381.1201  0.016902612  0.015219022         1080 
 1880000   0.49663707   -7.2688226     381.5619  0.016913205  0.015206642         1164 
 1881000   0.51055393   -7.2512424    382.23785  0.016934159  0.015194265         1061 
 1882000   0.50837019    -7.274506    381.05163  0.016872637    0.0151819         1160 
 1883000   0.50199987   -7.2694989    381.53902  0.016885246  0.015169554         1100 
 1884000   0.50079462   -7.2621126    381.44819  0.016872266  0.015157217         1164 
 1885000    0.5058245   -7.2603069    382.09634  0.016891969  0.015144892         1128 
 1886000   0.49626157   -7.2717154    381.82017   0.01687081  0.015132572         1212 
 1887000   0.49772086   -7.2662916    380.91557   0.01682192  0.015120259         1219 
 1888000   0.48990344   -7.2836687    381.26983  0.016828647  0.015107962         1243 
 1889000   0.49572544   -7.2834212    381.27863  0.016820127   0.01509566         1227 
 1890000   0.49256082   -7.2712507    381.54424  0.016822938  0.015083363         1191 
 1891000   0.49571706   -7.2684801    381.53054  0.016813438  0.015071089         1107 
 1892000   0.50185595   -7.2712225    381.73802   0.01681369  0.015058836         1232 
 1893000   0.50005749   -7.2798263    381.14146  0.016778547  0.015046581         1201 
 1894000   0.49511987   -7.2695714    380.90336  0.016759211  0.015034336         1261 
 1895000   0.49350389   -7.2832575    381.38053  0.016771352  0.015022112         1261 
 1896000   0.48865934   -7.2760728    381.72501  0.016777646   0.01500989         1173 
 1897000   0.49884984   -7.2787909    381.40129  0.016754581  0.014997685         1120 
 1898000   0.49482176   -7.2640663    381.17385  0.016735768  0.014985489         1144 
 1899000   0.49100123   -7.2733672    381.38439  0.016736194  0.014973311         1177 
 1900000   0.49229702    -7.282499    381.41743  0.016728835  0.014961135         1240 
 1901000   0.49605598    -7.267548    381.41794  0.016720057  0.014948969         1143 
 1902000   0.49079308   -7.2687346    380.85968  0.016686807  0.014936822         1258 
 1903000   0.48957891   -7.2876287    380.53524  0.016663831  0.014924683         1320 
 1904000    0.4809476   -7.2667826    381.09486  0.016679572  0.014912559         1229 
 1905000   0.48997874   -7.2840876    381.48926  0.016688069  0.014900442         1306 
 1906000   0.49131239   -7.2889312    381.61936  0.016685002  0.014888331         1232 
 1907000    0.4946313   -7.2838345    380.96573   0.01664769  0.014876234         1218 
 1908000   0.48995873   -7.2901154    380.93968  0.016637827  0.014864151         1231 
 1909000   0.48879975   -7.2835172    380.68682  0.016618073  0.014852071         1310 
 1910000   0.49253154   -7.2904422    381.09932   0.01662737  0.014840012         1300 
 1911000   0.47958797    -7.280394    381.55887  0.016638709  0.014827952         1257 
 1912000   0.49544735    -7.283216    381.68594  0.016635545  0.014815932         1276 
 1913000   0.48046223   -7.2915061    381.56305  0.016621495  0.014803906         1246 
 1914000   0.48660407   -7.2972238    380.92428     0.016585  0.014791885         1279 
 1915000   0.48806843   -7.2851816    380.45968  0.016556122  0.014779879         1206 
 1916000   0.48688093   -7.2872312    381.00145  0.016571044  0.014767884         1176 
 1917000   0.49397354   -7.3055024    381.16721  0.016569606  0.014755898         1245 
 1918000    0.4968119   -7.2732757    381.16119  0.016560705  0.014743924         1190 
 1919000   0.48721611   -7.2813827    380.93988  0.016542465   0.01473197         1281 
 1920000   0.47650229   -7.2866282    381.05121  0.016538681  0.014720015         1247 
 1921000   0.48423775   -7.2932061    380.89855  0.016523449  0.014708074         1256 
 1922000   0.49250465   -7.2986359    380.65651  0.016504358  0.014696137         1273 
 1923000   0.47488449   -7.2967703    380.82768  0.016503193   0.01468422         1251 
 1924000   0.47054822   -7.2944575    380.98098  0.016501255  0.014672314         1247 
 1925000   0.48425521   -7.3110812    380.25105  0.016461084  0.014660409         1138 
 1926000   0.47966333    -7.300423    381.01771  0.016485709  0.014648528         1223 
 1927000    0.4947788   -7.2908395    380.44978  0.016452594  0.014636652         1268 
 1928000    0.4820308   -7.2911733    380.82075  0.016460095  0.014624786         1191 
 1929000   0.48527808   -7.2995425    380.48134  0.016436899  0.014612925         1290 
 1930000   0.47635573   -7.3025279    380.25071  0.016418424  0.014601069         1323 
 1931000   0.48027692   -7.2999435    380.45732  0.016418838  0.014589237         1214 
 1932000   0.48129396   -7.2989106    380.87304  0.016428271  0.014577407         1253 
 1933000   0.49345029   -7.3161476    380.66242  0.016410693  0.014565594         1220 
 1934000   0.48079811   -7.2814674    380.45261  0.016393166  0.014553792         1254 
 1935000   0.47421306   -7.3095003    380.52235  0.016387698  0.014541996         1193 
 1936000   0.47558896    -7.315058    380.04792  0.016358812  0.014530199         1198 
 1937000   0.48024957   -7.3002659    380.17251  0.016355726  0.014518425         1189 
 1938000   0.47580969   -7.2966518    380.75575  0.016372366  0.014506681         1181 
 1939000   0.48423191   -7.3167826    380.52997  0.016354219  0.014494947         1287 
 1940000   0.47551446   -7.3103176    380.46924  0.016343181  0.014483201         1197 
 1941000   0.46470223   -7.3083097    380.39274  0.016331476  0.014471472         1354 
 1942000   0.47680733   -7.3162034    381.03449  0.016350605   0.01445975         1393 
 1943000   0.47129019    -7.316323    381.11114  0.016345477  0.014448045         1304 
 1944000   0.47444985   -7.2996414      379.948  0.016287209  0.014436361         1364 
 1945000   0.46881003   -7.3112024    380.62409  0.016307802  0.014424678         1304 
 1946000   0.48211696    -7.314981    379.96071  0.016271013  0.014413004         1345 
 1947000   0.46834136   -7.3076597    380.52649  0.016286872  0.014401339         1313 
 1948000   0.47142864   -7.3268862    380.54482  0.016279296   0.01438969         1411 
 1949000   0.46760459   -7.3242997    379.52625  0.016227392  0.014378046         1409 
 1950000   0.48301894   -7.3073966    380.35475  0.016254477  0.014366415         1318 
 1951000   0.46592811   -7.3281885    380.99796  0.016273619   0.01435478         1398 
 1952000    0.4859127   -7.3046166    380.57008  0.016247015  0.014343172         1288 
 1953000   0.46963364   -7.3114271    380.65288  0.016242229  0.014331565         1322 
 1954000   0.47944027   -7.3076391    380.59049  0.016231256  0.014319993         1358 
 1955000   0.47632589    -7.312788    379.79541  0.016189063  0.014308417         1277 
 1956000    0.4674633   -7.3306913    379.94501   0.01618716  0.014296857         1236 
 1957000    0.4738469   -7.3261219    380.70791  0.016211374  0.014285305         1197 
 1958000   0.47078742   -7.3105588    380.15337  0.016179493   0.01427376         1265 
 1959000   0.47846206   -7.3317992    380.51398  0.016186574  0.014262236         1310 
 1960000   0.46589265   -7.3183784    380.07273  0.016159555  0.014250705         1353 
 1961000   0.47815566   -7.3200317    380.16861  0.016155389  0.014239187         1352 
 1962000   0.47075189   -7.3122632    379.88639  0.016135168   0.01422769         1335 
 1963000   0.48222548   -7.3303273    380.06337  0.016134461  0.014216205         1297 
 1964000   0.46302651   -7.3326311    380.74654  0.016155233   0.01420472         1372 
 1965000   0.46023277   -7.3352902    379.93443  0.016112571  0.014193259         1316 
 1966000   0.46473331   -7.3294467     379.9699  0.016105879  0.014181813         1342 
 1967000   0.47978433   -7.3276449    380.21346   0.01610801  0.014170371         1403 
 1968000   0.45537348   -7.3296337    379.77895  0.016081426  0.014158937         1354 
 1969000   0.47235235   -7.3380769    380.24161  0.016092839  0.014147519         1331 
 1970000    0.4634545   -7.3311995    379.64499  0.016059433  0.014136107         1400 
 1971000   0.48005703   -7.3251876    380.41439  0.016083815  0.014124704         1391 
 1972000   0.46790951   -7.3109406      380.984   0.01609973  0.014113322         1409 
 1973000   0.45991341    -7.329707    379.91787   0.01604654  0.014101953         1361 
 1974000    0.4705504   -7.3354259    379.95067  0.016039795   0.01409059         1288 
 1975000    0.4637979   -7.3328148    380.35933  0.016048917  0.014079236         1341 
 1976000   0.46771401   -7.3402912    379.72218  0.016013925  0.014067892         1367 
 1977000   0.46421417   -7.3221183    379.92909  0.016014546  0.014056553         1364 
 1978000   0.46794479   -7.3454296    380.19212  0.016017531  0.014045225         1359 
 1979000   0.46213192   -7.3406834    379.95451  0.015999432  0.014033916         1273 
 1980000   0.46065607   -7.3233763     379.5696  0.015975151  0.014022612         1335 
 1981000   0.46658144   -7.3438769    379.61549  0.015969018  0.014011313         1333 
 1982000   0.46150993   -7.3338642    380.16205  0.015983941  0.014000031         1343 
 1983000   0.46228516   -7.3505857    380.33228  0.015983034  0.013988777         1278 
 1984000   0.46058328   -7.3402973    380.72111   0.01599131  0.013977521         1322 
 1985000   0.46783866   -7.3408714    380.52477  0.015975011  0.013966285         1377 
 1986000   0.45894282   -7.3417908    379.60242  0.015928265  0.013955052         1359 
 1987000    0.4434364   -7.3234995    379.23447  0.015904817  0.013943837         1364 
 1988000   0.45381147   -7.3393166     379.8746   0.01592365  0.013932635         1348 
 1989000   0.46513998   -7.3368564    379.29297  0.015891276  0.013921448         1321 
 1990000   0.45979693   -7.3415163    380.41274  0.015930182  0.013910256         1387 
 1991000   0.45466593   -7.3290275    379.99052  0.015904509  0.013899085         1278 
 1992000   0.45390444   -7.3435213    379.78123  0.015887769  0.013887928         1364 
 1993000   0.47569161   -7.3453145    379.42987  0.015865106  0.013876779         1326 
 1994000   0.45996877    -7.340903    379.50673  0.015860361  0.013865634         1386 
 1995000   0.46370597   -7.3310274    379.85162  0.015866818  0.013854505         1302 
 1996000   0.46329418   -7.3431541    379.97616  0.015864068  0.013843394         1315 
 1997000   0.46171589   -7.3475315    380.04089  0.015858825  0.013832303         1417 
 1998000   0.46780418   -7.3527833     379.5726  0.015831356  0.013821202         1279 
 1999000   0.45039157    -7.355784    379.69024  0.015828341  0.013810112         1347 
 2000000   0.45335635   -7.3526541    379.80884  0.015825368  0.013799038         1424 
 2001000   0.46245743   -7.3400185    379.71797  0.015813675  0.013787966         1245 
 2002000   0.45442193   -7.3458682    379.10351    0.0157802    0.0137769         1346 
 2003000   0.45390564   -7.3457858    379.68221  0.015796398  0.013765853         1404 
 2004000   0.45724139   -7.3399248    380.04677  0.015803675  0.013754812         1393 
 2005000   0.45948413   -7.3504051    379.42875  0.015770106  0.013743796         1322 
 2006000   0.44135579   -7.3393848    378.93603  0.015741776  0.013732784         1366 
 2007000   0.44722777   -7.3420849    379.89569  0.015773779  0.013721786         1409 
 2008000    0.4589842   -7.3449177    379.98291  0.015769543  0.013710798         1476 
 2009000   0.46259007   -7.3575582    379.36178  0.015735929  0.013699811         1372 
 2010000   0.45252852   -7.3639098    379.59044  0.015737581  0.013688839         1389 
 2011000   0.44244373   -7.3345865    379.23703   0.01571511  0.013677874         1383 
 2012000   0.44343357   -7.3400244    379.31209  0.015710408  0.013666918         1445 
Loop time of 5199.17 on 48 procs for 2000000 steps with 4000 atoms

Performance: 66472.190 tau/day, 384.677 timesteps/s
99.4% CPU use with 48 MPI tasks x no OpenMP threads

MPI task timing breakdown:
Section |  min time  |  avg time  |  max time  |%varavg| %total
---------------------------------------------------------------
Pair    | 394.5      | 417.83     | 444.62     |  70.9 |  8.04
Neigh   | 35.995     | 37.449     | 39.091     |  12.4 |  0.72
Comm    | 332.21     | 365.52     | 398.31     |  78.6 |  7.03
Output  | 4.8394     | 4.8412     | 4.8894     |   0.3 |  0.09
Modify  | 4308.5     | 4325.2     | 4340.7     |  10.9 | 83.19
Other   |            | 48.35      |            |       |  0.93

Nlocal:        83.3333 ave          90 max          77 min
Histogram: 2 1 6 6 8 9 12 2 0 2
Nghost:        2413.65 ave        2429 max        2395 min
Histogram: 2 2 2 7 5 9 9 4 5 3
Neighs:        16758.3 ave       19886 max       14225 min
Histogram: 4 4 5 10 3 9 5 4 3 1
FullNghs:      33516.5 ave       36281 max       30580 min
Histogram: 1 1 8 1 8 13 12 2 0 2

Total # of neighbors = 1608790
Ave neighs/atom = 402.19750
Neighbor list builds = 107000
Dangerous builds = 0

#clear
#
#next RN
#
#jump SELF
Total wall time: 1:26:42
