
units lj                  # Use reduced LJ style units
atom_style atomic         # Uncharged point particles
atom_modify map hash      # Needed for indexing of clusters etc
                          # Used to be able to find where atoms are in relation to each other.

lattice fcc 1.0 spacing 1 1 1
Lattice spacing in x,y,z = 1.5874011 1.5874011 1.5874011
region box block 0 10 0 10 0 10 units lattice
create_box 2 box
Created orthogonal box = (0.0000000 0.0000000 0.0000000) to (15.874011 15.874011 15.874011)
  3 by 4 by 4 MPI processor grid
create_atoms 1 box
Created 4000 atoms
  using lattice units in orthogonal box = (0.0000000 0.0000000 0.0000000) to (15.874011 15.874011 15.874011)
  create_atoms CPU = 0.003 seconds
set type 1 type/fraction 2 0.95 78393
Setting atom values ...
  3802 settings made for type/fraction
mass 1 1.0
mass 2 1.0
pair_style lj/cut  3.5
pair_modify tail  yes
pair_coeff 1  1  1.0  1.0   # Intearaction between 1 and 1 set with epsilon = 1 and sigma = 1
pair_coeff 1  2  1.5  0.8
pair_coeff 2  2  0.5  0.88

write_data data.0
System init for write_data ...
Neighbor list info ...
  update every 1 steps, delay 10 steps, check yes
  max neighbors/atom: 2000, page size: 100000
  master list distance cutoff = 3.8
  ghost atom cutoff = 3.8
  binsize = 1.9, bins = 9 9 9
  1 neighbor lists, perpetual/occasional/extra = 1 0 0
  (1) pair lj/cut, perpetual
      attributes: half, newton on
      pair build: half/bin/atomonly/newton
      stencil: half/bin/3d
      bin: standard
WARNING: Not all mixed pair coeffs generated from mixing. Use write_data with 'pair ij' option to store all pair coeffs. (../write_data.cpp:312)


#############################
#   M E L T   S Y S T E M   #
#############################

velocity all create 2.4 1741580 mom yes dist gaussian # Assign velocities
                                                    # Temperature 2.4, random number seed, zero linear momentum
                                                                                # Gaussian distribution

timestep 0.002   # simulation timestep
thermo 1000       # output thermodynamic data every 1000 steps bf 100

# Define a fix  in this case with index 1 applied to all
# particles in the simulation. This fix is for simulations
# in the anisotropic NPT ensemble. Note that we use the MTK
# correction.
fix 1 all npt temp 2.4 2.4 0.1 iso 5.68 5.68 0.5 mtk yes tchain 5 pchain 5 # Use NPT ensemble
                                                                         # Set temperature and pressure and damping
                                                                         # Numbers of thermostats in chain and in barostat
run 10000          # run for 10000 steps
Per MPI rank memory allocation (min/avg/max) = 3.642 | 3.644 | 3.648 Mbytes
Step Temp E_pair E_mol TotEng Press Volume 
       0          2.4   -2.9371918            0   0.66190816   -2.1469233         4000 
    1000    2.4092193   -1.7872284            0    1.8256971    5.7843108     4149.773 
    2000    2.3715543   -1.8064437            0    1.7499983    5.7324134    4126.0805 
    3000    2.3276645   -1.8081604            0    1.6824635    5.5895344     4147.828 
    4000    2.3577773   -1.7982183            0    1.7375635    5.5121714    4170.9262 
    5000    2.3544916   -1.7734559            0    1.7573986    5.7503824    4149.8794 
    6000     2.420957   -1.7990141            0    1.8315135    5.7176198    4157.0811 
    7000    2.3745571   -1.8213153            0    1.7396299    5.5754477    4141.2978 
    8000    2.3711524   -1.8269733            0    1.7288661     5.479287    4156.8302 
    9000    2.4055242   -1.8583503            0     1.749034    5.5919782    4110.9597 
   10000    2.3813209   -1.7995462            0    1.7715422    5.4724485    4184.7029 
Loop time of 2.3592 on 48 procs for 10000 steps with 4000 atoms

Performance: 732450.509 tau/day, 4238.718 timesteps/s
99.7% CPU use with 48 MPI tasks x no OpenMP threads

MPI task timing breakdown:
Section |  min time  |  avg time  |  max time  |%varavg| %total
---------------------------------------------------------------
Pair    | 1.0451     | 1.1057     | 1.1525     |   1.8 | 46.87
Neigh   | 0.20349    | 0.21231    | 0.2241     |   0.7 |  9.00
Comm    | 0.74073    | 0.79866    | 0.87442    |   2.6 | 33.85
Output  | 0.00024275 | 0.00024703 | 0.00030607 |   0.0 |  0.01
Modify  | 0.20979    | 0.22773    | 0.2462     |   2.1 |  9.65
Other   |            | 0.01456    |            |       |  0.62

Nlocal:        83.3333 ave          92 max          73 min
Histogram: 1 1 1 6 10 10 11 5 2 1
Nghost:        1599.90 ave        1629 max        1571 min
Histogram: 1 2 5 7 9 10 8 4 0 2
Neighs:        9132.04 ave       10397 max        7660 min
Histogram: 1 0 4 7 8 8 13 2 4 1

Total # of neighbors = 438338
Ave neighs/atom = 109.58450
Neighbor list builds = 914
Dangerous builds = 242

# Equilibrate just above the melting temperature to avoid step fn in T

fix 1 all npt temp 1.25 1.25 0.1 iso 5.68 5.68 0.5 mtk yes tchain 5 pchain 5
run 2000
Per MPI rank memory allocation (min/avg/max) = 3.643 | 3.645 | 3.649 Mbytes
Step Temp E_pair E_mol TotEng Press Volume 
   10000    2.3813209   -1.7995462            0    1.7715422    5.4724485    4184.7029 
   11000    1.2610578   -2.7495153            0  -0.85840149    5.7087354    3218.3151 
   12000    1.2286021   -2.7570646            0  -0.91462213    5.6699527     3215.014 
Loop time of 0.583928 on 48 procs for 2000 steps with 4000 atoms

Performance: 591854.217 tau/day, 3425.082 timesteps/s
99.7% CPU use with 48 MPI tasks x no OpenMP threads

MPI task timing breakdown:
Section |  min time  |  avg time  |  max time  |%varavg| %total
---------------------------------------------------------------
Pair    | 0.25728    | 0.27711    | 0.31467    |   2.0 | 47.46
Neigh   | 0.038787   | 0.040555   | 0.047136   |   0.6 |  6.95
Comm    | 0.17725    | 0.21824    | 0.23885    |   2.4 | 37.37
Output  | 5.1764e-05 | 5.3389e-05 | 6.7196e-05 |   0.0 |  0.01
Modify  | 0.039749   | 0.04341    | 0.048364   |   1.0 |  7.43
Other   |            | 0.004554   |            |       |  0.78

Nlocal:        83.3333 ave          90 max          76 min
Histogram: 1 1 6 8 6 10 0 13 0 3
Nghost:        1893.44 ave        1936 max        1863 min
Histogram: 5 9 3 7 5 5 8 3 1 2
Neighs:        11883.2 ave       13260 max       10684 min
Histogram: 1 7 5 8 6 8 4 5 2 2

Total # of neighbors = 570392
Ave neighs/atom = 142.59800
Neighbor list builds = 144
Dangerous builds = 15

#############################
# L I N E A R  Q U E N C H  #
#############################

# Define solid atoms. This closely follows ten Wolde  Ruiz-Montero and Frenkel  Faraday Discuss  1996  104  93-110
# Compute components of the per-atom q6 vector
compute q6 all orientorder/atom degrees 1 6 components 6 nnn NULL cutoff 1.3 # compute the Q6 parameter.
                                                                             # Use all neighbours within 1.3 unit cell.

# get number of connections
compute coord_number all coord/atom orientorder q6 0.5

# An atom is solid if it has 8 or more connections (of a possible 14)
variable is_solid atom c_coord_number>=8
group solid dynamic all var is_solid    # Must be dynamic to update
dynamic group solid defined

# do clustering
compute cluster solid cluster/atom 1.3 # Create a cluster where all atoms within are solid and max 1.3 units from another member

# define chunks one chunk per cluster
compute clus_chunks solid chunk/atom c_cluster nchunk every compress yes  # Says which atoms are in which chunk

# count the size of each chunk
compute size_chunks solid property/chunk clus_chunks count


# Find the maximum entry in the vector of chunk sizes
variable max_n equal max(c_size_chunks)


# Thermo style which includes this variable
# thermo_style custom step temp pe vol v_max_n

thermo ${N}  # Print the thermo information every 100 steps
thermo 1000  

# Reset the npt fix at a lower temperature (below freezing)
fix 1  all npt temp  ${temp} ${temp}  0.1  iso  5.68  5.68  0.5  mtk yes tchain  5  pchain  5
fix 1  all npt temp  0.45 ${temp}  0.1  iso  5.68  5.68  0.5  mtk yes tchain  5  pchain  5
fix 1  all npt temp  0.45 0.45  0.1  iso  5.68  5.68  0.5  mtk yes tchain  5  pchain  5

dump dmp2 all dcd ${N} traj.dcd
dump dmp2 all dcd 1000 traj.dcd


compute msd all msd com yes
variable twopoint equal c_msd[4]/6/(step*dt+1.0e-6)
fix 9 all vector 10 c_msd[4]
variable fit equal slope(f_9)/6/(10*dt)
thermo_style custom step temp pe c_msd[4] v_twopoint v_fit v_max_n

fix 1 all npt temp 1.25 ${temp} 0.1 iso 5.68 5.68 0.5 mtk yes tchain 5 pchain 5
fix 1 all npt temp 1.25 0.45 0.1 iso 5.68 5.68 0.5 mtk yes tchain 5 pchain 5
run 500000 # 5000000  # Run for this many steps
Neighbor list info ...
  update every 1 steps, delay 10 steps, check yes
  max neighbors/atom: 2000, page size: 100000
  master list distance cutoff = 3.8
  ghost atom cutoff = 3.8
  binsize = 1.9, bins = 8 8 8
  4 neighbor lists, perpetual/occasional/extra = 1 3 0
  (1) pair lj/cut, perpetual
      attributes: half, newton on
      pair build: half/bin/atomonly/newton
      stencil: half/bin/3d
      bin: standard
  (2) compute orientorder/atom, occasional
      attributes: full, newton on
      pair build: full/bin/atomonly
      stencil: full/bin/3d
      bin: standard
  (3) compute coord/atom, occasional
      attributes: full, newton on
      pair build: full/bin/atomonly
      stencil: full/bin/3d
      bin: standard
  (4) compute cluster/atom, occasional
      attributes: full, newton on
      pair build: full/bin/atomonly
      stencil: full/bin/3d
      bin: standard
Per MPI rank memory allocation (min/avg/max) = 9.813 | 9.820 | 9.827 Mbytes
Step Temp PotEng c_msd[4] v_twopoint v_fit v_max_n 
   12000    1.2286021   -2.7570646 1.4621537e-30 1.0153845e-32 8.3333333e+20            1 
   13000    1.2520337   -2.7501615    1.1114698 0.0071248064  0.094878792            1 
   14000    1.2468482   -2.7590999    2.2909371   0.01363653  0.097196078            1 
   15000     1.244603   -2.7690669    3.5063697  0.019479831  0.098073441            2 
   16000     1.244937   -2.7626127    4.7190131  0.024578193  0.099243842            3 
   17000    1.2376715    -2.747833    5.9261195  0.029049604   0.10020974            1 
   18000    1.2339275   -2.7678605    7.1648996   0.03317083   0.10041723            1 
   19000    1.2467526     -2.75442    8.2763422  0.036299745   0.10033403            1 
   20000    1.2450806    -2.770798    9.5917871  0.039965778   0.10047629            1 
   21000      1.24996   -2.7653936    10.815628  0.042919157   0.10093664            2 
   22000    1.2360392   -2.7922454    11.971364  0.045346075   0.10092589            2 
   23000      1.19557   -2.7686898    13.053321   0.04729464   0.10076951            4 
   24000    1.2239246   -2.7609396    14.395351  0.049983858   0.10053765            3 
   25000    1.2250518   -2.7352101    15.867296  0.052890985   0.10096204            1 
   26000    1.2276345   -2.7703236    16.979432  0.054421255   0.10126309            2 
   27000    1.2199275   -2.7598631    18.000687  0.055557675   0.10123423            2 
   28000    1.2272377    -2.772387    19.275718  0.057368209   0.10119449            2 
   29000    1.2286648   -2.7601602    20.650692  0.059341068   0.10133052            1 
   30000    1.2084858   -2.8122092     21.93618  0.060933831   0.10164455            3 
   31000    1.2125141   -2.7701644    23.183562  0.062321403   0.10198905            2 
   32000    1.2238395   -2.7886038    24.308996  0.063304676    0.1019954            2 
   33000    1.2237697   -2.7998106    25.333959  0.063974643   0.10187425            3 
   34000    1.2223964   -2.7893364    26.285683  0.064425692   0.10155384            3 
   35000    1.2065231   -2.8011919    27.278386  0.064948537   0.10117841            2 
   36000    1.2381768   -2.8038088    28.450146  0.065856819   0.10075539            2 
   37000    1.2229742   -2.8000484    29.445958  0.066319723   0.10033995            5 
   38000    1.2116845   -2.7592337    30.693538  0.067310389  0.099889462            4 
   39000    1.1901186   -2.8340544     31.48483  0.067275278  0.099425502            1 
   40000    1.2062603   -2.8012214    32.637542  0.067994878  0.098987184            1 
   41000    1.2217329   -2.8194138    33.826886  0.068753833  0.098630366            1 
   42000    1.2196684   -2.8157123    34.953231  0.069351649  0.098227841            4 
   43000    1.2166565   -2.7911373    36.122218  0.070004299   0.09782835            3 
   44000    1.1612965    -2.824028    37.051513   0.07017332  0.097469163            1 
   45000    1.2084893    -2.797765    38.131043  0.070613043  0.097153416            2 
   46000    1.1817431   -2.8244377    39.410929  0.071396611  0.096851503            4 
   47000    1.2127273   -2.8173397    40.426822  0.071678761  0.096593411            1 
   48000    1.1973329   -2.8555406     41.91474  0.072768645  0.096423718            1 
   49000    1.2067752   -2.7991511    42.986122  0.073105649  0.096361871            2 
   50000    1.1739391   -2.7884697    44.337123  0.073895204  0.096297902            2 
   51000    1.1833689   -2.8064299    45.262615   0.07395852  0.096242337            1 
   52000     1.186592   -2.8234711     46.63859  0.074741329   0.09619602            1 
   53000    1.1824101   -2.8062423    47.912534  0.075334172  0.096193798            3 
   54000    1.1682488    -2.803993    48.616652  0.075025696  0.096147396            1 
   55000     1.186332   -2.8280016    49.942287  0.075670131  0.096135062            1 
   56000    1.1700392   -2.8370511    50.963551  0.075838616  0.096063605            1 
   57000    1.1718537   -2.8435153    51.928962  0.075919534  0.095963911            3 
   58000    1.1738813   -2.8512146    52.839581  0.075918937   0.09583621            2 
   59000      1.13538   -2.8314884     53.70422  0.075853417  0.095657986            2 
   60000    1.1710778   -2.8584201    54.880909  0.076223484  0.095486496            2 
   61000    1.1703081   -2.8224094    55.834829  0.076277088  0.095322341            1 
   62000    1.1738958   -2.8719736    56.969704  0.076572182  0.095175768            5 
   63000     1.186025   -2.8577874     58.14152  0.076906772  0.095043013            3 
   64000    1.1805203   -2.8423176    59.487687  0.077457925   0.09491585            4 
   65000    1.1472009   -2.8716806     60.12844  0.077087743  0.094749637            2 
   66000     1.177299   -2.8389708    61.359089  0.077473597  0.094606437            1 
   67000    1.1501975   -2.8582013     62.15782  0.077310721  0.094456071            1 
   68000    1.1750787   -2.8920378    63.146005   0.07738481  0.094302604            4 
   69000    1.1834483   -2.8480117    64.404662  0.077783407  0.094155553            1 
   70000    1.1741962   -2.8668634    65.202233  0.077621706  0.094010004            1 
   71000    1.1561397   -2.8682848    66.404215  0.077939219  0.093867111            1 
   72000    1.1574811   -2.8535743    67.553722  0.078187177  0.093726381            1 
   73000    1.1375231   -2.8594779    68.911768  0.078666401  0.093602895            2 
   74000    1.1446288   -2.9141116    69.703745  0.078495208  0.093510866            5 
   75000    1.1546539   -2.8421874    70.931922  0.078813246  0.093400597            3 
   76000    1.1406427   -2.8703577    71.343056  0.078227034  0.093269013            2 
   77000    1.1268683   -2.8659907    72.217939  0.078157943  0.093100654            2 
   78000    1.1537979   -2.8886623     73.15345  0.078155395  0.092933927            1 
   79000    1.1523923   -2.8782491    74.621547  0.078714712   0.09277829            1 
   80000    1.1056446   -2.8749146    75.732513  0.078888034  0.092641989            2 
   81000    1.1431326   -2.9072777    76.403809  0.078604741  0.092487472            3 
   82000    1.1397928   -2.9123811    77.239505  0.078495431  0.092331184            1 
   83000    1.1370833   -2.9121383    78.317741   0.07863227  0.092167901            2 
   84000    1.1266674   -2.8727602    79.366771  0.078736876   0.09200242            2 
   85000    1.1202099   -2.9045919    79.934703  0.078367355  0.091824873            2 
   86000    1.1115077   -2.8884906    80.882779  0.078374785  0.091658655            6 
   87000    1.1258911   -2.8933539    81.985693  0.078530357  0.091513458            2 
   88000    1.1124494   -2.9030164    83.311049  0.078893038  0.091367257            2 
   89000    1.1452574   -2.8833714    84.352156  0.078981419  0.091231195            2 
   90000    1.1238984   -2.9032082    85.333117  0.079012145  0.091085037            2 
   91000    1.1220724   -2.8736433    86.493227  0.079206252  0.090952079            2 
   92000    1.1143565   -2.9151929    86.807066  0.078629588  0.090806247            1 
   93000    1.0943566   -2.8965523    88.450998  0.079257167  0.090680771            2 
   94000    1.1142871   -2.9078874     89.64542   0.07947289  0.090567339            1 
   95000    1.1113379   -2.9071044    90.680162  0.079544002  0.090457121            4 
   96000    1.1228699   -2.9317846    91.772038  0.079663227  0.090355739            1 
   97000    1.0923677   -2.9189667    92.528841  0.079492131  0.090248574            1 
   98000    1.1282289   -2.8799632    93.643522  0.079628845  0.090127786            2 
   99000     1.128802   -2.8950271    94.725045  0.079734886   0.09002357            1 
  100000    1.0960174   -2.9226355    95.571231  0.079642692  0.089921358            2 
  101000    1.0995211    -2.909994    97.029825  0.080057611  0.089821334            4 
  102000    1.0884673   -2.8928386    97.434154  0.079603066  0.089723744            1 
  103000    1.0839367   -2.9352906    98.105501  0.079373383  0.089619587            4 
  104000    1.1045006   -2.9339844    98.982877  0.079313203  0.089505808            3 
  105000    1.0761668    -2.914355    100.05783  0.079410979  0.089391694            2 
  106000    1.0859886   -2.9339875    100.38178  0.078916491  0.089255643            5 
  107000     1.082319   -2.9406362     101.4235  0.078990267  0.089104267            2 
  108000    1.0809232   -2.9181436    102.15949  0.078826768  0.088961303            2 
  109000    1.1114289   -2.9419071    102.79771  0.078591523  0.088810826            1 
  110000    1.0942323   -2.9066198    103.41037  0.078341186  0.088652503            2 
  111000    1.1058154    -2.943128    104.78435  0.078666931  0.088481531            2 
  112000    1.0931894   -2.9756358    104.94673  0.078085361  0.088305191            2 
  113000    1.0927486   -2.9440973    106.39162  0.078459895  0.088129666            2 
  114000    1.0652676   -2.9379723     106.9391  0.078171859  0.087969738            3 
  115000    1.0934171   -2.9302181    108.52879  0.078644054  0.087824134            2 
  116000    1.0841881   -2.9124799     109.7298  0.078828881  0.087679574            1 
  117000    1.0806278   -2.9721875    109.90962  0.078283205  0.087530319            3 
  118000    1.0836803   -2.9713007    110.80356  0.078251104  0.087380335            2 
  119000    1.0807893    -2.954277    111.49827  0.078080024  0.087225174            2 
  120000    1.0974498   -2.9316471    112.41983  0.078069328  0.087065665            3 
  121000    1.0704289   -2.9494039    114.41127  0.078795642  0.086925239            4 
  122000    1.0890789   -2.9363335    114.56001  0.078251375  0.086784155            3 
  123000    1.0594329   -2.9278968    115.21155  0.078056608  0.086640586            1 
  124000    1.0581129   -2.9594362    116.11719  0.078035747  0.086499526            1 
  125000    1.0649265   -2.9975614    116.30315  0.077535435  0.086349379            2 
  126000    1.0685398   -2.9995892     117.7782  0.077895634  0.086202212            3 
  127000    1.0573341   -2.9677646    118.84773  0.077984072  0.086060941            4 
  128000    1.0729808   -2.9640517    119.25114  0.077637459  0.085925996            5 
  129000    1.0473549   -2.9555648    121.19568  0.078291785  0.085794529            2 
  130000     1.046738   -2.9817003    121.43036  0.077839977  0.085673948            2 
  131000    1.0531088    -2.999716    122.11555  0.077681646  0.085549663            2 
  132000    1.0669579   -2.9780349     123.5244  0.077982578  0.085431327            2 
  133000    1.0439408   -2.9828902    124.75656  0.078168269  0.085313039            2 
  134000    1.0432911    -2.968403    125.41711  0.077995713  0.085201883            1 
  135000     1.060677   -2.9679399    126.30293  0.077964774  0.085076394            1 
  136000    1.0562313   -2.9715443    127.25428  0.077974437   0.08495571            6 
  137000    1.0321837   -2.9931847    127.26392  0.077411143  0.084830815            2 
  138000     1.042725   -2.9620603    128.59947  0.077656686  0.084703026            1 
  139000    1.0360529   -3.0105259    129.45269  0.077609529  0.084575027            2 
  140000    1.0112464   -3.0001829    129.00844  0.076790737  0.084440181            2 
  141000    1.0567114   -2.9715817    129.94503  0.076799663  0.084298621            2 
  142000    1.0414018   -2.9832783    130.52064  0.076596621  0.084158437            4 
  143000    1.0261493   -3.0040472    131.70871  0.076753329  0.084018097            2 
  144000     1.036103    -2.991205     132.7117  0.076800754  0.083876031            2 
  145000    1.0241533   -2.9976694    133.09542   0.07649162  0.083737885            1 
  146000    1.0480501   -3.0098118    134.68038  0.076872361    0.0836035            3 
  147000    1.0446616   -3.0291166    135.68761  0.076920416  0.083474927            2 
  148000    1.0348552   -3.0186557    136.12266  0.076645642  0.083349447            2 
  149000    1.0255879   -2.9801733    137.49487  0.076898696  0.083224439            3 
  150000     1.048442   -3.0283795    138.01757  0.076676426  0.083104383            2 
  151000    1.0486628   -3.0319046    138.81033  0.076606142  0.082982354            3 
  152000     1.022346   -3.0200772    139.36998  0.076408981  0.082858107            2 
  153000    1.0049814   -3.0320036     141.2551  0.076936328  0.082745633            2 
  154000    1.0348739   -3.0302323    142.20556  0.076951062  0.082639152            2 
  155000    1.0073988   -3.0105336    143.22278  0.077001497  0.082527231            1 
  156000    1.0264344   -3.0194199     144.2253  0.077043427  0.082427587            1 
  157000    1.0403958   -3.0206495    145.41482  0.077184086  0.082346511            3 
  158000    1.0235265   -3.0333247    146.03247  0.077021346  0.082266726            1 
  159000    1.0031874   -3.0535408     147.0022  0.077045178  0.082181246            2 
  160000    1.0230465   -3.0206453    147.34034  0.076739761  0.082093966            2 
  161000    1.0009363   -3.0422261    148.54966  0.076889058  0.082003083            2 
  162000    1.0131667   -3.0472209    148.99621  0.076644139  0.081911802            2 
  163000    1.0219204   -3.0154705    150.63382  0.077011154  0.081824449            4 
  164000   0.99460581   -3.0293342    150.80021  0.076626124  0.081727643            3 
  165000     1.000664   -3.0439905    151.23869  0.076383179  0.081635178            3 
  166000    1.0016944   -3.0365772    152.25855  0.076435017  0.081537425            5 
  167000    1.0128704   -3.0646158    152.12319  0.075909774  0.081433997            2 
  168000   0.98897956   -3.0493966    153.14213  0.075963356  0.081324754            1 
  169000    1.0031438   -3.0703148    153.06706  0.075476855  0.081210617            5 
  170000    1.0113359   -3.0605627    154.61471  0.075791522  0.081086795            4 
  171000   0.99737096   -3.0594594    154.81743  0.075447092  0.080967947            3 
  172000   0.98108948   -3.0870883     154.7184  0.074960466  0.080846117            2 
  173000   0.98597441   -3.0465257    155.87912  0.075086281  0.080714939            3 
  174000   0.98441229   -3.0440435     157.2808  0.075326054  0.080587499            2 
  175000   0.99910502   -3.0465407    156.79376  0.074663697   0.08046055            4 
  176000     1.003337   -3.0534032    158.55136  0.075071664  0.080333203            7 
  177000   0.99195987   -3.0792958    158.92686  0.074824323  0.080206871            3 
  178000   0.99913693   -3.0443162    160.77882  0.075270983  0.080082821            2 
  179000   0.99285217    -3.059415    160.88228  0.074898641  0.079961911            5 
  180000   0.97987083   -3.0909392    161.51965  0.074777615  0.079842123            1 
  181000   0.98317065   -3.0637012    161.46387    0.0743388  0.079721325            2 
  182000   0.99911961    -3.093586    161.58689   0.07398667  0.079597174            2 
  183000   0.98742229   -3.0766241    162.28953  0.073902335  0.079469364            2 
  184000   0.95911085   -3.0776694    164.00474  0.074277509  0.079339488            3 
  185000   0.97603853   -3.1027096    163.28747  0.073552915  0.079202893            2 
  186000   0.97105129   -3.0660522    164.70229  0.073791347  0.079062759            3 
  187000   0.97431136   -3.1236633    164.91136  0.073489912    0.0789222            2 
  188000   0.98206918   -3.0736681    165.37546  0.073304725  0.078780533            2 
  189000   0.98558013   -3.1251983    166.13599  0.073252201  0.078639871            2 
  190000   0.96140333   -3.1199761    166.71329  0.073119865  0.078503932            2 
  191000   0.96196456   -3.0521431    167.57837  0.073114473  0.078367222            3 
  192000   0.94107608   -3.1232007    168.46826  0.073119906  0.078226711            3 
  193000   0.97314307   -3.0867407      168.407  0.072714594  0.078086735            4 
  194000   0.94858149   -3.0917389     169.9363  0.072996693  0.077950406            3 
  195000   0.96333951    -3.081221    171.22826  0.073174469  0.077814039            3 
  196000   0.93459577   -3.1014643    170.80281  0.072620242  0.077680239            5 
  197000   0.95363151   -3.1158052    171.68528  0.072624909  0.077544167            5 
  198000   0.94268405   -3.1022788    172.21058    0.0724792  0.077414748            2 
  199000   0.92756488   -3.1286674      174.035  0.072878979  0.077285182            2 
  200000    0.9289369   -3.1243896     173.6508  0.072354499  0.077155129            6 
  201000   0.94606024   -3.1065122    174.91179  0.072517324  0.077019351            3 
  202000   0.95345648   -3.1573767    174.29284  0.071902986  0.076886982            2 
  203000   0.97175853   -3.1108549    174.85739  0.071780536  0.076751514            5 
  204000   0.93612766   -3.1319791    176.20269  0.071978224  0.076614357            3 
  205000   0.93242138   -3.1423499    176.17719  0.071616743  0.076472481            2 
  206000   0.93117434   -3.1195651    177.62281  0.071853886  0.076338383            1 
  207000   0.92980866   -3.1232186     177.9098  0.071622303  0.076206097            2 
  208000   0.94199799   -3.1313966    179.03099  0.071727161  0.076075596            3 
  209000   0.92888852   -3.1313211    179.41909   0.07153871  0.075944122            3 
  210000   0.94061045   -3.1489111     179.8284  0.071360475  0.075815274            3 
  211000   0.92816962   -3.1458085    180.69635  0.071365066  0.075685161            2 
  212000   0.93354421   -3.1431489     181.1066  0.071189702  0.075553627            4 
  213000   0.92513271   -3.1678907    181.18401  0.070885761  0.075417726            2 
  214000   0.94496323    -3.154139    181.33926  0.070614977   0.07528083            3 
  215000   0.92424253   -3.1638485    182.52641   0.07074667  0.075143757            2 
  216000   0.91976783   -3.1392171    183.21687   0.07068552  0.075005428            2 
  217000   0.93151543   -3.1509926    184.34289    0.0707922  0.074868356            3 
  218000   0.93220155   -3.1501295    184.21419  0.070418269  0.074732193            3 
  219000   0.91107639   -3.1663649    184.02895  0.070026237  0.074594204            3 
  220000    0.9331482   -3.1742027    184.85431  0.070020571  0.074455602            4 
  221000   0.91141023   -3.1569946    185.71455  0.070028109  0.074319696            1 
  222000   0.90692319   -3.1620759    186.85474   0.07014067  0.074185612            8 
  223000   0.89854154   -3.1813842     186.6926  0.069765545  0.074046675            3 
  224000    0.9129233   -3.1832959     187.4048  0.069719048  0.073910018            5 
  225000   0.89058971   -3.1696734    187.84107  0.069570767  0.073774775            5 
  226000   0.90411189   -3.1944835    188.49444  0.069503851  0.073638668            5 
  227000    0.9103058   -3.1892682    189.01905  0.069390253  0.073502657            3 
  228000   0.92221047    -3.180862    189.43574  0.069238211  0.073365462            4 
  229000   0.91179939   -3.1909079    190.76859  0.069420884  0.073230332            3 
  230000   0.90965434   -3.2113453    190.63866  0.069071978  0.073094404            5 
  231000   0.88323458   -3.1669535    191.79162  0.069188897  0.072959982            3 
  232000   0.90908497    -3.161557    191.24724   0.06869513  0.072820183            2 
  233000   0.89412343   -3.2124343    191.15447  0.068367119  0.072679622            2 
  234000   0.89929604   -3.1840637    192.37499  0.068509611  0.072539047            4 
  235000   0.89005434    -3.208014    191.92638  0.068059001  0.072395611            2 
  236000   0.89051397   -3.2031298    193.18878  0.068216378  0.072255843            6 
  237000   0.89096856   -3.2062881    194.10383  0.068250291  0.072116346            4 
  238000   0.88707961   -3.1868408    194.82174  0.068214893   0.07197582            2 
  239000   0.87899814   -3.1601746    195.62357  0.068209055  0.071840625            3 
  240000   0.90188559   -3.2111924    194.91461  0.067678683  0.071705406            2 
  241000   0.88488827   -3.2340479    196.11152   0.06781173  0.071567017            2 
  242000   0.88696455   -3.1964899     195.9566  0.067478166  0.071426511            6 
  243000   0.88050419   -3.2387669    196.26476  0.067306158  0.071285584            3 
  244000   0.87475771   -3.1955866    196.97868  0.067274139  0.071145304            3 
  245000   0.86371091   -3.2277733     197.5311  0.067187449  0.071003859            2 
  246000   0.88264087   -3.2141694    198.14243  0.067121418  0.070863437           10 
  247000   0.87191837   -3.2202216    198.65065  0.067021136  0.070724846            2 
  248000   0.85835258   -3.2260634    199.00725  0.066870714   0.07058378            2 
  249000   0.86632663   -3.2077059    199.70552  0.066835852  0.070443172            4 
  250000   0.85775082   -3.2262944    200.17141  0.066723804  0.070303608            4 
  251000   0.84866467   -3.2300859    200.72306  0.066641124  0.070163323            4 
  252000   0.87100094   -3.1948494     200.8813  0.066429003  0.070023862            8 
  253000   0.86942371   -3.2444747     201.5874  0.066399012   0.06988518            2 
  254000   0.85337984   -3.2398271    202.27647  0.066363672  0.069751651            6 
  255000   0.87649551   -3.2364833    202.49645  0.066175311  0.069619928            4 
  256000   0.86830187   -3.2339131    203.26516  0.066167045  0.069489827            2 
  257000   0.85768905   -3.2764602    203.43238  0.065963806   0.06935813            4 
  258000   0.85869112   -3.2561746    204.19447  0.065954285  0.069225869            2 
  259000   0.85085627   -3.2372687    205.42712   0.06609624  0.069094883            4 
  260000   0.85055777   -3.2439112    205.32669  0.065809835   0.06896379            2 
  261000   0.84846013   -3.2616527    205.29611  0.065547927  0.068831896            2 
  262000   0.83077317   -3.2589289    205.89669   0.06548877  0.068698042            2 
  263000   0.83780526   -3.2650354    206.05182  0.065288915  0.068566089            6 
  264000   0.84891745   -3.2353858    206.21004  0.065091552   0.06843185            4 
  265000   0.83779398   -3.2775457    206.88357  0.065057726   0.06829521            3 
  266000   0.83032968   -3.2680674    207.48848  0.065002657  0.068160174            3 
  267000   0.83876499   -3.2380893    207.77943   0.06485001  0.068026877            5 
  268000   0.83137019   -3.2876377    207.87188  0.064636778  0.067890806            3 
  269000   0.83513867   -3.2904685    208.65978  0.064640577  0.067755252            4 
  270000   0.84584863   -3.2836034    209.66044  0.064710012  0.067619371            4 
  271000   0.85481303   -3.2633555    209.89841  0.064544406   0.06748731            4 
  272000   0.80922297   -3.2818926    210.27616  0.064422842  0.067355557            1 
  273000   0.83231475    -3.291919    209.68277  0.064005729  0.067218496            3 
  274000   0.82421019   -3.2729416    209.73613   0.06378836    0.0670812            3 
  275000   0.83861433   -3.2817785    211.00924  0.063942193  0.066944205            2 
  276000   0.82937752   -3.2554698    211.22939   0.06377699  0.066808509            2 
  277000   0.82704989   -3.2993297     211.9423  0.063761223   0.06667424            3 
  278000   0.82646728   -3.3075499    212.43002  0.063678062  0.066538512            5 
  279000   0.82033381   -3.3036439    212.42445  0.063448163  0.066402275            3 
  280000   0.82196573   -3.2829646    212.74805  0.063317871  0.066269698            3 
  281000   0.81422852   -3.2814532    212.46563  0.063008788  0.066134845            2 
  282000     0.811455    -3.286351    213.84953  0.063194306  0.065999386           11 
  283000   0.81666436   -3.3418714    213.37852  0.062832308  0.065863869            4 
  284000   0.80908386    -3.318875     214.0608  0.062811268  0.065728891            2 
  285000   0.80514825   -3.3028521    214.84789  0.062821021  0.065595516            6 
  286000    0.8086221   -3.3286545    214.90286  0.062617383  0.065461758            7 
  287000   0.81855504   -3.3355699    215.46739  0.062563122  0.065326307            6 
  288000     0.800711   -3.3098136    215.51765  0.062360432  0.065192942            3 
  289000   0.80738469   -3.3296733    216.39693  0.062398191  0.065058693            3 
  290000   0.80800204   -3.3341212    216.36606  0.062174154  0.064924037           10 
  291000   0.79513976   -3.3200885    216.83255  0.062094087  0.064790048            3 
  292000   0.78887073   -3.3488215    217.33906  0.062025988  0.064657425            2 
  293000    0.7924049   -3.3328357    218.00693  0.062004246  0.064526979            6 
  294000   0.79560368   -3.3247399    218.22709  0.061855751  0.064393738            4 
  295000   0.77747042     -3.31105    218.80146  0.061808321   0.06426115            6 
  296000   0.80904754   -3.3360626    218.79037  0.061596387  0.064127515            6 
  297000   0.80687826   -3.3462856    219.15711  0.061491892  0.063995799            6 
  298000   0.78864334   -3.3361134    219.88138  0.061488081  0.063866991            5 
  299000   0.78341528   -3.3389769    220.65562  0.061498221  0.063739213            4 
  300000   0.79111677   -3.3564093    221.06138   0.06140594  0.063611128            5 
  301000   0.78037311    -3.354181    221.39485  0.061294254  0.063484786            4 
  302000   0.77915713   -3.3357609    221.68478  0.061171298  0.063359773            5 
  303000    0.7823803   -3.3543527    222.61697  0.061225789   0.06323508            3 
  304000   0.78858197   -3.3399608    222.25582  0.060925388  0.063110597            6 
  305000   0.80354345   -3.3684993    222.89098  0.060899175  0.062984501            2 
  306000   0.76544142   -3.3668437    223.07781  0.060751037  0.062858884            4 
  307000    0.7845938   -3.3653668    222.36331  0.060359205   0.06273231            5 
  308000    0.7779769   -3.3551564     223.3374  0.060426785  0.062605712            4 
  309000   0.79211147   -3.3723227    223.62269   0.06030817  0.062479465            8 
  310000   0.77272163   -3.3745403    223.17166  0.059992382  0.062351181            5 
  311000   0.75489418   -3.3899759    223.42635  0.059867724  0.062221825            6 
  312000   0.76985585   -3.3912126    224.84066  0.060053596  0.062090715            4 
  313000   0.76338702      -3.3803    223.73989   0.05956866  0.061958781            4 
  314000   0.76525775   -3.3631439    224.18443  0.059496929  0.061826872            7 
  315000   0.77056108   -3.3842344     224.4798  0.059386192  0.061696163            3 
  316000   0.76844098    -3.401347    225.14277  0.059373094  0.061566632            9 
  317000   0.76418904   -3.3831736     224.8456  0.059107675  0.061437988            3 
  318000   0.75565649   -3.3767856    225.73458  0.059154765  0.061307384            6 
  319000   0.78369361   -3.3976357    225.69512  0.058959017  0.061176212            4 
  320000   0.77418576   -3.3822582    226.52876  0.058991865  0.061046709            8 
  321000   0.73382258   -3.4020267     226.1569  0.058711552  0.060916998            5 
  322000   0.74731997   -3.4273608    226.24776  0.058552733  0.060786706            9 
  323000   0.75435031    -3.401161    227.54412  0.058705913  0.060656229            8 
  324000   0.75081578   -3.4087516    227.36275  0.058478074  0.060528785            6 
  325000   0.74350631    -3.417098    228.10708  0.058488994  0.060401507            8 
  326000    0.7420053   -3.4123145    228.57573  0.058429378   0.06027424            7 
  327000   0.74432929   -3.3979466     228.9935  0.058357161  0.060147158            3 
  328000   0.74507599   -3.4019876    228.67147  0.058097426  0.060022271            4 
  329000   0.73878893   -3.4310982    229.56826   0.05814799  0.059897767            8 
  330000   0.73562275   -3.4263498    229.26104  0.057894203  0.059771297            8 
  331000   0.71610969   -3.4252396    229.92242  0.057885807   0.05964602            5 
  332000   0.73867703   -3.4282043    229.53383  0.057613913  0.059521256            4 
  333000   0.73220152   -3.4213991    230.07132  0.057575407  0.059396496            7 
  334000   0.74430284   -3.4361611    230.84262  0.057595465  0.059273053            6 
  335000   0.75645505   -3.4550358    230.61707  0.057367431  0.059148566            6 
  336000   0.73937811    -3.439494    231.77937  0.057484962  0.059025146            7 
  337000   0.72126472   -3.4438337    230.69216  0.057045538  0.058899741            6 
  338000   0.72813143   -3.4288549    231.18433  0.056998108  0.058774837            5 
  339000   0.75068312   -3.4572392    231.26228  0.056849135  0.058649998            6 
  340000   0.72703504    -3.435449    231.84087  0.056823744  0.058525256            8 
  341000    0.7226785   -3.4514253    232.56487  0.056834035  0.058401057            6 
  342000   0.71453101   -3.4416805    231.88636  0.056502525  0.058277856            6 
  343000   0.73628277    -3.465454    233.76069   0.05679317  0.058157108            7 
  344000   0.70938612   -3.4517033    234.45039  0.056795151  0.058037939            8 
  345000   0.72230743   -3.4786976    233.81308   0.05647659  0.057919149            3 
  346000   0.71939714   -3.4624944    233.77385  0.056303913  0.057799793            6 
  347000   0.70774029   -3.4536237    234.41186  0.056294875  0.057681591            7 
  348000   0.70167488   -3.4641268    235.00343  0.056274767  0.057561889            5 
  349000   0.70948372   -3.4709639    234.68315  0.056037047  0.057441788            5 
  350000   0.71163234   -3.4876681    235.22785   0.05600663  0.057323103            9 
  351000   0.70580375   -3.4573972    235.06981  0.055809546  0.057203712            3 
  352000    0.7167212   -3.4600654    235.60235  0.055777072   0.05708445            7 
  353000    0.6925726   -3.4767796    235.61182  0.055621299  0.056965637           10 
  354000   0.70932346   -3.4810798    235.77041  0.055501509  0.056846695            8 
  355000   0.70099455   -3.4970766    236.28433  0.055465805  0.056727054            7 
  356000    0.7067087   -3.5023291    236.55245  0.055372765  0.056607883            4 
  357000   0.70085613   -3.4814375    236.71942  0.055256635  0.056487447           12 
  358000   0.68527142   -3.4930108    236.33812  0.055013529  0.056367221            4 
  359000     0.707479    -3.493441    236.57913  0.054916233  0.056247489            5 
  360000   0.68764642   -3.4794639    237.37773  0.054948547   0.05612739            6 
  361000   0.67899094   -3.5047145    236.89283  0.054684402  0.056006513            4 
  362000   0.68655049   -3.5176447    236.48702  0.054439921  0.055885218           13 
  363000   0.69546779   -3.5263855    236.63763  0.054324525  0.055763856            8 
  364000   0.68614258    -3.520671    236.99539  0.054257187  0.055642587            5 
  365000    0.6882329   -3.5129627    238.00185  0.054338321    0.0555223            4 
  366000   0.69230722    -3.501943    236.91702  0.053942856  0.055401368            5 
  367000   0.65570402   -3.5254224    236.77763  0.053764222  0.055280286           12 
  368000   0.69680501    -3.533964    238.10168  0.053917953  0.055159537            4 
  369000    0.6761407   -3.5335223    238.33016  0.053823433  0.055039832            5 
  370000   0.68188728   -3.5208677    238.76466  0.053775824  0.054920113            3 
  371000    0.6707478   -3.5180493    238.30988  0.053528723  0.054799564            6 
  372000   0.66413473   -3.5201826    238.48375  0.053423778  0.054679739            5 
  373000   0.67824496   -3.5295706    238.78285  0.053347374  0.054560788            4 
  374000   0.67902873   -3.5253845    238.84626  0.053218863  0.054442088            5 
  375000    0.6622845   -3.5628571    238.93419  0.053096487   0.05432257            5 
  376000    0.6762792   -3.5355013    239.55674  0.053093249  0.054203858            7 
  377000   0.66370216   -3.5457978    240.15888  0.053085517  0.054085126            4 
  378000   0.65272355   -3.5513569     239.5738  0.052816093  0.053968179           10 
  379000   0.67052021   -3.5427596    239.67705  0.052699439  0.053850362            5 
  380000   0.66270718   -3.5640934    239.65862  0.052556715  0.053731457            4 
  381000   0.67387786   -3.5628453    239.71624  0.052431373  0.053612467            3 
  382000    0.6580357   -3.5640091    239.31044  0.052205594  0.053492307            7 
  383000    0.6499239    -3.567571    240.32038   0.05228903  0.053373093            5 
  384000   0.65921632   -3.5629616    239.90668  0.052063082  0.053253517           16 
  385000   0.66919863   -3.5522848    241.13487  0.052193695  0.053134531           11 
  386000   0.65176515   -3.5479581    241.13179  0.052057814  0.053016712            8 
  387000   0.64668402   -3.5868844    240.40078  0.051765886  0.052898206            5 
  388000   0.66495282   -3.5759168    241.23945  0.051812597  0.052779959            5 
  389000   0.64364478   -3.5669624    241.50452  0.051736186  0.052662879           10 
  390000    0.6347627    -3.587888     241.5578  0.051614914  0.052546712           10 
  391000   0.64424278   -3.5709242    241.54274  0.051479697  0.052429972            3 
  392000   0.65771588   -3.5834074    241.78119  0.051399062  0.052313613            6 
  393000   0.64138392   -3.5913283    241.84371  0.051281532  0.052196892           11 
  394000   0.62601294   -3.5846896    242.39873  0.051268768  0.052080411            9 
  395000    0.6398299   -3.5794538    242.11477  0.051079064  0.051963748            6 
  396000   0.63769612    -3.596802    242.53189  0.051037856  0.051847266            5 
  397000   0.62321419   -3.6236563    242.34213  0.050869464  0.051729387            7 
  398000   0.63268508   -3.6106592    241.28459  0.050520225  0.051611136            8 
  399000   0.62646252   -3.6019422    241.65124  0.050470184  0.051492993            6 
  400000   0.63555669   -3.6134616    241.39736  0.050291116  0.051374731            8 
  401000   0.63389154   -3.6238421    241.70397   0.05022942  0.051256273            9 
  402000   0.62046698   -3.6213615    241.90222  0.050145567  0.051137586            5 
  403000   0.63552854   -3.6073041     242.2986  0.050103101  0.051018683            5 
  404000   0.63724966    -3.596499    241.59363   0.04983367   0.05090043           13 
  405000   0.62136635   -3.6268313    242.33125  0.049862396  0.050782106           17 
  406000   0.60590501    -3.623477    242.98726  0.049874233  0.050664001            5 
  407000   0.61808307   -3.6249411    243.06099  0.049766787  0.050546772            5 
  408000   0.61219481    -3.627181    242.67413  0.049565795  0.050431441            5 
  409000   0.63917245   -3.6330146    243.75728  0.049665297   0.05031652            8 
  410000    0.6055939   -3.6236897     243.9697  0.049587337  0.050201698            9 
  411000   0.61131426   -3.6159582    244.16775  0.049506843  0.050086205           18 
  412000   0.60674963   -3.6450604    243.19284  0.049189491  0.049971826            9 
  413000   0.60424697   -3.6374953    243.32978  0.049098019  0.049856831           11 
  414000   0.60632617   -3.6245015    243.93291  0.049100827  0.049741475            7 
  415000   0.60799871   -3.6395484    244.10132   0.04901633  0.049626313            5 
  416000   0.61103657   -3.6737102    244.60792  0.048999984  0.049512033            5 
  417000   0.60597821   -3.6479179    244.11841  0.048784655  0.049398455            5 
  418000   0.59015271   -3.6370123    244.75879  0.048795612   0.04928574           13 
  419000   0.61753322   -3.6576717     244.3251    0.0485929  0.049173206            7 
  420000   0.59309614   -3.6579792    244.71669  0.048554898  0.049060982            6 
  421000   0.58402948   -3.6633775    244.35563  0.048368098  0.048948261            4 
  422000   0.58248866   -3.6553023     244.4953  0.048281062  0.048835581            5 
  423000    0.6027327   -3.6499429    246.08083   0.04847928  0.048723729           13 
  424000   0.57585781   -3.6652685    245.89356  0.048328136  0.048612464            7 
  425000   0.57469716   -3.6875058    245.91286  0.048218207  0.048500972            8 
  426000   0.57597589   -3.6975513    245.58367  0.048040624  0.048389434            7 
  427000   0.57513949   -3.6913929    244.99975  0.047814158  0.048277346           13 
  428000   0.58899197   -3.6913692    245.26401  0.047753897  0.048165355            6 
  429000    0.5783127   -3.6805684    246.10244  0.047805447  0.048054062           13 
  430000   0.58954564   -3.6893915    245.46607  0.047570943   0.04794258            7 
  431000   0.57072203   -3.6843818     245.3427  0.047436716  0.047831438            7 
  432000   0.58296087   -3.6936629    245.93359  0.047440893   0.04771924            7 
  433000   0.57218912   -3.7132868    244.93396  0.047138945  0.047606994            6 
  434000   0.57337027   -3.7015681    245.41172  0.047122066  0.047495144           17 
  435000   0.57917436   -3.7009476    245.34121  0.047000232  0.047383759           15 
  436000   0.57337386   -3.7066097    245.82879  0.046985625  0.047271843           10 
  437000   0.56665882   -3.7030785    245.59347  0.046833233  0.047160155            7 
  438000   0.56590527   -3.7189655    245.94895   0.04679394  0.047049084           11 
  439000   0.55669578   -3.7107033      245.493  0.046600798  0.046937509           10 
  440000   0.57495331   -3.7425933    246.16693  0.046622525  0.046826252            9 
  441000   0.56815606   -3.7163409    245.26838   0.04634701  0.046715436           12 
  442000   0.55456067   -3.7235886    245.34961  0.046257468  0.046604812            8 
  443000   0.56466502   -3.7012316    245.81793  0.046241145  0.046494721            7 
  444000   0.56418743    -3.758072    246.51043  0.046266973  0.046384413           11 
  445000   0.55654437   -3.7491333    245.69689  0.046010653  0.046273885           10 
  446000   0.54622528    -3.742877    246.42581  0.046043686  0.046164361           14 
  447000    0.5476043   -3.7292675    245.85841  0.045834901  0.046054891            6 
  448000   0.55307374   -3.7348274     246.2024  0.045796578  0.045945256           18 
  449000   0.54333031   -3.7439153    246.72572  0.045791708   0.04583584            7 
  450000   0.54788468    -3.736029    247.71412  0.045872986  0.045728075           11 
  451000   0.53896623    -3.756795    246.93796  0.045627857  0.045620643           22 
  452000   0.54706934   -3.7509075    246.79957  0.045501395  0.045512178           11 
  453000   0.54355546   -3.7507655     247.0244  0.045442311  0.045404576            9 
  454000   0.55194544   -3.7446059    246.35164   0.04521873  0.045296724           12 
  455000   0.55026099   -3.7519648    246.74032  0.045190534  0.045189004           10 
  456000   0.53577791   -3.7660857    246.71041  0.045085966  0.045082244            8 
  457000   0.53596821   -3.7574763    246.91995  0.045025519  0.044975144           26 
  458000   0.53393547    -3.772841      246.707  0.044888464  0.044867958           11 
  459000   0.54108683   -3.7828948    246.50325  0.044753677  0.044760412           13 
  460000   0.53580307   -3.7737339    247.00097  0.044746553  0.044653002           28 
  461000   0.53602801   -3.7737455    247.19834  0.044685166  0.044546107           14 
  462000   0.54717388   -3.7768676    247.23962  0.044595892  0.044439356           16 
  463000   0.53415255    -3.796602    246.88375  0.044435521  0.044333433           17 
  464000   0.53204514   -3.7786658    247.48264  0.044447313  0.044227893           14 
  465000   0.53169818   -3.7859148    247.05431  0.044274966  0.044122283           10 
  466000   0.52594973     -3.80863    247.42383  0.044246035  0.044016525            9 
  467000   0.51219452   -3.8023268    247.35899  0.044139719  0.043911339           17 
  468000   0.51323437   -3.7954973     247.4943  0.044069499  0.043806604           18 
  469000   0.50945593   -3.7994883    247.50929  0.043978197  0.043701936           14 
  470000   0.51549206    -3.813253    247.18676  0.043827439  0.043597056           21 
  471000   0.51716101   -3.7967519    247.86603   0.04385457   0.04349281           17 
  472000   0.51699952   -3.8150535    247.11937  0.043629832  0.043389217           17 
  473000   0.50295689   -3.8191408    247.95548  0.043684899  0.043286104           14 
  474000   0.51002831   -3.8127619    248.31208  0.043655428  0.043183387           17 
  475000   0.50654458   -3.8196907    248.65137  0.043623048  0.043081322           12 
  476000   0.50533584   -3.8091877    247.99734  0.043416902  0.042979167           13 
  477000   0.50730142    -3.834499    247.87645   0.04330476  0.042877065           20 
  478000   0.50331732   -3.8071529    248.24524  0.043278458  0.042774648           13 
  479000   0.49079035    -3.837929    248.26826  0.043192111  0.042673111           20 
  480000   0.49738726   -3.8225679    248.53866  0.043149074  0.042571892           14 
  481000   0.49822294   -3.8314686    248.53514  0.043058757  0.042470995            5 
  482000   0.49284007   -3.8186318    248.73269  0.043003577  0.042370599           10 
  483000   0.48826412   -3.8382756    248.30298  0.042840403  0.042270513           12 
  484000   0.49502108   -3.8340759     248.3886  0.042766632  0.042170147           17 
  485000   0.49674023    -3.828629    247.77717  0.042573397  0.042069895           17 
  486000   0.49289286   -3.8390501    248.59885  0.042626689  0.041970171            7 
  487000   0.48506818   -3.8488565    248.93934  0.042597423  0.041870383           15 
  488000   0.49461301    -3.857732    248.23848  0.042390452  0.041770105           30 
  489000   0.47477466    -3.877021    247.99753  0.042262701  0.041670091           48 
  490000   0.47762334    -3.859471    247.86102  0.042153234  0.041570405           70 
  491000   0.48382547   -3.8620576    248.12529  0.042112235  0.041471188           48 
  492000   0.47904251   -3.8725677    248.44372  0.042080575  0.041372062           20 
  493000   0.49313452   -3.8786354    248.29067  0.041969349  0.041273176           32 
  494000   0.48278425   -3.8930759    248.19416   0.04186811  0.041174002           13 
  495000   0.46354226   -3.8652905     248.6092  0.041853401  0.041075207           23 
  496000   0.47474205   -3.8883929    248.06037  0.041676809  0.040976379           20 
  497000   0.47949148    -3.884325     248.3272  0.041637693  0.040877909           44 
  498000   0.47140621    -3.925208    248.23822  0.041539193  0.040779228           44 
  499000   0.47618199   -3.8995401    248.43522  0.041488848  0.040681033           20 
  500000   0.47025766   -3.9183648    248.82342  0.041470571  0.040582821           42 
  501000    0.4605065   -3.8981482    248.42082  0.041320828  0.040484689           34 
  502000    0.4642415    -3.910786     248.4337  0.041240655  0.040386948           22 
  503000    0.4686401   -3.9128346     248.5936  0.041185155  0.040289843           50 
  504000   0.46528857   -3.9047288    248.89445  0.041153183   0.04019274           31 
  505000   0.45854217   -3.9015193     248.3622  0.040983861  0.040095832           31 
  506000   0.46141569   -3.9145938    248.60636  0.040943077  0.039998544           39 
  507000   0.47116031   -3.9267243    248.64848  0.040869243  0.039901672           23 
  508000   0.45857817   -3.9122351    248.00035  0.040682471  0.039804805           22 
  509000   0.45624756   -3.9316825      248.712  0.040719056  0.039708106           54 
  510000   0.45393709   -3.9105541    248.21381  0.040557812  0.039611777           44 
  511000   0.44669825    -3.932928    247.71536  0.040397156  0.039515321           81 
  512000   0.44690862   -3.9462843     247.6493  0.040307503  0.039418917           55 
Loop time of 1211.66 on 48 procs for 500000 steps with 4000 atoms

Performance: 71307.186 tau/day, 412.657 timesteps/s
99.4% CPU use with 48 MPI tasks x no OpenMP threads

MPI task timing breakdown:
Section |  min time  |  avg time  |  max time  |%varavg| %total
---------------------------------------------------------------
Pair    | 78.951     | 84.555     | 89.672     |  26.8 |  6.98
Neigh   | 8.1973     | 8.5165     | 9.019      |   6.0 |  0.70
Comm    | 77.943     | 83.336     | 89.458     |  29.1 |  6.88
Output  | 0.84856    | 0.84904    | 0.85762    |   0.1 |  0.07
Modify  | 1020.9     | 1023.5     | 1027       |   4.1 | 84.47
Other   |            | 10.89      |            |       |  0.90

Nlocal:        83.3333 ave          90 max          78 min
Histogram: 5 6 6 5 3 11 5 0 2 5
Nghost:        2212.79 ave        2233 max        2195 min
Histogram: 3 1 6 9 9 6 7 4 2 1
Neighs:        14713.5 ave       16653 max       13216 min
Histogram: 4 2 5 10 11 6 3 4 2 1
FullNghs:      29426.6 ave       32198 max       27176 min
Histogram: 3 7 6 6 5 7 6 3 0 5

Total # of neighbors = 1412477
Ave neighs/atom = 353.11925
Neighbor list builds = 27107
Dangerous builds = 0

#clear
#
#next RN
#
#jump SELF
Total wall time: 0:20:15
