
units lj                  # Use reduced LJ style units
atom_style atomic         # Uncharged point particles
atom_modify map hash      # Needed for indexing of clusters etc
                          # Used to be able to find where atoms are in relation to each other.

lattice fcc 1.0 spacing 1 1 1
Lattice spacing in x,y,z = 1.5874011 1.5874011 1.5874011
region box block 0 10 0 10 0 10 units lattice
create_box 2 box
Created orthogonal box = (0.0000000 0.0000000 0.0000000) to (15.874011 15.874011 15.874011)
  3 by 4 by 4 MPI processor grid
create_atoms 1 box
Created 4000 atoms
  using lattice units in orthogonal box = (0.0000000 0.0000000 0.0000000) to (15.874011 15.874011 15.874011)
  create_atoms CPU = 0.013 seconds
set type 1 type/fraction 2 0.97 78393
Setting atom values ...
  3879 settings made for type/fraction
mass 1 1.0
mass 2 1.0
pair_style lj/cut  3.5
pair_modify tail  yes
pair_coeff 1  1  1.0  1.0   # Intearaction between 1 and 1 set with epsilon = 1 and sigma = 1
pair_coeff 1  2  1.5  0.8
pair_coeff 2  2  0.5  0.88

write_data data.0
System init for write_data ...
Neighbor list info ...
  update every 1 steps, delay 10 steps, check yes
  max neighbors/atom: 2000, page size: 100000
  master list distance cutoff = 3.8
  ghost atom cutoff = 3.8
  binsize = 1.9, bins = 9 9 9
  1 neighbor lists, perpetual/occasional/extra = 1 0 0
  (1) pair lj/cut, perpetual
      attributes: half, newton on
      pair build: half/bin/atomonly/newton
      stencil: half/bin/3d
      bin: standard
WARNING: Not all mixed pair coeffs generated from mixing. Use write_data with 'pair ij' option to store all pair coeffs. (../write_data.cpp:312)


#############################
#   M E L T   S Y S T E M   #
#############################

velocity all create 2.4 8172548 mom yes dist gaussian # Assign velocities
                                                    # Temperature 2.4, random number seed, zero linear momentum
                                                                                # Gaussian distribution

timestep 0.002   # simulation timestep
thermo 1000       # output thermodynamic data every 1000 steps bf 100

# Define a fix  in this case with index 1 applied to all
# particles in the simulation. This fix is for simulations
# in the anisotropic NPT ensemble. Note that we use the MTK
# correction.
fix 1 all npt temp 2.4 2.4 0.1 iso 5.68 5.68 0.5 mtk yes tchain 5 pchain 5 # Use NPT ensemble
                                                                         # Set temperature and pressure and damping
                                                                         # Numbers of thermostats in chain and in barostat
run 10000          # run for 10000 steps
Per MPI rank memory allocation (min/avg/max) = 3.642 | 3.644 | 3.648 Mbytes
Step Temp E_pair E_mol TotEng Press Volume 
       0          2.4   -2.8451072            0   0.75399283    -1.976462         4000 
    1000    2.3833876   -1.6851386            0     1.889049    5.4533859    4204.8724 
    2000    2.3967455    -1.625944            0    1.9682755    5.7337099    4205.0853 
    3000    2.4106904   -1.6531322            0    1.9619994    5.6499869    4202.8099 
    4000    2.3990596   -1.6809882            0    1.9167016    5.5033324    4204.9369 
    5000    2.4041866   -1.6570096            0    1.9483687    5.7902254    4182.1758 
    6000    2.4099098   -1.6886308            0    1.9253301    5.5692887    4185.7843 
    7000     2.406334   -1.6322076            0    1.9763911    5.8766526    4175.8356 
    8000    2.4104961    -1.658395            0    1.9564453    5.7608572    4173.7174 
    9000    2.4310831   -1.6068555            0    2.0388575    6.0979766    4164.2474 
   10000    2.4424732   -1.6965675            0    1.9662263    5.6499103    4167.7229 
Loop time of 2.38401 on 48 procs for 10000 steps with 4000 atoms

Performance: 724827.873 tau/day, 4194.606 timesteps/s
99.7% CPU use with 48 MPI tasks x no OpenMP threads

MPI task timing breakdown:
Section |  min time  |  avg time  |  max time  |%varavg| %total
---------------------------------------------------------------
Pair    | 1.0242     | 1.1045     | 1.1722     |   2.7 | 46.33
Neigh   | 0.2038     | 0.21088    | 0.22703    |   1.0 |  8.85
Comm    | 0.72713    | 0.81941    | 0.92813    |   4.0 | 34.37
Output  | 0.00023711 | 0.00024297 | 0.0003052  |   0.0 |  0.01
Modify  | 0.20734    | 0.2342     | 0.2534     |   2.9 |  9.82
Other   |            | 0.01476    |            |       |  0.62

Nlocal:        83.3333 ave          93 max          75 min
Histogram: 3 3 8 8 5 6 8 3 1 3
Nghost:        1592.35 ave        1617 max        1567 min
Histogram: 2 3 5 7 5 8 6 6 3 3
Neighs:        9143.29 ave       10604 max        7881 min
Histogram: 2 3 5 10 10 5 6 3 3 1

Total # of neighbors = 438878
Ave neighs/atom = 109.71950
Neighbor list builds = 907
Dangerous builds = 212

# Equilibrate just above the melting temperature to avoid step fn in T

fix 1 all npt temp 1.25 1.25 0.1 iso 5.68 5.68 0.5 mtk yes tchain 5 pchain 5
run 2000
Per MPI rank memory allocation (min/avg/max) = 3.643 | 3.645 | 3.649 Mbytes
Step Temp E_pair E_mol TotEng Press Volume 
   10000    2.4424732   -1.6965675            0    1.9662263    5.6499103    4167.7229 
   11000     1.268324   -2.5855801            0  -0.68356977     5.703546    3243.2468 
   12000    1.2374763   -2.5637637            0  -0.70801326    5.5290743    3265.4932 
Loop time of 0.575801 on 48 procs for 2000 steps with 4000 atoms

Performance: 600206.931 tau/day, 3473.420 timesteps/s
99.7% CPU use with 48 MPI tasks x no OpenMP threads

MPI task timing breakdown:
Section |  min time  |  avg time  |  max time  |%varavg| %total
---------------------------------------------------------------
Pair    | 0.25326    | 0.27501    | 0.2972     |   1.7 | 47.76
Neigh   | 0.037473   | 0.039369   | 0.042187   |   0.5 |  6.84
Comm    | 0.19075    | 0.21126    | 0.23438    |   2.2 | 36.69
Output  | 5.1248e-05 | 5.2497e-05 | 6.6615e-05 |   0.0 |  0.01
Modify  | 0.039603   | 0.045479   | 0.051498   |   1.7 |  7.90
Other   |            | 0.00464    |            |       |  0.81

Nlocal:        83.3333 ave          90 max          77 min
Histogram: 2 3 6 8 10 4 5 4 3 3
Nghost:        1883.12 ave        1901 max        1869 min
Histogram: 5 5 7 4 6 7 4 6 2 2
Neighs:        11692.2 ave       13123 max       10154 min
Histogram: 1 2 2 7 13 8 6 4 3 2

Total # of neighbors = 561227
Ave neighs/atom = 140.30675
Neighbor list builds = 141
Dangerous builds = 11

#############################
# L I N E A R  Q U E N C H  #
#############################

# Define solid atoms. This closely follows ten Wolde  Ruiz-Montero and Frenkel  Faraday Discuss  1996  104  93-110
# Compute components of the per-atom q6 vector
compute q6 all orientorder/atom degrees 1 6 components 6 nnn NULL cutoff 1.3 # compute the Q6 parameter.
                                                                             # Use all neighbours within 1.3 unit cell.

# get number of connections
compute coord_number all coord/atom orientorder q6 0.5

# An atom is solid if it has 8 or more connections (of a possible 14)
variable is_solid atom c_coord_number>=8
group solid dynamic all var is_solid    # Must be dynamic to update
dynamic group solid defined

# do clustering
compute cluster solid cluster/atom 1.3 # Create a cluster where all atoms within are solid and max 1.3 units from another member

# define chunks one chunk per cluster
compute clus_chunks solid chunk/atom c_cluster nchunk every compress yes  # Says which atoms are in which chunk

# count the size of each chunk
compute size_chunks solid property/chunk clus_chunks count


# Find the maximum entry in the vector of chunk sizes
variable max_n equal max(c_size_chunks)


# Thermo style which includes this variable
# thermo_style custom step temp pe vol v_max_n

thermo ${N}  # Print the thermo information every 100 steps
thermo 1000  

# Reset the npt fix at a lower temperature (below freezing)
fix 1  all npt temp  ${temp} ${temp}  0.1  iso  5.68  5.68  0.5  mtk yes tchain  5  pchain  5
fix 1  all npt temp  0.45 ${temp}  0.1  iso  5.68  5.68  0.5  mtk yes tchain  5  pchain  5
fix 1  all npt temp  0.45 0.45  0.1  iso  5.68  5.68  0.5  mtk yes tchain  5  pchain  5

dump dmp2 all dcd ${N} traj.dcd
dump dmp2 all dcd 1000 traj.dcd


compute msd all msd com yes
variable twopoint equal c_msd[4]/6/(step*dt+1.0e-6)
fix 9 all vector 10 c_msd[4]
variable fit equal slope(f_9)/6/(10*dt)
thermo_style custom step temp pe c_msd[4] v_twopoint v_fit v_max_n

fix 1 all npt temp 1.25 ${temp} 0.1 iso 5.68 5.68 0.5 mtk yes tchain 5 pchain 5
fix 1 all npt temp 1.25 0.45 0.1 iso 5.68 5.68 0.5 mtk yes tchain 5 pchain 5
run 500000 # 5000000  # Run for this many steps
Neighbor list info ...
  update every 1 steps, delay 10 steps, check yes
  max neighbors/atom: 2000, page size: 100000
  master list distance cutoff = 3.8
  ghost atom cutoff = 3.8
  binsize = 1.9, bins = 8 8 8
  4 neighbor lists, perpetual/occasional/extra = 1 3 0
  (1) pair lj/cut, perpetual
      attributes: half, newton on
      pair build: half/bin/atomonly/newton
      stencil: half/bin/3d
      bin: standard
  (2) compute orientorder/atom, occasional
      attributes: full, newton on
      pair build: full/bin/atomonly
      stencil: full/bin/3d
      bin: standard
  (3) compute coord/atom, occasional
      attributes: full, newton on
      pair build: full/bin/atomonly
      stencil: full/bin/3d
      bin: standard
  (4) compute cluster/atom, occasional
      attributes: full, newton on
      pair build: full/bin/atomonly
      stencil: full/bin/3d
      bin: standard
Per MPI rank memory allocation (min/avg/max) = 9.815 | 9.819 | 9.823 Mbytes
Step Temp PotEng c_msd[4] v_twopoint v_fit v_max_n 
   12000    1.2374763   -2.5637637 3.1554436e-30 2.1912802e-32 8.3333333e+20            1 
   13000    1.2384909   -2.5318529    1.1445852 0.0073370843  0.097520324            1 
   14000    1.2730269     -2.53091     2.352171  0.014001017   0.09991204            1 
   15000    1.2321156   -2.5373373    3.5905834  0.019947685   0.10115686            3 
   16000    1.2349068   -2.5642943    4.8172694  0.025089944   0.10213756            4 
   17000    1.2653586   -2.5545091    6.0498592  0.029656172   0.10256613            2 
   18000     1.256444   -2.5590208    7.3827465  0.034179381   0.10293161            1 
   19000    1.2839723   -2.5253056    8.7940187  0.038570257   0.10427164            1 
   20000    1.2086631   -2.5750063    10.088679  0.042036163    0.1057132            1 
   21000    1.2416017   -2.5459246    11.379663  0.045157392   0.10640842            1 
   22000    1.2789947    -2.567153    12.442242  0.047129703     0.106402            2 
   23000    1.2306355   -2.5531782    13.624084  0.049362622   0.10577194            2 
   24000    1.2242936    -2.572698    14.876916  0.051655957   0.10504869            2 
   25000    1.2471689   -2.5782664    16.244427  0.054148088    0.1048158            1 
   26000    1.2163477   -2.5815302    17.443342  0.055908147   0.10482362            3 
   27000    1.2160259    -2.577391    18.681075  0.057657639    0.1047107            2 
   28000    1.2341553   -2.5199694     19.96229  0.059411577    0.1047393            2 
   29000    1.2160402    -2.565686    21.172594  0.060840788   0.10457486       -1e+20 
   30000    1.2306492   -2.5544085    22.250105  0.061805845   0.10431153            2 
   31000    1.2114326   -2.5846807    23.584362  0.063398821   0.10407051            1 
   32000    1.2048414   -2.5950727    24.645539  0.064181089   0.10384423            2 
   33000    1.1771746   -2.5611573    26.089592  0.065882806   0.10375365            2 
   34000    1.2051514    -2.584412    27.288463  0.066883486   0.10370334            1 
   35000     1.227537   -2.6035341    28.361157  0.067526563   0.10348937            2 
   36000    1.2288597   -2.5847354    29.571591  0.068452756   0.10327924            1 
   37000    1.2083915   -2.6080927    30.661397  0.069057199   0.10305202            1 
   38000    1.2148174   -2.5729656    32.126515  0.070452884   0.10292238            2 
   39000    1.1894645   -2.5712136    33.130243  0.070791117   0.10276754            2 
   40000    1.2007527   -2.5758732     34.55573  0.071991104   0.10259127            1 
   41000    1.2001331   -2.5664441    35.319518  0.071787638   0.10248119            2 
   42000    1.1892965   -2.6212767      36.6625  0.072743055   0.10236603            1 
   43000    1.2398104   -2.6203645    37.864537  0.073380885   0.10228156            1 
   44000    1.2099772   -2.5990815    38.888748  0.073652931   0.10212783            1 
   45000    1.1833597    -2.609214    39.858996  0.073812955    0.1019217            2 
   46000    1.1768957   -2.6137892    41.004337  0.074283218   0.10162162            1 
   47000    1.2174717   -2.5876528      42.1975  0.074818262   0.10133189            1 
   48000     1.188011   -2.6239964    42.916702  0.074508162   0.10099049            2 
   49000     1.231232   -2.6123249    44.240776  0.075239414    0.1006263            1 
   50000    1.1912301   -2.6168986     45.22724  0.075378733   0.10031589            1 
   51000    1.1811041   -2.6216173    46.337835  0.075715416   0.10000231            2 
   52000    1.1853959   -2.6249964    47.196555  0.075635504  0.099681135            4 
   53000    1.1954823   -2.6250398    48.548305  0.076333812  0.099375107            2 
   54000    1.2009349   -2.6204347    49.801651  0.076854399  0.099110024            1 
   55000    1.1959541   -2.6055378      50.8887   0.07710409  0.098908336            1 
   56000    1.2037217   -2.6183967    52.168176  0.077631213  0.098738124            2 
   57000    1.1768156   -2.6362695    53.253619  0.077856168  0.098578668            1 
   58000    1.1864121   -2.6249213    54.261628  0.077962109  0.098465402            2 
   59000    1.1730043   -2.6337031    55.814457  0.078833978  0.098330272            2 
   60000    1.1603771   -2.5914507    57.186997  0.079426383  0.098253124            1 
   61000    1.1764348   -2.6218774    58.404877  0.079788082  0.098216805            1 
   62000    1.1618847   -2.6150185    59.965565  0.080598877  0.098185232            2 
   63000    1.1946582   -2.6606444    60.630833  0.080199514  0.098178741            1 
   64000    1.1814049   -2.6229063    61.987821  0.080713308  0.098189127            2 
   65000     1.163031   -2.6354563    63.440441  0.081333898  0.098185428            2 
   66000      1.16944   -2.6618363    64.094312  0.080927162  0.098179826            3 
   67000    1.1547906   -2.6484173    65.096805  0.080966175  0.098131025            2 
   68000    1.1418956   -2.6321412    66.181734  0.081105065  0.098056533            2 
   69000    1.1678076   -2.6448498    67.101616  0.081040599  0.097985772            2 
   70000    1.1501185   -2.6311352    68.582107  0.081645365  0.097881573            1 
   71000    1.1677017   -2.6451685    69.467134  0.081534194     0.097774            1 
   72000    1.1585732    -2.675486     70.41943   0.08150397  0.097688797            2 
   73000    1.1770088   -2.6739968    72.133975   0.08234472  0.097604309            1 
   74000    1.1779787   -2.6369492    72.943069  0.082143095  0.097514039            2 
   75000    1.1405815   -2.6773832     74.00753  0.082230588  0.097436014            1 
   76000    1.1397555   -2.6364041    75.048177  0.082289667  0.097370429            1 
   77000    1.1680138   -2.6642474    76.613437  0.082914974  0.097323911            1 
   78000    1.1422903    -2.671393    77.740192  0.083055761  0.097300803            2 
   79000    1.1510968   -2.6670849    79.162524  0.083504772  0.097282909            3 
   80000    1.1360003   -2.6654112    79.837273  0.083163825  0.097256263            2 
   81000    1.1831379   -2.6716635    81.346551  0.083689867  0.097218519            2 
   82000    1.1220115   -2.6533581     82.25034  0.083587743  0.097171431            2 
   83000    1.1341839   -2.6940331     83.21976  0.083553976  0.097111488            3 
   84000    1.1120589   -2.6636264    83.936771  0.083270606  0.097039123            2 
   85000    1.1280576   -2.6525338    85.274907   0.08360285  0.096990482            2 
   86000    1.1265981   -2.6737185    86.152625  0.083481225  0.096927081            3 
   87000    1.1242995   -2.6947638    87.631669   0.08393838  0.096858696            2 
   88000     1.122335   -2.6666127    88.577255  0.083879976  0.096794164            2 
   89000    1.1075309   -2.6891638    89.841192  0.084120965  0.096720392            2 
   90000    1.1245588   -2.6504106    90.375566  0.083681079  0.096660247            3 
   91000    1.0976947   -2.6791144     91.86401  0.084124551  0.096592411            2 
   92000    1.1257335    -2.686081    92.520574  0.083804868  0.096502199            2 
   93000    1.0985243   -2.7000302    93.947327  0.084182192  0.096397368            2 
   94000    1.1112186   -2.7118857    94.243934  0.083549587  0.096296508            2 
   95000    1.1193771   -2.7014019    95.084851  0.083407764  0.096178727            2 
   96000    1.1321481   -2.6745779    96.100419  0.083420502  0.096049713            2 
   97000    1.0964644   -2.6944122    96.729328  0.083100797  0.095892161            1 
   98000    1.1295629   -2.7445244    97.429392  0.082848122  0.095710056            2 
   99000    1.1141267   -2.6924634    99.078251    0.0833992  0.095553996            2 
  100000    1.1101844   -2.6980666    99.919745  0.083266454  0.095411288            1 
  101000    1.1107548   -2.7117692    100.79131   0.08316115   0.09525531            2 
  102000    1.0874348   -2.7112373    101.74891   0.08312819  0.095081643            1 
  103000    1.1073577   -2.7125775    102.41688  0.082861557  0.094922762            3 
  104000    1.1081406   -2.7055916    103.96607  0.083306143   0.09476425            3 
  105000    1.0904269   -2.6805252    104.70242  0.083097155  0.094612707            1 
  106000    1.1011887   -2.7132466    105.57859  0.083002035  0.094464883            2 
  107000    1.1010665   -2.6996547    106.64088  0.083053647  0.094327976            3 
  108000    1.1088451   -2.7126445    107.13673  0.082667233  0.094179069            1 
  109000    1.0773299   -2.7235323    108.91719  0.083270019  0.094022605            3 
  110000     1.097748   -2.6962225    110.24148  0.083516269  0.093870926            2 
  111000    1.1217384   -2.7023591    110.54719  0.082993386  0.093718157            2 
  112000    1.0647446   -2.7026119    111.50819  0.082967401  0.093572983            2 
  113000    1.0731677   -2.7008719    112.60712  0.083043595  0.093441903            2 
  114000    1.0823095   -2.7401466    113.89699  0.083258036   0.09329252            2 
  115000    1.0856011   -2.7513195     114.2112  0.082761738   0.09315064            2 
  116000    1.0763877   -2.7196123    115.57475  0.083027839  0.093012296            3 
  117000    1.0998883   -2.7585145    116.37632  0.082889115  0.092876438            2 
  118000     1.072704   -2.7090733    117.71251  0.083130304  0.092739504            1 
  119000    1.0928247    -2.727846    117.32857  0.082162866  0.092582043            2 
  120000    1.0807192   -2.6976448    118.53971  0.082319246  0.092413007            2 
  121000    1.0647752   -2.7161137    119.70935  0.082444456  0.092249369            2 
  122000    1.0992031   -2.7347191    120.54854  0.082341898  0.092089308            3 
  123000    1.0880122   -2.7481464     121.4645  0.082293021  0.091937708            3 
  124000    1.0711751   -2.7752747    122.54844  0.082357825  0.091785255            2 
  125000    1.0708669   -2.7371729    123.64955  0.082433033  0.091639149            2 
  126000    1.0706936   -2.7399003    125.24054  0.082831046  0.091505941            2 
  127000    1.0606425   -2.7567087    125.38317   0.08227242  0.091384891            4 
  128000    1.0504703   -2.7729994    126.61141  0.082429306  0.091252858            3 
  129000    1.0551296   -2.7630004    127.92018  0.082635773  0.091123791            2 
  130000     1.067331   -2.7706619    127.89175  0.081981889  0.091002226            2 
  131000    1.0856793   -2.7616546    129.65042  0.082474823  0.090870479            2 
  132000    1.0753174   -2.7483943    129.65866  0.081855215  0.090729089            5 
  133000    1.0648351   -2.7895894    130.88628  0.082008949  0.090580329            3 
  134000    1.0613743   -2.7670629    131.89715  0.082025592  0.090429978            2 
  135000    1.0622732   -2.7712061    132.84874  0.082005395  0.090279183            2 
  136000     1.039553   -2.7693522    133.56164   0.08183924  0.090128634            2 
  137000    1.0810956   -2.7653824    133.60834  0.081270282  0.089980847            2 
  138000    1.0553626   -2.7669346    134.75341  0.081372829  0.089824372            1 
  139000    1.0456335   -2.7760763    136.03129  0.081553529   0.08966557            4 
  140000    1.0456227   -2.7717868    136.68704  0.081361332  0.089518478            3 
  141000    1.0479477   -2.7731177    137.32336  0.081160378  0.089365022            1 
  142000     1.034419   -2.7826795    137.72726  0.080825857  0.089214894            5 
  143000    1.0379353   -2.7831944    139.09769  0.081059259   0.08907012            4 
  144000    1.0451109    -2.786537    140.93841  0.081561581  0.088939362            2 
  145000    1.0450961   -2.7985851    141.84485  0.081520031  0.088811247            2 
  146000    1.0154512   -2.7861779    142.79335  0.081503054   0.08868739            2 
  147000    1.0537748   -2.7819164    144.38542  0.081851147  0.088568664            2 
  148000    1.0280379    -2.833803    144.94184  0.081611395  0.088450852            1 
  149000    1.0132665   -2.8335779    145.71618  0.081496743  0.088327107            1 
  150000     1.028414    -2.826458    146.20474  0.081224855  0.088205873            3 
  151000    1.0319289   -2.7772389    146.75345  0.080989761  0.088084057            2 
  152000    1.0431383   -2.8041964    148.05049  0.081168031  0.087958227            6 
  153000    1.0062351   -2.7890015    149.09511  0.081206485  0.087832548            1 
  154000    1.0279283   -2.7902766    149.53746  0.080918538  0.087710259            1 
  155000    1.0140227   -2.8157756    149.80393  0.080539749  0.087576361            5 
  156000    1.0314669   -2.7612431    150.69956  0.080501904  0.087440399            2 
  157000    1.0118023   -2.7875913     151.6639  0.080501007  0.087304136            2 
  158000    1.0136934   -2.8019038    152.07757  0.080209689    0.0871708            4 
  159000    1.0260598   -2.7901042     153.6563  0.080532651  0.087037854            1 
  160000   0.99136625   -2.8171499    154.46546  0.080450759  0.086905075            1 
  161000    1.0062642   -2.8070615    154.61905  0.080030565  0.086768434            4 
  162000    1.0070824   -2.8422435    155.39444  0.079935409  0.086637767            7 
  163000    1.0052972   -2.8451738    156.45717  0.079988329  0.086502952            4 
  164000    1.0108131   -2.8171945    157.68289  0.080123421  0.086369692            4 
  165000    0.9980275   -2.7965739    158.42177  0.080010996  0.086248455            2 
  166000    1.0149097   -2.8143154    160.31766  0.080480751  0.086131174            2 
  167000   0.99147207   -2.8423374    159.78882  0.079734941  0.086013081            4 
  168000   0.97660781   -2.8136051    160.60774  0.079666537  0.085888459            1 
  169000   0.99894497   -2.8160129    161.11138  0.079443481    0.0857508            3 
  170000   0.99491894   -2.8303827    162.61888  0.079715139  0.085618859            2 
  171000   0.97780355   -2.7967173    162.70737  0.079292088  0.085485073            2 
  172000   0.98747182   -2.8343741    163.03307   0.07898889  0.085346284            2 
  173000   0.97007336   -2.8155158    165.19164  0.079572082  0.085208951            7 
  174000   0.97964804   -2.8274062    164.19807  0.078638923  0.085062685            1 
  175000    1.0081504   -2.8215484    165.06023  0.078600108  0.084915405            3 
  176000    1.0016612   -2.8303601    166.77947  0.078967553  0.084771662            1 
  177000   0.97868016   -2.8465622      166.747  0.078506118  0.084635382            2 
  178000   0.97994783   -2.8432641    167.88669  0.078598638  0.084499185            3 
  179000   0.95516691   -2.8314455    169.48517  0.078903709  0.084372001            2 
  180000   0.97520438   -2.8401518    170.09911  0.078749586  0.084241583            1 
  181000   0.99365233   -2.8600894    170.20045  0.078361164  0.084112599            2 
  182000   0.96393715   -2.8349493    171.18496  0.078381392  0.083984337            5 
  183000   0.95898596   -2.8489128    171.83855  0.078250705  0.083856467            2 
  184000   0.97293166   -2.8572585    173.13982  0.078414773  0.083732192            2 
  185000   0.98465839   -2.8532102     173.9557  0.078358424  0.083610202            2 
  186000   0.95599246   -2.8711752    174.80767  0.078318847  0.083485769            4 
  187000   0.94816025   -2.8410039    174.91789  0.077949147  0.083354832           10 
  188000   0.96879335   -2.8605128    175.26891  0.077690119  0.083222855            1 
  189000    0.9400176   -2.8758654    176.83277  0.077968595  0.083097897            2 
  190000    0.9601206   -2.8436154    177.18048  0.077710738  0.082969971            3 
  191000   0.98499668   -2.8669379    178.16288  0.077732497  0.082844375            3 
  192000   0.94410277   -2.8386064    179.40377   0.07786622  0.082717623            1 
  193000   0.95365469   -2.8673265    179.09924  0.077331279  0.082589503            2 
  194000   0.97281496   -2.8693059    179.73268  0.077204758  0.082459598            2 
  195000   0.95639443   -2.8973237     180.8215  0.077274146  0.082332006            2 
  196000   0.95898743   -2.8909718    181.57913  0.077202009  0.082210497            3 
  197000   0.95203769    -2.883758     181.9452  0.076964975  0.082079306            3 
  198000   0.93709923   -2.8732598    182.74657  0.076913538  0.081945925            2 
  199000   0.96382037   -2.9183943    182.81619  0.076556194  0.081811333            4 
  200000   0.95238654   -2.8740043    184.35479  0.076814494   0.08167868            3 
  201000   0.93679879    -2.892672    184.06517  0.076312258  0.081543362            3 
  202000   0.95174339   -2.8952921    184.73408  0.076210427  0.081404737            1 
  203000   0.96300946   -2.9016707     184.9866  0.075938671  0.081264427            4 
  204000   0.95107133   -2.9233991    185.54084  0.075792829  0.081121501            2 
  205000   0.91896897   -2.8928023    186.68565  0.075888474  0.080975124            5 
  206000   0.92658879   -2.8907988    186.64406  0.075503262  0.080825557            1 
  207000   0.95134149   -2.9154073    187.05677  0.075304659  0.080680668            2 
  208000   0.92124501   -2.8919854    187.95877  0.075303993  0.080534039            3 
  209000   0.95646591   -2.9025311    188.47243  0.075148498  0.080385868            2 
  210000   0.90756769   -2.9357752    188.66905  0.074868671  0.080235569            2 
  211000   0.93050405   -2.8967831    190.11854  0.075086312   0.08008163            2 
  212000   0.91882174   -2.8823249    190.39376  0.074840314  0.079932961            4 
  213000   0.91850412   -2.9217429    190.48186  0.074523421  0.079782766            3 
  214000   0.92053393   -2.9383021    190.58451  0.074215152  0.079634692            3 
  215000   0.93510092   -2.9266227    192.18064  0.074488618  0.079487384            2 
  216000   0.93000509   -2.9246598    193.55099  0.074672451  0.079341951            2 
  217000   0.91833662   -2.9346468    194.00711  0.074503497  0.079196188            2 
  218000   0.93506573   -2.9525697     193.9644  0.074145411   0.07905111            3 
  219000   0.90747855   -2.9223093    194.63003  0.074060132  0.078908964            3 
  220000   0.92779273   -2.9247156    196.54793  0.074449972  0.078771457            2 
  221000   0.90425934   -2.9155055    197.02386  0.074292555  0.078635155            2 
  222000   0.91527537    -2.945855    197.17463  0.074014502  0.078503168            6 
  223000   0.88723475   -2.9164445    198.83573  0.074303335  0.078368627            6 
  224000    0.8990296   -2.9209576    199.04343  0.074048896   0.07823449            4 
  225000   0.92490814   -2.9411188    199.52113  0.073896714  0.078101173            1 
  226000   0.91141621   -2.9616617    200.35825  0.073878411  0.077967317            3 
  227000   0.90307123   -2.9796134    199.97029  0.073410533  0.077833016            1 
  228000   0.91305004   -2.9532459    202.34673  0.073957139  0.077701708            3 
  229000    0.9120556   -2.9394508    201.97303   0.07349819   0.07757232            2 
  230000   0.89941451   -2.9345395    202.54068  0.073384304  0.077442196            2 
  231000    0.9010377   -2.9273339    204.21292  0.073669883  0.077313017            3 
  232000    0.8925073   -3.0002588    204.23397  0.073359904  0.077183305            3 
  233000   0.91467046   -2.9740424    204.02813  0.072971433  0.077056485            4 
  234000   0.88837135    -2.969031    205.33814  0.073126119  0.076929375            3 
  235000     0.889641   -2.9682435    206.35226  0.073174559  0.076801541            2 
  236000   0.88748119    -2.955557    206.57803  0.072944219  0.076676155            2 
  237000   0.90674331   -2.9615305     205.9996  0.072433052  0.076547917            4 
  238000   0.87240975   -2.9924753    207.11629  0.072519709  0.076417242            3 
  239000   0.88411613   -2.9599371     207.0906  0.072207322  0.076285009            4 
  240000   0.87922021   -3.0075028    208.76901  0.072489239  0.076152436            3 
  241000   0.88849302   -2.9841762    208.50948  0.072098714  0.076021454            5 
  242000   0.88487798   -2.9842273    209.29586  0.072071576  0.075889692            2 
  243000   0.86131474   -2.9815958    209.48298  0.071839156  0.075758782            2 
  244000   0.86686576   -2.9926608    210.32276  0.071831543  0.075628459            4 
  245000   0.87187872   -2.9755365    211.11635  0.071808281  0.075496754            2 
  246000   0.87932988   -2.9889069    210.86093  0.071429855  0.075363106            3 
  247000    0.8615142   -2.9727897    212.71012  0.071764547   0.07523352            2 
  248000   0.87187301   -2.9765385    213.15219  0.071623721  0.075104455            6 
  249000   0.87456438   -2.9989136    213.43361  0.071430257  0.074975425            3 
  250000   0.88772042   -2.9942167    213.92623  0.071308742  0.074846791            3 
  251000   0.86566233   -3.0151221    214.67004  0.071271595  0.074715164            2 
  252000   0.85438734   -3.0023183    215.09024  0.071127726  0.074586068            3 
  253000    0.8742052   -2.9878389    215.39695  0.070947612  0.074453347            4 
  254000   0.85293285   -3.0047727    215.45411  0.070687042  0.074321101            2 
  255000   0.84771912   -3.0057549    216.44871  0.070734872   0.07418585            3 
  256000   0.87825787   -3.0245316    216.22778  0.070386646  0.074052589            2 
  257000   0.85535966   -3.0162506    217.09558  0.070394157  0.073920629            3 
  258000   0.86347048   -3.0389072    217.42768  0.070228577  0.073790328            6 
  259000   0.84477074   -3.0096231    217.65712  0.070031249  0.073656886            5 
  260000   0.84750492   -3.0007387    218.12566  0.069912069  0.073522883            5 
  261000   0.86262767   -3.0384328    219.80974  0.070181908  0.073389242            4 
  262000   0.84904408   -3.0229075    218.76424  0.069581501  0.073256176            7 
  263000     0.848987   -3.0226378    219.55904   0.06956877  0.073121852            2 
  264000   0.85038339   -3.0366253    219.66188  0.069337714  0.072988802            6 
  265000   0.85362572   -3.0233785    221.12032  0.069534692  0.072856274            6 
  266000   0.83679535    -3.021343    221.92411  0.069525096  0.072726525            2 
  267000   0.83932838   -3.0505009    222.37548  0.069405582  0.072596229            4 
  268000   0.84082424   -3.0135154    223.05306  0.069357295  0.072466601            4 
  269000   0.82003165   -3.0433298    223.99712  0.069391921  0.072340066            8 
  270000   0.84851538   -3.0342989    225.17481  0.069498398  0.072212357            2 
  271000    0.8295115   -3.0381538    224.59563  0.069063848  0.072087527            3 
  272000   0.83154341   -3.0358341    225.79229   0.06917656   0.07196377            8 
  273000   0.82708627   -3.0479938     225.2008  0.068742612  0.071837588            2 
  274000   0.84045655   -3.0164913    226.78045  0.068972157   0.07171164            6 
  275000   0.81498697   -3.0417402     227.1456  0.068831999  0.071582624            3 
  276000   0.81821521   -3.0632157    226.10612  0.068268756  0.071454094            3 
  277000   0.83152109   -3.0385377    226.95585  0.068277932   0.07132719            5 
  278000   0.80188642   -3.0436832     227.5298  0.068204375  0.071199527            2 
  279000   0.83517193    -3.040733    229.01255  0.068402793  0.071075266            4 
  280000    0.8281304   -3.0685463    229.71697  0.068368145  0.070952323            3 
  281000   0.80645587   -3.0565788    229.99391  0.068206972  0.070829199            5 
  282000   0.80803146   -3.0414449    230.11493  0.068000866  0.070706776            9 
  283000   0.81825215   -3.0562188    230.75072  0.067947797  0.070586038            3 
  284000   0.81832369   -3.0839541    230.18837  0.067543536  0.070463783            2 
  285000   0.82530028   -3.0636924    231.45822  0.067677842  0.070341903            3 
  286000   0.81616236   -3.0811534    231.70669  0.067513603  0.070218314            2 
  287000   0.80352989   -3.0567833    232.08347  0.067387768  0.070095753            3 
  288000   0.80360823   -3.0706158    232.09844  0.067158112  0.069971163            5 
  289000   0.81652157   -3.0770263    232.23104  0.066963967  0.069846183            4 
  290000   0.78490918   -3.0827659    232.33055  0.066761652  0.069713986            3 
  291000   0.81562976   -3.0684156    232.64836  0.066623242  0.069583066            3 
  292000    0.7981329   -3.0798858    232.30386  0.066296763  0.069452634            4 
  293000   0.82435053   -3.0855194    233.11489  0.066301163  0.069317628            5 
  294000    0.7971854   -3.0914132    233.05457  0.066058552   0.06918148            2 
  295000   0.79400663   -3.0831091    233.36607  0.065922618  0.069044211            2 
  296000   0.78355796   -3.1146674    233.42444   0.06571634  0.068905875            5 
  297000   0.78590016   -3.1123193    233.72532  0.065579495  0.068766188            2 
  298000   0.79413537   -3.1169648    234.09848  0.065463781  0.068627182            7 
  299000   0.79490296   -3.1140475    235.37786  0.065601411  0.068488648            4 
  300000   0.76729343   -3.1043888    235.83389  0.065509415  0.068350649            6 
  301000   0.79263865   -3.1177777    235.96165  0.065327145  0.068213494            2 
  302000   0.80470517   -3.0963923    235.15599  0.064888517  0.068077081            4 
  303000   0.78961655   -3.1145758    236.69359  0.065097247  0.067941263            4 
  304000   0.78377799   -3.1426435    236.84641  0.064925003  0.067805067            4 
  305000   0.77045513   -3.1170034    237.48267  0.064885977   0.06766974            7 
  306000   0.78988027   -3.1365551     237.2069   0.06459883  0.067536057            3 
  307000   0.77655733   -3.1274094    238.17242  0.064650494   0.06740163            4 
  308000   0.78235737   -3.1272331    238.22463  0.064454715  0.067266292            1 
  309000   0.78118699   -3.1354172    239.38435  0.064558887  0.067133106            4 
  310000   0.77907136   -3.1292665    238.34413  0.064071003  0.066998653            2 
  311000   0.77158801   -3.1424337    239.36925  0.064139669  0.066864102            3 
  312000   0.77666207   -3.1557008    238.76545  0.063772824  0.066728573            8 
  313000   0.76800146   -3.1280993    239.88772   0.06386787  0.066592071            7 
  314000   0.74634608   -3.1537206    240.66802  0.063871555  0.066455842            7 
  315000   0.76800221   -3.1415399    240.73034  0.063685275  0.066320571            3 
  316000    0.7619638   -3.1550229    241.09623  0.063580229  0.066185372            5 
  317000   0.75365492   -3.1505916    240.24537  0.063155986  0.066048307            4 
  318000   0.75246633   -3.1157897    242.54123  0.063559023  0.065914057            2 
  319000   0.75048349   -3.1735443    241.84244  0.063177231  0.065779379            4 
  320000   0.75675799   -3.1584518    241.42233  0.062870398     0.065644            5 
  321000    0.7564566   -3.1381743    241.65856  0.062735866  0.065506867            4 
  322000   0.74957172     -3.13423     242.8596  0.062851863   0.06537299            3 
  323000   0.77201392   -3.1706283    242.66168  0.062606213   0.06523914            3 
  324000   0.74814731   -3.1603982    243.01341  0.062503448    0.0651064            5 
  325000   0.75156086   -3.1568149    244.17959  0.062610152  0.064973306            6 
  326000   0.73886974   -3.1813343    243.69572  0.062294407  0.064840083            2 
  327000    0.7519794   -3.1515955    244.69925  0.062359646    0.0647062            9 
  328000   0.73733201   -3.1785006    244.69001  0.062167176  0.064573113            5 
  329000   0.74354949   -3.2003076    244.80767  0.062008023   0.06444046            4 
  330000   0.73965993     -3.19026    244.72134  0.061798317  0.064307943            3 
  331000   0.73762875   -3.2110956    244.61224  0.061584149  0.064175543            3 
  332000   0.74479297   -3.1561115    245.85589  0.061710815  0.064043941            3 
  333000   0.73160552   -3.1951059    245.30786  0.061388353  0.063911847            1 
  334000   0.74606338   -3.1812655    246.06061  0.061392369  0.063778931            6 
  335000   0.72596062   -3.1966058    246.57567  0.061337231  0.063646807            7 
  336000   0.72521113   -3.1789478    246.24373  0.061072353  0.063513342            2 
  337000   0.72845944    -3.185274    247.14025   0.06111282  0.063379841            2 
  338000   0.71682184   -3.1922403     247.4507  0.061008554  0.063247326            4 
  339000   0.73018315   -3.1975297    248.04327  0.060974255  0.063115905            4 
  340000     0.712198   -3.2130993    247.79154   0.06073322  0.062984653            7 
  341000    0.7292494   -3.2026783    248.75318  0.060790121  0.062853633            3 
  342000   0.71153185   -3.2000312    248.91491  0.060651781  0.062725242            5 
  343000   0.71368073   -3.2139207      249.339  0.060577988  0.062597403            3 
  344000   0.70599456   -3.1994168     249.9239  0.060543581  0.062469317            4 
  345000   0.72019421   -3.2178169    249.21996  0.060198057  0.062340074            4 
  346000   0.72204496   -3.2143553    249.43673  0.060076284   0.06221047            7 
  347000   0.71766776   -3.2196512    250.66999  0.060199326  0.062082605            2 
  348000   0.70134156   -3.2344461    249.89114  0.059839833   0.06195465            3 
  349000   0.71552183   -3.2247453    250.81326  0.059888554  0.061825589            4 
  350000   0.69710845   -3.2307242    251.44641  0.059868192  0.061697501            3 
  351000   0.71596301   -3.2307038    251.51194  0.059713187  0.061569018            7 
  352000   0.69610846   -3.2393632    251.16267   0.05946086  0.061441476            7 
  353000   0.69786892   -3.2263059    251.83004  0.059449962  0.061313686            9 
  354000   0.70524738   -3.2285093    251.72876  0.059258183  0.061187014            4 
  355000   0.70875188   -3.2515899    251.30141  0.058990942  0.061057986            6 
  356000   0.69213277   -3.2517207        251.8  0.058941947  0.060928953            5 
  357000   0.70153664   -3.2361267    252.47213  0.058933737  0.060799117            2 
  358000   0.69497223   -3.2430189    251.85663  0.058625845  0.060669559            3 
  359000   0.70321251   -3.2506751    252.92278  0.058710023   0.06054077            3 
  360000   0.68695802   -3.2468016    252.48559  0.058445739   0.06041126            5 
  361000   0.70659603    -3.256641    253.37636  0.058489465  0.060283282            5 
  362000   0.69261135   -3.2522469     253.5271  0.058362592  0.060156381            8 
  363000   0.69160148   -3.2680588    252.76669  0.058027248  0.060028021            3 
  364000   0.67342011   -3.2565563    254.17673  0.058190643  0.059900345            4 
  365000   0.68433142   -3.2663332    254.19425  0.058035216  0.059772563            5 
  366000   0.66628497   -3.2690092    253.65536  0.057753953  0.059644042            4 
  367000   0.68452023   -3.2667565    253.92458  0.057657715  0.059515894            4 
  368000   0.67796433   -3.2892389    254.15046  0.057552188  0.059386884            7 
  369000   0.68003737   -3.2784184    254.73371  0.057527939  0.059258253            3 
  370000   0.67759997   -3.2518307    254.36746  0.057289969  0.059130701            4 
  371000   0.68356443   -3.2819507    255.40006  0.057367488  0.059002131           12 
  372000   0.68026506   -3.2900876    255.14524  0.057156191  0.058874483            5 
  373000   0.66108284   -3.3061143    255.60532  0.057105747  0.058746887           11 
  374000   0.67586967   -3.2940103    255.40621  0.056908691  0.058618631           31 
  375000    0.6579841   -3.2954681    255.09679  0.056688175  0.058490092            7 
  376000   0.65173628   -3.2728031    255.87117  0.056709035  0.058361606            3 
  377000   0.67286149   -3.2887186    255.04605  0.056376228   0.05823281            6 
  378000   0.66423226   -3.2986076    255.29655  0.056282308  0.058104762            8 
  379000   0.64443782   -3.3039459     256.0041  0.056289379  0.057976818            4 
  380000   0.67287941   -3.2810644    256.70306  0.056294532  0.057849436            2 
  381000   0.66783251   -3.3046696    255.89345  0.055969695   0.05772209            3 
  382000   0.66949075   -3.3119833    256.59016  0.055975167  0.057594739            4 
  383000   0.65132326   -3.3115722    255.94083  0.055687734  0.057466437            5 
  384000   0.62956427   -3.2985082    256.94072  0.055759705  0.057338573            3 
  385000   0.65660198    -3.310074    256.78662   0.05558152  0.057210343           13 
  386000   0.65774921   -3.3082596    256.37075  0.055347744  0.057082313            8 
  387000   0.66999963   -3.3223081    256.48558  0.055229453  0.056953614            5 
  388000   0.64642863   -3.3321846    257.48757  0.055302312   0.05682511            6 
  389000   0.65949009   -3.3037518    257.43621  0.055149145  0.056697817            4 
  390000   0.64016587   -3.3387217    257.68078  0.055059995  0.056569871            5 
  391000    0.6485608   -3.3339085    258.33268  0.055058116  0.056443092            5 
  392000   0.65816649   -3.3465243    257.89072  0.054823708  0.056316147            7 
  393000   0.63029658     -3.31847    258.21725  0.054753446  0.056188999            2 
  394000   0.64155017   -3.3384545    258.35152  0.054642876  0.056062505            4 
  395000   0.63732829    -3.367845    258.58496  0.054553788  0.055935277            7 
  396000   0.63360498   -3.3559295    258.25931  0.054347498   0.05580825            8 
  397000   0.61507732   -3.3599826    259.40521  0.054451136    0.0556824            5 
  398000   0.65212016   -3.3375428    258.87173  0.054202624  0.055556273            7 
  399000   0.63390974   -3.3587947    258.95397  0.054083953  0.055430376            7 
  400000   0.61589286   -3.3515143    258.55665  0.053865968  0.055304496            7 
  401000    0.6250769   -3.3594795    259.01646  0.053827195  0.055178602            6 
  402000   0.61947657   -3.3521345    259.62453  0.053819347  0.055052742            6 
  403000   0.61881429   -3.3705974    259.53504  0.053667295  0.054927086            5 
  404000   0.61668467   -3.3548451    259.62708   0.05355344  0.054803161            5 
  405000    0.6221345   -3.3826758    259.40834  0.053376202  0.054679327            8 
  406000   0.62714576   -3.3677233    260.14152  0.053395222  0.054555167            4 
  407000   0.62569878   -3.3779622    259.58701  0.053150493  0.054431345            4 
  408000   0.62857997   -3.3776669    259.82848  0.053069542  0.054307788           19 
  409000   0.61789345   -3.3607815    260.54754  0.053086295  0.054184254            3 
  410000   0.63090183   -3.3802714     260.5253  0.052952297  0.054059948            5 
  411000   0.61788794   -3.3883552    260.14252  0.052745847   0.05393551            5 
  412000   0.60880019   -3.4136319    259.55422  0.052498831  0.053810715            5 
  413000   0.60041982   -3.3671233    260.57494  0.052577671  0.053685995            7 
  414000   0.60050742   -3.3879703    261.13749  0.052563907  0.053562776            5 
  415000   0.60715496   -3.4080625    260.40194  0.052289545  0.053439032           15 
  416000   0.60741051   -3.3965528    260.80897  0.052245386  0.053314549            7 
  417000   0.59816506   -3.3983234     261.4265  0.052243504  0.053192162            6 
  418000   0.60052008   -3.4029209    261.11497  0.052056414  0.053069965            5 
  419000   0.59090403    -3.407986    260.58854  0.051827474  0.052947878            8 
  420000   0.59662569   -3.4151312    261.76805  0.051938106  0.052826517           14 
  421000   0.61367565   -3.4237789    261.85568  0.051832081  0.052704854            8 
  422000   0.60340893   -3.4021255    262.07489  0.051752545  0.052583814           15 
  423000    0.5972228     -3.42048    262.04534  0.051624378  0.052462786           13 
  424000   0.60125712   -3.4342136    261.90477  0.051474995  0.052341764           12 
  425000   0.59504234   -3.4306517    262.04812  0.051381985  0.052221497           13 
  426000   0.58829196   -3.4245367     262.2621  0.051303228  0.052101636            5 
  427000   0.59369211   -3.4114255    262.30151   0.05119077  0.051981333           15 
  428000   0.58855514   -3.4169215    262.74666  0.051157839  0.051862269           11 
  429000   0.57913185   -3.4235491    262.82668  0.051054133  0.051742322            4 
  430000   0.57789439   -3.4554258    261.65201  0.050707754  0.051622227           14 
  431000   0.58056457   -3.4381651    262.29484  0.050714393  0.051502601            7 
  432000   0.57523538   -3.4253206    262.60089  0.050656036  0.051383073           13 
  433000   0.58418694    -3.457565    262.98802  0.050613553   0.05126458           17 
  434000   0.58123638   -3.4345769     262.9383  0.050487385  0.051145642            8 
  435000   0.56965688   -3.4510478    263.58081  0.050494407  0.051026977           13 
  436000   0.56036703   -3.4642602    263.25065  0.050315491  0.050908275           11 
  437000   0.58241576   -3.4680681    264.16393  0.050374511  0.050790257           11 
  438000    0.5600341   -3.4548339    263.04471  0.050046558    0.0506733           11 
  439000   0.56438533   -3.4514179     263.3465  0.049989845  0.050556043            6 
  440000   0.55026553   -3.4720545    262.80946  0.049774518  0.050438352           25 
  441000   0.55222959   -3.4809052    263.29264  0.049752955  0.050319998           22 
  442000   0.55890423   -3.4637582    263.47166  0.049674143  0.050202608           19 
  443000   0.55646884   -3.4637974    263.53122  0.049573216  0.050085878           12 
  444000   0.55972268   -3.4785204    263.56856  0.049468573  0.049969114            4 
  445000   0.55218407   -3.4789459    263.27341  0.049302137  0.049852268            8 
  446000   0.55946189   -3.4741557    263.25404  0.049187974  0.049735579           11 
  447000   0.55444986   -3.4901655     263.1608  0.049060552  0.049617517           11 
  448000   0.53447123   -3.4994342    262.39663  0.048808897  0.049499218           13 
  449000   0.55269767   -3.4815075     263.2564  0.048859763  0.049381505           14 
  450000   0.54802789   -3.4845721    263.43609  0.048784462  0.049264644           11 
  451000   0.54973709   -3.5028788     262.7416  0.048547967  0.049147218           16 
  452000   0.53724379   -3.5187695    263.21096  0.048527094   0.04902993           22 
  453000   0.54564615   -3.4949822    263.70461  0.048510782  0.048912705           15 
  454000   0.53627387   -3.5031785    262.97288  0.048269619  0.048795741           17 
  455000   0.54243384   -3.5026396    262.80419  0.048132635  0.048678921           14 
  456000   0.54896663   -3.4999799    263.28547  0.048115034  0.048562636            5 
  457000   0.53836548   -3.4932888     263.8784   0.04811787   0.04844718            7 
  458000   0.53936877   -3.5066343    263.99566  0.048034145  0.048331975           10 
  459000   0.53731022   -3.5260013    263.76536  0.047887684  0.048216764           11 
  460000   0.54895943   -3.5271026    263.82251  0.047793933  0.048101633           12 
  461000    0.5268143   -3.5164686    264.20357  0.047759142  0.047987461           10 
  462000   0.53105943    -3.515474    263.50475  0.047529716   0.04787365           14 
  463000    0.5197104   -3.5166729    264.32888  0.047575392  0.047759028            8 
  464000   0.53004184   -3.5330546    263.65745  0.047352273  0.047644431           26 
  465000   0.52440998   -3.5156013    263.86855   0.04728827  0.047529625           32 
  466000   0.52874692   -3.5206737    263.73647  0.047163174  0.047415737           15 
  467000   0.52834049    -3.538373    263.65921  0.047048395  0.047301068           13 
  468000   0.54147893   -3.5226214    263.99079  0.047006907  0.047187258            7 
  469000   0.51533461   -3.5392755     263.9326  0.046896339  0.047073105            6 
  470000   0.51405176    -3.542535    263.66869  0.046749767  0.046958408           13 
  471000   0.50574463   -3.5434726    262.92235  0.046518462  0.046844613            7 
  472000   0.50613652   -3.5450784    263.31768  0.046489703  0.046730541           12 
  473000   0.52275234    -3.545485    262.99908  0.046335285  0.046617036           19 
  474000   0.50129446   -3.5516557    263.15884  0.046265619   0.04650304           22 
  475000   0.50580516   -3.5478984    264.34629  0.046376543  0.046389884           10 
  476000   0.49595322   -3.5626814     263.9346  0.046207038  0.046277096           17 
  477000   0.49576896    -3.565592    264.24131  0.046163752  0.046164651            9 
  478000   0.49771672   -3.5687619    263.83705  0.045996696  0.046051564           20 
  479000   0.50721429   -3.5840017    263.61649  0.045862298  0.045938762            9 
  480000   0.49232304   -3.5751027    263.65491  0.045773422  0.045826114            9 
  481000   0.49613753   -3.5582849    264.28974  0.045788244  0.045713759           20 
  482000   0.49017127   -3.5860409    264.86451  0.045792619  0.045602329           28 
  483000   0.50089873   -3.5724209    264.17471  0.045578797  0.045491529           38 
  484000    0.5078993   -3.5800435     264.3414  0.045513326  0.045381109           21 
  485000   0.49136983   -3.5917632    264.32377  0.045416455  0.045270393           17 
  486000   0.49318976   -3.5748225    264.26605  0.045313109  0.045160111           18 
  487000   0.49856115   -3.6001605     263.4588   0.04508193  0.045049847           16 
  488000   0.49800953   -3.5987033     264.0549  0.045091343  0.044940057           17 
  489000     0.491558   -3.5957202     264.0046  0.044990559  0.044830136           16 
  490000    0.4818611      -3.6101    263.74956  0.044855367  0.044719998           15 
  491000   0.49048377   -3.6022367     264.2452  0.044848133  0.044610662           12 
  492000   0.48681288   -3.5987521    264.26136  0.044759715  0.044501913           11 
  493000   0.47014253   -3.5961334    264.46253   0.04470293  0.044393065            8 
  494000   0.47967361   -3.6108703    263.74521  0.044491431   0.04428458           11 
  495000   0.46988564   -3.6196287    263.47556  0.044356155  0.044175795           18 
  496000   0.48807533   -3.6197793    263.73902  0.044310992  0.044067252           36 
  497000   0.46459842   -3.5951825    263.34668  0.044156049  0.043958954           17 
  498000   0.47734199   -3.6174311    264.07106  0.044188598  0.043850755            7 
  499000   0.46823456   -3.6271884    263.95382  0.044080464  0.043742723           18 
  500000   0.46017693   -3.6228614    263.24948  0.043874913  0.043634424           18 
  501000   0.46403099   -3.6471519    263.42909  0.043817214  0.043526049           29 
  502000   0.46096485   -3.6367752     264.0639  0.043835309  0.043418379           21 
  503000   0.47159335   -3.6287031    264.51848  0.043823472  0.043311513           12 
  504000   0.45474957   -3.6400964    263.95951  0.043644099  0.043205091           59 
  505000   0.46542603   -3.6514261    264.28713  0.043611738  0.043098279           67 
  506000   0.45445355   -3.6385699    263.91026  0.043463482  0.042992139           13 
  507000   0.45869999   -3.6521797    264.12534  0.043413107  0.042885905           18 
  508000   0.45499874   -3.6388304    263.68168  0.043254869  0.042779853           47 
  509000   0.45865793   -3.6551476    263.91566  0.043208196  0.042674075           27 
  510000   0.45301326   -3.6626134     263.6142  0.043074216  0.042568114           44 
  511000   0.45011338   -3.6590828    263.72787   0.04300846  0.042462228           26 
  512000   0.45770619   -3.6561672    263.24008  0.042845066  0.042356638           42 
Loop time of 1206.54 on 48 procs for 500000 steps with 4000 atoms

Performance: 71609.522 tau/day, 414.407 timesteps/s
99.4% CPU use with 48 MPI tasks x no OpenMP threads

MPI task timing breakdown:
Section |  min time  |  avg time  |  max time  |%varavg| %total
---------------------------------------------------------------
Pair    | 78.386     | 83.843     | 91.052     |  31.8 |  6.95
Neigh   | 8.1114     | 8.4495     | 8.9005     |   6.2 |  0.70
Comm    | 78.425     | 84.588     | 90.78      |  30.6 |  7.01
Output  | 0.85908    | 0.85951    | 0.86783    |   0.1 |  0.07
Modify  | 1013.8     | 1017.2     | 1020.1     |   4.8 | 84.31
Other   |            | 11.6       |            |       |  0.96

Nlocal:        83.3333 ave          90 max          76 min
Histogram: 2 0 4 6 7 16 3 5 3 2
Nghost:        2188.08 ave        2207 max        2174 min
Histogram: 6 2 5 10 6 7 8 3 0 1
Neighs:        14521.9 ave       16225 max       12773 min
Histogram: 1 2 3 7 14 9 4 4 1 3
FullNghs:      29043.4 ave       31577 max       26387 min
Histogram: 2 0 4 7 10 11 5 5 2 2

Total # of neighbors = 1394082
Ave neighs/atom = 348.52050
Neighbor list builds = 27116
Dangerous builds = 0

#clear
#
#next RN
#
#jump SELF
Total wall time: 0:20:09
