
units lj                  # Use reduced LJ style units
atom_style atomic         # Uncharged point particles
atom_modify map hash      # Needed for indexing of clusters etc
                          # Used to be able to find where atoms are in relation to each other.

lattice fcc 1.0 spacing 1 1 1
Lattice spacing in x,y,z = 1.5874011 1.5874011 1.5874011
region box block 0 10 0 10 0 10 units lattice
create_box 2 box
Created orthogonal box = (0.0000000 0.0000000 0.0000000) to (15.874011 15.874011 15.874011)
  3 by 4 by 4 MPI processor grid
create_atoms 1 box
Created 4000 atoms
  using lattice units in orthogonal box = (0.0000000 0.0000000 0.0000000) to (15.874011 15.874011 15.874011)
  create_atoms CPU = 0.002 seconds
set type 1 type/fraction 2 0.39 78393
Setting atom values ...
  1580 settings made for type/fraction
mass 1 1.0
mass 2 1.0
pair_style lj/cut  3.5
pair_modify tail  yes
pair_coeff 1  1  1.0  1.0   # Intearaction between 1 and 1 set with epsilon = 1 and sigma = 1
pair_coeff 1  2  1.5  0.8
pair_coeff 2  2  0.5  0.88

write_data data.0
System init for write_data ...
Neighbor list info ...
  update every 1 steps, delay 10 steps, check yes
  max neighbors/atom: 2000, page size: 100000
  master list distance cutoff = 3.8
  ghost atom cutoff = 3.8
  binsize = 1.9, bins = 9 9 9
  1 neighbor lists, perpetual/occasional/extra = 1 0 0
  (1) pair lj/cut, perpetual
      attributes: half, newton on
      pair build: half/bin/atomonly/newton
      stencil: half/bin/3d
      bin: standard
WARNING: Not all mixed pair coeffs generated from mixing. Use write_data with 'pair ij' option to store all pair coeffs. (../write_data.cpp:312)


#############################
#   M E L T   S Y S T E M   #
#############################

velocity all create 2.4 6583654 mom yes dist gaussian # Assign velocities
                                                    # Temperature 2.4, random number seed, zero linear momentum
                                                                                # Gaussian distribution

timestep 0.002   # simulation timestep
thermo 1000       # output thermodynamic data every 1000 steps bf 100

# Define a fix  in this case with index 1 applied to all
# particles in the simulation. This fix is for simulations
# in the anisotropic NPT ensemble. Note that we use the MTK
# correction.
fix 1 all npt temp 2.4 2.4 0.1 iso 5.68 5.68 0.5 mtk yes tchain 5 pchain 5 # Use NPT ensemble
                                                                         # Set temperature and pressure and damping
                                                                         # Numbers of thermostats in chain and in barostat
run 10000          # run for 10000 steps
Per MPI rank memory allocation (min/avg/max) = 3.642 | 3.644 | 3.648 Mbytes
Step Temp E_pair E_mol TotEng Press Volume 
       0          2.4   -5.9084669            0   -2.3093669   -4.1681406         4000 
    1000    2.4441985   -5.0486176            0   -1.3832364    5.5309043     3910.179 
    2000    2.3954208   -5.0553724            0   -1.4631396    5.5193009    3920.1489 
    3000    2.3933525   -5.0619033            0    -1.472772    5.4155882    3916.0769 
    4000    2.4404437   -5.0433078            0   -1.3835573    5.5384955    3923.1493 
    5000    2.3886736   -5.0519189            0   -1.4698043    5.3053364    3932.0269 
    6000    2.4053181   -5.0732737            0   -1.4661985    5.9306678    3871.0959 
    7000    2.4323419   -5.0260484            0   -1.3784477    5.3554124    3949.2182 
    8000    2.3455004   -5.0501719            0   -1.5328009     5.256158    3921.4285 
    9000    2.3546143   -5.0024097            0   -1.4713712    5.4910676    3927.9134 
   10000    2.4123889   -5.0266144            0   -1.4089357    5.9336659     3889.409 
Loop time of 2.64625 on 48 procs for 10000 steps with 4000 atoms

Performance: 653000.407 tau/day, 3778.938 timesteps/s
99.5% CPU use with 48 MPI tasks x no OpenMP threads

MPI task timing breakdown:
Section |  min time  |  avg time  |  max time  |%varavg| %total
---------------------------------------------------------------
Pair    | 1.1078     | 1.1815     | 1.2989     |   4.3 | 44.65
Neigh   | 0.20334    | 0.21826    | 0.23585    |   1.4 |  8.25
Comm    | 0.76824    | 0.93691    | 1.0264     |   6.2 | 35.41
Output  | 0.00025605 | 0.00026159 | 0.00034868 |   0.0 |  0.01
Modify  | 0.23491    | 0.29309    | 0.34615    |   5.4 | 11.08
Other   |            | 0.0162     |            |       |  0.61

Nlocal:        83.3333 ave          91 max          74 min
Histogram: 1 4 3 2 7 14 3 9 2 3
Nghost:        1674.73 ave        1698 max        1647 min
Histogram: 2 0 2 10 7 9 7 2 7 2
Neighs:        9812.12 ave       10907 max        8415 min
Histogram: 1 2 7 2 4 9 9 6 6 2

Total # of neighbors = 470982
Ave neighs/atom = 117.74550
Neighbor list builds = 907
Dangerous builds = 223

# Equilibrate just above the melting temperature to avoid step fn in T

fix 1 all npt temp 1.25 1.25 0.1 iso 5.68 5.68 0.5 mtk yes tchain 5 pchain 5
run 2000
Per MPI rank memory allocation (min/avg/max) = 3.643 | 3.645 | 3.649 Mbytes
Step Temp E_pair E_mol TotEng Press Volume 
   10000    2.4123889   -5.0266144            0   -1.4089357    5.9336659     3889.409 
   11000    1.2510891   -7.0225938            0   -5.1464293    5.8223595    3103.5662 
   12000     1.261234   -7.0336159            0   -5.1422379    5.9937038    3092.8319 
Loop time of 0.600552 on 48 procs for 2000 steps with 4000 atoms

Performance: 575470.953 tau/day, 3330.272 timesteps/s
99.6% CPU use with 48 MPI tasks x no OpenMP threads

MPI task timing breakdown:
Section |  min time  |  avg time  |  max time  |%varavg| %total
---------------------------------------------------------------
Pair    | 0.2701     | 0.29356    | 0.3157     |   1.8 | 48.88
Neigh   | 0.039472   | 0.041874   | 0.046648   |   0.7 |  6.97
Comm    | 0.19168    | 0.21546    | 0.23706    |   2.4 | 35.88
Output  | 5.2069e-05 | 5.3245e-05 | 6.9729e-05 |   0.0 |  0.01
Modify  | 0.041634   | 0.044744   | 0.05062    |   1.1 |  7.45
Other   |            | 0.00486    |            |       |  0.81

Nlocal:        83.3333 ave          89 max          76 min
Histogram: 1 2 0 8 11 3 13 4 0 6
Nghost:        1953.85 ave        1985 max        1925 min
Histogram: 1 1 9 5 8 9 9 3 1 2
Neighs:        12354.5 ave       13486 max       11039 min
Histogram: 1 2 4 8 6 7 6 10 1 3

Total # of neighbors = 593014
Ave neighs/atom = 148.25350
Neighbor list builds = 143
Dangerous builds = 13

#############################
# L I N E A R  Q U E N C H  #
#############################

# Define solid atoms. This closely follows ten Wolde  Ruiz-Montero and Frenkel  Faraday Discuss  1996  104  93-110
# Compute components of the per-atom q6 vector
compute q6 all orientorder/atom degrees 1 6 components 6 nnn NULL cutoff 1.3 # compute the Q6 parameter.
                                                                             # Use all neighbours within 1.3 unit cell.

# get number of connections
compute coord_number all coord/atom orientorder q6 0.5

# An atom is solid if it has 8 or more connections (of a possible 14)
variable is_solid atom c_coord_number>=8
group solid dynamic all var is_solid    # Must be dynamic to update
dynamic group solid defined

# do clustering
compute cluster solid cluster/atom 1.3 # Create a cluster where all atoms within are solid and max 1.3 units from another member

# define chunks one chunk per cluster
compute clus_chunks solid chunk/atom c_cluster nchunk every compress yes  # Says which atoms are in which chunk

# count the size of each chunk
compute size_chunks solid property/chunk clus_chunks count


# Find the maximum entry in the vector of chunk sizes
variable max_n equal max(c_size_chunks)


# Thermo style which includes this variable
# thermo_style custom step temp pe vol v_max_n

thermo ${N}  # Print the thermo information every 100 steps
thermo 1000  

# Reset the npt fix at a lower temperature (below freezing)
fix 1  all npt temp  ${temp} ${temp}  0.1  iso  5.68  5.68  0.5  mtk yes tchain  5  pchain  5
fix 1  all npt temp  0.45 ${temp}  0.1  iso  5.68  5.68  0.5  mtk yes tchain  5  pchain  5
fix 1  all npt temp  0.45 0.45  0.1  iso  5.68  5.68  0.5  mtk yes tchain  5  pchain  5

dump dmp2 all dcd ${N} traj.dcd
dump dmp2 all dcd 1000 traj.dcd


compute msd all msd com yes
variable twopoint equal c_msd[4]/6/(step*dt+1.0e-6)
fix 9 all vector 10 c_msd[4]
variable fit equal slope(f_9)/6/(10*dt)
thermo_style custom step temp pe c_msd[4] v_twopoint v_fit v_max_n

fix 1 all npt temp 1.25 ${temp} 0.1 iso 5.68 5.68 0.5 mtk yes tchain 5 pchain 5
fix 1 all npt temp 1.25 0.45 0.1 iso 5.68 5.68 0.5 mtk yes tchain 5 pchain 5
run 5000000 # 5000000  # Run for this many steps
Neighbor list info ...
  update every 1 steps, delay 10 steps, check yes
  max neighbors/atom: 2000, page size: 100000
  master list distance cutoff = 3.8
  ghost atom cutoff = 3.8
  binsize = 1.9, bins = 8 8 8
  4 neighbor lists, perpetual/occasional/extra = 1 3 0
  (1) pair lj/cut, perpetual
      attributes: half, newton on
      pair build: half/bin/atomonly/newton
      stencil: half/bin/3d
      bin: standard
  (2) compute orientorder/atom, occasional
      attributes: full, newton on
      pair build: full/bin/atomonly
      stencil: full/bin/3d
      bin: standard
  (3) compute coord/atom, occasional
      attributes: full, newton on
      pair build: full/bin/atomonly
      stencil: full/bin/3d
      bin: standard
  (4) compute cluster/atom, occasional
      attributes: full, newton on
      pair build: full/bin/atomonly
      stencil: full/bin/3d
      bin: standard
Per MPI rank memory allocation (min/avg/max) = 9.824 | 9.829 | 9.835 Mbytes
Step Temp PotEng c_msd[4] v_twopoint v_fit v_max_n 
   12000     1.261234   -7.0336159 1.0420853e-30 7.2367029e-33 8.3333333e+20            1 
   13000    1.2657366   -7.0382324   0.46049973 0.0029519212   0.03679267            1 
   14000    1.2897016   -7.0923263   0.92730606 0.0055196787  0.037943204            4 
   15000    1.2492946   -7.0972371    1.3542558 0.0075236432  0.037376222            1 
   16000    1.2813566   -7.0913387    1.8267265 0.0095142003  0.037677097            2 
   17000    1.2628114   -7.0900581    2.2315684  0.010939061  0.037462517            2 
   18000    1.2459836   -7.0970189    2.6537207  0.012285744  0.037048005            1 
   19000    1.2372581   -7.0867087     3.058777  0.013415688  0.036592565            2 
   20000    1.2550099   -7.0874023     3.467302  0.014447091  0.036157026            1 
   21000    1.2479654   -7.0594608    3.8989817  0.015472149  0.035899005            1 
   22000    1.2659785   -7.0730476    4.3017849  0.016294639  0.035588334            2 
   23000    1.2509492   -7.0618374    4.6931663  0.017004225  0.035387661            1 
   24000    1.2852934   -7.1201164    5.1040587  0.017722426  0.035184375            3 
   25000    1.2455737   -7.1353531    5.6025388  0.018675129   0.03517462            2 
   26000    1.2689508   -7.1114762    5.9807123  0.019168949  0.035204607            2 
   27000    1.2598024   -7.0832006    6.4023924   0.01976047  0.035201562            2 
   28000    1.2457005   -7.1081531    6.8590295  0.020413778  0.035171416       -1e+20 
   29000    1.2567008   -7.0706766    7.3689588  0.021175169  0.035258186            1 
   30000    1.2665212   -7.1154879    7.7420881    0.0215058  0.035319205            1 
   31000    1.2328421   -7.1060532    8.1442521   0.02189315  0.035376833            1 
   32000    1.2462925   -7.1088841    8.5578044  0.022285949  0.035414414            3 
   33000    1.2325965   -7.1039109    8.9376656  0.022569862   0.03541186            2 
   34000    1.2467619   -7.0662867    9.4783606  0.023231276  0.035416099            1 
   35000    1.2399434   -7.0675509    9.9283175  0.023638851  0.035470082            1 
   36000    1.2681614   -7.0892725    10.217701  0.023652085  0.035455877            1 
   37000    1.2433246   -7.1261691    10.671415  0.024034718  0.035399686            2 
   38000    1.2500425   -7.0962068    10.986086  0.024092293  0.035338092            1 
   39000    1.2394282   -7.0894849    11.399917  0.024358796  0.035253933            1 
   40000    1.2287956   -7.1353326    11.725538  0.024428204  0.035149852            2 
   41000    1.2512969    -7.074478    12.198303  0.024793299  0.035069881            1 
   42000     1.250621   -7.0875162    12.586729  0.024973668  0.034998269            1 
   43000    1.2368755   -7.1261134    13.029659  0.025251277  0.034942365            4 
   44000    1.2475156   -7.0872932    13.664937  0.025880562  0.034941252            1 
   45000    1.2836106   -7.1032563     14.00372  0.025932815  0.034978879            1 
   46000    1.2657673   -7.0692125    14.439916  0.026159269  0.034993751            2 
   47000    1.2667013   -7.1516216    14.936146  0.026482528  0.035025922            2 
   48000    1.2519423   -7.0583975    15.430305  0.026788724  0.035066928            2 
   49000    1.2618138   -7.0830529    15.771172  0.026821721  0.035096337            1 
   50000    1.2826472    -7.129909    16.227589  0.027045981  0.035144696            2 
   51000    1.2260997   -7.1214511    16.771444  0.027404321  0.035212149            1 
   52000    1.2115867   -7.1112489    17.278368  0.027689693  0.035278115            2 
   53000    1.2550463    -7.149337    17.813192  0.028008164  0.035357206            1 
   54000    1.2367688   -7.0714334    18.204965  0.028094081  0.035440368            2 
   55000    1.2382777   -7.0903457    18.700899  0.028334695  0.035533728            1 
   56000    1.2226627   -7.1177808    19.137347  0.028478195  0.035621498            2 
   57000    1.2330797   -7.1149054    19.645138  0.028720962  0.035703359            2 
   58000    1.2300084   -7.1315154    19.819336  0.028476058  0.035760736            1 
   59000    1.2410634   -7.1049158    20.213103   0.02854958  0.035772476            2 
   60000    1.2444893   -7.1107352    20.751157  0.028821052   0.03578914            2 
   61000    1.2365039   -7.1024783    21.213851  0.028980671  0.035810077            1 
   62000    1.2686281   -7.1223521    21.531705  0.028940463  0.035835194            1 
   63000    1.2598284   -7.1666867    22.019468   0.02912628  0.035856036            1 
   64000    1.2459054    -7.112075    22.502925  0.029300684  0.035884283            2 
   65000    1.2169664    -7.116345    23.051706   0.02955347  0.035915451            1 
   66000    1.2574506   -7.1013331     23.51018  0.029684571  0.035951458            1 
   67000    1.2384717   -7.0762139    23.820453  0.029627429  0.035984603            2 
   68000    1.2449537   -7.1140425    24.428193  0.029936511   0.03601734       -1e+20 
   69000    1.2448483   -7.1442392    24.742716  0.029882507  0.036050792            2 
   70000    1.2482903   -7.0826807     25.50268  0.030360333  0.036109619            1 
   71000    1.2344265   -7.1130642    26.081043  0.030611552  0.036186496            1 
   72000    1.2526552   -7.1092147    26.459263  0.030624147  0.036257038            1 
   73000     1.229141   -7.0920715    26.810193  0.030605242  0.036315527            1 
   74000    1.2196915   -7.1064756    27.096786  0.030514398  0.036357846            3 
   75000    1.2059618   -7.1130332    27.674406   0.03074934  0.036396937            2 
   76000     1.244757   -7.1031874    28.221468  0.030944592  0.036441192            3 
   77000     1.269607   -7.0715821    28.576642  0.030927101  0.036474953            2 
   78000    1.2613407   -7.0481216    29.117996   0.03110897  0.036511488            1 
   79000    1.2421804    -7.150492    29.466934  0.031083264  0.036545193            2 
   80000    1.2433934   -7.1070069    29.861753  0.031105993  0.036570674            3 
   81000     1.239567   -7.0571262    30.313508  0.031186737  0.036588748            1 
   82000    1.2243393   -7.1115402     30.80603  0.031306941  0.036606156            2 
   83000    1.2488715   -7.0462306    31.258699  0.031384235  0.036631846            1 
   84000    1.2402088    -7.119597     31.57499  0.031324394   0.03665683            1 
   85000    1.2422882   -7.0693963     32.08247  0.031453402  0.036671536            1 
   86000    1.2448077   -7.1248317    32.568395  0.031558522   0.03668401            5 
   87000     1.204698   -7.0880866     32.94237  0.031553994  0.036699489            2 
   88000    1.2198882   -7.1399849    33.267333  0.031503156   0.03670977            2 
   89000    1.2578207   -7.1035377    33.591993  0.031453177  0.036704693            2 
   90000    1.2244542   -7.0968763    33.860667  0.031352469  0.036687846            1 
   91000    1.2664973   -7.1646061    34.115299  0.031241116  0.036672269            2 
   92000     1.228013   -7.1021369    34.673259  0.031406937  0.036649114            2 
   93000    1.2445001   -7.1286778    35.243291  0.031580009  0.036629068            1 
   94000    1.2423378   -7.1399867    35.594514   0.03155542  0.036616126            1 
   95000    1.2118803   -7.1316424    36.018998  0.031595612  0.036600956            1 
   96000    1.2109615   -7.1270808    36.175331  0.031402197  0.036577542            2 
   97000     1.216306   -7.1483639    36.635376   0.03147369  0.036545413            1 
   98000    1.2286719   -7.1342845    37.139021    0.0315808  0.036519228            2 
   99000    1.2464816    -7.089658    37.412568  0.031492061  0.036486437            3 
  100000    1.2092273   -7.1161663    37.916527  0.031597106  0.036453071            2 
  101000    1.2370696   -7.1091037    38.354219  0.031645395   0.03642669            1 
  102000    1.2441159   -7.0678013    38.788507  0.031689957  0.036398329            1 
  103000    1.2231692   -7.1559052    38.932364  0.031498676  0.036361812            3 
  104000    1.2070043    -7.145735    39.354006  0.031533659  0.036323772            2 
  105000    1.2448305   -7.1378625    39.856987  0.031632529  0.036286298            2 
  106000    1.2367679   -7.1611191    40.057911  0.031492068   0.03624674            1 
  107000    1.2310323   -7.1789276    40.396952  0.031461801  0.036207481            1 
  108000    1.2371196   -7.1289239    40.955314  0.031601323  0.036168584            1 
  109000    1.2346568   -7.1154172     41.26523  0.031548341  0.036128928            1 
  110000    1.2318276   -7.0988859    41.655705  0.031557352  0.036091004            2 
  111000    1.2262249   -7.0831032    42.247887  0.031717633  0.036053671       -1e+20 
  112000    1.2326054    -7.143879    42.484291  0.031610335  0.036017088            1 
  113000     1.236751   -7.1860159    42.737356  0.031517224  0.035977618            2 
  114000    1.2519715   -7.1461032    43.236418  0.031605568  0.035941307            1 
  115000    1.2393948   -7.1299491    43.700732  0.031667197  0.035908651            3 
  116000    1.2266418    -7.126097    44.176157  0.031735745  0.035880028            2 
  117000    1.2316682   -7.1636838    44.545071  0.031727259  0.035847998            1 
  118000    1.2289325   -7.1625603    44.719036   0.03158124  0.035811503            1 
  119000    1.2402234   -7.1383003    45.057419  0.031552814  0.035773593            1 
  120000     1.251672   -7.1134477    45.475945  0.031580517  0.035731123            2 
  121000    1.2472447   -7.1525494    45.687656  0.031465328  0.035682384            2 
  122000    1.2286089   -7.1505996    46.114338  0.031498865  0.035639996            1 
  123000    1.2401831   -7.1444291    46.346112  0.031399805  0.035590912            1 
  124000    1.2416898   -7.1212885    46.738271  0.031410128  0.035539957            4 
  125000    1.2364136   -7.0960499    47.071328  0.031380885  0.035487626            2 
  126000    1.2218077   -7.0971978    47.647076  0.031512616  0.035439411            2 
  127000     1.241051   -7.1429413    48.010563  0.031502994   0.03539322            2 
  128000    1.2259046   -7.1402017    48.289845  0.031438701  0.035350519            1 
  129000    1.2249196   -7.1433748    48.779975  0.031511611    0.0353107            3 
  130000    1.2331781     -7.12886    49.072026  0.031456427  0.035271308            1 
  131000    1.2410593    -7.155044    49.578638  0.031538574  0.035230729            1 
  132000    1.2253275   -7.1178798    49.941027  0.031528426  0.035188977            2 
  133000    1.2536434   -7.1372338    50.157509  0.031427011  0.035150365            3 
  134000    1.2190292   -7.1555696    50.583372  0.031457321  0.035112477            1 
  135000    1.2342065   -7.1412279    51.011123  0.031488347  0.035074568            1 
  136000    1.2212826    -7.110902    51.655238  0.031651494  0.035042713            3 
  137000    1.2488252   -7.1524363    51.982462  0.031619502  0.035010367       -1e+20 
  138000    1.2460382   -7.1394714    52.529656  0.031720806  0.034980682            2 
  139000    1.2215879   -7.1354455    52.836601  0.031676619   0.03495174            2 
  140000    1.2189686   -7.1657554    53.361985  0.031763086  0.034925716            1 
  141000    1.2184688   -7.1294305    54.240628  0.032057108  0.034910965            2 
  142000    1.2422042   -7.1397439    54.370851  0.031907776  0.034894147            2 
  143000    1.2158019   -7.0595959    54.893133  0.031989005  0.034880438            4 
  144000    1.2274948   -7.1379335    55.233149  0.031963628  0.034864638            2 
  145000    1.2213272   -7.1220869    55.880497  0.032115228  0.034849425            1 
  146000    1.2379082   -7.1547878    56.123065  0.032033713  0.034835908            2 
  147000     1.238594    -7.144088    56.473312  0.032014349  0.034819267            1 
  148000     1.211259   -7.1080484    56.722095  0.031938116  0.034801395            2 
  149000    1.2435835     -7.15229    56.955534  0.031854325  0.034782126            1 
  150000    1.2098196   -7.1314016    57.524792  0.031958218  0.034762782            1 
  151000    1.2269073   -7.1154134    57.866108  0.031934938  0.034741991            1 
  152000    1.2455306    -7.137965    58.333912  0.031981311  0.034723344            5 
  153000    1.2398066   -7.1667846    58.541357   0.03188527   0.03470455            2 
  154000    1.2492243   -7.1512679    58.892226  0.031868087  0.034684592            3 
  155000    1.2377105   -7.1315779    59.270273  0.031865738  0.034665373            1 
  156000    1.2331558    -7.147855     59.78753  0.031937783   0.03464648            1 
  157000    1.2414081   -7.1262433     60.29497  0.032003699  0.034628775            2 
  158000    1.1934001   -7.1243598    60.489169   0.03190357  0.034611487            1 
  159000    1.2188766   -7.1525509    60.841965  0.031887822  0.034593286            1 
  160000    1.2055498   -7.1350299    61.454414  0.032007507    0.0345765            1 
  161000    1.2165936   -7.1481336    61.669088  0.031919818   0.03456062            1 
  162000    1.2268829    -7.126451    62.391005  0.032094138  0.034548216            1 
  163000    1.2238806    -7.172385    62.931936  0.032173791  0.034536615            1 
  164000    1.2000209   -7.1500067    63.061374  0.032043381  0.034524859            2 
  165000    1.2339752   -7.1547789    63.600922  0.032121678  0.034511667            2 
  166000    1.2263866   -7.1603512    64.001036  0.032129034  0.034501071            1 
  167000    1.2271521   -7.1278635    64.438246  0.032154813  0.034491285            1 
  168000    1.2171322   -7.1463749    64.611708  0.032049458  0.034477465            1 
  169000     1.207267   -7.1577272    65.005143  0.032053818  0.034462774            1 
  170000    1.2149469    -7.160788    65.174525  0.031948297  0.034446903            2 
  171000     1.235457   -7.2208443    65.459026   0.03190011  0.034429063            1 
  172000    1.2426277   -7.1727773    66.130521  0.032039981  0.034411487            2 
  173000    1.2043715   -7.1363228    66.365111   0.03196778   0.03439411            1 
  174000    1.2241682   -7.1866988    66.645234  0.031918215  0.034379071            3 
  175000    1.2273418   -7.1782811    67.122364   0.03196303  0.034363715            1 
  176000    1.2183932   -7.1019588    67.499324  0.031959907  0.034346631            1 
  177000    1.2284208   -7.1767448    67.674319  0.031861732   0.03432506            3 
  178000    1.2152563   -7.1545638    68.043275  0.031855466    0.0343017            2 
  179000    1.2347956   -7.1265324    68.469029  0.031875712   0.03428165            1 
  180000    1.2051587   -7.1299413     68.81749  0.031859949   0.03425874            2 
  181000    1.2376817   -7.1837901    69.350699  0.031929419  0.034239186            1 
  182000    1.2176592   -7.1349823    69.798247  0.031958904  0.034221906            2 
  183000    1.2284701   -7.1623016    70.239917   0.03198539  0.034207684            1 
  184000    1.2460044   -7.1582899    70.526352  0.031941283  0.034192141            1 
  185000    1.2190549   -7.0948354    71.201106   0.03207257   0.03417557            1 
  186000    1.2468592   -7.0995241    71.319195  0.031953044  0.034160581            1 
  187000    1.2056293   -7.1359016    72.084889  0.032123391  0.034147018            2 
  188000    1.2460765   -7.1443164    72.303672    0.0320495  0.034134411            2 
  189000    1.2120766   -7.1438046    72.598563  0.032009948  0.034121594            2 
  190000    1.2119329   -7.2002061    72.570573  0.031829199  0.034103018            1 
  191000    1.1995784   -7.1722045    72.646394  0.031695634  0.034081293            1 
  192000    1.2339938   -7.1377015    73.063296    0.0317115  0.034059361            7 
  193000    1.1746562   -7.1716961    73.356173   0.03167365  0.034035013            3 
  194000    1.2347458   -7.1974359    74.031202  0.031800345  0.034013058            3 
  195000    1.2233087   -7.1602177    74.746982  0.031943154  0.033992675            2 
  196000    1.2406104   -7.1546472    74.987691  0.031882522   0.03397305            2 
  197000    1.2138117   -7.1403181    75.131603  0.031781558  0.033952247            2 
  198000    1.2260092   -7.1691305    75.722963  0.031869934  0.033932138            1 
  199000    1.1984101   -7.1552668    75.526833  0.031627652  0.033912085            1 
  200000     1.208229   -7.1600268    76.151208   0.03172967  0.033892634            3 
  201000    1.2031624   -7.1411839     76.63206  0.031771169  0.033874047            1 
  202000    1.2066451   -7.1461469    77.086367  0.031801307  0.033854051            1 
  203000    1.2200688   -7.1797413    77.199871  0.031691244  0.033833624            1 
  204000    1.2396446   -7.1805198    77.518708  0.031666139  0.033814029            1 
  205000    1.2394979   -7.1994333    78.004411   0.03170911  0.033796203            1 
  206000    1.2142023   -7.1440434    78.739076  0.031852377  0.033777871            2 
  207000    1.2373648   -7.1500204    78.947951  0.031782589  0.033759589            1 
  208000    1.2493593   -7.1991659    79.122824  0.031699849  0.033741943            2 
  209000    1.2076252   -7.1219899    80.016212  0.031904391   0.03372599            1 
  210000    1.2475178   -7.1263595    80.588281  0.031979476  0.033711677            2 
  211000      1.25819   -7.1572947    80.633502  0.031845775  0.033697555            2 
  212000    1.2233393   -7.1362707    80.930725  0.031812392  0.033682728            4 
  213000    1.1975357   -7.1588642    81.304798  0.031809389  0.033667755            1 
  214000    1.2199574   -7.1599995    81.599456  0.031775489  0.033652919            3 
  215000    1.2092458   -7.1102962    81.900464  0.031744366  0.033636423            1 
  216000    1.2113299   -7.1378095    82.018718  0.031643024  0.033617848            2 
  217000    1.1968908   -7.1501383    82.484874  0.031676219  0.033599934            2 
  218000    1.2200974   -7.1460132    82.924526  0.031698978  0.033581726            1 
  219000    1.2193915   -7.1697472    83.262896  0.031682989  0.033562776       -1e+20 
  220000    1.2314696   -7.1713328    83.293276  0.031550483  0.033543933            3 
  221000    1.2256432   -7.1675376    84.157913  0.031733753  0.033526393            2 
  222000    1.1973218   -7.0906751    84.539974  0.031734225  0.033509888            1 
  223000    1.2490444   -7.1948142    84.756106  0.031672685   0.03349421            1 
  224000    1.2134385    -7.150493    85.268816   0.03172203  0.033479944            1 
  225000    1.2263171   -7.1600545    85.860302  0.031800112   0.03346623            1 
  226000    1.2141042   -7.1545148     86.12451  0.031756825  0.033452238            2 
  227000    1.2251198   -7.1778081    86.258736  0.031666202  0.033436016            3 
  228000     1.238135   -7.1627538    86.989307  0.031794337  0.033420603            1 
  229000    1.2221729   -7.1471583    87.084225  0.031690038  0.033406685            1 
  230000    1.2283297   -7.2085954    87.536744  0.031716212  0.033392158            3 
  231000    1.2387621   -7.1661298     87.74564  0.031654271  0.033376458            2 
  232000    1.2075572    -7.158081    88.221688  0.031688825  0.033361149            2 
  233000    1.2076691   -7.1499134    88.465482  0.031640015  0.033345212            1 
  234000    1.2422465   -7.1513338    89.243242  0.031781781  0.033330762            1 
  235000    1.2119948   -7.2034196    89.349032  0.031684054  0.033316183            1 
  236000    1.2139412   -7.2210613    89.695168  0.031672023  0.033301342            4 
  237000    1.2344773   -7.1578077    90.691005  0.031888539  0.033289756            2 
  238000    1.2259641   -7.1401558    91.195832  0.031931314  0.033280561            1 
  239000    1.1903703     -7.18183    91.327806  0.031843726   0.03327129            2 
  240000    1.2071509   -7.1480363    91.774417  0.031866117  0.033262453            1 
  241000    1.2295217   -7.2147706    92.140326  0.031860417  0.033254447            1 
  242000    1.2077932   -7.1282097    92.809638  0.031959242  0.033248976            1 
  243000    1.2329254    -7.170965    92.985613   0.03188807  0.033243088            1 
  244000    1.2040899   -7.1788438    93.128774  0.031806275  0.033234951            1 
  245000    1.2250746   -7.1310489    94.113059  0.032011245  0.033226983            1 
  246000    1.1985861   -7.1149265    94.507423   0.03201471  0.033221612            1 
  247000    1.1980647   -7.1628574    94.717725  0.031956047  0.033215105            1 
  248000    1.2232078   -7.1621445    94.790635  0.031851692  0.033207331            2 
  249000    1.1851809   -7.1838249    94.928063  0.031769767  0.033197604            1 
  250000    1.2090212   -7.2278809     95.11491   0.03170497  0.033186832            1 
  251000     1.179197    -7.190957     95.61457  0.031744545  0.033176581            3 
  252000    1.2077063   -7.1641237    96.381394  0.031872154  0.033167073            3 
  253000    1.1969874   -7.1926627    96.645002  0.031833005  0.033156416            2 
  254000    1.2128161   -7.1373881    97.145153  0.031871769  0.033146804            3 
  255000    1.2132901   -7.1463029    97.291992  0.031794769  0.033137859            1 
  256000    1.2177143   -7.2101662     97.49368  0.031736224  0.033126909            1 
  257000    1.1932847   -7.1851969    97.975848  0.031769082  0.033117239            3 
  258000    1.2251344   -7.1670722    98.729283  0.031889303  0.033108454            1 
  259000     1.212171   -7.1585848    99.141279  0.031898738  0.033100953            2 
  260000    1.2049374   -7.2181925    99.484888  0.031886182  0.033092305            1 
  261000     1.219337   -7.1638701    100.27736  0.032017035  0.033085521            2 
  262000    1.2375607   -7.1923172    100.22302   0.03187755  0.033080032            1 
  263000     1.207013   -7.2040815    100.17527  0.031741212  0.033070419            2 
  264000     1.184946   -7.2096964    100.65769  0.031773259  0.033060636            1 
  265000    1.1968309   -7.1399875    101.21344  0.031828126  0.033051241            2 
  266000    1.2264716   -7.1754926    101.41577  0.031771857  0.033042261            2 
  267000    1.2216368   -7.1962179    101.89131  0.031801282   0.03303433            1 
  268000    1.2039863   -7.1690625    102.24248  0.031791816  0.033025898            1 
  269000    1.1993207   -7.2020924    102.65745  0.031802184  0.033017079            1 
  270000    1.2098641   -7.1257624    103.27027  0.031873541  0.033008025            1 
  271000     1.226101   -7.1919756    103.35853  0.031783067    0.0329993            1 
  272000    1.2105141   -7.2094899    103.25932  0.031635822  0.032990074            2 
  273000    1.2074899   -7.1918096    103.72742  0.031662827  0.032980159            2 
  274000    1.1968146   -7.2114537    103.99182  0.031627683  0.032971129            2 
  275000    1.2091087   -7.1815921     104.7593  0.031745242  0.032960981            1 
  276000    1.2116733   -7.1363445    105.54201  0.031866548  0.032951866            1 
  277000    1.2290947   -7.1645003    105.81439  0.031833449   0.03294185            1 
  278000    1.2192926   -7.1937517    105.68403  0.031679865  0.032931117            5 
  279000    1.2296781   -7.1998396    105.91094  0.031634092   0.03291972            1 
  280000    1.2161096   -7.1664301    106.17671  0.031600211  0.032908687            1 
  281000    1.2141141   -7.1572852    106.54076  0.031595718  0.032897359            2 
  282000    1.1923301   -7.1527708    107.38594  0.031733434  0.032886719            1 
  283000     1.215679    -7.209289    107.31299   0.03159982  0.032875903            3 
  284000    1.2297541     -7.21207    107.31014  0.031487716   0.03286415            1 
  285000    1.2213955   -7.1721639    107.89538  0.031548358   0.03285176            1 
  286000    1.1950422   -7.2079592    108.03154  0.031477722  0.032840396            2 
  287000    1.2020004    -7.223186    108.78613  0.031587147  0.032829433            2 
  288000    1.1933984   -7.2094394    109.24546  0.031610377  0.032820053            1 
  289000     1.208544   -7.1958883    109.29115  0.031514172   0.03281021            1 
  290000    1.2272577   -7.1761397    110.02838   0.03161735  0.032800265            1 
  291000    1.1974757    -7.161501    110.79095  0.031727077  0.032790122            2 
  292000    1.2321929   -7.1819964    110.54691  0.031548776  0.032781386            1 
  293000    1.2082455   -7.2280796    111.47729  0.031705713  0.032771994            1 
  294000    1.2128462   -7.1794132    111.30216   0.03154823  0.032761471            2 
  295000    1.2016586   -7.1848181    111.69816  0.031553152  0.032750433            2 
  296000    1.1854641   -7.2114543     112.1974  0.031587105   0.03274011            1 
  297000    1.2155159   -7.1551213    113.39478  0.031816718  0.032731012            1 
  298000    1.2191058   -7.1939224    113.24248   0.03166736  0.032723607            2 
  299000     1.194934   -7.1941492    113.87044  0.031736467  0.032716705            1 
  300000    1.2056333    -7.203673    113.79287  0.031609129  0.032710086            2 
  301000    1.2115718   -7.1788354    114.30831  0.031646818  0.032702129            1 
  302000    1.1982382   -7.2361078     114.8551  0.031692908  0.032695421            1 
  303000    1.2073579    -7.195387    115.40752  0.031740243  0.032688198            1 
  304000     1.192176   -7.1923499    115.88495  0.031766707  0.032681214            2 
  305000    1.2018542   -7.1694475    116.15935  0.031737527  0.032673851            1 
  306000    1.1913384   -7.2154314    116.34178  0.031683492  0.032668212            1 
  307000     1.192994   -7.2081861     116.3648  0.031586535  0.032662256            3 
  308000    1.2127403   -7.2057377    117.31449  0.031740934  0.032655546            2 
  309000     1.221036   -7.2503624    116.90762  0.031528484  0.032648678            5 
  310000    1.1896394   -7.2452707    117.19731  0.031504653  0.032640892            1 
  311000    1.2135576   -7.1726906    118.28809  0.031695629  0.032632339            2 
  312000    1.2090552     -7.20559    118.22781  0.031577941  0.032623465            1 
  313000    1.1955951    -7.162997    118.64845  0.031589044  0.032615006            1 
  314000    1.2118864   -7.1975104    118.68511  0.031498172  0.032606564            3 
  315000    1.2108252   -7.2401257    119.11225  0.031511177  0.032598331            2 
  316000    1.2060415   -7.1900818    119.46251  0.031503826  0.032590557            1 
  317000    1.1997345   -7.1977942    120.13503  0.031581239  0.032582522            2 
  318000    1.1956534   -7.1898514    120.48036  0.031572422  0.032574533            2 
  319000    1.2367754    -7.240188    120.77766  0.031551114   0.03256732            2 
  320000    1.1830374   -7.2077311    121.62098  0.031672131  0.032560375            2 
  321000    1.2089917   -7.2212184    122.11124  0.031700737  0.032554291            3 
  322000    1.1890477   -7.1952056     122.6176  0.031733334  0.032550109            2 
  323000    1.1653389    -7.200611    123.34794  0.031823513  0.032547457            3 
  324000    1.2131567   -7.1808467    123.75132  0.031829043  0.032544429            1 
  325000    1.1730831   -7.2128609    124.36899  0.031889485  0.032542173            3 
  326000    1.2123753   -7.1716752    124.51895  0.031829998  0.032539318            1 
  327000     1.219578    -7.239768    124.28339  0.031672628  0.032534715            1 
  328000    1.2011554   -7.2399541    125.54813  0.031897392  0.032531098            1 
  329000    1.2246238   -7.2014913    125.42354  0.031768879  0.032528205            3 
  330000    1.1993948   -7.1706176    125.89694  0.031792157  0.032525137            2 
  331000    1.1892197   -7.2094543    126.49198  0.031845916  0.032523486            4 
  332000    1.2117821    -7.210872    126.88136   0.03184773  0.032519646            1 
  333000    1.1861433   -7.2426706    127.61403  0.031935443  0.032517222            1 
  334000    1.2178996   -7.2169824    127.63252  0.031844442    0.0325154            2 
  335000    1.2000342   -7.2339936    127.64991  0.031753708  0.032512771            3 
  336000    1.1796423    -7.194659    128.75185  0.031932501  0.032510605            1 
  337000    1.1854153   -7.1766329    129.01792  0.031903542  0.032508323            2 
  338000    1.2002466   -7.2112991    129.21943  0.031858834  0.032505469            1 
  339000    1.2153121   -7.2156783    129.70509  0.031884241  0.032503607            1 
  340000    1.1709581   -7.1846417    130.13298  0.031895338  0.032502462       -1e+20 
  341000    1.1880328   -7.1893742    130.42502  0.031873172  0.032501484            1 
  342000    1.2098087   -7.2012394     131.2741  0.031986867  0.032501305            1 
  343000    1.2215958    -7.172562    131.59003  0.031970367  0.032500692            1 
  344000    1.1905707   -7.2637873    131.53819  0.031864871  0.032499563            1 
  345000    1.2015975   -7.1852882    132.56703  0.032021021  0.032498859            1 
  346000    1.1834983   -7.1767964    132.20361  0.031840947  0.032496746            1 
  347000    1.1849386   -7.2036314    132.38093   0.03179177  0.032493848            2 
  348000    1.2016797   -7.2273158    132.71496  0.031780403  0.032490605            1 
  349000    1.1782008   -7.2358475    133.44191   0.03186292  0.032487633            3 
  350000    1.2003036   -7.2544515    133.49718  0.031785042  0.032485759            1 
  351000    1.1908569   -7.2090602      134.308  0.031886989  0.032483597            2 
  352000    1.2376658   -7.2092961    134.38952    0.0318157  0.032481327            2 
  353000    1.2031384   -7.2024249     135.0206  0.031874551  0.032478008            3 
  354000    1.1687038   -7.2420993    135.05244  0.031792006  0.032475154            2 
  355000    1.2248391   -7.1948054    135.45228  0.031796309  0.032471269            2 
  356000    1.2081097   -7.2262189    135.61479  0.031745034  0.032466891            3 
  357000    1.1991021   -7.1715511    136.79006  0.031930452  0.032463233            1 
  358000    1.1921702   -7.2452319    136.27528  0.031721433  0.032459409            3 
  359000    1.2023268   -7.2365613    137.15792  0.031837957  0.032456889            2 
  360000    1.1784984   -7.2132133    137.44791  0.031816646  0.032454619            2 
  361000    1.1892812   -7.2271658    138.02709  0.031862209  0.032452721            4 
  362000     1.191285   -7.2233814     138.4743  0.031877141  0.032450751            1 
  363000    1.2112962   -7.2509166    138.83773  0.031872757  0.032449843            5 
  364000    1.2256449   -7.2200861    139.50799  0.031938641  0.032448544            1 
  365000    1.1689401   -7.2133567    140.00717  0.031965107   0.03244812            1 
  366000    1.1899049   -7.2341027     140.4292  0.031973862  0.032447902            1 
  367000    1.1826499   -7.2344418    140.70583  0.031949553  0.032447607            3 
  368000    1.1705403   -7.1642955    141.40767  0.032021665  0.032447252            1 
  369000    1.1947071   -7.2229774    141.68001  0.031996388  0.032446401            1 
  370000    1.1838997   -7.2665314    141.19366  0.031800373  0.032445647            2 
  371000    1.1864363   -7.2471888    141.94172  0.031882686  0.032444719            2 
  372000    1.2191381   -7.2250642    142.08931  0.031830042  0.032443079            3 
  373000    1.1862465   -7.2220627    142.49379  0.031835074  0.032441378            3 
  374000    1.2011325   -7.2315431    143.12648  0.031890927  0.032438528            2 
  375000    1.2016655   -7.2287087     143.2779  0.031839532  0.032436781            1 
  376000    1.1898435   -7.1944896    143.77796  0.031865683  0.032434708            1 
  377000    1.1971231   -7.2829257    143.58332  0.031738135  0.032432413            1 
  378000    1.1794662   -7.2031997    144.12451   0.03177348  0.032428539            1 
  379000    1.1813101   -7.1864583    145.21961  0.031930433  0.032425075            1 
  380000    1.1819288   -7.2329474    144.82445  0.031759749  0.032421581            2 
  381000     1.202975   -7.2184256    145.45802  0.031814964  0.032417926            2 
  382000    1.2051461   -7.2226246    145.61519  0.031765966   0.03241459            1 
  383000    1.1713781   -7.1997418    145.95309  0.031756548  0.032410808            4 
  384000    1.1893746   -7.2453678    146.64744   0.03182453  0.032407452            1 
  385000    1.1929977   -7.2089294    147.09652  0.031839073  0.032404329            2 
  386000    1.1684565   -7.2213657    146.88593  0.031711124  0.032401186            3 
  387000    1.1777913   -7.2355177    147.30015  0.031718379  0.032397385            3 
  388000    1.1763873   -7.2640233    147.74625  0.031732442  0.032394012            1 
  389000      1.16994    -7.226989    148.74817  0.031865504  0.032391291            1 
  390000    1.1886546    -7.229017    148.74346  0.031782791  0.032388484            1 
  391000     1.189463   -7.2347857    148.82829  0.031719585  0.032384654            1 
  392000    1.1904169   -7.2288455    148.88873  0.031651517  0.032379918            3 
  393000    1.1743166   -7.2572145    148.57145  0.031503699  0.032374382            2 
  394000     1.178169   -7.2058334    149.77997  0.031679351  0.032369229            2 
  395000    1.2082917   -7.2446888    149.88247  0.031620775  0.032364491            2 
  396000    1.1803482   -7.1820751     150.8694  0.031748612  0.032360001       -1e+20 
  397000    1.1802829   -7.1959941    150.87648  0.031670125  0.032354923            3 
  398000    1.1653756   -7.2392159    150.71697  0.031557154  0.032349478            2 
  399000    1.1843251   -7.2468563    150.84989  0.031505825  0.032344875            1 
  400000    1.2244403    -7.280582    151.64971  0.031593689  0.032339017            2 
  401000    1.1726076   -7.2611622    151.72014  0.031529539  0.032333725            4 
  402000    1.1760231   -7.2269315     152.2639  0.031563827   0.03232783            1 
  403000    1.1914045   -7.2261677    153.09971  0.031658335   0.03232224            2 
  404000    1.1626662   -7.1710138    153.29535  0.031620327  0.032318126            1 
  405000    1.2021339   -7.2920056    152.86898  0.031454523  0.032312639            5 
  406000    1.2017687   -7.2787955    153.97192  0.031603432  0.032306045            1 
  407000    1.1710912   -7.2356369    154.43448  0.031620491  0.032300456            1 
  408000    1.1941745   -7.2306857    154.52463  0.031561403  0.032295057            1 
  409000    1.1767784   -7.2056247    155.03681  0.031588591  0.032289367            3 
  410000    1.1726926    -7.234659    155.16107  0.031536803  0.032282254            1 
  411000    1.1848133   -7.2348716    155.41255   0.03151106  0.032275126            1 
  412000    1.1934558    -7.250645     155.4716  0.031446522  0.032268087            1 
  413000    1.2099791   -7.2199939    156.56316  0.031590629  0.032261446            2 
  414000    1.1866549   -7.1630497    156.94299  0.031590778  0.032255674            2 
  415000    1.1916222   -7.2411986    157.03089  0.031532307  0.032250021            1 
  416000    1.1582654   -7.2496694    157.74138  0.031598835  0.032243919            1 
  417000    1.1620129    -7.221819    157.56139  0.031487089  0.032238478            2 
  418000    1.1899805   -7.2812236    157.56895  0.031413268  0.032232623            1 
  419000    1.1996678   -7.2388336    158.12423  0.031448734   0.03222602            1 
  420000    1.1768675   -7.2689825    158.71129  0.031490335  0.032220332            1 
  421000    1.1823305   -7.2335923    159.20687  0.031513632  0.032213885            2 
  422000    1.1724531     -7.24337    159.52094  0.031500975  0.032208229            2 
  423000    1.1768055   -7.2407117    160.38236   0.03159621  0.032202689            1 
  424000    1.1597671   -7.2743704    160.01181  0.031448861  0.032197176            1 
  425000     1.184782   -7.2210189    160.86297   0.03154176  0.032191537            1 
  426000    1.1668334   -7.2097029    160.93775  0.031482345  0.032186067            2 
  427000    1.1697686   -7.2650523    161.34059  0.031487234  0.032180204            2 
  428000    1.1794517   -7.2670812    161.57661   0.03145962  0.032173928            2 
  429000    1.1874797    -7.233175    162.43325  0.031552691  0.032168411            2 
  430000    1.1812447   -7.2378766    162.33335  0.031459951  0.032163277            1 
  431000    1.1793446   -7.2607716    162.63606  0.031445487  0.032157412            1 
  432000    1.2013633   -7.2447914    163.05946  0.031454372   0.03215086            2 
  433000    1.1968397   -7.2046193    163.15281  0.031399695  0.032144088            1 
  434000    1.1856901   -7.2619134    162.92927  0.031284422  0.032136987            1 
  435000     1.195176   -7.2246952    164.29885  0.031474876   0.03213021            1 
  436000    1.1992188    -7.237878    164.12915   0.03137025  0.032122999            1 
  437000    1.2283391   -7.2435302     163.9559  0.031265427  0.032115758            2 
  438000    1.1750267   -7.2435896    163.88164  0.031179917  0.032107985            1 
  439000     1.163117   -7.2415831    164.60246  0.031245721  0.032099475            2 
  440000     1.190592   -7.2483553    164.89621  0.031230342  0.032091057            2 
  441000    1.1776792   -7.1875525    165.54301  0.031281748  0.032082898       -1e+20 
  442000     1.175159    -7.220211    166.12504  0.031320709  0.032075045            2 
  443000    1.2011103   -7.2356185    166.40841  0.031303312  0.032067835            2 
  444000    1.1898012    -7.251134    166.77861  0.031302292  0.032060465            2 
  445000    1.1689273   -7.2258322    167.07969  0.031288332  0.032052777            4 
  446000    1.1581682   -7.2309028    167.62528  0.031320119  0.032045575            1 
  447000    1.1871688   -7.2557889    167.30213  0.031189807  0.032037561            2 
  448000    1.1939807   -7.2731151    167.60871  0.031177216  0.032029862            1 
  449000    1.1699001   -7.2590516    168.30224  0.031236497  0.032021928            1 
  450000    1.1844096   -7.2522858    168.55755  0.031214361  0.032014254            2 
  451000    1.1470854   -7.2305118    169.74698  0.031364926  0.032006853            3 
  452000    1.2049188    -7.293326    168.96272  0.031150945  0.031998871            2 
  453000    1.1691329   -7.2730407    169.59222   0.03119798  0.031990821            1 
  454000    1.1787473   -7.2709256    170.08429  0.031219583   0.03198316            1 
  455000    1.1593226   -7.2523318    170.71079  0.031265712  0.031976332            2 
  456000    1.1765294   -7.2250969    170.80298  0.031213996  0.031968981            2 
  457000    1.2255944   -7.2370541    171.35174  0.031245759  0.031962307            1 
  458000    1.1812051   -7.2380882    171.82445  0.031263547  0.031955955            1 
  459000    1.1695678    -7.252892    172.05724  0.031237697  0.031949857            1 
  460000    1.1705263   -7.2442956    172.70289  0.031286756  0.031943646            2 
  461000    1.1836128   -7.2414273    173.21528  0.031311511  0.031937844            2 
  462000    1.1851853   -7.2573929    173.41152  0.031279135  0.031931648            2 
  463000    1.1796789   -7.2422373    173.86458   0.03129312   0.03192526            3 
  464000    1.1890594   -7.2733936    174.25739  0.031296226  0.031919115            1 
  465000    1.1801847   -7.2497638    174.41435  0.031257051   0.03191366            1 
  466000    1.1660609   -7.2893809    175.25586  0.031340461  0.031907447            1 
  467000    1.2002035   -7.2568854     175.5934  0.031333584  0.031902115            3 
  468000    1.1669502   -7.2386442    175.34673  0.031222708  0.031895944            2 
  469000    1.1962698   -7.2615225    175.83301  0.031242539  0.031889615            3 
  470000    1.1994862   -7.2561111    176.75248  0.031339091  0.031883843            2 
  471000    1.1771982   -7.2427764    176.21272  0.031177056  0.031877542            1 
  472000    1.1852587   -7.2303003    176.70025  0.031197077  0.031870489            1 
  473000    1.1472931   -7.2410215     177.8447  0.031332751  0.031863928            1 
  474000    1.1870622   -7.2794585    177.43647  0.031194878  0.031857815            1 
  475000    1.1609657    -7.282441    177.47675  0.031136273  0.031851635       -1e+20 
  476000    1.1760875   -7.2783958    178.18345  0.031194581   0.03184545            1 
  477000    1.1836766     -7.23622    178.60643   0.03120308  0.031839528            1 
  478000    1.1805497   -7.2293987    178.74012  0.031161109  0.031832923            2 
  479000    1.1546223   -7.2610239    179.17488  0.031171692   0.03182603            2 
  480000    1.1737005    -7.219366    179.77142  0.031210316  0.031819431            1 
  481000    1.1762913   -7.2320317      180.063  0.031195946  0.031812921            1 
  482000    1.1674198   -7.2660758     180.4511  0.031198323  0.031805969       -1e+20 
  483000    1.1697486   -7.2575331    180.64697  0.031167525  0.031798873            1 
  484000    1.1673352   -7.2631811     181.0073  0.031165169   0.03179235            2 
  485000    1.1803754    -7.254226    181.62534  0.031207104  0.031785534            2 
  486000    1.1937439   -7.2636127     181.9029  0.031190483  0.031779739            3 
  487000    1.1701245   -7.2955533    181.88446  0.031123281  0.031773493            2 
  488000    1.1609451   -7.2666252    181.68047  0.031024671   0.03176743            2 
  489000    1.1777862   -7.2603281    183.06122  0.031196527  0.031760946            4 
  490000    1.1956204   -7.2629311    183.57943  0.031220992  0.031754703            1 
  491000    1.1737329   -7.2251309    183.71536  0.031180475   0.03174927            1 
  492000    1.1625284   -7.2826396    183.45067  0.031072269  0.031743206            2 
  493000    1.1765736   -7.2427796    183.94956  0.031093571  0.031737606            1 
  494000    1.1856878   -7.2831167    185.04293   0.03121507  0.031732149            3 
  495000    1.2034991   -7.2567383    185.26872   0.03119002  0.031726863            2 
  496000    1.1469675   -7.3051006    186.07832  0.031263158  0.031721839            1 
  497000     1.175461   -7.2573019    186.22884  0.031225493  0.031716965            2 
  498000    1.1851598   -7.2663156    186.11451  0.031143659  0.031712475            2 
  499000    1.1616322   -7.2607425    186.99058  0.031227552  0.031707526            1 
  500000    1.1663296    -7.286713    187.29968  0.031216614  0.031702477            1 
  501000    1.2172249   -7.2797343    186.90268   0.03108827   0.03169772            1 
  502000    1.1478463   -7.2509221    188.45582  0.031284167  0.031692339            1 
  503000    1.1723656   -7.2786818     188.0459  0.031154059  0.031687747            2 
  504000    1.1506714   -7.2630656    188.71267  0.031202491   0.03168278            2 
  505000    1.1820992   -7.2829796    188.69589  0.031137936  0.031678171            2 
  506000    1.1978922   -7.3121914    189.01116   0.03112832  0.031673506            1 
  507000    1.1536851   -7.2906442    189.75009  0.031188377  0.031668747            2 
  508000    1.1517063   -7.2969434    189.69156  0.031117382  0.031663677            4 
  509000    1.1572723   -7.2579242    190.50952  0.031190164  0.031658474            1 
  510000    1.1748511   -7.2767901    190.34756  0.031102543  0.031652931            2 
  511000     1.167525   -7.2521611     191.5971  0.031245451  0.031647686            2 
  512000     1.153472   -7.3018272    191.25019   0.03112796  0.031642756            2 
  513000    1.1961573    -7.246325    191.74779  0.031148114  0.031637509            2 
  514000    1.1470238   -7.2726715     192.5778  0.031222081  0.031632565            1 
  515000    1.1733343   -7.2669912    192.63719  0.031171066  0.031628338            1 
  516000    1.1638609   -7.2260725    193.86971  0.031309707  0.031624342            2 
  517000    1.1811853    -7.259816    194.22707  0.031306749  0.031620757            1 
  518000    1.1695636   -7.2271069    194.15351  0.031234477  0.031617413            1 
  519000    1.1790586   -7.3029774    193.56376  0.031079601  0.031613257            2 
  520000    1.1666483   -7.2899987    193.99862  0.031089522  0.031608566            3 
  521000    1.1939713   -7.2407589    194.75614  0.031151014  0.031603598            2 
  522000    1.1533213   -7.2742804    194.47434  0.031046351  0.031598213            2 
  523000    1.1933745   -7.2950486    194.65095   0.03101513  0.031592478            3 
  524000    1.1911901   -7.2886935    194.74203  0.030970425   0.03158675            2 
  525000    1.1530193   -7.3069892    194.99557  0.030951678   0.03158031            2 
  526000    1.1897773   -7.3084068    195.63378  0.030993945  0.031574254            1 
  527000    1.1636796   -7.2355244    196.25151  0.031032814  0.031568328            1 
  528000    1.1712418   -7.2720574    196.07188  0.030945688  0.031562782            1 
  529000    1.1718001   -7.2749905     197.0244  0.031037241  0.031556695            2 
  530000    1.1700018   -7.2760292    196.74651  0.030934985   0.03154999            1 
  531000    1.2084623   -7.2698912    197.24681  0.030955243  0.031544047            1 
  532000    1.1722419    -7.257274    197.76623   0.03097842  0.031538146            1 
  533000    1.1405085   -7.2657853    197.65773  0.030903335  0.031532352            1 
  534000    1.1659919   -7.2922175    198.01286  0.030900884  0.031525479            2 
  535000    1.1741756   -7.3255491    197.81288  0.030811975  0.031518203            1 
  536000    1.1786166   -7.2613213     198.2533  0.030822964  0.031511391            1 
  537000    1.1691751   -7.2583891     199.2693   0.03092323  0.031504536            1 
  538000    1.1589662   -7.2770056    199.53985  0.030907659  0.031497374            3 
  539000    1.1637928   -7.2640618     199.4755  0.030840368  0.031489844            1 
  540000    1.1764336   -7.2757327    199.64403  0.030809264  0.031482526            2 
  541000    1.1783372   -7.2947352    200.06054  0.030816472  0.031475694            2 
  542000    1.1548016    -7.246415    201.68172  0.031008875  0.031469121            2 
  543000    1.1768709   -7.2844401    201.36802  0.030903625  0.031462659            2 
  544000    1.1596737   -7.3010788    201.74545  0.030904634  0.031456141            2 
  545000    1.1815551   -7.2509971    202.31174  0.030934517  0.031449173            1 
  546000    1.1822028   -7.2754038    202.07735  0.030842086  0.031442549            2 
  547000    1.1813572   -7.2445328    202.69237  0.030879398  0.031435828            2 
  548000    1.1717823   -7.2933761    202.76333   0.03083384   0.03142913            5 
  549000    1.1721864   -7.3344236    202.08334   0.03067446  0.031421808            1 
  550000    1.1720348   -7.3562458    202.54819   0.03068912  0.031413804            4 
  551000    1.1788869   -7.2735321    203.89807  0.030837579  0.031406147            3 
  552000    1.1735685   -7.2972233    203.97126  0.030792763  0.031399054            1 
  553000    1.1409403   -7.2899791     204.7768   0.03085847  0.031391953            2 
  554000    1.1594866   -7.2847978    204.07386  0.030697031  0.031384602            2 
  555000    1.1789077   -7.2878948    204.65263  0.030728624  0.031377499            2 
  556000     1.161281   -7.2803957     205.1755  0.030751724  0.031369762            1 
  557000    1.1533434   -7.3029514    205.27153  0.030710881  0.031362024            1 
  558000     1.140106   -7.2618134    205.79062  0.030733365  0.031354487            1 
  559000    1.1705262   -7.2958602    206.28388  0.030751921  0.031346406            2 
  560000    1.1522989   -7.2841192    205.66074  0.030604277  0.031338454            1 
  561000    1.1484718   -7.3086992    205.91002  0.030586753  0.031330277            4 
  562000    1.1574532   -7.3225127    206.54969  0.030627179  0.031322144            1 
  563000    1.1684442   -7.3141255    207.04967  0.030646783  0.031314452            1 
  564000     1.160612   -7.2499701    207.95769  0.030726609  0.031306925            1 
  565000    1.1556873   -7.3045133    208.14516  0.030699876  0.031299395            1 
  566000    1.1616852    -7.269272    208.99456  0.030770694  0.031292097            2 
  567000    1.1775421   -7.3075059    208.53785  0.030649301  0.031284834            2 
  568000    1.1703559   -7.2758579    209.87125   0.03079097  0.031277714            1 
  569000     1.164086   -7.3398796    209.56381   0.03069183  0.031270422            2 
  570000    1.1346097   -7.2919767     210.2887  0.030743962  0.031263153            1 
  571000    1.1695955   -7.3499511    209.64654  0.030596401  0.031255534            2 
  572000    1.1574793   -7.2896344    210.55222  0.030674858  0.031248211            1 
  573000    1.1727471   -7.2795643     210.3913  0.030597921  0.031241477            4 
  574000    1.1749703   -7.3213622    210.35373   0.03053916  0.031233746            1 
  575000    1.1751235   -7.2993707    211.09527  0.030593517  0.031226175            1 
  576000    1.1630509   -7.2650396    211.66417   0.03062271  0.031219086            1 
  577000    1.1373472   -7.2822552    211.73034  0.030579194  0.031211322            2 
  578000    1.1608277   -7.3094286     211.7597  0.030530522  0.031203901            1 
  579000    1.1470391   -7.3055142    212.38652  0.030568007  0.031196422            2 
  580000    1.1700927   -7.2895631    213.01406  0.030605469  0.031188831            2 
  581000    1.1748305   -7.2944121    213.53172  0.030627039  0.031181807            1 
  582000    1.1382057   -7.2237042    214.33603   0.03068958  0.031175033            2 
  583000    1.1619001   -7.2778803     214.0935  0.030602273  0.031168182            2 
  584000    1.1357265   -7.3227472    213.80508  0.030508715  0.031161277            1 
  585000    1.1414234   -7.3152737    214.61339  0.030571708    0.0311542            1 
  586000    1.1589013   -7.3306064    214.23506  0.030465737  0.031146322            3 
  587000    1.1661513   -7.3295722    214.99053  0.030521085   0.03113895            2 
  588000    1.1460052   -7.3017433    215.62692   0.03055937  0.031131938            2 
  589000    1.1510941   -7.3182591    215.30802  0.030462369  0.031124585            2 
  590000    1.1449418   -7.3080672    215.41523   0.03042588  0.031117221            3 
  591000    1.1571935    -7.268919    216.67608  0.030552183  0.031109615            2 
  592000    1.1504796    -7.327337    216.13523  0.030424441  0.031101427            4 
  593000    1.1848444   -7.2628469    217.25272  0.030530175  0.031093505            3 
  594000    1.1705595   -7.3427092    216.64717  0.030393823  0.031086167            1 
  595000    1.1686103    -7.290313    218.15014  0.030553241  0.031078183            2 
  596000    1.1834788   -7.2882573     217.6143  0.030427056   0.03107024            1 
  597000    1.1813726   -7.2584508    218.54644  0.030506203  0.031062236            1 
  598000    1.1494513   -7.3274904    218.22289  0.030410102  0.031054605            1 
  599000    1.1362075   -7.3373467    218.39532  0.030383322  0.031046908            5 
  600000    1.1466406   -7.2716383    219.36723  0.030467671  0.031039117            2 
  601000    1.1639697   -7.3527884    218.90246  0.030352532  0.031031071            1 
  602000    1.1253977   -7.3091318    218.70263  0.030274451  0.031023247            1 
  603000    1.1652751   -7.3553312    219.31577  0.030308978  0.031015082            1 
  604000    1.1550611   -7.2967264    220.65971  0.030444221  0.031007381            2 
  605000    1.1592338   -7.2834079     220.9908  0.030439505  0.030999822            2 
  606000    1.1643094   -7.2992559     220.9857  0.030388573  0.030992371            2 
  607000    1.1415259   -7.2880718    222.11015  0.030492881  0.030984955            2 
  608000    1.1597726   -7.2895071     221.6925  0.030385486  0.030977437            2 
  609000     1.188846   -7.3340071    221.14755  0.030261023  0.030969211            2 
  610000     1.168371    -7.282007     222.5139  0.030398074  0.030961078            1 
  611000    1.1611066   -7.2651428    222.64842   0.03036667  0.030953146            2 
  612000    1.1429461   -7.3203024    222.48052  0.030294188   0.03094528            4 
  613000    1.1431226   -7.2878239    223.68146  0.030408029  0.030937869            2 
  614000    1.1610179   -7.3024681    223.36502  0.030315557  0.030930389            1 
  615000    1.1377286   -7.3371463     223.2058  0.030244688  0.030922534            1 
  616000    1.1503493   -7.3193876    223.84979   0.03028271  0.030914802            1 
  617000    1.1454018    -7.276818    224.49763  0.030321127  0.030906839            2 
  618000    1.1500187   -7.2841894    224.11657  0.030220681   0.03089946            2 
  619000    1.1492377    -7.333328    224.30125  0.030196722  0.030891873            2 
  620000    1.1405608   -7.3304324    224.79197  0.030213975  0.030884075            2 
  621000    1.1665756   -7.3451997    225.24461  0.030226061  0.030876573            2 
  622000    1.1455723   -7.3340765     225.9277  0.030268984  0.030868463            2 
  623000    1.1568015   -7.3155405    225.96022  0.030224748  0.030860514            2 
  624000     1.133842   -7.3135199    226.00741  0.030182613   0.03085214            2 
  625000    1.1413543    -7.287945    227.32123  0.030309498  0.030843926            1 
  626000    1.1361195   -7.2976006    227.26824  0.030254025  0.030835833            3 
  627000    1.1293266   -7.3220142     228.4207  0.030358944   0.03082786            2 
  628000    1.1456211   -7.2963095    228.37208  0.030304151  0.030820259            2 
  629000    1.1552219    -7.347366    227.69622   0.03016643  0.030812884            1 
  630000     1.159436   -7.3233734    228.99241  0.030290001  0.030805761            2 
  631000    1.1722965   -7.3316612    228.57302  0.030186611  0.030798645            4 
  632000    1.1369945   -7.2905076    229.17711  0.030218501  0.030791046            2 
  633000     1.176322   -7.3128259    229.14885  0.030167042  0.030783265            1 
  634000    1.1626877   -7.2676104    230.28746  0.030269119  0.030775685            1 
  635000    1.1548537   -7.3693842    230.04667  0.030189852   0.03076772            2 
  636000    1.1380319   -7.3021524    231.24265  0.030299089  0.030760491            1 
  637000    1.1269352   -7.2974362    231.18954  0.030244577  0.030753326            1 
  638000    1.1668151   -7.2753549    231.64487  0.030256644  0.030746421            1 
  639000    1.1300237   -7.2914361    232.11912  0.030271143  0.030739776            1 
  640000    1.1450504   -7.3060642     232.7379  0.030304413  0.030733008            2 
  641000    1.1366717   -7.3591467    231.87285  0.030144677  0.030725848            1 
  642000    1.1324517   -7.3451704    232.89173  0.030229975   0.03071848            1 
  643000    1.1337139   -7.2919377    233.26256  0.030231021  0.030711549            1 
  644000    1.1444765   -7.3410168    234.00818  0.030280561  0.030704777            1 
  645000     1.127096   -7.3267591    233.63695  0.030185653   0.03069768            2 
  646000     1.147185   -7.3273772    233.97507  0.030182543  0.030690684            1 
  647000    1.1501275   -7.2953559     235.1158  0.030282819  0.030683854            1 
  648000    1.1477615   -7.3606715    234.60243  0.030170066  0.030677479            2 
  649000    1.1448949   -7.3313524    235.44553  0.030231834  0.030670921            1 
  650000    1.1315424   -7.3579367    235.08164  0.030138672  0.030664505            1 
  651000    1.1393441   -7.3116704    235.56573  0.030154344  0.030658075            1 
  652000    1.1366346   -7.3512151    236.05319  0.030170398  0.030651574            3 
  653000    1.1679618   -7.3054814     237.0983  0.030257567  0.030645204            2 
  654000    1.1453248   -7.3108346    237.38185  0.030247433  0.030638849            5 
  655000    1.1521379   -7.3071616     237.6047  0.030229605  0.030632549            6 
  656000    1.1577212   -7.3211305    238.61074  0.030311324  0.030626744            1 
  657000    1.1382145   -7.3034165    238.54067    0.0302563  0.030621455            1 
  658000    1.1522252   -7.3127242    239.28999  0.030305216  0.030615856            1 
  659000    1.1326684   -7.3451724    238.89495  0.030209275  0.030610254            2 
  660000    1.1390311   -7.3336948    239.10006  0.030189402  0.030604567            3 
  661000    1.1462994   -7.3610778    239.63065  0.030210621  0.030598558            2 
  662000    1.1624892   -7.3349823    240.29398  0.030248487  0.030593136            1 
  663000    1.1364788   -7.3182783    240.33161  0.030207593  0.030587334            2 
  664000    1.1284236   -7.3257689    241.18137  0.030268747  0.030582408            1 
  665000    1.1505792   -7.3172373    242.28591  0.030361643  0.030577395            1 
  666000     1.158151   -7.3385023    241.05862   0.03016249  0.030572435            2 
  667000    1.1466882   -7.2818632    242.60023  0.030309874  0.030567918            2 
  668000    1.1455906   -7.3230313    242.39178  0.030238495  0.030563451            1 
  669000    1.1464232   -7.3399071    243.01064  0.030270384  0.030558406            1 
  670000    1.1462851   -7.3082888    243.90781  0.030336792  0.030553374            2 
  671000    1.1260641   -7.3401295    243.39945  0.030228446  0.030548295            5 
  672000    1.1417589   -7.3175733    244.61924  0.030334727  0.030543284            2 
  673000    1.1634982   -7.2912234    243.84501  0.030193786  0.030538349            1 
  674000    1.1534597   -7.3458899    244.85945  0.030274413  0.030533125            1 
  675000    1.1627547   -7.3193709    244.96873  0.030243053  0.030527858            2 
  676000    1.1455065   -7.3414926    245.12923    0.0302181  0.030522779            2 
  677000    1.1521872   -7.3133555    246.50562  0.030342888  0.030518197            1 
  678000    1.1523448   -7.3151013    246.36184  0.030280462  0.030513648            1 
  679000    1.1470468   -7.3189498    247.04682  0.030319934  0.030508781            1 
  680000    1.1318054   -7.3193141    246.96543  0.030265371  0.030503951            2 
  681000    1.1368781   -7.3531488    246.98163  0.030222911   0.03049874            1 
  682000    1.1328469   -7.3371107     247.8155  0.030280486  0.030494267            1 
  683000    1.1765018   -7.3319389     248.0713  0.030267362  0.030489848            3 
  684000    1.1160072   -7.3146028    247.94181  0.030207335  0.030484919            2 
  685000     1.147905   -7.3289341    248.42674  0.030222231  0.030480016            2 
  686000    1.1355018      -7.3571    249.03464  0.030252021  0.030474707            1 
  687000    1.1221874   -7.3347796     248.6108  0.030156575  0.030469687            2 
  688000    1.1042212   -7.3828859    248.49239    0.0300984  0.030464596            2 
  689000    1.1262758     -7.31621    250.15097  0.030255318  0.030459594            2 
  690000    1.1492584   -7.3530273    249.98858  0.030191857  0.030454476            2 
  691000    1.1588763   -7.3697864     249.5282  0.030092643   0.03044921            4 
  692000    1.1484795   -7.3315015    250.82609  0.030205454    0.0304442            2 
  693000    1.1184815   -7.3515405     249.6569  0.030021272  0.030439003            2 
  694000     1.139473   -7.3093673    251.57097   0.03020785  0.030433489            2 
  695000    1.1295277    -7.320261    252.22639  0.030242973  0.030428448            1 
  696000    1.1275241   -7.3264381    252.02875  0.030175856  0.030423396            2 
  697000    1.1122317   -7.3236423    252.32594  0.030168095  0.030418188            2 
  698000    1.1262865   -7.3571649    252.16141  0.030105231  0.030413144            4 
  699000    1.1003741   -7.3584557    252.77935  0.030135831  0.030407706            1 
  700000    1.1618697   -7.3453282    253.42535  0.030169684  0.030402867            2 
  701000    1.1187027   -7.3333149    252.46475  0.030012453  0.030397831            3 
  702000     1.177895   -7.3223992     254.0605  0.030159129  0.030392664            5 
  703000    1.1230715   -7.3256503    254.34845  0.030150362  0.030387533            2 
  704000    1.1334368   -7.3137687    254.55633  0.030132142  0.030382244            2 
  705000    1.1434837   -7.3157951    254.97635  0.030139048  0.030376898            2 
  706000     1.124531   -7.3494493    254.56313  0.030047584  0.030371439            3 
  707000    1.1258822   -7.3156453    255.20803  0.030081097  0.030365648            3 
  708000    1.1793319   -7.3015074    255.82315  0.030111011  0.030360116            2 
  709000    1.1361722   -7.3340074    255.44895  0.030024559  0.030354811            1 
  710000    1.1522362    -7.316534    256.10487  0.030059257  0.030349247            2 
  711000    1.1302543   -7.3463707    255.83045  0.029984816   0.03034367            2 
  712000    1.1639326   -7.3466306    256.06801  0.029970507  0.030338223            2 
  713000    1.1563912   -7.3433866    257.30975  0.030073603  0.030332782            1 
  714000    1.1370756   -7.3424387    256.92752  0.029986872    0.0303274            1 
  715000    1.1405019    -7.302575    258.09133  0.030080575  0.030321793            5 
  716000    1.1383893   -7.3542035    257.30139  0.029946624  0.030316208            2 
  717000    1.1457984   -7.3778157    257.99898  0.029985934  0.030310423            4 
  718000    1.1254757   -7.4222163    257.63517  0.029901946  0.030304537            3 
  719000    1.1523541   -7.3220692    258.93612  0.030011141  0.030298666            5 
  720000    1.1348759   -7.3902178    258.12965  0.029876117  0.030292503            1 
  721000    1.1513163   -7.3650103    258.63899  0.029893549  0.030286569            1 
  722000      1.14808   -7.3706841    259.08477  0.029903597  0.030280456            1 
  723000    1.1554254   -7.3582245    260.54536  0.030030585  0.030274854            2 
  724000    1.1191901   -7.3079786    260.08923  0.029936605  0.030269346            2 
  725000    1.1109021    -7.371556    260.91662  0.029990417    0.0302639            4 
  726000    1.1258811   -7.3944305    260.56327  0.029908548  0.030258254            1 
  727000    1.1722912   -7.3572301    261.36997  0.029959878  0.030252442            1 
  728000    1.1617316   -7.3537453    261.72325  0.029959163   0.03024725            3 
  729000    1.1436082   -7.3266237    262.67088  0.030026393  0.030241901            3 
  730000    1.1476052   -7.3684491    262.65106  0.029982998  0.030236508            2 
  731000    1.1440974   -7.3349394    262.31937  0.029904169  0.030231375            1 
  732000    1.1460969   -7.3620897    262.61056  0.029896466   0.03022553            2 
  733000     1.125342   -7.3522233    262.93523   0.02989259  0.030219941            1 
  734000    1.1634869   -7.3830039    263.86355  0.029957261  0.030214672            1 
  735000    1.1364426   -7.3736406    264.55985  0.029995448  0.030209563            2 
  736000    1.1227719   -7.3828116    264.60419  0.029959713  0.030204341            2 
  737000    1.1614096   -7.3456068     265.0229  0.029966407   0.03019887            1 
  738000    1.1402129   -7.3611052    264.71988  0.029891586  0.030193786            4 
  739000    1.1057584   -7.3443948    265.84404  0.029977903  0.030188453            3 
  740000    1.1231335   -7.3446717    265.60684  0.029910681   0.03018359            1 
  741000    1.1089037   -7.3491644    266.14135  0.029930427  0.030178791            5 
  742000    1.1298464   -7.4217468    265.32563  0.029798476  0.030173841            1 
  743000    1.1329078   -7.3567522    267.46274  0.029998064  0.030168686            4 
  744000    1.1506287   -7.3448632    266.97949  0.029903616  0.030163896            1 
  745000    1.1416654   -7.3370028    266.99824  0.029865575  0.030158955            3 
  746000    1.1342081   -7.3891541    267.47217  0.029878482  0.030153693            3 
  747000    1.1349404   -7.3129069    268.10057  0.029908586  0.030148485            2 
  748000    1.1360712   -7.3676197    267.62634  0.029815769  0.030143264            1 
  749000    1.1301776     -7.37044    269.36283  0.029969163  0.030137724            2 
  750000    1.1320418   -7.3446083    269.33677  0.029926308  0.030132329            2 
  751000    1.1236851   -7.3506192    268.30944  0.029772464   0.03012711            1 
  752000    1.1436516   -7.3958028    268.52756  0.029757043  0.030121561            1 
  753000    1.1381391   -7.3827911     269.4365  0.029818116  0.030116047            1 
  754000    1.1468204   -7.3922179    268.75903  0.029703695  0.030109944            1 
  755000    1.1407593   -7.3861979    269.79337  0.029778517  0.030104181            1 
  756000    1.1414242   -7.3672146    270.53198  0.029820544  0.030098264            1 
  757000     1.128942   -7.4105208        269.5  0.029667548  0.030092106            4 
  758000    1.1142152   -7.3280491    271.27865   0.02982395  0.030086179            2 
  759000    1.1469988   -7.2933957    272.38512   0.02990614  0.030080382            1 
  760000    1.1457906   -7.3464103    272.92678  0.029926182  0.030075158            1 
  761000    1.1430694   -7.3466064    271.35017   0.02971421  0.030069945            1 
  762000    1.1270895   -7.3907273    271.31701  0.029671589  0.030064254            3 
  763000    1.1228814   -7.3829828    272.45749  0.029757261  0.030058697            2 
  764000    1.1335545   -7.3446932     272.7674  0.029752116  0.030053128            2 
  765000    1.1363444   -7.3772063    272.54694   0.02968921  0.030047912            2 
  766000    1.1250415   -7.3642587    273.03571  0.029703624  0.030042277            1 
  767000    1.1223565   -7.3845147    273.82848   0.02975103  0.030036615            1 
  768000    1.1366538   -7.3653658    274.56536  0.029792249  0.030031419       -1e+20 
  769000    1.1447122   -7.3761346    273.75906  0.029666131  0.030025884            1 
  770000    1.1337019    -7.391929     274.7064   0.02973013  0.030020365            2 
  771000    1.1369808   -7.3508184    275.93406  0.029824261  0.030015357            2 
  772000    1.1459712   -7.3998336    275.05053  0.029690256  0.030009962            4 
  773000    1.1034191   -7.3630252    276.43467  0.029801064  0.030004605            2 
  774000    1.1253637   -7.3674117    276.16727  0.029733772  0.029999108            1 
  775000    1.1415257   -7.3658574    276.67255  0.029749737  0.029993564            1 
  776000    1.1316842   -7.3704093    276.19169   0.02965976  0.029988025            2 
  777000    1.1261929   -7.3997078    276.72339  0.029678613  0.029982753            1 
  778000    1.1181814   -7.3949699    277.93841   0.02977061  0.029977227            1 
  779000    1.1324322   -7.3419323     278.9564  0.029841292  0.029971905            1 
  780000    1.1319542   -7.3419731    278.33831  0.029736999  0.029966935            2 
  781000    1.1251317   -7.3466778    279.09464  0.029779624  0.029961884            6 
  782000    1.1217576   -7.3652228    278.35366  0.029662581  0.029956891            2 
  783000    1.0967283   -7.3850373    279.56462  0.029753578  0.029951507            1 
  784000    1.1411571   -7.3829764    279.78351  0.029738894  0.029946589            2 
  785000    1.1256947   -7.4026807    279.17551  0.029636466  0.029941404            1 
  786000    1.1383865   -7.3790731    279.51401  0.029634649  0.029936363            1 
  787000    1.1170885    -7.356821    280.57192  0.029709013  0.029931304            1 
  788000    1.1163882   -7.3330978    281.72323  0.029793066  0.029926075            4 
  789000    1.1327731   -7.3872388    280.38709  0.029614183  0.029921224            2 
  790000    1.1512587   -7.3891843    281.78242  0.029723884  0.029916436            1 
  791000    1.1113742   -7.3529948      282.329  0.029743889  0.029911698            2 
  792000    1.1450502   -7.3647032     282.6624  0.029741414  0.029906909            2 
  793000    1.1424583    -7.364975    282.26183  0.029661815  0.029901972            2 
  794000    1.1427716   -7.3849758    283.11752  0.029714265   0.02989718            2 
  795000    1.1499828   -7.3797731    282.62967  0.029625751  0.029892183            2 
  796000    1.1436844   -7.3727226    283.68109  0.029698606  0.029886875            2 
  797000    1.1250872    -7.399428    283.06329  0.029596747   0.02988151            1 
  798000    1.1158139   -7.3768578    283.67554  0.029623595  0.029876349            1 
  799000    1.1118552   -7.3647798    283.93286  0.029613356  0.029871051            2 
  800000    1.1307253   -7.4012054    284.39075  0.029624037  0.029865588            2 
  801000    1.1111211    -7.386946    285.16233  0.029667326  0.029860536            2 
  802000    1.1320993   -7.4069091     284.6551  0.029577629  0.029855392            3 
  803000    1.1279343   -7.4120524    285.22079  0.029599501  0.029849868            2 
  804000    1.1052338   -7.3778891    285.11279  0.029551492  0.029844275            2 
  805000    1.1445533   -7.3667877    285.33664  0.029537954  0.029838771            3 
  806000    1.1252875   -7.3840677    285.64453   0.02953314  0.029833088            3 
  807000    1.1241043   -7.3971156    284.95074  0.029424901  0.029827291            1 
  808000    1.1160856   -7.3765838    285.57716   0.02945309  0.029821058            3 
  809000    1.1334614   -7.3768791    285.88773  0.029448674  0.029814723            1 
  810000    1.1103626   -7.3981522    285.85035  0.029408472  0.029808275            3 
  811000    1.1406588   -7.4253408    286.38185  0.029426824  0.029801805            3 
  812000    1.1260174   -7.3698432    286.64963  0.029418066  0.029795497            3 
  813000    1.1461462   -7.3821237    287.74448  0.029494104  0.029789404            2 
  814000    1.1383745   -7.3611247    287.10322  0.029392221  0.029783439            4 
  815000    1.1081733   -7.3786454    287.63515  0.029410547  0.029777214            2 
  816000    1.1177543   -7.3865369    288.69406  0.029482645  0.029771325            1 
  817000    1.1188726   -7.3979811    287.55223  0.029330093  0.029765161            3 
  818000    1.1287949   -7.3851289    288.08071  0.029348076  0.029758936            2 
  819000    1.0989367   -7.3933863    289.35653  0.029442057  0.029752964            1 
  820000    1.1173579   -7.3795111    289.44509  0.029415152  0.029747125            2 
  821000    1.0965611   -7.3702528    290.23078  0.029459072   0.02974141            2 
  822000    1.1391184   -7.3870432    290.68879  0.029469667  0.029735396            1 
  823000     1.147227   -7.4012017    290.52104  0.029416874  0.029729371            1 
  824000     1.097704   -7.3927721    291.98881  0.029529613  0.029723691            2 
  825000    1.1246025   -7.3645883    292.06183  0.029501195  0.029718299            1 
  826000    1.1104727   -7.4423903    291.99094  0.029458328  0.029712582            1 
  827000    1.1356523   -7.4074783    292.60122  0.029484202  0.029707134            2 
  828000    1.1011367   -7.4236478    293.09668  0.029498458  0.029701913            2 
  829000     1.116998   -7.3732425    293.95432  0.029549088  0.029696584            4 
  830000     1.115753   -7.3614082     293.6323  0.029481154  0.029691632            3 
  831000    1.0990347   -7.3687685    293.71026  0.029453496  0.029686567            1 
  832000    1.0988866   -7.4100613     294.5362  0.029500821  0.029681633            2 
  833000      1.11028   -7.4267916    293.71055  0.029382808  0.029676851            1 
  834000    1.1165211   -7.3694084    295.26976  0.029503373  0.029671783            1 
  835000     1.095985   -7.3438706    296.02306   0.02954322  0.029666984            2 
  836000    1.1123083   -7.4348194    295.17568  0.029423413  0.029662339            1 
  837000    1.1166437   -7.3408665    296.56943  0.029527024  0.029657429            1 
  838000    1.1044415   -7.3406983    296.55226  0.029490082  0.029652742            2 
  839000    1.1048408   -7.3904257     295.7133  0.029371603   0.02964769            1 
  840000    1.1301701   -7.4079158    296.74569  0.029439057  0.029642259            3 
  841000    1.1183838   -7.4138039    297.35771  0.029464696  0.029637105            1 
  842000    1.1004658   -7.3859119    296.93707  0.029388071  0.029631769            1 
  843000    1.1130677   -7.3794655    297.37837  0.029396834  0.029626424            1 
  844000    1.1300061   -7.3752075    296.72854  0.029297842  0.029620887            1 
  845000    1.1020472   -7.3879989    297.34109  0.029323579  0.029614933            2 
  846000    1.1038228   -7.3444081    298.82441  0.029435028  0.029609163            3 
  847000    1.1176243   -7.4092823    298.38483  0.029357027  0.029603038            1 
  848000    1.1165876   -7.4177749    296.93939  0.029180364  0.029597183            1 
  849000    1.0987542   -7.3961212    297.64013  0.029214775  0.029591187            1 
  850000    1.1217917   -7.4014364    298.70739  0.029285039  0.029585195            1 
  851000    1.1061775   -7.4148498    298.17434  0.029198427  0.029578927            3 
  852000    1.1444441   -7.3916647    298.76082   0.02922152  0.029572793            2 
  853000    1.1162307   -7.4045887    299.19569  0.029229747  0.029566829            1 
  854000    1.0800636   -7.4003005     299.4108   0.02921651   0.02956088            1 
  855000    1.1388336   -7.4254028    299.39202  0.029180509   0.02955469       -1e+20 
  856000    1.1135376   -7.4247848    299.03014   0.02911119  0.029548695            2 
  857000    1.1043896   -7.3630065     299.9713  0.029168738   0.02954244            5 
  858000    1.1026374   -7.3929575    300.40922  0.029177275  0.029536163            2 
  859000    1.1164941   -7.4162752    301.39277  0.029238725  0.029529722            2 
  860000    1.1112327   -7.4425795    300.31217  0.029100017  0.029523248            2 
  861000    1.1343163    -7.424037    300.63815  0.029097769  0.029516656            1 
  862000    1.1158081   -7.3965861    301.79077  0.029175441   0.02951029            1 
  863000    1.1165628   -7.4004894    301.22244  0.029086756   0.02950411            2 
  864000    1.1165159    -7.405146     301.9857  0.029126707  0.029497703            1 
  865000    1.1250234   -7.3896033    302.58158  0.029150442    0.0294912            1 
  866000    1.0873692   -7.3726793    303.05028  0.029161882  0.029485055            1 
  867000    1.1069555   -7.3610525    302.51995  0.029077273  0.029479002            1 
  868000     1.103291   -7.3774706    303.60739  0.029148175  0.029472625            2 
  869000    1.1020856   -7.3816092    304.17234  0.029168809  0.029466705            1 
  870000    1.0848418   -7.4041611    303.55627  0.029076271  0.029460418            1 
  871000    1.1075403   -7.4302843    303.43374  0.029031165  0.029453838            4 
  872000    1.1083887   -7.4537599    304.18211  0.029069391  0.029447156            5 
  873000     1.125379   -7.3983604    304.45263  0.029061916  0.029440506            2 
  874000    1.0889379    -7.430012    305.09274  0.029089696    0.0294338            1 
  875000    1.1217197   -7.3843559    305.88201   0.02913162  0.029427335            1 
  876000    1.1117165   -7.3886936    306.46859  0.029154166   0.02942102            1 
  877000    1.1486551   -7.4029169    305.80814  0.029058166   0.02941462            3 
  878000    1.0757167   -7.4633606    305.31999  0.028978739   0.02940835            3 
  879000    1.1253853   -7.4270419    306.77104  0.029083337  0.029402019            1 
  880000    1.0729154   -7.3940266    306.92042  0.029064434  0.029395525            1 
  881000     1.101011   -7.4202633    306.46398  0.028988269   0.02938907            1 
  882000    1.1005584   -7.3892506      307.095  0.029015022  0.029382713            2 
  883000    1.1038013   -7.4075543    307.41162  0.029012044  0.029376314            2 
  884000    1.1101399   -7.4335433    307.48098  0.028985763  0.029370037            3 
  885000    1.1238611   -7.4098071    308.96855  0.029093084  0.029363539            1 
  886000    1.1353882   -7.4414991    308.12808  0.028981197   0.02935733            1 
  887000    1.1072646   -7.4437087    308.55924   0.02898903  0.029350916            2 
  888000    1.1066305   -7.4307071     308.2965  0.028931729  0.029344445            2 
  889000    1.0914086   -7.4240462     308.8917  0.028954977  0.029337824            2 
  890000     1.116602     -7.42035    308.45305  0.028881372  0.029330923            1 
  891000    1.0960926    -7.433014    308.23392  0.028828463  0.029323914            3 
  892000    1.1046321    -7.376059    310.37976  0.028996614  0.029317002            1 
  893000    1.1302879   -7.3978785    309.37986  0.028870834  0.029310333            2 
  894000     1.098033   -7.4700149    309.58423  0.028857591  0.029303273            2 
  895000    1.1076401   -7.4443948    310.71588  0.028930715   0.02929633            1 
  896000    1.1481378   -7.4347011    310.71517   0.02889836    0.0292894            1 
  897000    1.0559588   -7.4173805     311.4636  0.028935674  0.029282672            2 
  898000    1.0930666   -7.3744365    312.62664  0.029011381  0.029275976            1 
  899000    1.0932688   -7.4110684    311.00189  0.028828503  0.029269356            1 
  900000    1.1142577   -7.3957512    312.38873  0.028924882  0.029262868            1 
  901000    1.0936245   -7.4537839    312.29236  0.028883866  0.029256461            2 
  902000    1.1267699   -7.3955105    313.95743  0.029005676  0.029250328            1 
  903000    1.0939376    -7.421636    313.20539  0.028904152  0.029244064            2 
  904000    1.1089525   -7.4413533    314.02136  0.028947397  0.029237794            2 
  905000    1.0911625    -7.415574    313.81029  0.028895975  0.029231484            2 
  906000    1.1073756   -7.4407745    314.25079  0.028904598  0.029225351            2 
  907000    1.0998942      -7.3866    314.59593  0.028904441  0.029219327            4 
  908000    1.0864613   -7.4265355    314.25362  0.028841192  0.029213215            2 
  909000    1.1148057   -7.4056406    315.78932   0.02895025  0.029207062            2 
  910000     1.105416    -7.439874    315.16461  0.028861228  0.029201002            2 
  911000    1.1257164    -7.433182    314.89062  0.028804484  0.029194945            1 
  912000    1.1197129   -7.4167434     316.6411  0.028932849  0.029188982            2 
  913000     1.121912   -7.3969983    317.25022  0.028956756  0.029183205            4 
  914000    1.1178819   -7.4490117    315.54246  0.028769371  0.029177098            1 
  915000    1.1387538    -7.408337    316.99008  0.028869771  0.029171004            1 
  916000    1.0971479   -7.4661092    317.07527  0.028846004  0.029164841            2 
  917000    1.0872207   -7.4137845    317.43558   0.02884729   0.02915854            3 
  918000    1.1043991   -7.4490107    316.71101  0.028750092  0.029152158            2 
  919000     1.085723   -7.4111772    317.27986   0.02877039  0.029145734            1 
  920000    1.0950684   -7.4346303     317.5075  0.028759738  0.029139253            1 
  921000    1.0946512   -7.4176882    317.70341  0.028746237  0.029132778            4 
  922000    1.1000022   -7.3998248    319.57807  0.028884496  0.029126659            1 
  923000    1.1032129   -7.4288065    319.18577  0.028817784  0.029120572            1 
  924000    1.1103857   -7.4473298    319.64268  0.028827803  0.029114672            1 
  925000    1.0988269   -7.4299315      319.435  0.028777928  0.029108779            2 
  926000    1.1118109   -7.4375493    319.84906  0.028784113  0.029102572            4 
  927000    1.0906848   -7.4130503     320.5302  0.028814294  0.029096106            5 
  928000    1.1073154   -7.4272648    320.15911   0.02874992  0.029090036            2 
  929000    1.1110151   -7.4612458    321.10876  0.028804158   0.02908394            5 
  930000    1.1100116    -7.432023    320.45667  0.028714755  0.029077815            2 
  931000    1.0912377   -7.4086681    321.70671  0.028795803   0.02907201            2 
  932000    1.0762772   -7.4087887    322.48009  0.028834057   0.02906613            2 
  933000    1.0887239   -7.4349748    321.61303  0.028725708   0.02906003            1 
  934000    1.0752874   -7.4162559    323.08841  0.028826589  0.029053851            2 
  935000    1.1183892    -7.439215    323.08876   0.02879579  0.029047747            2 
  936000    1.0986865    -7.470898    321.69783  0.028641189  0.029041345            2 
  937000    1.0954967   -7.4364918    322.44291  0.028676887  0.029034865            3 
  938000    1.1234779   -7.4311831    322.43105   0.02864526  0.029028571            1 
  939000    1.0953308   -7.4420725    322.04762  0.028580726  0.029021856            2 
  940000    1.1126207   -7.4139636    323.08768  0.028642525   0.02901539            1 
  941000     1.122089   -7.4199194    323.62105   0.02865932  0.029009147            1 
  942000    1.1024652   -7.4359715    324.76859  0.028730413  0.029002486            2 
  943000    1.0907624   -7.4673895     323.7864   0.02861315  0.028996029            2 
  944000    1.1118513     -7.47168    323.82497  0.028586244  0.028989608            1 
  945000    1.1149518    -7.473661    324.63668  0.028627573  0.028982992            2 
  946000    1.1128035   -7.4440063    324.56295  0.028590817  0.028976441            3 
  947000    1.0960626    -7.441107    325.29114  0.028624704   0.02897009            2 
  948000    1.1152443   -7.4618203    326.72692  0.028720721  0.028964039            2 
  949000    1.1229153   -7.4342522    325.88813  0.028616801  0.028957958            3 
  950000    1.0807992   -7.4562338    326.28992  0.028621923   0.02895189            2 
  951000    1.0894111   -7.4350052    327.32837  0.028682822  0.028945582            2 
  952000    1.1013171      -7.4807    326.55317  0.028584837  0.028939079            1 
  953000    1.0866564   -7.4646666    326.73467  0.028570713  0.028932738            1 
  954000    1.1112028   -7.4255966    328.42261  0.028688208  0.028926391            2 
  955000    1.0942619   -7.4323623    328.54729  0.028669048  0.028920255            4 
  956000    1.1058888   -7.4243452    328.84261  0.028664802  0.028914062            2 
  957000    1.0971013   -7.4748825     328.6781  0.028620524  0.028907788            1 
  958000    1.0867568   -7.4252104    328.00188  0.028531827  0.028901384            2 
  959000    1.1123873   -7.4075553    328.82012  0.028573177  0.028894848            3 
  960000    1.1273458   -7.4176054    329.34566  0.028589033   0.02888846            1 
  961000    1.1078024   -7.4151773    329.00205  0.028529487  0.028881863            2 
  962000    1.0688826   -7.4281639      329.086  0.028507103  0.028875144            1 
  963000    1.0735643   -7.4542987    328.90278  0.028461645  0.028868425            1 
  964000    1.1027408   -7.4466552    329.77142  0.028507211  0.028861562            2 
  965000    1.0877041   -7.4620649    329.81911  0.028481788  0.028854748            1 
  966000    1.0858351   -7.4564286    330.38825  0.028501402  0.028847972            1 
  967000    1.0814293   -7.4276288    329.65846  0.028409037   0.02884138            1 
  968000    1.0878238   -7.4264379    330.63988  0.028464177  0.028834824            3 
  969000    1.0823902   -7.4136982    330.66553  0.028437008   0.02882823            3 
  970000    1.0910757   -7.4508562    330.77677  0.028417248  0.028821469            1 
  971000    1.0715266   -7.4477472    331.73167  0.028469934  0.028814912            4 
  972000    1.0994158   -7.4577375     330.9288  0.028371811  0.028808282            2 
  973000    1.0947273   -7.4567953    330.86739  0.028337392  0.028801409            1 
  974000    1.0987309    -7.414567    331.42825  0.028356284  0.028794533            2 
  975000    1.0949987   -7.4378219    332.13962  0.028388002  0.028787688            1 
  976000    1.1021034   -7.4215135    332.63137  0.028400902  0.028780822            2 
  977000    1.0866525   -7.4447404    332.09641  0.028326204  0.028773829            2 
  978000    1.1126467   -7.4404125    333.76684  0.028439574  0.028766821            5 
  979000    1.0725646   -7.4418333     333.0672  0.028350971  0.028759772            1 
  980000    1.0963441   -7.4636335    333.04565  0.028320208  0.028752615            2 
  981000    1.0818164   -7.4889057    332.12548  0.028213173  0.028745541            3 
  982000    1.0890181   -7.4454512    333.92492  0.028337145   0.02873839            3 
  983000     1.116375   -7.4741745    333.44884  0.028267958  0.028731236            3 
  984000    1.0817648   -7.5103702    333.17388  0.028215945   0.02872394            4 
  985000    1.0923387   -7.4633495    335.31665  0.028368583  0.028717021            2 
  986000    1.0803649   -7.4885345    335.03836  0.028316291  0.028710026            1 
  987000    1.0878792   -7.4898208    334.58856  0.028249625  0.028703154            1 
  988000    1.1166421   -7.4475485     336.1645  0.028353956  0.028696024            1 
  989000    1.1178511   -7.4341188    335.69797  0.028285976   0.02868922            2 
  990000    1.1185232    -7.431867    336.66839   0.02833909  0.028682408            2 
  991000    1.0689698   -7.4873709    334.95919  0.028166767  0.028675444            2 
  992000    1.0971716   -7.4806381    336.74863  0.028288695  0.028668376            2 
  993000    1.0916292   -7.4308156    336.52146  0.028241143  0.028661128            2 
  994000    1.0917296   -7.4632984    336.69969  0.028227674  0.028654034            1 
  995000    1.0963009   -7.4525525    338.08106  0.028314996   0.02864715            2 
  996000    1.1091108   -7.4631533    336.90584   0.02818824  0.028640336            2 
  997000    1.0659223   -7.4787185    338.28689    0.0282754  0.028633493            1 
  998000    1.0868903   -7.4637236     337.0529   0.02814403  0.028626427            2 
  999000    1.1389841   -7.4630961    338.19353  0.028211005   0.02861916            3 
 1000000    1.0816891   -7.4206712    338.64247  0.028220206  0.028612124            2 
 1001000    1.0687768   -7.4392701    338.80794  0.028205789  0.028604893            2 
 1002000    1.0949425   -7.5123387    337.74085  0.028088893  0.028597301            1 
 1003000    1.1080346   -7.4421268    337.85261  0.028070174  0.028589685            1 
 1004000    1.0575063   -7.4723094    338.88963  0.028128289  0.028582364            5 
 1005000    1.0832558   -7.4709366    338.32141  0.028053185  0.028574858            1 
 1006000    1.0655662   -7.4735066      339.297  0.028106113  0.028567176            3 
 1007000      1.12318   -7.4442786    339.81491  0.028121062  0.028559832            2 
 1008000    1.0797402   -7.4846013    339.54243  0.028070638  0.028552467       -1e+20 
 1009000      1.07678   -7.4736309    339.54098  0.028042697  0.028545027            1 
 1010000    1.0670425   -7.4727377    341.08753  0.028142535  0.028537672            2 
 1011000    1.0940887   -7.4734226    340.21212  0.028042542  0.028530006            1 
 1012000    1.0649241   -7.4398017    341.72646  0.028139531  0.028522629            2 
 1013000    1.1099579   -7.4562275    340.08434  0.027976665    0.0285151            1 
 1014000    1.0867753   -7.4451369    341.11628  0.028033882  0.028507581            1 
 1015000    1.0787797   -7.4992741    341.08696  0.028003855  0.028500093            2 
 1016000    1.0905386   -7.4418172    341.46548  0.028007339  0.028492539            2 
 1017000    1.0909753   -7.4408649    342.22618  0.028042132  0.028485098            1 
 1018000    1.1084727   -7.4346737    343.70532  0.028135668  0.028477905            1 
 1019000    1.0702524   -7.4379866    342.78462  0.028032762  0.028470563            1 
 1020000     1.097729   -7.4682174    343.04185  0.028026295  0.028463179            1 
 1021000    1.0653052   -7.4908229    342.18136  0.027928612  0.028455733            2 
 1022000    1.1114943   -7.4952527    342.87831  0.027958114  0.028448056            2 
 1023000    1.0830515   -7.4658925    343.43394  0.027976046  0.028440547            2 
 1024000    1.0925097    -7.468907    344.02843  0.027997105  0.028433064            1 
 1025000    1.0938081   -7.4697965    344.18168   0.02798225  0.028425646            1 
 1026000    1.0804581   -7.4689258    343.55619  0.027904174  0.028417958            3 
 1027000     1.092754   -7.5101344    343.53933  0.027875635  0.028410263            1 
 1028000    1.1035907    -7.456241    344.83173  0.027953285  0.028402721            3 
 1029000     1.106702    -7.455301    345.33567  0.027966931  0.028395437            1 
 1030000    1.0832322    -7.455379    346.23621  0.028012638  0.028388143            1 
 1031000    1.0934728    -7.445174    345.39882  0.027917784  0.028380882            2 
 1032000    1.0958072   -7.4470095    346.67712  0.027993954  0.028373518            2 
 1033000    1.0742274    -7.508247    346.16469  0.027925515   0.02836619            3 
 1034000    1.0967447   -7.4510048    346.80026  0.027949731   0.02835889            1 
 1035000    1.0637141   -7.4624789    347.15279   0.02795111  0.028351788            1 
 1036000    1.0655896   -7.4608699    347.92818  0.027986501  0.028344646            3 
 1037000    1.0880078   -7.4816519    347.42594  0.027919153  0.028337513            3 
 1038000    1.0718766   -7.5180485    346.93036  0.027852469  0.028330296            3 
 1039000    1.1050432   -7.5255315    347.55377  0.027875663  0.028323063            3 
 1040000    1.0837001   -7.4822312    348.80523  0.027949137  0.028316155            1 
 1041000    1.0935307   -7.4667954    349.69406  0.027993441  0.028309356            4 
 1042000    1.0757455   -7.4806829    349.78669  0.027973984  0.028302374            1 
 1043000    1.0780377   -7.4912767    349.02023  0.027885924  0.028295346            1 
 1044000     1.091788   -7.4841065    349.29283  0.027880973   0.02828812            2 
 1045000    1.0858748   -7.4486431    350.71941  0.027968055  0.028281049            3 
 1046000     1.077231   -7.4569345    350.20583    0.0279004  0.028274136            1 
 1047000    1.0691152   -7.4978423     350.4937  0.027896665  0.028266981            1 
 1048000    1.0731035   -7.4550777    352.06087  0.027994662  0.028260237            2 
 1049000    1.0832653   -7.5167564    350.66403  0.027857009  0.028253344            3 
 1050000    1.0789896   -7.4866448    350.46278  0.027814506   0.02824636            1 
 1051000    1.0966531   -7.4872101    350.86191  0.027819688  0.028239311            1 
 1052000    1.0829694   -7.4541717    351.93111   0.02787794  0.028232583            2 
 1053000    1.0650098   -7.4851639    352.04329  0.027860343  0.028226023            1 
 1054000    1.0982389   -7.4764272    353.61052  0.027957821  0.028219157            1 
 1055000    1.0636588   -7.4484429    353.16065  0.027895786  0.028212622            4 
 1056000    1.0698156   -7.5006388    352.76303  0.027837991   0.02820578            2 
 1057000     1.097625   -7.4855192    353.00676   0.02783087  0.028198807            1 
 1058000    1.0912015   -7.4718269    353.82531  0.027869039  0.028192101            1 
 1059000    1.0617268   -7.4862818    353.52229  0.027818877  0.028185208            2 
 1060000     1.078596   -7.4347646    355.28548  0.027931248  0.028178305            4 
 1061000    1.0736183   -7.4770607     353.7395  0.027783499  0.028171525            2 
 1062000    1.0844302   -7.4677632    353.60946  0.027747133  0.028164386            1 
 1063000    1.0793296     -7.44995    355.20921  0.027846442  0.028157271            2 
 1064000    1.0907782    -7.507896    353.90409  0.027718052  0.028150264            1 
 1065000    1.0825611   -7.5049891    353.78791  0.027682935  0.028143082            2 
 1066000    1.0945103   -7.4926026    355.11526   0.02776073  0.028135787            5 
 1067000    1.0997607    -7.471694    355.52809  0.027766955  0.028128634            2 
 1068000    1.0787951   -7.4966831    355.18424  0.027714126  0.028121539            1 
 1069000    1.0592016   -7.5134728    355.25353  0.027693602  0.028114242            1 
 1070000    1.0763663   -7.5307262    355.59364  0.027694209  0.028106854            3 
 1071000     1.099403   -7.4577105    356.32768  0.027725466  0.028099611            1 
 1072000    1.0948771   -7.5031683    355.86994  0.027664019  0.028092645            1 
 1073000     1.058438   -7.4851473    356.42952  0.027681696  0.028085462            1 
 1074000     1.070701   -7.4951893    356.23347   0.02764071  0.028078303            3 
 1075000    1.0747259   -7.4954051    357.81961  0.027737954  0.028071145            1 
 1076000    1.0683759   -7.4957664     357.3948  0.027679275  0.028063963            1 
 1077000    1.1194605   -7.5474154    357.73452  0.027679861  0.028056757            3 
 1078000    1.1016488   -7.4573471     358.8532  0.027740662  0.028049703            1 
 1079000     1.098088   -7.4837223    358.44585  0.027683492  0.028042783            3 
 1080000    1.0720125   -7.4855523    358.01646  0.027624727  0.028035702            1 
 1081000    1.0624125   -7.4944925    358.42835  0.027630925  0.028028308            3 
 1082000    1.0701968   -7.4664582    358.75159  0.027630282  0.028021105            1 
 1083000    1.0962024   -7.5109873    358.65062  0.027597001  0.028013763            1 
 1084000    1.0792063   -7.4782969    359.41197  0.027630072  0.028006353            1 
 1085000      1.07237    -7.479071     359.0102  0.027573748  0.027998998            5 
 1086000    1.0737197    -7.464071    359.71257  0.027602253  0.027991665            2 
 1087000    1.0798934   -7.5083602    359.80148  0.027583677  0.027984246            1 
 1088000     1.076117   -7.5013785    359.18136  0.027510827   0.02797679            2 
 1089000    1.0912475   -7.4949749    359.84783  0.027536565  0.027969309            5 
 1090000    1.0741829   -7.5098409    359.81473  0.027508771  0.027961933            1 
 1091000    1.0644991   -7.5145703    359.93168   0.02749249  0.027954396            2 
 1092000    1.0825274   -7.4758575    360.58701  0.027517324  0.027946934            2 
 1093000    1.0801601   -7.4966576    360.77429  0.027506427  0.027939571            2 
 1094000    1.0713635   -7.5294735    360.85361  0.027487326  0.027932133            2 
 1095000    1.0944396   -7.4981546     361.2617   0.02749328  0.027924645            2 
 1096000    1.0586347   -7.4839556    360.81498  0.027434229  0.027917682            3 
 1097000    1.0708202   -7.4894576    361.93693  0.027494449  0.027910416            3 
 1098000    1.0791222   -7.4887778    362.25909  0.027493859  0.027902956            3 
 1099000    1.0701962   -7.4815083    362.75645  0.027506555  0.027895449            2 
 1100000    1.0930895   -7.4926091    362.49727  0.027461915  0.027888071            1 
 1101000    1.0793773   -7.5321165    362.94969  0.027471215  0.027880623            3 
 1102000    1.1004254    -7.475133    363.75626  0.027507279  0.027873075            1 
 1103000    1.0577551   -7.5000044     364.5214  0.027540148   0.02786595            5 
 1104000    1.0916587   -7.4790597     363.9215   0.02746992  0.027858908            2 
 1105000    1.0451875   -7.4905902    364.62481    0.0274981  0.027851911            2 
 1106000    1.0611611   -7.4993593    365.34672  0.027527631  0.027844781            3 
 1107000    1.0484638    -7.482247    366.05754  0.027556274  0.027837737            2 
 1108000    1.0789223   -7.5316823    365.12714  0.027461428  0.027830735            2 
 1109000    1.0662466   -7.5025999    365.64971  0.027475933  0.027823654            1 
 1110000    1.0661207   -7.4994588    366.01095  0.027478299   0.02781657            4 
 1111000    1.0748648   -7.4999487    365.90513   0.02744563  0.027809621            2 
 1112000    1.0655213   -7.5655501    364.89455  0.027345215  0.027802479            1 
 1113000    1.0945603   -7.4781357    366.52985  0.027443086   0.02779524            1 
 1114000    1.0706473   -7.5166635    365.87562  0.027369511  0.027788333            3 
 1115000    1.0830463   -7.4972892    367.08203  0.027435129  0.027781153            1 
 1116000    1.0631013    -7.528794    366.97053   0.02740222  0.027774041            1 
 1117000    1.0529068   -7.5317917    368.07589  0.027460153  0.027766793            2 
 1118000    1.0847768   -7.5077125    367.61774  0.027401441   0.02775976            1 
 1119000    1.0697695   -7.4607848    369.29727  0.027502031  0.027752648            3 
 1120000    1.0948363   -7.4979769    368.01663   0.02738219  0.027745616            2 
 1121000    1.0568401   -7.5206018    368.09662   0.02736371  0.027738493            2 
 1122000     1.081387   -7.4907847    368.26251  0.027351642  0.027731351            3 
 1123000    1.0592487   -7.4955872    369.04008  0.027384986  0.027724135            1 
 1124000    1.0807028   -7.4976889    368.80659  0.027343312  0.027717015            2 
 1125000     1.080212    -7.517728    370.16457  0.027419598  0.027709827            2 
 1126000     1.077892    -7.496507    369.01282  0.027310007  0.027702694            1 
 1127000    1.0771433   -7.4785978    370.50717  0.027396271  0.027695545            2 
 1128000    1.0793202   -7.4860429    370.95447  0.027405029  0.027688497            1 
 1129000    1.0507525   -7.5221543    369.78668  0.027294559  0.027681419            3 
 1130000    1.0618524   -7.5005317    368.48474  0.027174391  0.027674164            2 
 1131000    1.0815176   -7.5087006    370.51828  0.027300198  0.027666851            1 
 1132000    1.0482786   -7.5181608    370.94579  0.027307552  0.027659808            1 
 1133000    1.0710848   -7.5526642    371.21256  0.027303071  0.027652528            1 
 1134000    1.0780858   -7.4998609    371.72585  0.027316714  0.027645246            3 
 1135000     1.071605   -7.5111059    371.69908  0.027290681   0.02763812            1 
 1136000    1.0617104   -7.4972358     372.7713  0.027345312   0.02763107            2 
 1137000    1.0786829   -7.5342437    371.02821  0.027193507  0.027624109            2 
 1138000    1.0585425   -7.5311265    371.87947  0.027231947  0.027616805            1 
 1139000    1.0571903   -7.5052575     371.4615  0.027177458  0.027609453            2 
 1140000    1.0732197   -7.4920911    371.85342  0.027182267  0.027602184            2 
 1141000    1.0895033   -7.5100334     372.8284  0.027229652  0.027595111            1 
 1142000    1.0619298   -7.4991591    372.53392   0.02718432  0.027587912            2 
 1143000    1.0716528   -7.5127076    373.40507   0.02722405  0.027580526            2 
 1144000    1.0735347   -7.4977104    372.36203  0.027124274  0.027573208            1 
 1145000    1.0648136   -7.5042303    373.88449  0.027211389  0.027565889            1 
 1146000    1.0671207   -7.5127862    373.14342  0.027133757  0.027558477            3 
 1147000    1.0570787   -7.5390684    373.32515  0.027123304  0.027551011            5 
 1148000    1.0747149   -7.4740982    376.11196  0.027301972  0.027543793            3 
 1149000    1.0640498   -7.5341632    374.11814  0.027133605  0.027536664            2 
 1150000    1.0973361   -7.5145349     374.7426  0.027155261  0.027529206            2 
 1151000    1.0712773   -7.5108217    375.28066  0.027170624  0.027522027            2 
 1152000    1.0893827   -7.5221478    373.62053  0.027026948  0.027514722            2 
 1153000    1.0393675   -7.5136391    375.49268  0.027138818  0.027507354            2 
 1154000     1.075262   -7.5677938    373.53599  0.026974003   0.02749973            3 
 1155000    1.0712027   -7.5093725    376.21616  0.027144023   0.02749201            2 
 1156000    1.0637477   -7.5247612    375.08042  0.027038669  0.027484439            1 
 1157000    1.0582625   -7.5369951    374.40761   0.02696684   0.02747668            1 
 1158000    1.0405147   -7.5177152    375.58346   0.02702817  0.027468828            4 
 1159000    1.0456559    -7.515064    376.18277  0.027047942  0.027461112            4 
 1160000    1.0518482   -7.5516866    376.21038  0.027026608  0.027453349            3 
 1161000    1.0767933   -7.5287402    376.87497  0.027051031  0.027445631            2 
 1162000    1.0919421   -7.5196738    375.40559  0.026922375  0.027437882            1 
 1163000    1.0829603   -7.5186248    377.30137  0.027035065  0.027430305            3 
 1164000    1.0802573   -7.5260548    377.39778  0.027018742  0.027422942            2 
 1165000    1.0699245   -7.5195054    377.12982  0.026976382  0.027415462            5 
 1166000    1.0519241   -7.5840739    377.15971  0.026955383   0.02740792            2 
 1167000    1.0792023   -7.5417292    378.19364  0.027006116  0.027400291            1 
 1168000    1.0580406   -7.5255307    377.30379  0.026919505  0.027392962            3 
 1169000    1.0730327   -7.5103948    379.35171  0.027042466  0.027385667            2 
 1170000    1.0505649   -7.5024691    377.82732  0.026910778   0.02737819            2 
 1171000    1.0369282   -7.5236126    378.65264   0.02694653  0.027370553            3 
 1172000    1.0483446   -7.5577054    379.08301  0.026954139  0.027362916            3 
 1173000    1.0701873   -7.5247396    379.49468  0.026960406   0.02735539            2 
 1174000    1.0618909   -7.5389515    380.55614  0.027012787  0.027348059            2 
 1175000    1.0698759   -7.5032739    381.63258   0.02706614  0.027340748            1 
 1176000    1.0678713   -7.5095087    381.64801  0.027044218  0.027333596            1 
 1177000    1.0864792   -7.5046705    381.18827  0.026988691  0.027326295            3 
 1178000    1.0595286   -7.5196196     380.5119  0.026917933  0.027319068            2 
 1179000    1.1012031   -7.5661184    381.45728  0.026961922  0.027311924            5 
 1180000    1.0689094    -7.536456    382.86237  0.027038303  0.027304889            2 
 1181000    1.0717339   -7.5622612    381.65446  0.026930177  0.027297679            3 
 1182000    1.0526185   -7.4929586    382.79369  0.026987711  0.027290508            2 
 1183000    1.0376632   -7.4846687    383.08901  0.026985701  0.027283348            1 
 1184000    1.0674354   -7.4579507    382.83132  0.026944772  0.027276261            3 
 1185000    1.0729149   -7.5414036    382.40049  0.026891737  0.027269119            1 
 1186000    1.0719306   -7.5429836    382.99205  0.026910627  0.027261857            2 
 1187000    1.0630885    -7.531003    382.70136  0.026867548   0.02725449            1 
 1188000    1.0513167    -7.549705    383.94839  0.026932406  0.027247206            1 
 1189000    1.0276649    -7.523223    382.98275  0.026842077   0.02723979            2 
 1190000    1.0588812   -7.5198859    383.75126  0.026873337  0.027232471            1 
 1191000    1.0660028   -7.5593508    382.78616  0.026783247  0.027225254            1 
 1192000    1.0434699   -7.5241624    383.99959  0.026845609  0.027217865            4 
 1193000    1.0700291   -7.5540504    384.83051  0.026881148  0.027210553            2 
 1194000    1.0881314   -7.5041202    384.91168    0.0268643  0.027203232            5 
 1195000      1.05766   -7.5207098    383.89327    0.0267708  0.027195894            1 
 1196000    1.0708403   -7.5232864    385.06968  0.026830385  0.027188619            1 
 1197000     1.082982   -7.5659522    384.44939  0.026764786  0.027181403            1 
 1198000    1.0670364   -7.5503429    384.94195  0.026776708  0.027174219            2 
 1199000    1.0550396   -7.5404813    385.20775  0.026772849  0.027167008            4 
 1200000    1.0647745   -7.5499444    385.74615  0.026787927  0.027159777            1 
 1201000    1.0686366   -7.5447237    386.08967  0.026789458  0.027152604            1 
 1202000    1.0622243   -7.5359261    385.78073  0.026745752  0.027145506            2 
 1203000    1.0599936   -7.5081206    387.72935  0.026858503  0.027138434            1 
 1204000    1.0887438   -7.5488843    387.97268  0.026853037  0.027131661            2 
 1205000    1.0505197   -7.5371984    388.72714  0.026882928  0.027124828            2 
 1206000    1.0531944   -7.5842457    387.89689  0.026803267  0.027117873            3 
 1207000    1.0461852   -7.5067898    389.42624   0.02688665  0.027110898            2 
 1208000    1.0362555   -7.5820939    388.69204  0.026813744  0.027103996            1 
 1209000    1.0563478   -7.5678531    387.34771  0.026698904  0.027096984            1 
 1210000    1.0646727   -7.5369797     389.3085   0.02681188  0.027089846            2 
 1211000    1.0780366   -7.5468551    388.14021  0.026709346  0.027082494            2 
 1212000    1.0788102   -7.5404998     388.1952  0.026691089  0.027075156            1 
 1213000     1.025803   -7.5078164    388.98624  0.026723429   0.02706786            2 
 1214000    1.0747857   -7.4976031    388.64247  0.026677819  0.027060717            1 
 1215000    1.0492276   -7.5500693    389.35554  0.026704769    0.0270536            2 
 1216000    1.0694761   -7.5701223    389.16445  0.026669713  0.027046337            1 
 1217000    1.0469535   -7.5340738    391.15169  0.026783874  0.027039104            1 
 1218000    1.0705894   -7.5211359    391.44326  0.026781832   0.02703217            3 
 1219000    1.0620142   -7.5307296    390.16717  0.026672626  0.027024739            4 
 1220000    1.0450498   -7.5282215    390.05101  0.026642829    0.0270174            1 
 1221000    1.0501872    -7.545596    390.65089   0.02666195  0.027010092            1 
 1222000    1.0401487   -7.5085314    391.25935  0.026681625  0.027002751            1 
 1223000    1.0467293   -7.5379784    390.10449  0.026581118  0.026995431            2 
 1224000    1.0569294   -7.5538204    390.51563  0.026587393  0.026988011            3 
 1225000    1.0587906   -7.5815543     389.8597  0.026521068  0.026980619            1 
 1226000    1.0466007   -7.5891114    389.70145   0.02648868    0.0269731            1 
 1227000    1.0669644   -7.5545415    390.45734  0.026518428  0.026965633            2 
 1228000    1.0489305   -7.6065732    389.52025  0.026433241  0.026958009            1 
 1229000    1.0736431   -7.5694698    391.75973  0.026563583  0.026950455            1 
 1230000    1.0238134   -7.5783017    392.24184  0.026574651  0.026943023            2 
 1231000    1.0650541   -7.5420413    392.86989  0.026595579   0.02693575            3 
 1232000    1.0264546   -7.5502697    392.92334  0.026577607  0.026928444            1 
 1233000    1.0520379   -7.5418575    394.15058  0.026638995  0.026921126            1 
 1234000    1.0301459     -7.53134    392.89279  0.026532468  0.026913757            1 
 1235000    1.0438434   -7.5438738    394.08609  0.026591504  0.026906503            1 
 1236000     1.030891   -7.5198308    393.94177   0.02656026  0.026899145            1 
 1237000    1.0570333   -7.5607087    393.84717  0.026532415  0.026891674            2 
 1238000    1.0607166   -7.5933072    393.49627  0.026487363  0.026884376            2 
 1239000    1.0664222   -7.5343402    394.55852  0.026537431  0.026877097            3 
 1240000    1.0453207   -7.5721511    395.05985  0.026549721  0.026870038            2 
 1241000    1.0485815   -7.5012928    395.39893  0.026551097  0.026863055            1 
 1242000    1.0464042   -7.4794356    396.32722  0.026592003  0.026856007            1 
 1243000    1.0320542   -7.5438347    395.62605  0.026523602  0.026848925            1 
 1244000     1.057329   -7.5315498    396.20094  0.026540792  0.026841725            2 
 1245000    1.0665434   -7.5810758    395.15067  0.026449175  0.026834376            1 
 1246000    1.0172027   -7.5615133      395.976  0.026483146  0.026827089            3 
 1247000    1.0685806   -7.5709817    395.40549  0.026423783  0.026819802            1 
 1248000    1.0559851    -7.522749     396.7788  0.026494311  0.026812602            2 
 1249000     1.044182    -7.558847    396.63263  0.026463346  0.026805532            1 
 1250000    1.1024112   -7.5781217     397.0361  0.026469073  0.026798321            2 
 1251000    1.0540935    -7.590146    397.95023  0.026508808  0.026791125            2 
 1252000    1.0587342   -7.5732592    397.08974  0.026430361  0.026783847            1 
 1253000    1.0421426   -7.5465562    397.19213  0.026416077  0.026776773            2 
 1254000    1.0732142   -7.5650731    397.81343  0.026436299  0.026769568            3 
 1255000     1.029804   -7.5231346    398.83702  0.026483202  0.026762329            3 
 1256000    1.0457092   -7.5828375    397.70351   0.02638691  0.026755198            2 
 1257000    1.0292505    -7.602696    398.43867  0.026414656  0.026748074            1 
 1258000    1.0313574   -7.5802607    399.77407  0.026482119  0.026740912            2 
 1259000     1.058139   -7.5578333    398.53102  0.026378807  0.026733763            4 
 1260000    1.0378673   -7.5161659    400.37251  0.026479663  0.026726616            2 
 1261000    1.0672305    -7.593101     398.8295  0.026356694  0.026719374            2 
 1262000    1.0559487   -7.5672218    399.40404  0.026373748  0.026712081            2 
 1263000    1.0575855   -7.5604603    399.43656  0.026355012  0.026704869            2 
 1264000    1.0457135    -7.550675    400.53078  0.026406301  0.026697612            2 
 1265000    1.0231355   -7.5236255    400.22882  0.026365535  0.026690216            4 
 1266000    1.0453124   -7.5167726    400.78922  0.026381597  0.026682845            2 
 1267000    1.0246011   -7.5487991    400.56308  0.026345901  0.026675473            1 
 1268000    1.0247146    -7.540548    401.48488  0.026385705  0.026668138            2 
 1269000    1.0324041   -7.5624411    401.05285  0.026336542  0.026660745            3 
 1270000    1.0648476   -7.5932797    399.91186  0.026240936  0.026653409            5 
 1271000     1.057125   -7.5644518    401.45381  0.026321388   0.02664612            2 
 1272000    1.0406422   -7.5443261    402.61412  0.026376711  0.026638814            1 
 1273000    1.0486458   -7.5602142    401.43473  0.026278786  0.026631672            1 
 1274000    1.0290195   -7.5578138    402.94749  0.026357109  0.026624485            4 
 1275000    1.0486828   -7.5511862    403.70968  0.026386253   0.02661724            2 
 1276000    1.0508823   -7.5751504    403.44385  0.026348214  0.026610078            2 
 1277000     1.050145   -7.5529078    403.18395  0.026310621  0.026602911            1 
 1278000    1.0269986   -7.5196119    402.16425  0.026223543  0.026595627            2 
 1279000    1.0671281   -7.5907517    401.45386  0.026156754  0.026588263            2 
 1280000     1.057334   -7.5826601     402.1604  0.026182318  0.026580731            2 
 1281000    1.0452558   -7.5659602    403.08867  0.026222266  0.026573262            1 
 1282000    1.0278473   -7.5597149    404.75893  0.026310383  0.026565964            1 
 1283000    1.0314563   -7.5946101    403.50079  0.026208158  0.026558749            2 
 1284000    1.0369956   -7.5693652    404.40305  0.026246304  0.026551584       -1e+20 
 1285000    1.0725031   -7.6068897    403.26614  0.026152149  0.026544356            1 
 1286000    1.0491783   -7.5678682    403.72826  0.026161759  0.026537015            1 
 1287000    1.0561939   -7.5736765    404.61339  0.026198743  0.026529723            2 
 1288000    1.0187943   -7.5325772    405.90012  0.026261653  0.026522609            2 
 1289000    1.0725665   -7.5890588    403.81619  0.026106555  0.026515451            2 
 1290000    1.0652686   -7.6093269    403.42401  0.026060983  0.026508226            1 
 1291000    1.0462152   -7.5722673    404.38469  0.026102807   0.02650085            2 
 1292000    1.0489185   -7.5614387    405.81636  0.026174946  0.026493522            3 
 1293000    1.0511838    -7.572916    405.95275  0.026163492  0.026486306            2 
 1294000     1.041063   -7.6201407    404.60554  0.026056513  0.026478892            2 
 1295000    1.0561724   -7.5582114    405.89965  0.026119669  0.026471395            2 
 1296000    1.0418163   -7.5727583    405.69501  0.026086356  0.026463916            3 
 1297000     1.042631   -7.6100723    406.23577  0.026100987  0.026456394            1 
 1298000    1.0164463   -7.5592724    406.20002  0.026078584  0.026448708            2 
 1299000    1.0349337   -7.5577697    406.93399  0.026105594  0.026441103            2 
 1300000    1.0638591   -7.6351966    404.74043  0.025944899  0.026433345            2 
 1301000    1.0230302   -7.5580459    405.88105  0.025998018  0.026425567            2 
 1302000     1.039358   -7.5479073    405.46491  0.025951415  0.026417838            4 
 1303000    1.0239718   -7.5854944    406.19486  0.025978182   0.02641002            2 
 1304000    1.0127831   -7.5886822    406.96266  0.026007327  0.026402215            2 
 1305000     1.046144   -7.5817221    407.37695  0.026013853  0.026394508            2 
 1306000    1.0302863   -7.6029177    405.98552  0.025905151   0.02638675            2 
 1307000    1.0486163   -7.5708757    407.47316  0.025980181  0.026379144            2 
 1308000    1.0367429   -7.5626139    407.85636  0.025984732  0.026371498            1 
 1309000    1.0317462   -7.5552876    408.58453  0.026011238  0.026363877            4 
 1310000    1.0272883   -7.6252216    407.07151  0.025895134  0.026356258            1 
 1311000    1.0385854   -7.5451221    408.73831  0.025981332  0.026348616            1 
 1312000    1.0415256   -7.6185271    406.66832  0.025830051  0.026340842            1 
 1313000    1.0426475   -7.5795871    408.05244  0.025898225  0.026333025            2 
 1314000    1.0284339   -7.5729866    407.49628  0.025843244  0.026325054            2 
 1315000    1.0508661   -7.5855358    407.35046  0.025814351  0.026317063            3 
 1316000    1.0285655   -7.5469685    409.25032  0.025915041  0.026309258            3 
 1317000    1.0149194   -7.5850876    407.44853  0.025781355  0.026301389            1 
 1318000    1.0498569   -7.5695029    409.05554  0.025863401  0.026293347            1 
 1319000    1.0443249   -7.5853506    408.83683  0.025829974  0.026285349            1 
 1320000    1.0409428   -7.5967375    407.75812  0.025742305  0.026277342            1 
 1321000    1.0373982   -7.5431566    408.87937  0.025793551  0.026269257            1 
 1322000    1.0478777    -7.569363    409.29951  0.025800524  0.026261293            1 
 1323000    1.0368789   -7.6366084    408.06612  0.025703334  0.026253171            5 
 1324000    1.0486566   -7.5844934    409.35203  0.025764856  0.026245071            3 
 1325000     1.030115   -7.5817974    409.87171  0.025778095  0.026237112            2 
 1326000    1.0188527   -7.5705888    410.00378  0.025766954   0.02622912            1 
 1327000    1.0134315   -7.5775198    409.64385  0.025724934  0.026221011            3 
 1328000    1.0380541   -7.6108675    409.26223  0.025681616  0.026212853            1 
 1329000    1.0172966   -7.6122776    409.06474  0.025649908  0.026204713            3 
 1330000    1.0289574   -7.6286058    409.70816  0.025670937  0.026196606            1 
 1331000    1.0366117     -7.60405    411.31553  0.025752287  0.026188496            2 
 1332000     1.058669   -7.5888044    410.61284  0.025688991   0.02618031            4 
 1333000    1.0369016   -7.6167528    410.90346  0.025687888  0.026172297            3 
 1334000    1.0376256   -7.5855629    411.29545  0.025693119  0.026164206            2 
 1335000    1.0521608   -7.5891346    412.22946  0.025732176  0.026156189            2 
 1336000    1.0435398   -7.5659263    410.75425  0.025620899  0.026148119            1 
 1337000    1.0318333   -7.5567003    412.60888  0.025717332  0.026140071            3 
 1338000    1.0374426   -7.5942883    411.16747  0.025608337  0.026131948            2 
 1339000    1.0603667   -7.5592188    412.56235  0.025676024   0.02612385            3 
 1340000    1.0386269   -7.5798404    413.14812  0.025693291  0.026115585            2 
 1341000    1.0289187   -7.5648313    412.22352  0.025616674  0.026107572            1 
 1342000    1.0249256   -7.6089059     413.6021  0.025683191  0.026099544            1 
 1343000    1.0374028   -7.5515506    413.10489  0.025633215  0.026091518            2 
 1344000    1.0422709   -7.6066225     413.6368  0.025647123  0.026083512            4 
 1345000    1.0504653   -7.5919411    413.40691  0.025613811  0.026075521            1 
 1346000    1.0256699   -7.5661175    413.93163  0.025627268  0.026067492            4 
 1347000    1.0469865   -7.6022968    414.31144   0.02563174  0.026059661            1 
 1348000     1.024488   -7.5541115    413.85814  0.025584702  0.026051646            1 
 1349000    1.0207914   -7.5474908    413.50426  0.025543876  0.026043549            3 
 1350000    1.0349179   -7.5851966    413.29527  0.025512054  0.026035417            1 
 1351000    1.0224053   -7.6205693    414.94775  0.025595099  0.026027152            2 
 1352000    1.0458245   -7.6183583    414.07379    0.0255223  0.026019081            1 
 1353000    1.0348444   -7.6148113    414.42856  0.025525287  0.026010942            3 
 1354000    1.0431827   -7.5640466    415.23244  0.025555911  0.026002803            1 
 1355000     1.056354   -7.5948793    415.55184  0.025556694  0.025994861            2 
 1356000    1.0314716   -7.5806677    415.54756  0.025537584  0.025987003            1 
 1357000    1.0084984    -7.607078    415.06944  0.025489403  0.025978979            1 
 1358000    1.0197938   -7.6373958     415.4068  0.025491335  0.025970797            2 
 1359000    1.0452682   -7.5743248    416.53103  0.025541515  0.025962681            2 
 1360000    1.0308866   -7.5519774    416.77785  0.025537858  0.025954864            2 
 1361000    1.0345408   -7.6032231    415.90951  0.025465927  0.025946936            1 
 1362000    1.0078034   -7.5990131    416.77347   0.02550009  0.025938834            2 
 1363000    1.0254936    -7.560063    416.80072  0.025483047  0.025930982            1 
 1364000    1.0333028   -7.5920082    416.96182  0.025474207  0.025922999            2 
 1365000    1.0185721   -7.5829121    417.68927  0.025499956  0.025914974            1 
 1366000    1.0556331   -7.6019517    417.18102  0.025450282  0.025907138            2 
 1367000    1.0304789    -7.579139    417.88808  0.025474767  0.025899133            3 
 1368000    1.0503326   -7.5770356    418.54803  0.025496347  0.025891213            1 
 1369000    1.0443679   -7.6141525     417.6592  0.025423618  0.025883215            2 
 1370000    1.0245424   -7.5846977    419.06985  0.025490867  0.025875347            1 
 1371000    1.0307007   -7.6109049    418.58917  0.025443057  0.025867601            2 
 1372000    1.0262933   -7.5989457    418.44275  0.025415619  0.025859738            1 
 1373000    1.0042268   -7.6353015    416.89394  0.025303104  0.025851861            2 
 1374000    1.0339024   -7.5947112    418.91386  0.025407197  0.025843751            2 
 1375000    1.0391834   -7.6096155    417.98095  0.025332179  0.025835746            2 
 1376000    1.0454697   -7.5922912    419.18579  0.025386736  0.025827754            2 
 1377000    1.0345103   -7.5637986    419.35727  0.025378678  0.025819907            1 
 1378000      1.04081   -7.5934611    420.49112  0.025428829  0.025811974            4 
 1379000    1.0402382   -7.5884025    418.88075  0.025313074  0.025804008            3 
 1380000    1.0221872   -7.6069901    419.49267  0.025331683   0.02579609            2 
 1381000     1.028932   -7.6050267    419.54799  0.025316678  0.025788035            4 
 1382000    1.0355508   -7.6072562    419.86649  0.025317564  0.025779887            1 
 1383000    1.0374639   -7.6115337    420.61423  0.025344314  0.025771781            2 
 1384000    1.0325709   -7.5851563    421.20693  0.025361689  0.025763652            3 
 1385000    1.0449761   -7.5881899    419.92515  0.025266254  0.025755612            2 
 1386000    1.0380995   -7.5817186    421.31013  0.025331297  0.025747736            2 
 1387000    1.0266391   -7.5958647    420.51409  0.025265206  0.025739927            3 
 1388000    1.0221126   -7.5967209    422.09216  0.025341748  0.025731965            1 
 1389000    1.0215968   -7.6132787    421.31586  0.025276929  0.025724272            2 
 1390000    1.0107282   -7.5778271    422.72755  0.025343378  0.025716483            1 
 1391000    1.0159518   -7.5875356    423.18339  0.025352468  0.025708726            3 
 1392000    1.0424486   -7.5999272     422.8896  0.025316667  0.025701061            1 
 1393000    1.0489184   -7.6231003    423.24584  0.025319804  0.025693163            3 
 1394000    1.0464019   -7.6013776    422.70119  0.025269081  0.025685452            1 
 1395000    1.0430349   -7.6514324     423.2948  0.025286428  0.025677756            3 
 1396000    1.0070531   -7.6134235    423.60412  0.025286779  0.025669977            1 
 1397000    1.0461165   -7.6301875     423.1095  0.025239173  0.025662273            2 
 1398000    1.0299859    -7.625101    423.79594  0.025262038  0.025654658            3 
 1399000    1.0129136   -7.5916392    424.73071  0.025299661  0.025647013            2 
 1400000     1.034492   -7.5890239    425.62957  0.025335093  0.025639282            2 
 1401000    1.0161697   -7.5964208    423.06309  0.025164352   0.02563153            1 
 1402000    1.0370195   -7.6169325    423.63345  0.025180305  0.025623819            2 
 1403000    1.0163961   -7.5929851    425.49252   0.02527278  0.025616087            1 
 1404000    1.0394654    -7.624726    424.33735  0.025186215  0.025608303            2 
 1405000     1.035215   -7.6008614    425.44298  0.025233866   0.02560054            2 
 1406000    1.0371396   -7.6454262    424.30635  0.025148551  0.025592709            2 
 1407000    1.0190824   -7.5976976    425.42805  0.025197113   0.02558485            2 
 1408000    1.0288882   -7.6653093    423.59651  0.025070816  0.025576971            2 
 1409000    1.0657842    -7.587126    425.49746  0.025165452  0.025569197            4 
 1410000    1.0405971    -7.616594    426.51177  0.025207551  0.025561538            3 
 1411000    1.0440497   -7.6199215    425.97644   0.02515807  0.025553851            2 
 1412000    1.0272456   -7.5787394    427.10252  0.025206712  0.025546092            3 
 1413000    1.0093703   -7.6049024    427.28278  0.025199503  0.025538386            2 
 1414000   0.99960386   -7.6340599    427.33742  0.025184902  0.025530714            2 
 1415000    1.0145668   -7.6013891    427.31708  0.025165906   0.02552302            2 
 1416000    1.0186986    -7.639182    427.37308  0.025151429  0.025515305            1 
 1417000     1.011134   -7.6615639    427.00194  0.025111853  0.025507536            1 
 1418000    1.0265431   -7.6089301    427.75803  0.025138577  0.025499891            1 
 1419000    1.0255796     -7.57794    428.12402  0.025142355  0.025492325            1 
 1420000    1.0241913   -7.6220266    427.84637  0.025108355  0.025484637            2 
 1421000    1.0125127   -7.6189832    426.99608  0.025040821  0.025476893            2 
 1422000    1.0434877   -7.6412288    427.71457  0.025065317  0.025469123            1 
 1423000    1.0337981    -7.622959    428.25151  0.025079147  0.025461149            4 
 1424000    1.0509622    -7.606996    429.16858  0.025115203  0.025453238            1 
 1425000    1.0074432   -7.6209284     428.5486  0.025061321   0.02544531            2 
 1426000    1.0248566   -7.6546241    427.93668  0.025007987  0.025437328            1 
 1427000    1.0133911    -7.606773    427.36278  0.024956948  0.025429411            2 
 1428000    1.0102346   -7.6368986    428.61465  0.025012526  0.025421497            3 
 1429000    1.0102423   -7.6384863    428.62039  0.024995357  0.025413625            1 
 1430000    1.0144168    -7.611814    429.66981  0.025039033  0.025405713            1 
 1431000    1.0338591   -7.6200452    427.89037  0.024917911  0.025397806            3 
 1432000    1.0037912   -7.6426169    429.17233  0.024975112   0.02538984            2 
 1433000    1.0230113   -7.6318828    428.72819  0.024931856  0.025381923            3 
 1434000    1.0170359   -7.6436465    428.64396  0.024909575  0.025374033            1 
 1435000    1.0203319   -7.6385092    429.10805  0.024919167  0.025366122            3 
 1436000    1.0130659    -7.628348    429.87757   0.02494647  0.025358117            4 
 1437000    1.0029611   -7.5924217    429.78392  0.024923679  0.025350239            3 
 1438000    1.0411162   -7.6274074    430.73725  0.024961593  0.025342354            2 
 1439000    1.0333757   -7.5927578    431.36183  0.024980417   0.02533443            2 
 1440000    1.0211113   -7.6416153    430.64776  0.024921746  0.025326498            2 
 1441000     1.039681   -7.6373683    431.14167  0.024933013  0.025318552            3 
 1442000    1.0264014   -7.6063633    432.52425  0.024995622  0.025310689            5 
 1443000    1.0054403   -7.6045689    432.93988  0.025002303   0.02530303            1 
 1444000    1.0200674     -7.67239    431.54345  0.024904401  0.025295194            1 
 1445000    1.0221495   -7.5947894    433.40292  0.024994402  0.025287388            3 
 1446000    1.0097504   -7.6514203    433.46604  0.024980754  0.025279642            3 
 1447000    1.0261638   -7.6288837    433.32056  0.024955112  0.025271986            2 
 1448000    1.0259169   -7.6010947    433.57866  0.024952732  0.025264428            1 
 1449000   0.99851345   -7.6105753    433.71599  0.024943408  0.025256866            2 
 1450000    1.0273816   -7.6553036    432.44766  0.024853314  0.025249229            3 
 1451000    1.0363987   -7.6318063    434.23033  0.024938567  0.025241738            1 
 1452000    1.0310642   -7.6423979     434.0458  0.024910801  0.025234194            3 
 1453000    1.0070598   -7.6048908    434.44671   0.02491665  0.025226634            2 
 1454000    0.9939999   -7.6383145    433.82389  0.024863818  0.025219137            2 
 1455000    1.0247197   -7.6179437    433.92889  0.024852743  0.025211647            2 
 1456000    1.0344452   -7.6368365    434.84832  0.024888297  0.025204207            1 
 1457000     1.023613   -7.5968345    436.26179  0.024952059  0.025196911            1 
 1458000    1.0113167   -7.6100379    436.45999  0.024946273  0.025189498            1 
 1459000    1.0185988   -7.6627073    435.29281  0.024862509  0.025182028            1 
 1460000    1.0140179   -7.6447932    435.57071  0.024861342  0.025174654            3 
 1461000    1.0179826   -7.6224727    435.85003  0.024860257  0.025167223            2 
 1462000     1.011767   -7.6321738    437.26577   0.02492395  0.025159726            2 
 1463000    1.0294685   -7.6504543    436.13817  0.024842685  0.025152336            1 
 1464000    1.0117139   -7.6061151    437.90474  0.024926272  0.025144996            2 
 1465000    1.0214879   -7.6492919    436.59534  0.024834775  0.025137548            4 
 1466000   0.98835263   -7.6321211    436.27467  0.024799606  0.025129972            1 
 1467000    1.0132823   -7.6773219    437.01285  0.024824634  0.025122426            2 
 1468000   0.99343109   -7.6063324    436.96555  0.024805038   0.02511496            1 
 1469000    1.0101722   -7.6379389    437.34056  0.024809426  0.025107401            2 
 1470000    1.0076229   -7.6333417    436.59942  0.024750534  0.025099916            2 
 1471000    1.0240457   -7.6195755    437.16344  0.024765661  0.025092483            4 
 1472000    1.0102717   -7.6602385    438.33889  0.024815381  0.025085011            2 
 1473000    1.0080643   -7.6650251    436.56342  0.024698089  0.025077398            2 
 1474000    1.0263711   -7.6633069    436.63666  0.024685474    0.0250697            3 
 1475000    1.0207958   -7.6291034    438.09654  0.024751217  0.025062075            1 
 1476000    1.0373271   -7.6492347      437.553   0.02470376  0.025054515            2 
 1477000    1.0146367   -7.6702203    438.36257  0.024732711  0.025046969            2 
 1478000    1.0015328   -7.6431832    438.60125  0.024729435  0.025039342            2 
 1479000    1.0029858   -7.6252764    439.97083  0.024789882  0.025031765            3 
 1480000    1.0290236    -7.657697    439.06829  0.024722313   0.02502423            6 
 1481000   0.99653405   -7.6477232    438.90923  0.024696671  0.025016738            3 
 1482000    1.0302932   -7.6527026    439.08836  0.024690079  0.025009258            2 
 1483000      1.01515   -7.6657849    439.46646  0.024694677  0.025001685            3 
 1484000    1.0192139   -7.6491969    439.97345  0.024706505  0.024994089            3 
 1485000    1.0187939   -7.6614075    439.46689  0.024661442  0.024986548            2 
 1486000    1.0165052   -7.7092381    437.47663  0.024533234  0.024978919            3 
 1487000    1.0051726    -7.707536    438.71582  0.024586181  0.024971257            3 
 1488000    1.0197032    -7.685273    439.98222  0.024640581   0.02496363            3 
 1489000    1.0197776   -7.6358982     440.5816  0.024657578  0.024956015            3 
 1490000    1.0017939   -7.6368219    439.82405   0.02459866  0.024948445            2 
 1491000     1.021326   -7.6504352    440.01755  0.024592977  0.024940875            2 
 1492000    1.0167931   -7.6703622     440.2532  0.024589656  0.024933242            2 
 1493000     1.028217    -7.675539    440.69798  0.024598012  0.024925576            1 
 1494000    1.0266143     -7.69044    441.33671  0.024617175  0.024917987            1 
 1495000    1.0093434   -7.6728751    441.36542  0.024602309    0.0249104            1 
 1496000   0.99393732   -7.6637734    442.59118  0.024654144  0.024902885            2 
 1497000    1.0314191   -7.6701058    442.28871  0.024620837  0.024895395            2 
 1498000    1.0077242   -7.6474895    443.80941  0.024688997  0.024887865            2 
 1499000    1.0224577    -7.654484    442.41503  0.024595009  0.024880438            2 
 1500000    1.0223743   -7.6478412    441.52907  0.024529393  0.024872965            1 
 1501000    1.0122252   -7.6291547    442.02482  0.024540574  0.024865537            1 
 1502000    1.0054432   -7.6915756    443.00417  0.024578571  0.024858113            2 
 1503000    1.0261335   -7.6528708    443.28815  0.024577963  0.024850719            2 
 1504000    1.0556273   -7.6733074     442.2384  0.024503457  0.024843149            1 
 1505000    1.0082845   -7.6575898    443.73767  0.024570192  0.024835654            1 
 1506000    1.0029016   -7.6571175    443.75739  0.024554968  0.024828172            5 
 1507000    0.9905226   -7.6312188    443.28469  0.024512535  0.024820721            1 
 1508000    1.0080715   -7.6839459    442.82069   0.02447064  0.024813261            2 
 1509000   0.98872297   -7.6409312    445.77455  0.024617547  0.024805836            2 
 1510000   0.99868854   -7.6892514    441.93919   0.02438958  0.024798357            4 
 1511000    1.0034704   -7.6464775    443.70167  0.024470641  0.024790873            1 
 1512000    1.0104997   -7.6615483    443.35189  0.024435179  0.024783239            3 
 1513000    1.0020559    -7.690063    444.26671  0.024469416  0.024775535            1 
 1514000   0.99026009   -7.6643662    444.70402  0.024477324  0.024767896            1 
 1515000    1.0057785   -7.6611253    444.31822  0.024439946  0.024760342            2 
 1516000    1.0138186   -7.6524741    445.05481  0.024464314  0.024752841            4 
 1517000    1.0007165   -7.6400859    445.82228  0.024490347  0.024745311            4 
 1518000    1.0019418   -7.6876955    445.32117  0.024446705   0.02473785            2 
 1519000   0.99859764   -7.6660284    445.41692  0.024435864  0.024730275            3 
 1520000    1.0018003   -7.6257661    446.16612  0.024460862  0.024722796            5 
 1521000   0.99310261   -7.6596721    446.13162   0.02444289   0.02471529            3 
 1522000    1.0090689   -7.6875677    445.63488  0.024399632  0.024707929            5 
 1523000   0.99427747   -7.6730441    444.77116  0.024336351  0.024700464            1 
 1524000    1.0096037   -7.6544429    446.74562  0.024428348  0.024692875            2 
 1525000    1.0280217   -7.6782283    445.88642  0.024365378  0.024685249            1 
 1526000    1.0000554   -7.6714794    446.33725  0.024374031  0.024677764            1 
 1527000   0.97538329   -7.6593876    447.21383  0.024405906  0.024670221            1 
 1528000    1.0136578   -7.6622177    447.08764  0.024383052  0.024662821            3 
 1529000    1.0295708   -7.6842537    445.61634  0.024286916  0.024655334            1 
 1530000   0.98511131   -7.6838227    446.69088  0.024329569   0.02464779            3 
 1531000    1.0381644   -7.6735224    448.66718  0.024421249  0.024640322            3 
 1532000    1.0044078   -7.6609138    447.72887  0.024354269  0.024632895            3 
 1533000    1.0031532   -7.6666317    447.14754  0.024306781   0.02462541            2 
 1534000   0.99559052   -7.6763953    448.66998  0.024373641  0.024617963            2 
 1535000    1.0046182   -7.6608607    448.18368  0.024331362  0.024610382            1 
 1536000   0.98809943   -7.6437486    447.81403  0.024295466  0.024602889            1 
 1537000   0.99329847   -7.6623055    449.84142  0.024389581  0.024595372            3 
 1538000    1.0038036   -7.6850764    449.05066  0.024330877  0.024587892            4 
 1539000    1.0292003   -7.6925303    448.75027  0.024298802  0.024580418            1 
 1540000    1.0075162   -7.7092564    449.39725  0.024318033  0.024573043            1 
 1541000    1.0175566   -7.6631638    451.19914  0.024399694  0.024565754            2 
 1542000    1.0188761   -7.6829248    448.91471  0.024260415   0.02455838            2 
 1543000     1.025246   -7.6923956    448.48284  0.024221368  0.024550928            2 
 1544000    1.0151616   -7.6556471    450.82505  0.024332095  0.024543407            2 
 1545000   0.99448688   -7.6819928    449.56152  0.024248194  0.024535934            1 
 1546000   0.97636142   -7.6749379    451.56498  0.024340501  0.024528469            2 
 1547000    1.0017491   -7.6960275    450.58846  0.024272165  0.024521097            1 
 1548000   0.99141962   -7.6689787    450.95983  0.024276477  0.024513733            1 
 1549000    1.0115985   -7.6640301    451.83601  0.024307941  0.024506467            1 
 1550000   0.99861852   -7.6774087    450.73627  0.024233133  0.024499192            1 
 1551000   0.99165346   -7.6988093    449.23323  0.024136752  0.024491671            2 
 1552000    1.0180834   -7.6642529    450.62987  0.024196191  0.024484131            1 
 1553000    1.0113232   -7.6474942    451.04023  0.024202631   0.02447665            3 
 1554000   0.98050269   -7.6813396    450.72232  0.024170009  0.024469221            1 
 1555000    1.0140959   -7.6739051    452.08463  0.024227472  0.024461707            2 
 1556000    1.0038017   -7.6601978    452.40026  0.024228806  0.024454318            2 
 1557000   0.99827059   -7.6755977    451.95975  0.024189667   0.02444686            2 
 1558000   0.98540049   -7.7065423     452.0985  0.024181563  0.024439389            2 
 1559000    1.0006361   -7.6802034    451.81992  0.024151161  0.024431889            2 
 1560000    1.0060256   -7.6889828    452.41786   0.02416762  0.024424499            1 
 1561000    1.0126069   -7.7016273    453.11797  0.024189514  0.024417204            2 
 1562000    1.0271985   -7.6819853    452.59045  0.024145884  0.024409907            2 
 1563000   0.98142442   -7.6813288     454.0336  0.024207379  0.024402567            1 
 1564000    1.0050672   -7.7028233     452.6061  0.024115841  0.024395109            2 
 1565000   0.98601967   -7.6747387    454.55393   0.02420415  0.024387899            3 
 1566000    1.0080672   -7.6544702    453.85508  0.024151505  0.024380682            1 
 1567000   0.99236521   -7.6899382    452.83409  0.024081796  0.024373233            1 
 1568000    1.0242852   -7.6667069    454.31015  0.024144885   0.02436583            2 
 1569000   0.99413858   -7.6316782    454.90321  0.024160995  0.024358588            2 
 1570000    1.0105987   -7.6803626    455.04238  0.024152993  0.024351363            2 
 1571000    0.9820146   -7.6772704    455.44689  0.024159075  0.024344107            2 
 1572000    1.0055056   -7.6980573    454.40924    0.0240887  0.024336774            3 
 1573000    1.0207693    -7.690019     456.0644  0.024161072  0.024329598            6 
 1574000   0.99350738   -7.6907242    455.91738  0.024137938  0.024322312            1 
 1575000    1.0110388   -7.7343723    454.85735  0.024066526  0.024315045            1 
 1576000    0.9969374   -7.6560824    456.16771  0.024120543  0.024307791            2 
 1577000   0.99063344   -7.6982755     456.1639  0.024105046  0.024300611            1 
 1578000     1.019716   -7.7397778    455.61224  0.024060638  0.024293428            1 
 1579000   0.99307458   -7.6665175    457.37862  0.024138623  0.024286306            4 
 1580000    1.0138785   -7.6768399    458.27123  0.024170424  0.024279164            6 
 1581000    1.0246608   -7.6677354    457.83908  0.024132357  0.024272078            1 
 1582000    1.0014377    -7.679842    457.76036  0.024112956  0.024265088            2 
 1583000    1.0107316   -7.7025387    458.42765  0.024132851  0.024258053            2 
 1584000    1.0046724   -7.7061141    458.50009  0.024121427  0.024250979            2 
 1585000    1.0160168   -7.6845005    457.66582  0.024062346  0.024243871            3 
 1586000   0.97189535   -7.6604513    458.84549  0.024109158   0.02423689            2 
 1587000    1.0006066   -7.7142207    458.92797  0.024098297  0.024229875            2 
 1588000    1.0041813   -7.6560297     458.6924   0.02407076   0.02422276            3 
 1589000   0.98950184   -7.7054918    457.55042  0.023995722  0.024215692            2 
 1590000   0.97791264   -7.6707138    458.77974   0.02404506  0.024208668            2 
 1591000   0.99898966   -7.7102402    459.82116  0.024084494  0.024201562            3 
 1592000   0.98641063   -7.6734561    459.80888  0.024068723  0.024194541            2 
 1593000    1.0023995   -7.6428158    459.49825  0.024037364  0.024187715            1 
 1594000     1.002579   -7.6983712    461.52316  0.024128145  0.024180802            1 
 1595000    1.0171206     -7.72275    460.38662  0.024053638  0.024173835            8 
 1596000   0.99464172   -7.6607955    460.36817  0.024037603  0.024166832            2 
 1597000   0.99402172   -7.6562551    459.97971  0.024002281  0.024159923            2 
 1598000   0.96172263   -7.7035775    460.44464  0.024011506  0.024153001            2 
 1599000    0.9851702   -7.6986301    461.41939  0.024047289  0.024146087            1 
 1600000    1.0064054   -7.6691067     460.7252  0.023996104  0.024139264            2 
 1601000    0.9897646   -7.6954917    460.93797  0.023992191  0.024132422            2 
 1602000   0.99931869   -7.7207902    461.27738   0.02399487  0.024125544            1 
 1603000   0.98622197   -7.6699318    462.30421  0.024033282  0.024118617            2 
 1604000   0.99289248   -7.7031556    462.12374  0.024008922  0.024111688            2 
 1605000    1.0092033   -7.6896302    460.61325  0.023915537  0.024104811            2 
 1606000    0.9926977   -7.6824516    461.17308  0.023929695  0.024097836            4 
 1607000   0.99816228   -7.7299534    461.42983  0.023928118  0.024090804            3 
 1608000    1.0089118   -7.6736872    462.06469  0.023946138  0.024083779            3 
 1609000   0.95252243   -7.7151659    460.69375  0.023860252  0.024076806            2 
 1610000   0.97452616    -7.696754    461.69888  0.023897458  0.024069768            2 
 1611000   0.97293358   -7.6767699    461.54826  0.023874832   0.02406281            2 
 1612000     0.979358   -7.6463972     462.9327  0.023931591  0.024055882            3 
 1613000    1.0222386   -7.7301289    462.83797   0.02391186   0.02404891            2 
 1614000   0.98431165   -7.7147701    463.15527  0.023913428  0.024041855            3 
 1615000    0.9804061   -7.7151354    463.47646  0.023915194  0.024034921            2 
 1616000   0.99843871   -7.6963269    462.94695  0.023873089  0.024027982            2 
 1617000   0.97707584   -7.7002751    465.31614  0.023980424  0.024021052            2 
 1618000    1.0101999   -7.7017501    464.22068  0.023909182  0.024014138            1 
 1619000   0.98226966    -7.710475    463.69209  0.023867207  0.024007241            3 
 1620000   0.98931425   -7.7042786     463.9543  0.023865962  0.024000281            2 
 1621000   0.98453417   -7.6804234     465.3463    0.0239228  0.023993425            1 
 1622000    1.0091461   -7.6720598    465.51257  0.023916593  0.023986552            1 
 1623000    1.0088573   -7.7075778    464.45384  0.023847496    0.0239797            2 
 1624000   0.98214537   -7.6914805    464.89574  0.023855488  0.023972789            2 
 1625000    1.0038687   -7.7022811    464.30552  0.023810539  0.023965948            1 
 1626000    1.0023408   -7.7207804    466.29778     0.023898  0.023959018            5 
 1627000   0.98950966   -7.7002714    465.66273  0.023850785  0.023952049            1 
 1628000    0.9944889   -7.6892056    466.89638  0.023899282  0.023945167            2 
 1629000    1.0084265   -7.6797971    465.81512  0.023829298  0.023938278            3 
 1630000   0.99778201   -7.6838129    465.20514  0.023783494  0.023931404            2 
 1631000   0.98782373   -7.6755415    465.98585  0.023808801  0.023924396            1 
 1632000    1.0082026   -7.7128664    466.68572  0.023829949   0.02391745            1 
 1633000   0.98650809   -7.7149464    464.65118  0.023711532  0.023910554            2 
 1634000    1.0009734   -7.7124464    466.47722  0.023790148  0.023903603            2 
 1635000   0.98488617   -7.7193776    464.31238  0.023665259  0.023896507            1 
 1636000   0.96641461   -7.7318581    465.24954   0.02369853   0.02388943            2 
 1637000   0.98339634   -7.7290027    466.58615  0.023752095  0.023882248            3 
 1638000   0.98569753    -7.693565    466.36945   0.02372657  0.023875203            2 
 1639000   0.98262237   -7.6847759    466.71152  0.023729485  0.023868172            1 
 1640000   0.97055715   -7.7419969    466.93239  0.023726239  0.023861261            1 
 1641000    0.9928834   -7.6900912    468.35213  0.023783878   0.02385427            6 
 1642000   0.96401359    -7.712653    466.60951  0.023680954  0.023847368            1 
 1643000   0.97522964   -7.7179729    467.60285  0.023716923  0.023840411            3 
 1644000   0.98372804   -7.6841679    468.35893  0.023740822    0.0238335            6 
 1645000   0.99163911   -7.7217005    467.14283  0.023664784  0.023826575            2 
 1646000    0.9803967   -7.7151309    467.35288  0.023661041  0.023819694            5 
 1647000   0.99357068   -7.7092719    468.78995  0.023719386  0.023812876            2 
 1648000   0.99086476    -7.679946    469.16283  0.023723849  0.023806065            4 
 1649000    0.9793339    -7.705861    468.31688  0.023666711  0.023799162            2 
 1650000   0.98292199   -7.7151158    468.91674  0.023682664  0.023792309            2 
 1651000   0.97466326   -7.6933141     470.1884  0.023732506  0.023785421            1 
 1652000   0.97085505   -7.7273681    469.56653   0.02368677  0.023778548            4 
 1653000   0.99362561    -7.763402    468.67165  0.023627327  0.023771689            2 
 1654000    1.0042431   -7.7401915    468.58877  0.023608866  0.023764799            2 
 1655000   0.96786191   -7.7142496    469.90197  0.023660723  0.023757861            1 
 1656000     1.002445   -7.7396772    469.64198  0.023633352  0.023750923            3 
 1657000   0.98265006     -7.69671    470.25917  0.023650129  0.023744065            2 
 1658000   0.98845334   -7.7500933    469.75508  0.023610529  0.023737145            2 
 1659000   0.97427972   -7.7084119     470.5748  0.023637473  0.023730223            2 
 1660000   0.98031165   -7.7289304    470.37513  0.023613209  0.023723273            2 
 1661000   0.96990155   -7.7590953     469.3107   0.02354559  0.023716238            2 
 1662000    0.9770586   -7.7461263    470.45612  0.023588855  0.023709183            5 
 1663000   0.98675617    -7.746667     470.0057    0.0235521  0.023702148            1 
 1664000   0.97673536   -7.7008966    470.06595  0.023540963   0.02369512            2 
 1665000   0.98241754   -7.7029429    471.63982  0.023605597  0.023688079            2 
 1666000   0.99405568   -7.6548915    471.31374  0.023575117  0.023681185            1 
 1667000   0.97446807    -7.697657    471.93102  0.023591833  0.023674235            1 
 1668000   0.97526274   -7.6988389    472.50701  0.023606465  0.023667256            1 
 1669000    0.9781378   -7.7036653    471.73849  0.023553949  0.023660294            2 
 1670000   0.98994524   -7.7312708    470.51463  0.023478774  0.023653222            3 
 1671000   0.98842443   -7.7592993    470.14577  0.023446328  0.023646102            3 
 1672000   0.98849364   -7.7523168    471.08595  0.023479164  0.023639007            2 
 1673000   0.97634471   -7.7551029    469.93229  0.023407666  0.023631843            3 
 1674000    0.9898305   -7.7333286    470.61033  0.023427436  0.023624679            2 
 1675000     0.995821   -7.7076857    472.62787  0.023513824  0.023617655            2 
 1676000   0.97691476   -7.7188103    471.05279  0.023421479  0.023610607            5 
 1677000    0.9700136   -7.7487316    472.34518  0.023471734  0.023603497            3 
 1678000   0.97026282   -7.7144973    472.28618  0.023454816   0.02359642            3 
 1679000    1.0075741   -7.7767457    471.20782  0.023387325  0.023589301            2 
 1680000   0.98784275    -7.740291    470.96851  0.023361533  0.023582248            1 
 1681000   0.97843354   -7.7357642    472.80674  0.023438764  0.023575203            2 
 1682000   0.98028336   -7.7406354    472.80144  0.023424566  0.023568056            2 
 1683000   0.98222716   -7.7281674    472.21188  0.023381456  0.023560917            1 
 1684000   0.99208163   -7.7165413    471.42938  0.023328849  0.023553857            2 
 1685000   0.97434787   -7.7202092    474.05391  0.023444803  0.023546816            1 
 1686000   0.98878827    -7.730668     473.5593   0.02340645  0.023539779            2 
 1687000   0.98576085   -7.7190945    474.73401  0.023450603  0.023532704            2 
 1688000   0.97073336   -7.7191794    474.61201  0.023430688  0.023525626            2 
 1689000   0.98583147   -7.7522108    472.69817  0.023322389  0.023518514            3 
 1690000   0.98738926   -7.7168503    473.31779  0.023339142  0.023511445            1 
 1691000   0.99068749   -7.7570807    474.38993  0.023378175  0.023504423            3 
 1692000    1.0011064   -7.7419408    475.08303  0.023398494  0.023497354            2 
 1693000   0.96458675   -7.7470117    474.74238  0.023367906  0.023490199            2 
 1694000   0.99792955   -7.7572327    472.88176  0.023262582  0.023482964            3 
 1695000   0.95511939   -7.7478228     473.7547  0.023291775  0.023475811            2 
 1696000   0.98228603   -7.7488516    472.68453  0.023225458  0.023468568            2 
 1697000   0.97620685   -7.7707775    474.17586  0.023285006  0.023461354            3 
 1698000   0.98776382   -7.7262625    473.61366  0.023243701  0.023454095            2 
 1699000   0.99150128   -7.7035615    475.39023  0.023317158  0.023447049            3 
 1700000   0.97480294   -7.7305084    475.36979  0.023302441  0.023439964            2 
 1701000   0.98790722   -7.7477573    474.22804  0.023232806  0.023432808            2 
 1702000   0.97973152   -7.7451236     474.7091   0.02324271  0.023425605            1 
 1703000   0.96932893   -7.7278734    475.77334  0.023281138  0.023418549            2 
 1704000   0.96723378   -7.7157572    475.74467  0.023266073  0.023411549            3 
 1705000   0.98000086   -7.7235025    475.96923  0.023263403  0.023404572            1 
 1706000   0.96110124   -7.7169299    475.80137  0.023241567  0.023397445            2 
 1707000   0.98014527   -7.7665814    474.57059  0.023167867  0.023390281            2 
 1708000   0.97122914    -7.700785    476.32727  0.023240011  0.023383191            2 
 1709000   0.98534373   -7.7407426    475.13596  0.023168323  0.023376043            3 
 1710000   0.99170888   -7.6898282    477.49271  0.023269625  0.023368919            1 
 1711000   0.99889676   -7.7148891    475.30224   0.02314934  0.023361822            4 
 1712000   0.97556048   -7.7321663    475.66694   0.02315357  0.023354754            4 
 1713000   0.97400198    -7.746503    476.79019  0.023194697   0.02334757            1 
 1714000   0.97187978   -7.7625791    476.62236  0.023173005  0.023340368            1 
 1715000   0.95414845   -7.7603155    476.52163  0.023154598  0.023333252            3 
 1716000   0.98193706   -7.7660973    475.73909  0.023103103  0.023326066            1 
 1717000   0.95415357   -7.7593862    475.44059  0.023075159  0.023318818            3 
 1718000   0.98321907   -7.7513783    476.97036  0.023135931  0.023311555            1 
 1719000   0.95683412   -7.7633632    475.62968  0.023057479  0.023304322            2 
 1720000   0.98017095   -7.7526925    475.88803   0.02305659  0.023297012            1 
 1721000   0.97283919   -7.7769322    476.50364  0.023073002  0.023289737            2 
 1722000   0.98819948   -7.7485165    477.29029  0.023097672  0.023282483            3 
 1723000   0.95451427   -7.7428615    476.83235  0.023062118  0.023275206            1 
 1724000   0.96218725    -7.798223    475.17844  0.022968795  0.023267912            2 
 1725000   0.96776374   -7.7529222    476.53708  0.023021115  0.023260525            1 
 1726000   0.96001905   -7.7549445    476.23059   0.02299298  0.023253204            2 
 1727000   0.98443766   -7.7733056    476.40854  0.022988252  0.023245873            1 
 1728000   0.97569082   -7.7685191    476.14692  0.022962332  0.023238474            2 
 1729000   0.94313996   -7.7291826    478.19957  0.023047984  0.023231076            2 
 1730000   0.94518797   -7.7528444    477.01755  0.022977724  0.023223763            1 
 1731000   0.98608756   -7.7570023    477.26879  0.022976545  0.023216471            1 
 1732000   0.97929507   -7.7314541     479.1692  0.023054715  0.023209277            1 
 1733000   0.97428519   -7.7625748    477.49612   0.02296096  0.023202077            1 
 1734000   0.95679072   -7.7764009    478.53437  0.022997615  0.023194822            2 
 1735000   0.97899065   -7.7684026    479.02776  0.023008057  0.023187658            2 
 1736000   0.97084309   -7.7449102    478.54667   0.02297171   0.02318041            3 
 1737000   0.96222799   -7.7465873    479.34654  0.022996859  0.023173187            3 
 1738000   0.94654625   -7.7487635    477.91045   0.02291477  0.023165897            4 
 1739000   0.96040883   -7.7104016    479.08836  0.022958039  0.023158678            3 
 1740000   0.96470175    -7.773452    479.58777  0.022968763  0.023151479            1 
 1741000   0.98871293   -7.7261392    479.66346  0.022959193  0.023144293            3 
 1742000    0.9698856   -7.7482817    479.81394  0.022953212  0.023137117            1 
 1743000   0.97547639   -7.7648286     479.0376  0.022902926   0.02312985            4 
 1744000   0.96057785   -7.7466182    479.63594  0.022918384  0.023122549            2 
 1745000   0.98615203    -7.755701    479.24064  0.022886373  0.023115269            2 
 1746000   0.97616249   -7.7716147    479.37276  0.022879571  0.023107942            4 
 1747000   0.95928221   -7.7590133    478.69111  0.022833959  0.023100575            2 
 1748000   0.99726744   -7.7607228    479.45672  0.022857395  0.023093243            3 
 1749000   0.96695069   -7.7536423    481.26074  0.022930281   0.02308596            2 
 1750000    0.9544122   -7.7605666     479.7963  0.022847443  0.023078642            2 
 1751000   0.94644476   -7.7585068    481.24749  0.022903459   0.02307136            4 
 1752000   0.93580045   -7.7799952    479.20554  0.022793262   0.02306396            3 
 1753000   0.98067434   -7.8085518    479.18745  0.022779399  0.023056608            2 
 1754000   0.96457439   -7.7659873    480.67343  0.022837012  0.023049244            1 
 1755000    1.0071643   -7.7345588    480.78684  0.022829385  0.023041886            4 
 1756000   0.97264889   -7.7104822    482.05127  0.022876389  0.023034642            1 
 1757000   0.97740446   -7.7549659    481.38523  0.022831779  0.023027342            2 
 1758000   0.97773483   -7.7425374    481.29461  0.022814496   0.02302005            1 
 1759000   0.95969445   -7.7781005    481.71309  0.022821351  0.023012731            3 
 1760000   0.97672954   -7.7569837    480.88498  0.022769175   0.02300539            2 
 1761000   0.96053425   -7.7413557    481.48309  0.022784549  0.022998133            1 
 1762000   0.95769123   -7.7588735    482.66069  0.022827312   0.02299096            2 
 1763000   0.96001047    -7.796081    481.81575  0.022774426  0.022983731            2 
 1764000   0.97058578    -7.781547    481.99823  0.022770135  0.022976541            2 
 1765000   0.97868729   -7.7882163    482.75941  0.022793173  0.022969356            2 
 1766000   0.96452592   -7.7115204    483.39331  0.022810179  0.022962179            2 
 1767000   0.98281306   -7.7750342    483.39286  0.022797248  0.022955106            2 
 1768000   0.97319743   -7.7794515     485.0569  0.022862788  0.022947969            4 
 1769000   0.96191039   -7.7778789    484.19806  0.022809406   0.02294081            1 
 1770000   0.97522109   -7.7587277     482.5897  0.022720796  0.022933635            2 
 1771000   0.96234771   -7.7990657    483.50165  0.022750878   0.02292647            2 
 1772000   0.98046363   -7.7307977    483.99214  0.022761105  0.022919343            4 
 1773000   0.96833208   -7.7692163    484.04767  0.022750878  0.022912244            1 
 1774000    0.9488214   -7.7848674    484.82518  0.022774576  0.022905108            3 
 1775000   0.96509179   -7.7588281    484.99908   0.02276991     0.022898            3 
 1776000   0.97024269   -7.7980918    483.79684  0.022700678  0.022890893            3 
 1777000   0.96598735   -7.7956997    486.02643  0.022792461  0.022883775            1 
 1778000   0.98265771   -7.7737479    484.56503  0.022711147   0.02287657            2 
 1779000   0.96827578   -7.7503146    486.68728  0.022797793   0.02286944            1 
 1780000   0.97019643   -7.8030994    484.86049  0.022699461  0.022862349            1 
 1781000   0.96992203   -7.7361674    485.75007   0.02272834  0.022855225            4 
 1782000   0.99113519   -7.8172758    485.07951  0.022684227  0.022848136            2 
 1783000   0.96021643   -7.7554007    485.66409  0.022698826  0.022841013            1 
 1784000   0.95835694   -7.7764609    485.55834  0.022681163  0.022833926            3 
 1785000   0.94948347   -7.8013979    486.09479  0.022693501   0.02282685            2 
 1786000   0.96694841    -7.792419    485.38995  0.022647907  0.022819812            2 
 1787000   0.95470925   -7.7725412    486.61846  0.022692523  0.022812742            1 
 1788000   0.98101814   -7.7817728    486.83906  0.022690113  0.022805693            2 
 1789000   0.95387173   -7.7544347      487.196  0.022694056  0.022798697            1 
 1790000   0.96724804   -7.7463017    486.86582  0.022666007  0.022791737            1 
 1791000   0.95585109   -7.7854763    487.13432  0.022665844  0.022784716            1 
 1792000    0.9796079   -7.7433204    488.51329  0.022717322  0.022777678            2 
 1793000   0.96511064   -7.7474677    488.89679  0.022722476  0.022770735            3 
 1794000   0.95981248    -7.740849    487.00743  0.022622047  0.022763732            7 
 1795000    0.9719311   -7.7484115    488.56533   0.02268177  0.022756707            3 
 1796000   0.96984461   -7.7500505    488.47197  0.022664809  0.022749689            2 
 1797000   0.94152267   -7.7688785    487.71222  0.022616964   0.02274265            2 
 1798000   0.96953674   -7.7592085    488.68033  0.022649255  0.022735571            2 
 1799000   0.95986578   -7.7690351    488.07034  0.022608409  0.022728511            1 
 1800000   0.96680375   -7.7289041    488.89507  0.022634031  0.022721487            1 
 1801000    0.9744698   -7.7287381    488.06525  0.022583067  0.022714563            1 
 1802000   0.94759067   -7.7605871    489.31309  0.022628241  0.022707569            1 
 1803000   0.99076691   -7.7645448    489.10078  0.022605878   0.02270059            2 
 1804000    0.9762729   -7.7681415    488.74073  0.022576715  0.022693554            2 
 1805000   0.94368083   -7.7616227    489.06665  0.022579254  0.022686552            2 
 1806000   0.96752161   -7.7973951    488.02771  0.022518813  0.022679551            3 
 1807000    0.9784895   -7.7556889    489.86174  0.022590931   0.02267242            2 
 1808000   0.98942542   -7.7845719    489.06578  0.022541749  0.022665317            3 
 1809000   0.95503491   -7.7939276    489.91593  0.022568451  0.022658328            1 
 1810000   0.98626071   -7.7961729    488.39753  0.022486074  0.022651284            2 
 1811000   0.95063648   -7.7662974    490.34997  0.022563499  0.022644282            3 
 1812000   0.98165793   -7.7553299     489.4731   0.02251072  0.022637287            3 
 1813000    0.9769553   -7.7577388    490.41928  0.022541794  0.022630305            3 
 1814000   0.96626283   -7.7665578    489.98205  0.022509282  0.022623296            3 
 1815000   0.95328485   -7.7482379    490.94235  0.022540971  0.022616367            2 
 1816000   0.96301706   -7.8024961    490.36145  0.022501902  0.022609354            4 
 1817000   0.96119183   -7.7570792    491.75239  0.022553311  0.022602344            1 
 1818000   0.97115832   -7.7542562    490.09017  0.022464713  0.022595401            2 
 1819000   0.96466779   -7.7719605    491.19826  0.022503127  0.022588438            6 
 1820000   0.95098926   -7.8020116     490.7452  0.022470019  0.022581398            2 
 1821000   0.96418059   -7.7942474    489.84688   0.02241657  0.022574412            3 
 1822000   0.93684704   -7.8075644    489.70552  0.022397801  0.022567359            2 
 1823000   0.97688798   -7.8128528    492.27799  0.022503108  0.022560314            3 
 1824000   0.95971218   -7.8291006    491.20154  0.022441591  0.022553266            2 
 1825000   0.96191679   -7.8353258    490.03027  0.022375811  0.022546193            2 
 1826000   0.97813031   -7.7623007    492.63312  0.022482344  0.022539138            5 
 1827000   0.98123214   -7.8066229     491.5937  0.022422628  0.022532153            1 
 1828000   0.96766472   -7.7548568    492.43971  0.022448929  0.022525239            1 
 1829000   0.95073928   -7.7599385    492.53275  0.022440895  0.022518281            3 
 1830000   0.95607665   -7.7867564    491.79088  0.022394849  0.022511324            3 
 1831000   0.96220884   -7.7679365    491.74919   0.02238072  0.022504414            4 
 1832000   0.95370239   -7.7882116    491.42283  0.022353659  0.022497456            2 
 1833000    0.9569702   -7.7838933     492.3638  0.022384243  0.022490554            2 
 1834000   0.93923592   -7.7737293    493.59772  0.022428105  0.022483578            1 
 1835000   0.94910175   -7.7946378    491.95889  0.022341457  0.022476664            2 
 1836000   0.95871847   -7.7846242    493.61438  0.022404429  0.022469713            1 
 1837000   0.95585449   -7.7755878    493.29033  0.022377533  0.022462763            1 
 1838000   0.96076247   -7.8335561     492.1426   0.02231332  0.022455868            2 
 1839000   0.93625879   -7.7941094    494.76925  0.022420213  0.022448984            2 
 1840000   0.97248426   -7.8081662    493.97906   0.02237224  0.022442129            2 
 1841000   0.95305896   -7.7881911    494.61934   0.02238907  0.022435279            3 
 1842000    0.9752727   -7.7944496    493.49686  0.022326134  0.022428435            2 
 1843000   0.94556124   -7.7707158    494.77946  0.022372014    0.0224216            1 
 1844000   0.95375577   -7.7837679    496.29047  0.022428167  0.022414852            2 
 1845000   0.94798622   -7.8012303    494.02901  0.022313867   0.02240809            1 
 1846000   0.97001347   -7.7678892    497.22074  0.022445862  0.022401324            3 
 1847000   0.95377312   -7.7755018    495.97813  0.022377645  0.022394601            3 
 1848000   0.93534132    -7.809893     496.0251  0.022367654  0.022387833            2 
 1849000   0.94341692   -7.8505107    494.84037  0.022302162   0.02238108            2 
 1850000   0.96789521   -7.7562773     495.2133  0.022306905  0.022374275            3 
 1851000   0.94944268   -7.8010915     495.9915  0.022329889  0.022367562            1 
 1852000   0.94662702   -7.7971023    497.10009  0.022367715  0.022360811            2 
 1853000   0.94715616     -7.81024    496.73806  0.022339362  0.022354041            2 
 1854000   0.96088063    -7.823414    497.27842  0.022351601  0.022347332            2 
 1855000   0.97238247   -7.7692784    498.27675    0.0223844  0.022340695            1 
 1856000   0.97421111   -7.7667773    498.74451  0.022393342  0.022334178            1 
 1857000   0.96461221   -7.7808593    498.76491  0.022382198  0.022327581            2 
 1858000   0.95101825   -7.7915879    497.19042  0.022299535  0.022320985            2 
 1859000   0.94920453   -7.7999481    496.83033  0.022271397  0.022314313            2 
 1860000   0.95326593   -7.8153858     496.9005  0.022262567   0.02230768            1 
 1861000   0.96495695   -7.7774447    498.81837  0.022336484   0.02230107            3 
 1862000   0.95615185   -7.8140131    497.01855  0.022243938  0.022294466            3 
 1863000   0.93648832   -7.8209216     497.7306  0.022263849  0.022287795            2 
 1864000    0.9693101   -7.7953678    499.36409  0.022324932  0.022281129            2 
 1865000   0.96925407   -7.8164909    497.27314  0.022219533  0.022274496            2 
 1866000   0.94118906   -7.8246583    498.84017  0.022277607   0.02226784            1 
 1867000   0.93693413   -7.7839081    499.25802  0.022284325  0.022261274            2 
 1868000   0.94069699   -7.7895996    498.41643  0.022234851  0.022254641            1 
 1869000   0.97005773   -7.8328259    497.86457  0.022198349   0.02224797            2 
 1870000   0.95006417   -7.7951361    500.10687  0.022286402  0.022241382            3 
 1871000   0.92578142   -7.8220797    499.56115  0.022250185  0.022234874            4 
 1872000    0.9398609   -7.7899909    499.16612  0.022220714  0.022228337            2 
 1873000    0.9699861   -7.8124537    500.44558  0.022265776  0.022221731            1 
 1874000   0.94321293   -7.7493852    501.27705  0.022290868  0.022215088            4 
 1875000   0.94736769   -7.8051989    500.19868  0.022231052    0.0222085            3 
 1876000   0.96120162   -7.7964361    500.30786  0.022224052  0.022201946            2 
 1877000   0.97891046   -7.8043908    500.62413  0.022226253  0.022195371            3 
 1878000   0.94286609   -7.8191844    501.05611  0.022233586  0.022188813            2 
 1879000   0.95172928   -7.8277516    499.24674  0.022141509  0.022182219            2 
 1880000   0.96328861    -7.823465       500.17  0.022170656  0.022175564            1 
 1881000   0.95474776   -7.7795748    500.48467   0.02217281  0.022168907            2 
 1882000   0.93036253   -7.7934229    502.24544  0.022238994  0.022162304            2 
 1883000   0.95348871   -7.8300697    500.71988  0.022159669   0.02215565            3 
 1884000    0.9332204   -7.8151232    501.01176  0.022160817  0.022148946            3 
 1885000   0.95137023   -7.8109667    500.53756  0.022128097  0.022142272            2 
 1886000   0.93598457   -7.7988225    500.23242  0.022102882    0.0221356            3 
 1887000   0.97556354   -7.8021967    499.88048  0.022075626  0.022128857            1 
 1888000   0.94845563   -7.8292047    502.26959  0.022169385  0.022122253            1 
 1889000   0.94930789   -7.8098924    500.03055  0.022058874   0.02211556            2 
 1890000    0.9546658   -7.8010692    501.90143  0.022129693  0.022108931            3 
 1891000   0.95480292   -7.8159351    502.18174  0.022130343  0.022102316            2 
 1892000   0.95539422   -7.7894028    502.87333  0.022149107  0.022095746            2 
 1893000   0.93945561   -7.7668521    502.62325  0.022126398  0.022089146            1 
 1894000   0.94030066   -7.7939048    502.09644  0.022091537  0.022082514            2 
 1895000   0.93980735   -7.8375921    499.52635  0.021966858  0.022075796            2 
 1896000   0.94880281   -7.7619844    502.62826  0.022091608   0.02206908            4 
 1897000   0.95747732   -7.7910039    501.25279  0.022019539  0.022062361            1 
 1898000    0.9765713   -7.8290843    502.70966  0.022071903   0.02205567            2 
 1899000   0.97177947   -7.8153676    501.91198  0.022025276  0.022048993            2 
 1900000   0.93129538   -7.8135633    503.17248  0.022068968  0.022042306            2 
 1901000   0.92916914   -7.7974089    502.72104   0.02203757  0.022035596            2 
 1902000   0.93318101   -7.8639451    501.63371  0.021978343   0.02202886            2 
 1903000   0.96224168   -7.8243195    503.38379  0.022043431  0.022022143            2 
 1904000   0.92603572   -7.8367672    503.41623  0.022033273  0.022015439            3 
 1905000   0.94099462   -7.8218375    503.06514  0.022006349  0.022008722            2 
 1906000   0.93116654   -7.8242469    501.62058  0.021931645  0.022001979            2 
 1907000   0.95075901   -7.8505238    502.77971  0.021970797  0.021995245            5 
 1908000   0.94522908   -7.8201574    504.10294  0.022017075  0.021988507            3 
 1909000    0.9167464   -7.8177498    503.93713  0.021998303  0.021981793            2 
 1910000   0.95215116   -7.8431722    502.21622  0.021911702  0.021975103            2 
 1911000   0.95861349   -7.8485105     503.1212    0.0219397  0.021968333            2 
 1912000   0.95955687   -7.8468811    503.02829  0.021924176  0.021961569            1 
 1913000   0.93867411   -7.8169718    502.09942  0.021872252  0.021954835            1 
 1914000   0.95316415   -7.7978004    504.41821  0.021961782  0.021948129            1 
 1915000   0.94519477    -7.808813    503.63102  0.021916058  0.021941436            1 
 1916000   0.94789488   -7.8260332    504.80413  0.021955642  0.021934743            4 
 1917000   0.94938508   -7.8254021    503.75603  0.021898628  0.021928079            1 
 1918000   0.96355435   -7.8612299    504.30164  0.021910916  0.021921416            7 
 1919000   0.96603239   -7.8051339    505.51408  0.021952149  0.021914821            1 
 1920000   0.95591195   -7.8495454    504.12642  0.021880487  0.021908219            3 
 1921000   0.92635336   -7.8086711    504.91671   0.02190338  0.021901611            4 
 1922000   0.93150648   -7.8048693    505.83891  0.021931968  0.021895006            3 
 1923000   0.93597544    -7.797727    505.00441    0.0218844  0.021888413            1 
 1924000   0.95237955   -7.8317465    505.06642  0.021875711  0.021881755            3 
 1925000   0.96216048    -7.816091    505.85461  0.021898468  0.021875158            2 
 1926000   0.94390338   -7.8377118    504.70292  0.021837267  0.021868515            3 
 1927000    0.9255749   -7.8207391    504.90671  0.021834748  0.021861811            1 
 1928000   0.93834487    -7.841297    504.77044  0.021817533  0.021855072            2 
 1929000   0.93749976   -7.8164922    505.59996  0.021842058  0.021848386            4 
 1930000   0.94428754    -7.827318    506.24511  0.021858597  0.021841777            1 
 1931000   0.96089164   -7.8104078    506.62919  0.021863852  0.021835147            1 
 1932000   0.93665163   -7.8351217    506.35389  0.021840661  0.021828534            1 
 1933000   0.96414065   -7.7970946     505.6522  0.021799112  0.021821938            2 
 1934000   0.94785318   -7.8089269     507.6524  0.021874026  0.021815328            3 
 1935000   0.93719384   -7.8293187    507.17161  0.021842016  0.021808784            3 
 1936000   0.92095646   -7.8052337    507.07557    0.0218266  0.021802239            5 
 1937000   0.93377473   -7.8079262    506.73181  0.021800542  0.021795654            1 
 1938000   0.93810577   -7.8291768    506.98248  0.021800072  0.021789014            2 
 1939000   0.94170737   -7.8485446    507.27372  0.021801346  0.021782395            1 
 1940000   0.92938608   -7.8333475    507.23713  0.021788537   0.02177578            1 
 1941000   0.94959815   -7.7947891    508.29995  0.021822941  0.021769235            1 
 1942000   0.93707649    -7.801321     509.1111  0.021846511  0.021762701            1 
 1943000   0.94109581    -7.808259    508.84755  0.021823964  0.021756188            4 
 1944000   0.94237342   -7.8612987    506.75894  0.021723205  0.021749592            2 
 1945000   0.92995647     -7.82837    508.39655    0.0217822   0.02174296            1 
 1946000   0.93846041   -7.8461382    507.99374  0.021753757  0.021736314            1 
 1947000   0.95873598   -7.8235395    507.08599  0.021703732  0.021729655            1 
 1948000   0.93302829   -7.8293402    507.94603  0.021729382  0.021722949            1 
 1949000   0.92150776   -7.8168089    508.51805  0.021742691  0.021716297            1 
 1950000    0.9545887   -7.8536708    508.07414   0.02171257  0.021709646            3 
 1951000   0.93518495   -7.8307706    507.64555  0.021683135  0.021703017            3 
 1952000   0.94196267    -7.818735    508.83342  0.021722738  0.021696372            2 
 1953000   0.93746891   -7.8635854    508.77893  0.021709291  0.021689757            2 
 1954000   0.94080219   -7.8311764    510.46231  0.021769972   0.02168313            5 
 1955000   0.93266383   -7.8403631    509.26779  0.021707919  0.021676505            3 
 1956000   0.92345852   -7.8206882    509.26647  0.021696765  0.021669881            1 
 1957000   0.92839243   -7.8488317    509.16494  0.021681355  0.021663266            2 
 1958000   0.94841586   -7.8842196    509.16558  0.021670309  0.021656589            3 
 1959000   0.95317068   -7.8726598    508.04458  0.021611561  0.021649924            1 
 1960000   0.94678022   -7.8309506    509.15353  0.021647684  0.021643198            2 
 1961000    0.9283236   -7.8465256    509.24101  0.021640362  0.021636482            3 
 1962000   0.92720917   -7.8663272    509.06003  0.021621646   0.02162971            2 
 1963000   0.93841418   -7.8437498     508.7604  0.021597911  0.021622973            2 
 1964000    0.9269149   -7.8354767    508.89478  0.021592616  0.021616274            4 
 1965000    0.9407255   -7.8289645    509.75586  0.021618145  0.021609641            1 
 1966000   0.93995981   -7.8524746    510.62199  0.021643862  0.021603007            2 
 1967000    0.9392884   -7.8553614    508.44229  0.021540514  0.021596318            2 
 1968000   0.93839508   -7.8665365      509.781  0.021586255  0.021589634            2 
 1969000    0.9314745   -7.8746742    510.12703  0.021589937  0.021582977            4 
 1970000    0.9334638   -7.8678873    510.75158  0.021605397  0.021576269            2 
 1971000   0.94273418   -7.8667312    508.57714    0.0215025  0.021569582            2 
 1972000   0.94825594   -7.8490372    510.73097  0.021582614  0.021562935            3 
 1973000   0.95007763   -7.8529373    510.11886  0.021545821  0.021556333            1 
 1974000   0.94905604   -7.8688624    509.90399  0.021525835   0.02154967            2 
 1975000   0.91212531   -7.8485468    511.77972  0.021594081  0.021543035            1 
 1976000   0.93074255   -7.8360217    511.36662  0.021565731   0.02153639            3 
 1977000   0.92883538   -7.8335699     508.7313  0.021443741    0.0215297            1 
 1978000   0.91768711   -7.8475487    510.25553  0.021497115  0.021522997            2 
 1979000   0.93702538   -7.8717691    511.02168  0.021518514  0.021516375            2 
 1980000   0.90781519   -7.8226706    511.04094  0.021508457  0.021509749            3 
 1981000   0.93933059   -7.8405514    511.55118  0.021519064   0.02150311            2 
 1982000   0.92631661   -7.8510094    511.94589  0.021524802  0.021496546            2 
 1983000   0.95217608   -7.8487442    512.59929  0.021541406  0.021490005            3 
 1984000   0.92602055    -7.853271    512.92279  0.021544136  0.021483491            2 
 1985000   0.93375343   -7.8662464    512.27994  0.021506295    0.0214769            2 
 1986000   0.93192073   -7.8720928    512.41016   0.02150093  0.021470282            3 
 1987000   0.93606956   -7.8315503    512.79492  0.021506246  0.021463687            1 
 1988000   0.93015298   -7.8704801    511.13594  0.021425886  0.021457123            2 
 1989000   0.92643659   -7.8952897    510.92785  0.021406395  0.021450484            1 
 1990000   0.94879612    -7.866888     511.4557  0.021417743  0.021443761            2 
 1991000   0.91027456   -7.8829412    511.38211  0.021403905  0.021437011            3 
 1992000   0.93011968   -7.8774349     512.1551  0.021425498  0.021430342            3 
 1993000   0.91022611   -7.8424598    512.84909  0.021443765  0.021423764            2 
 1994000   0.91927269    -7.827768    513.98278   0.02148039  0.021417154            2 
 1995000   0.93083982   -7.8405499    514.18598  0.021478111  0.021410564            4 
 1996000   0.93042779   -7.8233326    513.40549  0.021434765  0.021403948            2 
 1997000   0.92609981   -7.8435817    513.88845  0.021444185  0.021397314            3 
 1998000   0.93393627   -7.8783004    512.83055  0.021389329  0.021390672            2 
 1999000   0.92527521   -7.8665296    513.06993  0.021388608     0.021384            1 
 2000000   0.91341229   -7.8627197    513.96309  0.021415129  0.021377341            2 
 2001000   0.94556701   -7.8563076    513.64921  0.021391355  0.021370726            1 
 2002000   0.93341238   -7.8117712    514.32229  0.021408687   0.02136412            2 
 2003000   0.92117055   -7.8470151    513.82295  0.021377224  0.021357545            1 
 2004000   0.93026033   -7.8631463    513.11592  0.021337156  0.021350939            2 
 2005000   0.91895968   -7.8778017    514.30056   0.02137575  0.021344277            2 
 2006000   0.92052273   -7.8497368    514.61709  0.021378244  0.021337605            1 
 2007000    0.9252114   -7.8656824    514.45614  0.021360909  0.021330964            2 
 2008000   0.93141102     -7.86595    513.51038  0.021311022  0.021324405            2 
 2009000   0.90142654    -7.890845    514.07277  0.021323742  0.021317768            1 
 2010000   0.93482503   -7.8908838    513.65504  0.021295814  0.021311119            2 
 2011000   0.94139288   -7.8538927    514.30942  0.021312341  0.021304485            1 
 2012000   0.91669423    -7.841511    515.16955  0.021337374  0.021297889            1 
 2013000   0.92801039   -7.8505076    515.50806  0.021340787  0.021291314            2 
 2014000   0.93758944   -7.8639788    515.66935  0.021336865   0.02128469            1 
 2015000   0.92153937    -7.870499    515.19487  0.021306653  0.021278031            2 
 2016000    0.9205355   -7.8880621    514.23489  0.021256403  0.021271351            2 
 2017000   0.93888763   -7.8742781     514.3518  0.021250694  0.021264635            2 
 2018000   0.93643616   -7.8695512    514.97333   0.02126583  0.021258004            2 
 2019000   0.92768093    -7.831764     516.1603  0.021304288  0.021251402            3 
 2020000   0.91592525   -7.8265484     516.2907  0.021299121  0.021244811            4 
 2021000   0.93314978   -7.8435422    515.79571  0.021268172  0.021238216            1 
 2022000   0.94720056   -7.8703312    515.93555  0.021263417  0.021231631            2 
 2023000   0.91130119   -7.8827908    515.11998   0.02121931  0.021224994            1 
 2024000   0.93213128   -7.8985335    514.63631  0.021188913  0.021218395            2 
 2025000   0.92894169   -7.8586936    516.55932  0.021257585  0.021211807            3 
 2026000    0.9222046   -7.8664795    516.89207  0.021260779  0.021205274            5 
 2027000   0.94959347   -7.8688993    517.12889  0.021260027  0.021198749            3 
 2028000   0.93866246   -7.8623024    516.58958  0.021227383  0.021192222            3 
 2029000   0.90807928   -7.8356082    516.64261  0.021219099  0.021185758            3 
 2030000   0.93388196   -7.8410194    518.91386  0.021301883  0.021179302            1 
 2031000   0.92516829    -7.866869    517.89629  0.021249643  0.021172794            2 
 2032000   0.92965369   -7.8389372    517.92008  0.021240161  0.021166266            1 
 2033000   0.93465867   -7.8376603    519.17265  0.021281056  0.021159784            1 
 2034000   0.91079423    -7.890932    516.36437  0.021155538  0.021153295            2 
 2035000   0.90579465   -7.8908578    517.11231   0.02117577  0.021146765            2 
 2036000    0.9352692   -7.8831653    518.12626  0.021206871   0.02114019            1 
 2037000   0.95574783   -7.9366157    516.78047  0.021141404  0.021133619            1 
 2038000   0.94202408   -7.9148828    517.68436   0.02116799  0.021127051            1 
 2039000   0.94951239   -7.8503708    519.55671  0.021234131  0.021120553            2 
 2040000   0.93603431   -7.8741432    517.97734  0.021159205  0.021114103            3 
 2041000   0.93770486   -7.8721813    519.03545   0.02119204  0.021107652            4 
 2042000   0.91551981   -7.8628977    519.93457  0.021218355  0.021101223            1 
 2043000   0.94728646   -7.8638446    518.94592  0.021167642  0.021094794            4 
 2044000   0.90689579   -7.8584098    519.13466  0.021164981  0.021088345            2 
 2045000   0.92951431   -7.8919024     517.6004  0.021092111  0.021081889            2 
 2046000   0.91752663   -7.8764298    519.21492  0.021147561  0.021075444            6 
 2047000   0.94006899   -7.8810715    519.20487  0.021136821  0.021068959            3 
 2048000    0.9346586   -7.8438237    520.80027  0.021191417  0.021062559            1 
 2049000   0.92553977   -7.8909307    519.18767   0.02111549    0.0210562            4 
 2050000   0.90502469   -7.8803795    520.46649  0.021157174  0.021049788            1 
 2051000   0.91464441   -7.8898191    520.15738    0.0211343  0.021043408            1 
 2052000   0.91674115   -7.8757262    520.83558  0.021151542  0.021037007            1 
 2053000   0.91686611   -7.8202137    521.21037  0.021156453  0.021030687            2 
 2054000   0.91876707   -7.8689112    520.52678  0.021118418  0.021024342            1 
 2055000   0.92483321   -7.8755545    522.46539  0.021186755  0.021017937            2 
 2056000   0.91027119   -7.8791662    521.82842  0.021150633  0.021011596            1 
 2057000   0.91528232   -7.9109353    519.30438  0.021038097  0.021005238            1 
 2058000   0.91900442   -7.8650039    522.56446  0.021159883  0.020998862            2 
 2059000   0.92745112   -7.8869721    521.21987  0.021095187  0.020992497            3 
 2060000   0.90989053     -7.89213    520.95023  0.021074039  0.020986071            2 
 2061000   0.90875744   -7.8662831    521.11737  0.021070571  0.020979739            2 
 2062000   0.93173003   -7.8617753     520.9236  0.021052522  0.020973358            4 
 2063000    0.9217813   -7.9282819     520.4492  0.021023154  0.020966921            1 
 2064000   0.90645552   -7.9183779    520.22753  0.021004018  0.020960482            1 
 2065000   0.92355748   -7.8874938    521.62557  0.021050265  0.020954003            6 
 2066000   0.94996296   -7.9106149    521.57774  0.021038147  0.020947608            1 
 2067000   0.91682661   -7.8707866    521.47499  0.021023827  0.020941233            2 
 2068000   0.91438927   -7.8848436    522.27923  0.021046068  0.020934808            1 
 2069000   0.91808733   -7.8976521    521.35142  0.020998527   0.02092841            2 
 2070000   0.91988504   -7.8545643    522.47656  0.021033678  0.020921992            2 
 2071000   0.92483628   -7.9216355    521.88914  0.020999885  0.020915585            2 
 2072000   0.91983056   -7.8906704    522.79962  0.021026368  0.020909135            1 
 2073000   0.91050545   -7.9220052    522.16786  0.020990829  0.020902697            2 
 2074000   0.92681346   -7.9105094    522.29834  0.020985951  0.020896254            3 
 2075000   0.91443588   -7.8795876    521.21392  0.020932286  0.020889832            1 
 2076000   0.93751302   -7.9295119    522.31051  0.020966222  0.020883396            1 
 2077000   0.91021394   -7.9198754     521.8205  0.020936467  0.020876964            2 
 2078000   0.92983904   -7.9146388    523.29934  0.020985697  0.020870468            2 
 2079000   0.91853762   -7.8822285    522.80468  0.020955775  0.020864025            2 
 2080000   0.92226832   -7.8851175    524.05686  0.020995868  0.020857645            2 
 2081000   0.92262199    -7.911816    523.74494  0.020973288  0.020851271            2 
 2082000   0.92298995   -7.8960947    522.25704   0.02090366   0.02084495            7 
 2083000   0.92640221   -7.8851139    524.09116  0.020967001  0.020838616            3 
 2084000     0.943575   -7.9022734    523.32345  0.020926242  0.020832256            4 
 2085000   0.91612568   -7.8886146     524.2036  0.020951383   0.02082595            3 
 2086000   0.91388116   -7.9053078    524.14419  0.020938966  0.020819578            2 
 2087000   0.92400972   -7.8770351    525.21563  0.020971715  0.020813251            2 
 2088000   0.90249125   -7.8898114    524.41914  0.020929883  0.020806917            1 
 2089000   0.91749572   -7.9020807    523.85778   0.02089747  0.020800587            2 
 2090000   0.92128646   -7.8756387    525.00965  0.020933399  0.020794203            2 
 2091000   0.91267924   -7.9122581    524.93287  0.020920328  0.020787905            3 
 2092000    0.9162076   -7.9026035    523.98403  0.020872532  0.020781552            2 
 2093000   0.90580014   -7.9396611    523.74458  0.020853025  0.020775312            2 
 2094000   0.92080414   -7.8969148    525.37082  0.020907785  0.020769005            1 
 2095000   0.91280776    -7.877144    525.81113  0.020915319  0.020762692            3 
 2096000   0.91586402   -7.8874538    525.38825  0.020888528  0.020756373            1 
 2097000   0.90458368   -7.8888116      524.618  0.020847957  0.020750113            1 
 2098000   0.89981238   -7.9261725    524.70221  0.020841365   0.02074378            3 
 2099000   0.91580584   -7.8862023    524.53916  0.020824963  0.020737385            3 
 2100000   0.91041513   -7.9037956    525.48952  0.020852759  0.020731049            2 
 2101000   0.91901555   -7.9381143    525.14877  0.020829318   0.02072472            3 
 2102000   0.91957258   -7.9121541    526.12714  0.020858196  0.020718413            5 
 2103000   0.89363996   -7.9225808    526.74449  0.020872741  0.020712032            1 
 2104000    0.9114728   -7.9062947    526.20553  0.020841474   0.02070569            2 
 2105000   0.92014343   -7.9009622    526.46649  0.020841904  0.020699424            2 
 2106000   0.91432121   -7.9148908     526.7398  0.020842822  0.020693187            2 
 2107000   0.91378861   -7.9131582    526.47472  0.020822446  0.020686896            2 
 2108000   0.90820456   -7.9058948    526.36187  0.020808107  0.020680621            3 
 2109000   0.89643516   -7.9253649    525.86385  0.020778562  0.020674297            2 
 2110000   0.90889259   -7.8992618    526.90932  0.020810005  0.020668035            2 
 2111000   0.91901329   -7.8862735    527.14599   0.02080949  0.020661796            1 
 2112000   0.92565074   -7.9188388    526.42167  0.020771057  0.020655528            4 
 2113000   0.90603498   -7.9252565     527.0599  0.020786398  0.020649191            1 
 2114000   0.92270126   -7.9100608    526.37967  0.020749751  0.020642879            1 
 2115000   0.90631668   -7.9451311    524.52902  0.020667022  0.020636571            3 
 2116000   0.90078493   -7.9251182    525.72246  0.020704255  0.020630206            2 
 2117000   0.92702254   -7.9174268    527.24362  0.020754355   0.02062389            1 
 2118000   0.92240365   -7.8928742     527.5202  0.020755438  0.020617593            2 
 2119000   0.91815767   -7.9083584    526.25251  0.020695788  0.020611235            2 
 2120000   0.90700717   -7.8837245    527.40076  0.020731162  0.020604931            2 
 2121000   0.90712259   -7.9251013    525.93578  0.020663829  0.020598641            2 
 2122000   0.90838964   -7.9372271    527.12756  0.020700894   0.02059231            1 
 2123000   0.93324189   -7.9474899    527.13974  0.020691621  0.020586005            2 
 2124000   0.88982572   -7.9394659    527.19427  0.020684019  0.020579683            2 
 2125000   0.90671042   -7.9205553    526.52323   0.02064797  0.020573344            2 
 2126000   0.90936755   -7.9136752    528.62729  0.020720731  0.020567034            1 
 2127000   0.91437124   -7.8993542    527.60098   0.02067078  0.020560746            1 
 2128000   0.91693165   -7.9421524    527.41919  0.020653947  0.020554437            2 
 2129000    0.9124483   -7.9176627    528.73515  0.020695755  0.020548124            2 
 2130000   0.91561121   -7.9387805    528.41377  0.020673465  0.020541833            2 
 2131000   0.92199975   -7.9465607    527.29069  0.020619845  0.020535513            6 
 2132000   0.90532785   -7.9431647    528.52223  0.020658311  0.020529174            3 
 2133000    0.9186934   -7.9108246    528.78694  0.020658968  0.020522818            2 
 2134000   0.92209453   -7.9032725    528.35675  0.020632488  0.020516583            2 
 2135000   0.92525376   -7.9504595    528.15492  0.020614946  0.020510297            1 
 2136000   0.91382366   -7.9403592     529.2374  0.020647527  0.020504026            1 
 2137000   0.90760591   -7.9046213    530.01374  0.020668138  0.020497792            2 
 2138000   0.90413596   -7.9159905    528.89358  0.020614811  0.020491466            3 
 2139000   0.89093638   -7.9287678    527.66898  0.020557464  0.020485111            3 
 2140000    0.9240015   -7.9140972    529.61065  0.020623468  0.020478799            2 
 2141000   0.91901468   -7.9189361     529.1032  0.020594084  0.020472539            3 
 2142000   0.90424382   -7.8803243    530.00005  0.020619361  0.020466316            2 
 2143000   0.91421487   -7.9097121    529.76286  0.020600516  0.020460073            4 
 2144000   0.90580482   -7.9588669    528.19659  0.020530029  0.020453722            1 
 2145000     0.906503   -7.9330118    529.08816  0.020555096  0.020447369            3 
 2146000   0.89995276   -7.9104476     530.1819  0.020587989  0.020441049            3 
 2147000   0.91359182   -7.9190409    529.57931  0.020555011  0.020434731            2 
 2148000   0.89807137   -7.8926539    530.54646  0.020582963  0.020428466            3 
 2149000   0.90554476   -7.9528391    528.64882  0.020499799  0.020422218            1 
 2150000   0.92286665   -7.9358711     529.8476  0.020536729  0.020415908            2 
 2151000   0.89736762   -7.9238948    530.37059  0.020547443   0.02040958            2 
 2152000   0.90785594   -7.9590254    529.70549   0.02051214  0.020403201            4 
 2153000   0.90478683   -7.9465817    529.34792  0.020488772  0.020396842            4 
 2154000   0.91193353   -7.9330576    529.56194   0.02048754  0.020390479            3 
 2155000   0.90713783    -7.956948    529.82658  0.020488267  0.020384163            2 
 2156000   0.92145273   -7.9198748    529.55082  0.020468105  0.020377918            2 
 2157000   0.91486721   -7.9435275    530.94296    0.0205124  0.020371637            2 
 2158000   0.91504075   -7.9143714    531.50077  0.020524435    0.0203654            2 
 2159000   0.91176804   -7.9047821    532.32229  0.020546638   0.02035922            4 
 2160000   0.90784024   -7.9310222    531.03906  0.020487618  0.020353015            1 
 2161000   0.90371198    -7.947742     531.2196  0.020485099  0.020346791            3 
 2162000   0.89904329   -7.9591661    530.65161  0.020453732  0.020340527            2 
 2163000   0.92144766   -7.9200214    531.76138  0.020487031  0.020334211            6 
 2164000   0.88991982   -7.9348248    530.64045  0.020434398   0.02032798            1 
 2165000   0.92490051   -7.9255579    532.25164  0.020486976  0.020321706            1 
 2166000   0.91074326   -7.9136143     532.5423    0.0204887  0.020315495            1 
 2167000   0.93489881   -7.9237301    532.44927  0.020475668  0.020309263            2 
 2168000    0.9000603   -7.9160145    532.94517  0.020485285  0.020302997            2 
 2169000   0.89264275   -7.9264718    531.62675  0.020425186  0.020296729            4 
 2170000   0.90338225   -7.9080754    532.93677  0.020466082  0.020290524            2 
 2171000     0.907061   -7.9412358    531.96244  0.020419255  0.020284291            3 
 2172000   0.89991188   -7.9208942     532.2601  0.020421274   0.02027806            4 
 2173000   0.90169727   -7.8908569    532.00843  0.020402225    0.0202719            2 
 2174000   0.91338082   -7.9238924    533.22313  0.020439402  0.020265722            2 
 2175000   0.89050423   -7.9444479    531.00916  0.020345179  0.020259487            1 
 2176000   0.89384828   -7.9318773    532.98865  0.020411636  0.020253207            2 
 2177000   0.90307651   -7.9219322    532.44838  0.020381579  0.020246977            4 
 2178000   0.91331356    -7.928278    534.65811  0.020456769  0.020240788            3 
 2179000   0.89643144   -7.8918387    533.72483  0.020411688   0.02023454            1 
 2180000   0.92170708   -7.9210604     532.7098  0.020363524  0.020228257            1 
 2181000   0.90195757   -7.9648022       532.05  0.020328978  0.020221993            4 
 2182000   0.89934534   -7.9456008    532.12301  0.020322449  0.020215692            2 
 2183000   0.87572492    -7.953599    533.00888  0.020346957  0.020209403            3 
 2184000   0.89862527   -7.9645612    533.16872  0.020343739   0.02020316            4 
 2185000   0.91018202   -7.9255139    532.65286  0.020314754  0.020196914            1 
 2186000   0.89644364   -7.9170666    534.37162  0.020370983  0.020190716            2 
 2187000   0.89036411   -7.9214876    534.97609  0.020384701   0.02018452            3 
 2188000   0.88997052   -7.9253891     532.0652  0.020264519  0.020178267            4 
 2189000   0.90159327   -7.9255932    534.50316  0.020348072  0.020172028            2 
 2190000   0.91545426   -7.9628382    532.67732  0.020269305  0.020165754            1 
 2191000   0.90498663   -7.9767758    533.06601  0.020274837  0.020159439            3 
 2192000   0.87647827   -7.9178723    534.43752  0.020317728  0.020153167            1 
 2193000   0.89394524   -7.9207372    533.88065  0.020287302   0.02014689            1 
 2194000   0.91618183   -7.9625784    533.43038  0.020260953  0.020140626            2 
 2195000   0.89084336   -7.9337773     533.8976  0.020269461   0.02013441            1 
 2196000   0.91106354   -7.9492118    533.99879  0.020264071  0.020128174            1 
 2197000   0.87853178   -7.9598726     533.7303  0.020244663  0.020121958            4 
 2198000    0.8915259   -7.9740459     533.5947  0.020230312  0.020115675            2 
 2199000   0.87516812   -7.9285658    535.82661  0.020305692  0.020109436            3 
 2200000   0.88129685   -7.9373051    534.60063  0.020250024  0.020103209            1 
 2201000   0.90652593   -7.9316621    535.30639  0.020267545  0.020096989            3 
 2202000   0.89684465   -7.9724559    534.03419  0.020210195  0.020090739            2 
 2203000    0.8845324    -7.948341     534.1865  0.020206783  0.020084489            3 
 2204000   0.89279873   -7.9165727    537.23386  0.020312835  0.020078262            2 
 2205000   0.89300641   -7.9360281    536.64745  0.020281461  0.020072056            3 
 2206000   0.88526321   -7.9525675    535.26634  0.020220095  0.020065877            1 
 2207000    0.9039764   -7.9578927     534.8851  0.020196537  0.020059676            3 
 2208000    0.8924671   -7.9727548    535.38792  0.020206368  0.020053448            1 
 2209000   0.90776091   -7.9915966     536.2086   0.02022818  0.020047258            2 
 2210000   0.90094743   -7.9751958    535.84348  0.020205259   0.02004109            3 
 2211000   0.89659005   -7.9422163    535.86585  0.020196964  0.020034908            2 
 2212000   0.89844414   -7.9754509    535.53984  0.020175552  0.020028689            1 
 2213000   0.90694479   -7.9806151    536.12963  0.020188644  0.020022446            3 
 2214000   0.88104171    -7.952705    534.29923   0.02011063  0.020016215            2 
 2215000   0.91131824   -7.9326359     535.9998   0.02016553  0.020010006            1 
 2216000   0.88806525   -7.9547556    536.45232  0.020173448  0.020003855            4 
 2217000   0.88270184    -7.963116    536.26018  0.020157126  0.019997625            3 
 2218000   0.89106142   -7.9607179    535.85976  0.020132994  0.019991455            7 
 2219000   0.90218396   -7.9670438    536.73777  0.020156894  0.019985273            2 
 2220000   0.90344961   -7.9133264    536.01635  0.020120734  0.019979106            3 
 2221000   0.89253101    -7.931339    536.28236  0.020121655  0.019972935            1 
 2222000   0.90472723   -7.9550283    536.14933  0.020107611   0.01996677            3 
 2223000   0.90033765   -7.9729097     536.3319  0.020105409  0.019960571            1 
 2224000   0.88125256   -7.9774439    535.75412   0.02007472   0.01995437            1 
 2225000   0.89273453   -7.9682509    535.94691  0.020072918  0.019948111            2 
 2226000   0.87497136   -7.9832549    536.84246  0.020097427  0.019941877            2 
 2227000   0.89072196   -7.9465668    537.30855  0.020105843  0.019935686            2 
 2228000   0.88073388   -7.9752641    536.50464  0.020066751  0.019929461            4 
 2229000   0.90302712   -7.9526201    537.27669  0.020086612  0.019923238            2 
 2230000   0.90641552   -7.9415499    536.67335  0.020055058  0.019917026            2 
 2231000   0.90216995    -7.989793    536.62849  0.020044393  0.019910777            1 
 2232000   0.89468037   -7.9324278    538.10406  0.020090504  0.019904607            3 
 2233000   0.87193658   -7.9625015    538.08185  0.020080678  0.019898418            2 
 2234000     0.889663   -7.9411674    537.85154  0.020063098   0.01989222            2 
 2235000   0.90360114   -7.9304569    536.29331  0.019996022  0.019885953            2 
 2236000   0.88594698   -7.9645344    536.29642  0.019987195  0.019879738            1 
 2237000   0.88326588   -8.0072206    538.04436  0.020043375  0.019873456            2 
 2238000   0.88946623   -7.9184624    536.87572  0.019990904   0.01986717            3 
 2239000   0.87979536   -7.9613619    536.68863  0.019975012  0.019860961            5 
 2240000   0.88022067   -7.9667167    537.31658  0.019989456  0.019854719            1 
 2241000   0.91003822   -7.9441054     538.0516  0.020007868  0.019848494            5 
 2242000   0.89519242   -7.9012855    538.54421  0.020017254  0.019842322            1 
 2243000   0.90378526   -7.9431245    538.85111  0.020019732  0.019836173            4 
 2244000   0.90264171   -7.9647791     537.6017  0.019964412  0.019829965            2 
 2245000   0.92082532   -7.9314786    538.58066  0.019991858  0.019823791            1 
 2246000   0.88944479   -7.9227455    537.99201  0.019961117  0.019817604            3 
 2247000   0.88066959   -7.9537168    538.89478  0.019985714   0.01981142            2 
 2248000   0.90200252   -8.0054817    537.72052  0.019933293  0.019805192            1 
 2249000    0.9071809    -7.960177    537.88319  0.019930458  0.019798945            1 
 2250000   0.89366639   -7.9913428    537.45105  0.019905594  0.019792713            1 
 2251000   0.89051999   -7.9630093    538.69911  0.019942955  0.019786444            1 
 2252000   0.87716186    -7.945648    537.80445  0.019900994  0.019780224            2 
 2253000   0.89044275   -7.9442194     538.1069  0.019903347  0.019773987            1 
 2254000   0.91560987   -7.9360423    539.25754  0.019937058  0.019767789            3 
 2255000   0.88437341   -7.9480715    539.89944  0.019951938  0.019761593            3 
 2256000   0.90116907   -7.9530287    539.06155  0.019912143  0.019755337            2 
 2257000   0.89085466    -7.946057    539.98884  0.019937559  0.019749135            3 
 2258000   0.88353377   -7.9631191    538.93452  0.019889818  0.019742904            7 
 2259000   0.87989503   -7.9543168    538.19052  0.019853568  0.019736655            3 
 2260000   0.88901212   -7.9711197    538.69513   0.01986339  0.019730416            2 
 2261000   0.88158166   -7.9527297    538.43635  0.019845067  0.019724226            4 
 2262000   0.89097273   -7.9865097    537.62125  0.019806265  0.019717988            5 
 2263000   0.88983967   -7.9359072    539.44878   0.01986481  0.019711778            2 
 2264000   0.89228071   -7.9744662     538.7356  0.019829785  0.019705507            1 
 2265000   0.88792489   -7.9401397    538.60014  0.019816046  0.019699222            2 
 2266000   0.89285852   -7.9956824    536.55562  0.019732113  0.019692928            4 
 2267000   0.89624904   -7.9448928    539.78841  0.019842244  0.019686654            3 
 2268000   0.89382152    -7.989197    538.75222  0.019795423  0.019680406            5 
 2269000   0.89409584   -7.9870422    540.01351  0.019833021   0.01967416            3 
 2270000    0.8827039   -7.9845397    540.02021  0.019824531  0.019667907            2 
 2271000   0.89122843   -7.9708879    539.57781  0.019799567  0.019661671            1 
 2272000   0.88871346   -7.9904416    539.22434  0.019777888  0.019655439            3 
 2273000   0.90834246   -7.9509148     541.2264  0.019842587  0.019649225            1 
 2274000   0.88210968   -7.9715625    539.98354  0.019788315  0.019642999            2 
 2275000   0.90797938   -7.9679829    540.05192  0.019782122  0.019636769            1 
 2276000   0.88241247   -7.9711577    541.19276  0.019815201  0.019630566            2 
 2277000    0.8955251   -7.9833655    538.98272  0.019725616  0.019624301            3 
 2278000   0.89133172    -7.990789    538.65661  0.019705027  0.019618004            3 
 2279000   0.90243889   -7.9669922    541.22919  0.019790449  0.019611749            2 
 2280000   0.90207849   -7.9888722    540.03809  0.019738234  0.019605579            5 
 2281000   0.90296924   -7.9820173    540.84272  0.019758977  0.019599369            3 
 2282000   0.89253267   -8.0133286    539.18426  0.019689755  0.019593108            2 
 2283000   0.88609685   -7.9492326    541.26437  0.019757058  0.019586913            3 
 2284000   0.88550509   -7.9948232    540.72447   0.01972871  0.019580711            1 
 2285000   0.88323986   -7.9052883    543.73617  0.019829911  0.019574567            2 
 2286000   0.90497667   -8.0074394    541.09386  0.019724915  0.019568428            2 
 2287000   0.89038613   -7.9835896    541.66367  0.019737052   0.01956225            2 
 2288000   0.88909326   -7.9833367    541.02202  0.019705056  0.019556029            5 
 2289000    0.8834168   -7.9718341    541.33793  0.019707948  0.019549818            3 
 2290000   0.87445309   -7.9663827    542.57747   0.01974445  0.019543648            3 
 2291000   0.86387112   -7.9710263    541.15265  0.019684004   0.01953745            4 
 2292000   0.90538917   -7.9833064    541.53458  0.019689303  0.019531229            2 
 2293000   0.87317964   -8.0067214    542.64862  0.019721203  0.019525037            5 
 2294000   0.89219913   -7.9668163    541.70748  0.019678418  0.019518816            1 
 2295000   0.90868365   -7.9729242    541.44393  0.019660273   0.01951261            3 
 2296000    0.9081219   -8.0016274     540.9434  0.019633544  0.019506367            2 
 2297000   0.89157487   -7.9739488    542.01172  0.019663754  0.019500132            2 
 2298000   0.88550069   -7.9871871    542.73635  0.019681475  0.019493919            3 
 2299000    0.8847988   -7.9699466    542.13943  0.019651277  0.019487715            9 
 2300000   0.87951005   -7.9805948    542.24086  0.019646408  0.019481518            2 
 2301000    0.8699398   -7.9597018    543.38278  0.019679226   0.01947534            4 
 2302000   0.89488093   -7.9838457     542.3384   0.01963287  0.019469181            2 
 2303000   0.87393818   -7.9690529    540.98464   0.01957536  0.019463009            2 
 2304000    0.8965283   -7.9683428    543.09901  0.019643338  0.019456841            3 
 2305000   0.87494785   -7.9869223    543.11066  0.019635237  0.019450668            2 
 2306000   0.89495398    -8.052294    541.14072  0.019555533  0.019444494            3 
 2307000   0.88846269   -7.9780947    541.60763  0.019563923  0.019438263            3 
 2308000    0.8780613   -8.0185061    542.89041  0.019601762  0.019432038            1 
 2309000   0.87746883   -7.9719296    543.02312  0.019598062  0.019425857            1 
 2310000   0.88718167   -7.9887044    543.27421  0.019598637  0.019419669            1 
 2311000   0.86381909   -7.9789514    541.93179  0.019541749  0.019413482            2 
 2312000   0.87624964   -7.9979322    542.95136  0.019570046   0.01940731            3 
 2313000    0.8867327   -7.9767269    543.14923  0.019568714  0.019401131            3 
 2314000   0.88681019   -7.9930608    542.28961    0.0195293  0.019394904            1 
 2315000   0.87820403    -7.971488    544.05376  0.019584369  0.019388737            3 
 2316000   0.87802458   -7.9755732    542.90376  0.019534534  0.019382572            2 
 2317000    0.9012241   -7.9691014    543.71423  0.019555252  0.019376434            2 
 2318000   0.88710587   -7.9791217     544.5655  0.019577419  0.019370321            2 
 2319000   0.88368814   -7.9900616    543.81497  0.019542007  0.019364226            2 
 2320000   0.87754463   -7.9792005     544.4116  0.019555014  0.019358094            2 
 2321000   0.86896624   -7.9697848    543.85629  0.019526651  0.019351981            3 
 2322000   0.90586664   -7.9642279    544.75015  0.019550321  0.019345877            3 
 2323000   0.88244389   -7.9931671    543.44547  0.019495102  0.019339775            2 
 2324000   0.88818953   -7.9830063    543.39653  0.019484959  0.019333613            1 
 2325000   0.88401429   -7.9860249    545.26833  0.019543668  0.019327441            3 
 2326000   0.89707799   -8.0036794    543.58495  0.019474955   0.01932125            2 
 2327000   0.88092986   -8.0106338     543.3808  0.019459275  0.019315092            2 
 2328000   0.89354198   -7.9706545    545.05354  0.019510794  0.019308908            3 
 2329000   0.88275793   -8.0207493    543.63025   0.01945149  0.019302686            1 
 2330000   0.87166662   -8.0040211    543.62131  0.019442822   0.01929646            6 
 2331000    0.8774575    -8.032696    543.75248  0.019439171  0.019290219            5 
 2332000   0.88789752    -8.005996    545.17436  0.019481645  0.019284018            2 
 2333000    0.8772229   -8.0225616    543.16094  0.019401377  0.019277842            8 
 2334000   0.87174092   -7.9702319    544.85274  0.019453468  0.019271653            4 
 2335000   0.86943496    -7.996161     543.7674  0.019406403    0.0192655            7 
 2336000   0.87739666   -7.9951886    543.82055  0.019399991  0.019259295            1 
 2337000   0.87967777   -8.0332879    543.78424  0.019390395  0.019253114            2 
 2338000   0.87677915   -7.9702491    546.04595  0.019462716  0.019246959            5 
 2339000   0.88484493   -8.0270046    544.76798  0.019408863  0.019240827            3 
 2340000   0.87041399   -8.0058077     545.8664  0.019439687  0.019234692            1 
 2341000   0.88386871   -8.0310047    543.75726  0.019356303  0.019228538            4 
 2342000    0.8671101   -8.0304813    544.88599  0.019388201  0.019222358            3 
 2343000   0.89378762   -7.9901336    545.12719  0.019388505   0.01921618            3 
 2344000   0.88155572   -8.0105993    545.34525  0.019387985  0.019210055            3 
 2345000   0.88013695   -8.0154568    545.36921  0.019380569  0.019203935            1 
 2346000   0.87407227   -7.9705286    547.52324  0.019448822  0.019197844            2 
 2347000   0.89672799   -7.9751922    546.31094  0.019397491  0.019191785            1 
 2348000   0.87257412   -7.9936087     546.2335  0.019386482  0.019185714            2 
 2349000   0.85864281    -8.044086    546.14943  0.019375246  0.019179624            1 
 2350000   0.86484995   -7.9934036    546.16012   0.01936738   0.01917346            2 
 2351000   0.89180634   -8.0071412     544.6776  0.019306593  0.019167345            5 
 2352000   0.88014329   -7.9905706      547.208  0.019388039  0.019161281            1 
 2353000   0.88377667    -8.018839    547.19246  0.019379249  0.019155193            3 
 2354000   0.86806646   -8.0055339    545.46549   0.01930988  0.019149109            3 
 2355000   0.87168387   -8.0368406    546.93752  0.019353769  0.019143035            1 
 2356000   0.87507657   -8.0099812    548.03559  0.019384394  0.019136952            1 
 2357000   0.87726557   -7.9906734    547.10014  0.019343096  0.019130875            2 
 2358000   0.89219234   -8.0195504    545.84319  0.019290472  0.019124787            2 
 2359000   0.87821875   -7.9875435    547.96294  0.019357176  0.019118736            2 
 2360000    0.8606751   -8.0047771    546.54926  0.019299056  0.019112694            2 
 2361000   0.87551974   -8.0240223    546.62293  0.019293482  0.019106615            1 
 2362000   0.87989209    -8.029488    546.62675  0.019285449  0.019100513            2 
 2363000   0.86518343   -8.0246503    546.43209  0.019270422  0.019094457            1 
 2364000   0.86675608   -8.0350456    546.86738  0.019277615  0.019088372            4 
 2365000   0.87055414   -8.0438264    546.89644  0.019270488   0.01908226            2 
 2366000   0.87959175   -8.0188444    547.34226  0.019278045   0.01907616            3 
 2367000   0.87707696   -8.0454357    546.35298  0.019235072  0.019070041            2 
 2368000   0.87474838   -7.9914657    546.85981  0.019244785  0.019063942            3 
 2369000   0.85920215    -7.996965    548.17848  0.019283048  0.019057907            3 
 2370000   0.88771965    -8.032421    547.52586  0.019251964  0.019051853            1 
 2371000   0.87758579   -7.9910621    548.07389  0.019263106  0.019045777            2 
 2372000   0.86885011   -8.0156622    547.72149  0.019242604  0.019039714            3 
 2373000   0.85779424   -7.9943904    548.75408  0.019270757  0.019033681            2 
 2374000   0.86453837   -7.9973301    548.88603  0.019267271  0.019027659            1 
 2375000   0.86271976   -8.0081904    548.63441   0.01925033  0.019021673            1 
 2376000   0.83935099   -8.0343199    547.73692   0.01921075  0.019015622            2 
 2377000   0.85565865   -7.9957834    548.80648  0.019240165  0.019009597            3 
 2378000   0.85554416   -7.9784721    548.56144  0.019223487  0.019003568            1 
 2379000   0.88352328   -8.0457358    548.43593   0.01921101  0.018997548            3 
 2380000   0.88129282   -8.0066095    548.30718  0.019198431  0.018991494            2 
 2381000   0.86026774    -8.012167    549.71122  0.019239508   0.01898545            1 
 2382000   0.86530167   -8.0076589     547.7662  0.019163385  0.018979369            2 
 2383000   0.85876575   -8.0206689    549.25181  0.019207295   0.01897336            2 
 2384000   0.88846804   -8.0116267    548.46093  0.019171593  0.018967318            5 
 2385000   0.86243589   -8.0117774    548.99667  0.019182274  0.018961262            4 
 2386000   0.85414561   -8.0227121    548.79305  0.019167123  0.018955244            2 
 2387000   0.86076678   -8.0020049    547.65534  0.019119374  0.018949221            2 
 2388000   0.87072818   -8.0168944    549.01047  0.019158657  0.018943163            3 
 2389000   0.86460307   -8.0125414    548.65418  0.019138209  0.018937128            2 
 2390000   0.86416494   -8.0298658    549.10882  0.019146054  0.018931047            3 
 2391000    0.8599292   -8.0157052    548.91803  0.019131397  0.018924931            2 
 2392000   0.86044258   -8.0201226    547.25727   0.01906554  0.018918849            2 
 2393000   0.85789558   -8.0326825    547.30658   0.01905929  0.018912734            2 
 2394000   0.85922696     -8.06908    547.53095  0.019059139  0.018906605            2 
 2395000   0.85844835   -8.0616538    549.39832  0.019116156  0.018900419            2 
 2396000   0.85876817   -8.0033589    550.09593  0.019132441  0.018894288            2 
 2397000   0.87344819   -8.0352408    548.68803  0.019075512  0.018888181            1 
 2398000   0.87094726   -8.0235827    549.00305  0.019078505  0.018882072            3 
 2399000   0.86696628   -7.9938425      550.644  0.019127553  0.018875989            1 
 2400000   0.86539282   -7.9916473    550.06824  0.019099592  0.018869903            2 
 2401000   0.86786097   -8.0321275    550.40598  0.019103359  0.018863834            2 
 2402000   0.87483144   -8.0277788    549.39852  0.019060454  0.018857738            1 
 2403000   0.86613982   -8.0365569    548.39809  0.019017828  0.018851655            2 
 2404000   0.85550063   -8.0071333     550.0141  0.019065935  0.018845606            2 
 2405000   0.86710668   -8.0271522    549.90311  0.019054162  0.018839561            3 
 2406000   0.85667698   -8.0081356    549.36851  0.019027726  0.018833477            1 
 2407000   0.86203181   -7.9820385    549.65523  0.019029747  0.018827406            3 
 2408000    0.8602941   -8.0316623    548.81579  0.018992795  0.018821315            1 
 2409000   0.86435011   -8.0379426    549.02154  0.018992028  0.018815235            2 
 2410000   0.85451174   -8.0131695    548.59897  0.018969536  0.018809148            2 
 2411000   0.85587444   -8.0215762    549.25679  0.018984404  0.018803087            2 
 2412000   0.88352953   -8.0200179    549.06291  0.018969835  0.018797023            3 
 2413000   0.85581018    -7.988859     550.0246  0.018995186   0.01879093            6 
 2414000   0.86511256   -7.9874416    550.36517  0.018999074  0.018784847            3 
 2415000   0.87353709   -8.0240705    549.15998   0.01894962   0.01877877            1 
 2416000   0.86445606   -8.0109542    550.90447  0.019001948  0.018772698            2 
 2417000   0.87145688   -8.0023913    550.15642  0.018968295  0.018766604            3 
 2418000   0.87303843   -8.0283686    550.36781  0.018967735  0.018760507            6 
 2419000   0.86188078   -8.0389949    549.28824  0.018922704  0.018754381            6 
 2420000   0.85291479   -8.0492026    548.81316  0.018898525  0.018748254            1 
 2421000   0.86269073   -8.0377728     549.9118  0.018928535  0.018742109            2 
 2422000    0.8601613   -8.0543159    549.28687  0.018899218  0.018735953            4 
 2423000   0.85873383   -8.0436066    549.18137   0.01888779  0.018729838            4 
 2424000   0.85257771   -8.0406745    550.15648  0.018913521  0.018723693            1 
 2425000   0.85959866   -8.0184042    549.71526  0.018890559  0.018717583            2 
 2426000   0.85264127   -8.0256971    549.19954  0.018865057  0.018711483            4 
 2427000   0.87600096   -8.0346132    551.12476  0.018923388  0.018705349            3 
 2428000    0.8614162   -8.0307519    549.31816  0.018853589  0.018699217            2 
 2429000   0.84901946   -8.0527429    547.06971  0.018768688  0.018693054            1 
 2430000   0.87219926   -8.0649729    550.15691  0.018866835  0.018686875            2 
 2431000    0.8521621   -8.0225714    548.49497  0.018802104   0.01868072            1 
 2432000     0.865722   -8.0266086    549.53491  0.018830006  0.018674553            2 
 2433000   0.85694039   -8.0050186    550.19396   0.01884484  0.018668416            1 
 2434000   0.85845332   -8.0474549    549.15501  0.018801527  0.018662283            3 
 2435000   0.89271184   -8.0588322    550.34664  0.018834587  0.018656116            5 
 2436000   0.85759327   -8.0634974    548.95148  0.018779128    0.0186499            1 
 2437000   0.88674723   -8.0132853    550.62821  0.018828758  0.018643717            4 
 2438000   0.87311526    -8.023645    551.59233   0.01885399  0.018637565            3 
 2439000   0.86097047   -8.0152184    550.76226  0.018817899  0.018631422            2 
 2440000   0.85776673   -8.0586696    549.71867  0.018774545  0.018625284            2 
 2441000   0.85680124   -8.0583998    550.69385  0.018800145  0.018619119            2 
 2442000    0.8808677   -8.0639987    549.66474  0.018757328  0.018612968            3 
 2443000   0.85149856   -8.0599229    551.55901  0.018814266  0.018606821            1 
 2444000   0.84521782   -8.0623403    550.06456  0.018755611  0.018600691            4 
 2445000   0.85465278   -8.0573019    551.56193  0.018798975  0.018594566            4 
 2446000   0.87020448   -8.0357444    550.85199  0.018767102  0.018588446            2 
 2447000   0.85358066   -8.0578712    549.81394  0.018724082  0.018582337            5 
 2448000    0.8612278   -8.0835932     551.3071  0.018767262  0.018576164            3 
 2449000   0.86137296   -8.0806186    551.78685  0.018775924  0.018570022            3 
 2450000   0.86128071   -8.1005493    551.16593   0.01874714  0.018563848            3 
 2451000    0.8560914   -8.1015404    551.11118   0.01873763   0.01855767            2 
 2452000   0.85391659   -8.0822931    550.14092  0.018697013  0.018551491            2 
 2453000   0.86352054   -8.0871077    551.22187  0.018726113  0.018545318            2 
 2454000   0.84659981   -8.0862603    551.21821  0.018718358   0.01853918            3 
 2455000   0.84186126   -8.0891019    551.56744  0.018722588  0.018533022            2 
 2456000   0.87227964   -8.0709578    551.78227  0.018722254  0.018526915            3 
 2457000   0.86257869   -8.0740151    552.17708  0.018728025   0.01852083            2 
 2458000   0.85560472   -8.0803279    550.79086  0.018673409  0.018514711            2 
 2459000   0.86158876   -8.0366056    552.21727  0.018714154  0.018508606            3 
 2460000   0.86891614    -8.075481    552.52556   0.01871699  0.018502538            4 
 2461000   0.84392704    -8.036465    553.78243  0.018751945  0.018496513            6 
 2462000   0.83386153   -8.0739306    551.99329   0.01868377  0.018490477            2 
 2463000    0.8571058   -8.0745088    552.51347  0.018693784    0.0184844            1 
 2464000   0.86485623   -8.0580967    553.54272  0.018721006   0.01847834            2 
 2465000   0.85021249   -8.0761261    551.17259  0.018633286  0.018472281            3 
 2466000   0.85530589   -8.0662779    552.11618  0.018657616  0.018466223            4 
 2467000   0.85859804   -8.0882713     552.9825  0.018679317  0.018460152            2 
 2468000   0.86162767   -8.0687329    554.61792  0.018726969  0.018454122            2 
 2469000   0.86964444   -8.0924801    551.93377  0.018628789  0.018448084            2 
 2470000   0.85141736    -8.055652    552.57592  0.018642912  0.018442041            2 
 2471000   0.85488455   -8.0486247    553.36436  0.018661957  0.018436036            2 
 2472000    0.8440405   -8.0602778    553.43234    0.0186567  0.018429978            9 
 2473000   0.86149088    -8.093912    552.76687  0.018626731  0.018423936            4 
 2474000   0.86878085   -8.0505043    553.56479  0.018646079  0.018417899            2 
 2475000   0.86815374   -8.0937253    552.44949  0.018600993  0.018411853            3 
 2476000    0.8679256   -8.0743466    551.09241  0.018547806  0.018405762            1 
 2477000   0.86135143   -8.0865533    551.78417  0.018563591  0.018399675            2 
 2478000   0.86408547   -8.0923427    551.99617  0.018563229  0.018393578            4 
 2479000   0.85428552   -8.0850818    552.15105  0.018560947  0.018387495            2 
 2480000   0.86017151   -8.0603081     552.9354  0.018579819  0.018381418            2 
 2481000   0.86534587   -8.0751851    553.47894  0.018590586  0.018375369            1 
 2482000   0.85037662   -8.0769339    552.83559  0.018561496  0.018369334            2 
 2483000   0.82915903   -8.0649783    553.07383  0.018562016  0.018363264            2 
 2484000   0.84926706   -8.0827978    552.91117  0.018549086  0.018357221            2 
 2485000   0.84369431   -8.0836027    553.96278  0.018576887  0.018351152            3 
 2486000    0.8471456   -8.0620114    554.76289  0.018596235  0.018345112            4 
 2487000   0.86541151   -8.0880125    553.16067  0.018535071  0.018339093            7 
 2488000    0.8429571   -8.0784478    552.57194  0.018507903  0.018333043            2 
 2489000   0.85375951   -8.0867919    554.51538  0.018565534  0.018327015            4 
 2490000   0.84416093   -8.1033081    552.82836  0.018501619  0.018320983            4 
 2491000   0.86736369    -8.074013    553.77286  0.018525788  0.018314928            3 
 2492000   0.84264329   -8.1051505    552.92445  0.018489983  0.018308892            2 
 2493000   0.84877485   -8.0538226    554.65356  0.018540365  0.018302872            4 
 2494000   0.84312322    -8.056665    554.70446  0.018534632  0.018296901            1 
 2495000   0.84867717   -8.0734715    554.82437  0.018531208  0.018290954            2 
 2496000   0.84497187   -8.0993037    555.01534   0.01853016   0.01828498            3 
 2497000   0.86270629   -8.0713992     555.5391  0.018540218  0.018279009            2 
 2498000   0.85128585    -8.089345    554.76213  0.018506877  0.018273015            4 
 2499000   0.85117753   -8.0799083    555.42306  0.018521511   0.01826704            1 
 2500000    0.8481427   -8.0607931    555.00503  0.018500168  0.018261074            2 
 2501000   0.84553361   -8.0828576    553.98313  0.018458721  0.018255124            3 
 2502000   0.84790111   -8.0640083    555.15451  0.018490358  0.018249141            3 
 2503000    0.8436405   -8.0496401    554.33902   0.01845582  0.018243175            1 
 2504000   0.85415914   -8.0592206    555.67631  0.018492955  0.018237189            1 
 2505000   0.84101647   -8.0677216    555.46618  0.018478582  0.018231235            4 
 2506000   0.84975491   -8.0774847     555.3412  0.018467052  0.018225275            3 
 2507000   0.85954989    -8.068134    555.16237  0.018453742  0.018219337            4 
 2508000   0.84650004   -8.0578979    556.91793  0.018504716  0.018213407            3 
 2509000   0.84990905   -8.0992771    555.50035  0.018450258  0.018207471            2 
 2510000   0.84991554   -8.0573394    555.23517  0.018434102  0.018201495            3 
 2511000   0.84791328   -8.1022743    555.81264  0.018445926  0.018195537            3 
 2512000   0.85448092   -8.0919357    554.60493  0.018398518   0.01818955            6 
 2513000   0.85564181   -8.0485684    555.05616   0.01840616  0.018183547            1 
 2514000   0.84936813   -8.0776342      554.736  0.018388226  0.018177595            3 
 2515000   0.84062086   -8.0883149     556.2836  0.018432193  0.018171602            3 
 2516000    0.8509334   -8.1026778    554.12708  0.018353441  0.018165602            3 
 2517000   0.83151413   -8.0687745    555.26973   0.01838398  0.018159591            2 
 2518000   0.86829296    -8.073005    554.36495  0.018346735   0.01815359            4 
 2519000   0.84867944   -8.0901797    554.91467  0.018357638  0.018147561            2 
 2520000   0.84300388   -8.0698571     554.5496   0.01833828  0.018141543            2 
 2521000   0.85514231   -8.0757982    555.01521  0.018346397  0.018135563            4 
 2522000   0.85992898   -8.0813794    555.95089   0.01837004  0.018129582            2 
 2523000    0.8409649   -8.0738143    554.47494  0.018314009  0.018123566            5 
 2524000   0.84721169   -8.0764948    554.50275  0.018307671   0.01811752            3 
 2525000   0.82762025   -8.0677643    556.49424  0.018366146  0.018111482            2 
 2526000   0.86307533   -8.0932756    554.32742  0.018287392  0.018105456            2 
 2527000   0.86640201   -8.0600296    555.61212  0.018322521  0.018099423            1 
 2528000   0.85133179   -8.1055537    554.69104   0.01828491  0.018093417            4 
 2529000   0.85004504   -8.0927753    554.90176  0.018284624  0.018087424            3 
 2530000   0.85462136   -8.1172534    555.61757  0.018300974  0.018081407            6 
 2531000   0.85314425   -8.0980845    554.50908  0.018257246  0.018075381            3 
 2532000    0.8434906   -8.0918614    555.13267  0.018270559  0.018069311            1 
 2533000   0.85638423   -8.1228229    556.05729  0.018293765  0.018063268            2 
 2534000   0.83655365   -8.0597197    556.93077  0.018315271  0.018057227            2 
 2535000   0.83865909   -8.0988009    554.83712  0.018239222  0.018051214            4 
 2536000   0.84107316   -8.0766409    555.10375  0.018240791  0.018045191            2 
 2537000   0.84133623    -8.106307    555.37705  0.018242578  0.018039158            4 
 2538000   0.84387926   -8.0926462    555.34612  0.018234375  0.018033113            1 
 2539000    0.8545569   -8.0995054    555.10548  0.018219295  0.018027071            2 
 2540000   0.85162912   -8.0902849    556.10045  0.018244765  0.018021017            2 
 2541000   0.82887226   -8.1034569    555.22978  0.018209031  0.018014989            2 
 2542000   0.85600109   -8.0883652    555.78012   0.01821991  0.018008912            2 
 2543000   0.85953147   -8.0734359    555.43183  0.018201331  0.018002872            3 
 2544000   0.82499924    -8.098068    555.33553  0.018191022  0.017996837            2 
 2545000   0.83216414    -8.091682    555.46958  0.018188264  0.017990771            2 
 2546000   0.83132146    -8.090147    555.86698  0.018194127  0.017984689            2 
 2547000   0.83985988   -8.0894112     556.1767  0.018197118  0.017978619            1 
 2548000   0.83009059   -8.0943888    554.86024  0.018146921   0.01797255            2 
 2549000   0.84969254   -8.0656185    556.30253  0.018186953  0.017966515            1 
 2550000   0.83090101   -8.0877099      556.463  0.018185065  0.017960462            1 
 2551000   0.85629031   -8.0956263    555.85553  0.018158093  0.017954401            3 
 2552000   0.85308447   -8.1270679    555.33038  0.018133829  0.017948384            4 
 2553000    0.8407502   -8.1025285    556.49868  0.018164861  0.017942339            7 
 2554000   0.82730733   -8.0813301    555.37917   0.01812122  0.017936292            2 
 2555000   0.82058981   -8.1112359     556.1984  0.018140848   0.01793025            2 
 2556000   0.84322478   -8.1533742    555.59504  0.018114079  0.017924205            2 
 2557000   0.85410435    -8.097737    555.95029  0.018118573  0.017918153            1 
 2558000   0.84796644   -8.0914837    556.43644  0.018127327  0.017912153            2 
 2559000    0.8576295   -8.0987943    556.41927  0.018119684  0.017906152            1 
 2560000   0.83756263   -8.1010494    557.14711  0.018136299  0.017900144            3 
 2561000   0.86085366   -8.0793066    556.55526  0.018109959  0.017894166            2 
 2562000   0.84003599   -8.1052364     557.5103  0.018133955  0.017888189            2 
 2563000   0.84559281   -8.1039169    556.27282  0.018086644  0.017882197            2 
 2564000   0.83688058   -8.1042256    557.64356  0.018124141  0.017876223            7 
 2565000   0.83655947   -8.0872785    559.02187  0.018161854  0.017870263            4 
 2566000   0.86628015   -8.0977785    557.04555  0.018090593    0.0178643            3 
 2567000   0.83055893   -8.1142288    557.85118  0.018109699  0.017858338            2 
 2568000   0.85034114    -8.119256    555.86749  0.018038275  0.017852369            3 
 2569000   0.85190106   -8.1040963    557.31755  0.018078291  0.017846403            2 
 2570000   0.85042687   -8.1190576    556.57508  0.018047182  0.017840421            1 
 2571000   0.84102158   -8.1468733     555.6548  0.018010333  0.017834407            3 
 2572000   0.82144294   -8.1037334     557.1252  0.018050972  0.017828401            4 
 2573000   0.82828822   -8.1190218    558.06667  0.018074448  0.017822413            2 
 2574000   0.86180091   -8.1360032    555.85584  0.017995851  0.017816418            4 
 2575000   0.85044843   -8.0876859    557.13499  0.018030258  0.017810443            4 
 2576000    0.8392746   -8.1172456     556.3406  0.017997561   0.01780447            4 
 2577000   0.83757984   -8.1322686    557.46463  0.018026925  0.017798494            2 
 2578000   0.84670783   -8.1036097    557.39262  0.018017605  0.017792516            2 
 2579000   0.84594547   -8.1379832    558.04287  0.018031629  0.017786521            2 
 2580000    0.8438274   -8.1173721    557.88817  0.018019644  0.017780564            2 
 2581000   0.82600409   -8.1196213    556.95959  0.017982681  0.017774581            1 
 2582000   0.83429377   -8.1305996    556.93362  0.017974878  0.017768619            2 
 2583000   0.85421497   -8.1226938    556.55562  0.017955724   0.01776261            5 
 2584000   0.82188145   -8.1266221    556.25775  0.017939169  0.017756603            3 
 2585000   0.82096299   -8.1337878    558.28972  0.017997734  0.017750594            2 
 2586000   0.83767605   -8.1379988    557.87031  0.017977259  0.017744612            5 
 2587000    0.8335763   -8.1234872    557.85879  0.017969939   0.01773863            5 
 2588000   0.81826223   -8.1544846    556.98194  0.017934761  0.017732629            4 
 2589000   0.85266757   -8.1329339    557.99973  0.017960594   0.01772663            3 
 2590000    0.8273778   -8.0930558    559.09826  0.017989005  0.017720655            4 
 2591000   0.83138243   -8.1184225    558.64147   0.01796737  0.017714721            4 
 2592000   0.85026817   -8.1021673    559.39277  0.017984593  0.017708813            3 
 2593000   0.83607504   -8.0935531    559.26937  0.017973691  0.017702943            2 
 2594000   0.83369712   -8.1003458    559.80276  0.017983897  0.017697057            3 
 2595000   0.83090984   -8.1198374    559.24076   0.01795892  0.017691137            2 
 2596000   0.83526335   -8.1138502    559.94468  0.017974598  0.017685239            2 
 2597000    0.8304373    -8.094699    558.37142  0.017917194  0.017679352            3 
 2598000   0.85012151   -8.1031587    559.03455  0.017931568  0.017673463            1 
 2599000   0.83062593   -8.1173663    558.78122  0.017916546  0.017667582            2 
 2600000   0.85229449   -8.1001641    560.01381  0.017949161  0.017661727            4 
 2601000   0.85003317   -8.1209735    558.78845     0.017903  0.017655867            3 
 2602000   0.84601675   -8.0891444    560.00578  0.017935107  0.017650034            3 
 2603000   0.84636956    -8.098643    559.32682   0.01790648  0.017644182            2 
 2604000   0.82092892   -8.1187103    559.31151  0.017899114  0.017638312            2 
 2605000   0.83650613   -8.1310642    558.26989  0.017858922   0.01763244            4 
 2606000   0.83504257   -8.1377638    558.59427  0.017862442  0.017626561            2 
 2607000   0.83171087   -8.0938316    559.41915  0.017881957  0.017620701            3 
 2608000   0.83838003   -8.0853402    561.38566  0.017937936  0.017614852            3 
 2609000   0.83842335   -8.1129961    559.41418  0.017868091  0.017608995            1 
 2610000   0.82683821    -8.136175    558.42924  0.017829797  0.017603121            2 
 2611000   0.83908324   -8.1206259    559.47256  0.017856267  0.017597191            6 
 2612000   0.82851021    -8.139939    558.89469  0.017830994  0.017591233            4 
 2613000   0.84050395   -8.1023788    559.52353  0.017844225  0.017585295            4 
 2614000   0.82189639   -8.1303577    560.06363  0.017854617  0.017579358            7 
 2615000   0.84006986   -8.1232291    559.35188  0.017825108  0.017573416            1 
 2616000   0.82558788   -8.1361069    558.05742  0.017777058  0.017567482            2 
 2617000   0.81507874   -8.1275201    559.20355  0.017806762  0.017561568            2 
 2618000   0.84079305     -8.13097    559.81339  0.017819372  0.017555674            2 
 2619000   0.81845341   -8.1495226     558.6856  0.017776683  0.017549778            5 
 2620000   0.83192493   -8.1375043    559.65812  0.017800831  0.017543851            2 
 2621000   0.83622224   -8.1215842    560.35888   0.01781632  0.017537944            3 
 2622000   0.84442601   -8.1355925    560.69837  0.017820314  0.017532058            2 
 2623000   0.86184251   -8.1238282    559.72832  0.017782702  0.017526116            3 
 2624000   0.83287337   -8.1224774     559.6965  0.017774914  0.017520195            2 
 2625000   0.82157406   -8.1376548    559.37764   0.01775802   0.01751425            3 
 2626000   0.81334816   -8.1337111     560.9612   0.01780151   0.01750831            2 
 2627000   0.84407159   -8.1541872    558.32322  0.017711053  0.017502387            5 
 2628000   0.82905367   -8.1047463    561.06985  0.017791408  0.017496478            3 
 2629000   0.84369879   -8.0812457    561.57938  0.017800792  0.017490657            1 
 2630000   0.82187059   -8.1350473    560.35436  0.017755208  0.017484821            2 
 2631000   0.84130185   -8.0860691    561.24985  0.017776823  0.017478979            3 
 2632000   0.84143211   -8.0915639    559.84206  0.017725496   0.01747312            4 
 2633000   0.82376439   -8.1271199     560.0676  0.017725902  0.017467259            3 
 2634000   0.82186022   -8.1332506    560.25655   0.01772515  0.017461383            2 
 2635000   0.82693712   -8.1305628    560.26077  0.017718557    0.0174555            3 
 2636000   0.82555901   -8.1251093    561.24426  0.017742927  0.017449655            2 
 2637000   0.84040223   -8.0894113    560.56911  0.017714862  0.017443774            3 
 2638000   0.82257342    -8.132182    560.66884  0.017711298  0.017437907            4 
 2639000   0.82486367   -8.0961445    561.74834  0.017738674  0.017432039            8 
 2640000   0.82945103   -8.1390433     561.4432  0.017722323   0.01742616            2 
 2641000    0.8238233   -8.1468643    560.46789  0.017684838  0.017420287            2 
 2642000   0.81764802   -8.1490156     559.5813   0.01765018  0.017414386            2 
 2643000   0.83195106   -8.1185099     560.0382  0.017657908  0.017408516            1 
 2644000   0.83434312   -8.1309709    560.55401  0.017667486  0.017402664            3 
 2645000   0.82740944    -8.177964     559.4634  0.017626446  0.017396777            1 
 2646000   0.82359769   -8.1630929    562.47527  0.017714641  0.017390872            4 
 2647000   0.82725123   -8.1544573    561.54402  0.017678631  0.017384993            1 
 2648000   0.82581709   -8.1470693     561.0904  0.017657679  0.017379109            2 
 2649000   0.82246406   -8.1337786    561.09266  0.017651084  0.017373201            1 
 2650000   0.80503332    -8.168813    560.45407  0.017624342  0.017367297            2 
 2651000   0.82562904   -8.1580238    561.05253  0.017636506  0.017361392            2 
 2652000   0.82987958   -8.1615016    560.73836  0.017619984  0.017355471            4 
 2653000    0.8374901   -8.1520428    560.50321  0.017605956   0.01734957            3 
 2654000   0.82386446   -8.1599652    561.33773  0.017625525  0.017343653            3 
 2655000   0.82945532   -8.1615037    559.64767   0.01756584  0.017337728            2 
 2656000   0.82141088   -8.1498719    561.03584  0.017602781  0.017331842            3 
 2657000   0.81450665   -8.1679574     562.0871  0.017629127  0.017325942            1 
 2658000   0.82778621   -8.1678761    559.35369  0.017536797  0.017320024            2 
 2659000   0.83085231   -8.1735067    561.03141  0.017582782  0.017314134            1 
 2660000   0.82891432   -8.1769967    560.90533  0.017572222  0.017308214            2 
 2661000   0.81933446   -8.1411153    560.89899   0.01756542  0.017302296            2 
 2662000   0.81942661   -8.1603505    561.08288  0.017564578  0.017296398            2 
 2663000   0.82561213   -8.1836932    559.51894  0.017509042  0.017290528            2 
 2664000   0.81333894   -8.1499211    560.88164  0.017545096  0.017284655            2 
 2665000   0.82782814   -8.1309798    562.56682  0.017591208  0.017278818            2 
 2666000   0.83276036   -8.1636589    561.13646  0.017539899  0.017272971            3 
 2667000   0.84470788   -8.1539364     562.1508  0.017565017  0.017267152            5 
 2668000   0.84428909   -8.1575327    560.92166  0.017520042  0.017261308            1 
 2669000   0.82024932   -8.1712323    561.06191  0.017517856   0.01725549            4 
 2670000   0.82921862   -8.1362182    563.01402  0.017572223   0.01724967            4 
 2671000   0.83589132   -8.1411976    564.24543  0.017604063  0.017243882            2 
 2672000   0.84123144   -8.1270603    562.28245  0.017536254  0.017238112            2 
 2673000   0.82579089   -8.1436516    562.19634  0.017527009  0.017232327            2 
 2674000   0.83295776   -8.1172044    563.56676  0.017563163  0.017226573            3 
 2675000   0.82310005   -8.1566239     562.5159   0.01752386  0.017220813            3 
 2676000   0.83123443   -8.1540273    563.94678   0.01756187  0.017215046            4 
 2677000   0.80434299   -8.1776086    562.50647  0.017510474  0.017209251            6 
 2678000   0.81911065   -8.1534294     561.9204  0.017485698  0.017203421            5 
 2679000   0.81493476   -8.1322512    563.27919  0.017521438  0.017197646            3 
 2680000   0.81328458   -8.1066411    563.66725  0.017526967  0.017191902            1 
 2681000   0.80735239   -8.1667343    563.67248  0.017520592  0.017186114            1 
 2682000   0.81457018   -8.1593037    562.79072  0.017486662  0.017180378            1 
 2683000   0.81685485   -8.1569426    562.92645   0.01748436  0.017174594            1 
 2684000    0.8116317   -8.1400522    563.55968  0.017497506   0.01716882            1 
 2685000   0.83491662   -8.1746707    563.17342  0.017479001  0.017163072            2 
 2686000   0.83526646   -8.1723537    564.77986  0.017522334  0.017157327            1 
 2687000   0.80979264   -8.1526002    563.72582  0.017483123  0.017151592            1 
 2688000   0.80840983   -8.1826359    562.94806  0.017452507  0.017145833            3 
 2689000   0.83006754   -8.1503935     564.1814  0.017484238  0.017140082            3 
 2690000   0.81842206   -8.1964868    563.61073   0.01746006  0.017134338            3 
 2691000   0.80944923   -8.1413027    564.66591  0.017486248  0.017128608            3 
 2692000   0.83159213   -8.1522969    564.77292  0.017483065  0.017122909            2 
 2693000   0.80711445   -8.1621449    564.97972  0.017482972  0.017117205            4 
 2694000   0.81781849   -8.1902834    563.50105  0.017430743  0.017111491            2 
 2695000   0.80723637   -8.1873878    562.99339  0.017408577  0.017105789            2 
 2696000   0.82151497   -8.1996919    563.36249  0.017413529  0.017100045            1 
 2697000   0.81987172   -8.1666521    563.41207  0.017408604  0.017094332            3 
 2698000   0.83046668   -8.1814751    565.05269  0.017452826  0.017088583            2 
 2699000   0.80281978   -8.1660174    563.65097   0.01740308  0.017082855            2 
 2700000   0.81104862   -8.1812652    564.37612  0.017419016  0.017077154            8 
 2701000   0.80791848   -8.1597443    564.42198  0.017413982   0.01707144            2 
 2702000   0.81282417   -8.1670349    564.12875  0.017398493  0.017065731            2 
 2703000   0.81356985   -8.1597329     565.1392  0.017423209  0.017060039            4 
 2704000   0.80282023   -8.1686407    564.56045  0.017398929  0.017054366            2 
 2705000   0.80521643   -8.1517413    565.07746  0.017408424  0.017048664            2 
 2706000   0.81776655   -8.1664332    563.85155  0.017364238  0.017042959            2 
 2707000   0.81466978   -8.1642785    564.93474  0.017391169  0.017037262            4 
 2708000   0.80827741   -8.1503112    565.63469  0.017406287  0.017031579            1 
 2709000   0.81794784   -8.1963671    565.30706  0.017389783  0.017025885            2 
 2710000   0.82870617   -8.1428077    565.50389  0.017389419  0.017020201            2 
 2711000   0.80227976   -8.1626491    564.84575  0.017362774  0.017014518            3 
 2712000      0.80546   -8.1732733     564.0632  0.017332325   0.01700882            3 
 2713000   0.81109384   -8.1450556    565.49227  0.017369833  0.017003156            4 
 2714000    0.8304768   -8.1594206    564.28002   0.01732621  0.016997488            2 
 2715000   0.79400479   -8.1834242    564.77907  0.017335146  0.016991853            2 
 2716000   0.82638013   -8.1828874    564.29865  0.017314024  0.016986188            2 
 2717000   0.83707193    -8.168255    565.53296  0.017345508  0.016980543            2 
 2718000   0.81388072   -8.1636313    565.33367  0.017333017   0.01697487            3 
 2719000   0.80940138   -8.1919679    565.20899  0.017322821  0.016969207            2 
 2720000    0.8221036   -8.1886166    564.88941  0.017306661  0.016963546            2 
 2721000    0.7933897   -8.2077406    564.06966  0.017275195  0.016957872            2 
 2722000   0.81436218   -8.2000329    564.76719  0.017290203  0.016952177            1 
 2723000   0.83657072   -8.1984889    564.67809  0.017281126  0.016946513            3 
 2724000   0.82540176   -8.2172379     565.7456   0.01730744  0.016940857            2 
 2725000   0.83354711   -8.2107771    564.76272  0.017271031  0.016935185            2 
 2726000   0.81343037   -8.1638377     565.5446  0.017288597  0.016929537            2 
 2727000   0.79838762   -8.1815751    564.62602  0.017254187  0.016923835            1 
 2728000   0.81422543    -8.216967    563.96703  0.017227732  0.016918134            2 
 2729000   0.80396455   -8.1917631     564.0187  0.017222997  0.016912464            2 
 2730000   0.81998572    -8.169902    565.58542  0.017264512  0.016906769            2 
 2731000   0.81351866   -8.1951631    566.09353  0.017273695  0.016901083            2 
 2732000   0.80840519   -8.2024414    564.37923  0.017215081  0.016895374            3 
 2733000   0.82983945   -8.2053171    563.93682  0.017195293  0.016889645            3 
 2734000   0.81406511   -8.1897042    565.54237  0.017237941  0.016883943            1 
 2735000   0.81535987   -8.1693353    565.05909  0.017216913  0.016878257            2 
 2736000   0.80755421   -8.2019954    564.89726  0.017205692  0.016872573            3 
 2737000   0.82113758   -8.1642521    566.05821  0.017234752  0.016866898            4 
 2738000   0.81646746   -8.2130508    565.14121  0.017200548  0.016861229            1 
 2739000   0.82433593   -8.1666813    567.09392  0.017253679  0.016855571            2 
 2740000   0.81240252   -8.1865618    564.98812  0.017183337  0.016849894            1 
 2741000   0.82357073   -8.1711549    565.41405  0.017190017  0.016844244            1 
 2742000   0.81729217    -8.191342    565.82104  0.017196117  0.016838588            4 
 2743000   0.81112506   -8.1688502    564.95024  0.017163393  0.016832925            3 
 2744000   0.82154909   -8.1650043    567.54182  0.017235842  0.016827281            2 
 2745000   0.81674171   -8.2135173    565.72718  0.017174474  0.016821629            1 
 2746000    0.8086419    -8.204903     565.5564  0.017163037  0.016815978            5 
 2747000   0.82134006   -8.1900939    565.99266  0.017170024  0.016810313            2 
 2748000   0.81222518   -8.1853504    565.95418  0.017162609  0.016804627            1 
 2749000   0.79593559   -8.1840813    567.26087  0.017195976  0.016798946            2 
 2750000   0.82976364   -8.2003445    565.96724  0.017150523  0.016793281            3 
 2751000   0.81093313   -8.2255731    565.47606  0.017129409  0.016787618            1 
 2752000   0.81238955   -8.1794564     565.7886  0.017132649  0.016781948            3 
 2753000   0.80783551   -8.2099551     565.4981  0.017117632  0.016776283            7 
 2754000   0.80346608   -8.1929845    566.06831  0.017128671  0.016770641            2 
 2755000   0.82524305   -8.1872112    566.40392  0.017132605  0.016765028            7 
 2756000   0.81087116   -8.2051327    566.22198  0.017120887  0.016759408            2 
 2757000   0.80978021   -8.2017571    565.80943  0.017102207   0.01675376            5 
 2758000   0.79606219   -8.1950551    565.88296  0.017098228   0.01674812            2 
 2759000    0.8191013   -8.2092158    566.60873  0.017113952  0.016742492            4 
 2760000   0.81769565    -8.207055      566.174  0.017094626  0.016736866            3 
 2761000   0.79780998   -8.1682577    566.53466   0.01709932  0.016731254            2 
 2762000    0.8127205   -8.1612139      567.394  0.017119056  0.016725649            4 
 2763000   0.80854172   -8.1691556    566.97065  0.017100092  0.016720049            3 
 2764000   0.81436088   -8.1702934    565.69849   0.01705555  0.016714459            4 
 2765000   0.79006609   -8.1850047    566.19343  0.017064299  0.016708858            2 
 2766000   0.82172662   -8.1526463    566.89916  0.017079391  0.016703237            1 
 2767000   0.80670253   -8.2030952    567.01254  0.017076633  0.016697622            2 
 2768000   0.81430834   -8.2098638     566.9661  0.017069066  0.016691979            2 
 2769000   0.83184975   -8.2143337     566.9401  0.017062119  0.016686346            2 
 2770000    0.8000738   -8.1733264     567.1275  0.017061597  0.016680738            1 
 2771000   0.81059594   -8.1803987    566.75343  0.017044191  0.016675099            2 
 2772000   0.80848737   -8.1874561    567.25278  0.017053054  0.016669463            2 
 2773000   0.81094206   -8.2017517    566.58989  0.017026983  0.016663865            1 
 2774000    0.8166914   -8.2075223    566.77348   0.01702636  0.016658252            1 
 2775000   0.82186519   -8.2117408    567.37233  0.017038208  0.016652612            1 
 2776000   0.81283511   -8.2013074    566.80561  0.017015058  0.016647011            2 
 2777000   0.82001155   -8.2110859     566.9669  0.017013771  0.016641436            3 
 2778000   0.81468445   -8.1492966    566.93204  0.017006601  0.016635854            2 
 2779000   0.80533232   -8.1775575    568.30378  0.017041615   0.01663025            4 
 2780000   0.80470037   -8.1627222    567.85983  0.017022177  0.016624654            5 
 2781000   0.80651988   -8.1553176    567.18898  0.016995954  0.016619084            5 
 2782000   0.80620086    -8.159991    568.32861  0.017023982  0.016613487            3 
 2783000    0.7903864   -8.2236961    567.27664  0.016986365  0.016607884            2 
 2784000   0.81294917   -8.2196749    566.47749  0.016956343   0.01660225            2 
 2785000   0.80826051   -8.2022447    567.68928  0.016986513  0.016596627            3 
 2786000   0.80863916   -8.1826036    566.52754  0.016945667  0.016591025            3 
 2787000   0.79926326    -8.211972    567.20936  0.016959974  0.016585409            4 
 2788000   0.80457825   -8.1784822      567.457  0.016961292  0.016579785            2 
 2789000   0.80218373   -8.1848028     567.4388  0.016954667  0.016574159            4 
 2790000   0.80343192   -8.2237566    566.51965  0.016921137  0.016568544            4 
 2791000   0.80713966   -8.2065536    567.67671  0.016949621  0.016562911            3 
 2792000   0.80470937   -8.2134962    567.26826  0.016931359  0.016557295            3 
 2793000   0.79675356     -8.22586    566.67052  0.016907463  0.016551645            1 
 2794000   0.80405446   -8.1899588    566.78826  0.016904923  0.016546007            2 
 2795000   0.78988009   -8.2133491    568.66249  0.016954755  0.016540404            1 
 2796000   0.79499061   -8.2122596    566.59836  0.016887171  0.016534816            2 
 2797000   0.80646889   -8.2062815    568.38224  0.016934282  0.016529239            4 
 2798000   0.79653462   -8.1809529    568.29205  0.016925543  0.016523692            2 
 2799000     0.779191   -8.2170774    567.66777   0.01690091  0.016518133            3 
 2800000   0.80963803   -8.1990978    568.31795  0.016914225  0.016512531            5 
 2801000   0.81034125   -8.1977941    569.12238  0.016932119  0.016506949            2 
 2802000    0.7902624    -8.204795    567.49303  0.016877618   0.01650136            1 
 2803000   0.80797138   -8.2034058    567.76576  0.016879705  0.016495771            1 
 2804000   0.80760313   -8.2285358    567.37961  0.016862209  0.016490178            2 
 2805000   0.79114181   -8.2333757    567.90017  0.016871663  0.016484587            4 
 2806000   0.80242606    -8.197204    568.26236  0.016876406   0.01647898            2 
 2807000     0.794015   -8.2589441    568.53297  0.016878428  0.016473374            5 
 2808000   0.80748465   -8.2168123    567.07305  0.016829091  0.016467753            1 
 2809000   0.79963927   -8.2179277    567.69553  0.016841567  0.016462177            3 
 2810000   0.82890849   -8.1958295    568.50085  0.016859456  0.016456614            4 
 2811000   0.78652742   -8.2318651    566.55892  0.016795889  0.016451038            3 
 2812000   0.78683836   -8.2004254    568.23116  0.016839472  0.016445483            2 
 2813000   0.78442499    -8.182704    567.19798  0.016802879  0.016439924            3 
 2814000   0.80622233   -8.2170004    568.57628  0.016837724  0.016434383            3 
 2815000   0.80043081    -8.229302    567.66532  0.016804776  0.016428859            3 
 2816000   0.79083165   -8.1928321    570.30859   0.01687703  0.016423326            3 
 2817000   0.79527548   -8.2108931    569.34104  0.016842416  0.016417782            2 
 2818000   0.79951429   -8.2002418    568.14074  0.016800945  0.016412212            3 
 2819000   0.81247697   -8.2318331     567.7156  0.016782417  0.016406646            3 
 2820000   0.79783508   -8.2112353    569.31477  0.016823722  0.016401089            2 
 2821000   0.81028242   -8.2248513    567.75702  0.016771742  0.016395552            6 
 2822000   0.79927617    -8.249203    567.70419  0.016764239  0.016389991            4 
 2823000    0.8056676   -8.2238568    568.37819  0.016778197  0.016384447            3 
 2824000   0.80301916   -8.1992793    569.35516  0.016801085  0.016378904            1 
 2825000   0.81784512   -8.2245048    568.77375  0.016777987  0.016373346            1 
 2826000   0.81765058   -8.1940261    567.94396  0.016747581  0.016367811            1 
 2827000   0.79015819   -8.2299736    568.92783  0.016770659  0.016362269            3 
 2828000   0.80806991   -8.2357909    568.74868  0.016759449  0.016356704            2 
 2829000   0.80084143   -8.2124867    569.21721  0.016767327   0.01635117            1 
 2830000   0.81808883    -8.207838    568.61788  0.016743754  0.016345647            3 
 2831000   0.80060594   -8.2199419    568.49507  0.016734224  0.016340106            3 
 2832000   0.79343695   -8.2237933    567.08999   0.01668697  0.016334539            1 
 2833000   0.81949805   -8.2175352    569.32902  0.016746941  0.016329014            4 
 2834000   0.81158181   -8.1717515    568.78765  0.016725113    0.0163235            1 
 2835000   0.79649983   -8.1988743    567.91004  0.016693417  0.016317961            1 
 2836000   0.79705694   -8.2384226      567.842  0.016685531  0.016312422            3 
 2837000   0.79912494   -8.2360395    567.85955  0.016680165  0.016306856            2 
 2838000   0.79937752   -8.2070602    568.58999  0.016695736  0.016301277            2 
 2839000   0.79987287   -8.2050131      568.432  0.016685218  0.016295718            5 
 2840000   0.82297019   -8.2125224    569.83284  0.016720447  0.016290175            2 
 2841000   0.79818935   -8.2347296    567.96203  0.016659687  0.016284599            2 
 2842000   0.80842207   -8.2240753    568.34472  0.016665046  0.016279005            3 
 2843000   0.79482571    -8.231489    568.10187  0.016652066  0.016273452            4 
 2844000   0.79236611   -8.2500872    568.46451  0.016656836  0.016267891            4 
 2845000   0.80086095   -8.2527231    568.70943  0.016658155  0.016262326            1 
 2846000    0.7966862   -8.2287549     569.4328  0.016673483  0.016256773            1 
 2847000   0.79275233   -8.2274912    568.14096  0.016629814  0.016251235            6 
 2848000   0.79144188   -8.2400521    568.01225  0.016620209  0.016245686            4 
 2849000   0.79990313   -8.2268687     568.8177  0.016637934  0.016240132            2 
 2850000   0.78662312   -8.2512158    568.27123  0.016616118  0.016234584            2 
 2851000   0.79289608   -8.2667087    569.03884  0.016632726   0.01622901            3 
 2852000   0.78239703   -8.2373129    568.51909  0.016611708  0.016223449            2 
 2853000   0.78457616   -8.2111521    570.25604   0.01665662  0.016217924            4 
 2854000   0.78988617   -8.2571973     568.7668    0.0166073   0.01621235            2 
 2855000   0.79838464   -8.2549446    569.32081  0.016617654  0.016206777            1 
 2856000   0.78290904   -8.2171384    569.95925  0.016630464  0.016201235            3 
 2857000   0.79060539   -8.2448778    568.84523  0.016592149  0.016195696            7 
 2858000     0.796818   -8.2217917    567.51034  0.016547421  0.016190121            2 
 2859000   0.79868689   -8.2362777    568.05838  0.016557607  0.016184552            4 
 2860000    0.7714638   -8.2374415    568.17405  0.016555188  0.016178989            2 
 2861000   0.78167994   -8.2392474    567.53693  0.016530844  0.016173422            3 
 2862000    0.8162718   -8.2415454    569.59401  0.016584964  0.016167892            3 
 2863000   0.79463932   -8.2539029    568.18526  0.016538167  0.016162352            4 
 2864000   0.78276375   -8.2414672    569.33769  0.016565924  0.016156845            3 
 2865000   0.80070615   -8.2209715    568.53434  0.016536775  0.016151336            2 
 2866000   0.79698926   -8.2114569    569.12118  0.016548069  0.016145824            3 
 2867000   0.79898209   -8.2244536    568.30383  0.016518539  0.016140278            2 
 2868000   0.79303277   -8.2397058    569.02042  0.016533601  0.016134743            4 
 2869000   0.77914409   -8.2390579    569.78571  0.016550067  0.016129239            2 
 2870000   0.78985612   -8.2363799    570.01162   0.01655086  0.016123723            2 
 2871000   0.78749083   -8.2640943    568.94142  0.016514032  0.016118192            4 
 2872000   0.80733587   -8.2249931    567.65709  0.016471016  0.016112664            2 
 2873000   0.77224353   -8.2417114    568.76701  0.016497477  0.016107177            4 
 2874000   0.79163384    -8.266419    568.41279  0.016481466   0.01610166            2 
 2875000   0.77893318   -8.2408798    569.19116  0.016498295  0.016096116            3 
 2876000   0.79295991   -8.2532559    569.34476  0.016497008  0.016090581            2 
 2877000   0.80990472   -8.2385949    569.03096  0.016482185  0.016085046            3 
 2878000   0.79642543   -8.2721487    568.40568  0.016458353  0.016079511            2 
 2879000   0.79051768   -8.2660653    568.63223  0.016459194  0.016073948            2 
 2880000   0.79778033   -8.2290538    570.88952  0.016518794   0.01606841            1 
 2881000   0.77384463    -8.258567    569.55185  0.016474368  0.016062887            2 
 2882000   0.79570867   -8.2511528    568.37205  0.016434538  0.016057343            1 
 2883000   0.78322831   -8.2239944    569.63731  0.016465409  0.016051815            1 
 2884000   0.78727944   -8.2602319    569.94281  0.016468528  0.016046292            3 
 2885000   0.79329104   -8.2487037    569.15575  0.016440085  0.016040763            2 
 2886000   0.79844667    -8.253839    569.31494  0.016438985  0.016035261            1 
 2887000     0.781015   -8.2538064    567.68818  0.016386335  0.016029727            3 
 2888000   0.79492523    -8.254818    569.57499  0.016435105  0.016024203            2 
 2889000   0.78284052    -8.278499    568.38736  0.016395159  0.016018675            3 
 2890000   0.79909229   -8.2491318    569.47441  0.016420831  0.016013141            2 
 2891000   0.80299728   -8.2704005    568.09314  0.016375336  0.016007619            3 
 2892000   0.78709004   -8.2705372    568.77968  0.016389456  0.016002112            6 
 2893000   0.78697594    -8.230803    570.56866  0.016435323  0.015996584            5 
 2894000     0.791246   -8.2465216    569.69472  0.016404478  0.015991036            2 
 2895000    0.7933365   -8.2428908     568.1611  0.016354666  0.015985494            3 
 2896000   0.78269371   -8.2395027    569.30568  0.016381954  0.015979952            5 
 2897000   0.76895689   -8.2475083    569.33704  0.016377202  0.015974417            6 
 2898000   0.79358892   -8.2365396    569.05226  0.016363361  0.015968902            4 
 2899000   0.79078614    -8.271438    568.07893  0.016329738  0.015963386            4 
 2900000   0.81502943   -8.2307192    569.74499  0.016371982   0.01595786            3 
 2901000   0.77902258   -8.2276787    569.68348  0.016364572  0.015952338            2 
 2902000   0.78525152   -8.2494603    568.81586  0.016334018  0.015946808            2 
 2903000   0.78699951   -8.2430138    568.76179   0.01632684  0.015941255            1 
 2904000   0.78750629   -8.2565423    570.07267  0.016358835  0.015935724            2 
 2905000   0.78506511   -8.2957211    567.96404  0.016292715  0.015930177            4 
 2906000   0.78353661   -8.2723445    569.49691  0.016331065   0.01592464            2 
 2907000   0.78917224    -8.263672    569.66396  0.016330236  0.015919108            1 
 2908000   0.78568675   -8.2548121     569.7506  0.016327103  0.015913567            2 
 2909000   0.77896033   -8.2499964    569.47061   0.01631347  0.015908045            2 
 2910000   0.78578032   -8.2517557    569.38945   0.01630554   0.01590253            4 
 2911000   0.78063387   -8.2691882    569.06958  0.016290782  0.015897011            3 
 2912000   0.78989596   -8.2672921    568.08974  0.016257147  0.015891472            1 
 2913000   0.78415862   -8.2800782    568.37099  0.016259612   0.01588593            2 
 2914000   0.78059085   -8.2513555    570.04693   0.01630196  0.015880395            2 
 2915000   0.77702468   -8.2535917     569.6433  0.016284828  0.015874882            5 
 2916000   0.78650065   -8.2525473    570.18991  0.016294865  0.015869367            2 
 2917000   0.77646596   -8.2699421    568.83826  0.016250665  0.015863843            3 
 2918000   0.77278032    -8.259976    570.18212  0.016283474  0.015858328            7 
 2919000   0.78196332   -8.2690861    569.49977  0.016258415  0.015852816            2 
 2920000   0.78882988   -8.2522782    569.84385  0.016262667  0.015847309            3 
 2921000   0.79547871    -8.278523    568.40435  0.016216032   0.01584181            3 
 2922000   0.78508661   -8.2627839    570.88898  0.016281342  0.015836328            2 
 2923000   0.77856303   -8.2539532    569.43968  0.016234453  0.015830865            2 
 2924000   0.77967565   -8.2905697     568.7928  0.016210465  0.015825383            1 
 2925000   0.78454249    -8.261382    569.41771  0.016222727  0.015819889            2 
 2926000   0.76236105   -8.2672826    569.87335  0.016230159  0.015814409            2 
 2927000   0.77806615   -8.2652998    570.65924  0.016246989  0.015808943            1 
 2928000    0.7850175   -8.2608912    570.80945  0.016245715  0.015803472            2 
 2929000    0.7760061    -8.248436    569.71307  0.016208975  0.015798035            1 
 2930000   0.78637676   -8.2869983    570.13764  0.016215519   0.01579258            4 
 2931000   0.79146385   -8.2834184      570.757  0.016227596  0.015787104            3 
 2932000   0.78507021   -8.2655256    570.14373  0.016204631  0.015781633            2 
 2933000   0.78308357   -8.2948455    569.65836  0.016185315  0.015776143            2 
 2934000   0.77190894   -8.2738394    569.46967   0.01617444  0.015770684            4 
 2935000   0.79161758   -8.2675764    570.98314  0.016211901  0.015765206            6 
 2936000   0.77802095   -8.2732276    569.25712  0.016157389  0.015759737            4 
 2937000   0.78503385   -8.3085766     570.9094  0.016198769  0.015754269            3 
 2938000   0.80096093    -8.273993     570.9409  0.016194148  0.015748807            2 
 2939000   0.79237046   -8.2758214    570.16536  0.016166648  0.015743356            2 
 2940000   0.78710245   -8.3059548    570.57301  0.016172704  0.015737906            1 
 2941000   0.79188218   -8.2962622    570.23416  0.016157604  0.015732427            1 
 2942000   0.77223085   -8.2956738    570.06002  0.016147179  0.015726961            2 
 2943000   0.77566087   -8.3132037    570.63089  0.016157857  0.015721479            2 
 2944000    0.7951589   -8.3129896    569.70453  0.016126147  0.015716006            2 
 2945000   0.78022211   -8.3081908    569.36666  0.016111111  0.015710524            5 
 2946000    0.7852147    -8.279638    569.81943   0.01611845  0.015705027            2 
 2947000   0.77447725    -8.280551    570.39723  0.016129319  0.015699539            4 
 2948000    0.8017796   -8.2981646    569.75573  0.016105714  0.015694062            1 
 2949000   0.80059022   -8.2866614    569.44367  0.016091434  0.015688598            3 
 2950000   0.77283447   -8.2876512    569.65308  0.016091895  0.015683131            3 
 2951000   0.78453881   -8.2826835    571.07979  0.016126731  0.015677666            7 
 2952000   0.77018463   -8.3155218    569.66531  0.016081338  0.015672202            3 
 2953000   0.78994547   -8.3069595    569.47009  0.016070383  0.015666717            3 
 2954000   0.77955539   -8.3413706    569.74712  0.016072758  0.015661229            1 
 2955000   0.78504304    -8.314058    570.95326  0.016101333  0.015655739            2 
 2956000   0.79831042   -8.3092747    569.09349  0.016043457  0.015650271            1 
 2957000   0.75990805   -8.3181349    570.41208  0.016075191  0.015644794            2 
 2958000    0.7838624   -8.2884187    570.14459  0.016062221  0.015639313            1 
 2959000   0.78622684   -8.3119933    568.82694  0.016019684  0.015633838            3 
 2960000    0.7850761   -8.3231699    569.45305  0.016031899  0.015628366            4 
 2961000   0.78434093   -8.3040704    569.54495  0.016029071  0.015622871            3 
 2962000   0.78816983   -8.3093883    569.94344  0.016034871  0.015617388            2 
 2963000   0.77703639   -8.2631977    570.07171  0.016033066   0.01561191            3 
 2964000   0.77946433   -8.3330564    568.70904  0.015989345   0.01560644            2 
 2965000   0.78894171   -8.3305313       569.52  0.016006745  0.015600972            2 
 2966000   0.77363801   -8.3259259    569.95323  0.016013521  0.015595493            3 
 2967000   0.78884985   -8.3173292    570.04649  0.016010743  0.015590032            4 
 2968000   0.76648626    -8.307757    569.35119  0.015985826  0.015584572            3 
 2969000   0.79911325   -8.3115212    571.34158  0.016036308  0.015579121            3 
 2970000   0.74944419   -8.3210655    569.78642  0.015987273  0.015573677            2 
 2971000   0.77027679   -8.2991909    569.84724  0.015983598  0.015568226            4 
 2972000   0.79502884    -8.325788    569.55004  0.015969887  0.015562778            3 
 2973000   0.77932006    -8.332445    570.61032  0.015994235  0.015557336            8 
 2974000   0.77530731   -8.3109554    570.17606  0.015976689  0.015551902            4 
 2975000   0.77606894   -8.2934782    570.82857  0.015989596  0.015546483            2 
 2976000   0.77623041   -8.2835914    569.52885  0.015947828  0.015541064            3 
 2977000   0.77520176    -8.314279    569.70324  0.015947353  0.015535641            3 
 2978000   0.77313278   -8.2951461     571.1573  0.015982687  0.015530224            5 
 2979000    0.7670781   -8.2945385    569.61197  0.015934094  0.015524818            3 
 2980000   0.79888251   -8.3097835    570.10088  0.015942418  0.015519405            2 
 2981000   0.77423162    -8.300642    571.40912  0.015973642   0.01551399            3 
 2982000   0.78471557   -8.3266781    570.45831  0.015941715  0.015508575            1 
 2983000   0.77346208   -8.2940502     570.4401  0.015935862  0.015503178            3 
 2984000   0.76318953   -8.2854332    571.57067  0.015962094  0.015497774            2 
 2985000   0.77558361   -8.2995449    570.71819  0.015932948  0.015492373            3 
 2986000   0.78711771   -8.3050634    570.96674  0.015934548  0.015486978            4 
 2987000   0.78825268   -8.3159095    570.11369  0.015905415  0.015481587            3 
 2988000   0.78494984    -8.285797    571.63354  0.015942479  0.015476205            3 
 2989000   0.77854186    -8.306489    571.29276  0.015927645  0.015470832            2 
 2990000   0.77850604   -8.2714691     572.0929  0.015944618  0.015465484            6 
 2991000   0.76313194   -8.2782825    572.95031  0.015963176  0.015460149            2 
 2992000   0.76887776   -8.2728215    571.54788   0.01591878  0.015454805            3 
 2993000    0.7861713   -8.2905967    572.20508   0.01593176  0.015449468            2 
 2994000   0.75549326   -8.2737906    571.35336  0.015902732  0.015444117            2 
 2995000   0.77564513   -8.2886603    570.98365  0.015887136  0.015438758            7 
 2996000   0.77708722   -8.2700507    572.50412  0.015924124  0.015433404            2 
 2997000   0.76212483   -8.3034842    570.05725  0.015850774   0.01542805            4 
 2998000   0.75224945   -8.2755641    571.47918  0.015885012  0.015422707            2 
 2999000   0.77304425   -8.2968639     571.0152  0.015866822  0.015417341            3 
 3000000   0.77173013   -8.2958343    571.45611  0.015873781  0.015411974            3 
 3001000   0.77083153   -8.2886691    571.32083  0.015864735  0.015406616            3 
 3002000   0.77149636   -8.2847323    571.12852  0.015854112  0.015401272            2 
 3003000   0.75687207   -8.2799311    572.39838  0.015884071  0.015395953            3 
 3004000   0.76978266   -8.2713946    572.60479  0.015884509  0.015390627            2 
 3005000   0.76387729   -8.3260726    571.80021  0.015856911  0.015385299            2 
 3006000   0.76826636    -8.291844    571.81889  0.015852154  0.015379968            3 
 3007000   0.75794307   -8.2985331    571.94741  0.015850444  0.015374632            3 
 3008000   0.76988734   -8.2820735    570.77285  0.015812634  0.015369302            1 
 3009000   0.77704982   -8.2627113    572.03153  0.015842238  0.015363971            2 
 3010000   0.76857194   -8.3337159    571.12822  0.015811966  0.015358627            5 
 3011000   0.77435695   -8.2839183    572.26067  0.015838057   0.01535328            2 
 3012000   0.75952248   -8.3205392    571.66372  0.015816283  0.015347957            4 
 3013000   0.77332661   -8.2845659    573.84713  0.015871422  0.015342634            3 
 3014000   0.76595253   -8.3119499    572.68368  0.015833988  0.015337321            2 
 3015000   0.78187403   -8.2911861    571.96288  0.015808814  0.015331997            3 
 3016000     0.762421   -8.2961878    571.97022  0.015803775  0.015326668            4 
 3017000   0.78123069   -8.2856657    573.81944  0.015849614  0.015321372            3 
 3018000   0.76695143   -8.2944181    572.27906  0.015801829   0.01531607            2 
 3019000    0.7550657     -8.27266    573.06483  0.015818285  0.015310783            1 
 3020000   0.76555915   -8.2855739    573.49636  0.015824955  0.015305486            3 
 3021000   0.75338647   -8.2881569    572.98895   0.01580572  0.015300197            3 
 3022000   0.77478675   -8.3042891    571.52831  0.015760212  0.015294904            4 
 3023000   0.78484408   -8.2989972    573.44689  0.015807886  0.015289593            2 
 3024000   0.77462095   -8.3105694    572.21545  0.015768724  0.015284282            2 
 3025000   0.77368567   -8.2843572     572.2937  0.015765667  0.015278965            3 
 3026000   0.75465745   -8.2981154    571.99454  0.015752218  0.015273648            5 
 3027000   0.77241821   -8.3160118    572.06229  0.015748879   0.01526833            3 
 3028000   0.76037312   -8.3123886    571.61945  0.015731491  0.015263012            1 
 3029000   0.77835291   -8.3034037    573.05133  0.015765691  0.015257695            4 
 3030000   0.76064467   -8.3072206    572.83794  0.015754619  0.015252386            3 
 3031000   0.77116667   -8.3150791    572.65026  0.015744261  0.015247082            3 
 3032000   0.76182387   -8.3198951    572.11677  0.015724406  0.015241762            4 
 3033000   0.75977646   -8.3077928    572.09572  0.015718643  0.015236431            2 
 3034000   0.76412388     -8.31717    571.30247  0.015691674  0.015231126            2 
 3035000   0.75765622   -8.3051164    572.44913  0.015717988  0.015225827            3 
 3036000   0.76264374   -8.3186393    572.42499  0.015712148  0.015220536            3 
 3037000   0.76681028   -8.2833597    572.46376  0.015708039  0.015215259            2 
 3038000   0.76844246   -8.3196649    572.90927  0.015715089  0.015209953            5 
 3039000    0.7845962   -8.3098074    572.06339  0.015686722  0.015204668            1 
 3040000   0.76648571   -8.3311322    570.60267   0.01564152  0.015199391            2 
 3041000   0.76199506   -8.2886434     573.2117  0.015707873  0.015194113            3 
 3042000   0.76527522   -8.2921817     573.1824  0.015701907  0.015188824            1 
 3043000   0.77892844   -8.2938035     572.0761   0.01566645   0.01518355            1 
 3044000   0.76423272   -8.3266961    572.74738  0.015679681  0.015178267            1 
 3045000   0.76347919   -8.3174328    573.14234   0.01568534  0.015172976            4 
 3046000   0.76685865   -8.3422967    570.62984  0.015611453  0.015167671            2 
 3047000   0.75903349   -8.2954026    572.90789  0.015668633  0.015162364            1 
 3048000   0.77154536   -8.3181265    573.17245  0.015670725  0.015157061            2 
 3049000   0.77264001   -8.2962146    572.13722  0.015637292  0.015151771            2 
 3050000   0.76768711   -8.3242895     572.4746  0.015641382  0.015146473            2 
 3051000   0.77285091   -8.3316912    573.08546  0.015652941  0.015141207            4 
 3052000    0.7526315   -8.3270699    573.45311   0.01565785  0.015135937            4 
 3053000   0.76531154   -8.3296084    571.35878  0.015595556  0.015130627            2 
 3054000   0.76127488   -8.3120078    571.74356  0.015600949  0.015125339            2 
 3055000   0.77467251   -8.3461208       572.69  0.015621658  0.015120047            5 
 3056000    0.7519437   -8.3182748    573.08753  0.015627387   0.01511476            3 
 3057000   0.74556295   -8.3377674    573.26998  0.015627248   0.01510948            4 
 3058000    0.7687457   -8.3550432    573.32173  0.015623548  0.015104218            2 
 3059000   0.76405639   -8.3279693     573.6886  0.015628435  0.015098945            4 
 3060000   0.76051677   -8.3320577    572.31413  0.015585897  0.015093686            2 
 3061000    0.7773455   -8.3224235    572.55425  0.015587342  0.015088414            2 
 3062000   0.77184563   -8.3516428    571.57894  0.015555708   0.01508313            2 
 3063000   0.76087585   -8.3557292    572.32216   0.01557085  0.015077849            2 
 3064000   0.77008262   -8.3530881    574.26238  0.015618537  0.015072582            3 
 3065000   0.74064488   -8.3419886    572.24566   0.01555861  0.015067326            5 
 3066000   0.77816074   -8.3302347     572.0103  0.015547138  0.015062078            9 
 3067000   0.77663116    -8.349664    573.08622  0.015571303  0.015056808            1 
 3068000   0.74560936   -8.3455603     574.2037   0.01559658  0.015051544            3 
 3069000   0.76578256    -8.354672    572.40662  0.015542702  0.015046284            2 
 3070000   0.76260701   -8.3470388    572.82817  0.015549082   0.01504101            2 
 3071000   0.76330713   -8.3382549    572.56556  0.015536893  0.015035747            1 
 3072000   0.76678045   -8.3526855    573.66304  0.015561606  0.015030506            3 
 3073000   0.75881766   -8.3289805    572.97221  0.015537808  0.015025247            2 
 3074000   0.77090437   -8.3387126     572.9468  0.015532065  0.015019993            2 
 3075000   0.76727442   -8.3537621    572.52435  0.015515565  0.015014737            2 
 3076000   0.75689015   -8.3430873    573.58379  0.015539223  0.015009502            4 
 3077000   0.74802464   -8.3289195    573.36607  0.015528276  0.015004266            3 
 3078000    0.7527429   -8.3385652    573.64549  0.015530796  0.014999024            4 
 3079000   0.74067991   -8.3190673      573.654  0.015525982  0.014993788            3 
 3080000   0.74491046   -8.3196196    574.14058  0.015534107  0.014988547            2 
 3081000   0.74989136   -8.3105863    573.36313  0.015508037  0.014983298            3 
 3082000   0.74642681   -8.3458323    573.77349    0.0155141  0.014978073            1 
 3083000   0.74450315    -8.355035    572.64286  0.015478507   0.01497284            5 
 3084000   0.76163728   -8.3356556    574.12454  0.015513525  0.014967617            3 
 3085000   0.73875166   -8.3062261    573.84918  0.015501058  0.014962388            6 
 3086000   0.76474062   -8.3222299    572.94449  0.015471605  0.014957167            6 
 3087000   0.74979791   -8.3170216    573.75438  0.015488457  0.014951952            1 
 3088000   0.76247594   -8.3452688    573.47736  0.015475965  0.014946754            2 
 3089000   0.76740918   -8.3529993    573.66189  0.015475933  0.014941546            3 
 3090000   0.74878417   -8.3328399    573.36339  0.015462875  0.014936343            4 
 3091000   0.75209996   -8.3324476    574.52442  0.015489174  0.014931136            2 
 3092000   0.74783727   -8.3627774    573.14476  0.015446981   0.01492593            5 
 3093000   0.75379372   -8.3305974    573.17594  0.015442826  0.014920709            1 
 3094000   0.76023297   -8.3690927    573.21118  0.015438784  0.014915503            2 
 3095000    0.7588338   -8.3693871    573.21784  0.015433975  0.014910294            2 
 3096000   0.76119439   -8.3411746    573.57832  0.015438693  0.014905074            2 
 3097000   0.76018712   -8.3528956    573.21687  0.015423982  0.014899865            2 
 3098000   0.74794663   -8.3574184    573.89296   0.01543719  0.014894661            1 
 3099000   0.76575245   -8.3714103    573.57696  0.015423711  0.014889457            1 
 3100000   0.74949551   -8.3517509    573.03146  0.015404072  0.014884246            4 
 3101000   0.75566991   -8.3460267    574.08124  0.015427315   0.01487903            1 
 3102000   0.75657838   -8.3601439    572.20753  0.015372005  0.014873818            7 
 3103000   0.76538482   -8.3766609     573.3568  0.015397916  0.014868594            3 
 3104000   0.76634553   -8.3443179    572.46483  0.015369009  0.014863393            3 
 3105000   0.76912922   -8.3365995    574.21791  0.015411109  0.014858185            2 
 3106000   0.75402959    -8.361762    573.84004  0.015396009  0.014852978            4 
 3107000    0.7454928    -8.362838    574.19244  0.015400505    0.0148478            2 
 3108000   0.76391535   -8.3814299    574.13814  0.015394094  0.014842615            3 
 3109000   0.74134421    -8.347008    573.64415  0.015375902   0.01483745            2 
 3110000   0.74325437   -8.3457067    573.84981  0.015376469   0.01483227            2 
 3111000   0.74633068   -8.3441721    574.90019  0.015399662    0.0148271            5 
 3112000   0.75193403    -8.342372    574.52131  0.015384568   0.01482193            4 
 3113000   0.76715707    -8.356878    573.82593  0.015361011  0.014816752            2 
 3114000   0.77053623   -8.3310794    573.90357  0.015358156  0.014811586            5 
 3115000   0.75969029     -8.37692    573.38218  0.015339277  0.014806434            3 
 3116000   0.76999479   -8.3680448    573.58813  0.015339862  0.014801283            2 
 3117000   0.74731272   -8.3721084    574.63742  0.015362994  0.014796126            1 
 3118000   0.74897592   -8.3474854    574.97047  0.015366968  0.014790963            2 
 3119000   0.74905809   -8.3436824    574.50368  0.015349569  0.014785821            3 
 3120000   0.74355307   -8.3542311    574.12938  0.015334652  0.014780683            2 
 3121000   0.77102256   -8.3413903    575.09354  0.015355483  0.014775554            2 
 3122000   0.75193085   -8.3367576    575.39564  0.015358628   0.01477043            2 
 3123000   0.75210844   -8.3388484    573.76171  0.015310111  0.014765299            3 
 3124000   0.75603527   -8.3385888    574.32569  0.015320254  0.014760154            1 
 3125000   0.76016801   -8.3481526    574.76183  0.015326982  0.014755014            1 
 3126000   0.74168402   -8.3362205    573.90791  0.015299315  0.014749875            2 
 3127000   0.74597591    -8.353846    574.47919  0.015309647   0.01474473            3 
 3128000   0.75907433   -8.3550315    574.96381  0.015317663  0.014739582            3 
 3129000   0.74489646   -8.3487455    573.45975  0.015272711  0.014734424            3 
 3130000   0.75540892   -8.3687846    574.35737   0.01529173  0.014729272            2 
 3131000   0.74522551   -8.3812744    574.35848  0.015286875  0.014724122            5 
 3132000   0.74276886   -8.3395906    574.69907  0.015291057  0.014718962            2 
 3133000   0.74988414   -8.3704111    574.76141  0.015287834  0.014713828            2 
 3134000   0.73187488   -8.3591964    573.36786  0.015245902    0.0147087            4 
 3135000   0.73296305   -8.3413281    575.07792  0.015286494  0.014703553            3 
 3136000   0.75080423   -8.3139949    575.78726  0.015300469  0.014698441            1 
 3137000   0.75199765   -8.3252598    575.36122  0.015284274  0.014693329            3 
 3138000   0.74677447   -8.3346758    575.64542  0.015286951  0.014688207            2 
 3139000   0.75225514   -8.3677806     574.5012  0.015251704  0.014683094            2 
 3140000   0.75660986   -8.3549699    574.36408  0.015243208  0.014677963            2 
 3141000    0.7572022   -8.3611587     574.2745  0.015235978  0.014672818            4 
 3142000     0.759071   -8.3573994    573.47165  0.015209836  0.014667687            2 
 3143000   0.74884724   -8.3319892    574.98653  0.015245162  0.014662559            3 
 3144000   0.74600196   -8.3391429     576.2308  0.015273293  0.014657436            3 
 3145000   0.73794655   -8.3531647    575.26149  0.015242753  0.014652326            1 
 3146000   0.74534946   -8.3925461    573.57024  0.015193109  0.014647195            2 
 3147000   0.74276925   -8.3534462    574.02833  0.015200411  0.014642059            1 
 3148000   0.74696403   -8.3707655    574.74717  0.015214612  0.014636931            3 
 3149000   0.74344912    -8.364807     574.4704  0.015202456  0.014631793            3 
 3150000   0.76166668    -8.352881    573.69064  0.015177001   0.01462668            6 
 3151000   0.74794896   -8.3568829     574.4656   0.01519268  0.014621565            4 
 3152000   0.74736887   -8.3642574    573.30731  0.015157236  0.014616462            2 
 3153000    0.7492166   -8.3647374    575.00743  0.015197363  0.014611364            1 
 3154000   0.73600984   -8.3615665    574.67564  0.015183778  0.014606284            6 
 3155000   0.72694335   -8.3299436    575.06452  0.015189237  0.014601218            4 
 3156000    0.7542121   -8.3576302    575.52621  0.015196615  0.014596143            4 
 3157000   0.75876255   -8.3695722    573.53421   0.01513922   0.01459107            7 
 3158000   0.76412337   -8.3642152    575.11361  0.015176103  0.014585976            2 
 3159000   0.75676712   -8.3527233     575.6605  0.015185726  0.014580889            1 
 3160000   0.73873781   -8.3591392    575.12298  0.015166745  0.014575806            2 
 3161000   0.74555971   -8.3497025    575.48991  0.015171621  0.014570717            6 
 3162000   0.74294763    -8.381814    573.99036  0.015127302  0.014565618            3 
 3163000   0.74624707   -8.3646668    574.45224  0.015134689  0.014560504            2 
 3164000    0.7398881   -8.3889866    574.10366  0.015120724  0.014555392            3 
 3165000   0.73478517   -8.3750415    574.07089  0.015115084  0.014550275            3 
 3166000   0.72847565   -8.3426065    575.46518  0.015147009  0.014545156            5 
 3167000   0.76035964   -8.3810826    574.61041  0.015119735  0.014540049            4 
 3168000   0.75334964   -8.3409395    574.83983  0.015120997  0.014534951            2 
 3169000   0.75193827   -8.3535575    574.31059  0.015102309  0.014529847            4 
 3170000   0.74097134    -8.364804    574.46785  0.015101678  0.014524765            2 
 3171000    0.7509089   -8.3860697    574.37359  0.015094439  0.014519666            2 
 3172000   0.74406351   -8.3770775    574.74061  0.015099322  0.014514568            4 
 3173000   0.74071532   -8.3761761    574.80503  0.015096256  0.014509484            2 
 3174000   0.72784661    -8.355967    574.42603  0.015081549  0.014504415            3 
 3175000   0.76499998   -8.3874265    573.66903   0.01505693  0.014499328            3 
 3176000   0.74574536   -8.3783182    574.87563  0.015083848  0.014494246            3 
 3177000   0.75533268   -8.3886338    574.43881  0.015067643  0.014489152            3 
 3178000   0.75914614   -8.3881469    575.48007  0.015090205  0.014484059            6 
 3179000   0.74546531   -8.3958696     575.3289  0.015081496  0.014478954            1 
 3180000   0.73952826   -8.4114464    573.25727  0.015022465  0.014473852            4 
 3181000   0.74853997   -8.4082172    573.66164  0.015028336  0.014468754            6 
 3182000   0.74713992   -8.3760537    574.16965  0.015036917  0.014463662            2 
 3183000   0.75075138   -8.4131627    573.52617  0.015015346  0.014458552            7 
 3184000   0.73903511   -8.3708015    573.65695  0.015014053  0.014453436            4 
 3185000   0.74218196   -8.4026867     574.3102  0.015026431  0.014448338            5 
 3186000     0.731219   -8.4082719    573.55406  0.015001937  0.014443227            7 
 3187000   0.76270112   -8.3881364    574.30623  0.015016898  0.014438115            3 
 3188000   0.73136765   -8.3840198    574.36912  0.015013831  0.014433016            5 
 3189000   0.74141828     -8.37087    574.64459  0.015016322  0.014427919            6 
 3190000   0.73641812   -8.3803819    574.24214  0.015001101  0.014422823            4 
 3191000    0.7359038   -8.3895472     573.3905  0.014974159   0.01441772            3 
 3192000   0.75388724   -8.3776037    574.08112  0.014987498   0.01441264            4 
 3193000   0.74717657    -8.382349    574.25157  0.014987252   0.01440757            1 
 3194000   0.74283975   -8.3595014    575.30773  0.015010116  0.014402507            3 
 3195000   0.73693385   -8.3618118    575.76591  0.015017368  0.014397444            2 
 3196000   0.75695305   -8.3883146    575.49659  0.015005647  0.014392385            3 
 3197000   0.73257773   -8.3762823    574.74061  0.014981248  0.014387315            5 
 3198000   0.74557074    -8.401275    574.54063  0.014971353  0.014382262            3 
 3199000   0.75093771    -8.371529    574.84403  0.014974576  0.014377208            4 
 3200000   0.75998078   -8.4083255    575.55404  0.014988386  0.014372155            3 
 3201000    0.7402223   -8.3944496    574.57777  0.014958288  0.014367105            2 
 3202000   0.72875293   -8.3779479    574.30592  0.014946542  0.014362051            3 
 3203000   0.72555804     -8.39423    574.85774  0.014956232  0.014356995            3 
 3204000   0.75617187   -8.4031915    574.82481  0.014950708  0.014351958            2 
 3205000   0.74083469    -8.389994    574.55787  0.014939102  0.014346896            3 
 3206000   0.73992109   -8.3687798    575.26634  0.014952858   0.01434186            3 
 3207000   0.74015427   -8.4081683    575.33187  0.014949898  0.014336813            2 
 3208000    0.7413944   -8.4311972    574.97341  0.014935926  0.014331763            5 
 3209000   0.73314238   -8.4020765    574.71554  0.014924575  0.014326722            3 
 3210000   0.72905383   -8.4078678    575.25117  0.014933831  0.014321684            8 
 3211000   0.74231062   -8.3561376    576.20085  0.014953827  0.014316668            3 
 3212000   0.73978569   -8.3930621     575.0261  0.014918693  0.014311643            2 
 3213000   0.74644264   -8.3970208    575.15472  0.014917386  0.014306628            4 
 3214000   0.73707365   -8.3881914    575.78735  0.014929147  0.014301612            3 
 3215000   0.73684236   -8.3767308    575.71234  0.014922559  0.014296603            3 
 3216000   0.74341922   -8.4007874    574.86342  0.014895922  0.014291581            5 
 3217000   0.73349314   -8.3864332    575.39097  0.014904957   0.01428655            2 
 3218000   0.72912047   -8.4038313     574.4411  0.014875728  0.014281539            2 
 3219000   0.72371054   -8.4244692    576.43265  0.014922664  0.014276529            2 
 3220000   0.74422283   -8.3791209    576.42345  0.014917791   0.01427153            3 
 3221000    0.7322054   -8.4039355    574.22112  0.014856181  0.014266518            2 
 3222000   0.74164495   -8.3925826    575.91448  0.014895367  0.014261508            1 
 3223000   0.73069369   -8.4022356    574.58921   0.01485648  0.014256488            2 
 3224000   0.73722609   -8.4138392    574.27833  0.014843836  0.014251473            4 
 3225000   0.74032712   -8.3958225    575.35729  0.014867113  0.014246479            4 
 3226000   0.73848699   -8.4144503    575.63318  0.014869632   0.01424149            3 
 3227000   0.72064493   -8.4006358     575.4869  0.014861246  0.014236476            3 
 3228000   0.73578866   -8.4005206    574.94637  0.014842688  0.014231472            5 
 3229000   0.74920866   -8.4414424    574.01656  0.014814095  0.014226461            2 
 3230000   0.71553535   -8.4054443     574.9202  0.014832822   0.01422146            2 
 3231000   0.73590397   -8.3837564    576.51447  0.014869351  0.014216474            2 
 3232000   0.72234054   -8.3968761     576.4332  0.014862655  0.014211499            4 
 3233000   0.73879563   -8.3893426    576.24642  0.014853243  0.014206515            1 
 3234000   0.74110771    -8.412434    575.61124  0.014832283  0.014201539            5 
 3235000   0.73184128      -8.4086     575.3646  0.014821345  0.014196542            5 
 3236000   0.75000454   -8.4174664    575.56257  0.014821863  0.014191558            4 
 3237000   0.72883786   -8.3865836    575.34448  0.014811669  0.014186583            2 
 3238000   0.73178379   -8.4025728    576.34049  0.014832728  0.014181615            2 
 3239000    0.7285034   -8.4088572     574.8264  0.014789194  0.014176625            2 
 3240000   0.73655273    -8.417461    575.11781  0.014792125   0.01417164            1 
 3241000   0.74020972   -8.3830726    575.43253  0.014795653  0.014166659            1 
 3242000    0.7300637   -8.3822022    576.79339  0.014826069  0.014161704            1 
 3243000    0.7164061   -8.3793943    576.69786  0.014819043  0.014156756            2 
 3244000   0.73094076   -8.3910512    577.44011  0.014833542  0.014151795            2 
 3245000   0.73698022   -8.3773318    576.12009  0.014795072  0.014146829            1 
 3246000   0.72794053   -8.3923729    575.45432  0.014773422  0.014141876            2 
 3247000   0.73191335   -8.3815792    576.73889   0.01480184   0.01413692            3 
 3248000   0.71736095   -8.4067805    575.81787  0.014773652  0.014131975            4 
 3249000   0.74215666   -8.3538052    576.81239  0.014794613  0.014127043            2 
 3250000   0.72595294   -8.4069321    575.84962  0.014765375  0.014122114            3 
 3251000   0.72671406   -8.4100842    575.96609  0.014763818  0.014117172            6 
 3252000   0.70873199   -8.4053777    575.00497   0.01473465  0.014112219            2 
 3253000   0.75186251   -8.4119395    574.49091  0.014716951  0.014107259            4 
 3254000   0.71728201   -8.3789554    575.74986   0.01474467  0.014102301            3 
 3255000   0.72149361   -8.3796639    576.04243   0.01474763  0.014097359            3 
 3256000   0.73956759   -8.3866865    575.28226  0.014723645  0.014092427            2 
 3257000   0.73219493    -8.412592     575.4143  0.014722503  0.014087501            3 
 3258000   0.74417523   -8.4063813    575.65991  0.014724266  0.014082575            2 
 3259000   0.73085518   -8.4094484    577.09766  0.014756512  0.014077649            4 
 3260000   0.73520267    -8.397953    575.99876  0.014723895  0.014072725            3 
 3261000   0.72556893    -8.412477    576.15644  0.014723409  0.014067799            2 
 3262000    0.7399898   -8.4350652    575.25117  0.014695769  0.014062874            1 
 3263000   0.73368699   -8.4024443    576.32925  0.014718798  0.014057949            1 
 3264000    0.7299783   -8.4175225    575.52689  0.014693803   0.01405303            6 
 3265000   0.74283847   -8.4061766    575.91629  0.014699242  0.014048102            3 
 3266000   0.73284329   -8.4345634     575.7283  0.014689944  0.014043148            6 
 3267000   0.70909887   -8.4341809    575.06744  0.014668591    0.0140382            4 
 3268000   0.72622792   -8.4310824    577.03469  0.014714267  0.014033272            4 
 3269000   0.73101759    -8.403662    576.22359  0.014689089  0.014028348            7 
 3270000   0.72658521   -8.4188561     575.6371  0.014669651  0.014023422            3 
 3271000    0.7236342   -8.4473144     576.1315  0.014677762  0.014018489            4 
 3272000   0.71778492   -8.4312463     575.2988  0.014652068  0.014013559            4 
 3273000   0.72478781   -8.4143004    575.14741  0.014643737  0.014008631            4 
 3274000   0.73618823   -8.4256939    575.54276  0.014649327  0.014003698            4 
 3275000   0.71870178   -8.4568121    574.96841  0.014630239  0.013998753            2 
 3276000   0.73587465   -8.4481274    575.75423  0.014645763  0.013993798            6 
 3277000   0.72936309   -8.4272388    575.29183  0.014629535  0.013988846            5 
 3278000   0.73785391   -8.4504115    575.64177  0.014633968  0.013983922            2 
 3279000   0.71719113   -8.4445755    575.41999  0.014623869  0.013978987            7 
 3280000   0.73362777   -8.4332297    576.65852  0.014650877  0.013974058            4 
 3281000    0.7339696   -8.4311227    575.97478  0.014629046  0.013969139            5 
 3282000   0.73374338   -8.4224812    575.68011  0.014617106  0.013964214            4 
 3283000   0.72643094   -8.4441952    576.13112  0.014624102  0.013959291            4 
 3284000   0.74009682    -8.431666    574.21499  0.014571026  0.013954371            5 
 3285000    0.7194374   -8.4413312    575.45335  0.014598005  0.013949448            3 
 3286000   0.72127849   -8.4606946    576.21124  0.014612782  0.013944537            5 
 3287000    0.7368622   -8.3978995    575.89962  0.014600437   0.01393963            4 
 3288000   0.73511263   -8.4385618    575.49095  0.014585638  0.013934737            5 
 3289000   0.72799868   -8.4499261     575.6824  0.014586055   0.01392983            3 
 3290000   0.73354786   -8.4251434    575.50214  0.014577055  0.013924941            2 
 3291000   0.73204793   -8.4092688    575.91167  0.014582996  0.013920041            2 
 3292000   0.72468244   -8.4463488    574.85747   0.01455188  0.013915135            2 
 3293000     0.738606   -8.4272354      575.708  0.014568985  0.013910228            5 
 3294000   0.72529641   -8.4392418    576.55837  0.014586075  0.013905325            2 
 3295000   0.71200339   -8.4131829    575.29193  0.014549619  0.013900426            2 
 3296000   0.72417301   -8.4369783    576.12165  0.014566182  0.013895539            4 
 3297000   0.73194506   -8.3974343    576.66934  0.014575608  0.013890655            2 
 3298000   0.71427618    -8.444063    575.01521  0.014529392  0.013885753            2 
 3299000    0.7220152   -8.4428582    574.80199  0.014519602  0.013880839            4 
 3300000   0.73248269   -8.4433237    576.41235  0.014555868  0.013875941            2 
 3301000   0.72114038   -8.4251116    575.48977  0.014528167  0.013871045            7 
 3302000   0.73549111    -8.459771    575.54186  0.014525082  0.013866127            3 
 3303000   0.73232599   -8.4439869    574.77778  0.014501407  0.013861205            1 
 3304000   0.73045774   -8.4488962    575.19116  0.014507445   0.01385629            2 
 3305000   0.72643618   -8.4347626    575.78097  0.014517927  0.013851373            3 
 3306000   0.71383345   -8.4408125    576.44472  0.014530266  0.013846457            2 
 3307000   0.70573263   -8.4591913    574.84174  0.014485479   0.01384154            2 
 3308000   0.72459666   -8.4539129    574.83126  0.014480836  0.013836631            2 
 3309000   0.72205693   -8.4543175    575.89469  0.014503241  0.013831724            3 
 3310000   0.71340178   -8.4292846    573.84212  0.014447183  0.013826812            6 
 3311000   0.73284005   -8.4364562    575.86803  0.014493809  0.013821906            3 
 3312000   0.71836694   -8.3997387    576.55133  0.014506626   0.01381701            3 
 3313000   0.72811519    -8.428892    576.55196  0.014502263  0.013812112            2 
 3314000   0.72268114   -8.4012468    575.73169   0.01447726  0.013807224            1 
 3315000   0.71940531   -8.4319735    575.24398  0.014460633  0.013802349            2 
 3316000   0.71413239    -8.430516     574.7211  0.014443132  0.013797478            1 
 3317000   0.70633959   -8.4349771    575.87389  0.014467739    0.0137926            4 
 3318000   0.72284373    -8.416816     576.3177  0.014474525   0.01378771            1 
 3319000   0.71830614   -8.4170847     575.3462  0.014445772  0.013782829            4 
 3320000    0.7372985   -8.4589142    575.62016  0.014448297  0.013777948            3 
 3321000   0.71018709   -8.4274931    575.56436  0.014442546   0.01377307            3 
 3322000   0.71555796   -8.4158744     575.9319  0.014447419  0.013768205            8 
 3323000    0.7118369   -8.4248592    575.68798  0.014436954  0.013763339            2 
 3324000   0.71190557   -8.4210729    575.93997  0.014438928  0.013758488            3 
 3325000   0.71930751   -8.4075149    575.86877  0.014432801  0.013753625            4 
 3326000   0.73054608     -8.42261    575.53131  0.014420007  0.013748769            2 
 3327000   0.71345522    -8.432091    575.28423  0.014409484  0.013743915            4 
 3328000   0.73301531   -8.4089024    576.08329  0.014425162  0.013739051            1 
 3329000   0.71882394   -8.4026729    575.23726  0.014399651  0.013734211            2 
 3330000   0.71670782   -8.4018059    574.82226  0.014384941  0.013729364            1 
 3331000   0.72886721   -8.3962314    575.90869  0.014407803  0.013724517            2 
 3332000   0.72629484   -8.4254902    575.52394  0.014393856  0.013719671            2 
 3333000   0.72933515   -8.4269393    575.12505  0.014379564  0.013714829            2 
 3334000   0.71946948   -8.4218223    576.32985  0.014405365  0.013710003            4 
 3335000   0.73364304   -8.4619429    574.71909  0.014360797  0.013705151            1 
 3336000   0.71623213   -8.4279026    575.10545  0.014366143  0.013700298            4 
 3337000   0.70196145   -8.4263067    577.39467  0.014419006  0.013695456            2 
 3338000   0.70474264   -8.4207019    575.89153   0.01437716  0.013690621            1 
 3339000   0.71513854   -8.4297577    575.72418  0.014368678  0.013685794            2 
 3340000   0.72248615   -8.4182413    575.74036  0.014364779  0.013680963            4 
 3341000   0.73161917   -8.4258096    574.98127  0.014341546  0.013676122            1 
 3342000   0.73564139   -8.4155557    576.01799  0.014363106  0.013671295            3 
 3343000   0.71012047   -8.4225225    575.76396  0.014352477   0.01366648            2 
 3344000   0.70963448   -8.4009434    574.84878  0.014325378  0.013661661            3 
 3345000   0.72674602   -8.4238131    576.21712  0.014355185  0.013656843            2 
 3346000   0.70075625   -8.4605108    574.77944  0.014315089  0.013652013            2 
 3347000   0.71958823   -8.4565201    574.64279  0.014307409  0.013647176            5 
 3348000   0.72823951   -8.4382202    575.32817  0.014320195   0.01364233            6 
 3349000   0.72504401   -8.4338476    574.60329  0.014297882  0.013637481            2 
 3350000   0.71782165   -8.4248919    575.39355  0.014313272  0.013632635            2 
 3351000   0.71894186   -8.4257165    576.56185  0.014338055  0.013627796            3 
 3352000   0.72692216   -8.4673419    575.89996  0.014317322  0.013622954            2 
 3353000    0.7018955   -8.4641995    574.57241  0.014280058   0.01361811            2 
 3354000   0.70543047   -8.4540609    574.73271  0.014279783  0.013613267            2 
 3355000   0.72990316   -8.4485522      574.913  0.014280005  0.013608418            2 
 3356000   0.70841581   -8.4635559    574.00709  0.014253255  0.013603572            2 
 3357000   0.71020604   -8.4642635     574.2773  0.014255717  0.013598732            4 
 3358000   0.71848234   -8.4562125    575.40022  0.014279339  0.013593892            3 
 3359000   0.70742407   -8.4585198    574.77923  0.014259681   0.01358905            4 
 3360000   0.71203829   -8.4441247    575.88567  0.014282879  0.013584204            2 
 3361000   0.71047473   -8.4753837    574.76515  0.014250847  0.013579356            3 
 3362000   0.70869468   -8.4756394    574.69126  0.014244776  0.013574516            3 
 3363000   0.73384605    -8.469429    574.21566  0.014228756  0.013569666            5 
 3364000    0.7077314   -8.4800631    574.13179  0.014222448   0.01356481            1 
 3365000   0.70957313   -8.5003157    573.91503  0.014212854  0.013559942            3 
 3366000   0.70673305   -8.4947101    574.44711  0.014221804  0.013555087            4 
 3367000   0.71622553   -8.4807873     575.1236  0.014234323  0.013550237            2 
 3368000   0.68969727    -8.472736     574.7942  0.014221947  0.013545402            1 
 3369000   0.70738359   -8.4811584    574.62044  0.014213427  0.013540562            5 
 3370000   0.71871078   -8.4908519    575.23755   0.01422447  0.013535727            2 
 3371000   0.70569712   -8.4775191    574.31372  0.014197412  0.013530902            2 
 3372000   0.70977512   -8.4492203    574.13668  0.014188827  0.013526069            3 
 3373000   0.71379891   -8.4777277    575.16857  0.014210114  0.013521252            3 
 3374000   0.71714331   -8.4471558    574.73981  0.014195312  0.013516437            1 
 3375000   0.70210053    -8.450488    575.59822  0.014212302  0.013511613            7 
 3376000   0.71905261   -8.4778485    575.88516  0.014215175  0.013506807            5 
 3377000   0.70316418   -8.4471136    575.18913   0.01419379  0.013501989            4 
 3378000   0.71978971   -8.4632928    575.29425  0.014192181  0.013497181            2 
 3379000   0.71900595   -8.4784728    574.77731  0.014175232  0.013492368            2 
 3380000    0.7102161   -8.4805822    574.66437  0.014168254  0.013487554            2 
 3381000   0.67230019   -8.4628527    575.60369  0.014187215  0.013482745            3 
 3382000   0.72034019   -8.4901545    574.38449  0.014152979  0.013477927            1 
 3383000    0.7044954   -8.4979143    574.31588  0.014147105  0.013473111            2 
 3384000   0.70268372   -8.4764697    574.74963  0.014153606  0.013468289            2 
 3385000   0.70582341   -8.4881654    575.48835  0.014167611  0.013463479            3 
 3386000    0.7112127   -8.4578244     576.7386  0.014194197  0.013458676            5 
 3387000   0.71286908   -8.4874808    574.57105  0.014136676  0.013453871            6 
 3388000   0.71065403   -8.4685753    576.16211  0.014171638  0.013449061            2 
 3389000    0.7172053   -8.4936712    574.34259  0.014122715   0.01344425            6 
 3390000   0.72891524   -8.4818452    575.22426  0.014140223  0.013439444            4 
 3391000   0.71052693   -8.4931629    576.46627  0.014166575  0.013434643            4 
 3392000   0.72500551   -8.4825688     573.6977  0.014094381  0.013429834            4 
 3393000   0.70642354   -8.4833178    575.01664  0.014122621  0.013425015            6 
 3394000   0.71825013   -8.5001324    574.39059  0.014103088  0.013420202            3 
 3395000   0.71104095   -8.4785179    575.32883  0.014121964  0.013415396            2 
 3396000   0.69985127   -8.4784836     574.3239  0.014093146  0.013410595            2 
 3397000    0.7273971    -8.504495    574.44783  0.014092038  0.013405787            2 
 3398000    0.7122658   -8.4834577    575.44568  0.014112362  0.013400989            4 
 3399000   0.71617514   -8.5039887    573.27227  0.014054925   0.01339618            1 
 3400000   0.69671064   -8.5134712    574.34731   0.01407714  0.013391373            3 
 3401000   0.70751685   -8.5135458    575.37231  0.014098116  0.013386563            3 
 3402000   0.69711331   -8.4908591    574.45225  0.014071435  0.013381762            3 
 3403000   0.70764702   -8.4779203    574.94888  0.014079461  0.013376968            4 
 3404000   0.71603123   -8.4963929    574.35981  0.014060904  0.013372161            3 
 3405000   0.69839225   -8.4885646    575.13363  0.014075713   0.01336735            2 
 3406000   0.70230119   -8.5183007    574.12848  0.014046988  0.013362534            1 
 3407000   0.69040832   -8.5136888    574.42937  0.014050224  0.013357734            2 
 3408000   0.70053727   -8.4771439    575.95384  0.014083378  0.013352948            2 
 3409000   0.69445702   -8.5077484    574.48952  0.014043452  0.013348143            5 
 3410000   0.69295856   -8.5170692    574.48594  0.014039246  0.013343344            3 
 3411000   0.70855879   -8.5039229    574.29291  0.014030414  0.013338547            2 
 3412000   0.69940156   -8.4871941    574.43488  0.014029769  0.013333761            4 
 3413000   0.69916783   -8.4849789    574.58781  0.014029393   0.01332897            5 
 3414000   0.71751715   -8.5309846    574.96483  0.014034486  0.013324181            4 
 3415000   0.71401527   -8.5017607    573.95887  0.014005829  0.013319395            3 
 3416000   0.70081502   -8.5374558    574.33794  0.014010976   0.01331461            3 
 3417000    0.7056502   -8.4919005    575.42111  0.014033292  0.013309827            4 
 3418000   0.69989843   -8.5278008    574.91429   0.01401683  0.013305043            3 
 3419000   0.69910508   -8.4830975    575.28613  0.014021793  0.013300261            1 
 3420000   0.71988247   -8.5016704    574.43311  0.013996908  0.013295472            2 
 3421000   0.71851551   -8.5025217    574.85444   0.01400308  0.013290697            3 
 3422000    0.7097946   -8.4707457    575.28624  0.014009503  0.013285937            2 
 3423000   0.69928106   -8.4960976    574.61781  0.013989137  0.013281164            3 
 3424000   0.69850011   -8.5047384    574.94803  0.013993089  0.013276407            3 
 3425000   0.71650217   -8.5128182    574.41939  0.013976141   0.01327164            5 
 3426000   0.70364125   -8.5117788    574.65976  0.013977908  0.013266883            1 
 3427000   0.70400286   -8.4918361    576.27371  0.014013075  0.013262126            1 
 3428000   0.70718441   -8.4977341    573.88703  0.013950968  0.013257371            3 
 3429000   0.70548175   -8.5049983    575.23988  0.013979777  0.013252621            6 
 3430000   0.70813992   -8.5128985    574.23564  0.013951303  0.013247862            4 
 3431000   0.69431802   -8.4966552    575.00886  0.013966017  0.013243112            2 
 3432000   0.72028664   -8.4959465    575.67621  0.013978152  0.013238362            2 
 3433000   0.69721869   -8.5294102    574.56785  0.013947176  0.013233616            3 
 3434000   0.71262434   -8.5187047    574.41397   0.01393938  0.013228858            2 
 3435000   0.70682483   -8.4918201    574.86395  0.013946239  0.013224116            3 
 3436000    0.6962165   -8.5182987    574.75431  0.013939521  0.013219378            1 
 3437000   0.70525537   -8.4988567    574.76346  0.013935687  0.013214632            2 
 3438000   0.70438234   -8.5027236     575.8142  0.013957102  0.013209889            1 
 3439000   0.70104732   -8.5050264    575.54731  0.013946576  0.013205174            3 
 3440000   0.69268662   -8.5130672    575.94068  0.013952051  0.013200465            2 
 3441000   0.72748559   -8.4982694     575.9388  0.013947951  0.013195758            1 
 3442000   0.70909777   -8.5129919    575.48585  0.013932933   0.01319104            2 
 3443000   0.68575698   -8.4909926    574.90028  0.013914713  0.013186324            2 
 3444000   0.69795736   -8.5277256    574.75112  0.013907064   0.01318161            2 
 3445000   0.69210393   -8.5132006    575.50275  0.013921208  0.013176889            4 
 3446000   0.69549525   -8.5124281    574.97268   0.01390435  0.013172165            2 
 3447000   0.69893502   -8.5363386    575.87626  0.013922161   0.01316745            2 
 3448000   0.70469339   -8.5184816    574.48257  0.013884439   0.01316272            2 
 3449000   0.70167713   -8.5341566    574.68021  0.013885189  0.013158007            3 
 3450000   0.70189253   -8.5102082    573.73161  0.013858251  0.013153293            6 
 3451000   0.69672368   -8.5154128    574.33697  0.013868854  0.013148577            1 
 3452000   0.70696607   -8.5272964    574.84536  0.013877109  0.013143872            2 
 3453000   0.71498408   -8.5438411    573.44272  0.013839239  0.013139158            7 
 3454000   0.67904803   -8.5061691    575.09657  0.013875134   0.01313444            6 
 3455000   0.71300895    -8.515788    576.37235   0.01390189  0.013129739            3 
 3456000   0.69871579   -8.4976172    575.81305  0.013884381  0.013125037            3 
 3457000   0.68964741   -8.5268949    575.28004  0.013867516  0.013120323            2 
 3458000   0.69743501   -8.5004887    575.40745  0.013866576  0.013115605            3 
 3459000   0.68917761   -8.5240657    575.25967  0.013859007    0.0131109            9 
 3460000   0.69240617   -8.5235894    575.83187  0.013868783  0.013106199            3 
 3461000   0.71339487   -8.5251116    575.31911   0.01385243  0.013101503            3 
 3462000   0.69576162   -8.5434645    574.16855  0.013820733  0.013096801            5 
 3463000   0.70192432    -8.509911    575.97499  0.013860213  0.013092117            2 
 3464000   0.68805222    -8.497607    575.44364  0.013843429  0.013087436            2 
 3465000   0.69959431   -8.5316535    575.29216   0.01383579  0.013082747            4 
 3466000    0.6977648   -8.5015924    576.19809   0.01385358  0.013078066            1 
 3467000   0.68471325   -8.5283148    574.91852  0.013818828  0.013073385            2 
 3468000   0.69820111   -8.5159299    575.11796  0.013819636  0.013068706            2 
 3469000   0.70152039   -8.5320386    574.53446  0.013801635   0.01306402            3 
 3470000   0.69635445   -8.5003604    574.00849  0.013785026  0.013059341            3 
 3471000   0.71318502   -8.5010333    574.28728  0.013787748   0.01305466            4 
 3472000   0.69245138   -8.4948471     575.3394  0.013809029  0.013049985            2 
 3473000   0.69843628   -8.5354888     574.7783   0.01379159  0.013045297            6 
 3474000   0.69757221   -8.5406363    574.83343  0.013788942   0.01304061            3 
 3475000   0.70188264   -8.5252168    574.55808  0.013778371  0.013035915            4 
 3476000   0.69372783    -8.523656    575.02206  0.013785531  0.013031227            5 
 3477000   0.70319136   -8.5312008    574.29673  0.013764182  0.013026541            3 
 3478000   0.69947937   -8.5202303    574.29563  0.013760198  0.013021863            2 
 3479000   0.69401926   -8.5089223    574.52354  0.013761702  0.013017188            3 
 3480000   0.69903096   -8.5355624    574.86704  0.013765973  0.013012514            3 
 3481000   0.69008195   -8.5321931    574.57328  0.013754986  0.013007831            3 
 3482000   0.71913879   -8.5295088    574.70199  0.013754116  0.013003151            2 
 3483000   0.70009807   -8.5184391    574.88159  0.013754464  0.012998485            3 
 3484000   0.68971245   -8.5220531    575.39466  0.013762788  0.012993829            3 
 3485000   0.69252285   -8.5054185    575.67441  0.013765529  0.012989179            2 
 3486000    0.6907901   -8.5093829    575.86568  0.013766152  0.012984522            3 
 3487000   0.68469062   -8.5247334     574.9306  0.013739858  0.012979882            2 
 3488000   0.69164488   -8.4911953    575.92297  0.013759627   0.01297525            2 
 3489000   0.68785204   -8.4827936    575.72432  0.013750939  0.012970627            2 
 3490000    0.6925316   -8.5175924    575.94235  0.013752205     0.012966            3 
 3491000   0.69340799   -8.4879099    575.38318  0.013734918  0.012961374            2 
 3492000   0.68610865   -8.5048785    575.26329  0.013728123  0.012956753            1 
 3493000   0.69895547   -8.4946921    574.28023   0.01370074  0.012952133            1 
 3494000   0.69162633   -8.5054954    575.14094  0.013717347  0.012947515            3 
 3495000   0.69213294   -8.5000781    574.82512  0.013705892  0.012942884            4 
 3496000   0.68212293   -8.4881441    574.90538  0.013703885  0.012938259            2 
 3497000   0.67602575   -8.5051716    575.51579  0.013714512  0.012933632            2 
 3498000   0.68641834   -8.5176739     575.4545  0.013709131  0.012929009            3 
 3499000    0.6918107   -8.5424013    574.83436  0.013690444  0.012924373            1 
 3500000   0.69641273   -8.5220238    574.14402  0.013670096   0.01291973            3 
 3501000   0.69325964   -8.5440823    573.50087  0.013650882  0.012915094            3 
 3502000   0.67579574   -8.5125715     574.9696  0.013681934  0.012910461            2 
 3503000   0.70597551   -8.5417426     574.5108  0.013667114  0.012905816            6 
 3504000    0.6929601   -8.5160677    576.50949  0.013710747  0.012901189            2 
 3505000   0.69503941   -8.5265894    575.00336  0.013671026  0.012896564            4 
 3506000   0.70024796   -8.5430033    574.82978  0.013663001  0.012891951            2 
 3507000   0.69443729   -8.5472637    575.19445   0.01366777  0.012887337            3 
 3508000   0.71560457   -8.5045254    574.85546  0.013655821  0.012882739            2 
 3509000      0.69527   -8.4885831    575.57348  0.013668982  0.012878141            2 
 3510000    0.6916159    -8.500998    575.47989  0.013662865  0.012873541            4 
 3511000    0.7008728   -8.4913752    576.00867  0.013671525  0.012868944            2 
 3512000   0.68463622   -8.5347775    575.85372  0.013663955  0.012864352            1 
 3513000   0.69091899   -8.5008991    576.29166  0.013670454  0.012859761            2 
 3514000   0.68450946    -8.540768    574.08971  0.013614345   0.01285516            1 
 3515000   0.69495847   -8.5332286    575.27127  0.013638484  0.012850555            3 
 3516000   0.70438323   -8.5222755     574.1023    0.0136069  0.012845951            2 
 3517000   0.69305767   -8.5064542    574.83018  0.013620277  0.012841352            4 
 3518000   0.69656273   -8.5234243    575.64683   0.01363575  0.012836752            3 
 3519000   0.67908309     -8.52084    575.42134  0.013626535  0.012832156            1 
 3520000   0.68909074   -8.5264944    574.76227  0.013607061  0.012827565            2 
 3521000   0.69720661   -8.5399117    575.72635  0.013626014  0.012822973            2 
 3522000     0.683374   -8.5182807    575.62112  0.013619655   0.01281839            2 
 3523000   0.68050052   -8.5088393    576.57773  0.013638417  0.012813809            3 
 3524000    0.6898944   -8.5243761    575.46286  0.013608183  0.012809226            2 
 3525000   0.69652528   -8.5380751    574.56176   0.01358302  0.012804637            1 
 3526000   0.69249132   -8.5364927    574.91661  0.013587555   0.01280005            1 
 3527000   0.69052024   -8.5557757     574.9386  0.013584222  0.012795457            3 
 3528000   0.68653022   -8.5387636    574.14978  0.013561739  0.012790864            3 
 3529000    0.7016875   -8.5265092    574.73179   0.01357164  0.012786276            2 
 3530000   0.68819472   -8.5352504    574.53383  0.013563122  0.012781677            7 
 3531000   0.67506802   -8.5360496    574.82064  0.013566049  0.012777085            2 
 3532000   0.67830214   -8.5282252    575.42006  0.013576351    0.0127725            2 
 3533000   0.67414054   -8.5343957    574.80008  0.013557885  0.012767905            3 
 3534000   0.68773118   -8.5336517    573.57745  0.013525218  0.012763306            5 
 3535000   0.68737316   -8.5624773    573.28446  0.013514485  0.012758702            3 
 3536000   0.69547734   -8.5283701    574.17478  0.013531645  0.012754081            1 
 3537000   0.68607414   -8.5293744    575.42394   0.01355725  0.012749473            6 
 3538000   0.68136271   -8.5575171    574.49962  0.013531647  0.012744871            2 
 3539000   0.70657743   -8.5530899     574.4722  0.013527178  0.012740269            3 
 3540000   0.67744791   -8.5506668    573.72981  0.013505881  0.012735675            3 
 3541000   0.68819679   -8.5605035    574.61485  0.013522895  0.012731071            7 
 3542000   0.68771411   -8.5440192    574.97313  0.013527506  0.012726477            2 
 3543000    0.6887921   -8.5312779    574.54673  0.013513659  0.012721885            4 
 3544000   0.69837611   -8.5699317    573.57179  0.013486921  0.012717293            2 
 3545000    0.6921504   -8.5558924    573.59341  0.013483625  0.012712693            2 
 3546000   0.67754358    -8.539094    575.03065  0.013513599  0.012708096            2 
 3547000   0.67456837   -8.5269531     574.6027  0.013499735  0.012703515            3 
 3548000   0.68056977   -8.5540764    574.50773  0.013493699  0.012698931            3 
 3549000   0.67501744   -8.5475405    573.93451  0.013476437  0.012694349            3 
 3550000   0.67967742   -8.5448999    575.17247  0.013501701  0.012689769            2 
 3551000   0.68932836   -8.5701395    575.00113  0.013493878  0.012685193            1 
 3552000   0.69103231   -8.5544416     575.1758  0.013494177  0.012680621            3 
 3553000   0.69228186   -8.5218612    574.09143  0.013464946  0.012676064            2 
 3554000   0.69129629    -8.525185    576.05547  0.013507209   0.01267151            2 
 3555000   0.68326377   -8.5389358    573.66322  0.013447333  0.012666953            2 
 3556000   0.68537574   -8.5216604    574.45645   0.01346214    0.0126624            2 
 3557000   0.67973478    -8.568283    573.83004   0.01344368  0.012657849            2 
 3558000   0.67564753   -8.5446857    574.96859  0.013466568  0.012653286            1 
 3559000   0.67162827   -8.5484743    574.84705  0.013459938  0.012648743            2 
 3560000   0.68411548   -8.5453888    574.21465  0.013441354  0.012644196            2 
 3561000   0.67543897   -8.5564258    574.74879  0.013450079  0.012639653            3 
 3562000   0.70441221   -8.5386869    575.79835  0.013470858  0.012635118            5 
 3563000   0.68905849   -8.5180863    575.54576  0.013461169  0.012630583            5 
 3564000   0.66843534   -8.5637561    574.01764  0.013421662  0.012626038            2 
 3565000   0.67367321   -8.5513218    574.19529   0.01342205   0.01262148            2 
 3566000   0.68463934   -8.5696607    574.38729  0.013422773   0.01261693            4 
 3567000   0.67390855   -8.5539441    574.71686  0.013426709  0.012612388            2 
 3568000   0.67891077   -8.5712739    574.88787   0.01342694   0.01260784            2 
 3569000    0.6589197   -8.5440976     573.8234  0.013398324  0.012603285            5 
 3570000   0.67099723   -8.5752424    573.41795  0.013385106  0.012598729            7 
 3571000   0.68170339   -8.5660279    573.39472  0.013380816  0.012594169            3 
 3572000   0.66983566   -8.5695946    574.40559  0.013400653  0.012589614            2 
 3573000    0.6856659   -8.5757672    574.57816  0.013400927  0.012585073            2 
 3574000   0.68912187   -8.5561605    575.10224  0.013409397  0.012580523            1 
 3575000   0.67768422    -8.555365    573.13325   0.01335975  0.012575978            1 
 3576000   0.68050121   -8.5583882    574.20015  0.013380876  0.012571435            2 
 3577000    0.6697299   -8.5743837    573.77542   0.01336724  0.012566881            2 
 3578000   0.68722392   -8.6051874    573.53975  0.013358015  0.012562326            2 
 3579000   0.68312797   -8.5664632    573.55403  0.013354615  0.012557776            2 
 3580000   0.69223887    -8.568207    572.77694  0.013332797   0.01255323            6 
 3581000   0.68956777   -8.5749244      573.457  0.013344899  0.012548683            2 
 3582000   0.65953498   -8.6014448    574.11061  0.013356379  0.012544139            2 
 3583000   0.67700075   -8.5816976    573.51036  0.013338691    0.0125396            2 
 3584000   0.67536393   -8.5692833    573.59957  0.013337044  0.012535059            3 
 3585000   0.68223065   -8.5809055    573.82904  0.013338657  0.012530518            1 
 3586000   0.67940002   -8.5832211    572.58064  0.013305927  0.012525975            4 
 3587000   0.69028357   -8.5671926    574.01741  0.013335596  0.012521437            3 
 3588000   0.67747169   -8.5875679    572.77665  0.013303062  0.012516896            1 
 3589000   0.68256179     -8.58769    573.39708  0.013313761  0.012512357            2 
 3590000   0.67594387   -8.5799183    573.90206  0.013321775  0.012507818            2 
 3591000   0.67760266   -8.5976443    573.45389  0.013307665  0.012503277            2 
 3592000   0.68017059   -8.5730485    573.33564  0.013301217  0.012498751            2 
 3593000   0.68195815   -8.5820391    573.06597   0.01329126   0.01249422            3 
 3594000   0.69978413   -8.5765811    574.15811  0.013312885  0.012489685            2 
 3595000   0.67263986   -8.5754252    573.59358  0.013296096  0.012485167            2 
 3596000   0.67149926   -8.5618524    573.63415  0.013293339  0.012480641            3 
 3597000   0.68428125    -8.566531    573.16169  0.013278697  0.012476105            3 
 3598000   0.66437579   -8.5883724    573.94459   0.01329314  0.012471579            8 
 3599000   0.66851805   -8.5585234    574.21484  0.013295704  0.012467058            1 
 3600000   0.67677909   -8.5906761    573.64826  0.013278895  0.012462539            2 
 3601000   0.68051431   -8.5770701    573.83847  0.013279609  0.012458024            5 
 3602000   0.68844846    -8.580034    573.96306  0.013278805  0.012453506            4 
 3603000   0.68417109   -8.5865886    573.39415  0.013261961  0.012449001            2 
 3604000   0.68017013   -8.5540109    574.46415  0.013283022  0.012444498            2 
 3605000   0.65445967   -8.5682607    574.67048  0.013284107  0.012439994            2 
 3606000   0.66270387   -8.5898685    574.00544  0.013265054  0.012435492            1 
 3607000   0.66120861   -8.5713378    573.82153  0.013257128  0.012430995            3 
 3608000   0.66839225   -8.5736455    573.85893  0.013254317  0.012426497            2 
 3609000   0.66754309   -8.5941923    571.97204  0.013207076  0.012421999            2 
 3610000   0.68617323   -8.5734592    573.65597  0.013242289  0.012417502            2 
 3611000   0.65984234   -8.5926681    573.26124  0.013229513  0.012413006            4 
 3612000   0.67552333   -8.5710755    573.62408  0.013234221  0.012408511            2 
 3613000   0.68595387   -8.5746195    573.93739  0.013237785  0.012404025            4 
 3614000   0.66915292    -8.548647      573.415  0.013222076  0.012399539            3 
 3615000   0.68253246   -8.5506036    573.21731  0.013213861  0.012395063            2 
 3616000   0.67616462   -8.5769155    573.30646  0.013212262  0.012390577            2 
 3617000   0.68319926   -8.5767515    574.03978  0.013225504  0.012386096            1 
 3618000   0.69184567   -8.5408401    574.66631   0.01323628  0.012381619            2 
 3619000   0.67624506   -8.5841332    573.67837  0.013209873  0.012377147            2 
 3620000   0.67320443   -8.5563043    575.87388  0.013256765  0.012372679            3 
 3621000   0.67352569   -8.5731663    574.23225  0.013215324  0.012368201            3 
 3622000   0.67407747   -8.5718108    573.65419  0.013198376  0.012363728            2 
 3623000   0.65817541   -8.5916117    574.05781  0.013204016   0.01235925            3 
 3624000   0.68422599   -8.5780713    573.97812   0.01319854  0.012354777            2 
 3625000   0.65967548   -8.6033458    573.54063  0.013184842  0.012350303            5 
 3626000   0.67437066   -8.5912863    574.16833  0.013195632  0.012345829            3 
 3627000   0.66642012   -8.5742132    574.16483  0.013191913  0.012341365            3 
 3628000   0.67559032   -8.5735811    575.28402  0.013213984  0.012336907            1 
 3629000   0.67384179   -8.6005106    574.83754  0.013200091  0.012332446            5 
 3630000   0.66371481   -8.5602339    575.10649  0.013202628  0.012327992            3 
 3631000   0.68098534   -8.5752261    574.34729  0.013181568  0.012323534            3 
 3632000    0.6631376   -8.5724877    574.55289  0.013182656  0.012319079            2 
 3633000   0.68351579   -8.5973433    572.68008  0.013136069  0.012314627            2 
 3634000    0.6722103   -8.5793539    573.43149  0.013149686   0.01231018            2 
 3635000    0.6692932   -8.5581772    574.20665  0.013163839  0.012305735            3 
 3636000   0.66024298   -8.5601585    573.65293  0.013147528  0.012301291            2 
 3637000    0.6711292   -8.5610281    573.32283  0.013136349  0.012296848            3 
 3638000   0.66431914   -8.5870032    573.55767  0.013138118  0.012292405            3 
 3639000   0.67873437    -8.578868    574.01943  0.013145082  0.012287968            4 
 3640000   0.67152206    -8.581973    573.62358  0.013132408  0.012283527            8 
 3641000   0.66004141   -8.5918575    574.04255   0.01313839  0.012279086            4 
 3642000   0.66554041   -8.5706747     573.1962  0.013115417  0.012274652            4 
 3643000   0.65875041    -8.572817    572.09901  0.013086719  0.012270214            5 
 3644000    0.6770333   -8.5831249    574.49885  0.013138009   0.01226578            2 
 3645000   0.66813819   -8.5870961    573.87726  0.013120193  0.012261348            3 
 3646000   0.67359214   -8.5665853      572.994  0.013096407  0.012256918            3 
 3647000   0.66834663   -8.5947287    573.68358  0.013108573  0.012252488            4 
 3648000   0.67544199   -8.5624003     573.8338  0.013108411  0.012248055            2 
 3649000   0.67880994   -8.5743865    574.17804   0.01311268  0.012243629            2 
 3650000   0.66657177   -8.5890589    573.82675  0.013101067  0.012239201            2 
 3651000   0.66645221   -8.5888077    574.96194  0.013123389  0.012234761            5 
 3652000   0.65168386   -8.5629613    573.24978  0.013080727  0.012230326            7 
 3653000    0.6713837   -8.5785396    573.04121  0.013072388  0.012225888            2 
 3654000   0.67160925   -8.5953665    573.70259  0.013083894  0.012221448            3 
 3655000   0.65892402   -8.5989261    573.72225  0.013080763  0.012217013            3 
 3656000   0.66205332   -8.6004748    573.23631  0.013066108  0.012212577            2 
 3657000   0.66025254   -8.6032689    574.11687  0.013082601  0.012208131            1 
 3658000    0.6647393   -8.5911753     573.7898  0.013071574   0.01220369            1 
 3659000   0.65354791   -8.5991964    572.75274  0.013044382   0.01219927            2 
 3660000   0.68110051   -8.5993866     574.1034  0.013071571  0.012194855            3 
 3661000   0.66927043   -8.5866396    573.33395  0.013050486  0.012190441            3 
 3662000   0.65332328   -8.6219304    572.34115   0.01302433  0.012186025            2 
 3663000   0.67007377   -8.6049695    573.85596  0.013055236  0.012181601            1 
 3664000   0.66461217   -8.6175396    573.97449  0.013054369  0.012177181            1 
 3665000   0.67809698   -8.5878878    573.70662  0.013044716  0.012172765            2 
 3666000   0.65894769   -8.5957627    573.22372  0.013030181  0.012168348            1 
 3667000   0.66036923   -8.6095168    575.32178  0.013074306  0.012163928            1 
 3668000    0.6639049   -8.5877119    573.57273  0.013031005  0.012159514            2 
 3669000   0.66561707   -8.6001755     572.0525  0.012992925  0.012155093            1 
 3670000   0.67444892   -8.5920103     574.3282  0.013041058  0.012150687            2 
 3671000   0.66758539    -8.604895    572.70434  0.013000643  0.012146278            2 
 3672000   0.67358253   -8.5793568    573.47494  0.013014591  0.012141872            1 
 3673000   0.66911264    -8.608569    573.49441  0.013011489  0.012137468            2 
 3674000   0.65779325   -8.5804446    573.79187  0.013014695  0.012133072            3 
 3675000     0.670874   -8.5884751     573.5121   0.01300481  0.012128683            1 
 3676000    0.6700275   -8.5904289    573.02943   0.01299033   0.01212429            4 
 3677000   0.66310115    -8.574921    574.25491  0.013014571  0.012119894            1 
 3678000   0.66030696   -8.6113542    573.02795  0.012983232  0.012115507            3 
 3679000   0.66362457   -8.5980425    573.53695  0.012991233  0.012111111            2 
 3680000   0.66651159   -8.6039105    573.82088  0.012994132  0.012106718            2 
 3681000   0.65477835   -8.5650756    575.05503  0.013018542   0.01210233            2 
 3682000   0.66026237   -8.6009698    573.43392  0.012978316  0.012097948            1 
 3683000   0.65286991   -8.6012815    573.16469  0.012968701  0.012093568            1 
 3684000    0.6760403   -8.6045028     573.1508  0.012964866  0.012089187            3 
 3685000   0.66184222   -8.6072942    573.39471  0.012966864  0.012084807            2 
 3686000   0.64584984   -8.5968992     575.0615  0.013001029   0.01208043            5 
 3687000   0.66246222   -8.6022394    573.57685  0.012963947  0.012076049            3 
 3688000   0.64731664   -8.5838938    573.18675  0.012951617  0.012071677            3 
 3689000   0.65260949   -8.5986508    574.42884  0.012976164   0.01206731            4 
 3690000   0.68611885   -8.6023733    574.76355  0.012980207  0.012062944            1 
 3691000   0.65245529   -8.6228197    573.77196  0.012954302  0.012058586            5 
 3692000   0.65369394   -8.6096415     573.2767  0.012939615   0.01205423            4 
 3693000   0.65278205   -8.6010849    573.11123  0.012932377  0.012049871            3 
 3694000   0.65956565   -8.5937018     573.1311  0.012929325  0.012045511            1 
 3695000   0.66264947   -8.6144436    573.09946  0.012925112  0.012041152            2 
 3696000   0.66839387   -8.5917309    573.30773  0.012926311    0.0120368            1 
 3697000    0.6417059   -8.6102031    574.46383  0.012948874  0.012032447            4 
 3698000   0.63767339   -8.6012558    573.68786  0.012927886  0.012028099            2 
 3699000   0.65850254   -8.6009465     574.3821  0.012940031  0.012023755            3 
 3700000    0.6694337   -8.5952522    574.13608  0.012930993  0.012019405            1 
 3701000   0.66986735   -8.5776289    573.57027  0.012914759   0.01201507            2 
 3702000   0.65675718   -8.5827397    574.51105  0.012932447  0.012010732            3 
 3703000   0.65867202   -8.5945654     573.7712  0.012912305   0.01200639            3 
 3704000   0.66410402   -8.5901052    573.82883  0.012910116  0.012002058            1 
 3705000   0.66754663   -8.5941722     573.0584  0.012889303  0.011997723            3 
 3706000    0.6483617   -8.5862382    573.72218  0.012900751  0.011993385            2 
 3707000    0.6633082   -8.5848948    573.22443  0.012886081  0.011989049            1 
 3708000   0.66496157   -8.6085733    574.34871  0.012907873  0.011984706            4 
 3709000   0.67081063   -8.6115208    573.54115  0.012886249  0.011980362            2 
 3710000   0.64263576   -8.6011738    572.92472  0.012868929  0.011976021            2 
 3711000   0.65593697   -8.6108391    572.43192  0.012854395  0.011971687            2 
 3712000   0.65405079    -8.640454    572.44324  0.012851186  0.011967346            5 
 3713000   0.65806624   -8.6283916    572.35978  0.012845852   0.01196301            1 
 3714000   0.64552652   -8.6240231    573.51415  0.012868294  0.011958674            1 
 3715000   0.66729249   -8.6247973    573.11565  0.012855892  0.011954344            4 
 3716000   0.65514736   -8.6194079    573.36848  0.012858102  0.011950007            3 
 3717000   0.63889476   -8.6006932    573.25112  0.012852011   0.01194568            4 
 3718000   0.65673145   -8.6086198    573.47714  0.012853621  0.011941346            2 
 3719000    0.6783688    -8.623603    572.05236  0.012818239  0.011937012            2 
 3720000   0.66194794   -8.6114379    574.21322  0.012863199  0.011932688            4 
 3721000   0.66573942   -8.6096947    573.83767  0.012851332  0.011928367            3 
 3722000   0.66915994   -8.6161559    573.29345  0.012835694  0.011924042            2 
 3723000   0.65496968   -8.6291119    574.27738   0.01285427  0.011919711            2 
 3724000   0.64472381   -8.6228624     573.2499  0.012827826   0.01191538            1 
 3725000   0.66008438   -8.6100581    572.69028  0.012811863  0.011911059            1 
 3726000   0.64220726   -8.6352599    572.54642  0.012805207  0.011906739            2 
 3727000   0.64732366   -8.6156506    571.90975  0.012787536  0.011902417            2 
 3728000   0.66822202    -8.624769    572.88068  0.012805809  0.011898097            7 
 3729000   0.64860922   -8.6401325    572.77375  0.012799985  0.011893776            3 
 3730000    0.6519359   -8.6351157    573.82901   0.01282013  0.011889456            8 
 3731000   0.65712416   -8.6265752    571.87412   0.01277303  0.011885143            2 
 3732000   0.64897342   -8.6234448    572.86075  0.012791639  0.011880834            2 
 3733000   0.66315226   -8.6255713    572.88297  0.012788708   0.01187652            4 
 3734000   0.65882042   -8.6231591    572.91059    0.0127859  0.011872208            3 
 3735000   0.64698579   -8.6423138    573.12122  0.012787176  0.011867906            3 
 3736000   0.67890507   -8.6543829    571.98677  0.012758449  0.011863602            4 
 3737000   0.66223714   -8.6289172    572.33582  0.012762818  0.011859298            1 
 3738000   0.66223611   -8.6088992    573.09505   0.01277633  0.011855001            2 
 3739000   0.65012688   -8.6233646    572.98307  0.012770417  0.011850709            2 
 3740000   0.64983385   -8.6407722    573.27922  0.012773601  0.011846412            4 
 3741000   0.66945732   -8.6200895    573.95562  0.012785254  0.011842119            2 
 3742000   0.65260127   -8.6361904    573.36439  0.012768671  0.011837825            3 
 3743000   0.64181179   -8.6543077    572.10234  0.012737161  0.011833534            4 
 3744000   0.66163879   -8.6355757    572.73217  0.012747778  0.011829242            5 
 3745000   0.63552915   -8.6528154     572.7072  0.012743819  0.011824957            5 
 3746000    0.6483058   -8.6488766    572.82862  0.012743118  0.011820668            4 
 3747000   0.64383418   -8.6473564    572.88651  0.012741004  0.011816376            4 
 3748000   0.65165829   -8.6267202    573.04911   0.01274122  0.011812085            5 
 3749000   0.65515907   -8.6520709    573.23768  0.012742013  0.011807792            4 
 3750000   0.64080318   -8.6484159    571.93579  0.012709684  0.011803499            3 
 3751000   0.65574456   -8.6456843    572.94412  0.012728697  0.011799208            5 
 3752000   0.65603071   -8.6424357    572.98121  0.012726128  0.011794917            4 
 3753000   0.66366125   -8.6291474    572.42498  0.012710387  0.011790625            3 
 3754000    0.6537895   -8.6560901    571.79435  0.012693002  0.011786336            3 
 3755000   0.63977749   -8.6603058    573.00409  0.012716469  0.011782042            5 
 3756000   0.66008346   -8.6792738    572.31786  0.012697858  0.011777754            3 
 3757000   0.64227965   -8.6402371    573.96142  0.012730934  0.011773466            5 
 3758000   0.65965846    -8.657438    572.31192  0.012690969  0.011769179            9 
 3759000    0.6392185   -8.6625444    571.90815  0.012678641  0.011764894            2 
 3760000   0.65246612   -8.6646772    570.82582  0.012651282  0.011760612            9 
 3761000   0.66278438   -8.6694325    571.49256  0.012662691  0.011756333            4 
 3762000    0.6565008   -8.6659801     571.9432  0.012669307  0.011752052            2 
 3763000   0.66012415   -8.6399741    572.64534  0.012681489  0.011747775            1 
 3764000   0.64999968   -8.6609331    572.55648  0.012676153  0.011743498            2 
 3765000   0.64565782   -8.6536539     573.5057  0.012693796   0.01173923            3 
 3766000   0.65579966    -8.650018     573.7415  0.012695643  0.011734965            3 
 3767000   0.64490336   -8.6686614     572.1259  0.012656532  0.011730701            2 
 3768000    0.6525893   -8.6561382    572.16648  0.012654071  0.011726438            1 
 3769000   0.64853019   -8.6838957    571.68526  0.012640074  0.011722171            1 
 3770000   0.64752479   -8.6654673    571.96869  0.012642986    0.0117179            5 
 3771000   0.65077053   -8.6757288     571.2312  0.012623336  0.011713638            2 
 3772000   0.64412948   -8.6692117    571.48797  0.012625662  0.011709368            2 
 3773000   0.64584189   -8.6662359     571.3334  0.012618902  0.011705105            2 
 3774000   0.65351595   -8.6630604    571.74624  0.012624674  0.011700846            3 
 3775000   0.64594009   -8.6253182     572.4819  0.012637569  0.011696587            3 
 3776000   0.65097696   -8.6530018    572.44812  0.012633477  0.011692326            3 
 3777000   0.64124825   -8.6510156    572.06853  0.012621757   0.01168807            3 
 3778000   0.64284888   -8.6685045    572.14512  0.012620106  0.011683816            5 
 3779000   0.65498352   -8.6491634    571.95345   0.01261254  0.011679565            4 
 3780000   0.64339541   -8.6547454    572.21521  0.012614974  0.011675301            2 
 3781000   0.66149708   -8.6604779    571.93026  0.012605357   0.01167104            4 
 3782000   0.65533515   -8.6808955     571.8305  0.012599826  0.011666785            2 
 3783000   0.64774652   -8.6665798    570.98982  0.012577976  0.011662532            2 
 3784000   0.65189923    -8.675014    572.03835  0.012597744  0.011658285            3 
 3785000   0.64415662   -8.6786905    571.77527  0.012588623  0.011654031            5 
 3786000   0.64309909   -8.6655571     571.7577  0.012584912  0.011649776            1 
 3787000   0.64324489    -8.648344    571.86158  0.012583874  0.011645525            4 
 3788000   0.64888393   -8.6410067    571.94458  0.012582378  0.011641283            3 
 3789000   0.64251042   -8.6640032    571.57177  0.012570858  0.011637039            2 
 3790000   0.67039689   -8.6888604    571.88297  0.012574384  0.011632806            2 
 3791000   0.63817663   -8.6233875    571.78166   0.01256884  0.011628573            2 
 3792000   0.63501772   -8.6573565    572.55332  0.012582483  0.011624343            3 
 3793000   0.64290382   -8.6660013    571.97337  0.012566424  0.011620113            2 
 3794000   0.65121492   -8.6621018    571.89261  0.012561338  0.011615878            5 
 3795000     0.635101   -8.6546992    572.20585  0.012564907  0.011611647            4 
 3796000   0.63964623   -8.6801054    571.45381  0.012545087  0.011607423            2 
 3797000   0.63916997   -8.6666035    571.79171  0.012549199  0.011603195            3 
 3798000   0.62773216   -8.6561468     572.7647  0.012567244  0.011598966            5 
 3799000   0.64330523   -8.6744149    571.17138  0.012528985  0.011594744            4 
 3800000   0.64706898    -8.666541    571.20889  0.012526511  0.011590526            3 
 3801000   0.63442569   -8.6500532    572.84839   0.01255916  0.011586309            3 
 3802000   0.64979289   -8.6800125    572.45844  0.012547309  0.011582096            2 
 3803000   0.64620381   -8.6629137    572.34206   0.01254146  0.011577876            3 
 3804000    0.6371844   -8.6553846    573.13431  0.012555518  0.011573662            2 
 3805000    0.6402768     -8.64447    572.44936  0.012537218  0.011569451            2 
 3806000    0.6515155   -8.6691498     571.5905  0.012515119  0.011565238            2 
 3807000   0.63540052   -8.6514091    573.11878  0.012545285  0.011561031            6 
 3808000   0.64924906   -8.6456082    572.06759  0.012518986  0.011556822            2 
 3809000   0.63908534   -8.6745331    570.68653  0.012485485  0.011552614            4 
 3810000   0.64666636   -8.6867044    571.81435  0.012506876  0.011548405            5 
 3811000   0.63511973   -8.6745208    572.52336  0.012519097  0.011544199            3 
 3812000   0.64242132   -8.6399155    572.76265  0.012521044      0.01154            2 
 3813000   0.63544969    -8.672177    571.77154    0.0124961  0.011535797            6 
 3814000    0.6432126   -8.6670777    571.27486  0.012481971  0.011531596            3 
 3815000   0.63539953   -8.6717404    572.07811  0.012496245  0.011527399            1 
 3816000   0.64578933   -8.6753595    572.03503   0.01249203  0.011523204            2 
 3817000   0.64519331   -8.6801637    571.59442  0.012479138  0.011519004            4 
 3818000   0.64630654   -8.6854155    570.89275  0.012460554   0.01151481            3 
 3819000   0.64285986   -8.6518335    572.28864  0.012487751  0.011510618            3 
 3820000   0.64548426   -8.6661126     572.2603  0.012483863  0.011506434            2 
 3821000   0.63929177   -8.6825759    570.85143   0.01244987   0.01150225            3 
 3822000   0.64756763   -8.6569818    572.80964  0.012489308  0.011498073            2 
 3823000   0.65502723   -8.6908553    572.93824  0.012488845  0.011493893            2 
 3824000   0.65534529   -8.7033546    571.42565  0.012452616  0.011489704            2 
 3825000   0.63658061   -8.6595086    572.18302  0.012465861  0.011485522            2 
 3826000   0.63992012   -8.6816399    572.15202  0.012461928   0.01148134            5 
 3827000   0.63560479   -8.6839753    572.66958  0.012469941  0.011477161            2 
 3828000   0.63535705   -8.6836763    571.44933  0.012440119  0.011472979            4 
 3829000   0.64426914   -8.6715346    572.18874  0.012452963  0.011468803            3 
 3830000   0.64020592    -8.683608    573.45503  0.012477264  0.011464629            3 
 3831000   0.64824354    -8.682232    571.20305  0.012425021  0.011460454            3 
 3832000   0.64859642   -8.6866944    571.97833  0.012438638  0.011456283            1 
 3833000   0.62396244   -8.6999707    570.71693  0.012407969  0.011452111            4 
 3834000   0.63444491   -8.6813304    572.05055  0.012433719  0.011447942            2 
 3835000   0.64888389    -8.654042    572.06811  0.012430858  0.011443772            2 
 3836000   0.65263757   -8.6932543     571.4401  0.012413975   0.01143961            3 
 3837000   0.63046736   -8.6880173    571.87966  0.012420286   0.01143545            5 
 3838000   0.62851277   -8.6806276    571.16219  0.012401472  0.011431291            2 
 3839000   0.64208417   -8.6820246    571.99703  0.012416363  0.011427132            2 
 3840000   0.63210686    -8.692554    571.90068  0.012411039  0.011422983            3 
 3841000   0.62629116   -8.6937061    571.36534  0.012396193  0.011418831            2 
 3842000    0.6185451   -8.7200586    571.81566  0.012402734  0.011414677            6 
 3843000   0.64751161   -8.6885804    572.69569   0.01241859  0.011410531            3 
 3844000   0.63166249   -8.6783986     571.4283  0.012387884  0.011406387            3 
 3845000   0.64544321   -8.6871198    571.72046  0.012390994  0.011402234            2 
 3846000   0.63226065   -8.6825842    570.57928  0.012363046  0.011398083            3 
 3847000   0.63181645   -8.6746115    571.64187   0.01238285  0.011393939            5 
 3848000   0.63197373   -8.6911375     571.0711  0.012367271  0.011389798            1 
 3849000   0.64230542   -8.6920882    572.03763  0.012384984  0.011385651            3 
 3850000    0.6346043   -8.6909853    572.29215  0.012387276  0.011381504            2 
 3851000   0.63038165   -8.6784815    570.85875  0.012353041  0.011377365            3 
 3852000   0.63577136   -8.7146632    572.16131  0.012378014  0.011373224            2 
 3853000   0.63485047   -8.7095996    571.70449  0.012364921  0.011369085            2 
 3854000   0.63617894    -8.701089    571.69439  0.012361494  0.011364947            2 
 3855000   0.64751509   -8.6831515    572.13847  0.012367887  0.011360818            2 
 3856000   0.63389983   -8.6744706    572.45077  0.012371429  0.011356685            3 
 3857000   0.63203748   -8.6924959    571.45949  0.012346804  0.011352554            2 
 3858000    0.6262098   -8.6745048    571.05034  0.012334766  0.011348422            2 
 3859000   0.63670572    -8.662318    571.79548  0.012347661  0.011344296            2 
 3860000   0.62829514   -8.6894412    571.82159  0.012345026  0.011340177            4 
 3861000   0.63313356   -8.6728102    571.78593  0.012341059  0.011336056            4 
 3862000   0.63359417   -8.7017812    571.64899  0.012334908  0.011331931            3 
 3863000   0.64948017   -8.6943439    572.15314  0.012342591  0.011327809            4 
 3864000   0.62977232   -8.7050356    571.52886  0.012325933  0.011323693            2 
 3865000       0.6298   -8.6913106    571.94605  0.012331739  0.011319572            1 
 3866000   0.64292577    -8.664906    571.66224  0.012322432  0.011315457            2 
 3867000   0.63366465   -8.6858285    572.30862  0.012333174   0.01131134            3 
 3868000   0.63177566   -8.7076575    571.92018  0.012321617  0.011307227            2 
 3869000   0.62961049   -8.6922414     572.3619  0.012327946  0.011303112            2 
 3870000   0.62308308    -8.693525    571.14527  0.012298563  0.011299006            1 
 3871000   0.62868393   -8.6948472    571.14271  0.012295331  0.011294895            3 
 3872000   0.63763225   -8.6885036    572.13545  0.012313521  0.011290786            3 
 3873000   0.64283297   -8.6867046    572.85419  0.012325807  0.011286681            2 
 3874000   0.63913412   -8.6811876    571.67647  0.012297291  0.011282578            1 
 3875000   0.62508474    -8.714715    569.53882  0.012248147  0.011278473            2 
 3876000   0.64952824   -8.6627222    572.11732  0.012300424  0.011274371            2 
 3877000   0.63411364    -8.711128     571.0395  0.012274084  0.011270272            3 
 3878000   0.64011849   -8.6724608    571.65826  0.012284216  0.011266174            3 
 3879000   0.62401291   -8.7105997    571.33224  0.012274045  0.011262071            2 
 3880000   0.62860376   -8.7065289    571.84581  0.012281912  0.011257968            1 
 3881000   0.62757445    -8.686329    572.55903  0.012294062  0.011253865            4 
 3882000   0.61932524   -8.6857415     571.5308  0.012268822  0.011249771            3 
 3883000   0.63379652   -8.7066338    570.79783  0.012249932  0.011245682            3 
 3884000   0.63195783   -8.6968386    571.29961  0.012257544  0.011241594            1 
 3885000    0.6288953    -8.713922    570.52671   0.01223781  0.011237499            2 
 3886000   0.63307386   -8.6825785    571.48907  0.012255298  0.011233407            2 
 3887000   0.62458317   -8.7125496    571.19744  0.012245893  0.011229316            1 
 3888000   0.63365572   -8.6988485    571.26911   0.01224428  0.011225226            2 
 3889000   0.61802545   -8.6846096    571.45926  0.012245206  0.011221141            2 
 3890000   0.62481992   -8.7030799    571.45947  0.012242062  0.011217059            2 
 3891000    0.6311462   -8.7021322    571.54013  0.012240644  0.011212985            1 
 3892000    0.6360617   -8.6821896    572.33953  0.012254615  0.011208904            5 
 3893000     0.623022   -8.7147716    571.72813  0.012238379  0.011204829            4 
 3894000    0.6258115   -8.7001705    572.44226  0.012250519  0.011200754            1 
 3895000   0.63362279   -8.7200114    571.83129  0.012234302  0.011196685            4 
 3896000   0.60850561   -8.7015997    571.93225  0.012233322  0.011192609            2 
 3897000   0.62505383   -8.7108661    571.77744  0.012226872  0.011188535            2 
 3898000   0.62685097   -8.7094535    571.78199  0.012223832  0.011184471            1 
 3899000   0.61851331     -8.70205    572.57728  0.012237695  0.011180407            2 
 3900000   0.62417946   -8.7021121    571.91792  0.012220468  0.011176338            2 
 3901000   0.63414742   -8.7219578    571.69394  0.012212551  0.011172271            5 
 3902000   0.61598515   -8.7098274    569.71699    0.0121672  0.011168209            3 
 3903000   0.64032005   -8.6979215    572.12289  0.012215452   0.01116414            3 
 3904000   0.63117801   -8.7221222      570.903  0.012186283  0.011160079            3 
 3905000   0.62880028   -8.7101565     571.3217  0.012192098  0.011156017            2 
 3906000   0.63368444   -8.7162435    571.06627  0.012183527  0.011151953            3 
 3907000   0.61814469   -8.7192542    571.17201  0.012182664  0.011147903       -1e+20 
 3908000   0.62960708   -8.7070189    571.77837  0.012192476  0.011143848            2 
 3909000   0.63674173   -8.7052275    571.88298  0.012191587  0.011139798            3 
 3910000   0.63187707   -8.7114109    570.92952  0.012168148  0.011135749            5 
 3911000   0.63043805   -8.7400515    571.27057  0.012172304  0.011131699            4 
 3912000   0.62627067   -8.7183484    571.80395  0.012180554  0.011127652            4 
 3913000   0.64500692   -8.7172904    571.06045  0.012161608  0.011123606            4 
 3914000   0.62751239   -8.7082258     570.9281  0.012155683  0.011119565            1 
 3915000    0.6242964   -8.7000795    570.84579  0.012150826  0.011115527            5 
 3916000   0.62696348   -8.7209606     570.2943  0.012135987  0.011111485            3 
 3917000   0.63367144     -8.71225    572.42069  0.012178127  0.011107446            3 
 3918000   0.63458612   -8.7113085    570.77409  0.012139997  0.011103412            1 
 3919000   0.61854047   -8.7237925    570.81719  0.012137815  0.011099371            4 
 3920000   0.63148092   -8.7061749     571.0587  0.012139853  0.011095331            4 
 3921000   0.62962327   -8.7185008    571.40871  0.012144196  0.011091302            2 
 3922000   0.62641454   -8.7336506    570.99175   0.01213224   0.01108728            3 
 3923000   0.62930495   -8.7211561    571.53701   0.01214073  0.011083254            4 
 3924000   0.63355079   -8.7339573    572.07911  0.012149149  0.011079231            3 
 3925000   0.62039293   -8.7074366    571.36764  0.012130948  0.011075212            2 
 3926000   0.62116029   -8.7271685    570.71664   0.01211404  0.011071185            3 
 3927000   0.61959503   -8.7141468    571.36899  0.012124798  0.011067163            3 
 3928000   0.63935257   -8.7059986    571.54898   0.01212553  0.011063141            6 
 3929000    0.6251408    -8.722662    571.05944  0.012112061  0.011059121            3 
 3930000   0.61182306   -8.6943077    571.92777  0.012127391  0.011055106            2 
 3931000   0.61403666   -8.7041852     571.3988  0.012113093    0.0110511            2 
 3932000   0.62542648   -8.7242459    571.29834  0.012107883  0.011047084            5 
 3933000   0.61909239   -8.7209382    571.95708  0.012118762  0.011043073            1 
 3934000   0.62919552   -8.7085134    571.11595  0.012097864  0.011039061            2 
 3935000   0.62120774   -8.7321016    571.83815  0.012110084  0.011035057            4 
 3936000   0.60425095   -8.6849829    571.35926  0.012096868  0.011031051            2 
 3937000   0.62551913   -8.7130703    570.34191  0.012072261  0.011027047            3 
 3938000   0.62777659   -8.7283051    571.13256  0.012085927  0.011023045            3 
 3939000   0.61654425   -8.7141367    571.45587  0.012089699  0.011019042            2 
 3940000   0.63473832   -8.7199332    571.72131  0.012092244  0.011015043            2 
 3941000   0.62236539   -8.7318836    571.15701  0.012077244  0.011011036            1 
 3942000   0.62641115   -8.7184632    570.46188  0.012059485  0.011007036            2 
 3943000   0.61168517   -8.7255628    571.68706   0.01208232  0.011003034            3 
 3944000   0.62556911   -8.7140092    571.30702  0.012071227  0.010999025            2 
 3945000   0.61694388   -8.7216682    570.50885  0.012051306  0.010995028            2 
 3946000    0.6214011   -8.7175378    570.98168  0.012058238  0.010991031            3 
 3947000   0.62571548   -8.7339634    570.69978  0.012049231  0.010987036            2 
 3948000   0.60950565   -8.7167246    570.80154  0.012048327  0.010983048            2 
 3949000   0.61958659   -8.7223897    571.51641  0.012060361  0.010979055            1 
 3950000   0.61281022   -8.6967702    570.94274  0.012045206  0.010975072            1 
 3951000   0.60980151   -8.7437402    570.02707  0.012022844  0.010971081            1 
 3952000   0.60084829   -8.7178662    571.81561  0.012057515  0.010967092            2 
 3953000   0.61667993   -8.7369652     570.9879  0.012037016   0.01096311            3 
 3954000   0.61782166   -8.7065559    570.02152  0.012013605  0.010959126            3 
 3955000   0.62256966   -8.7216875    570.64743  0.012023755  0.010955148            1 
 3956000   0.62109613   -8.7308269    570.65022  0.012020775  0.010951167            2 
 3957000    0.6134436   -8.7379398      570.974  0.012024556   0.01094719            3 
 3958000   0.64140379   -8.7124847     570.2224  0.012005693  0.010943212            1 
 3959000   0.61679224   -8.7536535    570.13342  0.012000788  0.010939237            2 
 3960000   0.62313156   -8.7236116     570.4481  0.012004379  0.010935263            1 
 3961000   0.62137714   -8.7420534    569.81034  0.011987931  0.010931288            1 
 3962000    0.6090949   -8.7349369    571.20593  0.012014259   0.01092732            1 
 3963000   0.60262977    -8.746162    569.65026  0.011978515  0.010923344            1 
 3964000   0.61339607   -8.7489315    571.22484  0.012008595  0.010919372            2 
 3965000   0.61112133   -8.7193687    569.75668  0.011974709  0.010915409            3 
 3966000   0.61037953    -8.719501    570.87448  0.011995177  0.010911447            6 
 3967000   0.61870354   -8.7418537    572.42262  0.012024675  0.010907489            2 
 3968000   0.61192753   -8.7309882    571.26067  0.011997242  0.010903527            1 
 3969000   0.60209031   -8.7246894    569.91685  0.011966004  0.010899561            4 
 3970000   0.61109998    -8.741149    570.15096  0.011967904    0.0108956            3 
 3971000   0.60810573   -8.7413047    571.13573  0.011985556  0.010891645            4 
 3972000   0.60701938   -8.7305979    570.01036  0.011958928  0.010887691            2 
 3973000   0.60776125   -8.7333598    570.43571   0.01196484  0.010883738            2 
 3974000   0.62097797   -8.7327964    570.71953  0.011967781  0.010879782            2 
 3975000    0.5962403   -8.7397007    570.70977  0.011964565  0.010875835            1 
 3976000    0.6055491   -8.7254417    569.87838  0.011944131  0.010871889            2 
 3977000   0.60794269   -8.7246809    570.48166  0.011953769  0.010867943            2 
 3978000   0.61760338   -8.7438745    570.14521  0.011943716  0.010863999            2 
 3979000   0.62193171   -8.7471298    569.60706  0.011929443  0.010860061            1 
 3980000   0.61274609   -8.7190687    570.98625  0.011955323  0.010856119            2 
 3981000    0.6003638   -8.7565116    569.80463  0.011927586  0.010852179            2 
 3982000   0.60926492   -8.7410482    570.05701  0.011929872  0.010848239            2 
 3983000   0.61428361   -8.7266612    570.26713  0.011931273  0.010844301            2 
 3984000   0.61529027   -8.7610095    568.85208   0.01189868  0.010840362            3 
 3985000   0.61345212   -8.7311576    569.80409  0.011915602  0.010836426            1 
 3986000   0.60807103    -8.729876    570.19038  0.011920689  0.010832491            1 
 3987000   0.60691248   -8.7524168    570.18988  0.011917688  0.010828565            2 
 3988000   0.61629517   -8.7402143    570.77816  0.011926993  0.010824637            2 
 3989000   0.61579617   -8.7549633    569.97073  0.011907135  0.010820704            4 
 3990000   0.60297905   -8.7488924    569.99136  0.011904582  0.010816775            2 
 3991000   0.62497343   -8.7379988    571.26455  0.011928183  0.010812854            4 
 3992000   0.62118363   -8.7611619    570.89235  0.011917426  0.010808934            4 
 3993000   0.61428844   -8.7307997    570.48674  0.011905976  0.010805016            4 
 3994000    0.6040455   -8.7365325    570.43381   0.01190189  0.010801094            4 
 3995000   0.62008006   -8.7290569    571.47152  0.011920557  0.010797174            2 
 3996000   0.62094105   -8.7386087    571.21971  0.011912323  0.010793256            3 
 3997000   0.61609753   -8.7188191    570.65464  0.011897562  0.010789344            1 
 3998000   0.60215344   -8.7646476    570.02762  0.011881516  0.010785436            2 
 3999000   0.62450277   -8.7261471    570.75215  0.011893643  0.010781524            2 
 4000000   0.61353187   -8.7493154     570.5545  0.011886552  0.010777619            2 
 4001000   0.61216416   -8.7485468    570.08174  0.011873735   0.01077371            2 
 4002000    0.6042947   -8.7314127    570.43865    0.0118782  0.010769805            1 
 4003000   0.60287104   -8.7462486    570.22084  0.011870698  0.010765899            2 
 4004000   0.60558836   -8.7403248    569.84874  0.011859989  0.010761993            6 
 4005000   0.59568213   -8.7311005    570.40663  0.011868636  0.010758086           12 
 4006000   0.61450097   -8.7013747    570.47347  0.011867063  0.010754183            2 
 4007000   0.60579621   -8.7700045    569.18753  0.011837358  0.010750284            2 
 4008000   0.60549997   -8.7429102    570.44484  0.011860546  0.010746386            2 
 4009000   0.60140635    -8.738724    569.97768  0.011847877  0.010742492            3 
 4010000    0.6194856   -8.7389681     570.1522  0.011848549  0.010738602            2 
 4011000   0.60461488   -8.7407453    569.83065  0.011838915  0.010734712            2 
 4012000   0.60380305   -8.7255311     571.9604  0.011880201  0.010730823            3 
 4013000   0.60383616   -8.7333099    570.37718  0.011844364  0.010726932            1 
 4014000   0.61033733   -8.7563872    570.79849   0.01185016  0.010723056            3 
 4015000   0.60515696    -8.747884     570.2905  0.011836664  0.010719179            2 
 4016000   0.60547359   -8.7423726      569.773  0.011822979  0.010715302            4 
 4017000   0.60391104   -8.7350047     570.2388  0.011829699  0.010711426            2 
 4018000   0.60415655   -8.7475017     570.2753  0.011827512  0.010707548            4 
 4019000   0.60001102   -8.7363271    570.62509  0.011831822  0.010703672            5 
 4020000   0.62224984   -8.7377771    570.18159  0.011819685  0.010699799            3 
 4021000   0.61266418   -8.7296874    570.49449   0.01182323  0.010695927            3 
 4022000   0.58870451   -8.7358176    569.41753  0.011797976  0.010692055            3 
 4023000   0.60450775    -8.734111    570.11577  0.011809507  0.010688184            3 
 4024000   0.61867081   -8.7449185    569.75362  0.011799073   0.01068431            6 
 4025000   0.61305718   -8.7439743     571.8501  0.011839546  0.010680446            3 
 4026000   0.60472243   -8.7593664     569.7995  0.011794161  0.010676577            3 
 4027000    0.6255498   -8.7549825    569.77277  0.011790679  0.010672716            2 
 4028000   0.60576771   -8.7293982    570.19545  0.011796496  0.010668855            5 
 4029000   0.61376061   -8.7543295    570.21316  0.011793935     0.010665            6 
 4030000    0.6062238   -8.7355957    570.56482   0.01179828  0.010661145            3 
 4031000   0.60275222    -8.732927    570.42188  0.011792398  0.010657293            3 
 4032000   0.59878393   -8.7245036    571.14333  0.011804384  0.010653445            7 
 4033000   0.59730556   -8.7238063    570.64844  0.011791232  0.010649596            5 
 4034000   0.60897749   -8.7491887     570.4278  0.011783751  0.010645748            5 
 4035000   0.60832649   -8.7419132    571.16866  0.011796131  0.010641912            3 
 4036000   0.60521507   -8.7489552    569.99185   0.01176891  0.010638066            1 
 4037000   0.61231302   -8.7283753    571.06451  0.011788137  0.010634219            2 
 4038000   0.60379292   -8.7525897    570.28562  0.011769143  0.010630374            6 
 4039000   0.59691344   -8.7309881    570.63665  0.011773472   0.01062654            1 
 4040000   0.60147526    -8.732292    571.75868  0.011793702  0.010622709            4 
 4041000   0.59674993   -8.7370787    571.00837  0.011775311  0.010618883            3 
 4042000   0.60533915   -8.7285622    570.94844  0.011771162  0.010615051            3 
 4043000    0.6024523   -8.7567748    569.78901  0.011744353  0.010611225            4 
 4044000   0.59420777   -8.7430357    569.68878  0.011739383  0.010607394            2 
 4045000   0.60452937   -8.7511083    569.87715  0.011740362  0.010603566            4 
 4046000   0.63149498   -8.7437818    570.54843  0.011751286  0.010599739            3 
 4047000   0.60180423    -8.741031    570.72608   0.01175204  0.010595919            7 
 4048000   0.60507211   -8.7564107    570.95234  0.011753795  0.010592102            3 
 4049000    0.6003255   -8.7691639    570.19291  0.011735262  0.010588286            5 
 4050000   0.61158636   -8.7085603    570.79747  0.011744804  0.010584473            6 
 4051000   0.60836266   -8.7340019    571.85962  0.011763754  0.010580659            5 
 4052000   0.60676907   -8.7461584    570.68524  0.011736699  0.010576845            2 
 4053000   0.62310743   -8.7603918    569.13101  0.011701847  0.010573029            3 
 4054000    0.5985919   -8.7378982    570.72742  0.011731776  0.010569221            3 
 4055000    0.6138306   -8.7552575    571.09922  0.011736523  0.010565413            6 
 4056000   0.60109746   -8.7672508    570.55073  0.011722361  0.010561606            4 
 4057000   0.60317693   -8.7399312     570.3093  0.011714512  0.010557804            6 
 4058000   0.59682742   -8.7396922    570.71506  0.011719958  0.010554001            3 
 4059000   0.60815371   -8.7587246    569.73909  0.011697033  0.010550203            5 
 4060000   0.59192294   -8.7569404    570.35281  0.011706749  0.010546405            3 
 4061000   0.61129911   -8.7275945    569.84149  0.011693374  0.010542606            1 
 4062000   0.60295868   -8.7410919     570.8509  0.011711203  0.010538808            5 
 4063000   0.60626035   -8.7392423    570.71457  0.011705525  0.010535007            4 
 4064000   0.59871986   -8.7464981    569.97571  0.011687494   0.01053121            3 
 4065000    0.5947605    -8.736655    570.21956  0.011689618  0.010527418            3 
 4066000   0.58948655   -8.7421221     571.0223  0.011703195  0.010523629            2 
 4067000   0.59101728    -8.736926    571.14038  0.011702737  0.010519837            5 
 4068000   0.60638389   -8.7452212    569.94425  0.011675357  0.010516047            2 
 4069000   0.61330424   -8.7583466    568.84296  0.011649934  0.010512261            1 
 4070000   0.60870328   -8.7318065    570.67828   0.01168465  0.010508471            2 
 4071000   0.59843913     -8.74215    570.06355  0.011669196  0.010504687            5 
 4072000   0.59493337   -8.7486022    570.43801  0.011673993  0.010500905            3 
 4073000   0.58525403   -8.7607661    570.20911  0.011666444  0.010497122            2 
 4074000   0.60666216   -8.7487809    570.01688  0.011659648  0.010493343            3 
 4075000   0.59725746   -8.7563343     569.8349  0.011653065  0.010489566            2 
 4076000   0.59180383   -8.7590156    569.73096  0.011648081  0.010485784            1 
 4077000   0.59339883   -8.7610473      569.992   0.01165056  0.010482008            3 
 4078000   0.60420976   -8.7355979    571.09175  0.011670176  0.010478234            1 
 4079000   0.60056915   -8.7758979    569.36427  0.011632023  0.010474454            3 
 4080000   0.60452226   -8.7607357    569.56546  0.011633281  0.010470677            1 
 4081000   0.59280205   -8.7594093    569.60869  0.011631314  0.010466903            1 
 4082000   0.61047019   -8.7722664    570.53289  0.011647332  0.010463135            1 
 4083000   0.59777047   -8.7541986    570.39303  0.011641624  0.010459365            3 
 4084000   0.60902679   -8.7512254     569.3066  0.011616606  0.010455594            2 
 4085000   0.59357804   -8.7662113     569.5403  0.011618529  0.010451823            2 
 4086000   0.59005014    -8.757197    570.34153  0.011632027  0.010448055            1 
 4087000   0.59826616    -8.779578    570.32049  0.011628751  0.010444284            2 
 4088000   0.59611248   -8.7451144    571.40527   0.01164802  0.010440519            2 
 4089000   0.59402569   -8.7704219    570.14835  0.011619555  0.010436755            1 
 4090000   0.59140887   -8.7417389    570.11275  0.011615989  0.010432995            1 
 4091000   0.59204973   -8.7368309    569.71481  0.011605044  0.010429229            3 
 4092000   0.58909272   -8.7635741    570.78915  0.011624087  0.010425468            1 
 4093000   0.59308577   -8.7598499    570.19317  0.011609112  0.010421701            6 
 4094000   0.60217085   -8.7742474    569.53646   0.01159291  0.010417936            2 
 4095000   0.57986875   -8.7811019    569.60263  0.011591425  0.010414175            2 
 4096000   0.59731557   -8.7773323    569.07452  0.011577851  0.010410416            2 
 4097000   0.61625283   -8.7586743    569.92469  0.011592317  0.010406661            2 
 4098000   0.60192165   -8.7492755    570.19749  0.011595036  0.010402905            2 
 4099000   0.59840665   -8.7795338    569.95429  0.011587263  0.010399156            1 
 4100000    0.5979084   -8.7776445    570.10687  0.011587538  0.010395407            4 
 4101000   0.60536961   -8.7703249     569.2559  0.011567421  0.010391656            1 
 4102000   0.59482952   -8.7796002    569.85615  0.011576795  0.010387904            4 
 4103000   0.59454817   -8.7888002    570.00782  0.011577054  0.010384159            4 
 4104000   0.58686005   -8.7614319    569.62227  0.011566404  0.010380411            1 
 4105000    0.5876497   -8.7927976    569.20956  0.011555208  0.010376667            3 
 4106000   0.58982771   -8.7710612    569.02013  0.011548549  0.010372923            7 
 4107000   0.59219036   -8.7457594    570.16514   0.01156897  0.010369181            4 
 4108000   0.60114122   -8.7690745    569.21666  0.011546914  0.010365439            6 
 4109000   0.60049682   -8.7548144    568.85013   0.01153667  0.010361699            4 
 4110000   0.59666542   -8.7671779    570.48844  0.011567081  0.010357966            2 
 4111000   0.60132072   -8.7724101    569.79739  0.011550259  0.010354231            3 
 4112000   0.58738888   -8.7741206    569.64568  0.011544376  0.010350495            2 
 4113000   0.58680293   -8.7600397    569.54007  0.011539429  0.010346766            2 
 4114000   0.58385268   -8.8071283    568.41326    0.0115138  0.010343025            1 
 4115000   0.58441003   -8.7716066    568.60215  0.011514827  0.010339288            4 
 4116000   0.58174047   -8.7899588    569.53077   0.01153083  0.010335551            4 
 4117000   0.59522972   -8.7751865    570.12772  0.011540113  0.010331817            1 
 4118000   0.59053442   -8.7469373    569.69463  0.011528546  0.010328084            2 
 4119000   0.59567308    -8.785879    568.85902  0.011508842  0.010324355            2 
 4120000   0.59191729   -8.7845036    568.59746  0.011500758  0.010320629            4 
 4121000   0.60154442   -8.7822829    569.42506  0.011514702  0.010316901            3 
 4122000   0.59980686   -8.7821354    569.10094  0.011505356  0.010313177            3 
 4123000   0.58294966   -8.7890648    569.28451  0.011506276  0.010309454            2 
 4124000   0.59501834   -8.7871808    568.70892  0.011491855  0.010305728            4 
 4125000   0.57789045   -8.7920687    570.09668  0.011517105  0.010302011            2 
 4126000   0.58670851   -8.7710282    569.61056  0.011504495  0.010298291            3 
 4127000   0.57733669   -8.7962393    569.73619  0.011504244  0.010294574            2 
 4128000   0.58677151   -8.7670298    570.23302  0.011511487  0.010290865            2 
 4129000   0.58537462   -8.8014617     569.9081  0.011502141  0.010287152            5 
 4130000   0.58413695   -8.7928905    568.99186  0.011480869  0.010283446            1 
 4131000   0.60376788   -8.7868054    569.11415  0.011480557  0.010279738            3 
 4132000   0.59256877   -8.7992236    568.49039  0.011465198  0.010276028            4 
 4133000   0.58762448   -8.8012413    569.37988  0.011480359  0.010272326            2 
 4134000   0.58516493   -8.7850269    569.93339  0.011488739  0.010268623            7 
 4135000   0.59561242   -8.7921772    569.60274  0.011479298  0.010264922            3 
 4136000   0.58078045   -8.7796325    569.58748  0.011476214  0.010261224            9 
 4137000   0.58494953   -8.7890836    569.21234  0.011465884  0.010257531            6 
 4138000   0.58296588   -8.7846788     569.0815  0.011460478  0.010253835            8 
 4139000    0.5778713   -8.7797585    569.18131  0.011459719  0.010250139            8 
 4140000   0.59884806    -8.787806    569.26429  0.011458621  0.010246442            4 
 4141000   0.58637752   -8.7936648    570.03014  0.011471266  0.010242755            3 
 4142000   0.58696928   -8.7551635    569.87145  0.011465304  0.010239065            4 
 4143000   0.59149388   -8.7660467    569.40169  0.011453087  0.010235374            6 
 4144000   0.60038892   -8.7935482    568.52969  0.011432788  0.010231685            4 
 4145000   0.60146396   -8.7901744     569.3897   0.01144732  0.010228001            5 
 4146000   0.58954984   -8.8033915    569.64791  0.011449749  0.010224317            2 
 4147000   0.59436073   -8.7977023    568.36405  0.011421189  0.010220633            3 
 4148000   0.57639838   -8.7923108    569.48473   0.01144095  0.010216952            3 
 4149000   0.59140849   -8.7881909    569.98977  0.011448336  0.010213269            3 
 4150000    0.5820383   -8.7784494    569.19423  0.011429603  0.010209587            2 
 4151000   0.58201765   -8.7873567    567.93373  0.011401545  0.010205907            4 
 4152000   0.58313783   -8.7925359     569.0879  0.011421963  0.010202228            2 
 4153000     0.590316   -8.7585558    569.58785  0.011429245  0.010198553            8 
 4154000   0.57607327   -8.8095271    568.71345  0.011408952  0.010194878            6 
 4155000   0.60943306   -8.7937736    568.81799  0.011408303  0.010191204            3 
 4156000   0.58090393   -8.7952801    569.14988  0.011412213  0.010187535            8 
 4157000   0.58851337   -8.7841495     569.6924  0.011420343  0.010183865            6 
 4158000   0.60072206   -8.7853076    569.78072  0.011419367  0.010180197            4 
 4159000   0.58757407   -8.8056271    569.24807  0.011405948  0.010176529            4 
 4160000   0.59818424   -8.7976761    568.73805   0.01139299  0.010172867            6 
 4161000   0.59009791   -8.7889076    568.33926  0.011382265  0.010169202            6 
 4162000   0.58994205    -8.779995    568.33429  0.011379431   0.01016554            3 
 4163000   0.57316144   -8.7999291    568.30538  0.011376119   0.01016188            4 
 4164000   0.57028253   -8.7985732    569.13165  0.011389923  0.010158219            5 
 4165000   0.58059131   -8.8104153    569.55991  0.011395756   0.01015456            8 
 4166000    0.5843904   -8.7835379    569.56541  0.011393131  0.010150901            5 
 4167000     0.588832   -8.8177613    569.01496  0.011379389  0.010147243            8 
 4168000   0.58697933   -8.7819614    568.61441   0.01136865  0.010143593            7 
 4169000   0.58111959   -8.7875298    568.54728  0.011364581  0.010139939            8 
 4170000   0.58600884   -8.7881884    569.37906  0.011378478  0.010136292            8 
 4171000   0.57404332   -8.8065635    569.05927  0.011369361  0.010132641            2 
 4172000   0.58146277   -8.7867385    569.45948   0.01137463  0.010128995            6 
 4173000   0.58683715   -8.7984436    569.22569  0.011367236  0.010125357            7 
 4174000    0.5792614   -8.7769996     569.4588  0.011369166   0.01012172            3 
 4175000   0.57594959   -8.8153076    568.71669  0.011351631  0.010118082            5 
 4176000   0.58937793   -8.8066248    568.49022  0.011344393  0.010114444            5 
 4177000   0.58253678   -8.8144314    569.71045  0.011366021  0.010110806            5 
 4178000   0.58502851   -8.8014072    569.07209  0.011350568  0.010107167            3 
 4179000   0.57185591   -8.8166269    567.87429  0.011323967  0.010103529            5 
 4180000   0.60197989   -8.8032614    568.33365  0.011330416  0.010099895            5 
 4181000   0.58358306   -8.8044756    568.61761  0.011333365  0.010096264            2 
 4182000     0.584536   -8.7930803    568.18561  0.011322047  0.010092633            4 
 4183000     0.584437   -8.8155244    568.22855  0.011320196     0.010089            2 
 4184000   0.58071846    -8.790992    569.46728  0.011342162  0.010085369            4 
 4185000   0.58840752   -8.7783963    569.72681   0.01134462  0.010081745            3 
 4186000   0.58704892   -8.8026956    568.12457  0.011310013  0.010078122            1 
 4187000   0.59178567   -8.8170249    568.59303  0.011316635  0.010074498            4 
 4188000    0.5873558   -8.7973235    569.67784  0.011335519  0.010070876            8 
 4189000    0.5880147    -8.789521    568.28089  0.011305023  0.010067256            2 
 4190000   0.58129239     -8.82193    568.47089  0.011306104   0.01006364            2 
 4191000   0.59796899   -8.7975905    568.54259  0.011304832  0.010060021            8 
 4192000   0.58505286   -8.8173002    568.00965   0.01129154  0.010056404            2 
 4193000   0.58523394    -8.796982    569.99274   0.01132826  0.010052797            2 
 4194000   0.57736876   -8.8010045    567.88494  0.011283678  0.010049185            2 
 4195000   0.57526428   -8.7831437    568.81901  0.011299543  0.010045575            2 
 4196000   0.58322884    -8.797202    568.49839  0.011290483  0.010041971            8 
 4197000   0.59423145   -8.8027621    568.84451  0.011294665  0.010038365            5 
 4198000   0.58383836   -8.8198821     569.4589  0.011304171  0.010034764            3 
 4199000   0.58041035   -8.8040896    569.57849  0.011303852   0.01003116            4 
 4200000   0.58763972    -8.799547    568.94999   0.01128869   0.01002756            2 
 4201000   0.58184903   -8.7906097    569.18963  0.011290757  0.010023962            2 
 4202000   0.58134412   -8.8157829    569.05221  0.011285345  0.010020364            8 
 4203000    0.5784339   -8.7905085    569.18455  0.011285283  0.010016774            1 
 4204000   0.57186231   -8.7943872    569.04774  0.011279887  0.010013182            4 
 4205000   0.57085964   -8.8102977    568.89516  0.011274181  0.010009592            3 
 4206000   0.58535205   -8.8207535    568.16181   0.01125697  0.010005999           10 
 4207000   0.57580731   -8.8191364    568.05207  0.011252121  0.010002412            3 
 4208000   0.59242791   -8.8068869    569.86657   0.01128538 0.0099988245            3 
 4209000   0.57265036   -8.8066534    569.08327  0.011267191 0.0099952373            5 
 4210000   0.57631156   -8.8150887    569.00881   0.01126304 0.0099916548            6 
 4211000    0.5738757   -8.7788035    568.09047  0.011242192 0.0099880712            6 
 4212000   0.57441099   -8.7959639    569.13393  0.011260168 0.0099844881            5 
 4213000   0.58366032   -8.8185482    568.29218  0.011240845 0.0099809117            1 
 4214000   0.57409946   -8.8037096    569.79945  0.011267985 0.0099773378            5 
 4215000   0.57757951   -8.7779183    569.13957  0.011252265 0.0099737615            6 
 4216000   0.57778161     -8.80414    567.31903  0.011213611 0.0099701896            5 
 4217000   0.56799105   -8.8126244    569.31364  0.011250368 0.0099666183           10 
 4218000   0.58430786   -8.8187347    568.77563  0.011237072 0.0099630487            3 
 4219000   0.57275488   -8.8154973    568.34018  0.011225807 0.0099594772           10 
 4220000   0.58504235   -8.7987483    569.06123  0.011237386 0.0099559067           14 
 4221000   0.57747918   -8.8151519    569.70815  0.011247496 0.0099523422           12 
 4222000    0.5792246   -8.7971582    569.62728  0.011243235 0.0099487764            7 
 4223000   0.57688817   -8.8109708    568.05638  0.011209574 0.0099452141            7 
 4224000   0.58474698   -8.8186775    568.47583  0.011215195 0.0099416512           12 
 4225000    0.5857966   -8.8015093     568.4385  0.011211805 0.0099380881           11 
 4226000   0.58689831   -8.7876805    568.83648     0.011217  0.009934529            7 
 4227000   0.57619723   -8.8128515    568.58484  0.011209385 0.0099309706            8 
 4228000   0.58722937   -8.8220826    567.85239  0.011192297 0.0099274122            9 
 4229000   0.57326752   -8.7986186    568.30476  0.011198565  0.009923858            5 
 4230000   0.57235809   -8.7943729    569.37961  0.011217092 0.0099203087            7 
 4231000   0.57500344   -8.8107036    569.28592  0.011212596 0.0099167541            6 
 4232000   0.57036068   -8.8339792     568.3104  0.011190737 0.0099132039            9 
 4233000   0.56200093   -8.7980047    568.85289  0.011198773 0.0099096513           11 
 4234000   0.55871901   -8.8276676    568.26831  0.011184623  0.009906103            9 
 4235000   0.57155212   -8.7966275    568.57599  0.011188036 0.0099025578            7 
 4236000   0.57536285   -8.8063176    568.71292  0.011188089 0.0098990105            5 
 4237000   0.58065261   -8.7997316    569.43714  0.011199692 0.0098954672            5 
 4238000   0.56722766   -8.7954578    568.67803  0.011182123 0.0098919239            1 
 4239000   0.56932079   -8.8123511    568.28918   0.01117184 0.0098883812           15 
 4240000    0.5728465   -8.7991351    567.86218  0.011160813 0.0098848397            5 
 4241000   0.56380522   -8.8198153    568.93601  0.011179282 0.0098813018            6 
 4242000   0.58018137   -8.8202976     568.5199  0.011168472 0.0098777681            5 
 4243000   0.55960283   -8.7900261    568.27972  0.011161123  0.009874231           10 
 4244000   0.56791947   -8.8002376     569.0096  0.011172824 0.0098707003            8 
 4245000     0.576387    -8.793949     568.6062  0.011162273  0.009867172           11 
 4246000   0.55740611   -8.7948439    568.59299  0.011159385 0.0098636418            3 
 4247000   0.55585301   -8.8030161    569.32162  0.011171054 0.0098601143           10 
 4248000    0.5900358   -8.8114533    568.80495  0.011158289 0.0098565866           11 
 4249000   0.57306271   -8.8075525    568.46983  0.011149091  0.009853059           10 
 4250000   0.56513448    -8.831364    568.98632  0.011156595 0.0098495317            9 
 4251000   0.57649304   -8.8306906    567.65191  0.011127811 0.0098460059           10 
 4252000   0.56027418   -8.8164899    568.68878  0.011145515 0.0098424824            7 
 4253000   0.58043889   -8.8112415    568.26604  0.011134612 0.0098389636            6 
 4254000    0.5749038   -8.8106809    567.37991  0.011114636 0.0098354471            9 
 4255000   0.57766811   -8.8069033    568.51961  0.011134344 0.0098319311            9 
 4256000   0.56693501   -8.8311119    568.19187  0.011125311 0.0098284133            7 
 4257000   0.57734892   -8.8301265    568.64038  0.011131477 0.0098249008            6 
 4258000   0.56681314   -8.7980038    568.28354  0.011121879 0.0098213897            9 
 4259000   0.55928257   -8.8072876    568.18658  0.011117371 0.0098178814            8 
 4260000   0.56825065   -8.8165319     568.1683  0.011114403 0.0098143721            4 
 4261000   0.56424859   -8.8139531    567.05106  0.011089945 0.0098108626           12 
 4262000   0.57026864    -8.815578    569.02768  0.011125991 0.0098073528           12 
 4263000   0.56282375    -8.795602    567.99357  0.011103166 0.0098038475           13 
 4264000    0.5737442   -8.8144912    568.48903  0.011110245 0.0098003437           11 
 4265000   0.57668506    -8.806947    569.59844  0.011129317 0.0097968401           13 
 4266000   0.56873254   -8.8079529    568.07041  0.011096859 0.0097933431            5 
 4267000   0.57130927   -8.8282308    568.89299  0.011110323 0.0097898421            5 
 4268000    0.5632169   -8.8042729     569.5463  0.011120476 0.0097863474            5 
 4269000   0.58130696   -8.8311699    568.11334  0.011089899  0.009782846           10 
 4270000   0.56738655   -8.8167379    568.04692  0.011086006 0.0097793515            4 
 4271000   0.57781847   -8.8261397     568.9894  0.011101799 0.0097758586            6 
 4272000   0.56707185   -8.8275952    567.99878  0.011079876  0.009772367            9 
 4273000   0.57077104   -8.8336548    566.67007   0.01105137 0.0097688783            8 
 4274000   0.57673595   -8.8175506    568.18594  0.011078341 0.0097653898            6 
 4275000   0.56873954    -8.832161    568.29901  0.011077953 0.0097619018           10 
 4276000   0.57067187   -8.8362764    568.60301  0.011081287 0.0097584105            8 
 4277000   0.56104989    -8.840751    568.16333   0.01107013 0.0097549258            8 
 4278000   0.56715387   -8.8257326    568.17613  0.011067791 0.0097514391           10 
 4279000    0.5791816   -8.8320464    567.96263  0.011061047 0.0097479555           12 
 4280000   0.57547584   -8.8091534    568.42509  0.011067467 0.0097444713           10 
 4281000   0.56746759   -8.8245153    568.12587  0.011059057 0.0097409922            8 
 4282000    0.5726417   -8.8230613    568.23266  0.011058552 0.0097375122            5 
 4283000   0.56941203    -8.826673    568.77955  0.011066611 0.0097340332            9 
 4284000   0.57399298   -8.8294495    568.38252  0.011056305 0.0097305528            5 
 4285000    0.5739797   -8.8164083    568.30684  0.011052253 0.0097270758            8 
 4286000   0.56276277    -8.822694    568.00667  0.011043838 0.0097236047            4 
 4287000    0.5716926   -8.8270449    567.54413  0.011032271 0.0097201324           11 
 4288000   0.57718331   -8.8177743     569.5301  0.011068293 0.0097166606            6 
 4289000    0.5787586   -8.8298256    567.67972  0.011029761 0.0097131931           10 
 4290000   0.57492098   -8.8280757    568.16744  0.011036664 0.0097097218            2 
 4291000   0.57077678   -8.8369471    568.08312  0.011032454  0.009706252            8 
 4292000   0.56085462   -8.8600946    567.58987  0.011020307  0.009702784            9 
 4293000   0.55479675   -8.8175985    567.63945  0.011018702 0.0096993139            6 
 4294000    0.5699216     -8.83748    569.26627  0.011047708 0.0096958499           10 
 4295000   0.55922226   -8.8235026    568.10304  0.011022566 0.0096923869           11 
 4296000   0.57435527   -8.8293172    567.45451   0.01100742  0.009688929           10 
 4297000   0.56783702   -8.8414068    568.55858   0.01102627 0.0096854689            6 
 4298000   0.56424671   -8.8256732    568.40405  0.011020708 0.0096820123            3 
 4299000   0.56455518   -8.8376526    568.80138  0.011025847 0.0096785569            2 
 4300000   0.56919187   -8.8327213    568.46924  0.011016846 0.0096751017            9 
 4301000   0.56280202   -8.8242253    567.89169  0.011003094 0.0096716534            4 
 4302000   0.56730651   -8.8308834    567.52925  0.010993516 0.0096682054            5 
 4303000   0.57103642   -8.8403434    568.41069  0.011008031 0.0096647598            7 
 4304000   0.56033268    -8.843783    568.74457  0.011011938 0.0096613127            6 
 4305000   0.55880251   -8.8102769    568.42718  0.011003236 0.0096578726           11 
 4306000   0.57036146    -8.825686    568.00593  0.010992528 0.0096544336            7 
 4307000   0.55588479   -8.8171619    568.15524  0.010992865 0.0096509932            8 
 4308000   0.55546035   -8.8305458    568.05046  0.010988286 0.0096475583            8 
 4309000   0.56383553   -8.8364095    567.78813  0.010980663 0.0096441248           11 
 4310000   0.56703403   -8.8345583    568.06717  0.010983511 0.0096406865           11 
 4311000   0.57357903   -8.8251209    568.16739    0.0109829 0.0096372494            2 
 4312000   0.56710993   -8.8154715    568.62343  0.010989166 0.0096338172            8 
 4313000   0.55475522   -8.8302181    567.91912   0.01097301 0.0096303873            7 
 4314000   0.55145544   -8.8487012    567.66849  0.010965625 0.0096269587           10 
 4315000   0.56490228   -8.8424024    567.97225   0.01096895 0.0096235311            6 
 4316000   0.56840521   -8.8620198    567.65813  0.010960344 0.0096201033            8 
 4317000   0.56383906   -8.8444489    567.80473  0.010960635  0.009616674            7 
 4318000   0.55523841   -8.8336648    567.52217  0.010952643 0.0096132481            8 
 4319000   0.55357786   -8.8496774    568.26516  0.010964443 0.0096098247            7 
 4320000   0.55650582   -8.8472499    567.68162  0.010950648 0.0096064024            3 
 4321000   0.54753616   -8.8258434    568.27239  0.010959508 0.0096029852           11 
 4322000   0.56473338   -8.8106359    567.86736  0.010949162 0.0095995678            7 
 4323000   0.55934278   -8.8498235    568.29613  0.010954895 0.0095961526            4 
 4324000   0.55443103   -8.8234827    568.19759  0.010950462  0.009592737            4 
 4325000   0.54981939   -8.8265678    568.78737  0.010959294 0.0095893219            5 
 4326000   0.55287352   -8.8248702    568.77015  0.010956429 0.0095859097            7 
 4327000   0.55992792   -8.8362993    567.32745  0.010926112 0.0095825021            6 
 4328000   0.56441211   -8.8411051     566.7541  0.010912548 0.0095790927            3 
 4329000   0.55386312   -8.8446055    567.84624  0.010931051 0.0095756811           15 
 4330000   0.55678369   -8.8338114    566.52858  0.010903167 0.0095722726            6 
 4331000   0.55651086   -8.8359223    567.97636  0.010928507 0.0095688689            4 
 4332000   0.56381131   -8.8368109    568.33685  0.010932919 0.0095654621            2 
 4333000   0.55823466   -8.8431553    567.87163  0.010921448 0.0095620598           10 
 4334000   0.55909277   -8.8320975     568.2964  0.010927096 0.0095586601           10 
 4335000   0.55597686   -8.8404288    567.38415  0.010907039 0.0095552608            7 
 4336000   0.55167351   -8.8415074    567.47964  0.010906358 0.0095518548           10 
 4337000   0.56494727    -8.835143    567.15737  0.010897651 0.0095484558            6 
 4338000   0.55889283   -8.8435608    567.58653  0.010903383 0.0095450571           12 
 4339000   0.55045347   -8.8484271    568.30655  0.010914699 0.0095416596            4 
 4340000   0.55188746   -8.8384624     567.3787  0.010894368 0.0095382664           10 
 4341000   0.56436376   -8.8437296    567.12221  0.010886935 0.0095348739            5 
 4342000   0.54999185   -8.8679491    567.55677  0.010892768 0.0095314827           11 
 4343000   0.55358283   -8.8479123    567.83472  0.010895593 0.0095280925            4 
 4344000   0.56140831   -8.8585033    569.07768  0.010916929 0.0095247044            3 
 4345000   0.54612584   -8.8248713    567.76299  0.010889202 0.0095213156            4 
 4346000   0.56147822   -8.8411757    568.40854  0.010899075 0.0095179297            2 
 4347000   0.55196039   -8.8334243    568.24578  0.010893447 0.0095145478            7 
 4348000   0.55017431   -8.8411061    567.54621  0.010877534  0.009511164           11 
 4349000    0.5539106   -8.8319757    567.93149  0.010882415 0.0095077817            6 
 4350000   0.55048916   -8.8369617    568.22623   0.01088556 0.0095044033            5 
 4351000   0.56360109     -8.85428    568.04905  0.010879665 0.0095010232            2 
 4352000   0.55438125   -8.8342191    567.13235  0.010859612 0.0094976458            9 
 4353000   0.55441109    -8.848105    568.06012  0.010874878  0.009494269            3 
 4354000   0.56109711   -8.8230472    568.28434  0.010876672 0.0094908934            3 
 4355000   0.55360858   -8.8448571    568.08408  0.010870342 0.0094875181            9 
 4356000   0.55366619   -8.8516944    568.31475   0.01087226  0.009484145            5 
 4357000   0.55214298   -8.8311098    569.01963  0.010883246 0.0094807769            7 
 4358000   0.57193363   -8.8502584    566.78909  0.010838096  0.009477406            7 
 4359000   0.55161274   -8.8642538    568.05967    0.0108599 0.0094740334           10 
 4360000   0.54644837   -8.8430776    567.93702  0.010855065 0.0094706638           10 
 4361000   0.55651939   -8.8282156    566.88693   0.01083251 0.0094672988            4 
 4362000   0.56475092   -8.8583874    567.87406  0.010848885 0.0094639342            9 
 4363000   0.55667204   -8.8419949    567.18942  0.010833322 0.0094605712            6 
 4364000   0.56164869   -8.8659349    567.45665  0.010835943 0.0094572091            8 
 4365000   0.55383979   -8.8556655    568.48046  0.010853006 0.0094538445            5 
 4366000   0.55440581   -8.8582821    567.60043  0.010833723 0.0094504831            5 
 4367000    0.5521165   -8.8356269    567.36593  0.010826768 0.0094471188            9 
 4368000   0.55731734   -8.8616931    567.97894  0.010835984 0.0094437578           11 
 4369000   0.54568438   -8.8615112    567.37009  0.010821891 0.0094404001            9 
 4370000   0.54242125   -8.8565003     567.6728  0.010825187 0.0094370427            7 
 4371000    0.5409429   -8.8392904    568.33591  0.010835353 0.0094336895            3 
 4372000    0.5649199   -8.8586462    567.22075  0.010811618 0.0094303381            8 
 4373000   0.56498496   -8.8359651    568.01677  0.010824315 0.0094269906            3 
 4374000   0.55646247   -8.8691875     567.7602  0.010816952 0.0094236468            6 
 4375000   0.54630565   -8.8303648    567.80515  0.010815336 0.0094203014            5 
 4376000    0.5548259     -8.85366    567.83982  0.010813525 0.0094169542            8 
 4377000   0.55526647   -8.8514014    567.42802  0.010803214 0.0094136112            4 
 4378000   0.54289572   -8.8512924    567.35071  0.010799275 0.0094102703            9 
 4379000   0.54723993   -8.8705079    567.60235  0.010801598 0.0094069317            6 
 4380000   0.54001149   -8.8604412    566.74399    0.0107828 0.0094035908            6 
 4381000   0.55167068   -8.8532314    567.13174  0.010787715  0.009400253            6 
 4382000     0.553672   -8.8564688    568.04062  0.010802537 0.0093969171            5 
 4383000   0.54516406   -8.8444429    566.50264  0.010770831 0.0093935805            8 
 4384000   0.55557183   -8.8447951    567.43374  0.010786073 0.0093902472            4 
 4385000   0.56294415   -8.8580548    566.51193  0.010766095 0.0093869132            3 
 4386000   0.55489675   -8.8699251    567.14543  0.010775677 0.0093835826            7 
 4387000   0.53698601    -8.851266    566.95412  0.010769587  0.009380256            7 
 4388000   0.54692235   -8.8644724    567.94197  0.010785893 0.0093769281            6 
 4389000   0.55724562   -8.8645011     567.4546  0.010774182 0.0093736023            4 
 4390000   0.54163122   -8.8516758    567.95156  0.010781161  0.009370278            4 
 4391000   0.54860121   -8.8593264    567.24023  0.010765206 0.0093669585            8 
 4392000   0.56267724    -8.870465     567.5831   0.01076926 0.0093636405            8 
 4393000   0.55400541   -8.8533065    567.06105  0.010756906 0.0093603201            5 
 4394000   0.55518462   -8.8602597    567.75423  0.010767604 0.0093570033            6 
 4395000   0.54843764   -8.8635304    567.15134  0.010753723 0.0093536856            4 
 4396000   0.55417148   -8.8561448    567.96406  0.010766683 0.0093503687            2 
 4397000   0.54425946   -8.8510474    567.21955  0.010750124 0.0093470549            9 
 4398000   0.53544201   -8.8574679    566.60379  0.010736012 0.0093437406           12 
 4399000   0.54287406   -8.8478303    567.96703  0.010759397 0.0093404285            4 
 4400000   0.54412468     -8.86525    567.43063  0.010746792 0.0093371188            9 
 4401000   0.55037681   -8.8533138    568.79275  0.010770142 0.0093338142            5 
 4402000   0.55213519   -8.8831938    568.06913  0.010753997 0.0093305109            1 
 4403000   0.54689074   -8.8704582    566.75894  0.010726757 0.0093272064           11 
 4404000   0.53636083   -8.8492082    566.93019  0.010727562 0.0093239051            8 
 4405000   0.54900585   -8.8513068    568.06874  0.010746665 0.0093206026            8 
 4406000   0.55652864   -8.8526683    566.75956  0.010719465 0.0093172965            2 
 4407000   0.55124806   -8.8535351    567.73171  0.010735415 0.0093139985           10 
 4408000   0.54495413    -8.853922    567.42746  0.010727228 0.0093106999            6 
 4409000   0.54847441   -8.8667717    566.82582  0.010713424 0.0093074022            7 
 4410000   0.54347679   -8.8789311    567.20889  0.010718233 0.0093041046            7 
 4411000   0.55233586   -8.8789224    565.96501  0.010692303 0.0093008045           12 
 4412000   0.54222895   -8.8740882    567.01205  0.010709656 0.0092975083            5 
 4413000   0.53777676   -8.8694692    568.05788  0.010726979 0.0092942157            3 
 4414000   0.55257575   -8.8577169     567.5188  0.010714371 0.0092909237            9 
 4415000   0.55656026   -8.8606894    567.18928  0.010705724 0.0092876347            7 
 4416000    0.5405885   -8.8610183    567.24882  0.010704424 0.0092843419            8 
 4417000   0.53890686   -8.8639515    567.34172  0.010703753 0.0092810574            4 
 4418000   0.55780413   -8.8623407    567.38568  0.010702159 0.0092777717           12 
 4419000   0.54422557   -8.8517364     566.8803  0.010690207 0.0092744874            8 
 4420000   0.53862443   -8.8764974    565.98619  0.010670931 0.0092712014           13 
 4421000   0.53471279   -8.8722188    566.94369  0.010686566 0.0092679196            4 
 4422000   0.55216728   -8.8774938    566.34413   0.01067285 0.0092646381            9 
 4423000   0.54711428   -8.8790074    567.93925  0.010700491 0.0092613577            7 
 4424000   0.53872412   -8.8688683    566.80593  0.010676724 0.0092580824           11 
 4425000   0.54923487   -8.8764185    566.84416  0.010675031 0.0092548045            2 
 4426000   0.54637535   -8.8812082    566.34955  0.010663307 0.0092515251           10 
 4427000    0.5423697   -8.8650516    567.42022  0.010681052 0.0092482497            6 
 4428000   0.53377758   -8.8453713    566.78556  0.010666696 0.0092449739            4 
 4429000    0.5440037   -8.8728087    567.09501   0.01067011 0.0092417051            3 
 4430000   0.54257887   -8.8642656     567.3007  0.010671571  0.009238435            4 
 4431000   0.55401809   -8.8624661    566.62333  0.010656423 0.0092351678            2 
 4432000   0.54681286   -8.8741944    566.95572  0.010660269  0.009231899            2 
 4433000   0.54823046   -8.8865679    567.54344  0.010668912 0.0092286326            6 
 4434000   0.52577155   -8.8688226    566.70835  0.010650811 0.0092253685            4 
 4435000   0.54153039     -8.86669    567.03584  0.010654563 0.0092221079            7 
 4436000   0.54253609   -8.8666773    568.27304  0.010675403 0.0092188477            1 
 4437000   0.54326432   -8.8444146    567.63958  0.010661099  0.009215587            8 
 4438000   0.54264342    -8.865147    567.69178  0.010659677 0.0092123289            7 
 4439000   0.53968993   -8.8572958    566.45286  0.010634018 0.0092090738            9 
 4440000    0.5495166   -8.8578991    566.03878  0.010623851  0.009205819            8 
 4441000   0.54382311   -8.8677198    566.30343  0.010626425 0.0092025645           12 
 4442000   0.54211256   -8.8612142    566.63982  0.010630343 0.0091993145            6 
 4443000   0.54270183   -8.8649532    566.12571  0.010618308 0.0091960622            8 
 4444000   0.55614521   -8.8763681    567.78361  0.010647007 0.0091928169            7 
 4445000   0.54442101   -8.8707487    567.23134  0.010634258 0.0091895711            7 
 4446000   0.53684868   -8.8688344      566.371  0.010615741 0.0091863248            4 
 4447000   0.54915583    -8.891152    566.69443  0.010619414 0.0091830812            7 
 4448000   0.53750865   -8.8736445    567.23001  0.010627061 0.0091798379            3 
 4449000   0.54675949   -8.8568336    566.42606  0.010609614 0.0091765957            6 
 4450000   0.55079875   -8.8804286    566.97786  0.010617563 0.0091733544            6 
 4451000   0.54165388   -8.8761423    567.31188  0.010621431 0.0091701164            9 
 4452000   0.54376316   -8.8862949    566.08822  0.010596141 0.0091668758            4 
 4453000   0.53983873   -8.8779505    566.93077  0.010609529 0.0091636371           10 
 4454000   0.53032056   -8.8688135    566.90529   0.01060667 0.0091603958            3 
 4455000   0.53102178   -8.8736463    567.57704  0.010616855 0.0091571583            5 
 4456000   0.53314173   -8.8642513    567.25211  0.010608395 0.0091539232            6 
 4457000   0.54092504   -8.8719355    567.92055  0.010618513  0.009150691            7 
 4458000   0.53786089   -8.8842253    566.51898  0.010589932 0.0091474598            8 
 4459000   0.52459479   -8.8726482    566.31641  0.010583771 0.0091442267            9 
 4460000   0.54540616   -8.8798405    566.52206   0.01058524  0.009140995            7 
 4461000   0.53881187   -8.8811735    566.15017   0.01057592 0.0091377667            4 
 4462000   0.53198851   -8.8764519    566.95397  0.010588562 0.0091345422            6 
 4463000   0.53073665   -8.8807177    566.11878  0.010570595 0.0091313136            6 
 4464000   0.52882712   -8.8721957    567.21534  0.010588697 0.0091280927            4 
 4465000   0.53203143   -8.8862598    566.70158  0.010576737 0.0091248715            6 
 4466000    0.5496737   -8.8773657    566.79565  0.010576124  0.009121647            4 
 4467000   0.53479881   -8.8978383    566.42007   0.01056675 0.0091184272           11 
 4468000   0.54053747   -8.8820471    566.51899   0.01056623 0.0091152046            6 
 4469000   0.54917118    -8.881008    566.84256  0.010569899 0.0091119903           10 
 4470000   0.54018837   -8.8836577    566.57993  0.010562639 0.0091087792           11 
 4471000   0.53775494   -8.8793546    565.98572  0.010549201 0.0091055677            7 
 4472000   0.54184337   -8.8715906    567.13301  0.010568221 0.0091023581            6 
 4473000   0.52543243   -8.8859062    566.98631  0.010563125 0.0090991508           10 
 4474000   0.53757961   -8.9007715    566.33562  0.010548644 0.0090959418            8 
 4475000   0.52756951    -8.865641    566.88833   0.01055658 0.0090927369            4 
 4476000   0.53191582   -8.8703218    567.13152  0.010558749 0.0090895322            6 
 4477000   0.54002757   -8.8758263    566.65364  0.010547495 0.0090863311            5 
 4478000   0.52451677   -8.8847756    566.89109  0.010549559 0.0090831262            6 
 4479000   0.53422564    -8.900331    565.90358   0.01052883 0.0090799203           12 
 4480000   0.54836117   -8.8911321     567.8272  0.010562262 0.0090767186            4 
 4481000   0.53760878   -8.8693194    566.47064  0.010534677 0.0090735168            7 
 4482000   0.54079729   -8.8926174    566.53413  0.010533507 0.0090703199            5 
 4483000   0.52359631    -8.900484      565.574   0.01051331 0.0090671234           10 
 4484000   0.52957833   -8.9051886    565.88516  0.010516748 0.0090639278            6 
 4485000   0.53483889   -8.8935684    565.89553  0.010514595 0.0090607354            7 
 4486000   0.52150678   -8.8843875    566.69477  0.010527099 0.0090575403            4 
 4487000   0.54050483   -8.8984104    566.28303  0.010517105 0.0090543484           16 
 4488000   0.53703168   -8.8867933    566.93108  0.010526795 0.0090511573            6 
 4489000   0.54007646   -8.8706616    566.40176  0.010514624   0.00904797            9 
 4490000   0.52292443   -8.8775076    566.54818     0.010515 0.0090447828            8 
 4491000    0.5413695   -8.8933242    566.77164  0.010516805 0.0090415996            4 
 4492000   0.52504181   -8.8768197     566.9791  0.010518312 0.0090384143            2 
 4493000   0.53180534   -8.8927352    565.84767  0.010494986 0.0090352283            7 
 4494000   0.53142805   -8.8738142    566.33896  0.010501761 0.0090320436           10 
 4495000   0.53725949   -8.8847527    566.96845  0.010511095 0.0090288638            7 
 4496000   0.54340497   -8.8852512    566.89542  0.010507403 0.0090256836           11 
 4497000   0.53718354   -8.8954475    566.63243  0.010500193 0.0090225046            8 
 4498000   0.53864359   -8.8931462    566.16658  0.010489228 0.0090193314           12 
 4499000   0.52719109   -8.9052468    566.33635  0.010490041 0.0090161573            5 
 4500000   0.54853343   -8.8897065    565.85915  0.010478873  0.009012984            4 
 4501000   0.52872792   -8.9016822    567.09739   0.01049947 0.0090098125            6 
 4502000   0.53534687   -8.9043853    566.06428  0.010478015 0.0090066398            3 
 4503000   0.52831398   -8.8852239    566.44486  0.010482731 0.0090034688            7 
 4504000   0.54349993   -8.8908717    565.74112  0.010467383 0.0090002982            9 
 4505000   0.52642989   -8.8822244    565.90485  0.010468088  0.008997131            4 
 4506000   0.52152768   -8.9023195    566.23468  0.010471865 0.0089939637            7 
 4507000   0.53519731   -8.8896863    565.37657  0.010453675 0.0089907993            6 
 4508000   0.52427415   -8.8930131    566.75456  0.010476829 0.0089876338            6 
 4509000   0.52256957   -8.8815555    566.64305  0.010472445 0.0089844729            8 
 4510000   0.52546738   -8.8929434    566.45643  0.010466675 0.0089813122            6 
 4511000   0.53359557   -8.9024389    565.86278  0.010453388 0.0089781502           12 
 4512000   0.52785472   -8.8997513    565.83172  0.010450497 0.0089749913           13 
 4513000   0.52690124   -8.9069888    566.33073  0.010457396 0.0089718366            8 
 4514000   0.51976943   -8.8987314    565.97329   0.01044848 0.0089686802            6 
 4515000   0.52002354   -8.8809967    567.12436  0.010467412  0.008965526            8 
 4516000   0.52070415   -8.9034881    566.09064  0.010446019 0.0089623717            8 
 4517000   0.51611161    -8.897652    567.28824    0.0104658 0.0089592183            8 
 4518000   0.52579029   -8.8939074    566.67596  0.010452191 0.0089560667            7 
 4519000   0.52908105   -8.8959668    565.09008  0.010420633 0.0089529173            6 
 4520000   0.53721401   -8.8977406    566.45686  0.010443526 0.0089497719            5 
 4521000   0.53135145   -8.9002827    565.74512  0.010428097 0.0089466282            6 
 4522000   0.52964989    -8.887654    565.98731  0.010430254 0.0089434835            5 
 4523000   0.53457952   -8.8926017    566.19157  0.010431711 0.0089403397            4 
 4524000   0.52950633   -8.8915625    566.71953  0.010439131 0.0089371994            5 
 4525000   0.52671302   -8.8729319    566.00809  0.010423722 0.0089340602            4 
 4526000   0.53437601    -8.888422    566.43082  0.010429202 0.0089309191            4 
 4527000   0.52792571    -8.879869    566.51334  0.010428417 0.0089277816            5 
 4528000   0.53807241   -8.8971269    566.06072  0.010417784 0.0089246446            6 
 4529000   0.51170335   -8.8973662    565.87085   0.01041199  0.008921506            3 
 4530000   0.51641982   -8.9093527    565.79041  0.010408212 0.0089183727            5 
 4531000   0.51608027    -8.911371    566.41027  0.010417315 0.0089152418            6 
 4532000    0.5298002    -8.911143    565.94454  0.010406453 0.0089121114            5 
 4533000   0.51607837   -8.8908359    565.49985  0.010395982 0.0089089837            4 
 4534000   0.51380473   -8.8962168    566.27314  0.010407902 0.0089058532            6 
 4535000     0.520551   -8.9021878    566.21168  0.010404478 0.0089027266            8 
 4536000   0.52882721   -8.9126965    565.51556  0.010389395 0.0088996008           10 
 4537000   0.51722527   -8.9125094    566.66069  0.010408138 0.0088964771            6 
 4538000   0.53728445   -8.9034747    566.67573  0.010406121 0.0088933541            5 
 4539000   0.52816329    -8.901242    566.69654  0.010404211 0.0088902334            7 
 4540000   0.52971493   -8.8869221     566.7434  0.010402779 0.0088871141            5 
 4541000   0.53413196   -8.9005002    565.95442  0.010386009 0.0088839952            7 
 4542000   0.53646555   -8.8940947    565.95441  0.010383722 0.0088808809            5 
 4543000   0.51823023   -8.8883136    566.21435  0.010386205 0.0088777646            5 
 4544000   0.52385546   -8.8921165    566.19576  0.010383578  0.008874648            4 
 4545000   0.53152989   -8.8691352    565.89502   0.01037578 0.0088715352            7 
 4546000     0.519207   -8.9044183    566.04072  0.010376168 0.0088684248            6 
 4547000    0.5297589   -8.8939197    565.16984  0.010357925 0.0088653141            5 
 4548000   0.52493797   -8.9058604    565.52115  0.010362085 0.0088622025            7 
 4549000   0.52612841   -8.8830694    566.19274   0.01037211 0.0088590959            5 
 4550000   0.51514316   -8.9063003    566.47188  0.010374943   0.00885599            7 
 4551000   0.53228509   -8.8977661    565.79828  0.010360329 0.0088528833            6 
 4552000   0.52282356   -8.8944346     566.1491  0.010364475 0.0088497821            7 
 4553000   0.52242111   -8.9061154    565.99871  0.010359446 0.0088466814            5 
 4554000   0.52687871   -8.8974613    565.14706  0.010341587 0.0088435782            8 
 4555000   0.52011254   -8.9008904    565.87103  0.010352562 0.0088404781            4 
 4556000   0.53556346   -8.8890654    566.21817  0.010356639 0.0088373752            4 
 4557000   0.52330328   -8.8999524     566.0399  0.010351106 0.0088342755            7 
 4558000   0.52718267   -8.8893025    565.90478  0.010346365 0.0088311812            6 
 4559000   0.51575319   -8.9002525     565.5608  0.010337808 0.0088280867            9 
 4560000   0.52309989   -8.9051195    565.96246  0.010342881 0.0088249943            7 
 4561000   0.51147099   -8.8937288    565.86327  0.010338801 0.0088219025            4 
 4562000   0.53521771   -8.9107558     566.2974  0.010344465 0.0088188125            3 
 4563000   0.53241529   -8.8876724    566.61709  0.010348037 0.0088157287            7 
 4564000   0.52702202   -8.8937418     566.6264  0.010345939 0.0088126444            6 
 4565000   0.51932031   -8.9166613    566.15654  0.010335096 0.0088095597            7 
 4566000   0.52196011   -8.9165622    566.25959  0.010334713  0.008806473            6 
 4567000   0.52046761   -8.9254606    565.44024  0.010317499 0.0088033904           11 
 4568000   0.52288656   -8.9120784    566.19872  0.010329078 0.0088003087            8 
 4569000    0.5221596   -8.9029742    565.03008  0.010305502 0.0087972277            6 
 4570000   0.51544409   -8.9199287     565.8373  0.010317967 0.0087941504           11 
 4571000     0.519013   -8.8968556    565.47997  0.010309195 0.0087910742            7 
 4572000   0.53087276     -8.91561    565.69404  0.010310842 0.0087879991            3 
 4573000   0.51691836   -8.9090721    565.76599  0.010309898 0.0087849262            7 
 4574000   0.52345482   -8.9136447     565.7335  0.010307053 0.0087818523            6 
 4575000   0.52859457   -8.9076808    565.80998  0.010306193  0.008778782            3 
 4576000   0.51819164   -8.9049941    565.97685  0.010306979 0.0087757147            5 
 4577000   0.51901382   -8.9020591    565.64984  0.010298774 0.0087726444           10 
 4578000   0.52202647   -8.9023964    566.16769   0.01030595  0.008769577            6 
 4579000   0.52581377   -8.9193108    566.10462  0.010302552 0.0087665097            3 
 4580000   0.52407125   -8.9030969    565.71006  0.010293123 0.0087634436            3 
 4581000   0.51759916   -8.9073621    566.14203  0.010298734 0.0087603795           11 
 4582000   0.52029462   -8.9117039    564.72527   0.01027072 0.0087573164           11 
 4583000   0.51611451   -8.9121055    565.61524  0.010284661 0.0087542549           16 
 4584000   0.52366814    -8.901849    566.60409  0.010300394 0.0087511979            8 
 4585000   0.52249505   -8.9099421    565.94762  0.010286216 0.0087481393            6 
 4586000   0.51002188   -8.8975852    566.39584  0.010292118 0.0087450794            3 
 4587000    0.5182211   -8.9117314    566.07384  0.010284024 0.0087420219           11 
 4588000   0.52028939   -8.9056916    565.93068  0.010279183 0.0087389685            7 
 4589000   0.51057772   -8.9132188    565.72987  0.010273296 0.0087359159           15 
 4590000   0.52240007   -8.9259664    565.66097  0.010269807 0.0087328661            9 
 4591000   0.52582885   -8.9140694    565.35509  0.010262018 0.0087298153            3 
 4592000   0.51698202   -8.9010346    566.02847  0.010272003 0.0087267656           11 
 4593000   0.52158033   -8.9100242    565.46654  0.010259571 0.0087237184            8 
 4594000   0.50194173   -8.8972892    566.31112  0.010272659  0.008720673            7 
 4595000   0.51921373   -8.9142351    566.57568  0.010275221 0.0087176256           11 
 4596000   0.51344812   -8.9321243    565.89939  0.010260723  0.008714582            8 
 4597000   0.51606473   -8.9158233    565.01765  0.010242507 0.0087115404           12 
 4598000   0.52194141   -8.9191913    565.08753  0.010241546 0.0087085005            9 
 4599000   0.51047967   -8.9001973    565.60974  0.010248781  0.008705459           14 
 4600000   0.51140268   -8.9031033    565.43044  0.010243305 0.0087024195           12 
 4601000   0.51431286   -8.9022314    565.83462  0.010248399 0.0086993833            4 
 4602000    0.5099603    -8.919294    566.54293  0.010258998 0.0086963493           13 
 4603000   0.51302109   -8.9212559    565.99884  0.010246919 0.0086933168           11 
 4604000   0.50859219   -8.9201827    566.38049  0.010251602 0.0086902862            5 
 4605000   0.52973873   -8.9300492    565.50782  0.010233583 0.0086872548            5 
 4606000   0.51761096   -8.8997767    565.66515  0.010234208 0.0086842238           13 
 4607000   0.52192628    -8.919363    564.51339  0.010211153  0.008681197            3 
 4608000   0.50732248   -8.9131524    565.68718  0.010230165 0.0086781684            3 
 4609000   0.52314333   -8.9246369    565.26978  0.010220398 0.0086751422            2 
 4610000   0.51017238    -8.920169    564.59324  0.010205952  0.008672117            3 
 4611000    0.5264944   -8.9311391    566.03218  0.010229744 0.0086690921            9 
 4612000   0.51669067   -8.9163386    566.66252  0.010238915 0.0086660708           13 
 4613000    0.5110952   -8.9248387    565.24457  0.010211081 0.0086630502            9 
 4614000    0.5138913   -8.9221154    564.83837  0.010201531 0.0086600275           11 
 4615000    0.5120132   -8.9076836    565.80102  0.010216703 0.0086570101            4 
 4616000    0.5167069    -8.902175    565.98356  0.010217785 0.0086539933            2 
 4617000   0.50975192   -8.9076854    565.15875  0.010200685 0.0086509753           13 
 4618000   0.51277971    -8.912308    565.96631  0.010213049 0.0086479598            8 
 4619000   0.51706389   -8.9140617    565.45776  0.010201663 0.0086449454            9 
 4620000   0.51662772   -8.9179608    565.63617  0.010202673 0.0086419317            7 
 4621000     0.519492   -8.9320322    565.39771  0.010196164 0.0086389205            2 
 4622000    0.5108549   -8.9146938    565.06901  0.010188032 0.0086359101           12 
 4623000   0.51814484   -8.9282667    565.68336  0.010196902 0.0086329004            4 
 4624000   0.51259286   -8.9121186    565.59918   0.01019318 0.0086298917            4 
 4625000   0.50265841   -8.9242373    565.64283  0.010191763 0.0086268876            3 
 4626000   0.51682522   -8.9210418    566.80078  0.010210419 0.0086238853            7 
 4627000   0.52536686   -8.9257556    565.94412  0.010192784 0.0086208856           12 
 4628000   0.51148129   -8.9353145    565.56451  0.010183746 0.0086178859            8 
 4629000   0.50558543    -8.929511    566.00857   0.01018954 0.0086148869            2 
 4630000   0.51352332   -8.9112998    565.77811  0.010183191 0.0086118875            3 
 4631000   0.51168981   -8.9297027    565.87681  0.010182768 0.0086088913            2 
 4632000   0.50613971   -8.9040961    565.59772  0.010175549 0.0086058925            3 
 4633000   0.51275889   -8.9246917    564.62071  0.010155779 0.0086028967            9 
 4634000   0.51151809   -8.9115462    565.30674  0.010165925 0.0085999001           10 
 4635000   0.50619565   -8.9184518    564.97931  0.010157844 0.0085969062            9 
 4636000    0.5187789   -8.9327529    565.03333  0.010156624 0.0085939126            5 
 4637000   0.51955087   -8.9159513    565.12423  0.010156068 0.0085909203            6 
 4638000   0.52728667   -8.9202951    565.54303  0.010161403 0.0085879299            9 
 4639000   0.51895708   -8.9172776    565.19208  0.010152908  0.008584943            8 
 4640000   0.50328068   -8.9380045     565.9075  0.010163569  0.008581955            8 
 4641000   0.51516333    -8.920018     565.3153  0.010150745  0.008578967           10 
 4642000   0.50412015   -8.9221497    564.82412  0.010139741 0.0085759822           12 
 4643000   0.51683563     -8.92186    565.68047  0.010152927 0.0085729972            9 
 4644000   0.49458725   -8.9394664    565.82545  0.010153342 0.0085700166            6 
 4645000   0.50895864   -8.9128177    565.24495  0.010140742  0.008567038           12 
 4646000   0.51603629   -8.9328559    565.08584  0.010135705  0.008564058            9 
 4647000   0.51290202   -8.9260517    565.50379  0.010141019 0.0085610799            8 
 4648000   0.52338898    -8.921566    565.08292  0.010131292 0.0085581044            9 
 4649000   0.51116894   -8.9148675    565.68873  0.010139972 0.0085551296           12 
 4650000   0.50356634    -8.922104    565.90246  0.010141621 0.0085521549            8 
 4651000    0.5117329   -8.9238865    565.29313  0.010128523 0.0085491834            8 
 4652000   0.50500139   -8.9382733    565.56323  0.010131184 0.0085462102            4 
 4653000   0.49825476   -8.9372828     564.6539  0.010112721 0.0085432394            8 
 4654000   0.50987534   -8.9329299    565.12564  0.010118995 0.0085402706           10 
 4655000   0.49840648    -8.927131    565.45771  0.010122766 0.0085373005            5 
 4656000   0.51165164   -8.9243598    564.96057  0.010111694 0.0085343331            5 
 4657000   0.51413085   -8.9354613    564.68577  0.010104605  0.008531368            2 
 4658000   0.51289491   -8.9280042    565.25741  0.010112663 0.0085284045            6 
 4659000   0.50282667   -8.9275733    565.84017  0.010120916  0.008525443            9 
 4660000    0.4991113   -8.9317897    565.16923  0.010106746 0.0085224825            2 
 4661000   0.50467735   -8.9292815    565.23794  0.010105806 0.0085195223            3 
 4662000   0.49169423   -8.9399483    564.73516  0.010094651 0.0085165622            5 
 4663000   0.51219228     -8.92253    564.53166  0.010088849 0.0085136045            3 
 4664000   0.49667761   -8.9350083    564.40259   0.01008438 0.0085106476            5 
 4665000   0.49333566   -8.9302057    565.00273  0.010092939 0.0085076912            7 
 4666000   0.51075328    -8.970396    565.47507  0.010099212 0.0085047387            9 
 4667000   0.50493985   -8.9175324     564.9709  0.010088045 0.0085017866           13 
 4668000   0.51798818   -8.9282659    565.35396  0.010092723 0.0084988354            7 
 4669000   0.49793526   -8.9270193    565.69195  0.010096594 0.0084958842            9 
 4670000   0.50030335   -8.9208259    564.63323  0.010075539 0.0084929363            6 
 4671000   0.50145053   -8.9488468    564.99799   0.01007989 0.0084899889            3 
 4672000   0.49991345   -8.9298696    565.33157  0.010083682 0.0084870448            4 
 4673000   0.49657863   -8.9213475    565.08042  0.010077046 0.0084841017            8 
 4674000   0.50373103   -8.9276543    565.23277  0.010077606 0.0084811593            4 
 4675000   0.51603925   -8.9347357    565.41706  0.010078735 0.0084782203            6 
 4676000   0.49243149   -8.9099573    565.80045  0.010083413 0.0084752804            7 
 4677000   0.49873351   -8.9271337    564.94378  0.010065993  0.008472342            4 
 4678000    0.4980025    -8.924299    564.85742  0.010062303 0.0084694032           10 
 4679000   0.49639317   -8.9392447    566.11478  0.010082546 0.0084664666            5 
 4680000   0.50443776   -8.9444123    565.44662  0.010068494 0.0084635296            5 
 4681000   0.50360958   -8.9462688    564.54273  0.010050252 0.0084605974           10 
 4682000   0.50767999    -8.933418    565.52411  0.010065572 0.0084576643            2 
 4683000   0.49879886   -8.9312207    565.92981  0.010070642 0.0084547349            8 
 4684000   0.50191373   -8.9273485     564.7409   0.01004734 0.0084518066            8 
 4685000   0.50125012   -8.9427428     565.1445  0.010052375 0.0084488782            8 
 4686000   0.49941222   -8.9463944    564.77249  0.010043614 0.0084459501            5 
 4687000   0.50419432   -8.9403355    565.74644  0.010058787 0.0084430236           10 
 4688000   0.49920419   -8.9224675    564.82015  0.010040176 0.0084400985            8 
 4689000   0.49697229   -8.9394091    564.58578   0.01003387 0.0084371763            2 
 4690000   0.50576752    -8.940101    564.56096  0.010031289 0.0084342532            7 
 4691000   0.50257464   -8.9371233    565.19422    0.0100404 0.0084313321            2 
 4692000   0.50219414   -8.9364665    565.04063  0.010035533 0.0084284158           10 
 4693000   0.49822529   -8.9496694    564.22982  0.010018997  0.008425499            2 
 4694000   0.50179939   -8.9410136    565.52566  0.010039868 0.0084225841            2 
 4695000   0.49886173   -8.9453624    564.94805  0.010027477 0.0084196683            9 
 4696000   0.50403099   -8.9481932    565.43181  0.010033926 0.0084167526           10 
 4697000   0.50159264    -8.949686    564.84813  0.010021435 0.0084138386           14 
 4698000   0.50736517   -8.9382844    565.15189  0.010024689 0.0084109284            6 
 4699000   0.50345992   -8.9240808    565.11095   0.01002183 0.0084080192            8 
 4700000   0.50716264   -8.9290447    564.69486   0.01001232 0.0084051092            2 
 4701000   0.50070663   -8.9374183    564.50712  0.010006862 0.0084021989            4 
 4702000   0.49621579   -8.9463301    565.25935  0.010018066  0.008399292            2 
 4703000   0.47993649   -8.9647811    564.99547   0.01001126  0.008396384            7 
 4704000   0.49966493   -8.9465763    564.29141  0.009996659 0.0083934772           13 
 4705000   0.50364037   -8.9399755    565.76817   0.01002069 0.0083905734            8 
 4706000    0.4984245   -8.9495065    564.79252  0.010001284 0.0083876717            3 
 4707000   0.49680004   -8.9615758    564.99076  0.010002669 0.0083847715           10 
 4708000   0.49862078   -8.9386465    564.97607  0.010000285 0.0083818696           11 
 4709000   0.48852262   -8.9268034    565.21258  0.010002346 0.0083789694            9 
 4710000   0.48922826   -8.9599065    565.30872  0.010001924 0.0083760702            6 
 4711000   0.49909813   -8.9698876    565.05826 0.0099953701 0.0083731696           11 
 4712000   0.50904779   -8.9539682    565.96418   0.01000927 0.0083702739            9 
 4713000   0.49335713   -8.9531916     564.7475 0.0099856337 0.0083673798            8 
 4714000   0.50358232   -8.9593691    563.88617 0.0099682889 0.0083644875            9 
 4715000    0.4922103   -8.9474341    565.15359 0.0099885752 0.0083615963            6 
 4716000   0.49187703   -8.9532366    564.48831 0.0099747015 0.0083587045           10 
 4717000   0.49378106   -8.9575481    564.14867 0.0099665867 0.0083558144            4 
 4718000   0.50569672   -8.9373867    564.60016 0.0099724488 0.0083529265            7 
 4719000   0.49322088   -8.9459349    565.53564 0.0099868553 0.0083500418            8 
 4720000   0.49892296   -8.9529728    564.96992 0.0099747514 0.0083471587           10 
 4721000     0.505504   -8.9316127    564.22209 0.0099594382 0.0083442771            2 
 4722000   0.50209471   -8.9420219    564.90456 0.0099693731 0.0083413956            4 
 4723000   0.49920855   -8.9522074    564.77418 0.0099649619  0.008338514            2 
 4724000   0.50122296   -8.9569474    565.21977 0.0099707128 0.0083356377           12 
 4725000   0.49549335   -8.9472834    565.01969  0.009965074 0.0083327587            6 
 4726000   0.49662462   -8.9290511    564.43828 0.0099527133 0.0083298798            6 
 4727000   0.49635535   -8.9449461    563.19876 0.0099287561 0.0083270053            6 
 4728000   0.48278317   -8.9545202    565.32956 0.0099642125 0.0083241316            4 
 4729000   0.50160486   -8.9405927    564.48855 0.0099472854 0.0083212579            9 
 4730000   0.49962557   -8.9520945    564.18246 0.0099397897 0.0083183869            9 
 4731000   0.49550818   -8.9471072    565.58743 0.0099624362  0.008315517            3 
 4732000   0.48882424   -8.9289134    565.14626 0.0099525615 0.0083126467            5 
 4733000   0.48269138   -8.9358352    565.26996 0.0099526369 0.0083097775            8 
 4734000   0.50892093   -8.9452851    564.49063 0.0099368158 0.0083069102           13 
 4735000   0.49910939   -8.9522109     564.6123 0.0099368585  0.008304044            8 
 4736000   0.49934881   -8.9487991    564.17249 0.0099270216 0.0083011776            4 
 4737000   0.49680515    -8.954506    564.40854 0.0099290785 0.0082983124           10 
 4738000    0.4990479   -8.9424363    564.24688 0.0099241396 0.0082954477            9 
 4739000   0.50442255   -8.9366891    563.63796 0.0099113379 0.0082925873            7 
 4740000   0.49649451    -8.961079    564.88459 0.0099311637 0.0082897272           11 
 4741000   0.49384129   -8.9409249    564.19575 0.0099169611  0.008286867            4 
 4742000    0.4936187   -8.9602465    565.18408 0.0099322382 0.0082840084            6 
 4743000    0.4922796   -8.9427702    564.14542 0.0099118951 0.0082811507            6 
 4744000   0.49108556   -8.9448963    564.62733 0.0099182709 0.0082782944           13 
 4745000   0.49532732   -8.9406673    564.92273 0.0099213686 0.0082754373            6 
 4746000   0.50260884   -8.9567968    564.53058 0.0099123926  0.008272585            7 
 4747000    0.4848088   -8.9463208    564.83934 0.0099157247 0.0082697334            6 
 4748000   0.49530977   -8.9614457    564.41388  0.009906169 0.0082668822            4 
 4749000   0.49108123   -8.9350945    564.92724 0.0099130911 0.0082640346            4 
 4750000    0.5054361   -8.9450118    564.61407 0.0099055101 0.0082611872            6 
 4751000   0.49033774   -8.9394305    564.02416  0.009893078 0.0082583401            5 
 4752000   0.49101488   -8.9596865    564.78073 0.0099042637 0.0082554933            9 
 4753000   0.49332518   -8.9635135    564.73327 0.0099013478 0.0082526496            7 
 4754000   0.49448298   -8.9749658    564.42185 0.0098938061 0.0082498052            4 
 4755000   0.49205859   -8.9521332    564.28173 0.0098892697 0.0082469654            6 
 4756000   0.48917308   -8.9573424    565.20409 0.0099033517 0.0082441247            7 
 4757000   0.49722541   -8.9501809     564.2811 0.0098851009  0.008241285            6 
 4758000   0.48743505   -8.9611403    563.63893 0.0098717761 0.0082384455            7 
 4759000   0.48950042   -8.9479806    564.54627   0.00988559 0.0082356079            6 
 4760000    0.4921215   -8.9510101    564.67032 0.0098856848 0.0082327703            6 
 4761000   0.48731766   -8.9468965    564.40078 0.0098788907 0.0082299333            6 
 4762000   0.50024351   -8.9624333    564.72171 0.0098824322 0.0082270992            8 
 4763000   0.49053626   -8.9555651    564.51546 0.0098767488 0.0082242658            5 
 4764000     0.497209   -8.9556231    564.46467 0.0098737873 0.0082214318           10 
 4765000   0.49868367   -8.9626394    564.53805 0.0098729984 0.0082186028            7 
 4766000   0.47355648    -8.946194    564.67388 0.0098733018 0.0082157757            6 
 4767000   0.48819797   -8.9350276    563.95022 0.0098585802 0.0082129506            8 
 4768000   0.48902883   -8.9538335    564.31495 0.0098628871 0.0082101265            9 
 4769000   0.48840711   -8.9557846    563.91777 0.0098538786 0.0082072999           13 
 4770000   0.48856703   -8.9550374    565.01913  0.009871054 0.0082044739            4 
 4771000   0.48152978   -8.9439174    564.90847 0.0098670522 0.0082016509            8 
 4772000   0.49322486   -8.9436787    564.47989 0.0098575002 0.0081988326            8 
 4773000   0.48917717   -8.9505407    564.25891 0.0098515767 0.0081960144            4 
 4774000   0.48550505   -8.9608529    564.06199 0.0098460758 0.0081931993            7 
 4775000    0.4793121   -8.9417071    564.45743  0.009850915 0.0081903833           11 
 4776000   0.49911512    -8.952237    564.46764 0.0098490306 0.0081875689           10 
 4777000   0.48078577   -8.9673071      564.603 0.0098493301 0.0081847544            8 
 4778000   0.49420525    -8.963616     564.3967 0.0098436706 0.0081819379            4 
 4779000    0.4976456   -8.9569797    563.47765  0.009825585 0.0081791226            4 
 4780000   0.49012979   -8.9681776    563.70829 0.0098275503 0.0081763102            9 
 4781000   0.48952236   -8.9483878    564.31363 0.0098360459 0.0081735005            8 
 4782000   0.47644461   -8.9669842    564.91772 0.0098445163 0.0081706904           10 
 4783000   0.48494107   -8.9519813    564.66689 0.0098380879  0.008167882            5 
 4784000   0.48502053    -8.974063     562.9349 0.0098058616 0.0081650746            9 
 4785000   0.47900536   -8.9747268    564.64889 0.0098336623 0.0081622694            5 
 4786000   0.47332392   -8.9574975    563.93197 0.0098191247 0.0081594628            9 
 4787000   0.48321625   -8.9629564    563.94434 0.0098172889 0.0081566588            9 
 4788000   0.48161225   -8.9601068    564.59297 0.0098265276 0.0081538563            6 
 4789000   0.48251369   -8.9623358    564.35699 0.0098203694 0.0081510529            8 
 4790000   0.48492489   -8.9667129    565.15936 0.0098322784 0.0081482508            1 
 4791000   0.48600282   -8.9590298    564.13453 0.0098124004 0.0081454536           14 
 4792000   0.48451734   -8.9700327    564.13659 0.0098103886 0.0081426548            9 
 4793000   0.48707923   -8.9725739    564.47651 0.0098142519 0.0081398585            8 
 4794000   0.47913789   -8.9720189    563.88558 0.0098019327 0.0081370641            6 
 4795000   0.48407827    -8.961128    563.37006 0.0097909291 0.0081342727            6 
 4796000   0.47590677   -8.9499535    564.35201 0.0098059496 0.0081314806            9 
 4797000   0.48593083   -8.9676585    564.22083 0.0098016265 0.0081286913            8 
 4798000   0.47950724   -8.9473938    563.56889 0.0097882606 0.0081259024            6 
 4799000   0.48518298   -8.9540862    564.74969 0.0098067251 0.0081231119            6 
 4800000   0.49509532   -8.9681116    564.43688 0.0097992515 0.0081203275            6 
 4801000   0.48842234   -8.9583449    564.05777 0.0097906298 0.0081175444           10 
 4802000   0.47368915     -8.96706    564.01257 0.0097878066 0.0081147615           10 
 4803000   0.47786423   -8.9703812    564.14052 0.0097879888 0.0081119779            8 
 4804000   0.47815472   -8.9633688    564.81181 0.0097975959 0.0081091998            6 
 4805000   0.48737131   -8.9736014    563.85098 0.0097788932 0.0081064187            4 
 4806000   0.49027211   -8.9655631    564.20465 0.0097829909  0.008103639            5 
 4807000   0.48146313   -8.9523121    563.43606 0.0097676316 0.0081008602            7 
 4808000    0.4806131   -8.9630952    564.18825 0.0097786372 0.0080980851            5 
 4809000   0.47519122   -8.9578138    564.25554 0.0097777699 0.0080953102            2 
 4810000   0.47671704   -8.9538966    564.72412 0.0097838551 0.0080925329            8 
 4811000   0.48866247   -8.9532625    564.46683 0.0097773649 0.0080897602            8 
 4812000    0.4763313   -8.9474846    563.61097 0.0097605113 0.0080869896            8 
 4813000   0.47804854   -8.9698106    564.68936 0.0097771549 0.0080842177           13 
 4814000    0.4846459   -8.9802687    564.46418 0.0097712259 0.0080814487            5 
 4815000   0.48439512   -8.9720293    564.03082 0.0097616964 0.0080786807            9 
 4816000   0.48299961   -8.9684192    564.40528  0.009766149 0.0080759142            5 
 4817000     0.492318   -8.9686847    564.36153 0.0097633646  0.008073146            8 
 4818000   0.49349204   -8.9595486      563.554 0.0097473709 0.0080703801            8 
 4819000   0.48125542   -8.9629676    564.38765 0.0097597644 0.0080676158           13 
 4820000   0.47631658   -8.9636137    564.49647 0.0097596208  0.008064854            5 
 4821000   0.48029146   -8.9798347     564.4369 0.0097565667 0.0080620927            7 
 4822000   0.46906307   -8.9786005    563.62135 0.0097404492 0.0080593325            4 
 4823000   0.47730933    -8.956849    563.79398 0.0097414124 0.0080565714            6 
 4824000   0.46905855   -8.9724425    563.88134 0.0097409021 0.0080538155           10 
 4825000   0.47773605   -8.9691698    563.83545 0.0097380907 0.0080510612            6 
 4826000   0.48077612   -8.9624749     564.6041 0.0097493455 0.0080483076            5 
 4827000   0.48529208   -8.9721964    564.46397 0.0097449067 0.0080455552            4 
 4828000   0.48289605   -8.9766058    564.66687 0.0097463904 0.0080428033            2 
 4829000   0.47333003   -8.9628918    564.55867 0.0097425048  0.008040054            6 
 4830000   0.47853845   -8.9837591    563.59445 0.0097238518 0.0080373037            8 
 4831000   0.47267923   -8.9719994    563.69256 0.0097235313 0.0080345548            4 
 4832000   0.46825534   -8.9734513    563.53084   0.00971873 0.0080318089            8 
 4833000   0.48636803    -8.962069    564.26478 0.0097293741 0.0080290632            6 
 4834000   0.47380509    -8.983395    564.16979 0.0097257238 0.0080263183           10 
 4835000   0.47881151   -8.9855039    564.38391 0.0097274029 0.0080235757            7 
 4836000   0.48153705   -8.9770028    563.82283 0.0097157228 0.0080208353            9 
 4837000    0.4804101    -8.958217    563.90044 0.0097150513 0.0080180935           10 
 4838000   0.48399892   -8.9562319    563.48377 0.0097058662 0.0080153546            8 
 4839000    0.4859265    -8.955129     564.3089 0.0097180702 0.0080126181            8 
 4840000   0.47203905   -8.9686672    563.92721 0.0097094906 0.0080098842            4 
 4841000   0.47467668   -8.9797008    563.27262 0.0096962166 0.0080071483           10 
 4842000   0.46990153   -8.9905232    563.74137 0.0097022817 0.0080044109           12 
 4843000   0.47671424   -8.9623142    564.32826 0.0097103769 0.0080016764            6 
 4844000   0.48609368   -8.9676545    564.44979  0.009710463 0.0079989433            6 
 4845000   0.47667878   -8.9559862    563.10422  0.009685315  0.007996213            8 
 4846000   0.47314016   -8.9592634    564.20216 0.0097021969 0.0079934849            6 
 4847000   0.47803414   -8.9543587    563.00083 0.0096795411 0.0079907567            5 
 4848000   0.48556025    -8.973922    564.17732 0.0096977675 0.0079880288            8 
 4849000   0.46153278   -8.9902305    563.70647 0.0096876756 0.0079853015            8 
 4850000   0.47085185   -8.9625629     564.0679 0.0096918884 0.0079825767            9 
 4851000   0.47805817   -8.9679586    563.89687 0.0096869524 0.0079798547            4 
 4852000   0.48664021   -8.9682532    564.64456 0.0096977974 0.0079771338            6 
 4853000   0.48621732   -8.9959021    564.02044 0.0096850821 0.0079744129            8 
 4854000   0.48423265   -8.9714247    563.41134 0.0096726298  0.007971692           11 
 4855000   0.48097807   -8.9700285    563.90527 0.0096791155 0.0079689724            6 
 4856000    0.4713396   -8.9842483    564.15035  0.009681328 0.0079662549            9 
 4857000   0.47916534   -8.9740812    563.44089 0.0096671623 0.0079635366            5 
 4858000   0.48100309   -8.9802973     564.5339 0.0096839217 0.0079608225           11 
 4859000   0.47345195   -8.9838821    563.38242 0.0096621804 0.0079581081            7 
 4860000   0.48101544   -8.9804002    564.61341 0.0096812999 0.0079553948            7 
 4861000   0.47792676   -8.9657824    564.66303 0.0096801589 0.0079526828            5 
 4862000   0.46367401    -8.983695    564.24027  0.009670922  0.007949972           13 
 4863000   0.47183894   -8.9739254    563.14915 0.0096502356 0.0079472644            9 
 4864000   0.46907776   -8.9806132     563.3568 0.0096518093 0.0079445544            4 
 4865000   0.47025329   -8.9774506    564.28908 0.0096657944 0.0079418471            5 
 4866000   0.46566463   -8.9777703    563.84634 0.0096562258 0.0079391386            3 
 4867000   0.46219649    -8.975872    563.90641 0.0096552704 0.0079364314            6 
 4868000   0.48156705   -8.9838891    563.79119 0.0096513145 0.0079337265            5 
 4869000   0.47715836   -8.9666488     564.1176 0.0096549188 0.0079310225            7 
 4870000   0.47187934   -8.9777254    563.55199 0.0096432579 0.0079283186            7 
 4871000   0.48075956   -8.9810828    563.39459 0.0096385854 0.0079256178           11 
 4872000   0.47001873     -8.96732    563.82344 0.0096439422 0.0079229174            9 
 4873000   0.48063695   -8.9809152    564.13651  0.009647317 0.0079202197            6 
 4874000   0.47662432   -8.9763899    563.75929 0.0096388882 0.0079175226            7 
 4875000   0.47620007   -8.9913797    563.79453 0.0096375133  0.007914828            5 
 4876000   0.47051915   -8.9876496    563.90338 0.0096373972 0.0079121354            8 
 4877000   0.47100815   -8.9902832    563.92864 0.0096358527 0.0079094421            7 
 4878000   0.46152485   -8.9837569    563.15536 0.0096206669   0.00790675            6 
 4879000   0.46913422   -8.9844447    563.47729 0.0096241937 0.0079040578            5 
 4880000   0.47527832   -8.9845039    563.96071 0.0096304767 0.0079013677            7 
 4881000   0.47130983   -8.9855382    563.13821  0.009614461 0.0078986795            8 
 4882000   0.46708097   -8.9736875    564.49284 0.0096356144 0.0078959908            6 
 4883000   0.47416322    -8.985743    563.19325 0.0096114625 0.0078933044            5 
 4884000    0.4648954   -8.9800524     563.9529  0.009622456 0.0078906174            7 
 4885000   0.47067356   -8.9834684    563.89397 0.0096194809 0.0078879331            4 
 4886000   0.48023185   -8.9692442    563.40071 0.0096090993 0.0078852505            8 
 4887000   0.47071275   -8.9854744    563.95041 0.0096165066 0.0078825693            6 
 4888000   0.47457486   -9.0011605    563.56835 0.0096080255 0.0078798849            9 
 4889000   0.47301045   -8.9811586    563.65739 0.0096075781 0.0078772034            5 
 4890000     0.465394   -8.9763037    563.62608 0.0096050798 0.0078745238            6 
 4891000   0.46450677   -8.9848768    563.36645 0.0095986923 0.0078718459            3 
 4892000   0.47422487   -8.9931402    564.26915 0.0096121073 0.0078691684            5 
 4893000   0.46726658   -8.9764083    563.03617 0.0095891438 0.0078664923            7 
 4894000    0.4686928   -8.9929397    563.20805 0.0095901113 0.0078638171            7 
 4895000   0.46835045   -8.9943629    563.30594 0.0095898186 0.0078611442            8 
 4896000   0.47200883   -8.9779332    563.37358 0.0095890111 0.0078584732            6 
 4897000   0.46653449   -8.9934431    564.13968 0.0096000899 0.0078558022            6 
 4898000   0.46771257   -8.9937155    563.63893 0.0095896102 0.0078531308            6 
 4899000   0.46935665   -8.9886467    563.79287 0.0095902713 0.0078504646            5 
 4900000   0.47405723   -8.9983757    563.59054 0.0095848731 0.0078477963            6 
 4901000   0.46958873   -8.9832665    563.50913 0.0095815332 0.0078451331            6 
 4902000   0.46179366   -8.9894606    563.90613 0.0095863275 0.0078424665            7 
 4903000   0.46833676   -8.9760229     563.3968 0.0095757155 0.0078398047            5 
 4904000   0.46244271    -8.986867    563.69552 0.0095788391 0.0078371418            5 
 4905000   0.47816887   -8.9870816    564.04542 0.0095828308 0.0078344822            7 
 4906000   0.47441572   -9.0051279    563.78159 0.0095763961 0.0078318232            7 
 4907000   0.46359801   -8.9921839    562.91097 0.0095596592 0.0078291652            9 
 4908000   0.47379837    -8.986227    563.18211  0.009562315 0.0078265073            8 
 4909000    0.4715214   -8.9783646    563.70531 0.0095692488 0.0078238515            6 
 4910000   0.47758621   -8.9974209    563.37675 0.0095617236 0.0078211951            4 
 4911000   0.46449043   -8.9918895    562.29595 0.0095414367 0.0078185402            6 
 4912000   0.46743738   -8.9875791     562.8201 0.0095483866 0.0078158863            4 
 4913000   0.45662433   -8.9954776    563.18777 0.0095526795 0.0078132352            5 
 4914000   0.45872632    -8.987476    564.11391 0.0095664413 0.0078105839            6 
 4915000   0.46780584   -8.9891296    563.84759 0.0095599794 0.0078079352            5 
 4916000    0.4711337   -8.9875917    564.21195 0.0095642113 0.0078052861            5 
 4917000   0.46521796   -8.9760754    563.00977 0.0095418915 0.0078026395            3 
 4918000   0.45560392   -9.0030206    563.29923 0.0095448561 0.0077999924            2 
 4919000    0.4627103   -8.9709876    562.93865 0.0095368071 0.0077973476            9 
 4920000   0.45892085   -8.9929766    563.57282 0.0095456101  0.007794705            9 
 4921000   0.46945415   -8.9833026    562.95621 0.0095332285 0.0077920631            5 
 4922000   0.46997249   -8.9950687     563.6299 0.0095426978 0.0077894226            7 
 4923000   0.45479218   -8.9854831    563.68266 0.0095416525 0.0077867837           10 
 4924000   0.46242872   -8.9881121    563.88876 0.0095432027  0.007784146           10 
 4925000   0.46266052   -8.9972841    563.43095 0.0095335186 0.0077815082            7 
 4926000    0.4670775   -9.0053252    563.86347 0.0095389003 0.0077788723            3 
 4927000   0.45343422    -8.986056    562.38361 0.0095119345 0.0077762362            8 
 4928000   0.45030543   -8.9923612     563.6849 0.0095320093 0.0077736007            4 
 4929000   0.46431767   -8.9990961    563.33648 0.0095241847 0.0077709689            7 
 4930000   0.45657398   -8.9896587    563.56051 0.0095260397  0.007768337            5 
 4931000   0.46180444   -8.9911836    563.14902 0.0095171536 0.0077657049            4 
 4932000   0.46476187   -9.0042183    564.40961 0.0095365235 0.0077630765            9 
 4933000   0.46548932   -8.9991204    562.83292 0.0095079553 0.0077604458            4 
 4934000   0.46070537    -8.988138    563.61523 0.0095192411 0.0077578174            6 
 4935000   0.47683513   -8.9965006    563.40377 0.0095137416 0.0077551908            9 
 4936000   0.46781042   -8.9977651    562.87308 0.0095028545  0.007752564            3 
 4937000   0.46321545   -8.9980189    562.82682 0.0095001488 0.0077499393            4 
 4938000   0.47485818   -8.9909669    562.32118 0.0094896919 0.0077473162            7 
 4939000   0.46167422   -9.0036061    563.01579 0.0094994902 0.0077446936            3 
 4940000   0.46292551   -8.9893281    564.05869 0.0095151601 0.0077420726            6 
 4941000   0.46060501   -8.9915847    562.69439 0.0094902244 0.0077394538            5 
 4942000   0.46922711   -8.9925668    563.80086 0.0095069617 0.0077368353            6 
 4943000   0.45890063   -8.9987685    563.19751 0.0094948666  0.007734218            8 
 4944000   0.46110794    -9.000497    563.40757 0.0094964869 0.0077316008            6 
 4945000   0.45016898   -8.9970406    563.16512 0.0094904807 0.0077289832            6 
 4946000   0.47208222   -9.0001189    562.97001 0.0094852744 0.0077263664            4 
 4947000    0.4578517   -8.9806775    563.67112 0.0094951675 0.0077237529            4 
 4948000   0.45809661   -8.9883879    563.00083 0.0094819595 0.0077211395            9 
 4949000   0.46714124   -8.9918821    563.03397 0.0094806017 0.0077185253            3 
 4950000   0.46103486   -9.0006649    562.03436 0.0094618579 0.0077159165            6 
 4951000   0.45077496   -9.0054317    563.67633 0.0094875839  0.007713306            4 
 4952000   0.45899763   -8.9864674    563.35466 0.0094802548 0.0077106993            8 
 4953000   0.46266577   -8.9884962      562.664 0.0094667205 0.0077080923            6 
 4954000   0.45262317   -9.0083865    563.50722 0.0094789937 0.0077054857            4 
 4955000   0.45493816   -8.9987892    563.44436 0.0094760236 0.0077028798            5 
 4956000   0.47205629   -9.0131617    563.03108 0.0094671624  0.007700277            6 
 4957000   0.45321788   -9.0060892    563.55199 0.0094740097 0.0076976734            4 
 4958000   0.46296882   -8.9973152    563.79006 0.0094761003 0.0076950719            8 
 4959000   0.46015491   -9.0074321    563.49707 0.0094692659 0.0076924723            7 
 4960000   0.47275436   -9.0020503    564.37444 0.0094820975 0.0076898757            6 
 4961000   0.45737457   -9.0027328    563.01339 0.0094573237 0.0076872787            4 
 4962000   0.45797294   -9.0005095    563.72758  0.009467412 0.0076846822            4 
 4963000   0.45710809   -9.0015879    563.38813 0.0094598048 0.0076820863            5 
 4964000   0.45767214   -9.0022449    562.44268 0.0094420273 0.0076794916            8 
 4965000   0.46401284   -9.0052392    562.95908  0.009448793 0.0076768972            6 
 4966000   0.45306575   -9.0109936    562.89753 0.0094458573 0.0076743062            7 
 4967000   0.45042198   -9.0087486    563.75155 0.0094582839 0.0076717167            6 
 4968000   0.45649977   -9.0237269    563.38417 0.0094502175 0.0076691263            4 
 4969000   0.45814015   -8.9924932    562.34276 0.0094308506  0.007666536            3 
 4970000   0.45858229   -9.0210574    563.04872   0.00944079 0.0076639467            7 
 4971000   0.46803879   -9.0105024    563.11851 0.0094400609 0.0076613595            8 
 4972000   0.45871703   -8.9934081     563.9517 0.0094521269 0.0076587745            4 
 4973000   0.44590019   -9.0114603    563.67766 0.0094456341 0.0076561911            3 
 4974000   0.45762926   -9.0161255    563.09202 0.0094339233 0.0076536074            5 
 4975000   0.45891615   -8.9998294    562.88347 0.0094285338 0.0076510232            5 
 4976000   0.45473421   -9.0037547    563.58819  0.009438441 0.0076484407            5 
 4977000   0.45133225    -9.010242    562.14111 0.0094123151 0.0076458614            6 
 4978000   0.45571017   -9.0055115    563.33472 0.0094304058 0.0076432803            6 
 4979000   0.45223262   -9.0151345    563.08249 0.0094242902 0.0076407038            8 
 4980000   0.45387444   -8.9991236    563.68693 0.0094325122  0.007638126            4 
 4981000   0.44679834   -9.0146984    562.89205   0.00941732 0.0076355503            5 
 4982000   0.44787116   -8.9968697    562.54855  0.009409684 0.0076329754            7 
 4983000   0.46004619    -9.018917     563.0868 0.0094167971 0.0076304003            7 
 4984000   0.45903656   -9.0056207    562.37017 0.0094029255 0.0076278275            7 
 4985000   0.45296627   -9.0024265    563.15994 0.0094142417 0.0076252543            4 
 4986000   0.45289055   -9.0136661    563.64745 0.0094205015 0.0076226847            4 
 4987000   0.46426753   -9.0086791    563.05401 0.0094086961 0.0076201155            7 
 4988000    0.4684759   -9.0169497    562.94289 0.0094049534 0.0076175478            7 
 4989000   0.45432066   -8.9972221    562.87143 0.0094018747 0.0076149803            5 
 4990000   0.45025881    -9.001568      563.019 0.0094024549 0.0076124141            5 
 4991000   0.46121299   -9.0012256    561.97981   0.00938322 0.0076098484            5 
 4992000   0.45750183   -9.0252387    563.19552 0.0094016346 0.0076072846            6 
 4993000   0.44555419   -9.0035881    563.06649 0.0093975981 0.0076047229            4 
 4994000   0.44342017   -9.0018909    562.55062 0.0093871082  0.007602162            6 
 4995000   0.46195634   -8.9943968    562.53017 0.0093848877 0.0075995997            9 
 4996000   0.45362315   -9.0074586    562.89515  0.009389097 0.0075970389            6 
 4997000   0.45634192   -9.0112672    562.84751 0.0093864236 0.0075944773            8 
 4998000   0.45558913   -9.0091664    564.04227 0.0094044663   0.00759192            6 
 4999000   0.44632704   -9.0111939    562.09124 0.0093700613 0.0075893635            4 
 5000000   0.45463443   -9.0225154    563.51157 0.0093918595 0.0075868052            6 
 5001000   0.45530037   -9.0070817    562.85708 0.0093790755 0.0075842531            5 
 5002000   0.45458597   -9.0031826    562.52597 0.0093716842 0.0075817001            5 
 5003000   0.44600469   -9.0122209    563.27347 0.0093822618 0.0075791489            9 
 5004000   0.45442907   -9.0130892    562.24246 0.0093632171 0.0075765964            4 
 5005000   0.44514379   -9.0085067     562.6602 0.0093683016 0.0075740459            7 
 5006000    0.4462017   -9.0040764     563.7624 0.0093847782 0.0075714976            7 
 5007000     0.448602    -9.018121    562.95252 0.0093694249 0.0075689485            5 
 5008000   0.45292889   -9.0140072    562.15421   0.00935427 0.0075664008            6 
 5009000   0.44480526   -9.0099525    562.22687 0.0093536113 0.0075638549            7 
 5010000   0.44825303    -9.002211    562.64391 0.0093586812 0.0075613097            7 
 5011000   0.44624882   -9.0205431    562.42622 0.0093531933  0.007558767            8 
 5012000   0.45356333   -9.0241022    562.38549 0.0093506499 0.0075562253            8 
Loop time of 12257.1 on 48 procs for 5000000 steps with 4000 atoms

Performance: 70489.842 tau/day, 407.927 timesteps/s
99.4% CPU use with 48 MPI tasks x no OpenMP threads

MPI task timing breakdown:
Section |  min time  |  avg time  |  max time  |%varavg| %total
---------------------------------------------------------------
Pair    | 838.47     | 898.55     | 970.07     | 106.8 |  7.33
Neigh   | 80.908     | 84.564     | 88.593     |  21.2 |  0.69
Comm    | 775.23     | 850.4      | 920.03     | 120.0 |  6.94
Output  | 14.025     | 14.03      | 14.122     |   0.4 |  0.11
Modify  | 10277      | 10300      | 10324      |  11.3 | 84.03
Other   |            | 109.8      |            |       |  0.90

Nlocal:        83.3333 ave          91 max          76 min
Histogram: 1 0 10 3 11 7 10 1 4 1
Nghost:        2185.90 ave        2205 max        2169 min
Histogram: 2 5 4 7 7 8 9 4 0 2
Neighs:        14512.3 ave       16507 max       12232 min
Histogram: 1 0 4 7 4 14 12 3 1 2
FullNghs:      29024.6 ave       31782 max       26164 min
Histogram: 1 0 9 4 6 13 9 2 2 2

Total # of neighbors = 1393180
Ave neighs/atom = 348.29500
Neighbor list builds = 267025
Dangerous builds = 1

#clear
#
#next RN
#
#jump SELF
Total wall time: 3:24:20
