
units lj                  # Use reduced LJ style units
atom_style atomic         # Uncharged point particles
atom_modify map hash      # Needed for indexing of clusters etc
                          # Used to be able to find where atoms are in relation to each other.

lattice fcc 1.0 spacing 1 1 1
Lattice spacing in x,y,z = 1.5874011 1.5874011 1.5874011
region box block 0 10 0 10 0 10 units lattice
create_box 2 box
Created orthogonal box = (0.0000000 0.0000000 0.0000000) to (15.874011 15.874011 15.874011)
  3 by 4 by 4 MPI processor grid
create_atoms 1 box
Created 4000 atoms
  using lattice units in orthogonal box = (0.0000000 0.0000000 0.0000000) to (15.874011 15.874011 15.874011)
  create_atoms CPU = 0.014 seconds
set type 1 type/fraction 2 0.17 78393
Setting atom values ...
  712 settings made for type/fraction
mass 1 1.0
mass 2 1.0
pair_style lj/cut  3.5
pair_modify tail  yes
pair_coeff 1  1  1.0  1.0   # Intearaction between 1 and 1 set with epsilon = 1 and sigma = 1
pair_coeff 1  2  1.5  0.8
pair_coeff 2  2  0.5  0.88

write_data data.0
System init for write_data ...
Neighbor list info ...
  update every 1 steps, delay 10 steps, check yes
  max neighbors/atom: 2000, page size: 100000
  master list distance cutoff = 3.8
  ghost atom cutoff = 3.8
  binsize = 1.9, bins = 9 9 9
  1 neighbor lists, perpetual/occasional/extra = 1 0 0
  (1) pair lj/cut, perpetual
      attributes: half, newton on
      pair build: half/bin/atomonly/newton
      stencil: half/bin/3d
      bin: standard
WARNING: Not all mixed pair coeffs generated from mixing. Use write_data with 'pair ij' option to store all pair coeffs. (../write_data.cpp:312)


#############################
#   M E L T   S Y S T E M   #
#############################

velocity all create 2.4 3143649 mom yes dist gaussian # Assign velocities
                                                    # Temperature 2.4, random number seed, zero linear momentum
                                                                                # Gaussian distribution

timestep 0.002   # simulation timestep
thermo 1000       # output thermodynamic data every 1000 steps bf 100

# Define a fix  in this case with index 1 applied to all
# particles in the simulation. This fix is for simulations
# in the anisotropic NPT ensemble. Note that we use the MTK
# correction.
fix 1 all npt temp 2.4 2.4 0.1 iso 5.68 5.68 0.5 mtk yes tchain 5 pchain 5 # Use NPT ensemble
                                                                         # Set temperature and pressure and damping
                                                                         # Numbers of thermostats in chain and in barostat
run 10000          # run for 10000 steps
Per MPI rank memory allocation (min/avg/max) = 3.642 | 3.644 | 3.648 Mbytes
Step Temp E_pair E_mol TotEng Press Volume 
       0          2.4   -7.2317907            0   -3.6326907   -3.4668638         4000 
    1000    2.4396368   -4.8014155            0   -1.1428752    5.7949346    4548.4711 
    2000    2.4388848   -4.7707402            0   -1.1133275    5.9021232    4565.2414 
    3000    2.4388076   -4.7431577            0   -1.0858609    5.7733225    4582.5774 
    4000    2.4060982   -4.7124088            0   -1.1041638    5.4498419    4636.4702 
    5000    2.4299993   -4.7042824            0   -1.0601948    5.6733445    4622.1775 
    6000    2.3699853   -4.7703947            0   -1.2163055    5.6800421    4576.4498 
    7000    2.3452937   -4.7348437            0   -1.2177826    5.9683793    4554.0983 
    8000    2.3933368   -4.7901683            0   -1.2010605    5.8346233    4550.5149 
    9000     2.470483   -4.7629736            0   -1.0581755     5.816578    4583.6586 
   10000    2.3873569   -4.7870638            0   -1.2069237    5.6483994    4567.1644 
Loop time of 2.24662 on 48 procs for 10000 steps with 4000 atoms

Performance: 769154.956 tau/day, 4451.128 timesteps/s
99.6% CPU use with 48 MPI tasks x no OpenMP threads

MPI task timing breakdown:
Section |  min time  |  avg time  |  max time  |%varavg| %total
---------------------------------------------------------------
Pair    | 0.93855    | 1.0104     | 1.0823     |   2.8 | 44.97
Neigh   | 0.19263    | 0.20252    | 0.2131     |   0.9 |  9.01
Comm    | 0.69171    | 0.77452    | 0.84802    |   3.5 | 34.48
Output  | 0.00023624 | 0.00024209 | 0.00031645 |   0.0 |  0.01
Modify  | 0.22557    | 0.24453    | 0.2829     |   2.9 | 10.88
Other   |            | 0.01445    |            |       |  0.64

Nlocal:        83.3333 ave          95 max          72 min
Histogram: 2 2 2 11 6 11 9 2 2 1
Nghost:        1505.35 ave        1532 max        1479 min
Histogram: 6 3 4 5 4 7 7 3 5 4
Neighs:        8344.25 ave        9588 max        6738 min
Histogram: 3 0 1 7 7 6 10 7 5 2

Total # of neighbors = 400524
Ave neighs/atom = 100.13100
Neighbor list builds = 908
Dangerous builds = 211

# Equilibrate just above the melting temperature to avoid step fn in T

fix 1 all npt temp 1.25 1.25 0.1 iso 5.68 5.68 0.5 mtk yes tchain 5 pchain 5
run 2000
Per MPI rank memory allocation (min/avg/max) = 3.642 | 3.644 | 3.648 Mbytes
Step Temp E_pair E_mol TotEng Press Volume 
   10000    2.3873569   -4.7870638            0   -1.2069237    5.6483994    4567.1644 
   11000    1.2377778   -6.4765286            0   -4.6203261    5.5846958     3741.236 
   12000    1.2528095    -6.455732            0   -4.5769875    5.8746223     3732.474 
Loop time of 0.509546 on 48 procs for 2000 steps with 4000 atoms

Performance: 678251.397 tau/day, 3925.066 timesteps/s
99.7% CPU use with 48 MPI tasks x no OpenMP threads

MPI task timing breakdown:
Section |  min time  |  avg time  |  max time  |%varavg| %total
---------------------------------------------------------------
Pair    | 0.21577    | 0.2403     | 0.27338    |   2.6 | 47.16
Neigh   | 0.031004   | 0.033791   | 0.03846    |   0.8 |  6.63
Comm    | 0.14534    | 0.17919    | 0.20798    |   3.6 | 35.17
Output  | 4.8431e-05 | 4.9755e-05 | 6.5423e-05 |   0.0 |  0.01
Modify  | 0.03922    | 0.05175    | 0.064522   |   3.4 | 10.16
Other   |            | 0.004475   |            |       |  0.88

Nlocal:        83.3333 ave          90 max          76 min
Histogram: 2 3 7 3 3 13 3 8 3 3
Nghost:        1719.02 ave        1748 max        1695 min
Histogram: 2 2 6 11 11 5 5 2 3 1
Neighs:        10220.4 ave       11477 max        8996 min
Histogram: 1 3 6 5 8 12 6 3 2 2

Total # of neighbors = 490579
Ave neighs/atom = 122.64475
Neighbor list builds = 141
Dangerous builds = 13

#############################
# L I N E A R  Q U E N C H  #
#############################

# Define solid atoms. This closely follows ten Wolde  Ruiz-Montero and Frenkel  Faraday Discuss  1996  104  93-110
# Compute components of the per-atom q6 vector
compute q6 all orientorder/atom degrees 1 6 components 6 nnn NULL cutoff 1.3 # compute the Q6 parameter.
                                                                             # Use all neighbours within 1.3 unit cell.

# get number of connections
compute coord_number all coord/atom orientorder q6 0.5

# An atom is solid if it has 8 or more connections (of a possible 14)
variable is_solid atom c_coord_number>=8
group solid dynamic all var is_solid    # Must be dynamic to update
dynamic group solid defined

# do clustering
compute cluster solid cluster/atom 1.3 # Create a cluster where all atoms within are solid and max 1.3 units from another member

# define chunks one chunk per cluster
compute clus_chunks solid chunk/atom c_cluster nchunk every compress yes  # Says which atoms are in which chunk

# count the size of each chunk
compute size_chunks solid property/chunk clus_chunks count


# Find the maximum entry in the vector of chunk sizes
variable max_n equal max(c_size_chunks)


# Thermo style which includes this variable
# thermo_style custom step temp pe vol v_max_n

thermo ${N}  # Print the thermo information every 100 steps
thermo 1000  

# Reset the npt fix at a lower temperature (below freezing)
fix 1  all npt temp  ${temp} ${temp}  0.1  iso  5.68  5.68  0.5  mtk yes tchain  5  pchain  5
fix 1  all npt temp  0.45 ${temp}  0.1  iso  5.68  5.68  0.5  mtk yes tchain  5  pchain  5
fix 1  all npt temp  0.45 0.45  0.1  iso  5.68  5.68  0.5  mtk yes tchain  5  pchain  5

dump dmp2 all dcd ${N} traj.dcd
dump dmp2 all dcd 1000 traj.dcd


compute msd all msd com yes
variable twopoint equal c_msd[4]/6/(step*dt+1.0e-6)
fix 9 all vector 10 c_msd[4]
variable fit equal slope(f_9)/6/(10*dt)
thermo_style custom step temp pe c_msd[4] v_twopoint v_fit v_max_n

fix 1 all npt temp 1.25 ${temp} 0.1 iso 5.68 5.68 0.5 mtk yes tchain 5 pchain 5
fix 1 all npt temp 1.25 0.45 0.1 iso 5.68 5.68 0.5 mtk yes tchain 5 pchain 5
run 5000000 # 5000000  # Run for this many steps
Neighbor list info ...
  update every 1 steps, delay 10 steps, check yes
  max neighbors/atom: 2000, page size: 100000
  master list distance cutoff = 3.8
  ghost atom cutoff = 3.8
  binsize = 1.9, bins = 9 9 9
  4 neighbor lists, perpetual/occasional/extra = 1 3 0
  (1) pair lj/cut, perpetual
      attributes: half, newton on
      pair build: half/bin/atomonly/newton
      stencil: half/bin/3d
      bin: standard
  (2) compute orientorder/atom, occasional
      attributes: full, newton on
      pair build: full/bin/atomonly
      stencil: full/bin/3d
      bin: standard
  (3) compute coord/atom, occasional
      attributes: full, newton on
      pair build: full/bin/atomonly
      stencil: full/bin/3d
      bin: standard
  (4) compute cluster/atom, occasional
      attributes: full, newton on
      pair build: full/bin/atomonly
      stencil: full/bin/3d
      bin: standard
Per MPI rank memory allocation (min/avg/max) = 9.766 | 9.774 | 9.781 Mbytes
Step Temp PotEng c_msd[4] v_twopoint v_fit v_max_n 
   12000    1.2528095    -6.455732 1.0241387e-30 7.1120738e-33 8.3333333e+20            3 
   13000    1.2634951    -6.432406   0.51005952 0.0032696122  0.041694197            1 
   14000    1.2227603   -6.4366894    1.0451575 0.0062211754  0.042894958            2 
   15000    1.2179812   -6.4526842    1.5809446 0.0087830254  0.043415399            3 
   16000    1.2557838   -6.4595611     2.102411  0.010950057  0.043797897            4 
   17000    1.2655183   -6.4358978    2.6500817  0.012990596  0.043990854            1 
   18000    1.2295243   -6.4113026    3.1878025  0.014758345  0.044427005            3 
   19000    1.2430413   -6.4877171    3.6893537  0.016181375  0.044430486            3 
   20000    1.2526741   -6.4674406    4.1667546  0.017361477  0.043980254            2 
   21000    1.2314367   -6.4576526    4.6783051  0.018564702   0.04354377            1 
   22000    1.2586773   -6.4385551    5.1440776  0.019485142  0.043095315            3 
   23000    1.2559244   -6.4402872     5.635189  0.020417351  0.042827347            4 
   24000    1.2740999   -6.4713391    6.1791117  0.021455248  0.042642602            3 
   25000     1.264939   -6.4812388    6.7033111   0.02234437  0.042668568            2 
   26000    1.2485124   -6.4510115    7.3102816  0.023430389  0.042782884            1 
   27000    1.2530485    -6.451373    7.9062142  0.024401895  0.043038269            1 
   28000    1.2464608   -6.4900046    8.4278987  0.025083031  0.043249876            2 
   29000    1.2337616   -6.5187922    8.9719558  0.025781482  0.043484247            1 
   30000     1.252551   -6.4629778    9.4953761  0.026376044  0.043640577            2 
   31000    1.2564618   -6.4659611    9.9885949  0.026851061  0.043740566            2 
   32000    1.2250274    -6.460382    10.441734  0.027192015  0.043742365            3 
   33000    1.2307232    -6.480159    10.880513  0.027476042  0.043653447            1 
   34000    1.2437479   -6.4406567    11.473434   0.02812116  0.043573305            2 
   35000    1.2515052   -6.4618207    11.871878  0.028266375  0.043515966            3 
   36000    1.2686071   -6.4939209    12.386383  0.028672183  0.043402609            2 
   37000    1.2731343   -6.4970139    12.905077  0.029065488  0.043301414            3 
   38000    1.2552684   -6.4853441    13.429205  0.029450011   0.04324943            1 
   39000    1.2114925   -6.5016872    13.888919  0.029677177  0.043192434            2 
   40000    1.2217205   -6.4601431     14.53173  0.030274437  0.043170786            3 
   41000    1.1944123   -6.4471473    15.029616     0.030548   0.04318172            5 
   42000    1.2766966   -6.4568594    15.540531  0.030834387   0.04316623            2 
   43000    1.2411834   -6.4434252    16.263744  0.031518884    0.0431839            1 
   44000    1.2457975   -6.4461459    16.874887  0.031960012  0.043265153            3 
   45000    1.2403847   -6.4664846    17.266859  0.031975664  0.043345511            2 
   46000    1.2428803   -6.4713366    17.878909  0.032389328   0.04340845            2 
   47000    1.2428643   -6.4557687    18.320412     0.032483  0.043432967            5 
   48000    1.2533052   -6.4437455    18.834623  0.032698998   0.04345234            3 
   49000    1.2274123   -6.5121418    19.265934  0.032765194  0.043462448            1 
   50000    1.2410381   -6.4670137    19.787166  0.032978611  0.043451939            2 
   51000    1.2384669   -6.4858614    20.310817  0.033187609  0.043477397            2 
   52000    1.2399588    -6.451227    20.804932  0.033341237  0.043490411            1 
   53000    1.2286301   -6.4773034    21.384924  0.033624094  0.043470849            2 
   54000    1.2309028   -6.4754133     22.02213  0.033984768    0.0434837            2 
   55000    1.2201811   -6.4763465    22.551438  0.034168845  0.043502146            2 
   56000    1.2136769   -6.4691133    23.042143  0.034288903  0.043519345            1 
   57000    1.2262042   -6.4483513    23.574898  0.034466225  0.043541845            1 
   58000    1.2781982   -6.4361199     23.96386  0.034430833  0.043531259            3 
   59000    1.2485158   -6.4660583    24.374855  0.034427761  0.043495812            1 
   60000    1.2316711   -6.4339741    24.984355  0.034700492   0.04347655            3 
   61000    1.2336793   -6.5126833    25.359137  0.034643629  0.043449287            2 
   62000     1.209324   -6.4647038    25.828038  0.034715105  0.043400669            3 
   63000    1.2502967    -6.433844    26.467469  0.035009879   0.04335849            2 
   64000    1.2440653    -6.497402     26.99581  0.035150794  0.043335895            1 
   65000     1.236861   -6.4628265    27.365885  0.035084467  0.043321473            2 
   66000     1.206786    -6.506893    27.946729  0.035286274  0.043293835            3 
   67000    1.2428165   -6.4628939    28.489169  0.035434289  0.043268162            1 
   68000    1.2519666   -6.4682763    29.136896   0.03570698  0.043260507            2 
   69000    1.2486894   -6.4526111    29.796391  0.035985979  0.043268277            3 
   70000    1.2381478   -6.4745895    30.322395  0.036098089  0.043287205            2 
   71000    1.2389846   -6.4782615    30.617331  0.035935835  0.043303298            2 
   72000    1.2391129   -6.4618906    31.612288  0.036588296  0.043326433            1 
   73000    1.2594758   -6.5003142    31.918076  0.036436159  0.043362494            2 
   74000    1.2626409   -6.5336073     32.62389  0.036738614  0.043406964            2 
   75000    1.2260559   -6.4555749    33.230366  0.036922628  0.043458014            3 
   76000    1.2575298    -6.468506    33.745907  0.037002091  0.043500441            1 
   77000    1.2336849   -6.4461797    34.128475  0.036935579  0.043532703            2 
   78000      1.24848   -6.4597041    34.632593  0.037000633  0.043556148            4 
   79000    1.2481798   -6.4610695    35.318238  0.037255525   0.04358661            3 
   80000     1.249614   -6.4912806     36.02014  0.037520979  0.043632596            1 
   81000    1.2062983   -6.4950776    36.575796   0.03762942  0.043691919            2 
   82000    1.2241567   -6.5200634    37.083339   0.03768632  0.043744048            3 
   83000    1.2315776   -6.4650413    37.648915  0.037800115  0.043794499            1 
   84000    1.2432301   -6.4380983    38.185041  0.037881984  0.043849946            1 
   85000    1.2440084   -6.4916434    38.815974  0.038054876  0.043900078            3 
   86000    1.2337729   -6.5016764    39.173136  0.037958465  0.043935349            1 
   87000    1.2576667     -6.48638    39.608066  0.037938761  0.043956016            3 
   88000    1.2456768   -6.4730377    40.251077   0.03811655  0.043979666            2 
   89000    1.2157124   -6.4763164    40.641903  0.038054216  0.043997809            2 
   90000    1.1993783   -6.4878329    41.249406  0.038193895  0.044007865            4 
   91000    1.2220214   -6.4845256    41.884688  0.038355941  0.044026494            1 
   92000    1.2561343   -6.4849001     42.28515  0.038301766  0.044037549            2 
   93000    1.2366415   -6.4750052    42.814989  0.038364686   0.04405684            2 
   94000    1.2208353   -6.4644154     43.39127  0.038467438  0.044077097            2 
   95000    1.2558829   -6.4862582    43.919775  0.038526118  0.044092384            1 
   96000    1.2442769   -6.4964257     44.55289  0.038674384  0.044106526            2 
   97000     1.227161   -6.5316636    44.840091  0.038522415  0.044120161            3 
   98000     1.240028   -6.5120489    45.323989  0.038540807  0.044132546            3 
   99000    1.2446958   -6.5368565    45.795793  0.038548647  0.044137635            2 
  100000    1.2216873   -6.4771513    46.366471  0.038638726  0.044139294            1 
  101000     1.213207   -6.4932809    46.943586  0.038732331  0.044136911            1 
  102000    1.2335102   -6.4955807    47.418424  0.038740542  0.044141552            2 
  103000    1.2551847    -6.472602    48.175383  0.038976847  0.044143075            2 
  104000     1.219312   -6.4488486    48.950568  0.039223212  0.044154265            2 
  105000    1.2243111   -6.4593737    49.375689  0.039187055  0.044168101            2 
  106000    1.2437127   -6.4924154    49.898447  0.039228339  0.044181474            8 
  107000       1.2449   -6.4764827    50.340186  0.039205752  0.044200508            2 
  108000      1.27512   -6.4897197    50.942849  0.039307754  0.044215947            4 
  109000    1.2341087   -6.4902739    51.701808  0.039527376   0.04423548            3 
  110000    1.2281295   -6.4687406    52.204485  0.039548852  0.044258916            2 
  111000    1.2268471   -6.4868161    52.664077  0.039537595  0.044272957            1 
  112000    1.2222497   -6.4423889    53.053785  0.039474542  0.044281359            1 
  113000    1.2126196    -6.457988    53.899797  0.039749113  0.044295581            2 
  114000    1.2536126   -6.4525473    54.209701  0.039626975  0.044310906            4 
  115000    1.2285562   -6.5080104    54.280836  0.039333939  0.044314474            3 
  116000    1.2312287   -6.4918001    54.905843  0.039443853  0.044309436            4 
  117000    1.2670072   -6.4575319    55.356087  0.039427412  0.044303792            1 
  118000    1.2525894   -6.4914753    55.746538  0.039369024  0.044294846            1 
  119000    1.2530354   -6.4951059    56.294315  0.039421789  0.044279613            2 
  120000    1.2245105    -6.507183    56.637784  0.039331794  0.044262604            1 
  121000    1.2441825   -6.5056359    57.100155  0.039325176  0.044242285            2 
  122000    1.2168005   -6.4825049    57.670649   0.03939252   0.04422145            3 
  123000    1.2364614   -6.5121974     58.18654  0.039421775  0.044205603            2 
  124000    1.2790255    -6.495911     58.53385  0.039337265   0.04418262            2 
  125000    1.2301627   -6.4903876    59.001659  0.039334439    0.0441615            2 
  126000    1.2557877   -6.4879504    59.683441  0.039473175  0.044140912            2 
  127000    1.2470304   -6.4815197    60.158821  0.039474292  0.044125015            2 
  128000    1.2282296   -6.5063185    60.899987  0.039648429  0.044113437            2 
  129000    1.2388589   -6.4830304    61.328063  0.039617612  0.044099073            2 
  130000    1.2205886   -6.4782832    61.986685  0.039735054  0.044087121            2 
  131000    1.2453777    -6.463706     62.69367  0.039881469   0.04407794            3 
  132000    1.2068547   -6.4576903    62.683713  0.039573051  0.044062348            1 
  133000     1.247295   -6.5182657    63.361795  0.039700373  0.044045981            4 
  134000    1.2233349   -6.4672337    63.617643  0.039563211  0.044022934            3 
  135000    1.2463758   -6.5225642    64.182298  0.039618702  0.043996544            2 
  136000     1.235429   -6.4928618    64.289942  0.039393346  0.043971715            2 
  137000    1.2506941   -6.4600078    64.985028  0.039528606  0.043940553            3 
  138000    1.2382814   -6.4371196    65.606632  0.039617531  0.043910706            2 
  139000    1.2335238   -6.5201558    65.550689  0.039298974  0.043881412            2 
  140000    1.2391741    -6.495327    66.337931  0.039486864  0.043850007            5 
  141000    1.2011201   -6.4733251    67.015367  0.039607191  0.043823374            3 
  142000    1.2395526   -6.4543368    67.615068  0.039680204  0.043798074            2 
  143000    1.2119624    -6.488816     68.35508  0.039833963  0.043777398            2 
  144000    1.2252997   -6.4701591    68.942828  0.039897469  0.043762201            2 
  145000    1.2561447   -6.4689605    69.403679  0.039887172  0.043744455            2 
  146000    1.1844623    -6.449003    69.885526  0.039888999  0.043726954            2 
  147000    1.2439723   -6.4958382    70.324956  0.039866755  0.043710949            1 
  148000    1.2229438   -6.4776507    71.152632  0.040063419  0.043701021            3 
  149000    1.2501626   -6.4960702    71.405717  0.039936083  0.043695028            2 
  150000    1.2489363   -6.5179811    72.090498  0.040050276  0.043687109            1 
  151000    1.2620526   -6.4432559    72.869243  0.040214814  0.043677754            1 
  152000    1.2330743   -6.4947339    72.986707  0.040014642  0.043667281            2 
  153000     1.232696    -6.490449    73.150891  0.039842533  0.043652202            3 
  154000    1.2323298    -6.519062    73.495678  0.039770388  0.043633026            2 
  155000    1.2126162   -6.4593526    74.086486  0.039831444  0.043611825            2 
  156000    1.2221251   -6.4956683    74.678869  0.039892558  0.043591043            1 
  157000    1.2462357   -6.5505066    75.050089  0.039835504  0.043574121            1 
  158000    1.2305083   -6.5310975    76.115923  0.040145529  0.043562974            2 
  159000    1.2161663   -6.4830669    76.550093  0.040120594  0.043552509            1 
  160000    1.2363333   -6.4891828    76.936565  0.040071127  0.043544225            2 
  161000     1.220311    -6.494871    77.859572  0.040299986  0.043534605            1 
  162000    1.2247251   -6.4976519    78.209139  0.040231039  0.043528896            2 
  163000     1.212456   -6.4526055    79.074011  0.040426386  0.043524194            3 
  164000    1.2220356   -6.4884477    78.999067  0.040141802  0.043518737            2 
  165000    1.2005112   -6.5175836    79.560977  0.040182312  0.043510599            1 
  166000    1.2435698   -6.5084193    79.946388  0.040133729  0.043501466            2 
  167000    1.2138164   -6.5203825    80.549748  0.040194485  0.043488974            1 
  168000    1.2208108   -6.5296876     80.93492  0.040146289  0.043476294            3 
  169000    1.2249691   -6.4469091    81.436149  0.040155892  0.043462164            2 
  170000    1.2091215   -6.5134726    81.838959  0.040117137  0.043447251            1 
  171000    1.2142605   -6.5281793    82.405902  0.040158821  0.043434894            2 
  172000    1.2234466   -6.4909125    82.766036  0.040099824  0.043418642            1 
  173000    1.2080897   -6.4988296    83.337033  0.040143079  0.043402428            2 
  174000    1.2208475   -6.5474505    83.351529  0.039919314  0.043384619            3 
  175000    1.2121814   -6.5112876    84.113605  0.040054098  0.043364176            2 
  176000    1.2263344   -6.5325717    84.313064  0.039920958  0.043343943            2 
  177000    1.2293874   -6.4890276    85.240801  0.040132204  0.043327472            2 
  178000    1.2045248   -6.5047745    85.977274  0.040251533  0.043316543            2 
  179000    1.2079429   -6.4672974    86.976665   0.04049193  0.043310452            2 
  180000    1.2408081   -6.5163403    87.102073  0.040325033  0.043305058            2 
  181000    1.2191364   -6.5407722    87.793706  0.040420675  0.043297806            2 
  182000    1.2126137   -6.4953998    88.548425   0.04054415  0.043290722            2 
  183000    1.2239065   -6.4768556    88.737419  0.040408661  0.043283243            2 
  184000    1.2276385   -6.5480221    88.783416   0.04020988  0.043272065            3 
  185000    1.1842667   -6.5070804    89.301498    0.0402259  0.043259234            7 
  186000    1.2014403   -6.5444033    89.569838  0.040129855  0.043247455            2 
  187000      1.22425    -6.508454    90.178701  0.040186587  0.043231946            1 
  188000    1.2203332    -6.514657    90.240747  0.040000331  0.043213797            2 
  189000    1.2394569    -6.472912    90.958195  0.040105024  0.043193311            2 
  190000    1.2153632    -6.514905    91.536487  0.040147582  0.043175222            2 
  191000     1.221251   -6.5284435    92.138321  0.040199965    0.0431588            1 
  192000    1.2229406   -6.4907332    92.779303  0.040268794  0.043143795            2 
  193000    1.2330256   -6.5206139     93.24026  0.040259179  0.043133042            4 
  194000    1.2163835   -6.5275665    94.160409  0.040446911  0.043122035            3 
  195000    1.2199992    -6.496747    95.061843  0.040624719   0.04311641            1 
  196000    1.1902269    -6.525295    95.266515   0.04050447  0.043112174            1 
  197000    1.2155285   -6.5047456    95.855435  0.040547984  0.043109185            2 
  198000    1.2256349   -6.4772267     96.86129  0.040766536  0.043108639            2 
  199000    1.2185895   -6.5299526    96.687491  0.040488899  0.043104807            2 
  200000    1.2297439   -6.5352981    97.213774  0.040505739  0.043098265            2 
  201000    1.2275757   -6.5143723    97.380506  0.040373344  0.043088245            1 
  202000    1.2081431   -6.5507956    97.582309  0.040256728  0.043075046            5 
  203000    1.2387389   -6.5009059    98.175392  0.040301885  0.043060686            1 
  204000    1.2035537   -6.5524119    98.969376  0.040428666  0.043048954            2 
  205000     1.248478    -6.536682    99.179504  0.040316871  0.043038654            3 
  206000     1.212335   -6.4960519       99.702  0.040332524  0.043026672            1 
  207000    1.2232491   -6.5422647    100.00878  0.040261184  0.043013004            5 
  208000    1.2509038   -6.5041321    100.50119    0.0402649  0.042998871            1 
  209000     1.217917   -6.5373758    100.84805  0.040210544  0.042986541            2 
  210000    1.2411696   -6.5763357    101.49997  0.040277768  0.042972548            2 
  211000    1.2234338    -6.501217    101.96043  0.040268731  0.042958514            2 
  212000    1.2364579   -6.5403114    102.53827  0.040305923  0.042944663            1 
  213000    1.2069588   -6.5220482    103.22639   0.04038591  0.042931651            3 
  214000    1.2483741    -6.486575     104.0066  0.040501013  0.042921049            1 
  215000    1.1996874   -6.5180389    104.15235  0.040369127  0.042912366            1 
  216000    1.2194689   -6.5095224    105.00955  0.040512944  0.042902551            4 
  217000    1.2252106   -6.4992696    105.57384  0.040542951  0.042895184            1 
  218000    1.2179473   -6.5132442    105.69673  0.040403949  0.042884749            2 
  219000    1.1955785   -6.5474482      106.133  0.040385463  0.042871426            1 
  220000    1.2160281   -6.4654196    106.73157  0.040428625  0.042859937            1 
  221000    1.2228531   -6.5630093    106.96511   0.04033375  0.042848144            2 
  222000    1.2003439   -6.5428943    107.38394  0.040309287  0.042837783            2 
  223000    1.2105013   -6.5313389    108.07752  0.040387715     0.042826            2 
  224000    1.2118488   -6.5493628    108.36181  0.040313175  0.042813147            2 
  225000    1.2311652   -6.5283128    108.25883  0.040095864  0.042797047            2 
  226000    1.1929031   -6.5209072    108.85571  0.040138537  0.042779565            2 
  227000    1.2084298   -6.4728649    109.61528  0.040240557  0.042760827            5 
  228000    1.2463035    -6.530863    110.06762  0.040229391   0.04274308            1 
  229000    1.2305722   -6.5196284    110.45898  0.040196134  0.042726743            4 
  230000    1.2101892   -6.5597057     111.0274  0.040227318  0.042709646            1 
  231000    1.2125966   -6.5224952    111.43849  0.040201477  0.042692968            2 
  232000     1.223655   -6.5166278    111.86787  0.040182423  0.042677914            3 
  233000    1.2320851   -6.5119919    112.63164  0.040283133  0.042662933            1 
  234000     1.249418   -6.5373248    112.59655  0.040098485  0.042649231            1 
  235000    1.2332611   -6.5639585    113.79932  0.040354367  0.042634289            2 
  236000    1.1973652   -6.5296352    114.21147  0.040328909  0.042623296            3 
  237000    1.2107452   -6.5037341    114.79837   0.04036511  0.042613897            1 
  238000    1.1741939   -6.5190464    115.50789  0.040443937  0.042605148            3 
  239000    1.1995999   -6.5654907    115.91075  0.040415185  0.042596348            2 
  240000    1.2112261   -6.5276528    116.82143  0.040562997   0.04258706            2 
  241000     1.200256    -6.550579    116.78643  0.040382582  0.042577491            3 
  242000    1.2406214    -6.484675    117.30151  0.040393082  0.042568512            2 
  243000    1.2026963   -6.4813572    118.21177  0.040539017  0.042560518            2 
  244000    1.2124724   -6.5505166    118.49746  0.040470442   0.04255286            2 
  245000    1.1856935   -6.5594582    118.56359   0.04032775  0.042544413            2 
  246000    1.2066619    -6.566242    119.13325  0.040356792  0.042535463            2 
  247000    1.2007157   -6.5360838    120.16536  0.040541618  0.042526612            3 
  248000    1.1797835    -6.574174      120.435  0.040468751  0.042519424            2 
  249000    1.2013024   -6.5087724    120.93298  0.040472886  0.042512059            4 
  250000    1.2275042   -6.5205005    121.58852  0.040529506  0.042504032            2 
  251000    1.2275465   -6.5172505    121.84455  0.040453037  0.042497323            1 
  252000    1.2259424   -6.5044697    122.29163  0.040440353  0.042489865            2 
  253000    1.2193895   -6.5132714    122.59387  0.040380061  0.042479214            2 
  254000    1.1924254   -6.5180492    122.83616  0.040300578    0.0424682            2 
  255000    1.2113404   -6.5546583    123.36497   0.04031535   0.04245749            2 
  256000    1.2177405   -6.5354216    124.23633  0.040441514  0.042447828            2 
  257000    1.2345095   -6.5401199    124.80384  0.040468171  0.042439381            5 
  258000    1.2346991   -6.5298452    125.85415  0.040650564  0.042431483            1 
  259000    1.2102501   -6.5277893    125.87821  0.040501355  0.042424863            8 
  260000    1.1771992   -6.5252171    126.39901  0.040512503  0.042418279            2 
  261000    1.2159523   -6.5484705    127.18732  0.040608978  0.042412688            1 
  262000    1.2136294   -6.5000227    127.82159  0.040655722  0.042408221            1 
  263000    1.2139309    -6.559038    127.42496  0.040375463  0.042402417            2 
  264000    1.2036884   -6.5759219    128.22085  0.040473753  0.042396183            2 
  265000     1.213345   -6.5391233    128.53744  0.040420579  0.042388647            2 
  266000    1.1960176   -6.4929577    129.48866  0.040566622  0.042381661            2 
  267000    1.2372109   -6.5340171    129.60275  0.040450295  0.042373116            1 
  268000    1.2018238   -6.5390883    130.42981  0.040556534  0.042365339            2 
  269000    1.2196914   -6.5327153    130.45545  0.040413708   0.04235592            3 
  270000    1.2111938   -6.5479844    131.42064  0.040561926  0.042348161            2 
  271000    1.2268513   -6.5762076    131.23569  0.040355378  0.042339505            2 
  272000    1.2204694   -6.5287772    132.59516  0.040623519  0.042330238            3 
  273000    1.2538408   -6.5407519    132.55865  0.040463569  0.042322167            2 
  274000    1.2156626   -6.5084695     133.3656  0.040561312  0.042315895            2 
  275000    1.2137087   -6.5618563     134.1036  0.040637453  0.042311182            2 
  276000    1.2146998   -6.5191591    134.28393  0.040544665  0.042305303            1 
  277000     1.218508   -6.5208798    135.12803  0.040652236  0.042299531            1 
  278000    1.2181096   -6.5184747    135.20822  0.040530043  0.042294394            1 
  279000    1.1856354   -6.5830287    135.55046  0.040486994  0.042287542            2 
  280000     1.184238   -6.5558996    136.50086  0.040625257   0.04228153            3 
  281000    1.2285233   -6.5410237    136.89431  0.040597365  0.042277511            2 
  282000    1.1791195   -6.5620261    137.72569  0.040699081  0.042272142            1 
  283000    1.2071937    -6.555985    137.90599   0.04060836   0.04226748            3 
  284000    1.2026495   -6.5173746    138.49159  0.040637204  0.042263446            2 
  285000    1.2021104   -6.5158583    138.96377   0.04063268  0.042257913            4 
  286000    1.2169975   -6.5028813    139.09123  0.040527747  0.042252074            1 
  287000    1.2334552   -6.5484228    139.42598  0.040483733  0.042244938            5 
  288000    1.2031021   -6.4814448    140.39693  0.040624111  0.042237069            3 
  289000    1.2126974   -6.5151244    140.40929  0.040487107  0.042230374            2 
  290000     1.228935   -6.5682445     140.5172  0.040378505  0.042223222            2 
  291000    1.2157191   -6.5741468    141.36154  0.040481542  0.042215545            2 
  292000    1.2115956   -6.5634302    141.21961  0.040302399  0.042206218            1 
  293000    1.2135015   -6.5537502    142.38635  0.040496685   0.04219769            1 
  294000    1.2324806   -6.5349289    142.21536  0.040310476  0.042188438            1 
  295000    1.2192802   -6.5735202    142.49991  0.040254212  0.042177924            4 
  296000    1.2319452   -6.6032416    143.00832   0.04026135  0.042167111            2 
  297000     1.199264   -6.5530461    143.69187  0.040317583  0.042156745            1 
  298000    1.2065017   -6.5545485    144.75923  0.040480769  0.042147433            1 
  299000    1.2139606   -6.4999957    145.41891  0.040529239  0.042139163            2 
  300000    1.2277896   -6.5712522    145.01015  0.040280596  0.042128491            3 
  301000    1.2069012   -6.5748343    145.33721  0.040237323  0.042118091            3 
  302000    1.1934804   -6.5655654    145.77828  0.040225794  0.042107282            2 
  303000    1.2151138   -6.5978502    146.62222  0.040325143  0.042095381            3 
  304000    1.2076086   -6.5378717    147.16491  0.040341259  0.042085173            3 
  305000    1.1755376   -6.5480079    147.67579  0.040348576  0.042075754            2 
  306000    1.2187114   -6.5349015    148.19485  0.040358074  0.042066345            1 
  307000    1.2080646   -6.5354936    148.98251  0.040440422  0.042056287            1 
  308000    1.2090654   -6.5222707    148.72119  0.040238418   0.04204533            3 
  309000    1.2421165    -6.589558    148.82693  0.040136712  0.042034126            3 
  310000    1.2055915   -6.5158284    149.66267  0.040231902  0.042023767            1 
  311000    1.2029478   -6.5511165    150.40272  0.040300836  0.042014708            3 
  312000    1.1942302   -6.5338259    150.91434  0.040308316  0.042006899            3 
  313000    1.2095966   -6.5294638    152.00734  0.040470537  0.041999416            1 
  314000      1.21326   -6.5148566    152.48384   0.04046811  0.041990593            2 
  315000    1.1863428   -6.5778677    152.55687  0.040358959  0.041983467            1 
  316000    1.2219819   -6.5537366    154.02375  0.040618078  0.041976675            3 
  317000    1.2047979   -6.5644866    153.66757  0.040396311  0.041969886            2 
  318000    1.1945787   -6.5884459    154.64609  0.040525704  0.041965111            1 
  319000    1.2067839   -6.5079832    155.38854  0.040592616  0.041960045            1 
  320000    1.1960562   -6.5589903     155.6865  0.040543358  0.041954881            2 
  321000    1.2080981   -6.5449469    156.28646  0.040572809  0.041950097            2 
  322000    1.1712085   -6.5371549    156.33412   0.04045914  0.041944355            3 
  323000    1.2084014   -6.5548388    157.48654  0.040631202  0.041939006            2 
  324000    1.2076981   -6.5591157    157.23553  0.040441237  0.041933057            2 
  325000    1.1984672   -6.5627642    157.01423  0.040260059  0.041925558            1 
  326000    1.2241383   -6.5668079    157.70022  0.040311917   0.04191778            2 
  327000    1.1847111   -6.5376344    158.59034  0.040415479  0.041910073            2 
  328000    1.1762573   -6.5158638    158.97095   0.04038896  0.041901933            2 
  329000    1.1858572   -6.6080151    159.01617  0.040277653  0.041893798            2 
  330000    1.2040764   -6.5786962    159.42216  0.040258122  0.041885028            4 
  331000    1.2037267   -6.5397388    159.63724  0.040190645  0.041878492            2 
  332000    1.2126296   -6.5671285    160.29826  0.040235507  0.041870475            1 
  333000    1.1941749    -6.611174    160.59248  0.040188309  0.041861019            4 
  334000    1.1803235   -6.5415973     162.1659  0.040460554  0.041853589            1 
  335000    1.1860328    -6.558217    162.46481  0.040414133   0.04184784            2 
  336000    1.2174066   -6.5571484    163.39629  0.040524873  0.041843267            1 
  337000     1.210279   -6.5759932    164.20337  0.040604197  0.041839467            3 
  338000    1.2030058    -6.558401    164.42086  0.040537688  0.041836745            2 
  339000     1.222738   -6.5788637    164.79253  0.040509471  0.041833428            2 
  340000     1.200101   -6.5227732    165.92523  0.040667948   0.04183002            2 
  341000    1.2155849   -6.5692296      166.378  0.040659336    0.0418278            1 
  342000    1.2118127   -6.5700936    166.24606  0.040508299  0.041825088            1 
  343000    1.2060018    -6.542587    166.70613  0.040501974  0.041822711            3 
  344000    1.1948759   -6.5319212    167.83772  0.040658361  0.041818356            3 
  345000    1.2139862   -6.5473859    167.87313  0.040549065  0.041813868            2 
  346000    1.1970599   -6.5925506    167.62143   0.04037125  0.041808823            2 
  347000    1.1930788   -6.5687989    168.42914  0.040448881  0.041803184            2 
  348000    1.1801283   -6.5005055    169.23422  0.040525435  0.041797467            1 
  349000    1.2169863   -6.5671127     169.6565  0.040510147  0.041790709            2 
  350000    1.1990402    -6.552893    169.84955  0.040440369  0.041783466            3 
  351000     1.196768   -6.5707447       170.08  0.040379868  0.041775803            2 
  352000    1.2105529   -6.5290663    170.51518  0.040368176  0.041769337            3 
  353000    1.2145065   -6.5275336    171.54998  0.040498107  0.041763042            2 
  354000    1.1870861    -6.550752    171.88053  0.040461519  0.041756872            2 
  355000    1.2153046   -6.5798485    172.03387  0.040383538  0.041750511            2 
  356000    1.2136701   -6.5591944    172.55273  0.040391556  0.041744522            1 
  357000    1.2010345   -6.5698182    172.76745  0.040328536  0.041737891            1 
  358000    1.1764423    -6.583674    172.67107  0.040193452  0.041730801            2 
  359000    1.1881513   -6.5218347    174.19816   0.04043597  0.041724176            2 
  360000    1.1986575   -6.5555519    174.76732  0.040455398  0.041717616            3 
  361000    1.1921327   -6.5990226    174.48689  0.040278598  0.041710913            1 
  362000    1.2068077   -6.5700448    175.26808  0.040347164  0.041702815            1 
  363000    1.2056152    -6.582726     175.3215  0.040248278  0.041694288            1 
  364000    1.2049349    -6.549263     175.8167  0.040251077  0.041687297            1 
  365000       1.2047   -6.5666769    176.73768  0.040351068  0.041679824            2 
  366000    1.1915243   -6.5874824    177.12841  0.040329784   0.04167308            5 
  367000    1.1987554   -6.5556326    177.49249  0.040302563  0.041666274            1 
  368000     1.177672   -6.5583678    178.34757  0.040386677  0.041658353            2 
  369000    1.1708361   -6.5385695    178.42243  0.040294135  0.041651296            2 
  370000    1.1877108   -6.5371097    178.85672  0.040283044  0.041644205            2 
  371000    1.1905935   -6.5728966    178.66589  0.040131602  0.041634679            4 
  372000    1.1650957    -6.571485    178.62703  0.040015015   0.04162477            3 
  373000    1.1921783   -6.5666196    179.79351  0.040168345   0.04161461            3 
  374000     1.192984   -6.5926794    179.85692   0.04007507  0.041603757            2 
  375000    1.1724223   -6.5641766     180.5391  0.040119799  0.041592333            2 
  376000    1.2192986   -6.5931397    180.15025  0.039926917  0.041580971            3 
  377000    1.2166062   -6.6007076    181.52747  0.040125435  0.041570636            2 
  378000    1.2068584   -6.5570282    182.10234  0.040146018   0.04156188            3 
  379000    1.1951711   -6.5641036    182.48393  0.040123995  0.041552931            4 
  380000    1.1837805   -6.5596436    184.12893  0.040379152  0.041544195            1 
  381000    1.1827764   -6.5710883    183.96289  0.040236853  0.041536053            2 
  382000    1.2161357   -6.5800244    183.49591   0.04002965    0.0415273            1 
  383000    1.1932967   -6.5347203    184.53856  0.040151994  0.041518434            5 
  384000    1.1934374   -6.5586953    184.67559  0.040077167  0.041510538            2 
  385000    1.1870742   -6.5549227    186.01643  0.040263297  0.041502878            1 
  386000    1.1928559   -6.6066131    186.44265  0.040251004  0.041495307            1 
  387000    1.1830084   -6.5407896    187.23794  0.040318248  0.041489288            2 
  388000    1.1825993   -6.5683266    188.11041   0.04040172  0.041483583            2 
  389000      1.21299   -6.5397233    187.83408  0.040238663   0.04147854            2 
  390000    1.1820717    -6.568188    189.11501  0.040409191  0.041473007            3 
  391000    1.1907145    -6.558527    189.45246  0.040377763  0.041467851            2 
  392000    1.1785247   -6.5536411    189.68919  0.040325084  0.041462377            3 
  393000    1.1954153   -6.5735525    190.31251  0.040354645  0.041457347            2 
  394000    1.1564612    -6.547784    191.36396  0.040474612  0.041452944            4 
  395000    1.2067885   -6.5718342    191.44815  0.040389905  0.041448684            1 
  396000    1.2013113   -6.5645607    191.58685  0.040317097  0.041443629            2 
  397000    1.1643659   -6.5637122    191.92397  0.040286307  0.041439107            2 
  398000     1.196315   -6.5710051    193.36949  0.040487748  0.041434667            1 
  399000    1.1948044   -6.5956976    193.50323  0.040414208  0.041430663            3 
  400000    1.1586048   -6.5706959    194.22236  0.040462992  0.041426298            1 
  401000    1.1899615   -6.5147722    194.68704  0.040458654  0.041422323            2 
  402000    1.1833644   -6.5898059    194.84163  0.040390056  0.041418811            2 
  403000    1.1595146   -6.5824054    194.48529  0.040216148  0.041414424            2 
  404000    1.1825442   -6.5937141    196.20467  0.040471261  0.041410383            2 
  405000    1.1860222   -6.5577015    196.73608  0.040480674  0.041407336            1 
  406000    1.1984178   -6.5788877    197.22242  0.040480793  0.041403492            3 
  407000    1.1705037   -6.5895266    197.35586  0.040408654  0.041398806            1 
  408000    1.1863016   -6.5488207    198.32514  0.040507585  0.041394981            4 
  409000    1.1843035   -6.5494854    198.55463  0.040455304  0.041391605            2 
  410000    1.1806718   -6.5861982    198.65592  0.040377219  0.041387659            1 
  411000    1.2122305   -6.5620242     199.2261  0.040394587  0.041383525            4 
  412000    1.1955781   -6.5582134    199.71475  0.040395379  0.041380032            1 
  413000    1.1793675   -6.5557793    200.20069  0.040395619  0.041375918            1 
  414000    1.1965411   -6.5451852    200.68524  0.040395581  0.041371177            1 
  415000    1.1840575   -6.5792316    200.71816  0.040304852  0.041366725            2 
  416000    1.1806955   -6.5270921    201.41875  0.040348307  0.041361589            2 
  417000     1.215681   -6.6092726    200.93763  0.040155402  0.041356297            3 
  418000     1.195566   -6.6081292    201.85832  0.040242887  0.041350981            2 
  419000    1.1961384   -6.5739374    202.36615  0.040247843  0.041345821            1 
  420000    1.2019831   -6.5783167    203.77738  0.040432019  0.041341494            2 
  421000    1.1834399   -6.6016123    203.59408  0.040299699  0.041337069            1 
  422000    1.1996914    -6.561924    205.02853  0.040487466  0.041333667            3 
  423000    1.1695507   -6.5727672    204.84824  0.040356233  0.041330368            3 
  424000    1.1870378   -6.5727963    205.74504  0.040437312  0.041327131            2 
  425000    1.1865065   -6.5834713    207.18874  0.040625244  0.041324107            1 
  426000    1.1797218   -6.5220902    207.14662  0.040521639  0.041321248            1 
  427000    1.2006956   -6.5652771    207.72423  0.040539467  0.041318038            3 
  428000    1.1857561   -6.5791562    207.87452   0.04047401  0.041314377            2 
  429000    1.2029876   -6.5912178     208.0247  0.040408838  0.041310704            2 
  430000    1.1427502   -6.5618028    208.22186  0.040353074  0.041306565            1 
  431000    1.1986535   -6.5524771    209.13511  0.040436024  0.041302536            2 
  432000    1.1764165   -6.6039073    208.80627  0.040278988  0.041298325            3 
  433000    1.1593525   -6.5888791    210.19089  0.040452443  0.041294346            2 
  434000    1.1865937   -6.5844805    209.59184  0.040244209  0.041290688            2 
  435000    1.2102959   -6.6142038    210.45544  0.040317135  0.041286589            3 
  436000    1.1996098   -6.6127451    211.06473  0.040341118  0.041281794            2 
  437000    1.2044247   -6.5850328    211.71938  0.040373643  0.041276835            1 
  438000    1.2077669   -6.5837666    212.10875  0.040355546  0.041272864            4 
  439000    1.1777415   -6.5789603    213.14152  0.040459666  0.041269329            2 
  440000    1.1734667   -6.5870403    213.29363  0.040396521  0.041266322            2 
  441000    1.1755056   -6.5810849    213.69822  0.040381372  0.041262449            1 
  442000    1.2010833   -6.5867134    214.00287  0.040347449  0.041258633            1 
  443000     1.201409   -6.5868364     214.4794  0.040346012  0.041254907            4 
  444000    1.1655964   -6.5868242    215.09465  0.040370617  0.041251313            1 
  445000    1.2080923   -6.5902589    215.11608  0.040283911  0.041248071            3 
  446000    1.1835579   -6.5601912    216.14786  0.040386372  0.041244335            2 
  447000    1.2046661   -6.5648718    216.35662  0.040334941  0.041240558            2 
  448000    1.1928416   -6.5700598    217.25992  0.040412932   0.04123689            3 
  449000    1.1776576   -6.5964881    216.70497  0.040219928  0.041233244            3 
  450000     1.187929   -6.5590682    218.04387  0.040378495  0.041230007            4 
  451000    1.1733498   -6.6046957      218.987   0.04046323  0.041227344            2 
  452000    1.1804015   -6.5679831    219.33245  0.040437399  0.041224239            3 
  453000    1.1875641   -6.6420248    218.89612  0.040267866  0.041220825            2 
  454000    1.1743551   -6.6273066    218.89378   0.04017874  0.041217494            5 
  455000    1.1890126   -6.6014142    220.20676  0.040330909  0.041213345            3 
  456000    1.1754417   -6.5678149    220.81846   0.04035425  0.041209224            1 
  457000     1.173221   -6.5679396    221.17013  0.040330076  0.041205787            5 
  458000    1.1608309   -6.6328714    220.81335  0.040177102  0.041201637            2 
  459000    1.1591957   -6.5627267    221.94046  0.040294201  0.041197048            5 
  460000    1.1722234    -6.577569    221.96837  0.040211661   0.04119315            2 
  461000    1.1725718   -6.5880983    223.17456  0.040342472  0.041188736            3 
  462000     1.176812   -6.5724415    223.42879  0.040301007  0.041184476            2 
  463000    1.1838849   -6.5407666    223.99645  0.040316136  0.041179433            1 
  464000    1.2133717   -6.6031452    223.07011  0.040062878  0.041173366            3 
  465000    1.1743755   -6.6066555    223.73773  0.040096367  0.041166988            2 
  466000    1.1896008   -6.6158141    223.86563  0.040033196  0.041159997            2 
  467000    1.1861774   -6.6012944    224.48639  0.040058243  0.041152334            2 
  468000    1.1835818   -6.6001201    225.50691  0.040154364  0.041144149            2 
  469000    1.1437334   -6.6236665    224.81697  0.039946156  0.041136217            7 
  470000    1.1870765   -6.5745492    225.56039  0.039992976  0.041129229            7 
  471000    1.1632241   -6.6187488    226.66257  0.040103074  0.041122194            2 
  472000    1.1640733   -6.6071889    227.95075  0.040245541  0.041116039            2 
  473000    1.1969624   -6.5443207    228.08642  0.040184359  0.041110068            2 
  474000    1.2013198    -6.585289    228.54454  0.040180123  0.041104433            6 
  475000    1.1789957   -6.6011371    228.59094  0.040103673  0.041098417            1 
  476000    1.1859726   -6.5757945    229.07763  0.040104628  0.041092133            2 
  477000     1.178569   -6.5912856    229.63033  0.040117109  0.041086285            3 
  478000    1.1582237   -6.5791294    230.94684  0.040262699  0.041080939            2 
  479000    1.1596224   -6.6078666    230.27074   0.04006102  0.041074717            1 
  480000    1.1306366   -6.6550933    230.19755  0.039964852  0.041068298            1 
  481000    1.1585498   -6.5907193    231.72156    0.0401458  0.041062065            1 
  482000    1.1578149   -6.5931533    232.19609  0.040144553  0.041056959            1 
  483000    1.1753498   -6.5747224    232.74288  0.040155777  0.041052299            2 
  484000    1.1869386   -6.6104769    233.39123   0.04018444  0.041047216            1 
  485000    1.1743718   -6.5851053    233.90926  0.040190595  0.041041762            3 
  486000    1.1653812   -6.5933246    234.05811  0.040133421  0.041037131            3 
  487000    1.1593934   -6.6202819    234.18833  0.040073294  0.041032234            2 
  488000    1.1676611   -6.5836762    235.25961  0.040174113  0.041026864            2 
  489000    1.1735412   -6.6057849    235.53284  0.040138521  0.041021759            3 
  490000    1.1720554   -6.5926682    236.46363  0.040214902  0.041017162            5 
  491000    1.1494825   -6.5777576    237.67889  0.040339255  0.041013982            3 
  492000    1.1934651   -6.6120243    237.13465  0.040165083  0.041010535            2 
  493000    1.1816055   -6.6074238    238.75283  0.040357138  0.041007811            2 
  494000    1.1790604   -6.5931801    238.29374     0.040198   0.04100557            2 
  495000     1.211969   -6.6234753    240.02316   0.04040794  0.041003469            2 
  496000    1.1728325   -6.5764819    239.53125  0.040243825  0.041000497            1 
  497000     1.178277   -6.6197684    240.38132  0.040305386  0.040997518            3 
  498000    1.1789632   -6.6006512    240.67308  0.040273273   0.04099483            2 
  499000    1.1801494   -6.6404166    241.19413   0.04027958  0.040992198            1 
  500000    1.1431665   -6.6515214    240.65863  0.040109772  0.040988881            2 
  501000    1.1959286   -6.5921625    241.59144   0.04018487  0.040985438            3 
  502000    1.1809559   -6.6546956    241.72167  0.040126439  0.040981628            3 
  503000    1.1709552   -6.6119852     243.1756  0.040287542  0.040977786            2 
  504000    1.1581997   -6.5995169    243.02582  0.040182841  0.040974385            1 
  505000    1.1680227   -6.6132198    243.98152  0.040260977  0.040971283            6 
  506000    1.1923117    -6.578693    244.70295  0.040300223  0.040968402            3 
  507000    1.1738172   -6.6106631    244.44488  0.040178316  0.040964096            1 
  508000    1.1610414    -6.682212    243.55626  0.039953455  0.040959229            1 
  509000    1.1865295   -6.6110936    244.82586   0.04008282   0.04095464            4 
  510000    1.1722941   -6.5946602    245.58349  0.040128021  0.040950006            2 
  511000    1.1622091   -6.5980443    246.79275  0.040246698  0.040945962            2 
  512000    1.1769426   -6.6127662     246.4296  0.040108985  0.040941325            3 
  513000     1.153082   -6.6200487    246.74417  0.040081899  0.040936112            2 
  514000    1.1661687   -6.6045897     246.5702  0.039975714  0.040930693            2 
  515000    1.1749643   -6.6458405    246.77769  0.039931666  0.040924836            3 
  516000    1.1823339   -6.5874077    247.84082  0.040025972  0.040919093            3 
  517000    1.1461324   -6.6030274    247.74164  0.039932566  0.040913652            3 
  518000    1.1694378   -6.6151342    249.10402   0.04007465  0.040908734            3 
  519000    1.1705091   -6.6245653     249.3118  0.040030796  0.040904381            2 
  520000    1.1737183   -6.6312891    250.17667  0.040092414  0.040899988            3 
  521000    1.1610739   -6.5572515    251.18829   0.04017727   0.04089575            1 
  522000    1.1609204   -6.5816419    250.62567  0.040010484  0.040891093            3 
  523000    1.1730434   -6.6161798    251.94973  0.040144955  0.040886415            1 
  524000    1.1832946   -6.6227645    251.13918  0.039939437  0.040880076            3 
  525000    1.1683914   -6.6327477     250.7057  0.039794556  0.040873408            1 
  526000    1.1768355   -6.6377683    251.64494  0.039867703  0.040866111            2 
  527000     1.167911   -6.6014412    252.17561  0.039875967  0.040859415            1 
  528000    1.1709671   -6.5650296    252.60459  0.039868148  0.040852355            3 
  529000    1.1552385   -6.5558914    252.42208  0.039764032  0.040845181            2 
  530000    1.1779307    -6.567426    253.85266  0.039913941  0.040838338            3 
  531000    1.1722562   -6.5921164    253.61045  0.039800761  0.040831472            5 
  532000     1.154081   -6.6347496    254.02105  0.039790265  0.040824515            3 
  533000    1.1665273   -6.5914622    255.08712  0.039882289  0.040818016            2 
  534000    1.1472217   -6.5972963    255.52561  0.039876032  0.040811592            2 
  535000    1.1712296   -6.6200748    255.56023  0.039806889  0.040804937            1 
  536000    1.1695586   -6.6187105    255.33114  0.039697006  0.040797533            2 
  537000    1.1415042   -6.5812324    256.27584  0.039769684  0.040789885            2 
  538000    1.1673653   -6.5942802    257.00125  0.039808124  0.040782461            1 
  539000    1.1659856    -6.605396    258.37567  0.039946764   0.04077607            4 
  540000    1.1733786   -6.6283865    258.38828  0.039874734  0.040769506            4 
  541000    1.1761495   -6.5688137    259.56619   0.03998247  0.040763595            3 
  542000    1.1632363   -6.5973859    259.16999  0.039847785  0.040757772            2 
  543000    1.1726795   -6.5810267    260.50495  0.039979273  0.040751545            3 
  544000    1.1547634     -6.64857    259.12344  0.039694154   0.04074527            2 
  545000    1.1656478   -6.5917005    260.59975  0.039847056  0.040738948            4 
  546000    1.1703849   -6.6514465     259.9511  0.039675077  0.040732593            2 
  547000    1.1576497   -6.6011267    261.17916  0.039789635  0.040725657            1 
  548000    1.1542089   -6.6309868    260.60439  0.039629621  0.040717931            4 
  549000    1.1454838   -6.6147494    260.88321  0.039599759  0.040710471            5 
  550000    1.1998812   -6.6095101    261.13097  0.039565298  0.040702188            2 
  551000    1.1433766    -6.615478    262.07686  0.039636549  0.040693799            3 
  552000    1.1442716   -6.6142406    262.39241  0.039612381  0.040685051            2 
  553000    1.1388064    -6.648493    262.19568  0.039511104  0.040676209            1 
  554000    1.1785969   -6.6073903    262.80699  0.039531737  0.040667327            5 
  555000    1.1669844   -6.6219623    263.05186  0.039497275  0.040658232            2 
  556000    1.1422103   -6.6422074    263.43415  0.039483536  0.040649355            2 
  557000    1.1185059   -6.5871164    264.53116  0.039576775  0.040640407            2 
  558000    1.1515611   -6.6106059    264.87652  0.039557425  0.040631091            2 
  559000    1.1688819   -6.6510662    264.56247  0.039439844  0.040621466            1 
  560000    1.1638688    -6.632622    265.35574  0.039487461   0.04061201            3 
  561000     1.159552   -6.6571576    265.05982  0.039373116  0.040602335            5 
  562000    1.1659309   -6.5957225    265.34452  0.039345273   0.04059242            2 
  563000    1.1525937   -6.6129583    266.89294  0.039504579  0.040582002            3 
  564000    1.1592038   -6.6192533    267.38285  0.039506922  0.040572222            2 
  565000    1.1597905    -6.615498    267.37394  0.039435684  0.040562744            3 
  566000    1.1735709   -6.6287413    268.14875  0.039480087  0.040553591            4 
  567000    1.1545063   -6.6490715    268.67858  0.039488327  0.040544447            6 
  568000     1.145272   -6.6242823    269.10584  0.039481491  0.040535422            1 
  569000    1.2016746   -6.6163199    269.25671  0.039434199  0.040526574            3 
  570000    1.1286644   -6.6299287    269.58156  0.039412509   0.04051721            2 
  571000    1.1232599   -6.6591115     270.3853  0.039460785  0.040507571            2 
  572000    1.2072589   -6.6428967    270.84074   0.03945815  0.040498268            3 
  573000    1.1441574   -6.6354272     271.4444  0.039477079  0.040489366            3 
  574000    1.1686206   -6.6081723     271.7304  0.039449826  0.040480947            2 
  575000    1.1475092   -6.6380547    271.43476   0.03933837   0.04047214            2 
  576000    1.1710188   -6.6025452    272.69447  0.039452325  0.040463542            2 
  577000    1.1806513   -6.6299757     272.7197  0.039387593  0.040454584            3 
  578000    1.1518412   -6.6297791    273.52129  0.039435019  0.040445723            2 
  579000    1.1315939   -6.6349227    274.03644  0.039441054  0.040436698            2 
  580000    1.1540337   -6.6224862    274.00492  0.039368522  0.040427678            2 
  581000    1.1699668   -6.6316341    274.40859  0.039358662  0.040418819            5 
  582000    1.1510319   -6.6211584    274.88531  0.039359294   0.04040944            1 
  583000    1.1766438    -6.654312     275.0328  0.039312865  0.040400073            3 
  584000    1.1554848   -6.6249999    275.93157  0.039373798  0.040391012            2 
  585000    1.1664058   -6.6845557    275.86307  0.039296734  0.040381808            5 
  586000    1.1872632   -6.6619533    275.49392  0.039177178  0.040372607            4 
  587000    1.1464718    -6.617171    276.52013  0.039256124   0.04036329            2 
  588000    1.1693453   -6.6478043    277.67103   0.03935247   0.04035373            2 
  589000    1.1437868   -6.6014638    277.76081  0.039298361  0.040344449            2 
  590000    1.1527857   -6.6043402    277.99982  0.039265511  0.040335382            4 
  591000    1.1565194    -6.618839    278.20378  0.039227831  0.040326045            1 
  592000    1.1285252   -6.6392579    277.83111  0.039109108  0.040316027            2 
  593000    1.1606227   -6.6138005     277.7088   0.03902597  0.040305414            2 
  594000    1.1398738   -6.6534668    277.90168  0.038987329  0.040294009            1 
  595000    1.1613417   -6.6288112    279.11217   0.03909134  0.040282077            2 
  596000    1.1632808   -6.6413337    279.11431   0.03902605  0.040270381            2 
  597000    1.1562494   -6.6049264    279.85526  0.039064106  0.040259056            4 
  598000    1.1510511   -6.6340087    280.68806  0.039114835  0.040247823            3 
  599000    1.1315579   -6.6527994    279.96009   0.03894826  0.040237012            2 
  600000    1.1342978   -6.6241779    280.75706  0.038994036  0.040225508            3 
  601000    1.1569873   -6.6574434    280.43744  0.038884836  0.040213983            2 
  602000    1.1729251   -6.6547769    281.31999  0.038942413  0.040202523            1 
  603000    1.1564611   -6.6235287    282.42361   0.03903035  0.040191198            2 
  604000    1.1364493   -6.5971595    282.15244  0.038928317  0.040180118            1 
  605000    1.1413209   -6.6004213    283.10844  0.038995653  0.040169766            4 
  606000    1.1494188   -6.6427136    283.55426  0.038992609  0.040159297            2 
  607000    1.1825201   -6.6253053    285.08832  0.039138979   0.04014894            2 
  608000    1.1448814   -6.6141722    284.61616   0.03900989   0.04013895            1 
  609000    1.1304302   -6.6330686    285.08511  0.039010005  0.040129087            2 
  610000    1.1587207   -6.6181265    285.96734  0.039066577  0.040119294            1 
  611000    1.1675439    -6.648242    285.45077  0.038932184  0.040109629            3 
  612000    1.1702554   -6.6370614    286.33379  0.038988806  0.040099635            3 
  613000    1.1566261    -6.654297     288.0633  0.039160319  0.040089914            2 
  614000    1.1172191   -6.6688683    287.02029  0.038954979  0.040080802            3 
  615000    1.1461889   -6.6622491    287.52257  0.038959698  0.040071519            3 
  616000    1.1323081   -6.6547692    288.66865  0.039051495  0.040061818            3 
  617000     1.159685   -6.6478714    288.68535  0.038990458  0.040052596            1 
  618000    1.1491739      -6.6608     288.8968   0.03895588  0.040043579            2 
  619000    1.1463307   -6.6487752    288.77457  0.038876491  0.040033957            2 
  620000    1.1543061   -6.6576199    290.07963  0.038989198    0.0400244            2 
  621000     1.166184   -6.6253128    291.71076  0.039145298   0.04001509            2 
  622000     1.179559   -6.6146784    290.91946  0.038976347  0.040005593            2 
  623000    1.1560256   -6.6697982    290.18644  0.038815736  0.039996114            2 
  624000    1.1488465   -6.6480573    290.35864  0.038776527  0.039986064            3 
  625000    1.1268559   -6.6161048    291.11448  0.038815264  0.039975518            3 
  626000    1.1434325   -6.6629709    291.60169  0.038818116  0.039964804            1 
  627000    1.1704329   -6.6664843    291.90701  0.038796785  0.039953844            5 
  628000    1.1504962   -6.6391263    292.52182   0.03881659  0.039942925            3 
  629000    1.1526772   -6.6190075     292.7151  0.038780485  0.039932221            1 
  630000    1.1338477   -6.6363871    293.22891  0.038786893  0.039921517            3 
  631000    1.1524562   -6.6480385    293.53659  0.038766057  0.039910323            2 
  632000    1.1386201   -6.6682287    293.12419  0.038650341  0.039898713            2 
  633000    1.1266059   -6.6414037    295.11254  0.038851045  0.039887535            1 
  634000    1.1292659   -6.6608383    294.34895  0.038689399  0.039876533            2 
  635000    1.1347519   -6.6436053    295.63999  0.038797899  0.039865025            8 
  636000    1.1359118   -6.6881244    294.94677  0.038646065  0.039854083            2 
  637000    1.1607994   -6.6169591    295.65538  0.038678097  0.039843224            2 
  638000    1.1419223   -6.6380139    297.11171  0.038807694   0.03983246            2 
  639000    1.1478446   -6.6589275    296.95437  0.038726444  0.039821717            1 
  640000    1.1722718   -6.6467334    296.41491  0.038595691  0.039810765            2 
  641000    1.1664286   -6.6403105    297.21997  0.038640142  0.039799616            2 
  642000    1.1579821   -6.6763428    296.13114  0.038438621  0.039788462            1 
  643000    1.1480828   -6.6808231    296.41201  0.038415242  0.039776343            2 
  644000    1.1690777   -6.6580152    298.14659  0.038580046  0.039764472            4 
  645000    1.1459481   -6.6151007    297.61448  0.038451483  0.039752339            2 
  646000    1.1415651   -6.6661002    299.27037  0.038605569  0.039740025            2 
  647000    1.1472098   -6.6235147    298.77646  0.038482284  0.039727743            3 
  648000    1.1488057   -6.6721437    298.89355  0.038437957  0.039714798            1 
  649000    1.1505826   -6.6447898    298.75298  0.038360681  0.039701684            1 
  650000    1.1318154   -6.6917302    298.73279  0.038299076  0.039688829            4 
  651000    1.1424699   -6.6587907    299.92491  0.038392845  0.039675496            5 
  652000    1.1328243   -6.6707109    299.72129  0.038307936  0.039662949            3 
  653000    1.1603614   -6.6536223    301.26267  0.038445977  0.039650172            2 
  654000    1.1329633   -6.6448154    301.12853  0.038370098  0.039637342            4 
  655000    1.1482099   -6.6561029    301.33511    0.0383378  0.039624599            2 
  656000    1.1590717   -6.6383186    302.12601  0.038379828  0.039611637            2 
  657000    1.1633156   -6.6085362     301.7926  0.038279123  0.039598798            5 
  658000    1.1301249   -6.6520959     300.9994  0.038120492  0.039585352            9 
  659000    1.1369493   -6.6337605    303.34278  0.038358976  0.039572089            1 
  660000    1.1382104   -6.6600061    302.43794  0.038186609  0.039559219            2 
  661000    1.1674495   -6.6320138    303.40018  0.038250149  0.039545983            1 
  662000    1.1375572   -6.6250919    303.31763  0.038181977  0.039532943            3 
  663000    1.1461407   -6.6719876    303.49235  0.038146349  0.039519446            3 
  664000    1.1370192    -6.640156    304.37691  0.038199914  0.039506324            3 
  665000    1.1394748   -6.6239168    304.86404  0.038203513  0.039492388            2 
  666000    1.1676328   -6.6575338    305.39196  0.038212208  0.039478863            3 
  667000    1.1309496   -6.6524303    305.48784  0.038166897   0.03946559            3 
  668000    1.1473623    -6.680566    304.33114  0.037965462  0.039451893            2 
  669000    1.1305931   -6.6622736    306.01113  0.038117978  0.039438141            1 
  670000    1.1518878   -6.6114525    306.33012  0.038100762   0.03942473            2 
  671000    1.1411171    -6.631262    307.17441  0.038148834  0.039411223            3 
  672000    1.1017923   -6.6561273    307.06839  0.038078917  0.039397836            4 
  673000    1.1402923    -6.671648    307.23899  0.038043461  0.039384402            3 
  674000    1.1267111   -6.6166086    307.98472  0.038079219  0.039370895            2 
  675000    1.1516663   -6.5920095    308.97447  0.038144996  0.039357597            4 
  676000    1.1688207   -6.6591926    308.94086  0.038084425  0.039344326            1 
  677000    1.1625194   -6.6353834    309.25248  0.038066529  0.039330823            1 
  678000    1.1336272   -6.6184597    309.49342  0.038039997  0.039317049            1 
  679000     1.127864   -6.6582767    308.75004  0.037892739  0.039303059            3 
  680000    1.1479294   -6.6361189    310.04958  0.037996272  0.039288894            1 
  681000     1.125452    -6.680859    309.11438  0.037826038  0.039275359            5 
  682000    1.1305706    -6.666614    310.14611  0.037896641  0.039261118            3 
  683000    1.1566968    -6.676134    310.65642  0.037903418   0.03924735            2 
  684000    1.1170872   -6.6444835    310.16742  0.037788428  0.039233958            1 
  685000    1.1370142   -6.6401255    311.83215  0.037935785   0.03922022            3 
  686000    1.1562535   -6.6634768    311.80198   0.03787682  0.039206319            4 
  687000    1.1320729   -6.6368871    312.20149  0.037870147  0.039192393            1 
  688000    1.1317256    -6.679704    312.09949  0.037802748  0.039178506            3 
  689000    1.1275806   -6.6647878    312.47244   0.03779299  0.039164348            2 
  690000    1.1509204    -6.664616    314.29391  0.037958202  0.039150662            5 
  691000    1.1949079    -6.620137    314.57839  0.037937577  0.039137433            2 
  692000    1.1349889   -6.6649713    314.66148  0.037892761   0.03912411            3 
  693000    1.1202524   -6.6476638    314.93707  0.037871221  0.039110873            2 
  694000    1.1538781   -6.6808101    314.76989  0.037796577  0.039097579            3 
  695000    1.1237106   -6.6323448    315.57439  0.037838656  0.039084372            2 
  696000    1.1332047   -6.6710208    315.97774  0.037832584  0.039071403            1 
  697000    1.1429946   -6.6879762     317.1101  0.037913689  0.039058748            5 
  698000    1.1279845   -6.6716783    317.50769   0.03790684  0.039046285            3 
  699000    1.1618576   -6.6580357    318.03037  0.037914922  0.039033708            3 
  700000    1.1379884   -6.6646991    317.85201  0.037839524  0.039021568            2 
  701000    1.1418581   -6.6518456    318.57909   0.03787198   0.03900909            3 
  702000    1.1551694   -6.6972762    318.99663  0.037867596  0.038996635            3 
  703000    1.1082535   -6.6654814    319.10154  0.037826167  0.038984066            1 
  704000    1.1424886   -6.6823869    318.67285  0.037721692  0.038971787            2 
  705000    1.1423511   -6.6765641     320.8052  0.037920237  0.038959309            2 
  706000    1.1542524   -6.6557898    319.71992  0.037738423  0.038946752            3 
  707000    1.1576404   -6.6924397    319.79511  0.037693907  0.038933777            2 
  708000    1.1308676   -6.6544892    321.38004  0.037827217  0.038920591            2 
  709000    1.0926547   -6.6969126    320.55886  0.037677346  0.038907682            3 
  710000    1.1347107   -6.6680617    320.77053  0.037649123  0.038894911            2 
  711000    1.1519729   -6.6427026    321.38146  0.037667776  0.038881617            1 
  712000    1.1497561   -6.6797315    322.52086  0.037748228  0.038868404            1 
  713000    1.1493596   -6.6474578    322.29676  0.037669094  0.038855287            4 
  714000    1.1116645   -6.7230771    321.58212  0.037532928  0.038841736            2 
  715000    1.1596081   -6.6729157    322.94319  0.037639066  0.038827962            2 
  716000    1.1497181   -6.6631576     322.3936  0.037522532  0.038814041            5 
  717000    1.1391408    -6.662204     321.6716  0.037386285  0.038800414            2 
  718000    1.1334464   -6.6913232    322.30431   0.03740765  0.038786286            2 
  719000    1.1444828   -6.6313668    325.27295  0.037699693  0.038772469            3 
  720000    1.1417054   -6.6462507    323.22088  0.037409824  0.038758547            1 
  721000    1.1276339   -6.6924076    322.81084  0.037310545  0.038744421            3 
  722000    1.1342536   -6.6093598    324.59466  0.037464758  0.038730258            1 
  723000    1.1457961   -6.6908437    323.65857  0.037305045  0.038715875            2 
  724000    1.1302584   -6.6696798    323.47225  0.037232073  0.038701088            2 
  725000     1.137803   -6.6863567    325.78826  0.037446927  0.038686787            4 
  726000    1.1362151   -6.7124893    326.39014  0.037464433  0.038672904            5 
  727000    1.1310886   -6.6438353    325.90966  0.037357824  0.038659251            2 
  728000    1.1407037   -6.6717556    327.39725  0.037476792  0.038645156            5 
  729000    1.1308129   -6.6721453    327.60873  0.037449557  0.038631027            2 
  730000    1.1399567   -6.6745907    326.22549  0.037240353  0.038616407            3 
  731000    1.1141723   -6.7283014    327.11248  0.037290525  0.038602151            4 
  732000    1.0998659    -6.642694    328.19083  0.037362344  0.038588025            2 
  733000    1.1474775   -6.6762959    329.90604  0.037506372  0.038573873            3 
  734000    1.1498311   -6.6742801     328.9961  0.037351965  0.038559868            2 
  735000    1.1283191   -6.7007947    327.96045  0.037183725  0.038546272            1 
  736000    1.1152098   -6.6633512    330.19828  0.037386581  0.038532573            1 
  737000    1.1273584   -6.6444632    331.03142  0.037430057  0.038518958            1 
  738000    1.1487628   -6.6704366    330.71783  0.037343928  0.038506063            2 
  739000    1.1357864   -6.6293688    331.40549   0.03737094  0.038493322            8 
  740000    1.1303686   -6.7054154     331.3722  0.037316689  0.038480227            1 
  741000    1.1136701   -6.6831602    331.94618  0.037330879  0.038467243            2 
  742000    1.1310798   -6.7209686    331.67897  0.037250558  0.038454211            3 
  743000    1.1643741   -6.6757319     332.9992  0.037348497  0.038441166            3 
  744000    1.1378955   -6.6731576    333.52043  0.037356679  0.038427929            2 
  745000    1.1258426   -6.6443712    332.87028  0.037233812  0.038415111            4 
  746000    1.1308654   -6.7070685    333.14723  0.037214838  0.038401779            3 
  747000    1.1402458   -6.7059882    333.55293  0.037210278  0.038388556            2 
  748000    1.1332305   -6.7118166    334.06909  0.037218036  0.038375746            4 
  749000    1.1200492   -6.6811638    334.25645  0.037189191  0.038362641            1 
  750000    1.1295779   -6.6417819    335.66241  0.037295824  0.038350165            3 
  751000    1.1025042   -6.7316919    335.92821  0.037275656  0.038337525            2 
  752000    1.1240161   -6.7307356     336.8729  0.037330773  0.038324815            1 
  753000    1.1155701   -6.6491081     337.4944  0.037349977  0.038312471            2 
  754000    1.1570146   -6.7315288    336.49005   0.03718944  0.038300248            3 
  755000    1.1262443   -6.6964563    337.38518  0.037238983  0.038287697            2 
  756000    1.1174174   -6.6532963     338.3346  0.037294378  0.038274877            2 
  757000    1.1154145   -6.6748217    337.81073  0.037187443  0.038262898            2 
  758000    1.1406128   -6.6783393     338.5034  0.037214533  0.038250558            2 
  759000    1.1273077   -6.6463583    339.66049  0.037292543  0.038237996            1 
  760000    1.1108856   -6.7148004    338.96768  0.037167509   0.03822538            2 
  761000    1.1302513   -6.6570244    340.18425  0.037251888  0.038212804            1 
  762000    1.1338406    -6.671498    341.09065  0.037302128  0.038200693            1 
  763000    1.1309453   -6.6982531    339.57333  0.037087519  0.038188199            1 
  764000    1.1194807   -6.6802044    340.42159    0.0371315  0.038175902            4 
  765000    1.1030675   -6.6591449    340.30685  0.037070463  0.038163912            2 
  766000    1.1068007   -6.7207097    341.35788   0.03713641  0.038151629            3 
  767000    1.1262069   -6.7157453     340.2441  0.036966982  0.038139261            2 
  768000     1.122139   -6.6870502    342.71128  0.037186554  0.038127261            2 
  769000    1.1465193   -6.6949939    343.52735  0.037226631  0.038115238            1 
  770000    1.1292658   -6.6860016    343.98617   0.03722794  0.038103464            4 
  771000    1.1383458   -6.7057908    343.68396  0.037146991  0.038092094            4 
  772000    1.1610011   -6.6846412     344.3606  0.037171913  0.038080941            2 
  773000    1.1246634   -6.6750537     344.9553  0.037187937  0.038069814            4 
  774000    1.1227067    -6.688733    346.15331  0.037268875  0.038058635            5 
  775000    1.1471059   -6.6951312    346.94317  0.037305717  0.038047549            3 
  776000    1.1227729   -6.6627124    347.24058  0.037289581  0.038036319            2 
  777000    1.1118173   -6.7549469    346.52112  0.037164427  0.038025319            2 
  778000    1.1233378   -6.6917069    347.10785  0.037179504  0.038014602            6 
  779000    1.1456749   -6.6781867    348.42638  0.037272826  0.038004014            2 
  780000    1.1274717   -6.6669239    348.62753  0.037246531  0.037993357            1 
  781000    1.1318876   -6.6669008    348.35767  0.037170045  0.037982753            1 
  782000    1.1176693   -6.6981056    349.07072    0.0371985  0.037972652            4 
  783000    1.1316496   -6.6888625    349.86041  0.037235037  0.037962585            1 
  784000    1.1136887    -6.682259    349.76788  0.037177709  0.037952308            3 
  785000    1.0945266   -6.6762926    349.93016  0.037147575  0.037942073            2 
  786000    1.1536879    -6.681291    350.79924  0.037192456  0.037931351            3 
  787000    1.1331344   -6.6870687    350.59284  0.037123342  0.037920986            2 
  788000    1.1332492   -6.6912563    350.82849  0.037101151  0.037910408            3 
  789000    1.1195204   -6.7074947    350.71548  0.037042193   0.03789912            1 
  790000    1.1388893   -6.6773548    350.47706  0.036970154  0.037887934            4 
  791000    1.1266248   -6.7132133    350.34001  0.036908977  0.037876274            4 
  792000    1.1328945   -6.6985509    350.75272  0.036905799  0.037864694            1 
  793000    1.1144386   -6.7258853     351.5154  0.036939407  0.037852506            3 
  794000    1.1044614   -6.6434412    352.82735  0.037030578   0.03784087            1 
  795000    1.1462234   -6.6841066    352.84785  0.036986147   0.03782974            4 
  796000    1.1423776   -6.6683016    353.83673  0.037043208  0.037818531            2 
  797000    1.1233684   -6.6920594    354.61253  0.037077848  0.037807399            2 
  798000    1.1206193   -6.7015212    354.10357  0.036978234    0.0377962            4 
  799000    1.1345869   -6.6914805    354.91394  0.037016473  0.037785014            1 
  800000    1.1177084   -6.7105095    355.35725   0.03701638  0.037774066            5 
  801000    1.0985083   -6.7064628    355.79332  0.037015535  0.037762912            3 
  802000    1.1247931   -6.7120011    356.12393  0.037003734  0.037752202            2 
  803000    1.0955954   -6.6916498    357.02111  0.037050759  0.037741604            2 
  804000    1.1065646   -6.6852716    357.53265  0.037057695  0.037731114            2 
  805000    1.1011183   -6.6936255    357.44321  0.037002402  0.037720376            1 
  806000    1.1096051   -6.6967312    358.64806  0.037081064  0.037709849            2 
  807000    1.0899609   -6.6836717    357.85874  0.036953608  0.037699592            1 
  808000    1.1320283   -6.6530143    359.33282  0.037059903   0.03768912            2 
  809000    1.1445866   -6.7069414    358.51942  0.036930307  0.037678617            4 
  810000    1.1227141    -6.708166    358.96851  0.036930917  0.037668166            3 
  811000    1.1383706   -6.6857982    358.89329   0.03687765   0.03765745            3 
  812000    1.1052028   -6.6992705     361.1388  0.037062684  0.037647246            3 
  813000     1.104924   -6.6486232    360.93755  0.036996469  0.037637217            2 
  814000    1.1415887   -6.6916124    360.74794  0.036931607  0.037627128            2 
  815000    1.1143258   -6.7021535    360.67575  0.036878911  0.037616802            2 
  816000    1.0884892   -6.6738059      363.199  0.037091401  0.037606721            3 
  817000      1.10803   -6.7210046    361.71884  0.036895026  0.037596458            2 
  818000    1.1334322   -6.7225411    362.14032  0.036892861  0.037586198            1 
  819000    1.1094388   -6.7093111    362.76804  0.036911685  0.037576076            2 
  820000    1.1329635   -6.7223376    362.39215  0.036828471  0.037565945            2 
  821000    1.1294286   -6.7085198    364.41338  0.036988772   0.03755582            2 
  822000    1.1419667    -6.714305    362.50845  0.036750654  0.037545205            3 
  823000    1.1129763   -6.7219505    362.31698  0.036686612  0.037534765            6 
  824000    1.1164286    -6.694532    363.93534  0.036805759  0.037524109            2 
  825000    1.1235781   -6.7234018    364.33912  0.036801932  0.037513426            4 
  826000    1.1110357   -6.7037656    365.16765  0.036840965   0.03750318            2 
  827000    1.0973058   -6.6807342    365.19724  0.036799399  0.037493017            1 
  828000    1.1020965   -6.7081124     366.1158  0.036847403  0.037482489            3 
  829000    1.0867819    -6.724559     366.8952  0.036881302  0.037472415            2 
  830000    1.1123869   -6.7088891    366.43509  0.036790672  0.037462135            2 
  831000     1.128451   -6.6803607    366.24843   0.03672768  0.037452009            3 
  832000    1.1190287    -6.710644    366.21603  0.036680291   0.03744123            4 
  833000    1.1066307   -6.7155336      366.766  0.036691276  0.037430801            2 
  834000    1.1273242   -6.7240063    366.37634  0.036608347  0.037420122            2 
  835000    1.1133246   -6.7074711    368.86957  0.036813331  0.037409562            2 
  836000     1.136148   -6.7504895    368.34315  0.036716821  0.037398895            1 
  837000    1.1259316    -6.696359    368.31675  0.036670326   0.03738834            2 
  838000     1.129901   -6.7068689    369.61473  0.036755642  0.037378388            2 
  839000    1.1021006    -6.710823    369.09078  0.036659791  0.037368244            3 
  840000    1.1044693   -6.7152893    369.14896   0.03662192   0.03735783            1 
  841000    1.1219126    -6.704764    369.58444  0.036621526  0.037347452            1 
  842000    1.0972751   -6.6930552    372.02276  0.036819355  0.037337371            2 
  843000    1.1215158   -6.7128685     370.6981  0.036644731  0.037327271            4 
  844000    1.1198799   -6.7225243    371.33683  0.036664379  0.037316721            1 
  845000    1.1189672   -6.7142036    371.79435   0.03666611  0.037306266            3 
  846000    1.1124712   -6.7387536    372.56064   0.03669825  0.037296223            2 
  847000    1.1144992   -6.7153404    371.91674  0.036591572  0.037286419            4 
  848000    1.1044175   -6.7155356     373.0904  0.036663758  0.037276645            3 
  849000    1.0917127      -6.7319    373.66448  0.036676922  0.037266784            2 
  850000    1.1545082    -6.728073    373.81318  0.036648351   0.03725697            3 
  851000    1.1115255   -6.7173912    373.63642  0.036587976  0.037247112            3 
  852000    1.1070073   -6.7106355    374.80866  0.036659689  0.037237221            3 
  853000    1.1097723   -6.7198286    373.71746  0.036510107  0.037227151            4 
  854000    1.1147926   -6.7236678    374.71883  0.036565069  0.037216675            1 
  855000    1.1091267   -6.7080581    375.35725  0.036584528  0.037206571            2 
  856000    1.1178049   -6.7157695    376.01608  0.036605927  0.037196216            4 
  857000    1.1189311   -6.7174224    375.40011  0.036503317  0.037186203            2 
  858000    1.1359834   -6.7222196    376.85615   0.03660219  0.037176359            2 
  859000     1.097746   -6.7366965     376.5464   0.03652953  0.037166756            4 
  860000    1.1091048   -6.7283523    377.02372  0.036533306  0.037156756            2 
  861000    1.1324635   -6.7389243    378.21993  0.036606653  0.037146992            2 
  862000    1.1150176   -6.7127042     377.6238  0.036506555  0.037137047            4 
  863000    1.0976954   -6.7351407    378.38885  0.036538128  0.037127055            4 
  864000    1.1236326   -6.7135706     378.0738  0.036465451  0.037117055            1 
  865000    1.0897771   -6.7265824    378.99776  0.036512308  0.037106851            3 
  866000    1.1103104   -6.7042702    379.54661  0.036522961  0.037096462            6 
  867000    1.0948838   -6.7248058    379.08491  0.036436458  0.037086309            2 
  868000    1.0934912   -6.7536219    378.66559  0.036354223  0.037076097            4 
  869000      1.11173   -6.7478439    379.86494  0.036427401  0.037065893            4 
  870000    1.0963937   -6.6796882    379.60735  0.036360857  0.037055861            5 
  871000    1.1078852   -6.7722535    380.42181  0.036397035  0.037045571            3 
  872000    1.1389019    -6.740105    380.35137  0.036348564  0.037035185            2 
  873000    1.1401861   -6.6848678    381.98296  0.036462672  0.037024904            5 
  874000    1.1004984   -6.7146917    383.04088  0.036521823  0.037014781            4 
  875000     1.110692   -6.6982712    382.17814  0.036397918  0.037005093            3 
  876000    1.1126311   -6.6983844    383.24793  0.036458136  0.036995101            3 
  877000    1.1137215   -6.7131441    381.24999  0.036226719  0.036984656            8 
  878000    1.1181634   -6.7430225    382.08345  0.036264564  0.036974229            5 
  879000    1.1192492   -6.7146396    382.35554  0.036249103  0.036963799            1 
  880000     1.100088   -6.6817676    384.16055   0.03637884  0.036953572            3 
  881000    1.1173133   -6.7227807    383.95423  0.036318032  0.036943361            3 
  882000    1.1310316   -6.7588286    383.37273  0.036221913  0.036932777            3 
  883000    1.1163643   -6.6922412     384.8898  0.036324066  0.036922315            3 
  884000    1.0994975   -6.7427217    385.08348  0.036301233  0.036911816            2 
  885000    1.1057213   -6.7421013    384.68246  0.036222454   0.03690146            2 
  886000    1.1020884   -6.7558642    384.22344  0.036138397  0.036890851            3 
  887000    1.1192141   -6.7186387    385.43689  0.036211658  0.036880262            4 
  888000    1.1166399   -6.7305251    385.88963  0.036213366  0.036869463            2 
  889000    1.1027476   -6.6980644    386.77311  0.036255448  0.036859126            2 
  890000    1.1076427   -6.7390056    385.58126  0.036103114  0.036848324            4 
  891000    1.1198327   -6.7402896    385.39662  0.036045325  0.036837291            4 
  892000    1.0930625   -6.7672494    385.47444  0.036012186  0.036826272            4 
  893000    1.0883011   -6.7260298    386.31514  0.036050312  0.036815258            1 
  894000    1.0927799   -6.7375705    387.34529  0.036106012  0.036804476            3 
  895000    1.1259385    -6.671355    389.18119   0.03623661  0.036793642            1 
  896000    1.1053812   -6.7457642    388.05562  0.036091482  0.036782731            2 
  897000    1.1080084   -6.7195727    389.97886   0.03622992  0.036772116            4 
  898000     1.108918   -6.7171537    388.67336  0.036068426  0.036761292            3 
  899000    1.1026939     -6.73826    389.06444  0.036064557  0.036750656            4 
  900000    1.1016165    -6.711401    389.48549  0.036063472  0.036740038            4 
  901000    1.1201855   -6.7463099    389.86156  0.036058228  0.036729168            6 
  902000    1.0869429   -6.7156292    390.43665  0.036071383  0.036718162            2 
  903000    1.0971789   -6.7344138     389.1763  0.035915125  0.036707475            3 
  904000    1.1009301   -6.7233252    390.52616   0.03599983  0.036696501            2 
  905000    1.0931877    -6.694106    391.86857  0.036083662  0.036685521            3 
  906000    1.1102053   -6.7250747    391.85953  0.036043003  0.036674607            4 
  907000    1.0966153   -6.7214211    391.80483  0.035998238  0.036663743            2 
  908000    1.0955476   -6.7025264    391.93575  0.035970609  0.036653026            2 
  909000     1.107194   -6.7132342    392.98092  0.036026854   0.03664237            3 
  910000    1.1387313   -6.7305602    392.91111   0.03598087  0.036632104            2 
  911000    1.1202432   -6.7136569    394.35116  0.036073103  0.036621632            2 
  912000    1.0980822   -6.7279764    395.70086  0.036156877  0.036611367            3 
  913000    1.1344104   -6.7465726    395.54854  0.036103371  0.036600987            2 
  914000    1.1299345   -6.7509287    393.81205  0.035905548   0.03659068            2 
  915000    1.1001269   -6.7356772    395.44466  0.036014996  0.036580292            1 
  916000    1.1170747   -6.7148517    395.23061  0.035956206  0.036570116            4 
  917000    1.0688899   -6.7128706    396.15576  0.036001069  0.036559784            2 
  918000    1.1219253   -6.7399412     396.0855  0.035955474   0.03654952            2 
  919000    1.0981529   -6.7427148    397.67443   0.03606043   0.03653947            3 
  920000    1.0968588    -6.721776    396.85849  0.035947327  0.036529659            7 
  921000    1.1031294   -6.7161665    398.20482  0.036030114  0.036519571            3 
  922000    1.1097509   -6.7126131    398.02299  0.035974601  0.036509523            2 
  923000    1.1016636   -6.7578107      398.143  0.035946461  0.036499582            3 
  924000    1.1145963   -6.7517347    397.69787  0.035867412  0.036489455            2 
  925000    1.0891581   -6.7671277    397.70268   0.03582907  0.036479559            2 
  926000    1.1089428     -6.73538    399.13789  0.035919536  0.036469638            2 
  927000    1.0920078   -6.7329941    398.68395  0.035839981   0.03645967            3 
  928000    1.0875962   -6.7275977    400.22499  0.035939744  0.036449757            3 
  929000    1.0989475   -6.7661596    399.28305  0.035816564  0.036439704            2 
  930000    1.1076743   -6.7319211    399.51988  0.035799272  0.036429399            1 
  931000    1.1113654   -6.7527802    398.60243    0.0356787  0.036418977            3 
  932000    1.1291994   -6.7365482    400.54247  0.035813883  0.036408823            3 
  933000    1.1100713   -6.7304392    401.35544   0.03584811  0.036398666            3 
  934000     1.108358   -6.7664814    400.71174  0.035752296  0.036388437            3 
  935000    1.0766947     -6.72331    402.13325  0.035840753  0.036377979            4 
  936000    1.0894629   -6.6920648    402.58351  0.035842549  0.036367801            2 
  937000    1.1052492   -6.7528042    402.48104  0.035795183  0.036357569            4 
  938000      1.08972   -6.7180456    402.55026  0.035763172  0.036347587            3 
  939000    1.0930833   -6.7498502    403.18739  0.035781628  0.036337534            1 
  940000    1.1001108   -6.7343007    403.75321  0.035793724  0.036327559            1 
  941000    1.0951533   -6.7237466    404.33464  0.035807177  0.036317482            3 
  942000    1.1071596   -6.7675388    404.54063  0.035787388  0.036307893            2 
  943000    1.0977253   -6.7485064    404.98432  0.035788647  0.036298222            4 
  944000    1.1050712   -6.7260276    405.34065   0.03578219  0.036288156            1 
  945000    1.1205287   -6.7444036    405.83231  0.035787682  0.036278091            2 
  946000    1.1431843   -6.7253991    406.87601  0.035841791  0.036268368            3 
  947000    1.0985127   -6.7496017    406.89185  0.035805337  0.036258648            3 
  948000    1.1117905   -6.7990282    406.56904  0.035739192  0.036249131            3 
  949000    1.1126427   -6.7627019    406.94344  0.035734408  0.036239645            5 
  950000    1.1213159   -6.7496607    408.87307  0.035866058  0.036230502            3 
  951000    1.0916788   -6.7464933    409.97504  0.035924907  0.036221432            2 
  952000    1.1008706   -6.7207599    409.59966  0.035854312   0.03621235            2 
  953000    1.0939965   -6.7735124    409.54527  0.035811933   0.03620295            2 
  954000    1.1092015   -6.7682992     409.3836  0.035760273  0.036193895            3 
  955000     1.093182   -6.8098513    409.94377  0.035771708  0.036184993            4 
  956000    1.1003302   -6.7753238    409.94927  0.035734769  0.036176157            4 
  957000    1.0780463   -6.7415868     411.9978   0.03587581  0.036167236            3 
  958000       1.1323   -6.7791246    411.48515  0.035793767  0.036158496            4 
  959000    1.0943869   -6.7595724    413.07411  0.035894518  0.036149835            6 
  960000    1.0844265   -6.7481986    413.11994  0.035861106  0.036141199            3 
  961000    1.1036636   -6.7606197    412.87253  0.035802335  0.036132229            4 
  962000    1.0893163   -6.7394608    412.78025  0.035757125  0.036123214            5 
  963000    1.1009834   -6.7726956    413.11625  0.035749069  0.036114475            2 
  964000    1.1113097   -6.7413095    413.70743  0.035763091  0.036105582            3 
  965000    1.1078003   -6.7338386    414.12476  0.035762069  0.036096734            3 
  966000    1.0951851   -6.7654995    414.05587  0.035719106  0.036087567            6 
  967000    1.1032297   -6.7555392    414.71987  0.035739389    0.0360786            4 
  968000     1.071108   -6.7819898    414.09439  0.035648621  0.036069685            2 
  969000    1.1060525   -6.7488914    414.71374  0.035665096  0.036060609            4 
  970000    1.0857656   -6.7389251    415.68161  0.035711478   0.03605162            1 
  971000    1.1021402   -6.7365833    415.34877  0.035646136  0.036042518            1 
  972000    1.1078314   -6.7751649    416.50787  0.035708837  0.036033594            4 
  973000     1.119424   -6.7824048    415.60853  0.035595112  0.036024422            4 
  974000    1.0979142   -6.7131386    417.53091  0.035723041  0.036015277            2 
  975000    1.0910364   -6.7364065    416.79036  0.035623108  0.036006224            3 
  976000    1.1161352   -6.7286257    418.23747  0.035710167  0.035997157            1 
  977000    1.0729939   -6.7556536    417.91349  0.035645982  0.035987897            1 
  978000     1.099801   -6.7873594    415.95866  0.035442967  0.035978748            4 
  979000    1.0957626   -6.7439119    418.89056   0.03565633   0.03596931            1 
  980000    1.1108626   -6.8089925    417.31217  0.035485729  0.035959955            2 
  981000    1.0987942   -6.7692627    418.79523  0.035575538  0.035950577            2 
  982000     1.073928   -6.7832738    417.40911  0.035421682  0.035941275           10 
  983000    1.0651318    -6.695921    419.01491  0.035521779  0.035931678            5 
  984000    1.0976943   -6.7679872    419.28021  0.035508148  0.035922219            3 
  985000    1.0946521   -6.7448757    418.33935    0.0353925  0.035912555            2 
  986000    1.0808043   -6.7107928     420.4011  0.035530857   0.03590274            2 
  987000    1.1024762    -6.756325    419.45188  0.035414715  0.035893015            2 
  988000    1.1107464    -6.747788    419.66612   0.03539694  0.035883209            3 
  989000    1.0543719   -6.7303964    419.67618  0.035361997  0.035873245            1 
  990000     1.103904   -6.7521399    420.66454  0.035409473  0.035863394            3 
  991000    1.1056105   -6.7183987    421.81186   0.03547022  0.035853646            3 
  992000    1.0907021   -6.7968823    420.23819  0.035302267   0.03584353            3 
  993000    1.1013491   -6.7711971    421.16651  0.035344621  0.035833454            1 
  994000    1.0994029   -6.7761403    420.44235  0.035248352  0.035823369            6 
  995000    1.0844377   -6.7432248    421.71295  0.035319343  0.035813237            3 
  996000    1.0684491   -6.7542214    422.70098  0.035366548  0.035803027            3 
  997000    1.1042641   -6.7918937    422.07032  0.035278362  0.035792933            2 
  998000     1.104345   -6.7402517    423.22942  0.035339798  0.035782851            2 
  999000    1.1106663    -6.734629    424.06737  0.035374322  0.035773108            2 
 1000000    1.0839504     -6.69438    423.73964  0.035311637  0.035763356            1 
 1001000    1.0758709   -6.7729161    423.49098  0.035255659  0.035753637            5 
 1002000    1.1078856   -6.7120871    424.59479  0.035312275  0.035743722            1 
 1003000    1.0946124   -6.7820623    423.68508  0.035201485  0.035733937            2 
 1004000    1.0778422   -6.7664205    424.31878  0.035219022  0.035724128            4 
 1005000    1.0947197   -6.7731971    423.93643  0.035152274  0.035714033            3 
 1006000    1.0938086   -6.7847183     424.9561  0.035201798  0.035703879            2 
 1007000    1.0669172   -6.8024375     424.9436  0.035165806  0.035693732            2 
 1008000    1.1087871   -6.7431997    425.61576  0.035186488  0.035683807            3 
 1009000    1.0930057   -6.7490541    425.87098  0.035172694  0.035673775            2 
 1010000    1.0911751   -6.7982049    425.70557  0.035124222   0.03566375            8 
 1011000    1.1104195   -6.7390056    427.04353  0.035199763  0.035653855            3 
 1012000     1.091466   -6.7787318    427.10952  0.035170415  0.035643843            2 
 1013000    1.0854657    -6.772376    427.85661  0.035197155  0.035634037            4 
 1014000     1.106177   -6.7309803    427.50063  0.035133188  0.035624393            4 
 1015000    1.0664808   -6.8096176    426.96819  0.035054859  0.035614412            5 
 1016000    1.0872334   -6.7522835    429.68928  0.035243543    0.0356048            3 
 1017000    1.0850635   -6.7554575    428.37506  0.035101202  0.035595306            2 
 1018000    1.0840129   -6.7484357    430.59329  0.035248304  0.035586004            3 
 1019000    1.0910561   -6.7652864    430.27404  0.035187606  0.035576431            2 
 1020000    1.0979279   -6.7693671    429.96131  0.035127558  0.035567068            3 
 1021000      1.08862   -6.7760776    431.30361  0.035202711  0.035557901            1 
 1022000    1.0946831   -6.7412451    432.06182   0.03523009  0.035548496            3 
 1023000    1.0946866   -6.8178074    430.79073  0.035092109  0.035539288            2 
 1024000     1.059987   -6.7782375    432.56339  0.035202099  0.035529785            2 
 1025000    1.0929271   -6.7902703    432.48135  0.035161085  0.035520533            2 
 1026000    1.0910781   -6.7562122    433.81049   0.03523477   0.03551156            3 
 1027000    1.1091863   -6.7431635    432.94509  0.035130241  0.035502511            2 
 1028000    1.0776192   -6.7531874    433.20643  0.035117253  0.035493504            2 
 1029000    1.1263924   -6.7995099    433.23202  0.035085198  0.035484333            2 
 1030000     1.085774   -6.7788467    432.87343  0.035022122  0.035474883            2 
 1031000    1.0874098   -6.7298837    434.60919   0.03512845  0.035465406            4 
 1032000    1.0894655   -6.7510263    435.67677  0.035180618  0.035456334            2 
 1033000    1.0716812   -6.7660672    433.88259  0.035001823  0.035447226            2 
 1034000    1.0894549   -6.7661453    435.80529  0.035122928  0.035438034            1 
 1035000    1.0666267   -6.7836405    435.08265  0.035030809  0.035429047            5 
 1036000    1.0906718   -6.7681019    437.89956  0.035223581  0.035420038            3 
 1037000      1.09606   -6.7053946     436.9933  0.035116787  0.035411252            1 
 1038000    1.0775804   -6.7407214    436.98798  0.035082529  0.035402297            4 
 1039000    1.0804086   -6.7768462    435.53367   0.03493212  0.035393085            2 
 1040000    1.0661206   -6.7671511    436.55085  0.034980036  0.035383905            1 
 1041000    1.0921267   -6.7945998    439.20776  0.035159123   0.03537481            3 
 1042000    1.0932704   -6.7610618    436.89185  0.034940167  0.035365852            2 
 1043000    1.0938779    -6.759304    439.25546  0.035095515  0.035357014            2 
 1044000    1.0862686   -6.7487554    439.91489  0.035114535  0.035348397            3 
 1045000    1.0844968   -6.7706104    439.15351  0.035020216  0.035339713            2 
 1046000    1.1012281   -6.7700383    440.45596    0.0350905  0.035331065            2 
 1047000    1.0687186   -6.7625372    438.38927  0.034892492  0.035322143            2 
 1048000    1.0867966   -6.8157027    440.15443  0.034999557   0.03531336            2 
 1049000    1.0820329   -6.7633658    441.47908  0.035071423   0.03530456            3 
 1050000    1.0954754   -6.7350293    442.10395  0.035087615  0.035295873            5 
 1051000    1.0594572   -6.7575216    442.36642  0.035075041  0.035287376            2 
 1052000    1.0883636   -6.8002267    442.37348  0.035042259  0.035278827            1 
 1053000    1.0768869   -6.7609513    442.16159  0.034992212  0.035270337            3 
 1054000    1.0722135   -6.7929528    442.67891  0.034999914  0.035261694            2 
 1055000    1.0813138    -6.770657    443.81893  0.035056787   0.03525321            2 
 1056000    1.0890954   -6.7497576    443.54845  0.035002245   0.03524485            3 
 1057000    1.0771329   -6.7816932    444.21681  0.035021824  0.035236208            2 
 1058000    1.0775606   -6.7881239    443.73327  0.034950635  0.035227621            2 
 1059000    1.0802797   -6.7494592    445.07121  0.035022915  0.035219009            3 
 1060000    1.0636205   -6.7717424    444.72914  0.034962983    0.0352108            2 
 1061000    1.0639834   -6.8026097    446.30073  0.035053466  0.035202653            2 
 1062000    1.0783326   -6.8032958    446.42573  0.035030267  0.035194512            7 
 1063000    1.0873941   -6.7769745    446.59251  0.035010388  0.035186558            3 
 1064000    1.0795277   -6.7949844    446.82187  0.034995447  0.035178469            2 
 1065000    1.0813953   -6.7454505    450.12099  0.035220735  0.035170679            2 
 1066000    1.0872123     -6.80108    448.49358  0.035060474  0.035162907            3 
 1067000     1.045798   -6.7884555    448.89122   0.03505867  0.035154924            1 
 1068000    1.0864229   -6.8204259    447.43404  0.034912144  0.035147003            8 
 1069000    1.0776223   -6.7825427    449.03435  0.035004237  0.035139132            3 
 1070000    1.0692098   -6.7910824    450.87697  0.035115029  0.035131196            5 
 1071000    1.0727281   -6.8112395    450.31429   0.03503846   0.03512344            2 
 1072000    1.0886709   -6.8205396    449.26661  0.034924332   0.03511539            3 
 1073000    1.0794158   -6.7599434    450.43794  0.034982754  0.035107572            2 
 1074000    1.0823515   -6.8313053    450.72756  0.034972653  0.035099754            3 
 1075000    1.0760662   -6.8003879    451.17172  0.034974552  0.035091947            3 
 1076000    1.0836044   -6.7560077    453.07791  0.035089677  0.035084224            2 
 1077000    1.0582721   -6.7918129    453.07771  0.035057081  0.035076558            5 
 1078000    1.0948026   -6.7893503    452.12121  0.034950619  0.035068824            2 
 1079000     1.084696     -6.81256    453.46851  0.035022282  0.035061156            3 
 1080000      1.06563   -6.7592322    454.22533  0.035048251    0.0350537            2 
 1081000    1.0867394   -6.7735139    454.20687  0.035014405  0.035046123            3 
 1082000    1.0852692   -6.7690077    454.65311  0.035016413  0.035038668            3 
 1083000    1.0915925   -6.7587563     454.7578  0.034992136  0.035031418            1 
 1084000    1.0934774   -6.7969396     455.8975  0.035047471  0.035023835            2 
 1085000    1.0756134   -6.7901318    454.37998  0.034898616  0.035016275            2 
 1086000    1.0653466   -6.8075542    455.38727  0.034943774  0.035008454            2 
 1087000    1.0762128   -6.7762498    455.34929  0.034908716  0.035000757            2 
 1088000    1.0888429   -6.8034418     456.3982   0.03495697  0.034993068            3 
 1089000    1.0657593   -6.8036951    456.04908  0.034898154  0.034985676            3 
 1090000    1.0618675   -6.8131785     456.7482  0.034919587  0.034978097            4 
 1091000    1.0928333   -6.7689005    456.91977  0.034900685  0.034970472            2 
 1092000    1.0695158   -6.7690524    458.32024  0.034975598  0.034962905            3 
 1093000    1.0809999   -6.7617252    458.81094  0.034981011  0.034955578            4 
 1094000    1.0962145   -6.7557785    458.40032  0.034917757  0.034948123            3 
 1095000    1.0779482   -6.7863923      457.386  0.034808676  0.034940482            2 
 1096000    1.1037992   -6.7874113    457.44866   0.03478168   0.03493283            2 
 1097000    1.0736908   -6.7601808    460.79157  0.035003917  0.034925494            3 
 1098000     1.094895   -6.8143592    459.61425  0.034882684  0.034918053            2 
 1099000    1.0661821   -6.8013936    460.05501  0.034884365  0.034910374            2 
 1100000    1.0813414   -6.7888745    460.65234  0.034897904  0.034902971            5 
 1101000    1.0893702   -6.7705859     460.6537  0.034866311  0.034895687            3 
 1102000    1.0591766   -6.7517514    463.22219  0.035028901  0.034888302            2 
 1103000    1.0666073   -6.7788468    460.41289  0.034784896  0.034880804            1 
 1104000    1.0901949   -6.7926719     461.8062   0.03485856  0.034873201            2 
 1105000    1.0962494   -6.8017485    461.83419  0.034829124  0.034865789            3 
 1106000    1.0695372   -6.8461442    460.95995  0.034731763  0.034858083            3 
 1107000    1.0892233   -6.8037084    461.50783  0.034741631  0.034850429            1 
 1108000    1.0547899   -6.8138151    462.09435  0.034754389  0.034842599            3 
 1109000    1.0655998   -6.7550808    462.31771  0.034739834  0.034834766            1 
 1110000    1.0780261   -6.8020775    462.07538  0.034690344  0.034827103            5 
 1111000    1.0581562   -6.7977907     464.8547  0.034867589  0.034819572            3 
 1112000    1.1035715   -6.8089554     464.5468  0.034813159  0.034811964            3 
 1113000    1.0642004    -6.773513     463.2694  0.034686238  0.034804279            1 
 1114000    1.0969349   -6.8127353    463.57393  0.034677882  0.034796841            2 
 1115000      1.10188   -6.7860156    464.68186  0.034729586  0.034789509            3 
 1116000    1.0946552   -6.7873639    465.88622  0.034788398  0.034782123            2 
 1117000    1.0764874   -6.8245072    466.15866  0.034777578  0.034774707            1 
 1118000    1.0691011   -6.8158289    465.69504  0.034711914   0.03476702            3 
 1119000    1.0660017   -6.7679448    467.74718  0.034833719  0.034759665            2 
 1120000    1.0926016   -6.8003663     465.9791  0.034671064   0.03475232            2 
 1121000     1.092161   -6.7613799    468.19102  0.034804566  0.034745208            3 
 1122000    1.0731668   -6.8015072    468.00463  0.034759702  0.034738103            2 
 1123000    1.0870981   -6.7870232    467.52785   0.03469337  0.034730875            4 
 1124000    1.0663704   -6.7986375     468.1491  0.034708563  0.034723582            2 
 1125000    1.0744884   -6.7718128    468.84903  0.034729558  0.034716185            2 
 1126000    1.0413918   -6.7780886    469.27007  0.034729875  0.034708969            2 
 1127000    1.0818444   -6.8238057    469.07928  0.034684951  0.034701888            3 
 1128000    1.0706306   -6.7795692    470.04133  0.034725276  0.034694719            4 
 1129000    1.0679902   -6.8041529    470.10115  0.034698933  0.034687613            4 
 1130000    1.0763473   -6.7850892    471.16097  0.034746384  0.034680626            2 
 1131000    1.0730118   -6.7992349    471.95003  0.034773801  0.034673642            2 
 1132000     1.063849   -6.8060867    473.00676  0.034820874  0.034666432            3 
 1133000    1.0598785   -6.8028105    471.41553  0.034673105  0.034659222            2 
 1134000    1.0727706   -6.8085935    473.00942  0.034759657  0.034652103            3 
 1135000    1.1034092   -6.8397578    471.88973  0.034646823  0.034644917            3 
 1136000    1.0859662   -6.8202381    471.62775  0.034597106  0.034637447            3 
 1137000    1.0663907   -6.7909234    472.56203  0.034635153  0.034630107           11 
 1138000    1.0704015   -6.7684835    472.20545  0.034578606  0.034622814            4 
 1139000    1.0498257   -6.8177626     473.0789  0.034612153  0.034615248            4 
 1140000    1.0525008   -6.7961904    472.42346  0.034533879   0.03460774            3 
 1141000    1.0760395   -6.8054137    474.01138  0.034619586  0.034600455            5 
 1142000    1.0648409   -6.7942658    473.12854   0.03452485  0.034593171            3 
 1143000    1.0642959   -6.7833432    475.59909  0.034674766   0.03458604            4 
 1144000    1.0772215    -6.797084    474.32794   0.03455186  0.034579025            3 
 1145000    1.0698552   -6.8039986    476.41693  0.034673721  0.034572012            2 
 1146000    1.0697361   -6.8101752    475.27925  0.034560736  0.034565189            3 
 1147000    1.0391208   -6.7795139    476.18444  0.034596371  0.034558142            3 
 1148000    1.1009707   -6.8557168    475.76238  0.034535596  0.034551122            4 
 1149000    1.0718259    -6.788628    475.30994  0.034472725  0.034543962            2 
 1150000    1.0655477   -6.7913099    477.48474  0.034600344   0.03453705            3 
 1151000    1.0612501   -6.8250832    478.08622   0.03461383  0.034530233            3 
 1152000    1.0378346   -6.7980765    478.78438  0.034634287  0.034523256            2 
 1153000    1.0728735    -6.813031    478.29884  0.034569156  0.034516683            2 
 1154000    1.0950775   -6.8196696    479.42926   0.03462083   0.03451027            3 
 1155000    1.0689057   -6.7858527    480.44915  0.034664441  0.034503645            3 
 1156000    1.0660773   -6.7722613    479.92584   0.03459673  0.034497216            2 
 1157000    1.0490014    -6.796287    480.59746  0.034615201   0.03449062            2 
 1158000    1.0695342   -6.8227918    479.58072  0.034512142  0.034484136            1 
 1159000    1.0622295    -6.814746    481.71623   0.03463591  0.034477452            3 
 1160000    1.0877054   -6.8046851    482.52896  0.034664437  0.034470983            3 
 1161000    1.0628183   -6.8011425    481.40488  0.034553896   0.03446422            5 
 1162000    1.0731549   -6.7730098    482.56741  0.034607531  0.034457579            4 
 1163000    1.0815021   -6.7927605    481.74889  0.034519123  0.034450997            3 
 1164000    1.0675739   -6.8262523    482.98337  0.034577847  0.034444036            3 
 1165000    1.0561738   -6.8031806    482.45162   0.03451013  0.034437351            3 
 1166000    1.0909421   -6.8010154    484.65106  0.034637726   0.03443091            2 
 1167000    1.0646176   -6.7649556    484.50349  0.034597507  0.034424385            2 
 1168000    1.0695978   -6.8145422    483.94341  0.034527926  0.034417822            5 
 1169000    1.0762034   -6.8247668    485.13777  0.034583531  0.034411178            2 
 1170000    1.0392832   -6.8128284    484.79202  0.034529346  0.034404555            2 
 1171000    1.0654723   -6.8411601    484.24319  0.034460802   0.03439776            2 
 1172000    1.0415984   -6.8021815    485.68645  0.034534019  0.034391217            2 
 1173000    1.0574677   -6.8224025    486.09605  0.034533678  0.034384847            2 
 1174000    1.0706354   -6.8224919     486.9985  0.034568321  0.034378396            4 
 1175000     1.054215   -6.8086738    487.52465  0.034576217  0.034371928            1 
 1176000     1.060015   -6.7951919    486.83852  0.034498194  0.034365606            3 
 1177000    1.0728154   -6.7810599    489.17794  0.034634519  0.034359603            3 
 1178000    1.0679062   -6.8163625    488.44197  0.034553054  0.034353423            2 
 1179000    1.0732909   -6.8338915    488.16592  0.034504235  0.034347224            3 
 1180000    1.0725697   -6.8128197     488.9397   0.03452964  0.034340981            5 
 1181000     1.052122    -6.830776    488.64417  0.034479549   0.03433467            1 
 1182000    1.0675073   -6.7912862    489.55163  0.034514356  0.034328319            1 
 1183000    1.0607947   -6.8018543    490.17186  0.034528871  0.034322177            3 
 1184000    1.0703101   -6.8366488    489.90079   0.03448063  0.034315953            1 
 1185000    1.0680573   -6.8430647    490.26465   0.03447712  0.034309615            4 
 1186000    1.0318441   -6.7836317    490.97612  0.034498041  0.034303372            3 
 1187000    1.0794771   -6.8303482    489.76612   0.03438403  0.034296776            2 
 1188000    1.0596212   -6.8126828    490.84021   0.03443043  0.034290109            2 
 1189000    1.0705566   -6.7893389     491.2307   0.03442884  0.034283338            2 
 1190000    1.0743995   -6.8477349    490.83397  0.034372127  0.034276673            2 
 1191000    1.0435072   -6.8415011    489.65667  0.034260892  0.034269853            2 
 1192000    1.0773557   -6.8251121    491.17108  0.034338023  0.034262985            2 
 1193000    1.0552334   -6.7975708    492.80847  0.034423615  0.034256132            2 
 1194000    1.0522378     -6.79892    492.91133  0.034401964  0.034249484            6 
 1195000    1.0600704   -6.8496053    492.62004  0.034352862  0.034242648            2 
 1196000    1.0649426   -6.7879297    492.20353  0.034295117  0.034235975            2 
 1197000    1.0659594    -6.842709    492.69865  0.034300937  0.034229132            3 
 1198000    1.0625998   -6.8291506    493.52609  0.034329861  0.034222605            2 
 1199000    1.0915987    -6.852376     493.0973  0.034271428  0.034216055            5 
 1200000     1.066585   -6.8144715    495.44889  0.034406173  0.034209167            3 
 1201000    1.0527573   -6.8070742    496.39176  0.034442948  0.034202474            3 
 1202000    1.0660208   -6.8117097    493.92405  0.034243209  0.034195757            3 
 1203000    1.0559416   -6.8028619    496.99235  0.034427289   0.03418903            2 
 1204000    1.0652019   -6.8490249    493.57011  0.034161829  0.034182338            1 
 1205000    1.0777319   -6.8544318    495.68337  0.034279624  0.034175672            5 
 1206000    1.0492186   -6.7987081    496.89852  0.034335166  0.034168901            2 
 1207000     1.069264   -6.8101386    496.56307  0.034283559   0.03416219            2 
 1208000    1.0374291   -6.8278594      496.927  0.034280284  0.034155392            2 
 1209000    1.0526986    -6.809886    496.01569  0.034189116  0.034148556            3 
 1210000    1.0449093   -6.7937026    497.41829  0.034257458  0.034141745            1 
 1211000    1.0412185   -6.8156613    497.05777  0.034204361  0.034134979            3 
 1212000     1.060088   -6.8254078    499.27008  0.034328251  0.034128368            2 
 1213000    1.0359112   -6.7947195     497.8481  0.034202261  0.034121576            4 
 1214000    1.0472582   -6.8362443    496.27438  0.034066061  0.034114654            3 
 1215000    1.0609553    -6.796944    499.16245  0.034236108  0.034107854            3 
 1216000    1.0609773   -6.8289342    499.74358  0.034247778  0.034101105            2 
 1217000    1.0667751   -6.8259956    500.61012  0.034278973  0.034094415            3 
 1218000    1.0532361   -6.8708963    499.59639  0.034181472  0.034087646            2 
 1219000     1.061787   -6.8517801    499.42836  0.034141944  0.034080743            3 
 1220000    1.0497828   -6.7795646    500.82499  0.034209357  0.034074176            5 
 1221000     1.085959   -6.8258744    500.40504  0.034152678  0.034067457            2 
 1222000     1.040289   -6.8294689    501.11874    0.0341734  0.034060745            2 
 1223000    1.0490074   -6.8216566    500.74827  0.034120214  0.034054165            2 
 1224000    1.0429524   -6.8238659    502.42655  0.034206601  0.034047502            3 
 1225000     1.047803   -6.8484764     502.2198  0.034164612  0.034040739            1 
 1226000    1.0602632   -6.7838046    503.77618  0.034242535  0.034034116            2 
 1227000    1.0272402   -6.8354511    501.40811  0.034053797  0.034027517            2 
 1228000    1.0422891   -6.8056558    504.01064  0.034202676  0.034020833            2 
 1229000    1.0368403   -6.8489272    502.83619  0.034095212  0.034014212           12 
 1230000    1.0617486   -6.8293112    504.44958  0.034176801  0.034007548            3 
 1231000     1.054497   -6.8367536    504.46141  0.034149838  0.034000811            3 
 1232000    1.0436287   -6.7891433    505.67062  0.034203911  0.033994103            2 
 1233000    1.0389479    -6.843306    503.89153  0.034055929  0.033987255            4 
 1234000     1.052267   -6.7546799    504.58032  0.034074846  0.033980257            2 
 1235000    1.0414658    -6.821242    504.61515  0.034049606  0.033973342            1 
 1236000    1.0461096   -6.8599246    504.70085  0.034027835  0.033966467            1 
 1237000    1.0381157   -6.8651082    505.75443  0.034071304  0.033959692            3 
 1238000    1.0646641   -6.8206498    506.25849  0.034077712  0.033952778            2 
 1239000    1.0555957   -6.8296451    506.76337  0.034084165  0.033946001            2 
 1240000    1.0744967   -6.8474122    506.35496  0.034029231  0.033939308            4 
 1241000    1.0462662   -6.8443102      507.688  0.034091324  0.033932541            3 
 1242000    1.0449506   -6.8435205    506.47048  0.033982184   0.03392573            7 
 1243000    1.0542113   -6.8311712    507.95033  0.034054058  0.033918939            2 
 1244000    1.0520089   -6.8560162    506.88603  0.033955388  0.033912058            4 
 1245000    1.0484532   -6.8355205    507.37472  0.033960824  0.033905201            3 
 1246000    1.0617619   -6.8406534    506.24575  0.033858062  0.033898444            2 
 1247000    1.0635882   -6.8146333    508.69648  0.033994686  0.033891635            2 
 1248000    1.0589875   -6.8450082    508.78285  0.033973214   0.03388495            3 
 1249000    1.0427758   -6.8260227    509.66703  0.034005006  0.033878277            5 
 1250000    1.0334577    -6.840972    510.25252  0.034016834  0.033871532            6 
 1251000     1.053445   -6.8309126    510.61335  0.034013679  0.033864845            3 
 1252000    1.0431713   -6.7958642    509.99508   0.03394536  0.033857872            2 
 1253000    1.0572451   -6.8271714    509.51212  0.033886148   0.03385106            6 
 1254000    1.0445445   -6.8485828    510.03239  0.033893699  0.033843975            3 
 1255000    1.0596365   -6.8415783    508.74985  0.033781531  0.033837047            2 
 1256000    1.0493057   -6.8847143    510.94015  0.033899957  0.033830163            4 
 1257000    1.0515264   -6.8267358     510.5935  0.033850007  0.033823342            4 
 1258000     1.070445   -6.8251278    511.59886  0.033889697  0.033816547            3 
 1259000    1.0353107   -6.7885808    512.97449  0.033953831  0.033810088            2 
 1260000    1.0624513   -6.8351939    513.10159   0.03393529  0.033803464            2 
 1261000    1.0444286   -6.8529463    513.20571   0.03391526   0.03379677            5 
 1262000    1.0533522   -6.8529769    513.61198  0.033915213   0.03379007            2 
 1263000    1.0320443   -6.8199041    514.44923  0.033943602  0.033783366            2 
 1264000     1.063081   -6.8231382    513.43433  0.033849837  0.033776671            3 
 1265000    1.0290782   -6.8569483    514.49114  0.033892697  0.033769966            2 
 1266000    1.0574078   -6.8445519    514.66207  0.033877177  0.033763127            2 
 1267000     1.058921   -6.8616204    514.69268  0.033852452  0.033756206            2 
 1268000    1.0584222   -6.8579753    515.27578  0.033864076  0.033749547            6 
 1269000    1.0511196   -6.8412142    515.68787  0.033864452  0.033742897            2 
 1270000    1.0485296   -6.8522272    515.04377  0.033795523  0.033736275            2 
 1271000    1.0392177   -6.8109367    517.97568  0.033961165  0.033729848            2 
 1272000    1.0727779   -6.8727857    518.33696  0.033958134  0.033723434            4 
 1273000     1.033942    -6.820339    517.96935  0.033907394  0.033716903            4 
 1274000    1.0553024    -6.890419    517.08743  0.033823092  0.033710394            4 
 1275000    1.0617867   -6.8462708    519.19013  0.033933995  0.033703802            2 
 1276000    1.0508398   -6.8433121    518.31216  0.033850063  0.033697386            3 
 1277000    1.0251076   -6.8432012    519.39573  0.033894266  0.033691096            5 
 1278000    1.0537722   -6.8468521    520.18815  0.033919415  0.033684719            1 
 1279000    1.0379295   -6.8548093    520.10823  0.033887687   0.03367843            3 
 1280000    1.0429828   -6.8482715    519.90681  0.033848099  0.033671984            2 
 1281000    1.0584611   -6.8566888    519.49543  0.033794915  0.033665664            3 
 1282000    1.0513653   -6.8318939    521.35928  0.033889708  0.033659309            2 
 1283000    1.0847798   -6.8526825    520.73845   0.03382297  0.033653176            1 
 1284000    1.0372774    -6.878026    521.74514  0.033861964  0.033647207            2 
 1285000    1.0388765   -6.8273394    523.77966  0.033967553  0.033641071            2 
 1286000    1.0420679    -6.885165    521.64475  0.033802796  0.033634825            5 
 1287000    1.0330942   -6.8671458     522.1894  0.033811798  0.033628549            2 
 1288000    1.0496676   -6.8127931    523.47617    0.0338688  0.033622168            2 
 1289000    1.0471137   -6.8446221    524.16028  0.033886752   0.03361616            3 
 1290000    1.0618145   -6.8284953    524.79556  0.033901522  0.033609969            8 
 1291000    1.0687496   -6.8749085    523.20578  0.033772643  0.033604107            2 
 1292000    1.0498673    -6.830796    526.52605  0.033960658  0.033598198            3 
 1293000    1.0425344   -6.8880098    523.93861  0.033767634  0.033592181            8 
 1294000    1.0420314   -6.8006518    527.63495  0.033979582  0.033586238            2 
 1295000    1.0667791   -6.8461568    526.83636  0.033901953  0.033580433            5 
 1296000    1.0244758   -6.8645254    525.80027  0.033809174  0.033574398            2 
 1297000    1.0328207   -6.8638015    525.48901  0.033763108  0.033568488            7 
 1298000    1.0419916   -6.8413237    526.87888  0.033826327  0.033562441            2 
 1299000    1.0379858   -6.8384713    527.33683  0.033829666  0.033556414            3 
 1300000    1.0401206   -6.8133814    527.90365  0.033839978  0.033550357            3 
 1301000    1.0462101   -6.8382408    526.45647   0.03372127  0.033544349            2 
 1302000    1.0462341   -6.8641557    527.14396  0.033739373  0.033538151            3 
 1303000    1.0232321   -6.8627062    527.41993  0.033731129   0.03353187            4 
 1304000    1.0611343   -6.8599762    528.31882  0.033762705  0.033525618            3 
 1305000     1.050385   -6.8338258    528.63318  0.033756908  0.033519263            2 
 1306000    1.0026221   -6.8182688    530.79938  0.033869281  0.033513199            2 
 1307000    1.0459734   -6.8611477     529.4504  0.033757358  0.033507191            3 
 1308000    1.0423487   -6.8623746    528.84708  0.033693112  0.033500981            3 
 1309000    1.0349508   -6.8599884    529.32885  0.033698042  0.033494786            2 
 1310000    1.0637827   -6.8780111     529.5356  0.033685471  0.033488495            3 
 1311000    1.0195971    -6.837938    530.68576  0.033732886  0.033482324            2 
 1312000    1.0567972   -6.8416581    530.69045  0.033707473  0.033476153            4 
 1313000    1.0498535   -6.8513265    530.90683  0.033695534  0.033469997            3 
 1314000    1.0432911   -6.8572487    531.13093  0.033684103  0.033463847            1 
 1315000     1.056236   -6.8795547    530.63128  0.033626824  0.033457791            2 
 1316000    1.0254073   -6.8742109    532.16637  0.033698478  0.033451838            2 
 1317000    1.0206522   -6.8705852    532.98811  0.033724887  0.033445797            3 
 1318000    1.0401001   -6.8517332    532.45617  0.033665666  0.033439622            4 
 1319000     1.045143   -6.8822253    531.83709  0.033601029  0.033433621            2 
 1320000    1.0392357   -6.8409463    535.37589  0.033798983  0.033427548            3 
 1321000    1.0176815   -6.8391145    534.74399  0.033733535  0.033421669            2 
 1322000    1.0536561   -6.8805834    532.91187  0.033592528  0.033415491            3 
 1323000    1.0271357   -6.8824809    532.78796  0.033559332  0.033409355            5 
 1324000    1.0409217   -6.8599481    533.45452  0.033575939  0.033403121            2 
 1325000     1.021445   -6.8179146    533.58091  0.033558548  0.033396838            3 
 1326000    1.0438881   -6.8535312    533.73396  0.033542858  0.033390576            4 
 1327000    1.0406816   -6.8656318    535.54899  0.033631562  0.033384439            6 
 1328000    1.0221618   -6.8712744    535.39695  0.033596696  0.033378181            3 
 1329000    1.0226466   -6.8768075    533.99613   0.03348358   0.03337201            2 
 1330000    1.0255926   -6.8670019     536.4761  0.033613791  0.033365896            2 
 1331000    1.0432875   -6.8510644    537.98411  0.033682952  0.033359721            2 
 1332000    1.0278258   -6.8232665    536.37071  0.033556726  0.033353719            2 
 1333000    1.0710371   -6.9026579    536.38247  0.033532287    0.0333475            2 
 1334000    1.0452124   -6.8612007    538.02412  0.033609703  0.033341295            1 
 1335000    1.0743799   -6.8559201    538.23914  0.033597949  0.033335256            4 
 1336000     1.057437   -6.8853278    538.12688  0.033565798  0.033329128            4 
 1337000    1.0193311   -6.8538681    539.04136  0.033597691  0.033323053            4 
 1338000    1.0284143   -6.8838727      537.288  0.033463378  0.033316856            3 
 1339000    1.0223395   -6.8654818    537.52067  0.033452867   0.03331062            4 
 1340000    1.0609098   -6.8461527    537.66262   0.03343673  0.033304403            3 
 1341000    1.0269528   -6.8554746    538.66228  0.033473918  0.033298142            3 
 1342000    1.0310289   -6.8715658    538.81233  0.033458292  0.033291902            2 
 1343000    1.0445369   -6.8961001    539.00152  0.033445118   0.03328562            2 
 1344000    1.0150872   -6.8969633    540.06076   0.03348591   0.03327953            3 
 1345000    1.0266112   -6.8720146    538.44674  0.033361013  0.033273242            3 
 1346000    1.0528066   -6.8932073    539.72637  0.033415451  0.033267022            3 
 1347000     1.049285   -6.8660182    542.90641   0.03358738  0.033260886            3 
 1348000    1.0286725   -6.8877798    539.88143  0.033375459  0.033254656            3 
 1349000     1.026485   -6.8862789    542.18955  0.033493301  0.033248532            4 
 1350000    1.0457111   -6.8531141    542.43915  0.033483898  0.033242338            3 
 1351000    1.0357822   -6.8243972    543.54877  0.033527558  0.033236445            2 
 1352000     1.020043   -6.8396027    543.87153  0.033522653  0.033230349            2 
 1353000    1.0168529   -6.8537124    542.92513  0.033439587  0.033224268            3 
 1354000    1.0335003   -6.8681318     542.2606  0.033373991   0.03321827            2 
 1355000    1.0238131   -6.8901225     542.0519  0.033336525  0.033212156            2 
 1356000    1.0375493   -6.9028741     542.7492  0.033354794  0.033205952            2 
 1357000     1.035233    -6.848411    543.28044  0.033362837  0.033199674            2 
 1358000   0.99075326   -6.8847392    544.15342   0.03339184  0.033193335            1 
 1359000    1.0443007   -6.8699877    544.45443  0.033385726  0.033187056            3 
 1360000    1.0299583   -6.8726752    544.91664    0.0333895  0.033180822            4 
 1361000    1.0412017    -6.880005    545.56814  0.033404858  0.033174566            2 
 1362000    1.0321775    -6.850262    544.63736  0.033323382  0.033168408            2 
 1363000    1.0227969   -6.8619539     546.6332  0.033420958  0.033162282            3 
 1364000    1.0409192   -6.8818528     547.0961  0.033424737   0.03315633            2 
 1365000    1.0486203   -6.8786745    547.57129  0.033429261  0.033150398            2 
 1366000    1.0425522   -6.8731517    547.32778  0.033389933  0.033144269            2 
 1367000    1.0234734   -6.8590488    548.70223  0.033449294  0.033138354            2 
 1368000    1.0474792   -6.8830743    546.35905  0.033282106   0.03313228            2 
 1369000    1.0591804   -6.8816456     547.7942  0.033345155  0.033126109            3 
 1370000    1.0345064   -6.8896544    547.93529  0.033329397  0.033119991            3 
 1371000    1.0309721   -6.8939578    548.67282  0.033349916  0.033113841            7 
 1372000    1.0447969   -6.8879122    549.42171  0.033371095  0.033107845            2 
 1373000    1.0454211   -6.8579796    549.14785  0.033330168  0.033101811            2 
 1374000    1.0168242   -6.8813726    548.64612   0.03327548  0.033095698            2 
 1375000    1.0356632    -6.896687    547.78868  0.033199314  0.033089409            2 
 1376000    1.0364044   -6.8773946    551.07784  0.033374384  0.033083343            4 
 1377000    1.0268069   -6.8721443    549.57274  0.033259062  0.033077224            2 
 1378000     1.019516   -6.8701076    549.26116  0.033216083  0.033071029            3 
 1379000     1.037854    -6.888921    549.07348  0.033180655  0.033064862            3 
 1380000    1.0435563   -6.8753811    549.97136  0.033210831  0.033058744            4 
 1381000    1.0209325   -6.8857218    551.25524  0.033264255  0.033052559            3 
 1382000    1.0390724   -6.8914378    549.69829  0.033146303  0.033046426            4 
 1383000    1.0350576   -6.8366404    552.37224  0.033283456  0.033040261            2 
 1384000    1.0318618   -6.9107818     553.2467   0.03331206  0.033034129            5 
 1385000    1.0190998   -6.8863081    552.90049  0.033267177  0.033027902            3 
 1386000    1.0360018   -6.8367422    554.79567  0.033357123  0.033021844            3 
 1387000    1.0183798   -6.9224764    552.28064  0.033181966  0.033015914            4 
 1388000    1.0495503   -6.8503519    554.77232  0.033307656  0.033009967            6 
 1389000     1.024182   -6.8992258    552.60951  0.033153918  0.033004004            4 
 1390000    1.0401375   -6.9125543    554.88475  0.033266472  0.032997989            2 
 1391000    1.0274793    -6.856494     554.8988  0.033243398  0.032992003            2 
 1392000    1.0226517   -6.8737483    556.34005  0.033305798   0.03298603            7 
 1393000    1.0344636   -6.9150794    555.72093  0.033244851  0.032980078            5 
 1394000    1.0448653   -6.9134592    555.06975  0.033182075  0.032974205            2 
 1395000    1.0231882   -6.8960208    555.21742   0.03316711  0.032968142            3 
 1396000    1.0324704   -6.8592478    554.44689  0.033097355  0.032961974            3 
 1397000    1.0545989   -6.8801016     557.0418  0.033228454  0.032955808            2 
 1398000    1.0074733   -6.8659228    555.82629   0.03313223  0.032949708            3 
 1399000    1.0323213   -6.8770002    557.13548  0.033186531   0.03294345            3 
 1400000    1.0318837   -6.8742302    557.76139  0.033200083  0.032937184            2 
 1401000    1.0332727     -6.84827    557.07047  0.033135288  0.032930977            2 
 1402000    1.0208964    -6.892864    557.10797  0.033113883  0.032924783            2 
 1403000    1.0373636   -6.8671192    556.96018  0.033081503  0.032918603            2 
 1404000    1.0208693   -6.8652251    557.14395  0.033068848  0.032912402            2 
 1405000    1.0464166   -6.8980029    557.28619  0.033053748  0.032906061            5 
 1406000    1.0045633   -6.8701926    559.87247  0.033183527  0.032899781            3 
 1407000    1.0244264   -6.8777401    560.86834  0.033218925  0.032893641            6 
 1408000    1.0317451   -6.8561561    559.25536  0.033099868  0.032887389            2 
 1409000    1.0526222   -6.8937251    559.56545  0.033094715  0.032881151            4 
 1410000    1.0159139   -6.9192729    558.33682   0.03299863  0.032874709            6 
 1411000    1.0339238   -6.9048686    558.95552  0.033011784  0.032868504            3 
 1412000    1.0317065   -6.9175228    558.86212  0.032982892  0.032862274            6 
 1413000    1.0429178   -6.8813593    559.11564  0.032974501  0.032855911            3 
 1414000    1.0205342   -6.8879667    560.76583  0.033048434   0.03284957            4 
 1415000    1.0312229   -6.8683691    560.20241  0.032991897  0.032843083            5 
 1416000    1.0356559   -6.8783973    561.66135  0.033054458  0.032836787            5 
 1417000    1.0406124   -6.8685938    561.23297  0.033005938  0.032830556            1 
 1418000    1.0283512   -6.8987851    561.78201  0.033014928  0.032824444            2 
 1419000    1.0216801   -6.9251129    561.53652  0.032977244  0.032818179            3 
 1420000    1.0230282   -6.9229085    561.89344  0.032974967  0.032811883            2 
 1421000    1.0437664   -6.8997181    563.23252  0.033030291  0.032805743            7 
 1422000    1.0407784   -6.9306644    564.00068  0.033052079  0.032799617            2 
 1423000    1.0399004    -6.914637     562.5169  0.032941959  0.032793331            4 
 1424000    1.0261945    -6.877091     565.5441   0.03309598   0.03278725            2 
 1425000    1.0299155   -6.8824802    563.39815   0.03294726  0.032781331            3 
 1426000    1.0207301   -6.9045852    563.79038  0.032947077   0.03277527            1 
 1427000    1.0064599   -6.8705931    564.68515  0.032976241  0.032769164            3 
 1428000    1.0351814   -6.8797921    565.51297  0.033001457  0.032762908            5 
 1429000    1.0382197   -6.8598723    565.80304  0.032995279   0.03275672            3 
 1430000    1.0258782   -6.8847132    565.04062  0.032927775   0.03275056            3 
 1431000    1.0305608   -6.8816205    565.13971  0.032910535  0.032744301            5 
 1432000    1.0369329   -6.8869475     564.9955  0.032879161  0.032738129            2 
 1433000    1.0308936   -6.8978225     565.6044  0.032891626  0.032732009            2 
 1434000    1.0226711   -6.9116474    565.48118  0.032861529  0.032725803            4 
 1435000    1.0577914   -6.9218637    565.09724  0.032816332  0.032719683            5 
 1436000    1.0345453   -6.9233356    568.03938  0.032964217  0.032713407            2 
 1437000    1.0117738   -6.9161291    567.14693  0.032889523    0.0327071            3 
 1438000    1.0249067   -6.9269895    567.08928   0.03286331  0.032700713            2 
 1439000    1.0251457   -6.9144655    566.40818   0.03280103  0.032694347            3 
 1440000    1.0275263   -6.8730557    568.39097  0.032892996  0.032688024            3 
 1441000    1.0320376    -6.904786    567.11766  0.032796534  0.032681676            2 
 1442000    1.0324984    -6.893949    569.09579  0.032888106  0.032675416            3 
 1443000    1.0385251   -6.8872578    569.02277  0.032861098  0.032669289            4 
 1444000    1.0239103   -6.9132305    567.62519  0.032757686   0.03266299            2 
 1445000    1.0363958   -6.9040173    568.42105  0.032780914  0.032656627            6 
 1446000    1.0279625   -6.9105139    568.90872  0.032786349  0.032650257            2 
 1447000    1.0319054   -6.9580594    570.15227  0.032835307  0.032643954            2 
 1448000    1.0212125    -6.904163    569.89077  0.032797581  0.032637725            5 
 1449000    1.0307413   -6.8956427    571.43604  0.032863817  0.032631486            2 
 1450000    1.0013356   -6.8952674    570.20172  0.032770214  0.032625236            2 
 1451000    1.0006586   -6.8950319     570.9102  0.032788319  0.032619037            2 
 1452000     1.043974   -6.9082883    570.93394  0.032767099  0.032612629            4 
 1453000    1.0461473   -6.9213865    569.78296  0.032678536  0.032606347            6 
 1454000    1.0214621   -6.9225472     571.0401  0.032728112  0.032600005            1 
 1455000    1.0202217     -6.92436     572.0911  0.032765813  0.032593589            2 
 1456000     1.007523   -6.9322976    570.34397  0.032643313  0.032587094            4 
 1457000    1.0196129   -6.9180351    570.99031  0.032657876  0.032580541            3 
 1458000     1.034189   -6.9040873    574.07747  0.032811927  0.032573995            1 
 1459000     1.000678   -6.9137323    571.71858  0.032654705  0.032567403            3 
 1460000    1.0295656   -6.8940146    572.97907  0.032704285  0.032560842            2 
 1461000    1.0135967   -6.9043518     573.9475  0.032737138  0.032554237            2 
 1462000    1.0070385   -6.8827247    573.93512   0.03271404  0.032547821            3 
 1463000    1.0339763   -6.8887241    574.11633  0.032702001  0.032541462            3 
 1464000    1.0111559   -6.9022104    573.40789  0.032639338  0.032535042            3 
 1465000    1.0547393   -6.9388742    572.24323  0.032550809  0.032528612            4 
 1466000    1.0243986   -6.8780523    576.46778  0.032768746  0.032522007            1 
 1467000    1.0297553   -6.9440258    574.04411  0.032608731  0.032515576            4 
 1468000    1.0166122    -6.927458    573.73011  0.032568694  0.032509051            1 
 1469000    1.0206463   -6.8970179     575.0719   0.03262264  0.032502598            3 
 1470000    1.0163039   -6.8636845    576.35185  0.032673007  0.032496114            2 
 1471000    1.0213674   -6.9313361    574.69878  0.032557148  0.032489646            1 
 1472000   0.99886013   -6.8744723     574.7227  0.032536385   0.03248315            2 
 1473000    1.0189937   -6.9370002    575.14232  0.032538036  0.032476647            4 
 1474000    1.0154055   -6.9051442    575.58345    0.0325409  0.032470072            2 
 1475000    1.0319212   -6.9094929    575.41333  0.032509228   0.03246346            2 
 1476000     1.003202   -6.9235326    576.31526  0.032538124  0.032456804            3 
 1477000    1.0272637   -6.9348214    575.81832  0.032488057  0.032450293            3 
 1478000    1.0238634   -6.9260642    577.41329  0.032556004  0.032443761            3 
 1479000    1.0226286    -6.932323    575.48538  0.032425365  0.032437015            6 
 1480000     1.015557   -6.9152455    578.51272  0.032573914  0.032430316            2 
 1481000    1.0238157   -6.9429226    577.92356  0.032518769    0.0324237            3 
 1482000    1.0123231   -6.9334318    578.30282  0.032518152  0.032417074            3 
 1483000    1.0270251   -6.9344205    579.25324  0.032549632  0.032410334            4 
 1484000   0.98321285   -6.9197026    578.05377  0.032460342   0.03240356            1 
 1485000     1.016607   -6.9078774    579.62244  0.032526512  0.032396878            2 
 1486000    1.0399149   -6.9133746    579.12946  0.032476977  0.032390223            6 
 1487000    1.0201268   -6.9166514    577.84483  0.032383145  0.032383479            5 
 1488000    1.0273916   -6.9245199    579.09241  0.032431251    0.0323767            3 
 1489000    1.0009531    -6.906901    579.55078  0.032435123  0.032369925            3 
 1490000    0.9916357   -6.8704333    581.86146  0.032542587  0.032363264            3 
 1491000    1.0056441   -6.8910091    581.34486  0.032491888  0.032356585            2 
 1492000    1.0219334   -6.8880159    580.57467  0.032427093  0.032349947            3 
 1493000   0.98759991   -6.8849297    580.02336  0.032374602  0.032343258            2 
 1494000    1.0156626   -6.9014172    581.14534  0.032415515   0.03233661            3 
 1495000    1.0241558   -6.9395297    578.88848  0.032268031  0.032329929            3 
 1496000    1.0038358   -6.9302826    581.16257  0.032373138  0.032323129            4 
 1497000   0.98333251    -6.911798    580.81344  0.032332078  0.032316363            2 
 1498000   0.98723245   -6.9033871    583.87038  0.032480551   0.03230965            3 
 1499000     1.027855   -6.9417552    581.74957  0.032340981   0.03230296            2 
 1500000    1.0407367   -6.9301428    582.18778  0.032343766  0.032296256            3 
 1501000    1.0059208   -6.9007608    584.11548  0.032429241  0.032289579            3 
 1502000   0.98398753   -6.9380399    583.24622  0.032359422  0.032282893            3 
 1503000    1.0169726   -6.8956236    583.74556  0.032365577  0.032276141            2 
 1504000    1.0391835   -6.9249142    583.50835  0.032330915  0.032269294            3 
 1505000    1.0112901   -6.9118288     584.1329  0.032344014  0.032262459            2 
 1506000    1.0116435   -6.9132184     582.3052  0.032221403  0.032255572            3 
 1507000    1.0015049    -6.927283    583.84884  0.032285382  0.032248774            5 
 1508000    1.0200548   -6.9175571    584.97468  0.032326187   0.03224204            4 
 1509000   0.99808257   -6.8612019    585.11454  0.032312488  0.032235419            5 
 1510000    1.0225338   -6.9415093    584.12426  0.032236438  0.032228739            5 
 1511000    1.0089867   -6.9177836    585.18043  0.032273352  0.032222004            3 
 1512000    1.0231145   -6.9295336    586.79121  0.032340785  0.032215244            6 
 1513000    1.0158841   -6.9214795    588.37133  0.032406441  0.032208645            2 
 1514000    1.0110286   -6.9624312    586.28361  0.032270124  0.032202046            3 
 1515000    1.0321175   -6.9283805    586.89899  0.032282673  0.032195339            2 
 1516000    1.0286715   -6.9303775    588.09878   0.03232733   0.03218876            4 
 1517000    1.0005232   -6.9168064    588.94717  0.032352624  0.032182293            4 
 1518000    0.9966991   -6.9198259    587.06177  0.032227809  0.032175766            5 
 1519000    1.0095989   -6.9513946    588.55142  0.032288316    0.0321691            3 
 1520000    1.0128243   -6.8986418    589.63377  0.032326413  0.032162683            7 
 1521000     1.023776   -6.9282442    590.23797  0.032338262  0.032156417            2 
 1522000   0.99432943   -6.9281796    590.26044  0.032318246  0.032150209            2 
 1523000    1.0136664   -6.9140581     589.8237  0.032273129  0.032143878            5 
 1524000    1.0060075   -6.9150452    589.49954  0.032234227   0.03213738            3 
 1525000   0.99506028   -6.9210785    590.54212  0.032270061  0.032130979            2 
 1526000    1.0003615   -6.9398797    589.99925  0.032219269  0.032124453            2 
 1527000    1.0220771   -6.9150786    589.49725  0.032170773  0.032117864            3 
 1528000    1.0013624   -6.9176125     591.7056  0.032270157  0.032111245            3 
 1529000    1.0349297   -6.9078909    590.84617  0.032202211  0.032104749            3 
 1530000     1.014213   -6.9100661    591.61792  0.032223198  0.032098239            4 
 1531000    1.0137435   -6.9205522    590.98347  0.032167617  0.032091774            5 
 1532000    1.0165363   -6.9494246    591.16657   0.03215658  0.032085163            2 
 1533000    1.0336925    -6.915083    590.08792  0.032076969  0.032078507            2 
 1534000    1.0055087   -6.9173301    592.16118  0.032168686  0.032071795            4 
 1535000   0.99797051   -6.9566084    592.77667  0.032181144  0.032065012            2 
 1536000   0.99461842   -6.9225429    593.30443  0.032188826  0.032058142            3 
 1537000    1.0308181   -6.9516361    590.40695  0.032010787  0.032051283            1 
 1538000    1.0166801   -6.8904944    593.10266  0.032136035  0.032044442            2 
 1539000   0.99600907    -6.938445    592.08208  0.032059891  0.032037502            2 
 1540000    1.0138998   -6.9373249    592.53252  0.032063448   0.03203055            3 
 1541000    1.0170444   -6.9217902    592.24668  0.032027184  0.032023612            4 
 1542000    0.9901531   -6.9283742    593.18812  0.032057291   0.03201665            3 
 1543000    1.0058715   -6.9532088    591.85923  0.031964746  0.032009667            2 
 1544000    1.0156468   -6.9513239    593.74047  0.032045578  0.032002577            4 
 1545000    1.0067707   -6.9695159    592.37971  0.031951441  0.031995505            2 
 1546000    1.0019479   -6.9258798    593.88795  0.032012071  0.031988554            1 
 1547000   0.99730819   -6.9752452    594.25565  0.032011186  0.031981651            3 
 1548000   0.99750144   -6.9446508    593.17576  0.031932373  0.031974896            3 
 1549000    1.0138386   -6.8953034     594.6047  0.031988632  0.031968077            5 
 1550000    1.0170694   -6.9417988     594.7275  0.031974597  0.031961426            4 
 1551000    1.0032682   -6.9183439    596.38805    0.0320432  0.031954684            3 
 1552000   0.99569606    -6.927441    594.30059   0.03191047  0.031947901            3 
 1553000    1.0010491   -6.9163665     595.3116  0.031944173  0.031941142            7 
 1554000   0.98892258   -6.9253434     597.1199  0.032020587  0.031934417            3 
 1555000    1.0064144   -6.8852759    596.89023  0.031987686  0.031927783            4 
 1556000    0.9872425   -6.9505142    596.64231  0.031953851   0.03192107            2 
 1557000    1.0249123   -6.9516363    597.79712  0.031995136  0.031914271            3 
 1558000    1.0030782   -6.9415167      597.405  0.031953627  0.031907549            2 
 1559000    1.0100994   -6.9560266    596.68033  0.031894394  0.031900821            4 
 1560000   0.98055316   -6.9316852     599.4791  0.032023456   0.03189405            2 
 1561000   0.98814185   -6.9505597    597.56361  0.031900684  0.031887347            2 
 1562000   0.97540608   -6.9722791    598.27544  0.031918237  0.031880498            2 
 1563000    1.0146457   -6.9346578    600.74061   0.03202925  0.031873647            2 
 1564000     1.002172   -6.9364582    598.21631   0.03187427  0.031866932            2 
 1565000   0.99565924   -6.9364053    597.92882  0.031838595  0.031860241            2 
 1566000    1.0021672   -6.9173002    600.81177  0.031971678  0.031853528            3 
 1567000   0.97597008   -6.9583631    599.88015  0.031901731   0.03184685            2 
 1568000   0.98946497   -6.9601096    601.99447  0.031993754  0.031840071            7 
 1569000   0.97580111   -6.9495992    599.07635  0.031818374  0.031833254            4 
 1570000   0.98364864   -6.9426037    600.42311  0.031869592  0.031826463            2 
 1571000    1.0024277   -6.9296548    601.85378  0.031925195  0.031819601            3 
 1572000   0.97088646   -6.9471207    599.09274  0.031758521  0.031812712            3 
 1573000   0.99999097    -6.931727    602.47075  0.031917289  0.031805825            4 
 1574000     1.007808   -6.9619992    599.58415  0.031744184  0.031798873            6 
 1575000    1.0035947   -6.9186471      601.673   0.03183455   0.03179209            1 
 1576000    1.0099186   -6.9317263    603.30124  0.031900446  0.031785204            4 
 1577000   0.98372471   -6.9433559    601.31801  0.031775418  0.031778379            2 
 1578000   0.99966189   -6.9582791    603.22147  0.031855802  0.031771528            4 
 1579000    1.0077573   -6.9551164    602.01903  0.031772168  0.031764619            2 
 1580000   0.99571396   -6.9387182    600.52974  0.031673509  0.031757691            3 
 1581000   0.98897918   -6.9947101    600.35001  0.031644002  0.031750661            3 
 1582000   0.99083757   -7.0013248    603.19494  0.031773859  0.031743664            3 
 1583000   0.99061679   -6.9456347    602.34314  0.031708946  0.031736641            2 
 1584000   0.99247687   -6.9491336    602.59987  0.031702434  0.031729645            8 
 1585000    1.0050097   -6.9423081    602.65557  0.031685361  0.031722483            2 
 1586000   0.97527974   -6.9467458    602.71025  0.031668256  0.031715319            4 
 1587000    1.0086139   -6.9271478    602.95352  0.031661076  0.031708186            7 
 1588000    1.0000196   -6.9769182    601.84421  0.031582925  0.031701012            5 
 1589000   0.99361011   -6.9458543    604.39421   0.03169678  0.031693988            2 
 1590000    0.9949528   -6.9115796    604.68439  0.031692054  0.031686984            1 
 1591000   0.99074109   -6.9399305    604.21393  0.031647493  0.031680041            3 
 1592000    1.0104116   -6.9337643    604.27843   0.03163099   0.03167308            1 
 1593000   0.98584581   -6.9346398     607.1787  0.031762853  0.031666155            4 
 1594000   0.98977094   -6.9845414    603.93361  0.031573275  0.031659115            3 
 1595000    1.0059562   -6.9556839    605.70863  0.031646219  0.031651887            6 
 1596000   0.98903189   -6.9469827    605.55194  0.031618209  0.031644847            3 
 1597000   0.98929375   -6.9574631     605.4049  0.031590738   0.03163779            2 
 1598000   0.98598006   -6.9694321    605.19852  0.031560207  0.031630753            4 
 1599000   0.99205134   -6.9613448    606.51599   0.03160913  0.031623634            4 
 1600000   0.98357875   -6.9371612    606.55088  0.031591191  0.031616576            4 
 1601000   0.97680916   -6.9409582    605.88542  0.031536822  0.031609502            2 
 1602000   0.99147197     -6.95269    607.39568  0.031595697  0.031602418            2 
 1603000    1.0072124   -6.9495875    606.75864   0.03154287  0.031595293            3 
 1604000   0.99288663   -6.9991877    603.94607  0.031377082  0.031587919            6 
 1605000    1.0145912   -6.9866034    607.14143  0.031523439  0.031580572            5 
 1606000   0.96852181   -6.9203297    608.82362  0.031591097  0.031573354            3 
 1607000   0.99192607   -6.9519365    608.08745  0.031533264  0.031566219            2 
 1608000   0.97422941   -6.9591868    608.73285    0.0315471  0.031559171            5 
 1609000   0.99706343   -6.9663985    609.45068  0.031564672  0.031552119            2 
 1610000    1.0062936   -6.9749088    607.64514  0.031451612  0.031544908            2 
 1611000    1.0006843   -6.9442509    609.63612  0.031535078  0.031537719            2 
 1612000   0.98862614   -6.9265866    610.42673  0.031556386  0.031530534            3 
 1613000   0.98550188   -6.9636873    608.63906  0.031444465  0.031523433            7 
 1614000    1.0023832   -6.9939204    608.87191  0.031437005  0.031516219            3 
 1615000   0.99088508   -6.9584464    608.82546  0.031415143  0.031509045            3 
 1616000    1.0004186   -6.9328413    611.06622  0.031511253   0.03150181            1 
 1617000    1.0038178   -6.9556226    609.98735  0.031436165  0.031494679            7 
 1618000   0.97634262   -6.9483998    611.35076  0.031486957  0.031487491            4 
 1619000   0.99593864    -6.935741    610.12926  0.031404635  0.031480399            4 
 1620000    1.0024744   -6.9567239    610.68906  0.031414046  0.031473343            3 
 1621000   0.98651895   -6.9607212    609.31146  0.031323846  0.031466168            4 
 1622000   0.98884147   -6.9773316    609.49688  0.031314061  0.031458936            3 
 1623000    1.0033382   -6.9635092    611.34968  0.031389899  0.031451662            3 
 1624000   0.99623238    -6.946494    612.34712  0.031421753  0.031444312            3 
 1625000    1.0054694   -7.0067562    612.27064  0.031398494     0.031437            2 
 1626000   0.99885231    -6.954141    612.57252  0.031394655  0.031429762            3 
 1627000   0.98599363   -6.9726795    613.23873  0.031409482  0.031422501            4 
 1628000     0.992478   -6.9862116    610.53215  0.031251645  0.031415175            3 
 1629000   0.99167111   -7.0116517    612.03276  0.031309227  0.031407751            4 
 1630000    1.0037794    -6.964952    612.26789  0.031302039  0.031400339            3 
 1631000   0.97309732   -6.9618697    613.07551  0.031324112  0.031392937            3 
 1632000    1.0023641   -6.9516087    612.59572  0.031280419   0.03138547            3 
 1633000   0.98600801   -6.9965009    610.17008  0.031137481  0.031378016            3 
 1634000   0.99135969   -6.9563872    612.47415  0.031235932  0.031370613            1 
 1635000    1.0014764   -6.9610671    615.00029  0.031345581    0.0313632            3 
 1636000   0.98512139    -6.952468    614.79917  0.031316176    0.0313558            3 
 1637000   0.98213249   -6.9495536    614.96257  0.031305364  0.031348429            6 
 1638000    1.0122482   -6.9730935    613.14107  0.031193583  0.031341008            1 
 1639000   0.98577762   -6.9640447    613.08859  0.031171883   0.03133358            4 
 1640000   0.97672316   -6.9569886    615.81256  0.031291289  0.031326285            2 
 1641000   0.97398607   -6.9700545     613.6078  0.031160258  0.031318841            3 
 1642000   0.99922803    -6.935934    615.08153  0.031216074   0.03131148            5 
 1643000    1.0095771   -6.9579439    613.35629  0.031109571   0.03130414            2 
 1644000   0.98623319   -6.9620462    615.92317  0.031220761  0.031296625            2 
 1645000   0.99473221   -6.9744951    613.69492  0.031088902  0.031289037            4 
 1646000   0.98563908   -6.9998597    614.93255  0.031132673   0.03128146            2 
 1647000    1.0013003   -6.9708723    613.58619  0.031045648  0.031273827            3 
 1648000      1.00153   -6.9689527     615.5511  0.031126168   0.03126619            2 
 1649000    1.0012405   -6.9624139    616.31312  0.031145801  0.031258639            2 
 1650000   0.98061641   -6.9739723    616.42102  0.031132375  0.031251068            2 
 1651000   0.99814363   -6.9492444    616.75281  0.031130265  0.031243543            4 
 1652000   0.98816092   -7.0153669    615.62069  0.031054313  0.031235885            4 
 1653000   0.98494665    -6.944752    617.78636  0.031144704  0.031228343            6 
 1654000    0.9745721   -6.9670835    617.48515  0.031110699  0.031220774            2 
 1655000   0.97450266   -6.9628811    615.40964  0.030987394  0.031213154            7 
 1656000   0.98584982   -6.9913306    617.81911  0.031089931  0.031205485            3 
 1657000   0.99309068   -6.9593801    615.68701  0.030963941  0.031197732            4 
 1658000   0.99047253    -7.000715     616.7613  0.030999261  0.031190052            2 
 1659000     1.001478   -6.9367952    618.34769  0.031060262  0.031182443            3 
 1660000    1.0028097    -6.970366    618.60225   0.03105433  0.031174776            4 
 1661000    0.9835597   -6.9897083    615.94641  0.030902389  0.031167069            3 
 1662000   0.98039869   -6.9930148    616.66019  0.030919584  0.031159321            4 
 1663000   0.96103008   -6.9391329    616.95987  0.030916009  0.031151589            2 
 1664000   0.98685381    -6.967056    616.28752  0.030863758  0.031143815            2 
 1665000    1.0046068    -6.959613     617.7976  0.030920801  0.031136031            5 
 1666000   0.99387573   -6.9792121    618.77247  0.030951004  0.031128371            3 
 1667000   0.96560052   -6.9674624    620.27213  0.031007405  0.031120671            4 
 1668000   0.97292451   -6.9857877    619.89693   0.03097007  0.031112938            5 
 1669000    1.0049879   -7.0122421    618.78874  0.030896182   0.03110518            3 
 1670000   0.97363723   -6.9659984    620.95281  0.030985669  0.031097564            3 
 1671000   0.98993005   -6.9386664    622.22215  0.031030428  0.031089987            3 
 1672000   0.96251479   -6.9751359    620.90112  0.030946029  0.031082344            2 
 1673000   0.98143968    -6.982641     620.1432  0.030889779  0.031074732            2 
 1674000   0.96944186   -6.9681887    622.49052  0.030988178   0.03106701            6 
 1675000   0.98499567   -6.9638285    621.47026  0.030918918  0.031059344            4 
 1676000   0.98054759   -6.9518385    621.44398  0.030899164  0.031051769            3 
 1677000   0.99441089   -6.9671149    621.86599  0.030901709  0.031044233            2 
 1678000   0.99238316   -6.9948353    620.45818  0.030813378  0.031036595            3 
 1679000   0.97978476    -6.979161    621.82822  0.030863024  0.031028946            4 
 1680000    0.9800923   -6.9739639      620.747  0.030791022  0.031021241            3 
 1681000   0.98087051   -6.9760476    619.92852   0.03073213  0.031013395            3 
 1682000   0.98596083   -6.9801115    621.91135  0.030812096  0.031005599            4 
 1683000   0.98847139   -6.9781227    621.05579  0.030751425   0.03099784            2 
 1684000   0.98089786    -7.008868    622.67871  0.030813475  0.030990136            4 
 1685000   0.98875946   -6.9887013    623.04443  0.030813275  0.030982362            6 
 1686000   0.99730782   -6.9911467    622.03901  0.030745305  0.030974667            2 
 1687000   0.97739648   -6.9971156    622.58766  0.030754182  0.030966954            3 
 1688000   0.99129998   -6.9735561    623.33948  0.030773079  0.030959191            4 
 1689000   0.96433084   -6.9539539    624.05069  0.030789949  0.030951535            4 
 1690000   0.99382188   -6.9927824    623.65803  0.030752368  0.030943797            5 
 1691000   0.98399783    -6.997262    623.28626  0.030715861   0.03093592            7 
 1692000   0.97965111   -7.0159281    623.20682  0.030693795  0.030927997            2 
 1693000    0.9878485   -6.9705345    622.22933  0.030627551  0.030920082            3 
 1694000     1.002592   -6.9979413    623.30936  0.030662601  0.030912233            2 
 1695000   0.97963771   -6.9430762    624.87947  0.030721705  0.030904425            3 
 1696000   0.99752752   -6.9639049     625.6462  0.030741264  0.030896654            1 
 1697000   0.99446083   -6.9739488    625.79902  0.030730653  0.030888827            2 
 1698000   0.99056951    -7.013159    624.33783  0.030640843  0.030881072            5 
 1699000     0.998726   -7.0085589    622.10345  0.030513216  0.030873213            3 
 1700000   0.98260385   -7.0098315    624.71802  0.030623432  0.030865321            2 
 1701000   0.97649626    -6.956065    626.32566  0.030684189   0.03085759            2 
 1702000   0.97160719   -6.9837896    624.63632  0.030583447  0.030849679            3 
 1703000   0.98660463   -6.9578922    625.02909  0.030584708  0.030841809            3 
 1704000   0.99372715   -6.9433906    626.43917  0.030635718  0.030833862            5 
 1705000   0.98830311   -7.0002627    625.58786  0.030576142   0.03082608            6 
 1706000   0.95380479   -6.9630644    627.47364  0.030650334  0.030818249            7 
 1707000   0.97873557   -6.9827674    626.50659  0.030585168  0.030810492            3 
 1708000    1.0001987   -6.9892678    628.58561  0.030668697  0.030802698            2 
 1709000    1.0025356    -7.000229    626.61379  0.030554602  0.030794906            3 
 1710000     1.001445   -6.9751516    629.34016  0.030669598  0.030787129            2 
 1711000   0.95179022    -6.970681    627.68133  0.030570881  0.030779414            3 
 1712000   0.98703057   -6.9786747    628.67404  0.030601346  0.030771622            2 
 1713000   0.98261949   -6.9964377    627.40311  0.030521653  0.030763879            4 
 1714000   0.98044587   -6.9903381    627.81875  0.030524054  0.030756073            3 
 1715000   0.97756899   -7.0307816    628.90543  0.030559059  0.030748251            4 
 1716000   0.98235121   -7.0048628    629.93656  0.030591325   0.03074046            2 
 1717000   0.98774342   -6.9681996    631.08016  0.030629012  0.030732825            2 
 1718000   0.97295647   -6.9768917    630.62384  0.030589049  0.030725274            2 
 1719000   0.96205089    -7.001511    630.68933  0.030574429  0.030717625            2 
 1720000   0.98059597   -7.0079854    631.04613   0.03057394  0.030709962            4 
 1721000   0.97026177   -6.9687916    631.31121  0.030569011  0.030702235            2 
 1722000   0.99538746   -6.9834247    631.26199  0.030548877  0.030694489            2 
 1723000   0.99727189   -6.9835224    630.65852   0.03050196  0.030686753            2 
 1724000   0.99958037    -6.988981    631.30635  0.030515581   0.03067903            5 
 1725000    0.9663812   -6.9932533    631.47034  0.030505814  0.030671296            2 
 1726000   0.97214606   -6.9700797    631.54978  0.030491974  0.030663479            2 
 1727000   0.94961098   -6.9574422    631.28783  0.030461679  0.030655637            2 
 1728000   0.96808154   -6.9916304    628.92973   0.03033033  0.030647752            3 
 1729000    0.9899265   -7.0090298    631.19532  0.030421984  0.030639869            3 
 1730000   0.96996953    -7.010258    628.49207  0.030274184  0.030631892            4 
 1731000   0.97493543   -6.9863963    631.54148  0.030403499  0.030623958            4 
 1732000   0.96565964   -7.0514145    630.58355  0.030339855  0.030615972            2 
 1733000   0.97741073   -7.0293312    630.10429  0.030299302  0.030607997            5 
 1734000   0.99168221   -6.9747026     629.9542  0.030274615  0.030599867            3 
 1735000   0.99380827   -6.9668147    631.66042  0.030339117  0.030591816            6 
 1736000   0.97987552   -6.9603047    631.98956   0.03033744  0.030583884            3 
 1737000   0.97240846   -6.9823024     631.5113   0.03029703  0.030575987            3 
 1738000    0.9601934   -6.9813211    632.03566   0.03030474  0.030568071            2 
 1739000   0.95322407   -6.9983538    631.75864  0.030274039  0.030560105            2 
 1740000   0.95737649   -6.9897283    631.27206  0.030233336  0.030552119            3 
 1741000   0.98848297   -6.9898734    632.09333  0.030255281  0.030544004            2 
 1742000   0.96175962   -7.0112761    632.89601  0.030276311  0.030535978            1 
 1743000   0.97844081   -6.9972331    631.90772  0.030211691  0.030527944            3 
 1744000   0.98201199   -6.9973205    633.28201  0.030260035  0.030520017            4 
 1745000   0.96669161   -6.9981128    632.79691  0.030219528  0.030511952            3 
 1746000    0.9669561   -6.9532984    634.69259  0.030292697  0.030503955            3 
 1747000   0.95689629   -6.9803618    635.40684  0.030309428   0.03049588            3 
 1748000   0.98750451   -7.0231649    633.85637  0.030218172  0.030487828            2 
 1749000   0.96896073   -6.9937785    635.56583  0.030282344  0.030479759            5 
 1750000   0.96957129   -6.9982251    634.76603  0.030226954  0.030471619            2 
 1751000    0.9973343   -7.0153085    634.04452  0.030175353   0.03046348            5 
 1752000   0.98410867   -6.9911147    633.90266  0.030151382  0.030455453            2 
 1753000   0.95492081   -7.0333532    636.57628  0.030261279  0.030447386            2 
 1754000   0.96046603   -7.0078287    633.13981  0.030080759  0.030439231            4 
 1755000   0.95294705   -6.9996725    635.60758  0.030180797  0.030431026            1 
 1756000   0.97152749   -7.0037959    634.76709  0.030123723  0.030422951            3 
 1757000   0.97168521   -7.0033825    635.07378  0.030121124  0.030414832            5 
 1758000   0.97984025   -6.9997158    635.34419  0.030116809  0.030406744            2 
 1759000   0.97800562   -7.0197186    635.40309  0.030102477  0.030398647            4 
 1760000   0.96584829   -7.0207014    634.62842  0.030048694  0.030390529            5 
 1761000   0.95831139   -6.9857483    637.62808  0.030173579  0.030382429            4 
 1762000   0.95676674   -6.9802069    635.12877  0.030038251  0.030374312            2 
 1763000   0.96939296   -7.0288771    637.68351   0.03014197   0.03036618            2 
 1764000   0.95348285   -7.0181428    635.60298  0.030026596  0.030358062            5 
 1765000   0.96646045   -7.0024234    635.83709  0.030020637  0.030349997            5 
 1766000   0.97048843   -7.0097153    636.67412  0.030043135  0.030341868            2 
 1767000   0.97397993   -6.9998708    637.25128  0.030053352   0.03033371            1 
 1768000     0.994151   -7.0550686    636.63874  0.030007482    0.0303255            4 
 1769000   0.98234955   -6.9815599     637.1882  0.030016403  0.030317324            2 
 1770000   0.98218963   -7.0163321    638.43906  0.030058336  0.030309315            3 
 1771000   0.95492629   -6.9745435    639.97212  0.030113501  0.030301265            6 
 1772000   0.98266008   -6.9938434    640.69364  0.030130438  0.030293224            1 
 1773000   0.95944938   -7.0464853    638.18625  0.029995594  0.030285181            2 
 1774000   0.98877901   -7.0011311    639.69901  0.030049747  0.030277094            5 
 1775000   0.95544108   -7.0190932    638.88746  0.029994716  0.030268986            5 
 1776000   0.95389732   -6.9885512    639.84042  0.030022542   0.03026085            3 
 1777000    0.9522163   -7.0293536    639.70869   0.02999947  0.030252836            1 
 1778000   0.97081664   -7.0409704     639.1132  0.029954687   0.03024482            4 
 1779000   0.98560322   -6.9693655    639.32434   0.02994774  0.030236864            7 
 1780000   0.97260371   -7.0006425    640.35841  0.029979326  0.030228929            6 
 1781000   0.96247223   -7.0110728    640.74178  0.029980432   0.03022091            3 
 1782000   0.97495881   -7.0175472    640.70212  0.029961752  0.030212848            7 
 1783000   0.96029479   -7.0334645    639.14525  0.029872184  0.030204755            3 
 1784000   0.97622117   -7.0107302    641.47917   0.02996446   0.03019664            3 
 1785000   0.98052257   -7.0097588    639.81362  0.029869917   0.03018859            3 
 1786000   0.97743691   -7.0304056    640.71835  0.029895406  0.030180464            4 
 1787000   0.97259621   -7.0211736    641.77991  0.029928181  0.030172348            8 
 1788000   0.98813007   -7.0220892    640.93921   0.02987226  0.030164254            3 
 1789000   0.95667742   -7.0326647    641.75996  0.029893794  0.030156171            4 
 1790000    0.9700916   -7.0070641     641.6709  0.029872947  0.030148119            4 
 1791000   0.96547486   -7.0194559    641.74139  0.029859547  0.030139962            3 
 1792000   0.96994006    -7.000132    641.64048  0.029838192  0.030131847            4 
 1793000    0.9606613   -7.0214538    642.50733  0.029861839  0.030123802            4 
 1794000    0.9640774   -6.9949577    643.65539  0.029898522  0.030115745            2 
 1795000   0.94763054   -7.0885344    642.18876  0.029813777  0.030107699            7 
 1796000   0.97401008   -7.0365073    642.83803  0.029827303  0.030099626            2 
 1797000   0.94999682   -7.0204778    641.84384    0.0297646  0.030091569            3 
 1798000   0.96031113   -7.0319181    642.75885  0.029790455  0.030083461            3 
 1799000   0.96120434    -7.017727    644.46416  0.029852889  0.030075343            5 
 1800000    0.9749004   -6.9789991    646.71163  0.029940353  0.030067346            4 
 1801000    0.9596606   -7.0472342    642.74723  0.029740294  0.030059271            2 
 1802000   0.96077402   -7.0242684    642.21326  0.029699097  0.030051208            5 
 1803000   0.96170029   -7.0373789    645.12092  0.029817014  0.030043083            1 
 1804000   0.94243489   -7.0583046     643.3516  0.029718755  0.030035095            4 
 1805000   0.96156723   -6.9926032    645.35104    0.0297946  0.030027076            3 
 1806000   0.96913793   -7.0147436    645.05067  0.029764243  0.030019248            2 
 1807000    0.9772996   -7.0116765    645.97776  0.029790526  0.030011358            4 
 1808000   0.95819444   -7.0519691    644.80502  0.029719996  0.030003414            3 
 1809000   0.96374586    -7.027764    645.08369  0.029716404  0.029995454            3 
 1810000   0.96716903   -6.9970893     646.8939  0.029783329  0.029987532            2 
 1811000   0.95469349   -7.0308937    645.84039  0.029718405  0.029979615            3 
 1812000   0.96315768   -7.0319498    645.98469  0.029708641  0.029971659            2 
 1813000    0.9671807   -7.0082529    646.63143  0.029721982  0.029963737            5 
 1814000   0.95946942   -7.0219186    647.75832  0.029757365  0.029955789            3 
 1815000   0.97698694    -7.054812    648.96155  0.029796214   0.02994784            3 
 1816000   0.97641734   -7.0365689    647.50198  0.029712829  0.029939848            6 
 1817000   0.94499104    -7.023257    647.97818  0.029718317  0.029931782            3 
 1818000   0.97179667   -7.0021573       647.38  0.029674551   0.02992379            5 
 1819000   0.94878853    -7.030883    648.23633  0.029697468  0.029915762            5 
 1820000   0.95666737    -7.035616    647.80808  0.029661542  0.029907708            5 
 1821000   0.96350605   -7.0083417    648.93501  0.029696825  0.029899781            4 
 1822000   0.97130007   -7.0318891    647.13051  0.029597993  0.029891793            4 
 1823000   0.96126784   -7.0321571    647.02278  0.029576832  0.029883801            5 
 1824000   0.97778182   -7.0222914    648.52972  0.029629465   0.02987579            3 
 1825000   0.96855544   -7.0625731    647.16161  0.029550758  0.029867771            2 
 1826000   0.95943146   -7.0331885    648.66358  0.029603121  0.029859808            4 
 1827000   0.96591804   -7.0116509    649.93408  0.029644868  0.029851876            3 
 1828000   0.96958706   -7.0397035    649.88108  0.029626235  0.029843951            6 
 1829000   0.94540067   -7.0319794    649.89691  0.029610758  0.029836067            3 
 1830000   0.97234986    -6.996665    653.04369  0.029737873  0.029828212            3 
 1831000   0.95356924   -7.0500412    650.67925   0.02961402  0.029820318            4 
 1832000   0.97070697   -7.0089593    650.55082  0.029592013   0.02981241            3 
 1833000   0.96899542   -7.0146035    650.25014    0.0295622  0.029804547            4 
 1834000   0.97015359   -7.0251687    651.92492  0.029622179  0.029796718            6 
 1835000   0.95690105   -7.0360079    652.11231  0.029614546  0.029788855            3 
 1836000   0.96231953   -7.0069574      651.716  0.029580429  0.029781063            2 
 1837000   0.97957176   -6.9834279    653.69549  0.029654123  0.029773292            4 
 1838000   0.96540692   -7.0373346    652.56261  0.029586625  0.029765599            2 
 1839000   0.97139733   -7.0225899    654.50211  0.029658424  0.029757813            2 
 1840000   0.94709344   -7.0347951    652.00899  0.029529392  0.029749928            3 
 1841000   0.95360622   -7.0153585    652.71306  0.029545223  0.029742054           10 
 1842000   0.95215371   -7.0304169    653.91246  0.029583445  0.029734165            4 
 1843000   0.93638253   -6.9992503    654.99377  0.029616286   0.02972638            4 
 1844000   0.97179608    -7.008319    653.28303  0.029522914  0.029718706            7 
 1845000   0.94884177   -6.9894841    654.45697  0.029559935  0.029710995            4 
 1846000   0.95195255    -7.048819    654.02513  0.029524428  0.029703231            7 
 1847000   0.94224448   -7.0730446    653.04813  0.029464363  0.029695396            2 
 1848000    0.9567979   -7.0495539    653.48778  0.029468244  0.029687571            5 
 1849000    0.9616463   -7.0547303    653.18648  0.029438727  0.029679783            3 
 1850000   0.95358025   -7.0287796    654.98617  0.029503882  0.029671995            4 
 1851000   0.94838902   -7.0238253    656.36651  0.029550086  0.029664287            2 
 1852000   0.95662506   -6.9955745    656.51428  0.029540779  0.029656681            4 
 1853000   0.95614858   -7.0336838    656.63869  0.029530432  0.029649084            3 
 1854000   0.95185072   -7.0651993     656.9369  0.029527908  0.029641507            5 
 1855000   0.96804477   -7.0430932    657.10494  0.029519539  0.029633959            5 
 1856000   0.95144312   -6.9964822    656.22998  0.029464349  0.029626332            2 
 1857000   0.93969983   -7.0188327    658.65817  0.029557448  0.029618763            8 
 1858000   0.96562277   -7.0258525    656.89526  0.029462471  0.029611118            3 
 1859000   0.96392207   -7.0499965    656.07995  0.029410075  0.029603483            3 
 1860000   0.93521944   -6.9963146    658.41721  0.029498979   0.02959584            2 
 1861000   0.95722216     -7.01137    658.52051  0.029487754  0.029588288            6 
 1862000   0.95607846    -7.053609    657.65195  0.029433045  0.029580656            2 
 1863000   0.97382166    -7.038329    658.75653  0.029466654  0.029572964            2 
 1864000   0.95173591   -7.0264785    659.25609   0.02947318   0.02956532            3 
 1865000   0.94230746   -7.0602254    660.50818  0.029513323  0.029557677            2 
 1866000   0.95242765   -7.0528709    659.01726  0.029430924  0.029550077            2 
 1867000   0.95409496   -7.0627544    656.53154  0.029304211  0.029542469            2 
 1868000   0.96892266   -7.0158147    658.71833  0.029386078  0.029534745            2 
 1869000   0.95601634   -7.0488354    661.27919  0.029484537  0.029527206            7 
 1870000   0.98051655   -7.0385045    661.51682  0.029479359  0.029519672            4 
 1871000   0.95339709   -7.0209962    660.44675  0.029415943  0.029512129            3 
 1872000   0.94660056   -7.0427073    660.08398   0.02938408  0.029504544            2 
 1873000   0.93292342   -7.0304902    660.79385  0.029399975  0.029496914            4 
 1874000   0.96919797   -7.0139566    662.15065  0.029444622  0.029489418            3 
 1875000   0.94745664   -7.0632629    660.51393  0.029356175  0.029481953            2 
 1876000   0.96526085   -6.9981627    663.00647  0.029451247  0.029474407            3 
 1877000   0.94868886   -7.0333129    660.01386  0.029302693  0.029466915            5 
 1878000   0.93519627   -7.0333231    660.76284  0.029320325  0.029459358            2 
 1879000   0.95057849    -7.027587     663.9654  0.029446754   0.02945183            2 
 1880000   0.95792527   -7.0498368    661.89657  0.029339387  0.029444268            5 
 1881000   0.95277413   -7.0451705    660.85309   0.02927756  0.029436693            3 
 1882000   0.94088329   -7.0361599    662.95036  0.029354869  0.029429138            3 
 1883000   0.95251413   -7.0482608    662.55502  0.029321784  0.029421516            3 
 1884000   0.95587842   -7.0226343    662.85628  0.029319545  0.029413953            3 
 1885000   0.93842652   -7.0241572    661.40423  0.029239798  0.029406238            3 
 1886000     0.949503   -7.0810974    660.96484   0.02920488  0.029398538            2 
 1887000    0.9529877   -7.0576602      662.604  0.029261791  0.029390806            4 
 1888000   0.95464874   -7.0091628    662.54887  0.029243859  0.029383075            5 
 1889000   0.97130807   -7.0825038    661.41888  0.029178529  0.029375353            6 
 1890000   0.95469098   -7.0401314    661.55261  0.029168986   0.02936756            3 
 1891000   0.97088789   -7.0781086    664.17649  0.029269191  0.029359812            4 
 1892000   0.96716079   -7.0235012    664.21739  0.029255523  0.029352068            2 
 1893000    0.9317302   -7.0463967    664.04499  0.029232479  0.029344378            3 
 1894000   0.94513042   -7.0486276    663.24838  0.029181995  0.029336605            3 
 1895000   0.95027567   -7.0388292     662.5894  0.029137616  0.029328856            6 
 1896000   0.95942701   -7.0681464    663.07934  0.029143783  0.029321124            5 
 1897000   0.95350539    -7.022144    665.31023   0.02922642  0.029313429            4 
 1898000    0.9383494   -7.0444916    664.74911  0.029186385  0.029305738            3 
 1899000   0.94491674   -7.0350133    664.68669  0.029168277  0.029298048            5 
 1900000   0.95289538   -7.0591439    665.67369  0.029196215  0.029290493            3 
 1901000   0.93471139   -7.0441984     665.3519   0.02916675  0.029282887            5 
 1902000   0.95168385   -7.0601763    664.24454  0.029102898  0.029275184            3 
 1903000   0.95092874   -7.0556544    666.68289  0.029194381  0.029267465            3 
 1904000   0.94440471    -7.063135    664.71104  0.029092745   0.02925972            5 
 1905000   0.93291627   -7.0303556    664.99572  0.029089927  0.029252021            6 
 1906000   0.95712549   -7.0584697    667.57746  0.029187542  0.029244405            4 
 1907000    0.9480058   -7.0645233     664.7633  0.029049261   0.02923677            3 
 1908000   0.97201922   -7.0537213    666.65535  0.029116673  0.029229164            4 
 1909000   0.95750758    -7.099599    666.37309    0.0290891  0.029221554            4 
 1910000   0.96237459   -7.0559878    666.66116  0.029086438   0.02921395            3 
 1911000     0.962139   -7.0529848    666.83499  0.029078798  0.029206402            2 
 1912000   0.94057858     -7.03668    668.72778  0.029146085  0.029198819            3 
 1913000   0.94479776   -7.0837709    665.14162  0.028974631  0.029191278            4 
 1914000   0.93909915   -7.0589252    668.55763  0.029108222  0.029183741            6 
 1915000     0.937876   -7.0389654    669.11101  0.029117102  0.029176202            3 
 1916000   0.93478971   -7.0614521    668.38833  0.029070474  0.029168665            3 
 1917000   0.96694335   -7.0347165    670.11676  0.029130445  0.029161187            4 
 1918000   0.97180913   -7.0665472    669.54581   0.02909045  0.029153779            5 
 1919000   0.94457035   -7.0504407    668.21399  0.029017457  0.029146305            3 
 1920000   0.94518074   -7.0604119    670.33232  0.029094285  0.029138791            1 
 1921000   0.91866896   -7.0445103     668.2738   0.02898984   0.02913127            5 
 1922000   0.95329918   -7.0631726    668.71103  0.028993714  0.029123661            4 
 1923000   0.97976495    -7.032375    669.63368   0.02901862   0.02911613            4 
 1924000   0.94565805   -7.0520706    671.36427  0.029078494  0.029108724            3 
 1925000    0.9515743   -7.0808914    669.72445    0.0289924   0.02910127            2 
 1926000   0.94217412   -7.0535324    670.88077  0.029027379  0.029093849            2 
 1927000   0.94269412   -7.0772678    671.10114  0.029021845  0.029086403            5 
 1928000   0.92693783   -7.0736044    669.13071  0.028921625  0.029078883            3 
 1929000   0.93937482   -7.0803703    669.51943  0.028923425  0.029071357            6 
 1930000   0.94156232   -7.0439095    673.39533  0.029075791  0.029063885            4 
 1931000   0.94240078   -7.0610737    672.60832   0.02902677  0.029056432            3 
 1932000   0.95277527   -7.0746625    672.85662  0.029022456  0.029048939            4 
 1933000   0.92957167    -7.042442    671.77453  0.028960792  0.029041484            3 
 1934000   0.93578895    -7.061573    671.46054  0.028932288  0.029034035            5 
 1935000    0.9384982   -7.1013791    673.62872  0.029010712  0.029026509            6 
 1936000   0.91588017   -7.0785154    672.02851  0.028926847  0.029018993            3 
 1937000    0.9242801   -7.0965249    671.08367  0.028871265  0.029011491            3 
 1938000   0.93915765   -7.0788063    670.83593  0.028845714  0.029003923            4 
 1939000   0.93958412   -7.0957202     671.7901  0.028871846  0.028996337            3 
 1940000   0.92950549   -7.0381032    674.62543  0.028978756  0.028988876            4 
 1941000   0.94021668   -7.0516689    674.76789  0.028969942  0.028981453            4 
 1942000   0.95393001   -7.0820478    672.54506  0.028859641  0.028973944            1 
 1943000   0.93702612   -7.0502084    675.14578   0.02895633  0.028966429            2 
 1944000   0.95008584   -7.0551684    674.22051  0.028901771  0.028958967            4 
 1945000    0.9388759    -7.020761    673.08058  0.028838071  0.028951528            3 
 1946000   0.93430083   -7.0576124    674.55726  0.028886488  0.028944102            5 
 1947000   0.93841247   -7.0540699    674.29039  0.028860229  0.028936623            3 
 1948000   0.93767913    -7.065783    674.53574  0.028855909  0.028929147            3 
 1949000    0.9392039   -7.0655157    674.45211  0.028837528  0.028921657            5 
 1950000   0.93762069   -7.0964541    675.59118  0.028871418  0.028914153            2 
 1951000   0.92635772   -7.0609418    675.79501  0.028865326  0.028906598            5 
 1952000   0.94686775   -7.0804211    674.65576  0.028801902  0.028899068            2 
 1953000   0.96722709    -7.075875     673.6253  0.028743186  0.028891553            4 
 1954000   0.95337278   -7.0807671    675.53693  0.028810002  0.028883959            4 
 1955000   0.94646485   -7.0672445    677.24522  0.028868083  0.028876429            5 
 1956000   0.94217915   -7.0529251    676.11071  0.028804989  0.028868992            2 
 1957000   0.95203228    -7.054261     678.3796  0.028886885   0.02886149            8 
 1958000   0.94315291   -7.1043244    676.12833  0.028776316  0.028853958            3 
 1959000   0.92940059   -7.0710547    676.24041  0.028766395  0.028846419            7 
 1960000   0.93563482   -7.0775023    674.96306  0.028697409  0.028838968            3 
 1961000   0.92676915   -7.0791838    677.21177  0.028778335  0.028831449            4 
 1962000   0.91348103   -7.0915009    676.13898  0.028718101  0.028823983            4 
 1963000   0.92237063   -7.0533281    677.99263  0.028782163  0.028816498            2 
 1964000   0.95266255   -7.0894342    676.91292  0.028721696  0.028809043            4 
 1965000   0.92224312   -7.0857705     677.1662   0.02871782  0.028801634            2 
 1966000   0.95234409    -7.014056    680.08885  0.028827096  0.028794306            5 
 1967000   0.93058784   -7.0432006    681.85759  0.028887375  0.028786998            2 
 1968000   0.95951572    -7.067893    679.63687  0.028778661  0.028779652            2 
 1969000   0.93550297    -7.051547    679.17571  0.028744528  0.028772208            7 
 1970000    0.9368697   -7.0713581    677.59146  0.028662921   0.02876469            2 
 1971000   0.95165895   -7.0817959    679.55741  0.028731499  0.028757178            4 
 1972000   0.95140595   -7.0603027    679.38235  0.028709531  0.028749677            5 
 1973000   0.92414474   -7.0753485    679.27127  0.028690288  0.028742242            2 
 1974000   0.94748464   -7.0709751    679.60319  0.028689767   0.02873484            3 
 1975000   0.92476616   -7.0846468    679.85021  0.028685663   0.02872742            2 
 1976000   0.92098572   -7.0486774     680.4676  0.028697183  0.028719956            8 
 1977000   0.90780647   -7.0777285    679.09303  0.028624727  0.028712491            4 
 1978000   0.93046801   -7.0412224     680.1335  0.028654091  0.028705033            4 
 1979000   0.94403257   -7.1055725    680.27647  0.028645632  0.028697645            3 
 1980000   0.91143481   -7.1001295     679.5908  0.028602306  0.028690224            3 
 1981000   0.94205193   -7.0915683    681.86161  0.028683393  0.028682803            1 
 1982000   0.93232547   -7.0795634    681.66142  0.028660504  0.028675433            7 
 1983000     0.920224   -7.0885619    681.73017   0.02864894  0.028667988            4 
 1984000   0.92953907   -7.0881171    679.87553    0.0285566   0.02866055            3 
 1985000   0.94216646   -7.0914103     682.4226  0.028649144  0.028653134            6 
 1986000   0.93900152   -7.0597038    682.48717  0.028637427  0.028645703            5 
 1987000   0.91127424   -7.0948466    681.52646  0.028582724  0.028638284            4 
 1988000   0.93773353   -7.0576763    682.74048  0.028619236  0.028630834            2 
 1989000   0.94019896   -7.0870402    680.42364  0.028507778  0.028623405            4 
 1990000   0.93204353   -7.1138954    680.94769  0.028515397  0.028615793            2 
 1991000   0.94330314     -7.08874    682.92231  0.028583723  0.028608259            2 
 1992000   0.93814335   -7.0927654    681.53822  0.028511472  0.028600733            3 
 1993000   0.92940544   -7.0375274    683.09106  0.028562095  0.028593288            4 
 1994000   0.91304747   -7.0654026    682.68377  0.028530749  0.028585878            3 
 1995000   0.91674885   -7.0785006    681.91826  0.028484472    0.0285785            3 
 1996000   0.93559165   -7.0882334    682.57291  0.028497533  0.028571102            5 
 1997000   0.93955192    -7.093512    682.99145  0.028500728  0.028563684            2 
 1998000      0.91423   -7.0947464    682.85918  0.028480947  0.028556206            6 
 1999000   0.92533662   -7.0610906    683.63949  0.028499228  0.028548783            2 
 2000000   0.92857183    -7.089234    683.92162  0.028496734  0.028541376            2 
 2001000   0.93310676   -7.0854475    685.02366  0.028528388  0.028533987            2 
 2002000   0.92979987   -7.0938247    685.72395  0.028543288   0.02852662            3 
 2003000   0.94407516   -7.0603441    685.78694  0.028531658   0.02851921            5 
 2004000    0.9216166   -7.0998804    685.34806  0.028499171  0.028511863            3 
 2005000   0.93309948   -7.0902436    686.92552   0.02855052  0.028504476            5 
 2006000   0.93706323   -7.0892661    684.34508  0.028429091  0.028497059            6 
 2007000   0.91744977   -7.0922705    684.46078   0.02841973  0.028489635            1 
 2008000   0.93837678   -7.0862544    686.01519  0.028470086  0.028482289            3 
 2009000   0.91501558   -7.0569629    687.78869   0.02852948  0.028474969            3 
 2010000   0.93683499   -7.0588825    688.12019  0.028529029  0.028467694            2 
 2011000   0.89947369   -7.0749096     686.7324  0.028457335  0.028460333            3 
 2012000   0.93280364    -7.083515     687.3676    0.0284695  0.028452976            4 
 2013000   0.94549253   -7.0612052    687.65864  0.028467405  0.028445588            4 
 2014000    0.9472786    -7.080654    687.25424  0.028436537  0.028438213            7 
 2015000   0.91984497   -7.0775691    685.77555  0.028361272  0.028430748            4 
 2016000   0.92125872   -7.0914115    686.50795  0.028377478  0.028423353            2 
 2017000   0.91709493   -7.0838003    686.07166  0.028345384  0.028415985            5 
 2018000   0.95694984   -7.0967667     686.8682   0.02836423  0.028408583            4 
 2019000     0.915275   -7.1059236    686.54059   0.02833666  0.028401175            4 
 2020000    0.9462933   -7.1084335    686.24975  0.028310633  0.028393708            3 
 2021000   0.92779239   -7.0801067    688.77398  0.028400708  0.028386317            4 
 2022000   0.92847807   -7.0947789    687.03548  0.028315013  0.028378896            4 
 2023000   0.92924191   -7.1134196    688.54861  0.028363347  0.028371398            8 
 2024000   0.93839404   -7.0888079    687.64903  0.028312295  0.028363967            3 
 2025000   0.93971667   -7.1035198     688.2471  0.028322926  0.028356558            2 
 2026000   0.90828028   -7.0467763    690.29743   0.02839328  0.028349123            3 
 2027000   0.94308359   -7.0974659    688.55084  0.028307467  0.028341767            2 
 2028000   0.91788601   -7.1259804    688.43206  0.028288628  0.028334353            3 
 2029000   0.93552277   -7.1011622    688.24384  0.028266956  0.028326832            4 
 2030000   0.92543126   -7.0987572    687.89242  0.028238605  0.028319323            4 
 2031000   0.92678644   -7.0571683    689.77058  0.028301764  0.028311934            3 
 2032000   0.93943252   -7.0861713    687.91324  0.028211665  0.028304564            2 
 2033000    0.9415701   -7.0905882    690.13372  0.028288806  0.028297252            3 
 2034000   0.93172644   -7.0737442    691.59145  0.028334622  0.028289937            2 
 2035000   0.95433836   -7.1344143    691.04543  0.028298339  0.028282576            9 
 2036000   0.92557485   -7.1105312    690.08004  0.028244926  0.028275221            2 
 2037000   0.91934974   -7.0883976    690.33943  0.028241672  0.028267842            4 
 2038000   0.92652025   -7.0954801    690.80427  0.028246822  0.028260468            5 
 2039000   0.92578865   -7.0862926    689.31381  0.028172054  0.028253185            4 
 2040000   0.91495033   -7.1017526    692.87342  0.028303653  0.028245838            4 
 2041000   0.91540325   -7.1292834    690.88481  0.028208591  0.028238421            5 
 2042000   0.93436565   -7.0853055    689.62062  0.028143186  0.028231018            3 
 2043000   0.94039897   -7.0863265    692.01684  0.028227151  0.028223604            4 
 2044000   0.90257716   -7.0746851    690.68791  0.028159161  0.028216268            5 
 2045000   0.92416676   -7.0977895    691.62352  0.028183518  0.028208906            8 
 2046000   0.88001868   -7.0878055    690.94772  0.028142217  0.028201493            4 
 2047000   0.93099639   -7.1044525    692.67327  0.028198716  0.028194149            6 
 2048000   0.92902333   -7.0701292    692.82613  0.028191167  0.028186747            3 
 2049000   0.92843251   -7.1083297     691.7346  0.028133016  0.028179365            3 
 2050000   0.92236056   -7.1134426    691.43843  0.028107253  0.028171927            3 
 2051000   0.91696316   -7.0968568    693.07452  0.028160024  0.028164525            7 
 2052000   0.93072814   -7.1391411    690.03933   0.02802304  0.028157103            8 
 2053000   0.93467616   -7.0780562    693.31276  0.028142262  0.028149732            5 
 2054000   0.90787591   -7.1072103    692.53451  0.028096986  0.028142351            4 
 2055000   0.91284882   -7.1719131    691.22823  0.028030342  0.028134974            4 
 2056000   0.94514718   -7.1204151    691.96411  0.028046535  0.028127524            3 
 2057000   0.92700532   -7.0647368     693.8824  0.028110614    0.0281202            3 
 2058000   0.93156295   -7.1166466    695.04826  0.028144163  0.028112807            2 
 2059000   0.92227362   -7.0824615    693.62944  0.028073071  0.028105449            4 
 2060000   0.93055038   -7.0955875    694.01381  0.028074992  0.028098146            7 
 2061000   0.91390792   -7.1128431     694.2002  0.028068907  0.028090831            3 
 2062000   0.92806529   -7.0973328    693.29402  0.028018672  0.028083448            3 
 2063000   0.93952901   -7.1160128    695.01572  0.028074637  0.028076171            3 
 2064000   0.92143732   -7.1125767    694.98087  0.028059628   0.02806893            4 
 2065000   0.93559898   -7.0817307    695.59045   0.02807064  0.028061747            7 
 2066000   0.93978333   -7.1049121    695.67517   0.02806047   0.02805453            3 
 2067000   0.90570033   -7.1035984    695.52711  0.028040925  0.028047205            3 
 2068000   0.93438899   -7.1038061    694.92774  0.028003213  0.028039773            3 
 2069000    0.9029771   -7.1189615    697.32002  0.028086033  0.028032456            3 
 2070000   0.93747861   -7.1031032    695.66036   0.02800565  0.028025139            2 
 2071000    0.9257567   -7.1376462    692.37412  0.027859895  0.028017818            3 
 2072000   0.92419791   -7.1004477    695.91136  0.027988713  0.028010464            5 
 2073000    0.9069042   -7.1095639    695.40267  0.027954762   0.02800308            2 
 2074000   0.92707676   -7.1217277    694.48615  0.027904458  0.027995717            2 
 2075000   0.92827795   -7.0684092    697.07837  0.027995115   0.02798843            1 
 2076000   0.92089689   -7.1169886    696.28338  0.027949718  0.027981067            5 
 2077000   0.92440432   -7.1298048    696.55632  0.027947212  0.027973622            2 
 2078000   0.92162272   -7.1370176    695.36599  0.027886028  0.027966191            3 
 2079000   0.93957171   -7.0883301    698.14237  0.027983901  0.027958847            3 
 2080000   0.93985201   -7.0748076    697.54492  0.027946511  0.027951508            3 
 2081000   0.90976528   -7.1176314     696.3323  0.027884523  0.027944191           10 
 2082000   0.90694989   -7.1068701    697.93775  0.027935389  0.027936807            5 
 2083000   0.90455684   -7.1192544    697.65471  0.027910654  0.027929463            3 
 2084000   0.90254399   -7.1379599    695.77903  0.027822258  0.027922121            3 
 2085000   0.90170506    -7.144024    697.23657  0.027867169  0.027914705            3 
 2086000    0.9341025   -7.1123165    698.39648  0.027900147   0.02790737            2 
 2087000   0.90624364    -7.103458    698.38838  0.027886455  0.027900057            3 
 2088000   0.90346326   -7.1041719    698.15721  0.027863873  0.027892691            4 
 2089000   0.91714645   -7.1220488    698.62931  0.027869368  0.027885336           11 
 2090000   0.90946069    -7.110909    697.87953  0.027826138  0.027878025            1 
 2091000   0.91730134   -7.1347711    697.35822  0.027792054  0.027870713            3 
 2092000   0.90986455   -7.1281565    699.09253  0.027847854  0.027863348            3 
 2093000   0.91915573   -7.0796235    700.36751  0.027885312  0.027855995            4 
 2094000   0.90609253   -7.1020621     699.0693  0.027820332  0.027848619            3 
 2095000   0.89572847   -7.1382714    699.32216   0.02781711  0.027841238            4 
 2096000    0.9050143    -7.117606      700.895  0.027866373  0.027833847            3 
 2097000   0.92419592   -7.1347621    699.46243  0.027796154   0.02782654            4 
 2098000    0.9182089   -7.1152842    699.93721  0.027801764  0.027819206            6 
 2099000   0.93363532   -7.0999204    702.39138  0.027885953  0.027811885            3 
 2100000   0.91685099   -7.1219488    699.16527  0.027744653  0.027804539            7 
 2101000    0.8881043   -7.1454628    699.58538  0.027748111  0.027797168            3 
 2102000   0.91653298   -7.0832417    699.57021  0.027734309  0.027789756            3 
 2103000    0.9113611   -7.1145666    700.89668  0.027773684  0.027782464            5 
 2104000   0.90964922   -7.1022821    699.02877  0.027686501   0.02777508            3 
 2105000   0.92111041   -7.1277104    700.26488  0.027722283  0.027767728            3 
 2106000   0.92257348   -7.1033956    701.66175  0.027764393  0.027760388            3 
 2107000    0.9236314   -7.1193415    700.02416  0.027686448  0.027753039            4 
 2108000   0.93480723   -7.1325354     701.4156  0.027728321  0.027745681            2 
 2109000   0.91620344   -7.0984706    703.51167  0.027797995  0.027738312            3 
 2110000   0.89003461   -7.0965532    702.64827  0.027750722  0.027730999            4 
 2111000   0.92567671   -7.1222585    699.83515  0.027626526  0.027723616            4 
 2112000   0.90262867   -7.1235478    700.78423  0.027650893  0.027716209            5 
 2113000   0.90553388   -7.0837818    702.73168  0.027714611  0.027708883            4 
 2114000   0.91978511   -7.1254331     703.2413   0.02772159  0.027701608            7 
 2115000   0.90794522   -7.1593571    702.18586  0.027666898  0.027694249            3 
 2116000   0.90233912   -7.1214782    702.22412  0.027655329  0.027686919            3 
 2117000    0.9185766   -7.1425953    702.13965  0.027638941  0.027679595            4 
 2118000   0.91545446   -7.0910236    704.21058  0.027707373  0.027672329            4 
 2119000   0.92242298   -7.1505652    700.50351   0.02754851  0.027665014            3 
 2120000   0.91318507   -7.1159374     702.5852  0.027617343  0.027657699            4 
 2121000   0.91309308   -7.1403051    704.46986   0.02767837  0.027650456            4 
 2122000   0.89572144   -7.1138577    705.30293  0.027698042  0.027643203            1 
 2123000   0.91107935   -7.0990837    703.27704  0.027605473  0.027635973            4 
 2124000   0.90100767   -7.1440953    703.60367  0.027605291  0.027628757            6 
 2125000    0.9247433   -7.1391509    703.85251  0.027602059  0.027621459            7 
 2126000   0.89706467   -7.1241642    705.04882  0.027635968  0.027614214            6 
 2127000   0.89250021   -7.1140146    704.98438   0.02762045  0.027606965            1 
 2128000   0.90995306   -7.1165896    708.16771  0.027732132  0.027599764            5 
 2129000   0.91510471   -7.1340894    705.78763  0.027625944  0.027592635            3 
 2130000   0.91287488   -7.1489622    704.88864  0.027577803  0.027585498            2 
 2131000   0.93193334   -7.1212061    706.66485  0.027634321  0.027578348            5 
 2132000   0.91200205   -7.1590127    705.20402   0.02756426   0.02757109            3 
 2133000   0.89459099   -7.1418454    705.42827  0.027560098   0.02756379            8 
 2134000   0.92439602   -7.1459162    706.82068  0.027601557  0.027556566            4 
 2135000   0.91035804   -7.1184013    705.84711  0.027550629  0.027549275            4 
 2136000   0.91041036   -7.1011152    707.48307  0.027601556  0.027542015            4 
 2137000   0.91522114   -7.1424892    706.57316  0.027553157  0.027534798            3 
 2138000   0.90737705   -7.1486436    706.34992  0.027531568  0.027527561            3 
 2139000   0.91264954   -7.1325869    707.83661  0.027576617  0.027520288            4 
 2140000   0.90991317   -7.1265786    705.66825  0.027479293  0.027513035            3 
 2141000   0.91146314   -7.1305875    706.75485  0.027508752  0.027505798            3 
 2142000   0.90860131   -7.1510929    706.79274  0.027497383  0.027498529            4 
 2143000   0.90729936   -7.1507006    705.92944  0.027450982  0.027491218            5 
 2144000   0.88607114   -7.1301816     709.3083  0.027569508  0.027483897            4 
 2145000   0.92105229    -7.137351    706.81788  0.027459902  0.027476627            7 
 2146000   0.91402622   -7.1299827    707.62512  0.027478453   0.02746932            2 
 2147000   0.90055072   -7.1829214     706.6289  0.027426987  0.027461995            3 
 2148000   0.90781536   -7.1288704    707.12866  0.027433607  0.027454747            5 
 2149000   0.92639542   -7.1486271    708.94532  0.027491287  0.027447504            4 
 2150000   0.92379254   -7.1198181    708.12173  0.027446579  0.027440209            4 
 2151000   0.94113557   -7.1116736    709.86959  0.027501534  0.027432981            7 
 2152000   0.89162415   -7.1197548    708.96398  0.027453686  0.027425762            5 
 2153000   0.89049016   -7.1389846    708.58941  0.027426436   0.02741843            3 
 2154000   0.90491858    -7.094701    710.06149  0.027470655  0.027411076            3 
 2155000    0.9096117   -7.1050703    710.61079  0.027479149  0.027403803            3 
 2156000   0.89606475   -7.1246719    708.64307  0.027390347  0.027396475            5 
 2157000   0.91157018   -7.1005823    709.42648  0.027407915  0.027389184            5 
 2158000   0.90771314   -7.1127304    708.90372  0.027375028  0.027381958            7 
 2159000   0.91489359   -7.1140625    706.96814  0.027287639  0.027374653            3 
 2160000   0.91055866   -7.1568943    708.11937   0.02731942  0.027367352            5 
 2161000    0.9208485   -7.1385438    709.65652  0.027366054  0.027360027            5 
 2162000   0.89561243   -7.1287839    708.17141  0.027296154  0.027352701            3 
 2163000   0.90145231    -7.112663    710.37722  0.027368517  0.027345371            6 
 2164000   0.88676939   -7.1089341    710.55738  0.027362807  0.027338052            4 
 2165000   0.90146306   -7.1697683    708.70346  0.027278809  0.027330636            4 
 2166000   0.89924936   -7.1476325    711.06302  0.027356995   0.02732322            3 
 2167000   0.87968911   -7.1571259    709.53744  0.027285704  0.027315876            4 
 2168000   0.90939595   -7.1843654     711.2056  0.027337239  0.027308525            3 
 2169000     0.903766   -7.1425462    710.93573  0.027314267  0.027301143            1 
 2170000   0.91720831   -7.1856683    711.43832   0.02732098  0.027293762            3 
 2171000   0.91128983   -7.1534717    710.39652  0.027268406  0.027286374            3 
 2172000   0.91555125   -7.1227718    711.54416  0.027299883  0.027279017            4 
 2173000   0.89523614   -7.1559043    709.38405  0.027204481  0.027271569            3 
 2174000   0.90292803   -7.1026632    708.35046  0.027152348   0.02726414            3 
 2175000   0.90951026   -7.1508087     710.0951  0.027206709  0.027256757            5 
 2176000   0.91841533   -7.1511286    710.33533  0.027203406  0.027249293            9 
 2177000     0.909403   -7.1662747    712.26846  0.027264908  0.027241817            3 
 2178000   0.90797032   -7.1452969    711.40326  0.027219286  0.027234408            5 
 2179000   0.89408456   -7.1639123      711.314  0.027203381  0.027226905            5 
 2180000   0.91413977    -7.153551    711.11768  0.027183398   0.02721943            6 
 2181000    0.8875622   -7.1638359    709.42315  0.027106188  0.027211956            5 
 2182000   0.90168282   -7.1112629    709.95783  0.027114185  0.027204491            6 
 2183000   0.89997145   -7.1433062    711.27828  0.027152171  0.027197056            4 
 2184000   0.88273006    -7.112666    713.15175  0.027211224  0.027189659            3 
 2185000   0.89401656   -7.1859918    710.48712  0.027097144  0.027182302            4 
 2186000   0.90100576    -7.157187    711.96236  0.027140987  0.027174873            7 
 2187000   0.87744576   -7.1736464    711.41068  0.027107555  0.027167471            8 
 2188000   0.91066193   -7.1544412    713.20343  0.027163446  0.027160114            5 
 2189000   0.90970397   -7.1445332    712.56398  0.027126693  0.027152756            3 
 2190000   0.90399355   -7.1844492    712.83251  0.027124525  0.027145384            4 
 2191000   0.89805144   -7.1572273    711.29549  0.027053685  0.027137981           11 
 2192000   0.90401909   -7.1608587    711.87602  0.027063413  0.027130589            3 
 2193000   0.93562155   -7.1327798    713.61999  0.027117343  0.027123177            4 
 2194000   0.91215635   -7.1717043    712.47193  0.027061377  0.027115733            3 
 2195000    0.9033274   -7.1574909    714.54386  0.027127709   0.02710834            2 
 2196000   0.89372525   -7.1434695    712.59769  0.027041503  0.027100973            5 
 2197000   0.89176059   -7.1528212    713.09847   0.02704819  0.027093604            3 
 2198000   0.89149099   -7.1408376    713.92571  0.027067247  0.027086232            3 
 2199000   0.88216924   -7.1742599    711.61639  0.026967424  0.027078846            3 
 2200000   0.89248903   -7.1747105    712.32894  0.026982157  0.027071417            3 
 2201000   0.90598198   -7.1711196     711.7015  0.026946142  0.027063897            7 
 2202000   0.90905461   -7.1564112    713.24346  0.026992259  0.027056431            4 
 2203000   0.89700654   -7.1342685    714.56937  0.027030162  0.027048991            4 
 2204000   0.91656927   -7.1830214    713.05254  0.026960547  0.027041553            4 
 2205000   0.89419422   -7.1227889    714.36973    0.0269981  0.027034149            3 
 2206000   0.89608125   -7.1283554    715.69815  0.027036044  0.027026762            3 
 2207000   0.90390124   -7.1315395    715.74529  0.027025574  0.027019437            2 
 2208000   0.90349484   -7.1355319     714.5663  0.026968837  0.027012056            2 
 2209000    0.9236412   -7.1729091    714.80944  0.026965801  0.027004587            5 
 2210000   0.91326647   -7.1114189    715.92455  0.026995647   0.02699719            6 
 2211000   0.89989484    -7.141094    716.18849  0.026993385  0.026989854            5 
 2212000   0.87038965   -7.1657972    716.31727  0.026986033  0.026982516            3 
 2213000   0.87545497   -7.1256486    716.04139   0.02696345  0.026975167            4 
 2214000   0.90492708   -7.1462302     715.7948   0.02694199  0.026967748            2 
 2215000   0.90366599   -7.1496744    718.43754  0.027029253  0.026960419            6 
 2216000   0.90137496   -7.1502904    716.34316  0.026938296  0.026953052            3 
 2217000    0.9129699   -7.1570029    715.86602   0.02690821  0.026945619            6 
 2218000   0.89217378   -7.1885777    715.32377  0.026875705   0.02693819            8 
 2219000   0.86178102    -7.193763    715.45953  0.026868692  0.026930723            4 
 2220000   0.89539673   -7.1692232     715.3502  0.026852485  0.026923291           10 
 2221000   0.89614889   -7.1133722    716.84782  0.026896586  0.026915953            6 
 2222000   0.90541585   -7.1555246    717.55334  0.026910941  0.026908561            4 
 2223000   0.88534523   -7.1417603    717.04457  0.026879763  0.026901156            3 
 2224000   0.89510192   -7.1970706    717.14258   0.02687135  0.026893698            4 
 2225000    0.9106187   -7.1688178    717.56035  0.026874919  0.026886298            3 
 2226000   0.90742382   -7.1261723    716.78108  0.026833673  0.026878912           10 
 2227000   0.90030207   -7.1249557    719.51309  0.026923855  0.026871555            6 
 2228000   0.91643497   -7.1305292    718.04841  0.026856987  0.026864285            2 
 2229000   0.90386405   -7.1879474    719.38162  0.026894782  0.026856903            3 
 2230000   0.90022948   -7.1697867    718.15486  0.026836878  0.026849514            3 
 2231000   0.89603702   -7.1500111    719.12367  0.026861037   0.02684213            8 
 2232000    0.9030767   -7.1229329    716.98288  0.026769074  0.026834723            4 
 2233000   0.87419751   -7.2038319    717.86477  0.026789997  0.026827346            3 
 2234000   0.89232824   -7.1404621    719.26574  0.026830265  0.026819904            5 
 2235000   0.90580118   -7.2070455    717.68348  0.026759265  0.026812547            4 
 2236000   0.89385984   -7.1530559    717.99747  0.026758999  0.026805138            5 
 2237000   0.90064205   -7.1775801    717.86142  0.026741969  0.026797769            5 
 2238000    0.8683468   -7.1967521    717.90584  0.026731674  0.026790363            3 
 2239000   0.88935002   -7.1403437    718.40671  0.026738377  0.026782897            4 
 2240000   0.88081197   -7.1854931    719.36579   0.02676212   0.02677546            3 
 2241000   0.89800216   -7.1911978    719.27575   0.02674683  0.026768052            6 
 2242000    0.9017345   -7.2116915    718.22528  0.026695855  0.026760613            3 
 2243000   0.88670627   -7.2046267    720.54568  0.026770162  0.026753207            3 
 2244000   0.90102199   -7.1902345    718.28217  0.026674175  0.026745796            7 
 2245000   0.90425042   -7.1519167     719.5347  0.026708786  0.026738468            6 
 2246000   0.90089653   -7.1797581      719.369  0.026690746  0.026731144            5 
 2247000   0.89497702    -7.152381    722.44854  0.026793077  0.026723794            4 
 2248000   0.90919144   -7.1818917    719.12712  0.026658034  0.026716497            3 
 2249000   0.89796274   -7.1557522    721.82502  0.026746147  0.026709194            6 
 2250000   0.88742366   -7.1622204    719.65319  0.026653822  0.026701857            4 
 2251000   0.88065072   -7.1847822    721.87048  0.026724066  0.026694494            2 
 2252000   0.87819149   -7.1621403    719.05926  0.026608173  0.026687064            2 
 2253000   0.89005825   -7.1956634    719.09779  0.026597788  0.026679559            1 
 2254000   0.90013083   -7.1718549    720.52536  0.026638766   0.02667212            3 
 2255000   0.89575771   -7.1925296    719.31245   0.02658213  0.026664709            3 
 2256000   0.89972319   -7.1552118    722.54033  0.026689581   0.02665734            3 
 2257000   0.89240354   -7.1771505     722.0112  0.026658219   0.02664995            7 
 2258000   0.88822138   -7.1825689    719.96779  0.026570999   0.02664253            4 
 2259000   0.88795782   -7.1684616    722.24133  0.026643106  0.026635124            4 
 2260000   0.88739475   -7.2013171    722.73207  0.026649413  0.026627792            3 
 2261000    0.8980498   -7.1421288    722.55802  0.026631211  0.026620439            4 
 2262000   0.88949343   -7.1580742    722.03054  0.026600005  0.026613121            3 
 2263000   0.89393391   -7.2122979    722.18522  0.026593947  0.026605722            5 
 2264000   0.91223027   -7.1726503    722.23025  0.026583858  0.026598336            3 
 2265000    0.8663847   -7.1763802    723.70762  0.026626476  0.026591012            3 
 2266000   0.86258243   -7.1861131    723.21955  0.026596777  0.026583635            5 
 2267000   0.88611978   -7.1488513    723.82705  0.026607376   0.02657629            5 
 2268000   0.89245135   -7.1769776    722.21566  0.026536437  0.026568934            7 
 2269000   0.90183016   -7.1548397    724.03152  0.026591432  0.026561533            5 
 2270000   0.89648886    -7.175098    724.33165  0.026590736   0.02655415            6 
 2271000   0.89506677   -7.1756678    722.66127  0.026517733  0.026546781            3 
 2272000    0.9047182   -7.1736098    723.56911   0.02653936  0.026539454            6 
 2273000    0.8624266   -7.1686141    723.44346  0.026523077  0.026532059            6 
 2274000   0.87460022   -7.1879364    721.96749  0.026457325  0.026524637            1 
 2275000   0.87589777   -7.1814314    723.64624  0.026507188  0.026517231            5 
 2276000   0.89008479   -7.1921614    723.62336  0.026494704  0.026509888            7 
 2277000   0.88017872   -7.2360349    723.34802  0.026472992  0.026502441            7 
 2278000   0.90372597   -7.2232429    722.72355  0.026438526  0.026494974            8 
 2279000   0.88747046   -7.1877903    722.62111  0.026423179  0.026487603            4 
 2280000   0.86935384   -7.1570278     723.6933  0.026450778  0.026480236            4 
 2281000   0.88778465   -7.1817082    723.63105  0.026436908  0.026472852            5 
 2282000   0.89371405   -7.1877871    725.29432  0.026486062  0.026465441            4 
 2283000   0.87319229   -7.1809507    724.76757  0.026455233  0.026458081            4 
 2284000    0.8673891   -7.1496005    725.65611  0.026476069  0.026450778            2 
 2285000   0.89155045   -7.1825105    725.80503  0.026469914  0.026443437            3 
 2286000   0.89747351   -7.1852602    725.82238  0.026458967  0.026436066            3 
 2287000    0.9000912   -7.1949875    724.75124  0.026408368  0.026428624            2 
 2288000   0.89331193    -7.192104    724.19178  0.026376449  0.026421172            3 
 2289000   0.88218571   -7.1819346    724.73575   0.02638473  0.026413691            4 
 2290000   0.86507374   -7.1906859    724.75507  0.026373911  0.026406229            3 
 2291000   0.88485817   -7.2078829    723.89349   0.02633106  0.026398783            7 
 2292000   0.89635562    -7.201795    725.23392  0.026368307  0.026391282            4 
 2293000   0.86443744   -7.1888374    724.52861  0.026331175  0.026383791           14 
 2294000   0.87646469   -7.2105245    725.09517  0.026340278  0.026376278            9 
 2295000   0.87700898   -7.1668053    725.96148  0.026360257  0.026368846            8 
 2296000   0.89460468   -7.1565586    727.11281  0.026390564  0.026361442            4 
 2297000    0.8788894   -7.1670148     726.5347  0.026358101  0.026354031            3 
 2298000   0.88959296   -7.1867428     725.8341  0.026321225  0.026346613            3 
 2299000   0.89121532     -7.18314    725.19059   0.02628645  0.026339183            2 
 2300000   0.88747651    -7.141711     725.6107  0.026290243  0.026331751            4 
 2301000    0.8642389   -7.1975272    725.89695  0.026289184   0.02632431            2 
 2302000   0.88170657   -7.1768082    726.87472   0.02631316  0.026316808            6 
 2303000   0.88392058   -7.2059398    725.63319   0.02625681  0.026309273            4 
 2304000   0.88928785   -7.2053326    724.83843  0.026216668    0.0263018            3 
 2305000   0.86532343   -7.1632354    724.53611  0.026194364  0.026294285            6 
 2306000   0.88673909   -7.1807526    725.71901  0.026225752  0.026286768            3 
 2307000   0.88000941    -7.180766    725.20884  0.026195956   0.02627931            7 
 2308000   0.87555051   -7.2275526    723.93409  0.026138579  0.026271777            8 
 2309000   0.87380893   -7.2045921    725.41368  0.026180658  0.026264299            3 
 2310000   0.89965076   -7.1858162    726.25769  0.026199772  0.026256851            3 
 2311000   0.88251757    -7.150371     727.0446  0.026216811  0.026249382            4 
 2312000   0.87396138   -7.1921889    725.18631  0.026138491  0.026241916            4 
 2313000   0.87347372   -7.1769811    725.99038   0.02615616  0.026234408            3 
 2314000   0.89326504   -7.1854156    726.27639  0.026155156  0.026226921            2 
 2315000   0.88827906   -7.2069195    726.58422   0.02615494  0.026219402            5 
 2316000   0.88505242   -7.1888119    727.06328  0.026160884  0.026211892            4 
 2317000   0.86386935   -7.2044275    727.56552  0.026167656  0.026204386            7 
 2318000   0.87115786   -7.2073637    726.30439  0.026111029  0.026196899            4 
 2319000   0.86433061   -7.2029513    726.66723  0.026112808  0.026189389            3 
 2320000   0.86732255   -7.1905978    728.61351  0.026171462  0.026181897            4 
 2321000   0.88143103   -7.1799633    729.15178  0.026179512  0.026174444            6 
 2322000   0.87411899   -7.2042935    727.54518  0.026110579  0.026166971            6 
 2323000   0.88352857    -7.183593    728.16614  0.026121615  0.026159449            6 
 2324000   0.87954965   -7.1473531    729.63814  0.026163158  0.026152004            3 
 2325000   0.88409576   -7.2097185    727.79732  0.026085925  0.026144608            3 
 2326000   0.88066968   -7.2022221    728.94691  0.026115897  0.026137147            4 
 2327000   0.88016522   -7.1908294    727.10396  0.026038675  0.026129693            5 
 2328000   0.88847459   -7.2191647    727.66122  0.026047438  0.026122208            6 
 2329000   0.88420668    -7.201844    728.53183  0.026067405  0.026114722            8 
 2330000   0.87168186   -7.2203421     727.2056  0.026008784  0.026107219            5 
 2331000   0.88773513    -7.186849     729.3419  0.026073999  0.026099741            3 
 2332000   0.89751697   -7.2280911    727.77635  0.026006874  0.026092269            8 
 2333000   0.85302914   -7.1980971    730.30809  0.026086158  0.026084766            6 
 2334000   0.89034582   -7.1607797     730.6486  0.026087139  0.026077338            5 
 2335000   0.88260282   -7.2103595    729.20667  0.026024507  0.026069867            5 
 2336000   0.88501981   -7.2073085    730.86172  0.026072407  0.026062444            7 
 2337000   0.89282731   -7.1787939    728.55616  0.025979039  0.026055004            6 
 2338000   0.88059901   -7.1922973    729.89865  0.026015777  0.026047559            7 
 2339000   0.89238396   -7.2150877     729.2176  0.025980391  0.026040133            5 
 2340000    0.8699967   -7.1834588    729.18171   0.02596801  0.026032737            2 
 2341000   0.88180679   -7.1912945    731.98238  0.026056613  0.026025353            4 
 2342000   0.88018576   -7.2080848     730.2752  0.025984742  0.026017947            7 
 2343000   0.86035294   -7.1941858    728.89347  0.025924508   0.02601051            2 
 2344000   0.86563157   -7.2153152    729.50715  0.025935265  0.026003089            4 
 2345000   0.86498157   -7.1689517     731.3719  0.025990473  0.025995666            6 
 2346000   0.88410575   -7.1980187    731.51813  0.025984588  0.025988239            4 
 2347000   0.87293368    -7.190577    730.81345  0.025948496  0.025980795            4 
 2348000   0.89770402   -7.1981297    732.68523  0.026003877  0.025973392            6 
 2349000   0.86296113   -7.1938798     730.6621  0.025921034  0.025965948            3 
 2350000   0.87672242   -7.2037752     730.4811  0.025903585  0.025958525            3 
 2351000   0.86390849    -7.220909    731.97972  0.025945687  0.025951099            3 
 2352000   0.87427428    -7.178819    733.24061   0.02597933   0.02594376            6 
 2353000   0.85914055    -7.205468    732.81229   0.02595312  0.025936418            5 
 2354000   0.88115141   -7.1891496    731.57484  0.025898288  0.025929071            4 
 2355000   0.85359098   -7.1971898    732.61821  0.025924211  0.025921675            3 
 2356000   0.84586632   -7.1830278    734.91056   0.02599429  0.025914307            6 
 2357000   0.86726009   -7.1737639    733.17228  0.025921803  0.025906959            6 
 2358000   0.86589556   -7.2382192    731.21448   0.02584162   0.02589956            6 
 2359000   0.84662698   -7.2234948     732.9972  0.025893641  0.025892108            2 
 2360000   0.88151604   -7.2062482    730.54127  0.025795949  0.025884635            8 
 2361000   0.87754153   -7.1998082    734.58254  0.025927663  0.025877221            2 
 2362000   0.87870215   -7.2107058     734.7011  0.025920869  0.025869885            4 
 2363000   0.87591721   -7.1835472    733.85664  0.025880118   0.02586253            4 
 2364000   0.87093294   -7.1805891    733.19807  0.025845956  0.025855127            8 
 2365000   0.89521736   -7.2211776    733.75826  0.025854766  0.025847724            3 
 2366000    0.8652715   -7.2085872      733.934  0.025850028  0.025840292            3 
 2367000   0.87400659   -7.2098497    732.09908  0.025774506  0.025832914            4 
 2368000   0.86063445   -7.2094845    734.82692  0.025859619  0.025825567            4 
 2369000   0.87007802   -7.1855111    733.96912  0.025818528  0.025818172            2 
 2370000   0.86467589   -7.2219271    733.34281  0.025785612  0.025810772            6 
 2371000   0.86689253   -7.2087606    733.04013  0.025764098  0.025803421            5 
 2372000   0.88488856   -7.2188281    735.08551  0.025825095  0.025796043            6 
 2373000   0.87634011   -7.2309812    734.00775  0.025776364  0.025788674            6 
 2374000   0.87685201   -7.2208228    732.14983  0.025700289  0.025781294            2 
 2375000   0.87264876   -7.2115095    734.04233  0.025755871  0.025773882            3 
 2376000    0.8828212    -7.198696    734.94373  0.025776646  0.025766519            3 
 2377000   0.85449751   -7.2106689    735.36621  0.025780613  0.025759105            2 
 2378000   0.86771299   -7.1962208    735.08864  0.025760045  0.025751725            2 
 2379000   0.86909842   -7.1930745    735.43992  0.025761522  0.025744315            2 
 2380000   0.87587605   -7.2148283    733.76723   0.02569213  0.025736885            6 
 2381000   0.87155556   -7.2149734    733.54334  0.025673504  0.025729412            5 
 2382000   0.86825547   -7.1925578    735.68833  0.025737767  0.025721922            4 
 2383000   0.86937451    -7.199188    732.88656  0.025628989  0.025714427            7 
 2384000   0.86102971   -7.2158221    733.60453  0.025643335  0.025706963            1 
 2385000   0.84688965   -7.2192279    736.13151  0.025720877  0.025699499            3 
 2386000   0.86034911    -7.231455     732.8993  0.025597209  0.025692058            4 
 2387000   0.87420793   -7.1988146    735.15512   0.02566524  0.025684601            5 
 2388000   0.86887575   -7.2057485    735.42288  0.025663836   0.02567713            3 
 2389000   0.86694835   -7.2165721     734.7472  0.025629524  0.025669641            2 
 2390000   0.87207672   -7.2207728    734.09887  0.025596195  0.025662191            3 
 2391000   0.90415431   -7.1959043    734.37169  0.025594998   0.02565472            2 
 2392000    0.8652323   -7.1923313    733.73572  0.025562142  0.025647272            3 
 2393000   0.86563886   -7.1992735    735.83089  0.025624422  0.025639781            3 
 2394000   0.86726884   -7.2338533     735.0603  0.025586894  0.025632292            2 
 2395000   0.87884714   -7.2428806    736.05811  0.025610929  0.025624833           13 
 2396000   0.84679181   -7.2102401    734.07852   0.02553139  0.025617378            1 
 2397000   0.85042615   -7.2144848    736.35585  0.025599911  0.025609921            3 
 2398000   0.85389273   -7.1855464    737.75857  0.025637982    0.0256025            9 
 2399000   0.86970498   -7.2298266    736.55504  0.025585488  0.025595106            3 
 2400000   0.85621718   -7.2371666     736.4261  0.025570351  0.025587733            2 
 2401000   0.86262823   -7.2080631     735.9442  0.025542975  0.025580272            2 
 2402000   0.86914848   -7.2375584    733.97843  0.025464142  0.025572763            3 
 2403000   0.87166914    -7.228209     734.3705  0.025467142  0.025565243            3 
 2404000   0.88732744    -7.218226    735.83415  0.025507285  0.025557811            4 
 2405000   0.87644383   -7.2074787    735.68188  0.025491403  0.025550359            3 
 2406000   0.84152086   -7.2454524    734.78896  0.025449881   0.02554286            2 
 2407000   0.87246149   -7.2549242    735.72803  0.025471819  0.025535333            3 
 2408000   0.87072842   -7.2292664    737.75114  0.025531255  0.025527802            5 
 2409000   0.84786201    -7.240335    736.63103  0.025481909  0.025520285            5 
 2410000    0.8712567   -7.2335769    733.71788  0.025370604  0.025512767            4 
 2411000     0.851619   -7.2196166    735.63022  0.025426179  0.025505233            6 
 2412000   0.86642961   -7.1707069    737.49867  0.025480192    0.0254978           14 
 2413000   0.87911884   -7.1789531    735.80791  0.025411241  0.025490374            4 
 2414000   0.87947312    -7.201518    737.53866  0.025460462  0.025482913            4 
 2415000   0.87059064    -7.200866    737.94695  0.025464008  0.025475459            3 
 2416000   0.87968371   -7.2096206    737.45442   0.02543648  0.025468009            3 
 2417000   0.87543212   -7.2421955    735.22065   0.02534894  0.025460561            3 
 2418000   0.88245428   -7.2130505    736.51024  0.025382901  0.025453047            7 
 2419000   0.87867072   -7.2369693    736.26076  0.025363813  0.025445586            5 
 2420000   0.86227242       -7.194     737.6885  0.025402496   0.02543812            5 
 2421000   0.88625017   -7.2462763    737.16431  0.025373961   0.02543067            6 
 2422000   0.86560546   -7.2194154    736.65007  0.025345791  0.025423142            4 
 2423000   0.85929166   -7.2060055    737.26903  0.025356618  0.025415663            2 
 2424000   0.85884616   -7.2112449    736.97877  0.025336179  0.025408194            2 
 2425000   0.88857239   -7.2247251    738.47709   0.02537722   0.02540074            4 
 2426000   0.85293522    -7.206927    736.64817  0.025303935  0.025393245            3 
 2427000   0.85971812   -7.2084659    737.06645  0.025307871   0.02538567            3 
 2428000   0.87935572   -7.2174424    736.91952  0.025292405  0.025378185            2 
 2429000   0.84931786   -7.2398026    736.29047  0.025260411  0.025370667            5 
 2430000   0.84301589   -7.2194574    738.27177  0.025317962  0.025363104            4 
 2431000   0.87202259   -7.2167957    737.36006  0.025276294  0.025355543            4 
 2432000   0.87846837   -7.2432046     737.4872  0.025270258   0.02534796            5 
 2433000    0.8631411   -7.2414797    736.96231  0.025241893  0.025340336            5 
 2434000   0.86785166   -7.2713868    737.15557  0.025238139  0.025332722            3 
 2435000   0.86459246   -7.2427978    736.23067  0.025196121  0.025325123            4 
 2436000   0.86360194    -7.193009    739.19077   0.02528704  0.025317558            7 
 2437000   0.85912557   -7.2557936    738.87855  0.025265988  0.025310036            4 
 2438000   0.85138284       -7.251    737.22958  0.025199261  0.025302502            1 
 2439000   0.86070201   -7.2259157    738.34928  0.025227186   0.02529495            2 
 2440000   0.85927807   -7.2427699    737.79992  0.025198085  0.025287402            4 
 2441000   0.85121918   -7.2178547    740.25176  0.025271465  0.025279895            3 
 2442000   0.83956908   -7.2168393    738.20679  0.025191332  0.025272423            9 
 2443000   0.86022461   -7.2485013    739.23636   0.02521614  0.025264939            7 
 2444000   0.87174587   -7.2388848    739.76763  0.025223937  0.025257458            9 
 2445000   0.86367592   -7.2208251    739.97024  0.025220526  0.025249957            5 
 2446000   0.85533649   -7.2324564    738.67707  0.025166158  0.025242454            4 
 2447000   0.84625155   -7.2393827    738.95146  0.025165218  0.025234937            3 
 2448000   0.84900799     -7.20425    740.48497  0.025207141  0.025227414            4 
 2449000   0.85874032   -7.2248135    738.75478  0.025137974  0.025219991            4 
 2450000   0.86716372   -7.2401215    742.49778  0.025255026  0.025212629            4 
 2451000      0.87326   -7.2079193    739.90016  0.025156404  0.025205239            3 
 2452000    0.8591593   -7.2612909    739.13889  0.025120272  0.025197793            5 
 2453000   0.85874889   -7.2476426    741.33967  0.025184796  0.025190333            9 
 2454000   0.85040285   -7.2278266    740.73067  0.025153853  0.025182916            6 
 2455000   0.85740312   -7.2366552    741.55217  0.025171493  0.025175525            6 
 2456000   0.87290083   -7.2667938    740.87057  0.025138117  0.025168128            5 
 2457000   0.85076421   -7.2312366    742.07467  0.025168724  0.025160729            4 
 2458000   0.85647806   -7.2461871    741.65792  0.025144356  0.025153367            5 
 2459000   0.84644259      -7.2302    741.73182  0.025136635  0.025146007            4 
 2460000   0.84968445   -7.2051969    741.00846  0.025101913  0.025138607            1 
 2461000   0.84952721   -7.2597076    740.53863  0.025075804  0.025131144            2 
 2462000   0.87148675   -7.2766137     740.2662  0.025056397  0.025123598            4 
 2463000     0.869907   -7.2414326    741.81685  0.025098689  0.025116133            2 
 2464000   0.85781541   -7.2831913    741.70856   0.02508484  0.025108656           11 
 2465000   0.87294828   -7.2491253    742.19247  0.025091023   0.02510121            4 
 2466000   0.86812316   -7.2530325    741.13265  0.025045034  0.025093751            3 
 2467000   0.86215682   -7.2578922    739.06767  0.024965129  0.025086278            4 
 2468000   0.86330167   -7.2696477    739.86948  0.024982087  0.025078748            2 
 2469000   0.84869608   -7.2702355    741.64439  0.025031875  0.025071279           11 
 2470000   0.87505673   -7.2411773    741.97505  0.025032896  0.025063869            3 
 2471000    0.8406113   -7.2137379    742.61281  0.025044274  0.025056428            5 
 2472000   0.84815924   -7.2909251      739.477  0.024928432  0.025048904            3 
 2473000   0.84460061   -7.2387899     740.7684  0.024961868   0.02504139            7 
 2474000   0.86214441   -7.2537413    741.48827  0.024976026  0.025033874            5 
 2475000   0.86466473   -7.2272945    741.06114  0.024951553  0.025026331            9 
 2476000   0.85283532     -7.25815    741.11793  0.024943388  0.025018773            5 
 2477000   0.87002949   -7.2535025    739.68751  0.024885194  0.025011225            6 
 2478000   0.86367425   -7.1960748    744.23444  0.025028062  0.025003746            5 
 2479000   0.84413955   -7.2736639    741.93207   0.02494057  0.024996269            5 
 2480000   0.86620837   -7.2659122    740.26499  0.024874495  0.024988763            7 
 2481000   0.85465315   -7.2547969    740.54279    0.0248738  0.024981289            6 
 2482000   0.82639205   -7.2683721    741.82111  0.024906698  0.024973764            4 
 2483000   0.85577075   -7.2540106    743.19032  0.024942621  0.024966268            5 
 2484000   0.86052222    -7.265095    741.85427  0.024887757  0.024958791            5 
 2485000   0.85052455   -7.2394438    743.62912  0.024937261  0.024951313            5 
 2486000   0.86459595   -7.2394188    744.02548  0.024940516  0.024943861            4 
 2487000   0.86274848   -7.2610159    743.62012  0.024916905  0.024936415            3 
 2488000   0.85679299   -7.2570517    743.40118  0.024899557  0.024928954            4 
 2489000   0.85816478   -7.2552577    743.27847  0.024885445  0.024921547            3 
 2490000   0.85264583   -7.2677801    742.82035  0.024860119  0.024914135            3 
 2491000   0.85212102   -7.2384133      742.319  0.024833367  0.024906688            4 
 2492000   0.84757633   -7.2465332    743.66113  0.024868283  0.024899224            3 
 2493000    0.8455283   -7.2480116    745.22809  0.024910686  0.024891804            5 
 2494000   0.86690191   -7.2552247    744.65238  0.024881461  0.024884384            5 
 2495000   0.85561531   -7.2671909    741.85892  0.024778187  0.024876938            3 
 2496000    0.8577111   -7.2677714    742.56278  0.024791759  0.024869466            6 
 2497000   0.85371808   -7.2482454    744.56836  0.024848764  0.024861973            6 
 2498000   0.84852519   -7.2543879    745.32766  0.024864147  0.024854544            4 
 2499000   0.84555855   -7.2844673    742.94145  0.024774625  0.024847099            3 
 2500000   0.85177822   -7.2500728    745.54869  0.024851623  0.024839632            2 
 2501000   0.85806924   -7.2680845    743.61648  0.024777305  0.024832197            3 
 2502000   0.84425978   -7.2707507    744.99867  0.024813438  0.024824729            3 
 2503000   0.84701782   -7.2747934    745.12078   0.02480759  0.024817288            3 
 2504000   0.84266573   -7.2666382    745.42613  0.024807845  0.024809809            3 
 2505000    0.8562476   -7.2405085    746.03733  0.024818274  0.024802337            6 
 2506000   0.85890099   -7.2389124    742.49953  0.024690726  0.024794867            9 
 2507000   0.84147179   -7.2525658    745.99252  0.024796986  0.024787358            8 
 2508000   0.85593676   -7.2905977    742.97739  0.024686915  0.024779884            8 
 2509000   0.83971991    -7.286982    744.65859  0.024732915  0.024772413            4 
 2510000      0.85255   -7.2629011    746.95249  0.024799219  0.024764952            3 
 2511000   0.86459667    -7.269429    744.61396  0.024711734  0.024757484            7 
 2512000   0.85297457   -7.2738353     746.3648  0.024759979  0.024750061            3 
 2513000   0.86205464   -7.2307439    745.88266  0.024734138   0.02474266            4 
 2514000   0.82924663   -7.2726074    745.05433  0.024696842  0.024735203            4 
 2515000   0.86417696   -7.2372808    746.73159  0.024742597  0.024727793            2 
 2516000   0.85726047   -7.2479409    746.25643  0.024717025  0.024720395            5 
 2517000   0.86401991   -7.2488283    746.57879  0.024717878  0.024712994            4 
 2518000   0.84299178   -7.2375818    746.95077  0.024720372   0.02470562            2 
 2519000   0.83730618   -7.2288757    745.82123  0.024673191  0.024698218            7 
 2520000   0.84618428   -7.2357682    746.42669  0.024683422  0.024690821            5 
 2521000   0.85139775   -7.2448427    747.36929  0.024704789  0.024683465            6 
 2522000   0.83231689   -7.2843693    745.96248  0.024648509  0.024676124            4 
 2523000   0.84557349   -7.2635223    747.01578   0.02467353  0.024668761            4 
 2524000   0.84643304   -7.2438253    747.68824  0.024685956   0.02466142            9 
 2525000   0.84626813   -7.2529703    749.03465  0.024720616  0.024654087            2 
 2526000    0.8390661   -7.2769654    746.11759  0.024614595  0.024646748            6 
 2527000   0.84781625   -7.2394959    748.12071  0.024670911  0.024639408            8 
 2528000   0.85181586   -7.2688441    749.77305   0.02471562  0.024632082            5 
 2529000   0.86074748    -7.259016     747.6578  0.024636147  0.024624763            7 
 2530000   0.84227078   -7.2516195    748.28863  0.024647188  0.024617475            6 
 2531000   0.86419002   -7.2593753     748.9851  0.024660381  0.024610191            9 
 2532000    0.8543692   -7.2805707     749.5698  0.024669885  0.024602931            3 
 2533000   0.85617847   -7.2540427     748.4969  0.024624849  0.024595713           10 
 2534000    0.8443691   -7.2820074    747.00771  0.024566157  0.024588432            3 
 2535000   0.85045768   -7.2952428    748.96043  0.024620658  0.024581127            3 
 2536000   0.84901999   -7.2548783    749.46465  0.024627519  0.024573828            3 
 2537000   0.83344109   -7.2712281    747.94338  0.024567842  0.024566547            4 
 2538000   0.84336479   -7.2524936    749.46173  0.024608016  0.024559284            6 
 2539000   0.85466675   -7.2435715    749.39935  0.024596276  0.024552043            3 
 2540000   0.85663899   -7.2599937    749.90366  0.024603138  0.024544807            2 
 2541000   0.84079494   -7.2964172    748.62916  0.024551658  0.024537567            3 
 2542000   0.84020718   -7.2683227    750.09607  0.024590089  0.024530344            2 
 2543000   0.82611994   -7.2563478    750.39869  0.024590336  0.024523102            5 
 2544000    0.8583419   -7.2785982    749.69252  0.024557538  0.024515814            4 
 2545000   0.85215115   -7.2567356    749.24635  0.024533279  0.024508567            3 
 2546000   0.86531366   -7.2722262    748.86505  0.024511163  0.024501273            4 
 2547000   0.83622652   -7.2751272    749.70031  0.024528868  0.024493975            3 
 2548000   0.84739619   -7.2590995    750.59896  0.024548632  0.024486697            5 
 2549000   0.83152218   -7.2937754     749.3103  0.024496871  0.024479448            5 
 2550000   0.84833755   -7.2863866    750.22555  0.024517175  0.024472191            3 
 2551000   0.83210932   -7.2787056    749.90211  0.024496998  0.024464953            4 
 2552000   0.82310297   -7.2929418    751.00175  0.024523307  0.024457716            3 
 2553000   0.83240247   -7.2668245    751.12575  0.024517749  0.024450513            2 
 2554000   0.84096283   -7.2935771    750.11141  0.024475052  0.024443288            6 
 2555000   0.86721143   -7.2604977    751.25417  0.024502745  0.024436107            4 
 2556000   0.86445178   -7.2628805    751.88317  0.024513666  0.024428906            3 
 2557000   0.83840354   -7.2533245    753.05029  0.024542116  0.024421743            4 
 2558000   0.84593536   -7.2681485    752.52345  0.024515359  0.024414594           10 
 2559000   0.82904919   -7.2869163    750.71963  0.024447038  0.024407419            7 
 2560000   0.85123726   -7.2584596    751.42561  0.024460469  0.024400251            4 
 2561000   0.84333962   -7.2395585     752.0031  0.024469709  0.024393076            4 
 2562000   0.83506833   -7.2581722    750.53493  0.024412403  0.024385915            3 
 2563000   0.83936925   -7.3059422    751.74427  0.024442199  0.024378734            4 
 2564000   0.84513286   -7.3089066    751.46913  0.024423724  0.024371488            4 
 2565000   0.83795266   -7.2604029    753.58982    0.0244831  0.024364288           10 
 2566000   0.85859169   -7.2440904    751.44478  0.024403897  0.024357074            4 
 2567000   0.82691929   -7.2789581    752.30681  0.024422374  0.024349853            5 
 2568000   0.85104195   -7.3129907    752.34931  0.024414243  0.024342628            4 
 2569000   0.84298676   -7.2496742    754.34721  0.024469548  0.024335431            5 
 2570000   0.84357398   -7.2841096    751.71137  0.024374558   0.02432823            8 
 2571000   0.83427526   -7.2824692    752.66303  0.024395923  0.024320951            4 
 2572000   0.83853649   -7.2874312    751.69424  0.024355049  0.024313724            5 
 2573000   0.85301641   -7.3010495    753.33866  0.024398843  0.024306508            7 
 2574000   0.85706512   -7.2540397    752.86225   0.02437394  0.024299321            4 
 2575000    0.8311911   -7.2460402    751.97803  0.024335858  0.024292129            5 
 2576000   0.85610896   -7.2674562    752.78453  0.024352501  0.024284908            5 
 2577000   0.85680772   -7.2845754    753.37915   0.02436228  0.024277702            5 
 2578000   0.85361337   -7.2820165    753.29388  0.024350074  0.024270518            3 
 2579000   0.83260137   -7.2900331    752.70825  0.024321709  0.024263299            3 
 2580000   0.84983049   -7.2911006    753.45235  0.024336316  0.024256069            4 
 2581000   0.84113576   -7.2878516    755.58911  0.024395877  0.024248877            4 
 2582000    0.8481282   -7.2898503    754.18443  0.024341093  0.024241669            5 
 2583000   0.84976881   -7.2714172    751.62635   0.02424914  0.024234456            5 
 2584000   0.84395393    -7.254979    752.89702  0.024280735  0.024227231            6 
 2585000   0.83410189   -7.3189368    753.83135  0.024301462  0.024220013            3 
 2586000   0.84614103   -7.2770583    753.70599  0.024288025  0.024212808            7 
 2587000   0.81851275   -7.2934065    753.79238  0.024281419  0.024205619            5 
 2588000   0.83943977   -7.2547891    753.21306  0.024253383  0.024198415            4 
 2589000   0.84820701   -7.2503217    753.62459  0.024257261   0.02419127            4 
 2590000   0.82856777   -7.2694303    754.41641  0.024273372  0.024184094            4 
 2591000   0.82741949   -7.3028842    756.00795  0.024315192  0.024176961            5 
 2592000   0.82720078   -7.2774733    756.00922  0.024305852  0.024169799            9 
 2593000    0.8236811    -7.309999    752.89562  0.024196414  0.024162657            5 
 2594000   0.84561921   -7.3453668    753.74042  0.024214226  0.024155459           10 
 2595000    0.8380845   -7.3035953    754.37677   0.02422533  0.024148286            5 
 2596000    0.8377312   -7.2951174     753.8428  0.024198857  0.024141123            3 
 2597000   0.85270135   -7.2816643    755.76812  0.024251319  0.024134003            7 
 2598000   0.83004335   -7.2810291    755.53876  0.024234628   0.02412687            3 
 2599000   0.83000137   -7.2681517    754.95219  0.024206496  0.024119714            2 
 2600000   0.83173801    -7.261094    756.16149  0.024235945  0.024112586            5 
 2601000   0.83836457   -7.2959697    753.48363  0.024140832  0.024105455            2 
 2602000   0.84545927   -7.3090309     755.4095  0.024193233  0.024098283            5 
 2603000   0.84915085   -7.2925766    754.70667  0.024161438  0.024091081            5 
 2604000   0.83900209   -7.2706658    756.50553  0.024209726  0.024083935            2 
 2605000   0.83537217     -7.28347    755.82982  0.024178817  0.024076822            8 
 2606000   0.81557772   -7.2793698    755.87291  0.024170917  0.024069708            5 
 2607000   0.82595282   -7.2725223    755.27504  0.024142534  0.024062605            4 
 2608000   0.83462596    -7.304516    756.15783  0.024161485  0.024055452            4 
 2609000   0.84413306   -7.2898996    755.92259   0.02414471  0.024048327            2 
 2610000   0.82841433   -7.2801591    756.35961  0.024149413   0.02404117            7 
 2611000   0.80961427   -7.2754216    756.24801  0.024136602  0.024034045            2 
 2612000   0.84627044   -7.3035431    755.98824  0.024119074  0.024026902            2 
 2613000   0.81998757   -7.3163372    755.88691  0.024106611  0.024019735            4 
 2614000   0.83579362   -7.2857684    755.73272  0.024092474  0.024012604            6 
 2615000   0.83641165   -7.2895616    758.24215   0.02416323   0.02400547            3 
 2616000    0.8123205   -7.2700642    759.35356  0.024189397  0.023998373            3 
 2617000   0.82942381   -7.2685842    759.07665  0.024171336  0.023991297            4 
 2618000   0.83925692    -7.283366    756.32113  0.024074393  0.023984268            3 
 2619000   0.82570858   -7.2954886    758.66421  0.024139755  0.023977124           10 
 2620000   0.84750877   -7.2956694    759.06077  0.024143154  0.023970067            3 
 2621000   0.83065429   -7.2902373    757.50076  0.024084343  0.023963046            4 
 2622000   0.82281457   -7.2642697    759.08882   0.02412563  0.023956035            4 
 2623000    0.8366432   -7.2872691      760.371  0.024157167  0.023949029            4 
 2624000   0.83283375   -7.3023889    758.91106  0.024101596  0.023941943            6 
 2625000    0.8474641   -7.2813058    759.33425  0.024105849  0.023934924            3 
 2626000   0.84201543    -7.304825    758.00119  0.024054366  0.023927895            5 
 2627000    0.8346079   -7.2766889    758.15251   0.02405001  0.023920873            4 
 2628000   0.81282774   -7.2881963    757.40799   0.02401725  0.023913844            3 
 2629000   0.82834242   -7.2743419    759.00772  0.024058822  0.023906831            7 
 2630000    0.8288351   -7.2894702    759.29614  0.024058813   0.02389983            7 
 2631000   0.82984548   -7.3016646    759.20634  0.024046824  0.023892791            2 
 2632000   0.82920669   -7.3021668     760.9045  0.024091454  0.023885764            3 
 2633000   0.83200592   -7.2980956    759.13703  0.024026365  0.023878753            5 
 2634000   0.86263654   -7.3020639    758.65961  0.024002139  0.023871742            5 
 2635000   0.81436918   -7.3008827    758.74073  0.023995595  0.023864711            4 
 2636000   0.82916742   -7.3309431    758.69278  0.023984977  0.023857643            4 
 2637000   0.82743827   -7.3061588    758.96041  0.023984339  0.023850595            3 
 2638000   0.82822832   -7.2983382    760.17705   0.02401368  0.023843548            6 
 2639000   0.83541931   -7.2944603    758.80592  0.023961283  0.023836491            7 
 2640000   0.83450845    -7.316275    758.81653  0.023952542    0.0238294            7 
 2641000   0.83142743   -7.2910065    760.30108  0.023990316  0.023822363           10 
 2642000   0.81660764   -7.3502045    758.70043  0.023930748  0.023815305            3 
 2643000    0.8355974   -7.2972753    760.91289  0.023991452  0.023808263            6 
 2644000   0.81607855   -7.3103284    761.98765  0.024016252  0.023801244            5 
 2645000   0.82182922   -7.3369187    760.07756  0.023946993  0.023794205            6 
 2646000   0.82490406   -7.3065766    761.31096  0.023976788  0.023787179            2 
 2647000   0.84092521   -7.2705375    762.75159  0.024013084   0.02378018            5 
 2648000   0.82889546   -7.3326019    760.26106  0.023925638  0.023773138            2 
 2649000   0.84885512   -7.3006624    760.61542  0.023927753  0.023766094            4 
 2650000   0.81103046   -7.3061587    760.48708  0.023914688  0.023759048            4 
 2651000   0.83259497   -7.2919487    761.63304   0.02394169  0.023752034            2 
 2652000   0.83047619    -7.320026    761.01119  0.023913122  0.023745041            8 
 2653000   0.83813626   -7.3288581    760.07413  0.023874674  0.023738031            9 
 2654000   0.83686373   -7.2776998    761.52246  0.023911155  0.023731065           10 
 2655000   0.83421966   -7.3172002    763.34571  0.023959376  0.023724078            2 
 2656000   0.82025152   -7.2860903     761.8297  0.023902789  0.023717122            3 
 2657000   0.83733717   -7.3239515    762.47802  0.023914127  0.023710185            4 
 2658000   0.80988612   -7.3142991    762.39698  0.023902589  0.023703227            4 
 2659000   0.82375975    -7.325605    760.32469  0.023828654  0.023696273            7 
 2660000   0.83636438   -7.3315883    759.67109   0.02379922  0.023689331            4 
 2661000   0.82553675   -7.3109354    761.57029  0.023849752  0.023682375            8 
 2662000    0.8153618   -7.3331256     762.7309  0.023877125  0.023675418            3 
 2663000   0.80518897   -7.3241188    761.21745  0.023820799  0.023668439            9 
 2664000   0.84327419   -7.3254523    761.94582  0.023834642  0.023661457            5 
 2665000    0.8203515   -7.3492439    760.36243  0.023776186  0.023654508            6 
 2666000   0.83317188    -7.295362    763.66606  0.023870532   0.02364755            3 
 2667000   0.85742589   -7.2817499    762.00614  0.023809716  0.023640663            4 
 2668000   0.82176887   -7.3428717    762.17689  0.023806125  0.023633739            5 
 2669000   0.82754019   -7.3228421    762.34864  0.023802568  0.023626789            4 
 2670000   0.81460242   -7.3026092    763.29564   0.02382321  0.023619818           11 
 2671000   0.80988292   -7.2914534     762.6138  0.023793018   0.02361285            7 
 2672000   0.80906481   -7.3432689    762.41036  0.023777768  0.023605903            4 
 2673000   0.83391551   -7.3451139    762.58159  0.023774211   0.02359898            3 
 2674000   0.82205448   -7.2880157    763.59261  0.023796828  0.023592071            2 
 2675000    0.8225414   -7.3378155    762.86804  0.023765359  0.023585176            5 
 2676000   0.81256633    -7.317975    763.74822  0.023783888  0.023578301            9 
 2677000   0.82904939   -7.3169002    763.81386  0.023777047  0.023571402            5 
 2678000   0.81489202   -7.3165549     762.0901  0.023714529  0.023564474            4 
 2679000   0.81894756   -7.3250662    764.73143  0.023787838  0.023557571            7 
 2680000   0.83585474   -7.3055594    765.37291  0.023798909  0.023550665            5 
 2681000   0.82607167   -7.3191543    763.08194  0.023718822  0.023543782            7 
 2682000   0.82478429   -7.3413411    764.21615   0.02374522  0.023536877            7 
 2683000   0.83846035   -7.3397165     765.4893  0.023775913  0.023529982            3 
 2684000   0.81470494   -7.3139976    764.50109  0.023736373   0.02352309            9 
 2685000   0.82346427   -7.3442738    764.42479  0.023725164  0.023516201            2 
 2686000   0.82831219    -7.310436    764.05978  0.023705007  0.023509286            8 
 2687000    0.8114185   -7.3333585    763.52226  0.023679514  0.023502397            3 
 2688000   0.81829299   -7.3189709    764.31787   0.02369537  0.023495496            4 
 2689000   0.83306636   -7.3184073    765.17518  0.023713127  0.023488578            4 
 2690000    0.8238531   -7.3343986    763.54256  0.023653735  0.023481685            7 
 2691000    0.8154379   -7.3288544    763.04446   0.02362952  0.023474721           18 
 2692000   0.82047373   -7.3174624    765.54155  0.023698042  0.023467815            6 
 2693000   0.82892276   -7.2976394    764.55744  0.023658789  0.023460962            5 
 2694000   0.82495387   -7.3209701    766.84775  0.023720854  0.023454078            3 
 2695000    0.8173473   -7.3007231    765.61985  0.023674083  0.023447179            8 
 2696000    0.8251794   -7.3315694    764.98956   0.02364582  0.023440292            3 
 2697000   0.84767106    -7.341599    764.39517  0.023618686  0.023433384            3 
 2698000   0.82285018   -7.3346337    765.38692  0.023640565  0.023426476           10 
 2699000   0.81177054   -7.3378524    764.75331  0.023612243  0.023419558            6 
 2700000   0.81647025   -7.3397462    764.52774  0.023596535  0.023412652            4 
 2701000   0.82101152   -7.3041017    766.03333  0.023634251  0.023405767            6 
 2702000   0.81222936   -7.3423877      764.811  0.023587805  0.023398895            5 
 2703000   0.81667023   -7.3278414    766.31492  0.023625445  0.023392014            5 
 2704000   0.82490179   -7.3462211    765.50229  0.023591663  0.023385161            2 
 2705000   0.81500956   -7.3039466    765.13979  0.023571774  0.023378265            3 
 2706000   0.81507646   -7.3077059    765.20862  0.023565183  0.023371351            8 
 2707000   0.82693613   -7.3088104      766.253  0.023588628  0.023364499            3 
 2708000   0.82021546   -7.3052106    766.98223  0.023602358  0.023357622            6 
 2709000   0.82014024   -7.3204243    765.34681  0.023543337  0.023350762            5 
 2710000   0.82425718   -7.3308393    765.50786  0.023539602  0.023343896            3 
 2711000   0.79337537   -7.3464113    766.58614  0.023564064  0.023337019            6 
 2712000   0.81615001   -7.3182897    766.27299  0.023545753  0.023330176            5 
 2713000   0.85199753   -7.3263116    766.49766  0.023543975  0.023323308            5 
 2714000   0.80439782   -7.3675009    766.25781  0.023527936  0.023316468            8 
 2715000   0.82555947   -7.3152762    766.90604  0.023539166   0.02330961            6 
 2716000   0.79654724    -7.320144     767.0274  0.023534223  0.023302788            3 
 2717000   0.81730274   -7.2784453    768.53645  0.023571846  0.023296027            2 
 2718000   0.82791271   -7.3130972    769.63516  0.023596859  0.023289228            8 
 2719000   0.81208782    -7.335399    767.79119  0.023531666  0.023282399            4 
 2720000   0.82071764   -7.3290797    767.28526  0.023507514   0.02327555            7 
 2721000   0.80501851   -7.2931301    769.73461  0.023573889  0.023268743            5 
 2722000   0.82115457   -7.3206297    766.88643  0.023478032  0.023261901            4 
 2723000   0.80810234   -7.3101701     767.4304  0.023486057   0.02325509            3 
 2724000   0.81379417   -7.3217979     767.4776  0.023478879  0.023248311            5 
 2725000   0.82419305   -7.3665911    767.20444  0.023461909  0.023241495            6 
 2726000   0.82867215   -7.3405644    767.62579  0.023466183  0.023234698            3 
 2727000   0.82531009   -7.3239089    770.00873  0.023530398  0.023227906            5 
 2728000   0.79122164   -7.3226797    771.06412  0.023554011  0.023221166            5 
 2729000   0.80673916   -7.3353752      768.238  0.023459081   0.02321441            6 
 2730000   0.84290523   -7.3144278    769.08324  0.023476289  0.023207644            7 
 2731000    0.8352226   -7.3123438    769.70025  0.023486521  0.023200898            4 
 2732000    0.8094625   -7.3393883    769.28796  0.023465348  0.023194153            4 
 2733000   0.81171414   -7.3635639    768.10532  0.023420701    0.0231874            6 
 2734000   0.80179008   -7.3418364    769.93109  0.023467785  0.023180679            5 
 2735000   0.81644064   -7.3536979    768.48204  0.023415053  0.023173918            8 
 2736000   0.84065363   -7.3648028    767.10634  0.023364594   0.02316712            8 
 2737000   0.82215711   -7.3421252    768.41808  0.023395996  0.023160304            9 
 2738000   0.81824493   -7.3531364    769.00565  0.023405334   0.02315348            6 
 2739000   0.82764669   -7.3293909    768.58626  0.023384029  0.023146671            4 
 2740000   0.81494096    -7.323341    768.67315  0.023378137   0.02313991            4 
 2741000   0.82647202   -7.3417286    769.85671  0.023405591  0.023133127            6 
 2742000   0.82551903   -7.3787942    768.90568  0.023368152  0.023126347            6 
 2743000   0.79779869   -7.3420452    769.14287  0.023366839  0.023119573            5 
 2744000   0.81860426   -7.3225953    769.01817  0.023354536  0.023112818            8 
 2745000   0.81550842   -7.3332896    770.32137  0.023385591  0.023106063            2 
 2746000   0.81407566   -7.3372286    770.31178  0.023376784  0.023099286            3 
 2747000   0.79915997   -7.3505862    770.67321  0.023379238  0.023092514            5 
 2748000   0.80360809    -7.346789    771.33493  0.023390797  0.023085736            5 
 2749000   0.82869435   -7.3211602    770.74135  0.023364295   0.02307901            6 
 2750000   0.81241249   -7.3351132    773.11015   0.02342758    0.0230723            5 
 2751000   0.81966298   -7.2882604    769.17153  0.023299756   0.02306559            3 
 2752000   0.81915265   -7.3572193    771.25525  0.023354386  0.023058876            6 
 2753000   0.80266206   -7.3649003    769.52974  0.023293672  0.023052143            6 
 2754000   0.82421596   -7.3425425    770.51344  0.023314979   0.02304541            4 
 2755000   0.80255558   -7.3181075     771.8933  0.023348255  0.023038658            7 
 2756000   0.82111977   -7.3239832    770.28971  0.023291295  0.023031892            2 
 2757000   0.80893963   -7.3688617    769.36542  0.023254909   0.02302517            4 
 2758000   0.80735624   -7.3652438    771.86537  0.023322014  0.023018411            5 
 2759000   0.82962956   -7.3555194    770.64972  0.023276843  0.023011665            7 
 2760000    0.8106681   -7.3735781    769.89805  0.023245714  0.023004934            7 
 2761000   0.81648656    -7.339448    771.87287  0.023296899  0.022998216            4 
 2762000   0.83286475   -7.3272971    772.13414  0.023296347  0.022991518            6 
 2763000   0.80462739   -7.3538932    772.25823  0.023291659  0.022984776           12 
 2764000   0.79017706   -7.3662853    771.42494  0.023258109  0.022978045            5 
 2765000   0.81218017   -7.3762936    771.92892  0.023264886  0.022971293            6 
 2766000   0.80377196   -7.3241541    772.22527  0.023265404  0.022964572           10 
 2767000   0.81897039   -7.3458276    772.26209  0.023258104  0.022957894            2 
 2768000   0.79215265    -7.354986    772.70033  0.023262895  0.022951224            3 
 2769000   0.81423823    -7.361366    771.23532  0.023210404   0.02294453            4 
 2770000   0.80141595   -7.3495341    772.20609   0.02323123   0.02293782            4 
 2771000   0.82145359   -7.3500481     773.4239   0.02325947  0.022931144            4 
 2772000   0.83084412    -7.366007    772.49962  0.023223293  0.022924437            7 
 2773000   0.80307403    -7.361774    772.12341  0.023203612  0.022917725            4 
 2774000   0.80276936    -7.357257    772.04629  0.023192931  0.022911035            8 
 2775000   0.80792355   -7.3385441    771.56323  0.023170067  0.022904314           10 
 2776000   0.78207338   -7.3536423    771.17489  0.023150063  0.022897574            5 
 2777000   0.82374018   -7.3382596    772.76099  0.023189323  0.022890826           20 
 2778000   0.80904498   -7.3474481    770.24615  0.023105536  0.022884097            4 
 2779000   0.81343356   -7.3763918    770.89647  0.023116723  0.022877349            4 
 2780000   0.80447338   -7.3910773    770.87221   0.02310768  0.022870566            7 
 2781000   0.81082908    -7.365767    771.13026  0.023107104  0.022863792            8 
 2782000   0.81111155   -7.3995772    770.51749  0.023080443  0.022857045            3 
 2783000   0.82014106   -7.3774191    772.01073  0.023116862  0.022850286            7 
 2784000   0.79923644   -7.3487127    772.20604  0.023114405  0.022843575            5 
 2785000   0.79860302   -7.3897587    771.40604  0.023082168   0.02283685            9 
 2786000   0.81513925   -7.3731094    772.78044  0.023114993  0.022830102            5 
 2787000    0.8020743   -7.4062467    770.06259  0.023025433  0.022823325           11 
 2788000   0.80486061   -7.3762367    771.79307  0.023068899  0.022816578            5 
 2789000   0.81403306   -7.3827674    772.30687  0.023075979  0.022809841            8 
 2790000   0.80539539   -7.3451189    772.55817  0.023075214  0.022803163            5 
 2791000   0.81110992   -7.3686368    772.53196  0.023066164  0.022796502            5 
 2792000   0.80693496   -7.3645682    772.12999  0.023045905  0.022789778            4 
 2793000   0.81954052    -7.363707    771.41767    0.0230164   0.02278307            5 
 2794000   0.80659148   -7.3584991    772.67929  0.023045791  0.022776322            4 
 2795000   0.81401282   -7.3398347    773.28902  0.023055725  0.022769595            9 
 2796000   0.80602265   -7.3466521    773.59832  0.023056698  0.022762905            7 
 2797000   0.79012621   -7.3606532    772.66647  0.023020691  0.022756189            2 
 2798000   0.82423486   -7.3667908    773.16641  0.023027353  0.022749481            4 
 2799000   0.79641577   -7.3493671    772.16245  0.022989236  0.022742813           10 
 2800000   0.79937608   -7.3648376    772.49673  0.022990974  0.022736099            6 
 2801000   0.81225029   -7.3635256    773.23814  0.023004824  0.022729416            3 
 2802000   0.80795096   -7.3361248     774.0847  0.023021791  0.022722764            6 
 2803000   0.80748268   -7.3481631    774.00356  0.023011165  0.022716094            3 
 2804000    0.8055052   -7.3473702    773.77718  0.022996231  0.022709423            7 
 2805000   0.79915849   -7.3350766    773.31703  0.022974362   0.02270277            4 
 2806000   0.80938533   -7.3583479    775.33243  0.023026028  0.022696117            4 
 2807000   0.81539447   -7.3415121    776.54623   0.02305386  0.022689505           11 
 2808000   0.80793127   -7.3801644    776.17712  0.023034696  0.022682914            2 
 2809000   0.78445525   -7.3581342     776.2398  0.023028355  0.022676301            3 
 2810000    0.7860096   -7.3680738    776.08158  0.023015468  0.022669687            8 
 2811000   0.79043178   -7.3527227    776.12784  0.023008652  0.022663086            6 
 2812000   0.78739939    -7.359698    777.13702  0.023030376  0.022656463            8 
 2813000   0.80194533   -7.3605052    776.46568  0.023002301  0.022649837            4 
 2814000   0.80085026   -7.3829755    774.44965  0.022934425  0.022643153            3 
 2815000   0.80144502   -7.3742449    775.12403  0.022946241    0.0226365            4 
 2816000   0.80700165   -7.3755928    775.68731  0.022954762  0.022629836            4 
 2817000   0.81910358   -7.3441021    774.35461  0.022907189  0.022623196            3 
 2818000   0.82187409   -7.3571599    776.95968  0.022976096   0.02261659            3 
 2819000   0.80675592   -7.3748091    775.48924  0.022924478  0.022609977            3 
 2820000   0.80814466   -7.3633745    775.91596  0.022928959  0.022603384            8 
 2821000   0.79538178   -7.3659843    776.31975  0.022932759  0.022596781           11 
 2822000    0.8236438   -7.3463873     776.1034  0.022918243  0.022590226            4 
 2823000   0.81987687   -7.4017916    773.60839  0.022836474  0.022583633            7 
 2824000   0.79866504   -7.3616887    775.83105  0.022893976  0.022577015            3 
 2825000    0.8146526   -7.3823029    776.28531  0.022899272  0.022570446            8 
 2826000   0.79907653    -7.335651    778.60506  0.022959574  0.022563887            4 
 2827000   0.80052409   -7.3838321    775.10381  0.022848243  0.022557306            8 
 2828000   0.80928076   -7.3824759    775.96082  0.022865418  0.022550729            5 
 2829000   0.79359264    -7.334541    777.88152  0.022913913  0.022544113            3 
 2830000   0.79653879   -7.3637709    776.52673  0.022865923   0.02253748            4 
 2831000   0.79885572   -7.3738576    775.95642  0.022841058  0.022530899            5 
 2832000   0.81382922   -7.3716056    775.28716  0.022813299  0.022524273            4 
 2833000   0.80351536    -7.368883    775.88184  0.022822739  0.022517626            5 
 2834000   0.80403726   -7.3803867    776.63914  0.022836954  0.022510972            2 
 2835000   0.78687717   -7.3853714    775.64211  0.022799592  0.022504328            5 
 2836000   0.79912948   -7.3732299    775.51655  0.022787863  0.022497709            2 
 2837000   0.79823878   -7.3799054    778.27372  0.022860819  0.022491069            4 
 2838000    0.8038694   -7.3709822    776.02727    0.0227868  0.022484429            2 
 2839000   0.79258122   -7.3466579    777.34388  0.022817421  0.022477787            7 
 2840000   0.80261824   -7.3918571    776.51709  0.022785126  0.022471162            3 
 2841000   0.77493027   -7.3748685     778.5662  0.022837211  0.022464524            5 
 2842000    0.8006014   -7.3746128    777.22643  0.022789891  0.022457889            4 
 2843000    0.7982931   -7.3648553    776.69555  0.022766313  0.022451265           10 
 2844000   0.80534165   -7.3545607    776.27452  0.022745972  0.022444631            3 
 2845000     0.795603   -7.3872183    776.03823  0.022731055   0.02243804            2 
 2846000   0.81002131   -7.3593441    777.46551   0.02276486  0.022431444            7 
 2847000   0.79807265   -7.3958222    779.02841  0.022802611  0.022424831           14 
 2848000   0.81324239   -7.3790926    776.21338  0.022712236  0.022418248            4 
 2849000   0.79961655   -7.3463859    781.05273  0.022845815  0.022411688            5 
 2850000   0.78922535   -7.4033968    776.08377  0.022692508   0.02240509            6 
 2851000   0.78044802   -7.3807019    777.53046  0.022726834  0.022398485            4 
 2852000   0.78731765   -7.3887586    775.68256  0.022664871  0.022391878            5 
 2853000   0.81585918   -7.3979936    775.75828  0.022659139   0.02238527            4 
 2854000   0.80856012   -7.3605611    776.79582  0.022681494  0.022378666            5 
 2855000   0.78488736    -7.398824    778.08045  0.022711046  0.022372055            5 
 2856000    0.7930184   -7.3649871    777.74525  0.022693314  0.022365478            4 
 2857000   0.79379551   -7.3415037    780.15714  0.022755721   0.02235891            6 
 2858000   0.78835846   -7.3698545    777.44756  0.022668753  0.022352317            4 
 2859000   0.77268231   -7.3788752    776.91125  0.022645192  0.022345726            4 
 2860000   0.78092177   -7.3784207    779.82057  0.022722045  0.022339145            4 
 2861000   0.79249281   -7.3783219    779.25229   0.02269755   0.02233259            4 
 2862000   0.78174072     -7.40065    778.62447  0.022671339     0.022326            6 
 2863000    0.7918803   -7.3938277    777.97541  0.022644528  0.022319421            7 
 2864000   0.79307363   -7.3798132     780.1722  0.022700541  0.022312857            6 
 2865000   0.80197772   -7.3845134    780.03888   0.02268874   0.02230631            4 
 2866000   0.78668136   -7.3953032    779.59745  0.022667988  0.022299769            6 
 2867000    0.7930562   -7.3801824    778.53716  0.022629263  0.022293201            2 
 2868000   0.78023175   -7.4053076    778.11043  0.022608974  0.022286565            9 
 2869000    0.7938384   -7.3983468    778.04428  0.022599172  0.022279953            3 
 2870000   0.78244221   -7.4287182    776.51177  0.022546799  0.022273342            4 
 2871000   0.79653839   -7.4103173    779.02822  0.022611988  0.022266735            3 
 2872000   0.77308093   -7.3925278    778.16628  0.022579105   0.02226014            7 
 2873000   0.79190311    -7.396257     780.0692  0.022626442  0.022253545            3 
 2874000   0.79395997   -7.4113658    778.06435  0.022560437  0.022246965            2 
 2875000   0.79753444   -7.3806766    780.31509  0.022617829  0.022240405            3 
 2876000   0.79140968   -7.3992348    778.79102  0.022565804  0.022233827            4 
 2877000   0.79079949   -7.4061705    776.18151  0.022482375  0.022227225            4 
 2878000    0.8062301   -7.4073529    778.43444  0.022539797  0.022220583            6 
 2879000    0.7941407   -7.3947476    780.17503   0.02258235  0.022213954            3 
 2880000   0.79833369   -7.3913011    780.32695  0.022578905  0.022207393            6 
 2881000   0.77842463   -7.4187648    781.11901  0.022593978  0.022200846            3 
 2882000    0.7883604   -7.3824378    778.00116  0.022495985   0.02219431            5 
 2883000   0.78786482   -7.3891629    780.31188  0.022554974  0.022187793            8 
 2884000   0.80200824   -7.3789555    780.60147  0.022555521  0.022181293           11 
 2885000   0.78026505   -7.3737546    781.15612  0.022563724  0.022174805            6 
 2886000   0.79162601   -7.3967541    780.04435  0.022523803   0.02216829            9 
 2887000   0.78717008   -7.3888921    781.62249  0.022561554  0.022161761            9 
 2888000   0.80834004   -7.3905775     780.7359   0.02252816   0.02215523            4 
 2889000   0.79178447   -7.3861502    782.11372  0.022560105  0.022148694            8 
 2890000   0.78132232   -7.3930961    781.08396  0.022522605  0.022142185            6 
 2891000   0.78285923    -7.385984    780.78455  0.022506184  0.022135705            5 
 2892000   0.80533701   -7.3732351    782.05863  0.022535115  0.022129243            4 
 2893000   0.77271447   -7.3958105    780.04699   0.02246938  0.022122768            5 
 2894000   0.79074371    -7.409431    781.16914  0.022493928  0.022116303            9 
 2895000   0.79578622   -7.4251788    780.23579  0.022459292  0.022109814            3 
 2896000    0.7950266   -7.4162207    780.77914  0.022467171  0.022103325            6 
 2897000    0.7962196   -7.3655065    784.09229   0.02255472  0.022096904            4 
 2898000   0.79351324   -7.4045268    780.00112  0.022429294  0.022090445            9 
 2899000   0.78448174   -7.3979833    781.09281  0.022452938  0.022083938            8 
 2900000   0.77711279   -7.3820914    780.20874  0.022419791  0.022077467            7 
 2901000   0.79629346   -7.3952742    780.56536  0.022422307   0.02207097            8 
 2902000   0.79386394   -7.3866858    782.84069  0.022479919  0.022064514            3 
 2903000   0.78526499   -7.3950741    780.24467  0.022397654  0.022058044            4 
 2904000   0.77304996   -7.4060826    780.02916  0.022383757  0.022051579            7 
 2905000   0.78622634   -7.3579211    783.57349  0.022477725  0.022045124            8 
 2906000   0.78113772    -7.378215    782.49888  0.022439174  0.022038685            4 
 2907000   0.77064732   -7.3997655      782.931  0.022443842  0.022032231            3 
 2908000   0.79216998   -7.4026675    780.92133  0.022378534  0.022025723            3 
 2909000   0.78275477   -7.3968067    781.67244  0.022392358   0.02201924           10 
 2910000   0.79638805   -7.4060541    782.70871  0.022414339   0.02201275            8 
 2911000   0.77281513   -7.4032747    782.51474  0.022401086  0.022006266            7 
 2912000    0.7862132   -7.3802571    782.21681  0.022384867  0.021999784           12 
 2913000   0.78101537   -7.4008403    781.20335  0.022348191  0.021993268            8 
 2914000   0.78531653   -7.3848886    780.92839  0.022332658  0.021986753            4 
 2915000   0.80264222   -7.3834035    781.08352  0.022329432  0.021980289            9 
 2916000   0.78776122   -7.3805096    782.97101  0.022375715  0.021973796            2 
 2917000   0.78424413   -7.3952576    782.66277  0.022359238  0.021967291            5 
 2918000   0.78179906    -7.376114    781.86045  0.022328663  0.021960763            6 
 2919000   0.78810748   -7.4008738    782.72744  0.022345765  0.021954253            5 
 2920000   0.79124667   -7.4201192    781.92573  0.022315232  0.021947697            3 
 2921000   0.77733841   -7.3996357    781.62164  0.022298917  0.021941155            4 
 2922000   0.78762569   -7.4013295    780.49632  0.022259192   0.02193462            4 
 2923000   0.79786809   -7.4186284    779.15822  0.022213429  0.021928057            5 
 2924000   0.78258466   -7.3768957     782.6699  0.022305914  0.021921523            5 
 2925000   0.77527567   -7.4073314     779.0739  0.022195838  0.021915013            4 
 2926000    0.7882779    -7.413837    781.57906  0.022259599   0.02190848            9 
 2927000   0.79116185   -7.3733919    782.73043  0.022284775  0.021901963            3 
 2928000   0.77837901   -7.3966653    782.47298  0.022269837  0.021895502            4 
 2929000   0.78751196   -7.3966802    781.68305  0.022239759  0.021889035            5 
 2930000   0.78954735   -7.4013673    781.36454   0.02222311  0.021882572            2 
 2931000     0.806903    -7.397311    782.59579  0.022250534  0.021876102            2 
 2932000   0.77686881   -7.4150789     782.9721  0.022253641  0.021869606            3 
 2933000   0.78713721   -7.3998451    782.67854  0.022237713  0.021863119            6 
 2934000    0.7853512   -7.4119402    783.08453  0.022241665  0.021856633            4 
 2935000   0.78634147   -7.4219883    782.13515  0.022207131   0.02185015            9 
 2936000   0.78742399   -7.3859262    783.08756    0.0222266  0.021843693            9 
 2937000   0.78072534   -7.4178787     783.0745  0.022218661  0.021837194            5 
 2938000   0.78593002    -7.423848     782.1415  0.022184635  0.021830722            2 
 2939000   0.79325404   -7.3889084    784.55256  0.022245451  0.021824262            3 
 2940000    0.7960574   -7.4266928    783.59533  0.022210752   0.02181781            2 
 2941000   0.78272224   -7.4241323    783.48521   0.02220008  0.021811336            5 
 2942000   0.79209833   -7.4159639    782.53987  0.022165756  0.021804853            6 
 2943000   0.79222012   -7.4340525    780.67204  0.022105336  0.021798342            7 
 2944000   0.76159153   -7.4293231    781.63844  0.022125182   0.02179184           15 
 2945000   0.78219834   -7.4076058    783.91873  0.022182194  0.021785365            5 
 2946000   0.77140159    -7.422512    782.79739  0.022142945  0.021778877            4 
 2947000   0.77346105   -7.4182996    783.76237  0.022162718  0.021772384            5 
 2948000   0.76494779   -7.4310615     783.0328  0.022134577   0.02176587            2 
 2949000   0.80084752      -7.4331    781.02457  0.022070323  0.021759323            5 
 2950000   0.76901616   -7.4382708    781.98976  0.022090106  0.021752793            5 
 2951000   0.76806113   -7.4361077    781.92392  0.022080761  0.021746281            4 
 2952000   0.76674394   -7.4442151    784.00611   0.02213206  0.021739778            7 
 2953000   0.77232273   -7.4226489    782.63222  0.022085795  0.021733289            3 
 2954000   0.78884467   -7.4383533    784.33959  0.022126483  0.021726815            5 
 2955000   0.78689473   -7.4113696     783.9582   0.02210824  0.021720331            6 
 2956000   0.78747247   -7.4122767    783.99675  0.022101848   0.02171387            2 
 2957000   0.77471213   -7.4363937    782.11438  0.022041325  0.021707403            2 
 2958000   0.76553155   -7.4061391    784.39981  0.022098259  0.021700923            3 
 2959000   0.76255647   -7.4369894    783.83355  0.022074844  0.021694487            6 
 2960000   0.77898608   -7.4135123    783.48887  0.022057682  0.021688041            7 
 2961000   0.77160991   -7.4140019    783.20531  0.022042252  0.021681575            3 
 2962000   0.76787528   -7.3860749    783.67888  0.022048134  0.021675111            3 
 2963000   0.78043616   -7.4280534     781.6574   0.02198384  0.021668631            5 
 2964000   0.79097841   -7.4284748    781.10317   0.02196084   0.02166217            4 
 2965000   0.77886107   -7.4567659    783.00891  0.022006996   0.02165567            4 
 2966000   0.78034079   -7.4342155    783.45684  0.022012161  0.021649181            6 
 2967000   0.77129783    -7.395122    784.75781  0.022041282  0.021642741            2 
 2968000   0.77796835   -7.3814083    787.16298  0.022101386  0.021636325            7 
 2969000   0.76912796   -7.4024074    784.01356  0.022005545  0.021629913            7 
 2970000   0.79084412   -7.4029309     785.6566  0.022044237  0.021623498            5 
 2971000   0.79573131   -7.4140767     783.5159  0.021976773  0.021617039           11 
 2972000   0.77368733   -7.4115127    784.25031  0.021989971  0.021610568            6 
 2973000   0.79314462   -7.4323804    782.19062  0.021924841  0.021604086            8 
 2974000     0.781548   -7.4012856    782.49792  0.021926079  0.021597596            5 
 2975000   0.77254761   -7.4229983    783.26039  0.021940067  0.021591124            6 
 2976000   0.76224886   -7.4259811    784.27947  0.021961231  0.021584668           16 
 2977000   0.76799523   -7.4163169    784.37045  0.021956401  0.021578207           20 
 2978000   0.78504263   -7.4147153    784.03534   0.02193965  0.021571744            4 
 2979000   0.75528857   -7.3975371     784.7141  0.021951273    0.0215653            5 
 2980000   0.77750798   -7.4176659     785.6457  0.021969958  0.021558854            5 
 2981000   0.77556949   -7.4483165    783.46724   0.02190169  0.021552381            7 
 2982000   0.75629392     -7.42388    786.26211  0.021972449  0.021545941            5 
 2983000   0.78477114   -7.4240608    783.97102  0.021901079  0.021539489            5 
 2984000   0.78424143   -7.4370052    783.52355  0.021881243  0.021533039            5 
 2985000   0.76259012   -7.4257922    783.94331  0.021885631  0.021526597           10 
 2986000   0.77822415   -7.4246122    784.91271  0.021905356  0.021520141           11 
 2987000    0.7656508   -7.4255276    785.70297  0.021920069  0.021513694            5 
 2988000   0.76230462   -7.4207173    787.72959  0.021969255  0.021507246            3 
 2989000   0.77233423   -7.4430254    784.48808  0.021871531  0.021500827            3 
 2990000   0.75193043   -7.4457355    787.54069  0.021949295  0.021494364           11 
 2991000   0.77773257   -7.4316497     783.3946   0.02182644    0.0214879            6 
 2992000   0.76478062   -7.4101157    785.56756  0.021879667  0.021481427            6 
 2993000   0.79631611   -7.4315651    785.00357  0.021856654  0.021474963            6 
 2994000   0.75646778   -7.4215781    785.06348  0.021851021  0.021468506            4 
 2995000   0.75602171   -7.4166958    785.96193  0.021868724  0.021462079            5 
 2996000   0.76553133   -7.4266275    786.20432  0.021868166  0.021455663            4 
 2997000   0.78010476   -7.4169055      785.528  0.021842064  0.021449234            4 
 2998000   0.77550916   -7.4529215    786.59703  0.021864494    0.0214428            5 
 2999000   0.76617522   -7.4326729    785.41551  0.021824372  0.021436361            4 
 3000000    0.7864632   -7.4137078    786.11977   0.02183666   0.02142993            3 
 3001000   0.77755397   -7.4399034    785.13675  0.021802087  0.021423498            3 
 3002000   0.76223462   -7.4525712    784.54994  0.021778535  0.021417064            5 
 3003000   0.75274138   -7.4146943    787.14955  0.021843422  0.021410626            5 
 3004000   0.76997241   -7.4319375      786.308  0.021812805  0.021404214            4 
 3005000   0.75187444   -7.4195482    784.98463  0.021768847  0.021397806            4 
 3006000   0.78194306   -7.4314474    786.67937  0.021808588  0.021391372            5 
 3007000   0.77494344   -7.4173128    786.45093  0.021795004   0.02138496            4 
 3008000    0.7704356   -7.4266946    786.90846  0.021800434  0.021378572            8 
 3009000    0.7634071   -7.4220744    785.82766  0.021763256  0.021372158            4 
 3010000   0.77634251   -7.4404515    785.95537  0.021759562  0.021365734            3 
 3011000   0.76312687   -7.4467211    785.67439  0.021744558  0.021359322           10 
 3012000   0.79003787   -7.4289499    783.56823  0.021679068  0.021352891            7 
 3013000   0.77262915   -7.4503356    785.44194  0.021723696  0.021346463            5 
 3014000   0.75846198   -7.4498765    785.54293   0.02171928  0.021340063            3 
 3015000   0.77017669   -7.4484379    787.12581  0.021755827  0.021333652            4 
 3016000   0.79619027   -7.4574459    784.70542  0.021681737  0.021327233            8 
 3017000   0.76771689    -7.440702    786.30496  0.021718732  0.021320792            3 
 3018000    0.7639262   -7.4430345    788.12584  0.021761814  0.021314359            4 
 3019000   0.76550019   -7.4502554    788.47869  0.021764345  0.021307965            3 
 3020000   0.76559918   -7.4367014    786.91454  0.021713977  0.021301584            4 
 3021000   0.75769605   -7.4077501    787.70495  0.021728593  0.021295201            5 
 3022000   0.77850472   -7.4335306    785.97073  0.021673581  0.021288789            4 
 3023000    0.7808005   -7.4448746    786.59559  0.021683636  0.021282413            4 
 3024000   0.76294862   -7.4374163    787.81972  0.021710199  0.021276002            5 
 3025000    0.7535025   -7.4305871    788.07132  0.021709954  0.021269627           11 
 3026000   0.75938415   -7.4285323    788.80864  0.021723084  0.021263254            4 
 3027000   0.75647778   -7.4533771    786.80948  0.021660871  0.021256909            9 
 3028000   0.76948786   -7.4581306     788.0846   0.02168881  0.021250542            6 
 3029000   0.76605239   -7.4501506    787.87078  0.021675767  0.021244151            3 
 3030000   0.76948174   -7.4501426     786.2891  0.021625113  0.021237775            4 
 3031000   0.76717109   -7.4801034    786.90074  0.021634794   0.02123138            3 
 3032000   0.78144655    -7.407156    788.02521  0.021658564  0.021224981            6 
 3033000   0.75137694   -7.4479104    789.13719  0.021681976  0.021218602            8 
 3034000   0.76898022   -7.4426622    787.26015  0.021623274  0.021212208            6 
 3035000    0.7704095   -7.4406803    785.89375  0.021578631  0.021205822            4 
 3036000   0.75949131   -7.4631899      787.522  0.021616216  0.021199428            6 
 3037000   0.76112011   -7.4552182    787.00274  0.021594851  0.021193032            6 
 3038000   0.76545831   -7.4543419    787.78758  0.021609271  0.021186658           10 
 3039000   0.76934692   -7.4391109    787.19518  0.021585916  0.021180289            3 
 3040000   0.76719952   -7.4442288    788.46805  0.021613708  0.021173902            4 
 3041000   0.74818637   -7.4417146    787.61322  0.021583175  0.021167483            2 
 3042000   0.76236469   -7.4588114    787.17272  0.021564013  0.021161048            2 
 3043000   0.76642349   -7.4715905    788.02318  0.021580216   0.02115463            5 
 3044000   0.74469127   -7.4526388    788.28707  0.021580351  0.021148222            3 
 3045000   0.76858089   -7.4501023    787.64604  0.021555721  0.021141848            6 
 3046000   0.75223127   -7.4667122    788.14262   0.02156223  0.021135441           10 
 3047000   0.75420271   -7.4758669    789.31323  0.021587168  0.021129032            3 
 3048000   0.76417229   -7.4653253    788.20441  0.021549771  0.021122655            5 
 3049000   0.76360328   -7.4660151    788.18595  0.021542198  0.021116311            3 
 3050000   0.77291309   -7.4641709    789.57545    0.0215731  0.021109916            6 
 3051000    0.7829215   -7.4600736    788.99233  0.021550102  0.021103531           11 
 3052000    0.7789721   -7.4372596    788.22446  0.021522075  0.021097183            4 
 3053000   0.75440333   -7.4635577    789.47286  0.021549101  0.021090829            4 
 3054000    0.7656618   -7.4531121    789.69035  0.021547979   0.02108449            8 
 3055000   0.77297554   -7.4177134    789.18904  0.021527251  0.021078154            5 
 3056000   0.76507118   -7.4505048    787.17688  0.021465338  0.021071787            7 
 3057000   0.76839425   -7.4349913    788.72943  0.021500639  0.021065419            5 
 3058000   0.76406449   -7.4609736    787.28671  0.021454292   0.02105904            7 
 3059000   0.75391402   -7.4434278     788.7282  0.021486548  0.021052685           10 
 3060000   0.76188384   -7.4631412    787.51971  0.021446615  0.021046335            7 
 3061000   0.74412268   -7.4559768    787.49951  0.021439059  0.021039953            6 
 3062000   0.76255397   -7.4507396    788.64153  0.021463138  0.021033565           12 
 3063000   0.75550393   -7.4559509    789.39891  0.021476736  0.021027194            8 
 3064000   0.74148882   -7.4566631    789.98518  0.021485672  0.021020825            6 
 3065000   0.76137755   -7.4359976    788.71906  0.021444238   0.02101447            9 
 3066000   0.75447087   -7.4673143    789.33188    0.0214539  0.021008105            8 
 3067000    0.7476903   -7.4166817    788.49637  0.021424203   0.02100173            6 
 3068000   0.78734685   -7.4566837    788.35886  0.021413485   0.02099539            3 
 3069000   0.77948427    -7.464207     789.9255  0.021449047  0.020989043            5 
 3070000    0.7520243   -7.4659993    787.68109  0.021381137  0.020982684            4 
 3071000   0.74461303   -7.4545368    788.67256  0.021401079  0.020976322            3 
 3072000   0.76859751   -7.4644132     787.8234  0.021371077  0.020969959            3 
 3073000   0.75846686   -7.4747249    788.28813  0.021376726  0.020963591            3 
 3074000   0.75803373   -7.4821889    788.51393  0.021375893  0.020957264            2 
 3075000   0.75491735   -7.4681632    790.18322  0.021414179  0.020950951            4 
 3076000   0.74513527   -7.4484953    789.78952  0.021396552  0.020944636            7 
 3077000   0.75491384   -7.4413534    791.75539  0.021442839  0.020938347            3 
 3078000   0.75559198     -7.46052    788.74863  0.021354468  0.020932013            3 
 3079000   0.74023113   -7.4442691    788.78096  0.021348407  0.020925681           12 
 3080000   0.76273487   -7.4573024    789.44474  0.021359436  0.020919357            5 
 3081000   0.75175975   -7.4765787    789.04097  0.021341582  0.020913022           15 
 3082000    0.7417822   -7.4669449    788.69749   0.02132537  0.020906703            5 
 3083000   0.74997678   -7.4110829    790.46352  0.021366189  0.020900382            5 
 3084000   0.76452258    -7.468004    789.27557  0.021327161  0.020894069            3 
 3085000   0.77880791   -7.4686608    788.44427  0.021297792   0.02088773            7 
 3086000   0.76374207   -7.4482726    789.18845  0.021310987  0.020881389            3 
 3087000   0.75721169   -7.4518386    788.43917  0.021283856  0.020875052           12 
 3088000   0.75430906   -7.4573632    788.24901  0.021271832  0.020868684            7 
 3089000   0.74948476   -7.4721484    789.55375  0.021300144  0.020862332            7 
 3090000    0.7501946   -7.4813995    789.01601  0.021278749  0.020855992            8 
 3091000   0.76964007   -7.4708007    789.03603  0.021272405  0.020849622            4 
 3092000   0.75767372   -7.4418853    789.06352  0.021266266  0.020843295            3 
 3093000   0.74160756   -7.4793836    790.58825   0.02130047  0.020836966            3 
 3094000   0.75729341   -7.4492925    789.90305  0.021275131  0.020830624            8 
 3095000   0.74985646   -7.4282981    790.69007  0.021289447   0.02082429            8 
 3096000   0.75008342   -7.4658929    790.10713   0.02126688  0.020817913           12 
 3097000   0.75530283   -7.4741292    789.52827  0.021244437  0.020811532            8 
 3098000   0.77345432   -7.4858848    788.18764  0.021201518  0.020805144           10 
 3099000   0.76098143    -7.484631    787.84113  0.021185359  0.020798772           11 
 3100000   0.76623902   -7.4618733    788.60592  0.021199084  0.020792414            4 
 3101000   0.76662807   -7.4775447    789.78321  0.021223885  0.020786055           11 
 3102000   0.76265464   -7.4830489    789.11359  0.021199054  0.020779723            7 
 3103000   0.75276131   -7.4656971    789.67619  0.021207331  0.020773388            3 
 3104000   0.75531373   -7.4466911    789.31696  0.021190855   0.02076704            5 
 3105000   0.75059229   -7.4654331     790.1753  0.021207067  0.020760698            5 
 3106000   0.75855547   -7.4520222    788.90645  0.021166196  0.020754363            3 
 3107000   0.73562255   -7.4760282    790.37681   0.02119882   0.02074804            4 
 3108000   0.74135512   -7.4488114    790.77122  0.021202574  0.020741704            6 
 3109000   0.75455966   -7.4493021    790.31771  0.021183599  0.020735362           10 
 3110000   0.76477239   -7.5198676    786.98321  0.021087439  0.020728997            6 
 3111000   0.76578486   -7.4932313    788.04088  0.021108992  0.020722614           15 
 3112000   0.74226611   -7.4984188    788.93743  0.021126217  0.020716241           11 
 3113000   0.74851554   -7.4837554    789.20176  0.021126506    0.0207099           19 
 3114000   0.75696476    -7.474258    789.62547  0.021131061  0.020703578           29 
 3115000   0.74902418   -7.4993486    788.56195  0.021095825  0.020697241            6 
 3116000   0.73544386   -7.4439215    791.65788  0.021171852  0.020690923            8 
 3117000   0.74114721      -7.4941    789.79019  0.021115127  0.020684608           12 
 3118000   0.78214417   -7.4740374    788.97625  0.021086601  0.020678285            9 
 3119000   0.74064916    -7.478712    789.20425  0.021085932  0.020671955            8 
 3120000   0.74205431    -7.484525    790.49877  0.021113749  0.020665648            6 
 3121000   0.76464518   -7.4587442    789.06915  0.021068812  0.020659332            6 
 3122000   0.74420828   -7.5028521    790.89085  0.021110689  0.020653009            3 
 3123000   0.75114005   -7.4787146    788.94422  0.021051986  0.020646694            4 
 3124000   0.75327934   -7.4629798    789.32388  0.021055375  0.020640402            4 
 3125000   0.75584649   -7.4995344     790.8766  0.021090043  0.020634096            5 
 3126000   0.73876844   -7.4885867    791.27711  0.021093973  0.020627795            5 
 3127000   0.74545652   -7.4929197    791.44158   0.02109161  0.020621465            5 
 3128000   0.76557836   -7.4559933    792.52949   0.02111385  0.020615171            3 
 3129000    0.7616205   -7.4856826    791.46177  0.021078666  0.020608891            2 
 3130000   0.75389892   -7.4578577    791.71741  0.021078738  0.020602573            4 
 3131000   0.75249203   -7.4937084    790.28494   0.02103388   0.02059625            6 
 3132000   0.74990898   -7.4981156    790.44326  0.021031377  0.020589931            6 
 3133000   0.73987903   -7.5027575     792.2034  0.021071481   0.02058361            6 
 3134000   0.73296697   -7.4875282    789.87019  0.021002717   0.02057729            6 
 3135000   0.75531989   -7.4987399    789.85287  0.020995557  0.020570966            3 
 3136000    0.7542117   -7.4903958    791.23191  0.021025508  0.020564661            8 
 3137000   0.73915042    -7.467986    790.81872  0.021007829  0.020558339            6 
 3138000   0.75952625   -7.4788188    790.58508   0.02099493   0.02055202            8 
 3139000   0.74687894   -7.4705593    789.23116  0.020952298  0.020545748            7 
 3140000   0.74462349   -7.4808324    792.09206  0.021021551  0.020539452            7 
 3141000   0.75827877   -7.4815432    791.67638   0.02100383  0.020533194            2 
 3142000    0.7446704   -7.4921555     790.3741  0.020962606  0.020526936            3 
 3143000   0.74479184   -7.4982679     789.9666  0.020945132  0.020520674            5 
 3144000   0.73378815   -7.4598389     793.5618  0.021033763   0.02051441            7 
 3145000   0.73703627    -7.462119     791.7792  0.020979841  0.020508162           10 
 3146000   0.75240504   -7.4514621    792.94407  0.021004028  0.020501924           14 
 3147000   0.75759674   -7.4681223    791.87651  0.020969084  0.020495684            8 
 3148000   0.74360515   -7.4604188     793.6661  0.021009797  0.020489443            8 
 3149000   0.75827284   -7.5076558    790.87848  0.020929355  0.020483164            5 
 3150000   0.75300906    -7.494762    792.05647  0.020953875  0.020476924            4 
 3151000   0.75274402   -7.4903532    790.30897   0.02090101  0.020470658            6 
 3152000   0.74766297   -7.4714278     790.2662  0.020893248  0.020464375           10 
 3153000   0.75050157   -7.4819471    791.15569   0.02091013    0.0204581            5 
 3154000   0.75165032   -7.4984237    791.74631  0.020919106  0.020451827            8 
 3155000   0.75097512   -7.4899245    789.17102  0.020844454  0.020445537            3 
 3156000   0.74983413   -7.4816006    791.36051  0.020895662  0.020439265            3 
 3157000   0.74617114   -7.4674896    792.75345  0.020925812  0.020433001            6 
 3158000   0.75468758   -7.4947132    791.89255  0.020896468  0.020426732            8 
 3159000   0.74115456    -7.482383     791.8284  0.020888161  0.020420471            8 
 3160000   0.73325557   -7.4848283    792.02936   0.02088685  0.020414209            7 
 3161000   0.74243626   -7.4916164    792.36699  0.020889143  0.020407949            6 
 3162000   0.74618589   -7.4891959    791.83477  0.020868511  0.020401694           11 
 3163000   0.74409509   -7.4657468    793.27338  0.020899815  0.020395453            4 
 3164000   0.73951536   -7.4936176    791.80009  0.020854406  0.020389225            5 
 3165000   0.74290044   -7.4981957    792.27071  0.020860208  0.020383022            7 
 3166000   0.76762422   -7.4644935    791.63369  0.020836852  0.020376824            5 
 3167000   0.74403026   -7.4914895    793.03988  0.020867274  0.020370612            7 
 3168000   0.74582506   -7.4627811    794.08764  0.020888248  0.020364414            7 
 3169000   0.75401298   -7.4877364    791.79499  0.020821368  0.020358215            6 
 3170000   0.73327733   -7.4843761    794.51015  0.020886176  0.020351988            4 
 3171000   0.74105912   -7.4545096    794.25001  0.020872753   0.02034581            6 
 3172000   0.75416364   -7.5006693    792.36919  0.020816761  0.020339617            6 
 3173000   0.72821514   -7.4764327    794.33767  0.020861899    0.0203334            3 
 3174000   0.75101844   -7.4814125    790.41392  0.020752308  0.020327188           11 
 3175000   0.75592772   -7.5117564    792.09896  0.020789999  0.020320949           12 
 3176000   0.74514436   -7.5083228    791.44135  0.020766198  0.020314711            5 
 3177000   0.73796557   -7.4831455    792.95172  0.020799279  0.020308493            8 
 3178000   0.74595817   -7.5059925    792.45134  0.020779614   0.02030228            5 
 3179000   0.73608378    -7.536623    792.52865  0.020775103   0.02029606            3 
 3180000   0.75224386    -7.512526    791.59027   0.02074398  0.020289832            4 
 3181000   0.74804108   -7.4988787    794.18395  0.020805406  0.020283624            7 
 3182000   0.73605579   -7.4749585    794.08948  0.020796393  0.020277447            4 
 3183000    0.7434914    -7.468746    793.86276  0.020783924   0.02027127            7 
 3184000    0.7497395   -7.4917085    793.21286  0.020760387  0.020265099            5 
 3185000   0.75236052   -7.5118812    792.96556  0.020747398  0.020258923            6 
 3186000   0.73270405   -7.4935615     795.1415    0.0207978  0.020252754            5 
 3187000   0.73944293   -7.5227781    794.33176  0.020770101  0.020246569           11 
 3188000   0.74681539   -7.4986739    794.28757  0.020762431  0.020240374            2 
 3189000   0.73774072   -7.4878013    793.67011  0.020739786  0.020234221           10 
 3190000   0.74450032   -7.5026767    794.09845  0.020744474  0.020228086            3 
 3191000   0.73677829   -7.4928706    794.29286   0.02074305  0.020221947            4 
 3192000    0.7416771     -7.47415    793.80017  0.020723689  0.020215805            4 
 3193000   0.73985203   -7.4884945    792.91574  0.020694116   0.02020968            6 
 3194000   0.75266651   -7.4741161    794.75599   0.02073565  0.020203566            7 
 3195000    0.7276689    -7.502002    793.90711  0.020707019  0.020197406            5 
 3196000   0.73817542       -7.465    794.82095  0.020724368  0.020191286            7 
 3197000   0.74219169   -7.4751742    794.56884  0.020711314  0.020185163            8 
 3198000   0.73549652   -7.4699845    794.76407  0.020709925  0.020179041            4 
 3199000   0.74226988   -7.5115063    795.78875  0.020730143  0.020172923            4 
 3200000   0.73994953   -7.5213747    795.54859  0.020717411  0.020166805            3 
 3201000   0.73307895   -7.5243386    793.94424  0.020669172   0.02016066            5 
 3202000   0.76605414   -7.5103171    793.02543  0.020638805  0.020154503            5 
 3203000   0.75437961   -7.5130501     796.4319  0.020720988   0.02014838            9 
 3204000   0.74223909   -7.4862204    794.24564  0.020657658  0.020142256            4 
 3205000   0.73055986   -7.4951494     795.5967  0.020686342  0.020136193            4 
 3206000   0.75080978   -7.4928765    794.63301   0.02065484  0.020130092            7 
 3207000   0.74917956   -7.5082574    793.85369  0.020628149  0.020123988            9 
 3208000   0.75815868   -7.5315427    794.84408  0.020647446  0.020117879            3 
 3209000   0.72864004   -7.4957696      795.217  0.020650696  0.020111771            6 
 3210000   0.72522373   -7.4856265    794.54932  0.020626929   0.02010564            4 
 3211000   0.74487142   -7.5248914    795.96767  0.020657315  0.020099516            5 
 3212000    0.7427186   -7.4781318    796.38832  0.020661797  0.020093397            4 
 3213000   0.74444194   -7.5011635    795.93164  0.020643522  0.020087279            7 
 3214000   0.73649633   -7.4701208    797.31803  0.020673046   0.02008116            7 
 3215000   0.74857772   -7.5336482    794.35226  0.020589742  0.020075035            4 
 3216000   0.72937118   -7.5405382    794.94295  0.020598646  0.020068929            6 
 3217000   0.73164953   -7.5020341    794.44237  0.020579276    0.0200628            6 
 3218000   0.74441836   -7.5068591    794.94154  0.020585807  0.020056674            4 
 3219000   0.73066856   -7.5007715    793.30815  0.020537127  0.020050533           11 
 3220000   0.75278471   -7.5214231    795.33928  0.020583315  0.020044383            8 
 3221000   0.73099936   -7.5150849    794.08892  0.020544575  0.020038236            4 
 3222000   0.75006593   -7.5213835    791.88134  0.020481102  0.020032079            5 
 3223000   0.72880954   -7.5317719    795.05696  0.020556856  0.020025924            5 
 3224000   0.73638853   -7.5175416    793.49136  0.020510012  0.020019752           10 
 3225000   0.74612683    -7.516191    794.29713  0.020524474  0.020013589            4 
 3226000    0.7513642   -7.4987288    794.70509   0.02052865  0.020007447            3 
 3227000   0.74893061   -7.5167851     794.6639  0.020521225   0.02000131            9 
 3228000   0.73216502   -7.5102255    794.35988  0.020507019  0.019995171           14 
 3229000   0.74111969   -7.4785017    795.99258  0.020542804  0.019989051            6 
 3230000   0.72433002   -7.5213135    795.30514  0.020518708  0.019982965            8 
 3231000   0.74439003   -7.4925931    796.26981  0.020537238  0.019976868           11 
 3232000   0.70925054   -7.5298805    792.52741  0.020434391  0.019970737            5 
 3233000   0.74152988   -7.5091177    795.25294  0.020498323  0.019964581           10 
 3234000   0.74162161   -7.5278514    793.67288   0.02045127  0.019958419            3 
 3235000   0.73639895   -7.5426875     792.4151  0.020412548  0.019952249            3 
 3236000   0.72830403      -7.5341    794.94319  0.020471343  0.019946087            6 
 3237000   0.72871557   -7.5436519    793.53812  0.020428847  0.019939948            5 
 3238000   0.73549639   -7.5334628    795.77674  0.020480151  0.019933822            4 
 3239000   0.73360447    -7.546851    795.23197  0.020459812  0.019927691            7 
 3240000   0.73167211   -7.5299989    796.30871  0.020481191  0.019921553           11 
 3241000   0.72572251   -7.5263377    793.61719  0.020405667   0.01991542            4 
 3242000    0.7178381   -7.5138161    794.80382  0.020429874  0.019909271            7 
 3243000   0.72892492   -7.5208674    794.86105  0.020425045   0.01990314            4 
 3244000   0.73985849   -7.5075605    794.45019  0.020408194   0.01989703            8 
 3245000   0.72940774    -7.512806    793.51966  0.020378009  0.019890912            4 
 3246000   0.72615472   -7.5205867    795.77104   0.02042953  0.019884787            4 
 3247000   0.73695865   -7.5285961    792.68241  0.020343969  0.019878658            4 
 3248000   0.74119393   -7.4927056     794.1522  0.020375416  0.019872521            8 
 3249000   0.73654555   -7.5224497    794.60283  0.020380702  0.019866379            4 
 3250000   0.73249624   -7.5300968    792.75886   0.02032715  0.019860224            4 
 3251000    0.7239094   -7.5281702    793.75903  0.020346535  0.019854066            8 
 3252000   0.72302067   -7.5377114    795.41102  0.020382611   0.01984794            6 
 3253000   0.73107646   -7.5026664    794.08028  0.020342255  0.019841802            5 
 3254000   0.73560177   -7.5379594    793.08559   0.02031053  0.019835669            6 
 3255000   0.72838141    -7.495878    794.87782  0.020350175  0.019829564            4 
 3256000   0.73859528   -7.4964126    795.64584  0.020363581  0.019823481            3 
 3257000   0.71193132   -7.5298388    794.51918  0.020328502  0.019817359            4 
 3258000   0.74557539    -7.551212    794.39661  0.020319127  0.019811234           11 
 3259000   0.72989103   -7.5206834    794.05172  0.020304074  0.019805109           13 
 3260000   0.73091244   -7.4920775     795.1629   0.02032625  0.019798985            7 
 3261000   0.71593597   -7.5017245    794.84544  0.020311904  0.019792887            5 
 3262000   0.74101617   -7.5330347    795.35955  0.020318811  0.019786776            5 
 3263000   0.72686788   -7.5016187    794.84458  0.020299433  0.019780646           11 
 3264000   0.71982107   -7.5408695    794.74064   0.02029056  0.019774529            4 
 3265000   0.73083604   -7.5143017    796.09646   0.02031895  0.019768408            8 
 3266000   0.72956346   -7.5056579    796.27388  0.020317255  0.019762309            8 
 3267000   0.72458717   -7.4982418    798.06886  0.020356822  0.019756223            6 
 3268000   0.72619494   -7.5204049    795.87766  0.020294718  0.019750141            7 
 3269000   0.72107835   -7.5311417    795.62474  0.020282062  0.019744028            6 
 3270000    0.7307761   -7.5179197    795.30971  0.020267832  0.019737929            5 
 3271000   0.74583185   -7.5148213    795.72498  0.020272215  0.019731812           10 
 3272000   0.71716865   -7.5139545    795.15022  0.020251381  0.019725717           14 
 3273000   0.74306102   -7.5271092    795.25737  0.020247922  0.019719607           10 
 3274000   0.71576857   -7.5520412    794.88778   0.02023233  0.019713505            4 
 3275000   0.72612106   -7.5539104    796.05361  0.020255817  0.019707412            6 
 3276000   0.72526365   -7.5204962    796.77594  0.020268008   0.01970132            5 
 3277000    0.7200705   -7.5428891    794.79158  0.020211361  0.019695232            5 
 3278000   0.73781305   -7.5278733    795.94272   0.02023446  0.019689161            8 
 3279000   0.72406659   -7.5595794    796.08211  0.020231832  0.019683083           14 
 3280000   0.72516462   -7.5405661    796.59861  0.020238786  0.019677018            5 
 3281000   0.72262386   -7.5408497    795.77641  0.020211734  0.019670953            3 
 3282000   0.71174943   -7.5296751    795.99152  0.020211038  0.019664866            3 
 3283000   0.72782648   -7.5604268    795.67076   0.02019674  0.019658782            5 
 3284000   0.73547187    -7.551133     794.4691  0.020160097  0.019652724            5 
 3285000   0.70849443   -7.5248863    796.22051  0.020198389  0.019646665            8 
 3286000   0.72349058   -7.5429766    796.46443  0.020198429   0.01964061            4 
 3287000   0.72956871   -7.5561085    794.94871  0.020153856  0.019634537            7 
 3288000   0.71129257   -7.5212848    795.47501  0.020161066  0.019628466            5 
 3289000   0.72216745   -7.5499078    796.25281  0.020174643  0.019622418            7 
 3290000   0.73181579   -7.5405241    796.40132  0.020172272   0.01961635            7 
 3291000    0.7217608   -7.5558832    795.58841  0.020145559  0.019610278            5 
 3292000   0.73641763   -7.5428771    796.13962  0.020153393  0.019604195            8 
 3293000   0.73499343   -7.5710878    796.13329  0.020147112  0.019598127            3 
 3294000   0.73256266   -7.5401507    794.31714   0.02009505  0.019592055            4 
 3295000   0.72918899   -7.5360443    798.17477  0.020186514   0.01958599            4 
 3296000    0.7182245   -7.5496447    795.22922  0.020105917   0.01957994            7 
 3297000   0.72596302   -7.5279887    797.62293  0.020160321  0.019573875            8 
 3298000   0.72236714   -7.5589841    796.15517  0.020117121  0.019567809            8 
 3299000   0.71280105   -7.5455253    796.04477  0.020108234  0.019561761            5 
 3300000   0.72804136   -7.5400605    797.96944  0.020150744  0.019555698            7 
 3301000    0.7201855   -7.5454234    797.00908  0.020120395  0.019549652            4 
 3302000   0.72930022   -7.5322938     798.8075  0.020159688  0.019543613            5 
 3303000   0.72466081   -7.5456979    796.11654  0.020085693  0.019537596            8 
 3304000   0.72746471   -7.5321475    798.15619  0.020131058  0.019531565           11 
 3305000   0.72368242   -7.5192942    797.72954  0.020114209  0.019525532            8 
 3306000   0.72314957   -7.5432813    798.29885  0.020122476  0.019519493            5 
 3307000   0.71844105   -7.5282327    797.11431  0.020086541  0.019513456            7 
 3308000   0.72329614   -7.5456364    794.78052  0.020021678  0.019507393            4 
 3309000    0.7066733   -7.5534194    795.91797  0.020044272  0.019501337            8 
 3310000   0.72695689   -7.5424458    796.50972  0.020053115   0.01949529            4 
 3311000   0.72802803   -7.5655598    796.80915  0.020054595  0.019489252            5 
 3312000    0.7152179   -7.5620235    796.94993  0.020052082    0.0194832            4 
 3313000   0.72515076   -7.5306996    797.62015  0.020062887  0.019477176            4 
 3314000   0.73480706   -7.5335229     796.5928     0.020031  0.019471173           11 
 3315000   0.71134701   -7.5345348    796.57917  0.020024615  0.019465136            5 
 3316000   0.72294113   -7.5625743    796.21673  0.020009467  0.019459088            4 
 3317000   0.72597344   -7.5664351    795.88575   0.01999512  0.019453035            8 
 3318000   0.71949209   -7.5670485    795.42621  0.019977552  0.019446995            5 
 3319000   0.72868335   -7.5687135    797.30828  0.020018788  0.019440967            5 
 3320000   0.73709633   -7.5536898    796.89579  0.020002404  0.019434926            6 
 3321000   0.71066878   -7.5667928    797.24484   0.02000514  0.019428898            3 
 3322000   0.72458259   -7.5480948    796.01243  0.019968203  0.019422865            7 
 3323000   0.70672868   -7.5581076    795.10962  0.019939553   0.01941684           14 
 3324000   0.71182065   -7.5523136    797.17272  0.019985277  0.019410807            7 
 3325000   0.70726822   -7.5300407     796.4606  0.019961419  0.019404792            8 
 3326000   0.70709772   -7.5302586    796.12784   0.01994708   0.01939878            3 
 3327000   0.70904212    -7.558975    796.74684  0.019956588  0.019392767            9 
 3328000   0.72308071   -7.5453995    795.60854  0.019922089  0.019386762            6 
 3329000   0.72290771   -7.5831652    797.39696  0.019960873  0.019380744            4 
 3330000   0.72358299   -7.5427575    796.53951  0.019933421  0.019374722           13 
 3331000   0.71839671   -7.5510177     796.8119  0.019934251  0.019368706            5 
 3332000   0.73611056   -7.5574029    798.40099  0.019968012  0.019362708           11 
 3333000   0.70518074   -7.5626267    799.68748  0.019994186  0.019356724           13 
 3334000   0.71313844   -7.5460893     798.5745   0.01996037  0.019350744            7 
 3335000   0.71123141   -7.5572981    797.82918  0.019935762  0.019344751            5 
 3336000   0.73940489   -7.5439008    798.20647   0.01993921  0.019338748           13 
 3337000   0.72836492   -7.5446743    796.44298  0.019889196  0.019332766            5 
 3338000   0.71278762   -7.5667529    797.25409  0.019903487  0.019326791            3 
 3339000   0.71795662   -7.5446302    795.76704  0.019860413  0.019320786            6 
 3340000    0.7118477   -7.5492183    797.65521  0.019901577  0.019314806            4 
 3341000   0.72351642   -7.5440442    798.09296  0.019906539  0.019308831           18 
 3342000   0.71620788   -7.5702691    795.98498   0.01984802  0.019302877            4 
 3343000   0.70863559   -7.5553995    797.11298  0.019870201  0.019296902            4 
 3344000   0.71233788    -7.557538    797.06317  0.019863018  0.019290947            6 
 3345000   0.71291169    -7.552859    797.38097  0.019864997  0.019284971            8 
 3346000   0.71623265    -7.551857    798.90441  0.019897002  0.019278983            6 
 3347000   0.70843193    -7.559407    796.78791   0.01983836  0.019272996            5 
 3348000    0.7334321   -7.5721249    797.50665  0.019850325  0.019267022           17 
 3349000   0.71244261   -7.5629475    796.81891  0.019827285   0.01926105           11 
 3350000   0.69802193   -7.5495492     798.6627  0.019867231   0.01925508            6 
 3351000   0.71688667   -7.5507833    796.34503  0.019803666  0.019249089            3 
 3352000   0.70325691   -7.5646178    797.86884  0.019835641    0.0192431            9 
 3353000   0.72613438   -7.5576861    798.12035  0.019835977  0.019237119            5 
 3354000   0.71055149   -7.5604331    797.85267  0.019823412  0.019231161            3 
 3355000   0.71722853   -7.5706925    798.66553  0.019837693  0.019225216            8 
 3356000   0.70072917   -7.5672079    799.45454  0.019851374  0.019219259            4 
 3357000   0.70541167   -7.5793687    797.83508   0.01980526  0.019213275            5 
 3358000   0.70920968   -7.5675203    798.24832  0.019809617  0.019207296            5 
 3359000   0.71418122   -7.5989994    797.75213  0.019791409   0.01920131            5 
 3360000   0.73233212    -7.569261    796.13103  0.019745313  0.019195323            8 
 3361000   0.70988164   -7.5753804    797.20059  0.019765957  0.019189334            6 
 3362000   0.70371822   -7.5590552    797.58781  0.019769676  0.019183355            3 
 3363000   0.72819508   -7.5808844    798.86557   0.01979546  0.019177382            5 
 3364000   0.72269129   -7.5837085    797.50996  0.019755994  0.019171416           12 
 3365000    0.7042562   -7.5586586    797.61078   0.01975262  0.019165446           14 
 3366000   0.70966452   -7.5642187    797.56598  0.019745642  0.019159462            9 
 3367000   0.71809685    -7.585552    798.28345  0.019757535  0.019153504           11 
 3368000   0.70659901   -7.5853646    798.82929  0.019765175  0.019147559            9 
 3369000   0.71672273   -7.5736097    798.48781  0.019750861  0.019141615            9 
 3370000   0.71428951   -7.5671243    799.83872  0.019778406  0.019135675           10 
 3371000    0.7073167   -7.5590323    796.57937  0.019691965  0.019129733           10 
 3372000   0.71969805   -7.5605426    797.81419  0.019716642  0.019123806            5 
 3373000   0.71985208   -7.5460095    797.94762  0.019714093  0.019117861            5 
 3374000   0.72356758    -7.562727    798.64721  0.019725529  0.019111939            9 
 3375000   0.70959107   -7.5719461    797.60312  0.019693904  0.019106023            4 
 3376000   0.70942397   -7.5557606      798.125  0.019700953  0.019100096            4 
 3377000   0.71368859     -7.57398    797.14652  0.019670973  0.019094183            5 
 3378000   0.69836961   -7.5526083     799.4995  0.019723197  0.019088261            3 
 3379000    0.7021671   -7.5745842    799.35282  0.019713742  0.019082351            9 
 3380000   0.70689374   -7.5501185    800.96103   0.01974756  0.019076433            6 
 3381000   0.71122319   -7.5664452    797.47871  0.019655889  0.019070515            8 
 3382000   0.71338667   -7.5594965    800.02361  0.019712784  0.019064598            9 
 3383000   0.70277786    -7.551933    800.33589  0.019714649  0.019058664            4 
 3384000    0.6961055   -7.5790915    798.43084   0.01966191  0.019052745            5 
 3385000   0.71016834   -7.5939661    798.65095   0.01966152  0.019046831            7 
 3386000   0.72798977   -7.5829753    798.56407  0.019653575  0.019040907            5 
 3387000   0.70135364   -7.5768117    797.17324  0.019613553  0.019034987            4 
 3388000   0.69774416   -7.5684045     799.8206   0.01967288  0.019029063            5 
 3389000   0.70683453   -7.5988306    798.17519  0.019626615  0.019023142            9 
 3390000   0.69786056   -7.5721443    799.08991  0.019643312  0.019017217            9 
 3391000   0.72219813    -7.570077    797.21027  0.019591327   0.01901132            7 
 3392000   0.70068911   -7.5758999    799.28818    0.0196366   0.01900542            6 
 3393000   0.71320205   -7.5895842    798.84205  0.019619856  0.018999512            5 
 3394000    0.7113503    -7.579485    796.96024  0.019567871  0.018993594            6 
 3395000   0.70388385   -7.5652036     797.5938  0.019577658  0.018987659            9 
 3396000   0.69239517     -7.56232    798.55916  0.019595582  0.018981737            6 
 3397000    0.7071386   -7.5947478    798.55553  0.019589724  0.018975828            6 
 3398000     0.708445    -7.589258    798.40703  0.019580318  0.018969905           10 
 3399000   0.69963283   -7.5695655    798.19036  0.019569245  0.018963981            5 
 3400000   0.69909903   -7.5604497    799.84267  0.019603987  0.018958058            4 
 3401000    0.7025659   -7.5988566    796.99853  0.019528534  0.018952122            6 
 3402000   0.71010839   -7.6071552    800.09379  0.019598613  0.018946183            5 
 3403000   0.71022846   -7.5998385    799.49182  0.019578113  0.018940235           14 
 3404000   0.70694076   -7.6170124    797.91264  0.019533701  0.018934299            9 
 3405000   0.70743023   -7.5925133    798.46756  0.019541546  0.018928368            7 
 3406000   0.73132503   -7.5965104    798.02171    0.0195249  0.018922446            7 
 3407000   0.71791597   -7.6031845    797.01426  0.019494527  0.018916513           11 
 3408000   0.70264254   -7.5851285    798.02428  0.019513505  0.018910612           11 
 3409000    0.7117674   -7.5914128    798.69083  0.019524074  0.018904694            5 
 3410000   0.70054684    -7.571594    799.46783  0.019537337  0.018898791            6 
 3411000   0.72090832   -7.6069785    797.91922  0.019493776  0.018892893            3 
 3412000   0.71424582   -7.5876553    797.25321  0.019471796  0.018886973            3 
 3413000   0.69856487   -7.6205031     799.4418  0.019519528  0.018881062            7 
 3414000   0.69547702   -7.5956132    798.17528  0.019482896  0.018875142            4 
 3415000   0.71241334   -7.5971638    798.98204  0.019496877  0.018869237            4 
 3416000   0.69979507   -7.5779586    797.58169  0.019457009  0.018863326            5 
 3417000   0.69857359    -7.572787    797.71284  0.019454513  0.018857424           12 
 3418000   0.70767919   -7.5743789     798.2713  0.019462437  0.018851512            6 
 3419000   0.70372766     -7.58102    797.90147   0.01944773  0.018845596            4 
 3420000    0.7115302   -7.5669313    798.84539  0.019465044  0.018839703            4 
 3421000   0.69881294   -7.5895635    798.41708   0.01944892  0.018833813            5 
 3422000   0.72970473   -7.6094591    798.85829  0.019453981  0.018827915            8 
 3423000   0.70770736   -7.5875468     798.3524  0.019435982  0.018822038            9 
 3424000   0.71534315   -7.5956932    798.67564  0.019438173  0.018816152           11 
 3425000   0.71205041   -7.5831076     799.2981  0.019447642  0.018810249            8 
 3426000   0.70454236   -7.6057946    798.53936   0.01942351  0.018804356           10 
 3427000   0.71693482   -7.5659947    798.39982  0.019414449  0.018798482           11 
 3428000   0.71704567   -7.5821203    799.29583  0.019430568  0.018792621            8 
 3429000   0.70277469   -7.5965614     799.3787  0.019426915  0.018786751            3 
 3430000   0.68760844   -7.6105227    799.11624  0.019414875  0.018780862           13 
 3431000   0.70954192   -7.5959752    798.91394  0.019404302  0.018774994            9 
 3432000   0.69043739    -7.568487    800.39304  0.019434563  0.018769129            9 
 3433000   0.68957005   -7.6226336    798.28761  0.019377794  0.018763253            4 
 3434000   0.69595927   -7.5901636    797.55881  0.019354465  0.018757357            4 
 3435000   0.68984935   -7.6002346    798.95507  0.019382704   0.01875148            5 
 3436000   0.70617718   -7.6056715      798.765  0.019372453  0.018745599           12 
 3437000   0.71696305   -7.5965683    797.82766   0.01934409  0.018739719            5 
 3438000   0.71015076   -7.5837892    798.67689  0.019359048   0.01873383            5 
 3439000   0.69259006   -7.6184664    797.57794  0.019326789  0.018727937            5 
 3440000   0.72114273   -7.5839267     798.9391  0.019354145  0.018722042            4 
 3441000   0.70319126   -7.5970985    799.21438  0.019355187  0.018716156           12 
 3442000   0.70103688   -7.6203685    797.36076  0.019304686  0.018710266            4 
 3443000   0.70042455   -7.6162625     799.6197  0.019353754  0.018704387            6 
 3444000   0.68915985   -7.5983306    798.26446  0.019315342  0.018698524            7 
 3445000   0.70189394   -7.6227559    800.86956  0.019372752  0.018692664            7 
 3446000   0.70923045   -7.6135874    798.31829  0.019305433  0.018686811            7 
 3447000   0.69238879   -7.6083525    798.96218  0.019315399   0.01868095            9 
 3448000   0.70037268   -7.6013893    797.84832  0.019282877  0.018675097            6 
 3449000   0.69734867    -7.598499    798.22462  0.019286378  0.018669237           14 
 3450000   0.70367567   -7.5789393    799.42112  0.019309689  0.018663397           13 
 3451000   0.70220061   -7.6027074    800.42298  0.019328286  0.018657558            6 
 3452000    0.7089622   -7.6035565    799.49443  0.019300271  0.018651701            8 
 3453000   0.68051936   -7.5955203    800.64748  0.019322509  0.018645863           11 
 3454000    0.6910204   -7.6023503    800.27629  0.019307959  0.018640017            8 
 3455000   0.70311137   -7.6111556    799.92702  0.019293947  0.018634155            8 
 3456000   0.69857503   -7.6228744     800.8643  0.019310964  0.018628303            6 
 3457000    0.7006345   -7.6181845    797.43111  0.019222619  0.018622432           17 
 3458000   0.70096738   -7.6180285    797.33208  0.019214673  0.018616557           13 
 3459000   0.70213232   -7.6130574    798.36435  0.019233988  0.018610709            9 
 3460000   0.71001256   -7.6092955    797.37407  0.019204578  0.018604869            8 
 3461000   0.69761122   -7.6086241    797.71108  0.019207143  0.018599007            8 
 3462000   0.69928033   -7.5932611    798.10214  0.019211009  0.018593153            9 
 3463000    0.6901058   -7.6149681    799.17779  0.019231345  0.018587307           12 
 3464000   0.68395172    -7.627695    799.41095  0.019231403  0.018581447            7 
 3465000   0.69292459   -7.6100128    799.83693  0.019236097   0.01857558            3 
 3466000   0.69618553   -7.6018318    799.42011  0.019220526  0.018569722            9 
 3467000   0.70080421   -7.5888782      800.584  0.019242957  0.018563869            7 
 3468000   0.69562471   -7.6042876    798.14006  0.019178683  0.018558022            5 
 3469000   0.69521424   -7.6132652    799.94838  0.019216594  0.018552167            6 
 3470000   0.70532852   -7.6109167    798.17116  0.019168376  0.018546321            8 
 3471000   0.70693385   -7.6031817    799.45261  0.019193619   0.01854048           12 
 3472000   0.71348895   -7.6183063    798.13415  0.019156446  0.018534638            5 
 3473000   0.70834898   -7.6022803     798.8039     0.019167  0.018528798            3 
 3474000   0.69315641   -7.6449802    797.89551  0.019139693   0.01852296            3 
 3475000   0.70188963   -7.6165912     799.4416  0.019171261  0.018517108            4 
 3476000   0.70507898   -7.6201029    798.60173  0.019145611  0.018511257            6 
 3477000   0.69300927   -7.5941854    799.61188  0.019164315  0.018505426            6 
 3478000   0.68124559   -7.6061485    798.90092   0.01914177  0.018499597            5 
 3479000   0.69461592   -7.6047012    802.36388  0.019219217  0.018493785            9 
 3480000   0.69553799   -7.6125882    801.14384  0.019184479   0.01848797            5 
 3481000   0.70729652   -7.6293694    798.95543  0.019126578  0.018482165            3 
 3482000    0.6936767   -7.5961454    800.64783  0.019161589  0.018476365           13 
 3483000   0.68839022   -7.5972886    800.62854  0.019155626  0.018470567            4 
 3484000   0.69124385   -7.5999652    801.89657  0.019180458  0.018464778            9 
 3485000   0.70763206   -7.6098254    802.01523  0.019177791  0.018458989            7 
 3486000   0.69846528   -7.6101267    800.77985  0.019142758  0.018453189            7 
 3487000   0.68485188   -7.6059759    801.14113  0.019145902  0.018447396            7 
 3488000   0.70079491   -7.5871623    800.76055  0.019131321  0.018441596            6 
 3489000   0.70207949   -7.6281082    799.34429   0.01909201  0.018435791           10 
 3490000    0.6956622   -7.6143168    799.73817  0.019095945  0.018429974            9 
 3491000   0.69723259    -7.626322    799.85133  0.019093176  0.018424164            6 
 3492000   0.68936605    -7.643001    800.90796  0.019112924  0.018418369            8 
 3493000   0.69333392   -7.6048102    798.73198  0.019055539   0.01841257           17 
 3494000   0.71264571   -7.5965768    798.90573  0.019054229  0.018406788            6 
 3495000   0.69252173   -7.5898009    799.52504  0.019063544  0.018401004            8 
 3496000   0.70080156   -7.6080002    801.11231  0.019095927  0.018395236            5 
 3497000   0.67937468   -7.6024695    800.64111  0.019079237  0.018389456            6 
 3498000   0.69726905   -7.6256743    800.18167  0.019062838  0.018383672            7 
 3499000   0.69357151   -7.5932334    800.91044  0.019074746  0.018377898            5 
 3500000   0.69039428   -7.6250774    799.21183  0.019028853  0.018372116            9 
 3501000   0.69651697   -7.6023531    800.28568  0.019048978  0.018366335            7 
 3502000    0.6875629   -7.6068288    799.85165  0.019033211  0.018360534           15 
 3503000   0.69707388   -7.6102314    798.12613  0.018986729  0.018354712           10 
 3504000   0.69086299   -7.6085096    799.96502  0.019025043  0.018348903           17 
 3505000     0.700347    -7.610897    798.19322   0.01897749  0.018343088           10 
 3506000   0.69290361   -7.6205519     798.6125  0.018982043  0.018337266           14 
 3507000   0.67559981   -7.6265013    799.07146  0.018987536  0.018331458            8 
 3508000   0.69824262   -7.6445771     798.8826  0.018977637  0.018325637            6 
 3509000   0.68472966   -7.6438713    799.27069  0.018981445  0.018319823            6 
 3510000   0.71320646   -7.6043598    798.86023  0.018966292  0.018314009            6 
 3511000   0.69252271   -7.6376775    799.33124   0.01897207  0.018308219            4 
 3512000   0.67918768   -7.6046724    799.21468  0.018963902   0.01830241            4 
 3513000   0.67417393    -7.626871    798.83659  0.018949535    0.0182966           16 
 3514000   0.69905673   -7.6408221    798.18351  0.018928655  0.018290775            8 
 3515000   0.68687576   -7.6287793    800.68747  0.018982633  0.018284972            7 
 3516000   0.69043138   -7.6411803    798.96571  0.018936426  0.018279155           14 
 3517000   0.68607146   -7.6341038    798.50775  0.018920191  0.018273344            6 
 3518000   0.67659868   -7.6278606       798.49  0.018914393   0.01826753            6 
 3519000   0.69045998    -7.618985    800.16842  0.018948764  0.018261732            4 
 3520000   0.68300543   -7.6185116    799.64433  0.018930974  0.018255961            7 
 3521000   0.67648508   -7.6166441    797.61586  0.018877588  0.018250168            4 
 3522000   0.68976408   -7.6513483     799.0721  0.018906684  0.018244362            7 
 3523000   0.68060934   -7.6446853    798.84803  0.018896017  0.018238572           17 
 3524000   0.68194504   -7.6137854     799.1468   0.01889772  0.018232791           10 
 3525000   0.69712235   -7.6015544    799.04651  0.018889988  0.018227001            3 
 3526000   0.68070951   -7.6282896     800.5069  0.018919146  0.018221237            4 
 3527000   0.68374767   -7.6175026    800.87451  0.018922467   0.01821546            4 
 3528000   0.68372246    -7.590074    800.31465   0.01890388  0.018209691            4 
 3529000   0.69678725   -7.6202338    798.77329  0.018862126  0.018203909            7 
 3530000   0.68412953   -7.6072292    798.38037  0.018847506  0.018198124            4 
 3531000    0.6764604   -7.6202269    799.88565  0.018877694  0.018192346           12 
 3532000   0.70242127   -7.6478777    799.61691  0.018866009  0.018186572           10 
 3533000   0.67899289   -7.6398879    798.61043  0.018836929  0.018180803            9 
 3534000    0.7004928   -7.6316728    798.43553  0.018827474  0.018175022            6 
 3535000   0.67452544   -7.6236624    799.91245  0.018856965   0.01816924            6 
 3536000   0.70188688   -7.6184803    799.11865  0.018832924   0.01816348            7 
 3537000   0.67234373   -7.6107847    799.94356  0.018847035  0.018157712            5 
 3538000   0.68562985   -7.6172923    800.26983  0.018849393  0.018151951           11 
 3539000   0.68388587    -7.636426    799.89585  0.018835261   0.01814619            4 
 3540000   0.69926159   -7.6383412    800.56991  0.018845808  0.018140431            9 
 3541000   0.68877025   -7.5971007    800.35172  0.018835351  0.018134687            6 
 3542000   0.68720099   -7.6142881    801.22696  0.018850625   0.01812895            6 
 3543000   0.67656363   -7.6352091    799.58475  0.018806679  0.018123209            5 
 3544000   0.68741343   -7.6077948    799.43178  0.018797775  0.018117478            7 
 3545000   0.69769721   -7.6342753    801.69129  0.018845588  0.018111753           12 
 3546000   0.70415291   -7.6245565    799.74049  0.018794428  0.018106026           13 
 3547000   0.67599865   -7.6227372     800.3088  0.018802481  0.018100286            8 
 3548000   0.68344787   -7.6155182    799.86044  0.018786651  0.018094551            8 
 3549000   0.68627011   -7.6405444    798.78874  0.018756193    0.0180888           10 
 3550000   0.68890596   -7.6370292    801.36814  0.018811459  0.018083051            7 
 3551000   0.69040937   -7.6509923    798.87458  0.018747643  0.018077294            8 
 3552000   0.68301662   -7.6202775    799.40275  0.018754757  0.018071536            4 
 3553000   0.67527478   -7.6420695    800.22044  0.018768657   0.01806579            8 
 3554000   0.69552566   -7.6393522      799.389   0.01874388   0.01806005            7 
 3555000   0.68306999   -7.6218075    800.35687  0.018761296   0.01805431           12 
 3556000   0.68902315   -7.6367612    801.01929  0.018771543  0.018048555            7 
 3557000   0.67708723   -7.6409805    800.36337  0.018750899  0.018042806            7 
 3558000    0.6864401   -7.6521785     798.9448  0.018712404  0.018037041            9 
 3559000   0.68752559   -7.6388175    797.78969    0.0186801  0.018031293           11 
 3560000   0.67732316   -7.6112386     800.6103  0.018740878  0.018025574            9 
 3561000   0.67880117    -7.646743      799.671  0.018713634  0.018019843           11 
 3562000    0.6830028   -7.6126118    799.96522  0.018715263  0.018014132            6 
 3563000   0.69332584   -7.6200255    800.16422  0.018714665  0.018008416            7 
 3564000    0.6827346   -7.6216107    800.08901  0.018707655  0.018002711            8 
 3565000   0.68366196   -7.6640528    799.94903  0.018699136  0.017997005            6 
 3566000   0.66914494   -7.6198706    800.95462  0.018717392  0.017991296            5 
 3567000   0.67230016   -7.6208652    802.27963  0.018743099  0.017985593            7 
 3568000    0.6924887   -7.6428629    801.21883   0.01871307  0.017979896           13 
 3569000   0.66704014   -7.6520035    798.67971  0.018648541  0.017974195            7 
 3570000   0.67890999   -7.6697698     798.6957  0.018643691  0.017968474            5 
 3571000   0.66442275    -7.636035    798.61279  0.018636535  0.017962765            4 
 3572000   0.68377621   -7.6566105    799.47063   0.01865133   0.01795705            5 
 3573000   0.68045889    -7.662842    799.48428  0.018646429  0.017951339            6 
 3574000   0.69379594   -7.6533216    797.59922  0.018597258  0.017945608            7 
 3575000   0.67307227   -7.6476794    800.15642  0.018651665  0.017939894            6 
 3576000   0.67761921   -7.6368766    800.16121  0.018646561    0.0179342            7 
 3577000   0.68418987   -7.6267305     799.0418  0.018615269  0.017928508            6 
 3578000   0.65748518   -7.6779146    799.75424  0.018626659  0.017922807            7 
 3579000   0.69279757    -7.650959    799.11955  0.018606677  0.017917117           10 
 3580000   0.66392385   -7.6431073    800.04729  0.018623075   0.01791142            3 
 3581000   0.69287745   -7.6629018    801.74165  0.018657304  0.017905736            8 
 3582000   0.67539066   -7.6674565    799.68504  0.018604249   0.01790004           11 
 3583000   0.67566257   -7.6332131    799.22192  0.018588285  0.017894355            5 
 3584000   0.67087625   -7.6427971    800.10914  0.018603728  0.017888684            4 
 3585000   0.67245604    -7.656485    800.13421  0.018599122  0.017883003            5 
 3586000   0.67088407   -7.6682974    800.84289  0.018610404  0.017877325            9 
 3587000   0.67270957   -7.6622623    798.19681  0.018543741  0.017871644           10 
 3588000   0.67224011   -7.6465152    800.64015  0.018595321  0.017865957            5 
 3589000   0.67170909   -7.6526908    800.90608  0.018596315  0.017860282            9 
 3590000   0.69150895   -7.6756718    800.26632  0.018576284  0.017854604            6 
 3591000    0.6873756   -7.6236556    799.50719  0.018553495   0.01784892            6 
 3592000   0.68100844   -7.6764267     798.8173  0.018532324  0.017843241            8 
 3593000   0.68231317   -7.6443396    799.59125  0.018545117   0.01783757            6 
 3594000   0.66583254   -7.6556091    800.15714  0.018553078  0.017831902            4 
 3595000    0.6674582   -7.6316824    799.76451  0.018538816  0.017826237           13 
 3596000   0.66795871   -7.6375271    801.53098  0.018574596   0.01782058            8 
 3597000   0.66956759   -7.6380675     800.6862  0.018549861  0.017814929            6 
 3598000   0.66399675   -7.6284718    800.08496   0.01853078  0.017809289           11 
 3599000   0.66875014   -7.6775379    800.91309  0.018544806  0.017803642            8 
 3600000   0.67238387    -7.662971     800.7272  0.018535352  0.017798007            7 
 3601000   0.66873317   -7.6424117    802.13512  0.018562786  0.017792365            7 
 3602000   0.68084225   -7.6467513    800.77638  0.018526198  0.017786728           14 
 3603000    0.6729808   -7.6261821    802.48081  0.018560478  0.017781091            8 
 3604000   0.67919343   -7.6431853    802.10341  0.018546601  0.017775459            9 
 3605000   0.67689842   -7.6620896    800.82482    0.0185119  0.017769845            9 
 3606000   0.67589509   -7.6572058    799.97388  0.018487102  0.017764227            6 
 3607000   0.67006665   -7.6755734    801.41271  0.018515218  0.017758606            5 
 3608000    0.6794753   -7.6580583    801.45385  0.018511037  0.017752968            7 
 3609000   0.66610475   -7.6675271    801.85019  0.018515059  0.017747322            7 
 3610000   0.67891413   -7.6668788     800.6437   0.01848208  0.017741664           10 
 3611000   0.67791384   -7.6897021    798.87069  0.018436045  0.017735993           11 
 3612000   0.67508663   -7.6688757    800.02067  0.018457472  0.017730341            8 
 3613000   0.67890629   -7.6670577    800.51763  0.018463826    0.0177247            6 
 3614000   0.67960544   -7.6677095    801.39522  0.018478953  0.017719074            5 
 3615000   0.68573793   -7.6480245    800.43585  0.018451725  0.017713449            9 
 3616000   0.67758101   -7.6700594    801.37004  0.018468152  0.017707817            8 
 3617000   0.67526691   -7.6665529    801.37643  0.018463193  0.017702187            7 
 3618000    0.6717023   -7.6710481    801.62112  0.018463726  0.017696553            6 
 3619000   0.67140862   -7.6887609    799.37001  0.018406788  0.017690909            9 
 3620000   0.66900049   -7.6581584    801.74671  0.018456416  0.017685283            6 
 3621000   0.68522251   -7.6624612    799.71421  0.018404543  0.017679666           12 
 3622000   0.66494772   -7.6823914    801.30783  0.018436127  0.017674054           12 
 3623000   0.67411143    -7.682409    800.86017  0.018420742  0.017668444            8 
 3624000   0.67568529   -7.6662577    800.17387  0.018399878  0.017662844            9 
 3625000   0.65914008   -7.6592099    801.62411   0.01842814  0.017657243            5 
 3626000   0.68037113   -7.6424615    800.98401  0.018408347  0.017651648            5 
 3627000   0.67275728   -7.6841805    801.02232  0.018404152  0.017646046            3 
 3628000   0.68548455   -7.6811202    800.31698  0.018382878  0.017640441            8 
 3629000   0.66605625   -7.6813949       802.57  0.018429549  0.017634834            5 
 3630000   0.67086574   -7.6783534     800.6104  0.018379486  0.017629232           15 
 3631000   0.66407929   -7.6458728    802.21338  0.018411213  0.017623639            7 
 3632000   0.67088543   -7.6513501    800.15374  0.018358887   0.01761806            5 
 3633000   0.67749553   -7.6727612    799.99567  0.018350208  0.017612465            5 
 3634000   0.66973834    -7.687503    800.29289  0.018351974  0.017606868            4 
 3635000   0.67703348    -7.686451    800.90171  0.018360883  0.017601272            5 
 3636000   0.67854234   -7.6599476    802.52682  0.018393079  0.017595689            6 
 3637000   0.65983403   -7.6469782    801.85572  0.018372645  0.017590113            8 
 3638000   0.65858463    -7.685011    800.64886   0.01833995  0.017584534           11 
 3639000   0.67570871   -7.6512124    801.98037  0.018365402  0.017578972            9 
 3640000   0.66550321   -7.6697869    801.81668  0.018356609  0.017573432            8 
 3641000   0.67118041     -7.67644    801.62831  0.018347256  0.017567892            6 
 3642000   0.66553296   -7.6560116    801.04585  0.018328891  0.017562338           10 
 3643000   0.68862371   -7.6327344    802.53881  0.018358011  0.017556803            5 
 3644000   0.67477792   -7.6671312    802.37601   0.01834925  0.017551265            8 
 3645000   0.67056085   -7.6678684     802.3817  0.018344346   0.01754571           14 
 3646000   0.66704219   -7.6581593    802.41265  0.018340022  0.017540169           11 
 3647000   0.65364916   -7.6645512    802.18012   0.01832968  0.017534627            8 
 3648000   0.66465766   -7.6397784    803.15747  0.018346982  0.017529074            8 
 3649000   0.67010903   -7.6774978    801.48166  0.018303683  0.017523527            6 
 3650000   0.66763619   -7.6727668    801.55676  0.018300383  0.017517979           12 
 3651000   0.66311108   -7.6624137    800.62009  0.018273991  0.017512423            9 
 3652000   0.67251089   -7.6741107    800.95853   0.01827671  0.017506861            8 
 3653000     0.663688   -7.6632989    801.96793  0.018294733  0.017501302            7 
 3654000   0.66123728   -7.6738277     802.1958  0.018294923  0.017495742            5 
 3655000   0.68253943   -7.6518932    800.54761  0.018252339  0.017490189           15 
 3656000   0.67535682   -7.6621197     801.7406  0.018274539   0.01748465           11 
 3657000   0.66388003   -7.6732248     801.4619  0.018263192  0.017479099            9 
 3658000   0.66362409   -7.6690007    802.26339  0.018276458  0.017473549           16 
 3659000    0.6635028   -7.6669864    803.51668  0.018300006  0.017468024            9 
 3660000   0.65635136   -7.6355882    802.59145   0.01827394  0.017462498           13 
 3661000   0.65374681   -7.6858631     802.9572  0.018277274  0.017456957            9 
 3662000   0.65628904   -7.7017407    799.68948  0.018197922  0.017451397           11 
 3663000   0.68211061   -7.6835449     801.8527  0.018242167  0.017445847           13 
 3664000   0.69143004   -7.6444052    803.36659   0.01827162  0.017440303            4 
 3665000   0.67089434   -7.6719702    801.68723   0.01822845  0.017434771            9 
 3666000   0.66426234     -7.67675    801.60331   0.01822157  0.017429223           11 
 3667000   0.66451796   -7.6744759    802.36186  0.018233839  0.017423679            9 
 3668000   0.66289856    -7.669623    800.90263  0.018195716  0.017418151            7 
 3669000   0.66891089   -7.6825714    802.63696  0.018230148  0.017412635            4 
 3670000   0.68107859   -7.6761611    800.40295  0.018174454  0.017407118            7 
 3671000   0.66914954   -7.6700113    801.17455  0.018187019   0.01740159            5 
 3672000   0.65902352   -7.6600784     801.8832  0.018198148  0.017396062            5 
 3673000   0.66175758   -7.6915332    802.65562  0.018210718   0.01739053            9 
 3674000   0.66624204   -7.7024918    802.32381  0.018198236  0.017384992           12 
 3675000   0.65897961   -7.6699594     801.4295  0.018173005  0.017379456           12 
 3676000   0.63970229   -7.6909661    801.32364  0.018165661  0.017373913            9 
 3677000   0.66524244   -7.7021606    800.45123  0.018140949   0.01736837            8 
 3678000   0.66223814   -7.6912887    800.57614  0.018138847  0.017362837            9 
 3679000   0.66763188   -7.6544869    800.85031  0.018140127   0.01735731            9 
 3680000   0.66390758   -7.6635792    799.77923  0.018110943  0.017351789           11 
 3681000   0.66931242   -7.6638825    800.20331  0.018115623  0.017346276           15 
 3682000   0.67697025    -7.701986    800.14287  0.018109335  0.017340749           10 
 3683000   0.65175329   -7.7159504     801.8333  0.018142667   0.01733522            8 
 3684000   0.66406793   -7.6875188    802.03415  0.018142285  0.017329685            4 
 3685000   0.66117516   -7.7004204    800.59402  0.018104795  0.017324162           13 
 3686000   0.65391347   -7.7058008    800.68914  0.018102033  0.017318632            8 
 3687000   0.66103311   -7.6877769    800.52359  0.018093382  0.017313093            6 
 3688000   0.65746082   -7.6687302     800.4399  0.018086585  0.017307554           13 
 3689000   0.66147468   -7.6829056    800.80985  0.018090039  0.017302015           10 
 3690000   0.66265698   -7.6740784    799.90451  0.018064691  0.017296464           13 
 3691000   0.68021849   -7.6751525    800.37578  0.018070437  0.017290936           14 
 3692000   0.66555715   -7.6967538    801.11499  0.018082227  0.017285417           11 
 3693000   0.65050942   -7.6582382    800.80837  0.018070412  0.017279895            7 
 3694000   0.64993158   -7.7067705    800.95603  0.018068851  0.017274382           20 
 3695000   0.66573387   -7.6871868    801.35386  0.018072933  0.017268867            5 
 3696000   0.66577825   -7.6897111     800.2294   0.01804269  0.017263343           10 
 3697000   0.65483564   -7.6920314    800.14394  0.018035884  0.017257819            7 
 3698000   0.65540861   -7.6949139    801.18151  0.018054388  0.017252292           15 
 3699000   0.67012028    -7.693414    799.86222  0.018019785  0.017246768            8 
 3700000   0.66851646   -7.7005062    800.33429  0.018025547  0.017241223            9 
 3701000   0.66191744   -7.7099248    800.28143  0.018019486  0.017235695            6 
 3702000   0.64759809   -7.7129016    800.84711  0.018027353  0.017230162           13 
 3703000    0.6654191   -7.7090889    800.85042  0.018022559  0.017224621            4 
 3704000   0.66904041    -7.708094    801.11351  0.018023612  0.017219091            4 
 3705000   0.65846333   -7.6866032    800.48598  0.018004633  0.017213568           11 
 3706000   0.65518027    -7.677527    801.32281  0.018018592   0.01720804            4 
 3707000   0.66575265    -7.674942    801.14142  0.018009653  0.017202538            5 
 3708000   0.64113834   -7.7178731    799.89168   0.01797671  0.017197027           13 
 3709000   0.64925717   -7.6912042    801.75938  0.018013826  0.017191517            6 
 3710000   0.64558691   -7.6860182    801.46017   0.01800225  0.017186017            8 
 3711000   0.63910054   -7.6723365    800.61165  0.017978345  0.017180503            9 
 3712000   0.66107278   -7.6732392    801.76097  0.017999303  0.017175013            4 
 3713000    0.6602714   -7.6977387    799.05715  0.017933772  0.017169509            8 
 3714000   0.66324904   -7.6831207    800.03756  0.017950941  0.017164011           10 
 3715000   0.65878767   -7.6902715    800.40936   0.01795445  0.017158514            6 
 3716000    0.6629945   -7.6870786    799.68087  0.017933281  0.017153017            6 
 3717000   0.65237061   -7.6992994    800.28711  0.017942048   0.01714752            8 
 3718000   0.65870732   -7.6795379    802.62086   0.01798953  0.017142038            8 
 3719000   0.63650628   -7.6723381    801.37887  0.017956863   0.01713655           10 
 3720000   0.64669987   -7.6884913    801.43441   0.01795328  0.017131059            6 
 3721000   0.65057853   -7.6906332     800.9793  0.017938263  0.017125561            7 
 3722000   0.67084491   -7.6934679    800.25973  0.017917332  0.017120071            6 
 3723000   0.64863881   -7.7095593    800.51141  0.017918153   0.01711457            8 
 3724000   0.66149511   -7.7015733    799.35481   0.01788746   0.01710907           13 
 3725000   0.65834342   -7.6966747    800.36868   0.01790534  0.017103573            6 
 3726000   0.65622456   -7.7111842    801.35983  0.017922701  0.017098066            8 
 3727000   0.65885101   -7.7007921     799.0428  0.017866085  0.017092567           13 
 3728000   0.64886891   -7.7084274    799.68567  0.017875663  0.017087077            9 
 3729000   0.65574714   -7.6789524    799.55597  0.017867971  0.017081577            9 
 3730000   0.65801008   -7.6930407    799.91949  0.017871302  0.017076073            9 
 3731000   0.64326694   -7.6917393    801.34645  0.017898384  0.017070564            9 
 3732000   0.65333275   -7.6975486     801.2113   0.01789057  0.017065064           10 
 3733000   0.65731745   -7.6871286    800.19772  0.017863151  0.017059577            7 
 3734000   0.65364506   -7.7037414    798.83568   0.01782797   0.01705408            6 
 3735000   0.66101329   -7.7016739    800.55863  0.017861638  0.017048593           10 
 3736000   0.63962762   -7.7198162    800.68192  0.017859607  0.017043108           13 
 3737000   0.65883112   -7.7231931    800.25869   0.01784539  0.017037626            9 
 3738000   0.63851831     -7.70388    802.46057  0.017889704  0.017032148           11 
 3739000   0.65513351   -7.7000134    799.78173  0.017825215  0.017026676           12 
 3740000   0.64588106   -7.7077241    802.24043  0.017875232  0.017021208           12 
 3741000   0.64532475   -7.7004514    800.00797  0.017820725  0.017015746           11 
 3742000   0.65171368   -7.7149786    801.40058  0.017846975  0.017010287           15 
 3743000   0.64646423   -7.7012403    799.45111  0.017798805   0.01700482           12 
 3744000   0.65698461   -7.7110993    799.95191  0.017805197  0.016999356            8 
 3745000   0.65790047   -7.7346785    800.41671  0.017810786   0.01699388            7 
 3746000   0.64697913   -7.7206063     801.8284  0.017837436  0.016988406           15 
 3747000   0.63618739   -7.7120707    801.10398  0.017816564  0.016982933            7 
 3748000   0.64733306   -7.7580216    801.08327   0.01781135  0.016977466            8 
 3749000   0.65013345   -7.7375141    799.40976    0.0177694  0.016971998            7 
 3750000   0.65448516    -7.710571     799.2164  0.017760364  0.016966539            7 
 3751000   0.65186961   -7.6970264    801.55755  0.017807641  0.016961096            6 
 3752000   0.65259341   -7.7179078     800.8929  0.017788133  0.016955662            8 
 3753000   0.65359059   -7.7292687    799.53511  0.017753244  0.016950219           11 
 3754000   0.64862936   -7.7191704    800.39289  0.017767557  0.016944788           12 
 3755000   0.63339865   -7.7162243    801.31272  0.017783238  0.016939344           10 
 3756000   0.65613524   -7.7424358    801.10184  0.017773825  0.016933911            9 
 3757000   0.63916935   -7.7169778    800.41207  0.017753794  0.016928485           13 
 3758000   0.65766785   -7.7213686    801.61001  0.017775634  0.016923057            7 
 3759000   0.66536383   -7.7511081    799.28844  0.017719439  0.016917623            5 
 3760000   0.66045345   -7.7144026    801.01906  0.017753082  0.016912186            6 
 3761000   0.64243096   -7.7294014    801.30233  0.017754638   0.01690676            6 
 3762000   0.64510549    -7.712021    800.74423  0.017737556  0.016901348            4 
 3763000   0.65511814    -7.713611    800.74744  0.017732914  0.016895921            5 
 3764000   0.64343577   -7.7335653    799.56439   0.01770201  0.016890507            5 
 3765000   0.65197242   -7.7004799    802.07243   0.01775282  0.016885091            9 
 3766000   0.63504478   -7.7116464    800.91739  0.017722548  0.016879678            6 
 3767000   0.65121638   -7.7049439    799.76252  0.017692295  0.016874256            5 
 3768000    0.6470315   -7.7089274    800.01441  0.017693171  0.016868844           10 
 3769000   0.65222121   -7.7303035    800.91346  0.017708355  0.016863426            7 
 3770000    0.6549038   -7.7227985    800.37307  0.017691712  0.016858006           31 
 3771000   0.65062821   -7.7220269    800.03694  0.017679593  0.016852588           15 
 3772000   0.65746379    -7.712468     798.5716  0.017642533  0.016847172            3 
 3773000   0.63659321   -7.7333973    800.46051  0.017679577  0.016841772            8 
 3774000   0.64601135   -7.7394674    800.31895  0.017671766  0.016836344            7 
 3775000   0.64264642   -7.7198003    800.37953  0.017668422  0.016830925            8 
 3776000   0.64738548   -7.7156608    800.49749  0.017666346  0.016825517            9 
 3777000   0.65782535    -7.716192      801.144  0.017675933  0.016820108            5 
 3778000   0.66223041   -7.7074584    800.26018   0.01765176  0.016814707            6 
 3779000   0.65754984   -7.7360223    800.30635  0.017648107  0.016809297            7 
 3780000   0.62945878   -7.7309017    800.21359  0.017641393  0.016803899            5 
 3781000   0.64034945   -7.7163375    801.18504  0.017658138  0.016798495            4 
 3782000   0.64411159   -7.6890502    802.02257  0.017671923  0.016793103            8 
 3783000    0.6346558   -7.7040494    801.83783  0.017663182  0.016787715            8 
 3784000   0.64258634   -7.7121167    801.89744  0.017659827  0.016782337           11 
 3785000   0.64898287   -7.7347138     800.6201  0.017627039   0.01677695            5 
 3786000   0.64146295   -7.7206977    800.94651  0.017629567  0.016771558            6 
 3787000   0.64079936   -7.7344123    798.92816  0.017580498  0.016766174            4 
 3788000   0.65317215   -7.7256754    802.16715  0.017647113  0.016760789           12 
 3789000   0.66054092   -7.7178376    801.29405  0.017623253  0.016755422           10 
 3790000   0.64130047   -7.7235466    802.73333  0.017650249  0.016750058           10 
 3791000   0.66445115   -7.7055376    801.64824  0.017621741    0.0167447            9 
 3792000    0.6553027   -7.7030578    801.32781  0.017610052  0.016739346           10 
 3793000   0.64030936   -7.7139752    801.60685   0.01761154  0.016734004           12 
 3794000   0.65816233   -7.6950534    803.07083  0.017639054  0.016728648            6 
 3795000   0.64850476   -7.6953302    801.20539  0.017593443  0.016723307            5 
 3796000   0.64145296    -7.720728    800.76524  0.017579146  0.016717965            5 
 3797000   0.65803161   -7.7237147    802.28125  0.017607788  0.016712625            3 
 3798000   0.63385525   -7.6888834    802.13492  0.017599941  0.016707274            2 
 3799000   0.64607171   -7.7271803    803.44608  0.017624069  0.016701947           12 
 3800000   0.63696744   -7.7293459    802.51949  0.017599112  0.016696613            8 
 3801000   0.62748997   -7.7073772    802.69657  0.017598364  0.016691284            9 
 3802000   0.64271767   -7.7170265    803.18704  0.017604485  0.016685967            7 
 3803000   0.65731486   -7.7296283    802.09866  0.017576007   0.01668064           10 
 3804000   0.63994284   -7.7354154    802.62203  0.017582852  0.016675316            6 
 3805000    0.6524405   -7.6992526    803.93895  0.017607073      0.01667            5 
 3806000   0.63736781   -7.7032691    802.00741  0.017560155  0.016664686            9 
 3807000   0.65235795   -7.7066438    802.66572  0.017569953  0.016659388            6 
 3808000   0.63811411   -7.7123306    801.59168  0.017541835  0.016654076           12 
 3809000   0.64487974   -7.7199123    801.12902  0.017527107  0.016648762            7 
 3810000    0.6422728   -7.6847137    802.65959  0.017555984  0.016643448            6 
 3811000   0.65569346     -7.72758    802.06473   0.01753837  0.016638129            8 
 3812000   0.63792313   -7.7338585     801.5007  0.017521439  0.016632819            8 
 3813000   0.64977303   -7.7418361    802.68968  0.017542829  0.016627499            7 
 3814000   0.65153437   -7.7323054     801.2612  0.017507018  0.016622184            6 
 3815000   0.63104877   -7.7449832    801.74561   0.01751301  0.016616888            6 
 3816000   0.64158405   -7.7192698    802.03529  0.017514747  0.016611599            7 
 3817000   0.64501384   -7.7251024    801.03609  0.017488344  0.016606301           10 
 3818000   0.63933278   -7.7014383    801.77593  0.017499911  0.016601013            8 
 3819000   0.64477078   -7.7069427    802.86518  0.017519097  0.016595727           11 
 3820000   0.64153515   -7.7325818    800.96992  0.017473166  0.016590427           12 
 3821000   0.61881768   -7.7266706    801.34179  0.017476703  0.016585133           11 
 3822000   0.62757577   -7.7431108     802.5568  0.017498622  0.016579838            7 
 3823000   0.64402537   -7.7263737    802.53464  0.017493562  0.016574553            6 
 3824000   0.63325598   -7.7065171    802.69948  0.017492579  0.016569277            6 
 3825000   0.63638431   -7.7068785    802.08686  0.017474659  0.016563993            5 
 3826000   0.64198102   -7.7391322    803.48162  0.017500471  0.016558691            8 
 3827000   0.64497013   -7.7376089    802.24239  0.017468914  0.016553389            8 
 3828000   0.62956365   -7.7309005    802.95557  0.017479876  0.016548086            6 
 3829000   0.64386255   -7.7132251    801.25786  0.017438362  0.016542784            7 
 3830000   0.64538697   -7.7410372    802.21542  0.017454644  0.016537478            6 
 3831000   0.63128343   -7.7560021    801.02676  0.017424231  0.016532168            5 
 3832000   0.63517623   -7.7637213    801.10624  0.017421413  0.016526872            8 
 3833000   0.63157836   -7.7204631    800.99685  0.017414489  0.016521572            9 
 3834000   0.63569163   -7.7333983    802.22914  0.017436732  0.016516276           11 
 3835000   0.62183407    -7.735243    802.41016  0.017436118  0.016510973           13 
 3836000   0.63088995   -7.7353604    801.45619  0.017410849  0.016505672           10 
 3837000   0.64050819   -7.7594206    802.31209    0.0174249  0.016500387           31 
 3838000   0.62326931   -7.7540269     801.4774  0.017402236    0.0164951           19 
 3839000   0.63950889   -7.7275931    801.22934  0.017392319  0.016489808           11 
 3840000   0.63462361   -7.7404641    800.52676  0.017372542  0.016484522           13 
 3841000   0.63575962    -7.760055    800.99699  0.017378222  0.016479232           10 
 3842000   0.65395897   -7.7564267    801.82026  0.017391555  0.016473955           26 
 3843000   0.65536772   -7.7432777    800.59362  0.017360431  0.016468673           11 
 3844000   0.63448843   -7.7501227    802.61653  0.017399769  0.016463402           10 
 3845000   0.63946261   -7.7388401    802.13922  0.017384899  0.016458126           11 
 3846000   0.64313771   -7.7435381    800.15081  0.017337294  0.016452848           10 
 3847000   0.61809361   -7.7466378    801.25167  0.017356634  0.016447588            7 
 3848000   0.64384278    -7.729785     802.3262  0.017375394  0.016442333           12 
 3849000   0.62685062   -7.7412295    803.09182  0.017387456  0.016437075           11 
 3850000   0.61590077   -7.7499504    801.29827  0.017344118  0.016431806            9 
 3851000   0.63114817   -7.7438081    799.48308  0.017300335  0.016426536            8 
 3852000   0.63007132   -7.7644485    801.78996   0.01734575  0.016421266            8 
 3853000   0.63245186   -7.7308073    802.21354   0.01735041  0.016415997            7 
 3854000   0.63913368   -7.7673192    802.07754  0.017342967  0.016410724            6 
 3855000   0.63681784   -7.7555041     803.1545  0.017361749   0.01640546            6 
 3856000   0.63970636   -7.7475495    803.41082  0.017362786  0.016400205            7 
 3857000   0.63802405   -7.7611677    801.39497   0.01731473  0.016394949            8 
 3858000   0.63203195   -7.7704778    800.27711  0.017286096  0.016389687            6 
 3859000   0.64352876   -7.7639378    801.14102  0.017300273  0.016384431            4 
 3860000   0.63681569   -7.7616397    802.09995  0.017316493  0.016379176           11 
 3861000   0.65172352   -7.7531979      800.221  0.017271454  0.016373923            9 
 3862000   0.62003624   -7.7382118    802.38909  0.017313764  0.016368672            6 
 3863000   0.63234594   -7.7435115    802.91266  0.017320577  0.016363437           10 
 3864000   0.63912654   -7.7381425    800.94546  0.017273669  0.016358194           21 
 3865000   0.63401022   -7.7363007    801.72014  0.017285902  0.016352949           10 
 3866000   0.63329424   -7.7485028    802.03279   0.01728817  0.016347723           10 
 3867000    0.6272601   -7.7628867     802.9413  0.017303278  0.016342493            6 
 3868000   0.63930185   -7.7524918    801.25011  0.017262369  0.016337264            9 
 3869000   0.62974029   -7.7498442    801.04557  0.017253502  0.016332041           17 
 3870000    0.6201423   -7.7539943    802.28137  0.017275654  0.016326812            6 
 3871000   0.63655592   -7.7443453    800.98257  0.017243231  0.016321579            9 
 3872000   0.63042273     -7.75093    802.56257  0.017272783  0.016316343           10 
 3873000   0.64412924    -7.742081    803.21763  0.017282417  0.016311126            9 
 3874000   0.62966616   -7.7560357     800.7482  0.017224836  0.016305913            9 
 3875000   0.62481692   -7.7463445    801.55148  0.017237666  0.016300695           12 
 3876000   0.62703557   -7.7466374    802.66531  0.017257166  0.016295471            6 
 3877000   0.64569787    -7.739072    802.42156  0.017247476  0.016290256            5 
 3878000   0.63735001   -7.7564752    802.61747  0.017247238  0.016285043            8 
 3879000    0.6288192   -7.7382597    801.86753  0.017226681  0.016279827           10 
 3880000   0.64914049   -7.7175692    802.55277  0.017236958  0.016274611           11 
 3881000   0.63781662   -7.7488842    802.77002  0.017237182  0.016269404           10 
 3882000   0.63223141    -7.744537    804.12868  0.017261907  0.016264197            9 
 3883000   0.63558799   -7.7423725    802.25556  0.017217262  0.016258997            8 
 3884000   0.62649337   -7.7705835    801.50833  0.017196797  0.016253786            8 
 3885000   0.64236693   -7.7672448    801.91467  0.017201087  0.016248587           12 
 3886000   0.62941719   -7.7328684    803.21742  0.017224597  0.016243389           10 
 3887000   0.63189139   -7.7467241    803.03504  0.017216256  0.016238188           10 
 3888000   0.64891844    -7.752162    803.24399  0.017216306  0.016232994            5 
 3889000   0.63314243   -7.7421871    802.28693  0.017191372  0.016227803           10 
 3890000    0.6251593   -7.7546133    801.79855   0.01717649  0.016222613            7 
 3891000   0.64238721   -7.7710138    801.57142  0.017167211  0.016217413            7 
 3892000   0.64027718   -7.7624329    800.72606    0.0171447  0.016212202            5 
 3893000   0.62095413   -7.7767199    801.68914  0.017160911  0.016206998            7 
 3894000   0.63205215   -7.7596152    801.74364  0.017157671    0.0162018            7 
 3895000   0.61861089   -7.7814067    800.55743  0.017127887    0.0161966            9 
 3896000   0.61718246   -7.7511596     800.4293   0.01712075  0.016191402            7 
 3897000    0.6271628   -7.7464565    802.20657  0.017154362  0.016186215            7 
 3898000   0.63517869    -7.754924     802.2623  0.017151152  0.016181036           13 
 3899000   0.63692433   -7.7685309    802.53075  0.017152491  0.016175859            5 
 3900000   0.62760398   -7.7631915    802.50138  0.017147465  0.016170676            6 
 3901000   0.63130639   -7.7770246    801.86319  0.017129437  0.016165489            7 
 3902000    0.6154896   -7.7735367    802.11602  0.017130446  0.016160298           10 
 3903000   0.62222045    -7.770361    800.76621  0.017097237  0.016155108            6 
 3904000   0.63033612   -7.7736135    802.26736  0.017124901   0.01614992            8 
 3905000   0.63553708   -7.7679362    803.39925   0.01714467  0.016144736            9 
 3906000   0.62097147   -7.7904348    800.61538  0.017080888  0.016139558           11 
 3907000   0.62712284   -7.7794929    801.81381  0.017102078  0.016134379           13 
 3908000   0.61085146   -7.7525905    802.19558  0.017105842   0.01612921            6 
 3909000   0.62930458   -7.7635779    802.22393  0.017102071  0.016124036            8 
 3910000   0.64522224   -7.7520762    802.73151  0.017108515  0.016118874            7 
 3911000    0.6349518   -7.7787348    803.39121  0.017118197  0.016113711           12 
 3912000   0.62802024   -7.7673518     801.9623  0.017083382   0.01610855            8 
 3913000   0.63599742   -7.7546143    803.20344  0.017105448  0.016103398           13 
 3914000   0.61551525     -7.74808    800.87138  0.017051426  0.016098242           11 
 3915000    0.6368715   -7.7724359    801.62349   0.01706308  0.016093091           16 
 3916000   0.63803509   -7.7674858    802.07103  0.017068246  0.016087933           12 
 3917000    0.6276812   -7.7689374    802.43067   0.01707154  0.016082776            6 
 3918000    0.6403728    -7.762375    801.71759  0.017052016  0.016077628           12 
 3919000   0.62989216    -7.784671    800.19457   0.01701528  0.016072468           11 
 3920000   0.61924425   -7.7621955    802.76605  0.017065605  0.016067314           11 
 3921000   0.61786509   -7.7533247    802.59156  0.017057544  0.016062166           10 
 3922000   0.62655356   -7.7908237    802.47654  0.017050751  0.016057008            5 
 3923000   0.61742983   -7.7668492    803.41616  0.017066364  0.016051846            5 
 3924000    0.6224029   -7.7772058    799.38375  0.016976379  0.016046674           12 
 3925000   0.63507221   -7.7725112    801.97507  0.017027072  0.016041515            7 
 3926000   0.61373232   -7.7846931    801.23382  0.017007001  0.016036356           11 
 3927000   0.63060581   -7.7867274     802.0781  0.017020586  0.016031192           12 
 3928000   0.63945043   -7.7920952    801.54758  0.017004998  0.016026042           14 
 3929000   0.62778629   -7.7713907    800.36906  0.016975674  0.016020893            5 
 3930000   0.61715255   -7.7712512    801.68454  0.016999248  0.016015757           19 
 3931000   0.60932223   -7.7674474    800.65581  0.016973116   0.01601061            7 
 3932000   0.62316775   -7.7933495      802.272  0.017003052  0.016005463           10 
 3933000   0.61961028   -7.7985527    800.93494  0.016970399  0.016000316           11 
 3934000   0.61497318   -7.7992207    801.97573  0.016988132  0.015995164           14 
 3935000   0.63288711   -7.7986199    800.18927  0.016945982  0.015990025            6 
 3936000   0.61197262   -7.7800216     801.9887  0.016979774  0.015984879           10 
 3937000   0.62598138   -7.7841565    802.62602  0.016988951  0.015979746            6 
 3938000    0.6301212   -7.7812903    800.39115  0.016937344  0.015974604            6 
 3939000   0.61731339   -7.7860472    800.49051  0.016935147  0.015969472            6 
 3940000   0.63221404   -7.7751515    802.19388  0.016966876  0.015964341            8 
 3941000   0.61899987   -7.7788629    799.93629  0.016914833  0.015959216           14 
 3942000   0.63121496   -7.7815864    803.48904  0.016985647  0.015954081            6 
 3943000    0.6103249   -7.7777692    800.44311  0.016916965  0.015948954            8 
 3944000   0.62993814   -7.7899298    802.17763  0.016949324  0.015943828           11 
 3945000   0.63500739   -7.7802088    801.19849  0.016924345  0.015938702            8 
 3946000   0.62695382   -7.7790678    801.20973  0.016920293  0.015933584            8 
 3947000   0.61498749   -7.7740131    801.55017  0.016923194  0.015928458            4 
 3948000   0.61722354   -7.7695224    801.08444  0.016909077   0.01592333            6 
 3949000   0.62275352   -7.7767488    802.60066  0.016936791  0.015918203            7 
 3950000   0.62733932   -7.7950405    801.41863  0.016907566  0.015913076            5 
 3951000   0.61800442   -7.7859254    801.13401  0.016897284  0.015907948            8 
 3952000   0.61413748    -7.790916    800.77461   0.01688543  0.015902819            6 
 3953000   0.60226667    -7.781213    802.42997  0.016916055  0.015897689            9 
 3954000   0.61614917   -7.8008675    801.33082  0.016888611  0.015892562            9 
 3955000   0.61939633    -7.763963    802.45428  0.016908013   0.01588744            5 
 3956000   0.62018006   -7.7793955    801.66085  0.016887025  0.015882316            9 
 3957000   0.63109536   -7.7668759    800.79877  0.016864602    0.0158772            8 
 3958000   0.60774574   -7.7932708    800.70957  0.016858463  0.015872092            6 
 3959000   0.62554704   -7.7926801    801.60038  0.016872956  0.015866979            6 
 3960000   0.60632201   -7.7824106    801.79206  0.016872729   0.01586187            5 
 3961000   0.61587638   -7.7899563    802.00206  0.016872887  0.015856748            7 
 3962000   0.61846088   -7.8150113    800.11137  0.016828861  0.015851629            7 
 3963000   0.61046777   -7.7890031    801.61445  0.016856221  0.015846511            8 
 3964000   0.61345987   -7.8011262     801.2238  0.016843756  0.015841389            7 
 3965000   0.60862011   -7.7809974    801.05103  0.016835877  0.015836276            6 
 3966000   0.62752502   -7.7688887    801.43314  0.016839661  0.015831163            7 
 3967000   0.61285583   -7.7765022    802.18597   0.01685123  0.015826057            8 
 3968000   0.61105085   -7.7959083    801.06833  0.016823512  0.015820954            4 
 3969000   0.60094106   -7.7830325    800.54471  0.016808279  0.015815837            6 
 3970000   0.61516808   -7.8123691    800.75046  0.016808364  0.015810735            4 
 3971000   0.61820525   -7.7930361    800.43258   0.01679746  0.015805632            7 
 3972000   0.60980776   -7.8009816    799.03226  0.016763852   0.01580053            6 
 3973000   0.61230117   -7.7797486    799.82248  0.016776208  0.015795433            6 
 3974000   0.61368294   -7.7810912     800.8764  0.016794087  0.015790345           10 
 3975000   0.61832618   -7.7758859    799.76316  0.016766523  0.015785254            3 
 3976000   0.60802119   -7.8073362    800.46106  0.016776934  0.015780162            4 
 3977000   0.60541492   -7.7825297    801.88075  0.016802463  0.015775069            4 
 3978000   0.61281702   -7.7743575    800.73287  0.016774193  0.015769978            4 
 3979000   0.61785831   -7.8138535    799.94887  0.016753558  0.015764885            5 
 3980000   0.61722139   -7.7966656    801.64608  0.016784884  0.015759795            6 
 3981000   0.62121954   -7.7839788    799.54741  0.016736737  0.015754699            7 
 3982000   0.61303841   -7.7795771    800.09551  0.016744005  0.015749612            5 
 3983000    0.6178657    -7.791633    800.23727  0.016742767  0.015744515            6 
 3984000   0.60466114     -7.80441    800.72381  0.016748741  0.015739415            6 
 3985000   0.60727969   -7.8146917    800.85421  0.016747265  0.015734328            8 
 3986000   0.60914066    -7.814726    800.85654  0.016743112   0.01572924            3 
 3987000   0.62433558   -7.8240324    801.09948   0.01674399  0.015724148            8 
 3988000   0.62358663    -7.782496    799.32458  0.016702704  0.015719065            5 
 3989000   0.60974524   -7.7726538    801.26316  0.016739015  0.015713993            3 
 3990000    0.6046028   -7.8043567    799.99524  0.016708338  0.015708915            7 
 3991000    0.6053658   -7.7987619    801.18125  0.016728916  0.015703849            8 
 3992000   0.61035848   -7.7954002    801.75915  0.016736789  0.015698776            8 
 3993000   0.60361405   -7.8161494    800.49884  0.016706295  0.015693713            6 
 3994000   0.60958612   -7.7861029    799.91358  0.016689901   0.01568865            6 
 3995000   0.61370111   -7.8035682    800.59401  0.016699917  0.015683593            5 
 3996000   0.59691332   -7.7792623    800.80888  0.016700219  0.015678531            4 
 3997000   0.59325106   -7.7917347     800.9162  0.016698278  0.015673476            8 
 3998000   0.61220385   -7.7748592    799.14835  0.016657253  0.015668424            5 
 3999000   0.61387847   -7.7750622    802.08485   0.01671428  0.015663365            6 
 4000000   0.60241154   -7.7808199    800.47961  0.016676658  0.015658312           13 
 4001000   0.61019564    -7.802089    800.62831  0.016675588  0.015653261           10 
 4002000   0.61078395   -7.7910546    800.82382  0.016675492  0.015648205            9 
 4003000   0.60570474   -7.8037224     801.2575  0.016680354  0.015643145            9 
 4004000   0.60982328   -7.7805867    801.37678  0.016678671  0.015638092            7 
 4005000   0.61689015   -7.7854339    800.40821  0.016654353  0.015633027            6 
 4006000   0.61858542   -7.8048087    801.76259   0.01667837  0.015627966            8 
 4007000   0.61151778   -7.7980693    800.82966  0.016654805  0.015622907            7 
 4008000    0.6260999   -7.7990428    798.40692  0.016600277  0.015617864            8 
 4009000   0.59703489   -7.7711641    800.90187  0.016647998  0.015612816            3 
 4010000   0.59884325   -7.8132659    800.82719  0.016642294   0.01560777            7 
 4011000   0.60983627   -7.7850445    800.55121  0.016632411  0.015602721            5 
 4012000   0.59887844   -7.8117239    800.37994  0.016624708  0.015597673            9 
 4013000   0.60419835   -7.7998339    801.37656  0.016641261  0.015592644            6 
 4014000   0.60287472     -7.79906    800.23047  0.016613321  0.015587604            7 
 4015000    0.6060324    -7.787374     800.7947  0.016620895  0.015582568            4 
 4016000   0.60960631   -7.8108224    800.60967  0.016612916  0.015577532            8 
 4017000   0.59973318   -7.7887216    801.66891  0.016630755  0.015572496            9 
 4018000   0.60788624   -7.8095675    799.98893  0.016591773  0.015567468           10 
 4019000   0.60737908   -7.7917438    800.33001  0.016594717  0.015562436           10 
 4020000   0.60019724   -7.7964889     801.8051  0.016621167   0.01555741            6 
 4021000   0.62139077    -7.800618      799.241  0.016563894  0.015552397            9 
 4022000   0.60228253   -7.8110625    799.42889  0.016563668  0.015547369           11 
 4023000   0.59820638   -7.7695326    800.54526  0.016582676  0.015542336            9 
 4024000   0.60327399    -7.815357    800.49845  0.016577586  0.015537311            7 
 4025000   0.60832631    -7.786107    801.24257  0.016588873   0.01553229           30 
 4026000   0.60601157   -7.8018718    800.30884  0.016565426  0.015527259           18 
 4027000   0.61507047   -7.8088315    800.61537  0.016567655  0.015522226           13 
 4028000   0.60102534   -7.7864918    800.78328  0.016567016  0.015517202            8 
 4029000   0.60704046   -7.8007557    799.49928  0.016536347  0.015512182           19 
 4030000   0.60636504   -7.8058305    799.44188  0.016531056  0.015507158           19 
 4031000   0.60674962   -7.7860444     799.4864  0.016527876  0.015502152           14 
 4032000    0.5979454   -7.7979915    801.60963  0.016567659   0.01549714           12 
 4033000   0.62456937   -7.8277687    800.49085  0.016540434  0.015492128           10 
 4034000   0.61120013   -7.8230962    801.79919  0.016563361  0.015487114            5 
 4035000   0.60372731   -7.7916374    800.61802  0.016534862  0.015482105            6 
 4036000   0.60469178   -7.8079335    800.53409  0.016529032  0.015477095            8 
 4037000   0.60984484   -7.8114418    801.33955  0.016541564  0.015472088            6 
 4038000   0.60754252   -7.8079133    800.34434   0.01651693  0.015467071           14 
 4039000   0.61084921   -7.7976363    801.06008  0.016527607  0.015462061           10 
 4040000   0.59756894   -7.7828797    800.17395  0.016505238  0.015457063            6 
 4041000   0.60173428   -7.8145905    800.65596  0.016511094  0.015452057            8 
 4042000   0.60820071   -7.7865812    800.36166  0.016500941  0.015447058           14 
 4043000   0.59714495   -7.8098171    801.31827  0.016516577  0.015442053            6 
 4044000   0.60855693   -7.8262642    799.92397  0.016483761  0.015437052            8 
 4045000   0.60246773   -7.7957967    800.39618  0.016489415   0.01543205           10 
 4046000   0.61812906    -7.796191    801.00701   0.01649792  0.015427047            6 
 4047000   0.61226205   -7.7981484    800.93388  0.016492338  0.015422043            7 
 4048000   0.59834875   -7.8079597    799.21197  0.016452816  0.015417047            7 
 4049000   0.60578217    -7.813954    799.61948  0.016457139  0.015412053           12 
 4050000   0.59634725   -7.8040528     799.6707   0.01645413  0.015407057            4 
 4051000   0.60653918    -7.822754    799.39066  0.016444307  0.015402063           13 
 4052000   0.59929144   -7.8270813       799.19  0.016436122  0.015397062            8 
 4053000   0.60810449   -7.8296014    798.98476  0.016427847  0.015392055           11 
 4054000   0.60617575   -7.8109883     799.7736   0.01644001  0.015387049            9 
 4055000   0.60371457   -7.8365938    799.34972  0.016427245  0.015382044            6 
 4056000   0.60176474   -7.8517457    800.84017  0.016453817  0.015377044            7 
 4057000    0.5924036   -7.8354646    800.12354  0.016435041  0.015372046            7 
 4058000   0.60917889   -7.8271169    798.41129  0.016395829  0.015367042           11 
 4059000   0.59857515   -7.8385058    798.75348  0.016398815   0.01536204           15 
 4060000   0.60222577   -7.8349594    800.37549  0.016428068  0.015357038            9 
 4061000   0.60134718   -7.8247875    798.90587  0.016393866  0.015352036           17 
 4062000   0.61003091   -7.8146299    800.19741  0.016416326   0.01534705           16 
 4063000   0.60610801   -7.8269551    799.44667  0.016396888   0.01534206           15 
 4064000   0.59792819   -7.8199435    799.26321  0.016389091  0.015337069           11 
 4065000   0.61009624   -7.8252794    799.20708  0.016383909  0.015332082           17 
 4066000   0.60535124   -7.8185729    799.92983  0.016394692  0.015327099            5 
 4067000   0.58907272   -7.8400143    800.14963  0.016395165  0.015322112            5 
 4068000    0.5983103   -7.8318699     798.2788  0.016352811  0.015317135           10 
 4069000   0.59838289   -7.8201314    798.70559  0.016357532  0.015312153            8 
 4070000   0.60095733   -7.8242724    800.03217  0.016380675  0.015307176            8 
 4071000   0.59587529   -7.8215254    798.79471  0.016351321  0.015302204            9 
 4072000   0.62044041   -7.8259762    798.97292  0.016350952  0.015297237            9 
 4073000   0.60756421   -7.8115662    799.29125  0.016353451  0.015292272            8 
 4074000   0.59192892   -7.8468905    798.05563  0.016324162  0.015287303            8 
 4075000   0.60191049   -7.8423133    797.96491  0.016318301  0.015282331            8 
 4076000   0.61182508   -7.8348146    798.87005  0.016332803  0.015277359            6 
 4077000   0.60862506   -7.8448645    798.44672  0.016320144  0.015272396            7 
 4078000   0.61256302   -7.8231853    798.31071  0.016313362  0.015267429            7 
 4079000   0.58317643   -7.8260965    798.35875  0.016310345  0.015262461           13 
 4080000   0.60055355   -7.8315437    798.94267  0.016318273   0.01525749            4 
 4081000   0.59596242    -7.846985    799.41578  0.016323936  0.015252523            5 
 4082000   0.59594731    -7.829226    797.86997  0.016288379  0.015247559            4 
 4083000   0.59778873   -7.8179115    798.76437  0.016302644  0.015242597           11 
 4084000     0.597895   -7.8411994    798.19567  0.016287048  0.015237634           16 
 4085000   0.59963076   -7.8364185    798.65149   0.01629236  0.015232672            7 
 4086000   0.58831237   -7.8469073    800.07429   0.01631739  0.015227717            3 
 4087000   0.58886161   -7.8392487    799.71061  0.016305983  0.015222754            8 
 4088000   0.60496956   -7.8102745    799.93724  0.016306614  0.015217801            5 
 4089000   0.60454795   -7.8259695    797.92648  0.016261647  0.015212845            5 
 4090000    0.5923832   -7.8365801    799.78077  0.016295452  0.015207895            6 
 4091000   0.59801315     -7.83511    798.51896  0.016265765  0.015202946            4 
 4092000   0.59440303   -7.8383034    799.13799  0.016274397  0.015198006            4 
 4093000   0.60372098   -7.8322151    799.96649  0.016287289  0.015193061            6 
 4094000   0.58801154   -7.8290628    798.19572  0.016247267  0.015188116           10 
 4095000   0.58598043   -7.8442498    799.83941  0.016276748  0.015183166            5 
 4096000   0.59851095   -7.8309348    800.06745  0.016277414  0.015178231            6 
 4097000   0.60740184    -7.831991    796.95628   0.01621016  0.015173289            4 
 4098000   0.59634433   -7.8480006    800.47098  0.016277676  0.015168349            9 
 4099000   0.60777436   -7.8455002    799.15587  0.016246968  0.015163412            6 
 4100000   0.59669876   -7.8360145    798.53299  0.016230345   0.01515847            9 
 4101000   0.60517195   -7.8558127    798.79513  0.016231714  0.015153528            6 
 4102000   0.59065884   -7.8522802    799.66791  0.016245488  0.015148593            9 
 4103000    0.6041098   -7.8267509    797.75983  0.016202775  0.015143662            6 
 4104000   0.59964648    -7.822626    798.80506  0.016220051  0.015138726           11 
 4105000   0.60355342   -7.8623353    797.99185  0.016199591  0.015133791           10 
 4106000   0.59663943   -7.8426381    797.23171  0.016180218  0.015128852            7 
 4107000   0.58961639   -7.8365555    798.69011   0.01620587  0.015123929           13 
 4108000   0.59208846   -7.8235859    798.41234  0.016196291   0.01511901            6 
 4109000   0.58921362   -7.8477186    798.60905  0.016196338   0.01511408           13 
 4110000   0.59297793   -7.8429307    798.36319  0.016187413  0.015109165            8 
 4111000     0.594876   -7.8503714    798.78995  0.016192126  0.015104255            6 
 4112000   0.58795521   -7.8753001    798.27079  0.016177667  0.015099342            8 
 4113000    0.5920755   -7.8551491    799.95499  0.016207857  0.015094429            6 
 4114000   0.60048089   -7.8359444    799.69871  0.016198726  0.015089524            8 
 4115000   0.57541248   -7.8176928    798.23879  0.016165225  0.015084614            8 
 4116000   0.58307395   -7.8398954    798.44819  0.016165537  0.015079719           10 
 4117000   0.58533323   -7.8387692    798.41229  0.016160883  0.015074819           15 
 4118000   0.59132859   -7.8296632     798.0965  0.016150569  0.015069922           19 
 4119000   0.59715991   -7.8221716     800.8169  0.016201685  0.015065032           13 
 4120000   0.59416557   -7.8345174    799.39078  0.016168907  0.015060151           13 
 4121000   0.59753851   -7.8460012    799.71654  0.016171571  0.015055264            9 
 4122000   0.58371829   -7.8314258      798.253   0.01613806  0.015050379            9 
 4123000   0.60069238   -7.8329796    799.80503  0.016165515  0.015045488            9 
 4124000   0.59176824   -7.8387546    798.50868    0.0161354  0.015040599            9 
 4125000   0.58960339   -7.8448193    800.91586  0.016180118  0.015035712            9 
 4126000   0.59232733   -7.8471942    800.13174   0.01616036  0.015030818            5 
 4127000   0.58626719   -7.8364895    799.36903  0.016141043  0.015025945           15 
 4128000   0.58092971   -7.8367255    799.24928  0.016134716  0.015021071            7 
 4129000   0.61381586   -7.8407711     798.1344  0.016108307  0.015016191            8 
 4130000   0.59701141   -7.8310346    799.13843  0.016124666  0.015011307           17 
 4131000    0.5836133   -7.8547423    799.42691  0.016126582  0.015006435            7 
 4132000   0.59172427   -7.8439331     800.5413  0.016145154  0.015001569           10 
 4133000   0.59037462   -7.8173893    800.09055  0.016132159  0.014996711            9 
 4134000   0.58604268    -7.834234    800.34895  0.016133465  0.014991855            8 
 4135000   0.58550362   -7.8317575    799.27447   0.01610791  0.014986991           25 
 4136000   0.57450653   -7.8408729    799.96736  0.016117976  0.014982132            4 
 4137000   0.58150689   -7.8396719    799.45874  0.016103834  0.014977273           10 
 4138000   0.58796453   -7.8239722    798.80622  0.016086802  0.014972422            8 
 4139000   0.58555006   -7.8163715    798.39523   0.01607464  0.014967567            8 
 4140000   0.57457111   -7.8412201    800.81295  0.016119423  0.014962716           10 
 4141000   0.58391668   -7.8163611    799.12208  0.016081504   0.01495786           16 
 4142000   0.59084818   -7.8436432    798.74523  0.016070039  0.014952996            9 
 4143000   0.59220003    -7.826932    798.70046   0.01606526   0.01494814           21 
 4144000   0.58195998   -7.8378069    798.41818  0.016055707  0.014943285           11 
 4145000   0.58882432   -7.8389839    797.57286  0.016034838  0.014938425            9 
 4146000   0.58822841   -7.8507538    798.62831  0.016052185  0.014933559           11 
 4147000   0.58445263   -7.8593857    799.37205   0.01606326  0.014928699           15 
 4148000   0.59290123   -7.8566059    799.39905  0.016059929  0.014923846           13 
 4149000   0.58555851   -7.8266034    798.69137  0.016041845  0.014918993            8 
 4150000   0.58637524   -7.8669345    797.51598  0.016014377  0.014914135           11 
 4151000   0.59499361   -7.8437877    798.06549  0.016021551  0.014909276           11 
 4152000    0.5813461   -7.8350523    798.05091  0.016017399  0.014904428           11 
 4153000   0.59129986   -7.8756768    798.37361  0.016020018   0.01489958           15 
 4154000   0.58617452   -7.8728998    798.12556  0.016011185  0.014894729           17 
 4155000   0.59819644   -7.8490739    797.37483  0.015992275  0.014889879           21 
 4156000   0.58864772   -7.8258664    798.56519  0.016012295  0.014885037           19 
 4157000   0.58788182   -7.8238835     798.6597  0.016010338  0.014880199           20 
 4158000   0.58010183   -7.8432714    798.62066  0.016005705  0.014875365           12 
 4159000   0.58620891   -7.8400449     799.0503  0.016010465  0.014870535           13 
 4160000   0.58003342   -7.8462171    798.85872  0.016002779  0.014865702           13 
 4161000    0.5836777   -7.8290114    799.52115    0.0160122  0.014860869            9 
 4162000   0.59517586   -7.8463281    799.05019  0.015998923  0.014856045            6 
 4163000   0.58875569   -7.8478647    798.42802  0.015982625  0.014851215           12 
 4164000    0.5920546   -7.8459475    797.96613  0.015969543  0.014846397            8 
 4165000   0.58990885   -7.8720521    797.61608  0.015958705  0.014841569            9 
 4166000   0.59293607    -7.841258    797.58925  0.015954338  0.014836748            5 
 4167000    0.5868483   -7.8700078     798.7606  0.015973934  0.014831928            9 
 4168000    0.5944818   -7.8405758    798.48685  0.015964628  0.014827108            6 
 4169000   0.58617323   -7.8604566    798.08646  0.015952796  0.014822285           12 
 4170000    0.5884049   -7.8538833    798.42893  0.015955814  0.014817471            5 
 4171000   0.57954992   -7.8406941    798.93792  0.015962158  0.014812661            8 
 4172000   0.58839735   -7.8376566    798.02733  0.015940143  0.014807851           12 
 4173000   0.57802177    -7.851211    798.68624  0.015949482  0.014803044            4 
 4174000   0.58420094    -7.862848    799.17175  0.015955354   0.01479824            7 
 4175000   0.57885383   -7.8566559    797.42047  0.015916576  0.014793434            6 
 4176000   0.58487653   -7.8568093     797.9929  0.015924188  0.014788619            5 
 4177000   0.58584514   -7.8657659    799.26779   0.01594581  0.014783814            6 
 4178000   0.58174073   -7.8754304    797.73943  0.015911509  0.014779002           10 
 4179000   0.58245587    -7.848566     798.9277  0.015931397  0.014774202            5 
 4180000   0.58700415   -7.8598698    798.38815  0.015916829  0.014769404            8 
 4181000   0.58427925   -7.8360407    798.41417  0.015913541  0.014764609            9 
 4182000   0.59446754   -7.8458742    798.64058  0.015914247  0.014759815            3 
 4183000   0.57346903   -7.8444991    798.11409  0.015899954   0.01475502            8 
 4184000   0.58036185   -7.8701081     799.4553  0.015922867   0.01475023            6 
 4185000   0.59610528   -7.8575274    800.26426  0.015935171  0.014745433            7 
 4186000   0.57032693   -7.8394463    799.07277  0.015907644  0.014740636            6 
 4187000    0.5918317   -7.8354776    798.83312  0.015899075  0.014735854            7 
 4188000    0.5796252   -7.8382019    797.85418  0.015875799   0.01473107            7 
 4189000   0.58376051    -7.853371    798.13273  0.015877551  0.014726283            7 
 4190000   0.57373966   -7.8720699    798.98267  0.015890666  0.014721496            7 
 4191000   0.57833255   -7.8409861    797.79596  0.015863278  0.014716705            7 
 4192000   0.57335247   -7.8453359     798.2574  0.015868666  0.014711915           14 
 4193000   0.57235498     -7.84951    798.02124  0.015860188  0.014707127            9 
 4194000    0.5846827    -7.872142     797.7077  0.015850177   0.01470234           11 
 4195000   0.58834279   -7.8559399     798.9982  0.015872034  0.014697566            8 
 4196000   0.57598994   -7.8480756    797.16249  0.015831794  0.014692794            8 
 4197000   0.58068167   -7.8602328     797.7011  0.015838716  0.014688019            5 
 4198000   0.58908479   -7.8726253     797.1838  0.015824674  0.014683248            6 
 4199000   0.58296156    -7.859948    799.59023  0.015868664  0.014678484            8 
 4200000   0.58600201   -7.8479411    798.43316  0.015841928  0.014673713            9 
 4201000   0.58554235   -7.8713673    797.78956   0.01582539  0.014668946           14 
 4202000   0.57605815   -7.8638641    798.76778  0.015841024  0.014664182           12 
 4203000   0.57391141   -7.8553485    798.97239  0.015841312  0.014659422           13 
 4204000   0.57089255   -7.8539903    800.70574  0.015871903  0.014654668            8 
 4205000   0.58167674   -7.8713915     799.2021  0.015838329  0.014649911            6 
 4206000   0.57809136   -7.8741553    797.51297  0.015801097  0.014645156            8 
 4207000   0.57974738   -7.8547502    799.61464  0.015838972  0.014640401            7 
 4208000   0.57374639   -7.8713918    799.82266  0.015839327  0.014635654           12 
 4209000   0.57403605   -7.8745896    798.48166  0.015809014  0.014630906           11 
 4210000   0.57446491   -7.8602923    798.40925  0.015803825  0.014626158            8 
 4211000   0.56975798   -7.8693708    798.73537  0.015806526  0.014621407            6 
 4212000    0.5855428   -7.8749537    799.19701  0.015811907  0.014616657           15 
 4213000   0.57097305   -7.8607814    799.28625  0.015809919  0.014611903           10 
 4214000   0.58231196   -7.8560953     798.7108  0.015794787  0.014607165            6 
 4215000   0.58861998   -7.8616067     798.9556   0.01579588  0.014602416           16 
 4216000   0.57433981   -7.8735704    798.52001  0.015783523  0.014597667           12 
 4217000    0.5784272   -7.8683383     799.3229  0.015795647  0.014592926           10 
 4218000   0.58906888   -7.8865022    798.28839  0.015771463  0.014588189            6 
 4219000   0.58254304   -7.8653296    798.04205  0.015762859  0.014583447            8 
 4220000   0.58152052   -7.8617484    799.16718  0.015781342  0.014578702           14 
 4221000   0.56108129   -7.8512549    798.28189  0.015760126  0.014573956           15 
 4222000   0.56664503   -7.8733653    798.26119  0.015755984   0.01456922           10 
 4223000    0.5727684   -7.8532839    799.88649  0.015784326  0.014564481           14 
 4224000    0.5863561   -7.8819964    799.32486  0.015769509  0.014559743           21 
 4225000   0.57112879   -7.8833769    797.11562  0.015722202  0.014555001           15 
 4226000   0.58296898    -7.870666    798.02767  0.015736466   0.01455026           12 
 4227000   0.57246785   -7.8719891    798.08235  0.015733821  0.014545524            8 
 4228000     0.580375   -7.8399972    797.49412  0.015718506   0.01454079            8 
 4229000   0.57538513   -7.8611276    798.18623  0.015728427  0.014536063           14 
 4230000    0.5731626    -7.879785    796.90194  0.015699408  0.014531329           11 
 4231000   0.58073273   -7.8622356    796.45522  0.015686899  0.014526601            7 
 4232000   0.57036115   -7.8855477    799.09585  0.015735189  0.014521869            9 
 4233000   0.56531396   -7.8841893    797.65929  0.015703191  0.014517139            9 
 4234000   0.57080945   -7.8817223    795.84189  0.015663712  0.014512407           17 
 4235000    0.5744946   -7.8714184    796.88514  0.015680542  0.014507667            8 
 4236000   0.57595016   -7.8778911    797.96219  0.015698029  0.014502936           10 
 4237000   0.56488781   -7.8835604    797.03433  0.015676075  0.014498208            9 
 4238000   0.57086671   -7.8922422    796.94813  0.015670681  0.014493479           10 
 4239000   0.56782968   -7.8656609    796.90278  0.015666092  0.014488753           10 
 4240000   0.56601961     -7.88372    798.49002  0.015693593  0.014484027            8 
 4241000   0.57941981   -7.8801587    795.50349  0.015631209  0.014479307           12 
 4242000   0.57398666   -7.8859949    797.62595   0.01566922  0.014474591           10 
 4243000   0.58039282   -7.8873359    798.09845  0.015674807  0.014469872           14 
 4244000   0.58353495   -7.8865282    796.01311  0.015630166  0.014465156           10 
 4245000   0.57245029   -7.8688426    798.96052  0.015684345  0.014460443            7 
 4246000   0.57931925   -7.8909032    798.49778  0.015671569  0.014455734            9 
 4247000   0.57315386    -7.869622    798.00435  0.015658197  0.014451028            6 
 4248000   0.58465627   -7.8843742    796.90417  0.015632929  0.014446329           13 
 4249000   0.56782462   -7.8653286    797.59004  0.015642701  0.014441623           12 
 4250000   0.57393961   -7.8918315    797.32416  0.015633807  0.014436924            9 
 4251000   0.57953972   -7.8680793    798.38698  0.015650964  0.014432227           17 
 4252000   0.55131004   -7.8907312    796.72062  0.015614625  0.014427526           11 
 4253000   0.56740378   -7.8928477    799.20789  0.015659689  0.014422826           17 
 4254000   0.58164519   -7.8897644    796.71616  0.015607196  0.014418136            5 
 4255000   0.57263116    -7.877239    796.64185  0.015602073   0.01441344            8 
 4256000   0.57009877   -7.8754735    798.08705  0.015626704  0.014408745            8 
 4257000   0.55940669   -7.8749997    797.02952  0.015602332  0.014404048            7 
 4258000   0.57450433   -7.8779722    798.24372  0.015622431  0.014399354           12 
 4259000   0.57141925   -7.9037366    797.22749  0.015598879  0.014394652           10 
 4260000   0.57474868   -7.8850076    796.69737  0.015584847  0.014389955            7 
 4261000   0.56725406   -7.8904151     797.0693  0.015588463  0.014385257            6 
 4262000   0.56056932    -7.890188    797.71367  0.015597405  0.014380565           11 
 4263000   0.58390618    -7.885775    796.17116  0.015563593  0.014375871           13 
 4264000   0.58020257   -7.8864032    796.81894  0.015572603  0.014371189            7 
 4265000   0.58239086   -7.8825265    797.73414  0.015586834  0.014366505            9 
 4266000   0.57410947   -7.8594248     797.2215  0.015573166  0.014361827           13 
 4267000   0.57396507   -7.8967942    797.24148  0.015569906  0.014357145           11 
 4268000   0.56840094   -7.8936146    797.77786  0.015576731  0.014352467            9 
 4269000   0.56927005   -7.8970593    798.11757  0.015579714  0.014347785            6 
 4270000   0.57000723   -7.8881931    797.38612   0.01556179  0.014343104            4 
 4271000   0.56365928   -7.8817887    796.85701  0.015547823  0.014338425            8 
 4272000   0.57316155   -7.8970733    796.84621  0.015543973  0.014333749           10 
 4273000    0.5580428   -7.8880266    797.69773  0.015556942  0.014329065            7 
 4274000   0.56717248   -7.9094503    796.35122  0.015527048  0.014324384            5 
 4275000   0.57613835   -7.8913709    795.68745  0.015510477  0.014319698            7 
 4276000   0.56207098   -7.8995736    797.15665  0.015535482  0.014315016            5 
 4277000   0.56296359   -7.8847406    796.14849  0.015512207  0.014310328            7 
 4278000   0.56675206    -7.903749    796.42687  0.015514003  0.014305645            8 
 4279000   0.57324191     -7.90103    795.64201  0.015495092  0.014300962            6 
 4280000   0.56773931   -7.9138957    796.63612  0.015510828  0.014296284            8 
 4281000   0.56264158   -7.9061736    796.10704  0.015496906  0.014291599            7 
 4282000    0.5649187   -7.9049628    795.45601  0.015480617  0.014286921            6 
 4283000   0.55394863   -7.9014642    796.25658  0.015492579  0.014282244            9 
 4284000   0.57359888   -7.8988516    796.44372  0.015492603  0.014277569            8 
 4285000   0.55319506   -7.8850476    796.76918  0.015495317  0.014272898            9 
 4286000   0.57185491   -7.9256016    796.58847  0.015488188  0.014268227           10 
 4287000   0.56525751    -7.887111    796.29866  0.015478941  0.014263556            4 
 4288000   0.55979665   -7.9211475    796.23262  0.015474048  0.014258889            8 
 4289000   0.55908867   -7.9019898     796.1791    0.0154694  0.014254221           11 
 4290000   0.56588817   -7.8920063    796.12345  0.015464713  0.014249562            6 
 4291000   0.56185868   -7.8888052    796.64006  0.015471142  0.014244898            6 
 4292000   0.56883719   -7.8992488    796.92508  0.015473072  0.014240242            9 
 4293000   0.55542006   -7.9051175    796.52042  0.015461612  0.014235585            7 
 4294000    0.5625256     -7.91039    795.72546  0.015442584  0.014230934            5 
 4295000   0.56356446   -7.9009281     796.7052  0.015457998  0.014226281            9 
 4296000   0.57588125   -7.8895852    797.47309  0.015469295  0.014221632            9 
 4297000   0.56337187   -7.9079849     796.9112  0.015454798  0.014216981            5 
 4298000   0.56567707   -7.8934273    797.02362  0.015453382  0.014212325            7 
 4299000   0.56020876   -7.8999167    796.30507  0.015435859  0.014207673            9 
 4300000   0.57311875   -7.9141068     796.9542  0.015444849   0.01420302            7 
 4301000   0.56997472    -7.901719    796.11917  0.015425079   0.01419837            7 
 4302000   0.56582688   -7.9320147    795.88147  0.015416889   0.01419372            3 
 4303000   0.55976377   -7.9297961    795.86715  0.015413029  0.014189067            4 
 4304000   0.55913079   -7.9067488    795.19218  0.015396379  0.014184417            5 
 4305000   0.55963495   -7.9138841    795.63039  0.015401285  0.014179769            8 
 4306000   0.55967862   -7.9124732    796.36712  0.015411966  0.014175135            6 
 4307000   0.57307249   -7.8862252    795.75278  0.015396501  0.014170501           12 
 4308000   0.56144998   -7.9212458    795.91067  0.015395982  0.014165858           11 
 4309000   0.56946181   -7.9199306    796.39507  0.015401777  0.014161219            6 
 4310000   0.57275491   -7.9259356    796.09576  0.015392416  0.014156584            8 
 4311000   0.55898816   -7.9186669    797.77685  0.015421342  0.014151953            8 
 4312000   0.55260184   -7.9176549    795.96908  0.015382829  0.014147324            7 
 4313000     0.567847   -7.9157901     794.2149  0.015345369  0.014142688            7 
 4314000   0.56397921   -7.9322303     795.2813  0.015362411  0.014138059            6 
 4315000   0.56250119   -7.9372687    795.22606  0.015357784  0.014133433            6 
 4316000   0.56361938   -7.8925765    795.67418  0.015362878   0.01412881           14 
 4317000   0.55348663   -7.8870987    796.37423  0.015372833  0.014124194            3 
 4318000    0.5519738   -7.9128654     795.9482  0.015361051  0.014119574           15 
 4319000   0.55835527   -7.9212367    797.37442  0.015385012  0.014114957            9 
 4320000   0.55263916   -7.9168775    796.20823  0.015358955  0.014110342            6 
 4321000   0.55060632   -7.9244389    795.25927  0.015337099  0.014105727            9 
 4322000    0.5625327     -7.92376    795.13678  0.015331189  0.014101105            6 
 4323000   0.56173717   -7.9204317    794.37205  0.015312901  0.014096489            7 
 4324000   0.56416375   -7.9250915    796.26621  0.015345864  0.014091872            6 
 4325000   0.55617604   -7.9159129    795.84576  0.015334215  0.014087261            4 
 4326000   0.55896131   -7.9227377    795.22561  0.015318724   0.01408265           11 
 4327000   0.55105339   -7.9176607    796.48669  0.015339471   0.01407804            7 
 4328000   0.55640546   -7.9066943     794.0106  0.015288251  0.014073435            6 
 4329000   0.55943989   -7.9138161    795.34646  0.015310435  0.014068824           11 
 4330000   0.56790607   -7.9149158    794.80469  0.015296472  0.014064213           10 
 4331000   0.55036706   -7.9107896     793.7856  0.015273332  0.014059602            6 
 4332000   0.55095136   -7.9093113    796.70953  0.015326053  0.014054993           11 
 4333000   0.57328905   -7.9231101    795.39224  0.015297181  0.014050386           11 
 4334000   0.54875236   -7.9215201    795.02654   0.01528662  0.014045781           10 
 4335000   0.55857015   -7.9315838    795.36433  0.015289587   0.01404118           10 
 4336000   0.55544437   -7.9160408    795.43256  0.015287372  0.014036586           12 
 4337000   0.53859512   -7.9053306    795.17988  0.015278992  0.014031991            7 
 4338000   0.54516133    -7.922853    794.69569  0.015266169  0.014027396           11 
 4339000   0.55023441   -7.9234584    795.27225  0.015273724  0.014022801           12 
 4340000   0.54841655   -7.9235809    794.31609  0.015251845  0.014018208           12 
 4341000   0.55209512   -7.9053322    795.38466  0.015268845  0.014013616           15 
 4342000   0.56272361   -7.9315397    795.15259  0.015260874  0.014009025            9 
 4343000   0.56261969    -7.912327     796.1962  0.015277385  0.014004436           13 
 4344000   0.56463263   -7.9262174    794.66697  0.015244532  0.013999857            6 
 4345000   0.54361378   -7.9277805    794.13321  0.015230786   0.01399527            6 
 4346000   0.55382158    -7.944112    795.70129   0.01525735  0.013990682            9 
 4347000   0.54639777   -7.9384641    795.02103  0.015240799  0.013986097            8 
 4348000   0.55006688   -7.9264074      795.122  0.015239229   0.01398151            9 
 4349000   0.55700816   -7.9365037      795.858  0.015249828  0.013976933           12 
 4350000   0.55561265   -7.9079664     796.2552  0.015253931  0.013972364           25 
 4351000   0.56320138   -7.9085185     795.5264  0.015236467  0.013967795           15 
 4352000   0.55727931    -7.918148    794.75621  0.015218218  0.013963221           15 
 4353000   0.55605279   -7.9219889    794.73637  0.015214342  0.013958653           13 
 4354000   0.55475216   -7.9204017    796.52822  0.015245143  0.013954082           16 
 4355000   0.55410716   -7.9343688    794.82025   0.01520896  0.013949509           10 
 4356000   0.55215931   -7.9211481    796.28083   0.01523341  0.013944943           12 
 4357000   0.54452753    -7.920117    795.32216  0.015211578  0.013940375            8 
 4358000   0.56198975   -7.9387756    796.06283  0.015222251  0.013935808            8 
 4359000   0.56034508   -7.9248561    794.96777  0.015197824  0.013931241           11 
 4360000   0.55646423   -7.9212657    795.01985  0.015195334   0.01392668            8 
 4361000   0.55869149   -7.8992695    795.03017  0.015192046   0.01392212            9 
 4362000   0.54953647    -7.933842    795.42197  0.015196049  0.013917561            9 
 4363000   0.54860984   -7.9389776    795.29161  0.015190076  0.013913002            8 
 4364000   0.56017726   -7.9244205    794.65666   0.01517447  0.013908443           10 
 4365000   0.57306997   -7.9297776    794.20161  0.015162306  0.013903887           12 
 4366000   0.56063583   -7.9167974    792.49165  0.015126196  0.013899335           10 
 4367000    0.5546161   -7.9226716    795.15836  0.015173619  0.013894784            8 
 4368000   0.56837914   -7.9182449    795.31656  0.015173164  0.013890235            7 
 4369000   0.54807659   -7.9326982    795.17379  0.015166968  0.013885689            5 
 4370000   0.55270586   -7.9299807    795.88726  0.015177103  0.013881145           14 
 4371000   0.56213364   -7.9310456    794.97205  0.015156182  0.013876601           10 
 4372000   0.55087516   -7.9355269    796.50325  0.015181901   0.01387206            7 
 4373000   0.54651626   -7.9110465    795.38421  0.015157104  0.013867521            8 
 4374000   0.55537224   -7.9309193    795.29851  0.015152006  0.013862982           11 
 4375000   0.53334022   -7.9378438    793.60506  0.015116287  0.013858441            7 
 4376000   0.54946189   -7.9472109    795.16877  0.015142611  0.013853899           14 
 4377000   0.54135785   -7.9332917    795.46921  0.015144871  0.013849368            7 
 4378000    0.5440935    -7.931768    795.69033  0.015145621  0.013844839            8 
 4379000   0.54860286   -7.9322011    795.48746  0.015138301  0.013840304            9 
 4380000   0.54407479   -7.9214733     795.7904  0.015140609  0.013835773            8 
 4381000   0.55102596   -7.9356286    795.93092  0.015139826  0.013831241           13 
 4382000   0.55482072   -7.9446463    795.56756  0.015129461  0.013826709            8 
 4383000   0.54328384   -7.9388132    795.83159  0.015131029  0.013822184            9 
 4384000    0.5490509   -7.9398222    795.20573  0.015115681  0.013817657           13 
 4385000   0.54310201   -7.9264344    794.78043  0.015104151  0.013813132           14 
 4386000   0.54387631   -7.9432684    794.75816  0.015100284  0.013808608            8 
 4387000    0.5583074   -7.9377622     794.1913  0.015086074  0.013804088           11 
 4388000   0.55891393    -7.943408    793.60223  0.015071449  0.013799573           11 
 4389000   0.54923019   -7.9097142    794.69899  0.015088839  0.013795059           12 
 4390000   0.55677359   -7.9410898    794.43026  0.015080301  0.013790541            9 
 4391000    0.5555198    -7.928318    795.85193  0.015103847  0.013786031            8 
 4392000   0.54561937    -7.951168    794.81862  0.015080803  0.013781523            7 
 4393000    0.5460817   -7.9386176    794.60409    0.0150733  0.013777005            9 
 4394000   0.54591247   -7.9348909    795.70883  0.015090821  0.013772487           12 
 4395000   0.53880108   -7.9324302     794.0598  0.015056121  0.013767971           11 
 4396000   0.54487343   -7.9465714    795.09532  0.015072326  0.013763459           13 
 4397000   0.54801032   -7.9546927    794.35504  0.015054868  0.013758945           14 
 4398000    0.5547607   -7.9370894    793.29954  0.015031445  0.013754434           14 
 4399000   0.54545413   -7.9571579    795.06614  0.015061494  0.013749928           11 
 4400000    0.5418964   -7.9435597    795.37919     0.015064  0.013745426            5 
 4401000   0.54774516    -7.923617    793.78581  0.015030406  0.013740922           15 
 4402000   0.54954107   -7.9496174    794.24693  0.015035721  0.013736419           11 
 4403000   0.55750944   -7.9231608     793.0626  0.015009891  0.013731914           11 
 4404000   0.54453564   -7.9475125    793.48409  0.015014458  0.013727417            5 
 4405000   0.54205941   -7.9384162    795.10816  0.015041774  0.013722921            8 
 4406000   0.55502701   -7.9335694    793.72346   0.01501217  0.013718423            8 
 4407000   0.55900429   -7.9558805    793.57628  0.015005981  0.013713925           11 
 4408000   0.55998645    -7.967062    793.67039  0.015004355   0.01370943            8 
 4409000   0.54492837   -7.9504876    793.88107  0.015004935  0.013704929            7 
 4410000   0.55184364   -7.9713691    794.93298  0.015021409  0.013700434           10 
 4411000   0.55193567   -7.9420883    794.44926  0.015008865  0.013695941           10 
 4412000   0.54337393    -7.954197    794.05843  0.014998081   0.01369145           11 
 4413000   0.54096588    -7.940995    793.74182  0.014988704  0.013686961           11 
 4414000   0.56050854   -7.9460307    793.50694  0.014980874  0.013682473           13 
 4415000   0.57518927   -7.9687504     794.5801  0.014997737  0.013677988            7 
 4416000   0.55660285   -7.9609334    794.86358   0.01499969  0.013673499            7 
 4417000   0.54099876   -7.9710736    794.57708  0.014990889  0.013669014           10 
 4418000   0.54283583   -7.9463566     793.9112  0.014974936  0.013664531            8 
 4419000   0.55093086   -7.9447587    794.84921  0.014989236  0.013660055            6 
 4420000   0.55087648   -7.9491348    795.28855  0.014994128  0.013655577            9 
 4421000   0.54998201   -7.9484839    794.89914  0.014983396  0.013651101            7 
 4422000   0.55144801    -7.952409    794.62131  0.014974772  0.013646626            9 
 4423000   0.54136867   -7.9420232    794.44216  0.014968011  0.013642154           11 
 4424000   0.54049966   -7.9527892    793.22809  0.014941759   0.01363768            9 
 4425000   0.54856536   -7.9382272    794.13739  0.014955506  0.013633208            8 
 4426000   0.55321074   -7.9407146    793.06367  0.014931911  0.013628738            6 
 4427000   0.53645129    -7.949882    793.73827  0.014941237  0.013624267           12 
 4428000   0.54151227   -7.9629846    794.39084  0.014950144  0.013619804           10 
 4429000   0.54549954   -7.9422843    793.90347  0.014937598  0.013615338           16 
 4430000   0.54432067   -7.9316646    793.79745  0.014932232  0.013610877            7 
 4431000   0.52828776   -7.9157357    794.06549  0.014933903  0.013606423            5 
 4432000   0.55305778   -7.9610808    794.28897  0.014934736  0.013601969            7 
 4433000   0.53871089   -7.9477247    793.00694  0.014907266  0.013597517            5 
 4434000    0.5291997   -7.9674178    794.09901  0.014924429  0.013593061            6 
 4435000   0.54807473   -7.9675576    795.59998  0.014949267  0.013588612            6 
 4436000   0.54029832   -7.9402178    794.33493  0.014922132  0.013584164           12 
 4437000   0.54700656   -7.9353199    794.47325  0.014921367  0.013579715           10 
 4438000    0.5349342    -7.953892    794.14925  0.014911921  0.013575273            7 
 4439000   0.54441124    -7.952926     793.1437  0.014889684  0.013570832           11 
 4440000    0.5436856   -7.9345758    793.23801  0.014888101  0.013566392            9 
 4441000   0.53854813   -7.9478625    794.29432   0.01490457  0.013561948            8 
 4442000   0.54993511   -7.9526599    793.34181  0.014883345   0.01355751            7 
 4443000    0.5418204   -7.9515114    793.56959  0.014884267  0.013553076           13 
 4444000   0.53887761   -7.9449312    793.85678  0.014886303   0.01354864            7 
 4445000   0.54430703   -7.9623657    794.34219  0.014892055  0.013544206            9 
 4446000   0.53897832   -7.9603754     792.8248  0.014860264  0.013539773           10 
 4447000   0.54746445   -7.9428419    793.64386  0.014872271  0.013535339           12 
 4448000   0.54975101   -7.9736962    793.87224  0.014873206  0.013530911            7 
 4449000   0.53675068   -7.9667865    794.74015   0.01488612  0.013526484           12 
 4450000   0.53161032   -7.9636833    793.76129  0.014864444   0.01352206           10 
 4451000   0.54783477   -7.9460964    792.94212  0.014845767  0.013517642           10 
 4452000   0.55687751   -7.9650566    794.44755  0.014870611  0.013513221           10 
 4453000   0.54485315   -7.9365745    793.23009  0.014844488  0.013508798            9 
 4454000   0.54446109   -7.9518312    794.11814  0.014857771  0.013504382            6 
 4455000   0.53728589   -7.9389436    792.24585  0.014819414  0.013499963            9 
 4456000   0.54532449   -7.9655909    793.26029  0.014835059   0.01349555           11 
 4457000   0.53450211   -7.9742765    793.66664  0.014839328  0.013491133            8 
 4458000   0.54304879   -7.9458402    794.38992   0.01484952   0.01348672            7 
 4459000   0.54471518   -7.9581239    793.60175   0.01483146  0.013482309            7 
 4460000   0.55233753   -7.9470183    792.72433   0.01481174  0.013477902           12 
 4461000   0.54177584   -7.9698783    792.83621   0.01481051    0.0134735            9 
 4462000   0.52252981     -7.96705    791.35632  0.014779552  0.013469093           12 
 4463000   0.53859827   -7.9481232    793.95559  0.014824774  0.013464688            8 
 4464000   0.53513988   -7.9453318    794.48293  0.014831297  0.013460284            9 
 4465000   0.54626503   -7.9434003    793.76679   0.01481461  0.013455889            6 
 4466000   0.52922545   -7.9482871    793.78619  0.014811655  0.013451489           10 
 4467000   0.53145767   -7.9634646    795.05782  0.014832061  0.013447092            9 
 4468000   0.53618014   -7.9485697     793.8119  0.014805504  0.013442691            8 
 4469000   0.53881692   -7.9695595    794.24766  0.014810317  0.013438289           11 
 4470000   0.53092626   -7.9432611    794.42779  0.014810361   0.01343389            9 
 4471000   0.54155084   -7.9591583    793.03749  0.014781136  0.013429498            9 
 4472000    0.5320407   -7.9534996    793.33584   0.01478339  0.013425107           10 
 4473000   0.53526537    -7.958081    793.78836  0.014788516  0.013420719            7 
 4474000   0.52813089   -7.9507571    794.30735  0.014794877  0.013416336            5 
 4475000   0.51997758   -7.9627412     793.2219  0.014771357  0.013411951            7 
 4476000   0.53423626   -7.9602848    792.79893  0.014760183  0.013407572            7 
 4477000   0.54290891   -7.9578904    793.50518  0.014770032  0.013403195            8 
 4478000   0.53616673   -7.9777966    794.62357  0.014787546  0.013398815            7 
 4479000   0.54605172   -7.9779584    795.25554  0.014796002  0.013394437            7 
 4480000   0.52739111   -7.9597844    792.66344  0.014744484  0.013390057            8 
 4481000   0.53121719   -7.9558289    793.02175  0.014747857  0.013385685           13 
 4482000   0.54281784      -7.9536    793.00159  0.014744191  0.013381309            9 
 4483000   0.53672829   -7.9609461    793.22355  0.014745028  0.013376938           11 
 4484000   0.53378397   -7.9521266     793.1666  0.014740682  0.013372573           16 
 4485000   0.53991224   -7.9581382    793.86049  0.014750288  0.013368209           12 
 4486000    0.5226034   -7.9441207    794.37294  0.014756519  0.013363849           18 
 4487000   0.53650214   -7.9631592    793.91406  0.014744708  0.013359486            6 
 4488000   0.54063397   -7.9727979    795.65507   0.01477375  0.013355131            6 
 4489000   0.52390404   -7.9600569    794.25067  0.014744388  0.013350772            7 
 4490000   0.53288277   -7.9398326    793.48211  0.014726839  0.013346417            9 
 4491000   0.53247083   -7.9727297    794.85255   0.01474899  0.013342061            7 
 4492000   0.54277686   -7.9825722    792.30519  0.014698449  0.013337708           13 
 4493000   0.52963665   -7.9617291    794.14381  0.014729279  0.013333349           12 
 4494000   0.52293203   -7.9797233    793.59493  0.014715823  0.013328992           11 
 4495000   0.53409843   -7.9709163    793.05398  0.014702521  0.013324636            8 
 4496000   0.53467466   -7.9694896    793.03704  0.014698937  0.013320282            9 
 4497000   0.52701454   -7.9700124    793.34482  0.014701372  0.013315927            6 
 4498000   0.52150548   -7.9694147    792.83348   0.01468863   0.01331157           12 
 4499000   0.52659639   -7.9748977    794.16835   0.01471009  0.013307217           13 
 4500000   0.52440398   -7.9681024    792.74733  0.014680506  0.013302865            7 
 4501000   0.51742697   -7.9709032    793.54158   0.01469195  0.013298512            6 
 4502000   0.53687262   -7.9841191     793.7883  0.014693253  0.013294162            6 
 4503000   0.52486017   -7.9747654      793.138  0.014677955   0.01328982            7 
 4504000   0.52803971   -7.9757737    792.32172  0.014659594  0.013285475            6 
 4505000   0.53943538   -7.9941782    794.44959  0.014695701  0.013281131            8 
 4506000   0.52926587   -7.9792931    792.27145  0.014652157  0.013276792            9 
 4507000   0.52507831   -7.9761756    792.78763   0.01465845   0.01327245            8 
 4508000   0.52669803   -7.9791482    792.92244  0.014657691  0.013268111            9 
 4509000   0.53385316   -7.9853968     792.7337  0.014650952   0.01326378            4 
 4510000   0.52120934   -7.9752455      792.418   0.01464187  0.013259442            9 
 4511000    0.5304274   -7.9811996    794.83648  0.014683302  0.013255106            6 
 4512000   0.53930414   -7.9769695    793.44202  0.014654293  0.013250773            8 
 4513000   0.52769722   -7.9748968     793.1817  0.014646239  0.013246441            9 
 4514000   0.52361076   -7.9810262    792.48136  0.014630065  0.013242111            8 
 4515000   0.52421883   -7.9590187    793.07555  0.014637792  0.013237785           16 
 4516000   0.52992955   -7.9832621    793.73623  0.014646742  0.013233459           11 
 4517000   0.52726643   -7.9707155     793.1593  0.014632856  0.013229138            9 
 4518000   0.52618612   -7.9818652    793.40726   0.01463419  0.013224816            9 
 4519000   0.52970668   -7.9774469    793.28688  0.014628732  0.013220498            6 
 4520000   0.53561676    -7.981313    793.72887  0.014633644   0.01321618            7 
 4521000    0.5225593   -7.9908227    793.57434  0.014627559  0.013211865            9 
 4522000   0.53237151    -7.981783    792.63093  0.014606939  0.013207547            8 
 4523000   0.52988671   -7.9808997     792.9111  0.014608871  0.013203235           15 
 4524000   0.53014376   -7.9640454    793.93904  0.014624577  0.013198929            7 
 4525000   0.52041259   -7.9726528    791.84599  0.014582799  0.013194618            5 
 4526000   0.52587696   -7.9826295     792.0827  0.014583935  0.013190311           14 
 4527000   0.53431003   -7.9830072    792.71278  0.014592312  0.013186002            8 
 4528000   0.53408534   -7.9796752    794.24803  0.014617345  0.013181694            8 
 4529000   0.53889676   -7.9795461    792.06192  0.014573893   0.01317739            9 
 4530000   0.52191641   -7.9756729    793.46789   0.01459654  0.013173089            7 
 4531000   0.52499717    -7.965065    792.25791  0.014571064  0.013168788           11 
 4532000   0.53902856   -7.9760166    793.32213  0.014587418  0.013164489            5 
 4533000   0.52381932   -7.9915842    793.00216  0.014578317  0.013160196           13 
 4534000   0.53746383    -7.976208    792.05457  0.014557686    0.0131559            9 
 4535000   0.52817299   -7.9889301      792.322   0.01455939  0.013151603            9 
 4536000   0.52259906   -7.9859499     792.2704  0.014555232   0.01314731            7 
 4537000   0.52670982   -7.9997164    792.00737  0.014547193  0.013143019            8 
 4538000   0.51814222   -7.9882834    793.37049  0.014569019  0.013138729            7 
 4539000   0.51841511   -7.9691964     792.5154   0.01455011  0.013134442            8 
 4540000   0.53789851   -7.9894069    793.31173  0.014561522  0.013130157           10 
 4541000   0.52802196   -7.9711429    792.88787  0.014550537   0.01312587           11 
 4542000   0.52243738   -7.9799712    792.52437  0.014540664  0.013121588           10 
 4543000   0.52246846   -7.9831368    792.85921  0.014543606  0.013117309           12 
 4544000   0.52082818   -7.9747854    792.29289  0.014530019  0.013113032            7 
 4545000   0.53688518    -7.985041    791.93669  0.014520291  0.013108757            5 
 4546000   0.51932974   -7.9976429    793.83634   0.01455192  0.013104481           14 
 4547000   0.52467494   -7.9841831    792.57213   0.01452555  0.013100208            9 
 4548000   0.53245287   -7.9871348    794.21864  0.014552526  0.013095938            7 
 4549000   0.53260576   -7.9860102    792.78664  0.014523094   0.01309167            6 
 4550000   0.52742359   -7.9928825    792.45565   0.01451384  0.013087401            8 
 4551000    0.5271603   -7.9742831    792.97556  0.014520171  0.013083133            8 
 4552000    0.5293749   -7.9871246    792.12037  0.014501325  0.013078864           11 
 4553000   0.51021463   -7.9844911    793.04453  0.014515055  0.013074591           13 
 4554000   0.52806869   -7.9933369    791.66013  0.014486534  0.013070325            7 
 4555000    0.5191784    -7.989735    792.55815  0.014499783  0.013066065            5 
 4556000   0.51420735   -7.9970547     791.7027  0.014480954  0.013061799            5 
 4557000   0.52280326   -7.9811951    792.62699  0.014494678  0.013057535            9 
 4558000   0.52249508   -8.0200035    792.69905  0.014492816  0.013053271            5 
 4559000   0.52254709   -7.9926909     793.7302  0.014508485  0.013049011           10 
 4560000   0.52373484   -7.9949823    792.43518  0.014481637  0.013044755           10 
 4561000    0.5247914   -7.9813107    792.24203  0.014474933  0.013040503            9 
 4562000   0.53167375   -8.0005956    792.75197  0.014481075   0.01303625            5 
 4563000   0.52879336   -7.9884011     791.9742  0.014463697  0.013032002           11 
 4564000   0.50281873   -7.9899889    792.14698  0.014463683  0.013027751            6 
 4565000    0.5212708   -7.9933494    792.19858  0.014461456  0.013023503           11 
 4566000   0.52547275   -7.9973249    792.62709   0.01446611   0.01301926           19 
 4567000    0.5110126   -7.9968077    791.84455  0.014448663  0.013015011            7 
 4568000   0.51739699   -7.9946272    791.95202  0.014447461  0.013010773           10 
 4569000   0.53702402   -7.9896562    791.93397   0.01444397  0.013006532            7 
 4570000   0.51341829   -7.9901412    791.92693  0.014440681   0.01300229            6 
 4571000   0.51298898   -8.0034823    792.37898  0.014445763   0.01299805           12 
 4572000   0.51980232   -7.9889834    793.37148  0.014460693  0.012993815            8 
 4573000   0.51771307   -7.9948387    791.90393  0.014430788  0.012989584           12 
 4574000   0.52507929   -7.9854051    793.36495  0.014454251  0.012985349           13 
 4575000   0.52532974   -8.0107516    792.50243  0.014435381  0.012981121           11 
 4576000   0.53071608   -7.9961934    792.83185  0.014438226   0.01297689            6 
 4577000   0.51335739   -7.9785662    792.33126  0.014425957  0.012972663            8 
 4578000   0.51504098   -8.0059116    792.54107  0.014426625  0.012968434            7 
 4579000    0.5217867   -8.0053328    792.77028  0.014427646  0.012964207           10 
 4580000   0.52137763   -7.9966487    791.87003  0.014408116  0.012959978            7 
 4581000   0.51653428   -7.9886796    792.61956  0.014418605  0.012955753           12 
 4582000   0.52658967   -7.9970673    792.68871  0.014416716   0.01295153           11 
 4583000   0.50424434   -7.9857203    792.11334  0.014403108  0.012947307           12 
 4584000   0.51732838   -7.9870139    792.89234  0.014414128  0.012943085            7 
 4585000   0.51842834   -7.9919967    792.71131  0.014407694  0.012938872            8 
 4586000   0.51563684   -7.9972301    792.62864   0.01440305  0.012934659            6 
 4587000   0.51624375   -7.9921599    791.74119  0.014383787  0.012930451            9 
 4588000   0.51932498   -7.9947554    792.44495  0.014393435  0.012926245            8 
 4589000   0.51578367   -7.9923991    791.28393  0.014369215  0.012922035            8 
 4590000   0.51210139    -7.971574    792.97448  0.014396777  0.012917827            7 
 4591000   0.50839609   -8.0097843    791.80194  0.014372358  0.012913621            7 
 4592000   0.51083597   -8.0050243    792.12994   0.01437518  0.012909417            7 
 4593000   0.49937936    -7.997427    792.01694      0.01437  0.012905213            7 
 4594000   0.51783955   -8.0049907    793.39324  0.014391838  0.012901014           10 
 4595000   0.50906475   -7.9962219    791.37321  0.014352071  0.012896819           10 
 4596000   0.52778223   -8.0083921    792.08845  0.014361917  0.012892624            5 
 4597000   0.51735085   -7.9868593    792.45082  0.014365362  0.012888428            8 
 4598000   0.51622243   -8.0023494    792.04262  0.014354839  0.012884233            9 
 4599000   0.51034708   -7.9907646    791.63276  0.014344292  0.012880045           22 
 4600000   0.50980377   -7.9992665    792.44711  0.014355926  0.012875854            8 
 4601000   0.50820458   -8.0033672    792.79102  0.014359035  0.012871666           12 
 4602000   0.50921689   -8.0059551    792.48244  0.014350327  0.012867477           10 
 4603000   0.52323571   -8.0033385    791.85289  0.014335812   0.01286329            9 
 4604000   0.51602969   -7.9947951    792.95876  0.014352714  0.012859104            7 
 4605000   0.50861929   -8.0006359    792.60036  0.014343112  0.012854923            6 
 4606000   0.51223812   -8.0010731    791.62811  0.014322408  0.012850742           11 
 4607000   0.51164708   -8.0043254    792.68687   0.01433845  0.012846566            7 
 4608000   0.50590707   -8.0095459    793.36839  0.014347663  0.012842385            6 
 4609000   0.51347624   -8.0037755    792.17487  0.014322971  0.012838211            9 
 4610000   0.51002736   -8.0099842     793.0676  0.014336001  0.012834043           10 
 4611000   0.51905647   -8.0112476    791.54344  0.014305347  0.012829869            8 
 4612000   0.50624419   -8.0031813    791.76941  0.014306328  0.012825699            8 
 4613000   0.51727359   -8.0048962    792.48085  0.014316079   0.01282153            5 
 4614000   0.51840898   -7.9981459    792.04147   0.01430504  0.012817363           12 
 4615000   0.51519749   -7.9883291    792.55152  0.014311151  0.012813199            5 
 4616000   0.51327482   -8.0210493    792.54565  0.014307944  0.012809038            8 
 4617000   0.52369553   -8.0045017    790.51541  0.014268201  0.012804873           10 
 4618000   0.52054767   -7.9805449    792.65316  0.014303688   0.01280071           11 
 4619000   0.51130302   -8.0016686    791.45574  0.014278988  0.012796548           10 
 4620000   0.51776509   -8.0157671    791.80461   0.01428219  0.012792388            7 
 4621000   0.51227161   -8.0052169    791.91582  0.014281105  0.012788232            7 
 4622000   0.51640044     -8.00157    792.85803  0.014295003  0.012784077           10 
 4623000   0.51363921   -8.0047955    791.79999  0.014272839  0.012779921            8 
 4624000   0.52222152   -8.0258527    793.02941  0.014291908  0.012775767            8 
 4625000   0.52219238   -8.0049265    792.83415    0.0142853  0.012771617           10 
 4626000   0.51387403   -8.0085278    792.68409  0.014279509  0.012767465           10 
 4627000   0.51039821   -8.0037207    791.12422  0.014248329  0.012763314           10 
 4628000   0.51946948   -7.9914632    791.28393  0.014248126  0.012759168           10 
 4629000   0.51265567   -8.0035176    792.06295  0.014259072  0.012755022            7 
 4630000   0.51221472   -8.0101858    791.06877  0.014238099  0.012750879            6 
 4631000    0.5055851   -8.0096662     792.3793  0.014258607  0.012746733           12 
 4632000   0.50619952   -8.0238027    792.83686  0.014263761  0.012742596            6 
 4633000   0.50679188   -8.0079821    791.74363  0.014241018   0.01273846           11 
 4634000   0.51828946    -7.994905     792.2188   0.01424649  0.012734325           12 
 4635000   0.50340755   -7.9960518    792.63365  0.014250875  0.012730191           14 
 4636000   0.51704249   -8.0011433    791.13402  0.014220844   0.01272606           11 
 4637000   0.50131193   -7.9879636    791.07879  0.014216785  0.012721932           19 
 4638000   0.50898479   -8.0149619      792.183   0.01423356  0.012717809           17 
 4639000   0.50217895   -8.0224376    792.39713  0.014234338  0.012713684           11 
 4640000     0.513114   -8.0331653    792.55815  0.014234162  0.012709562           14 
 4641000    0.5049899   -7.9930001    791.76151  0.014216791  0.012705438            7 
 4642000    0.5069667   -8.0289464    793.08643  0.014237513  0.012701318            7 
 4643000   0.50396675   -8.0133644    791.44393  0.014204967  0.012697196            6 
 4644000   0.50290047   -8.0052966     791.9346  0.014210713  0.012693078           10 
 4645000   0.51134609   -8.0159888    792.81032  0.014223364  0.012688963            8 
 4646000   0.51141219   -7.9917634    793.31107  0.014229284   0.01268485           10 
 4647000   0.50424497   -8.0239452    790.33491  0.014172852  0.012680738            8 
 4648000   0.51954493   -7.9964091    792.49946  0.014208611  0.012676627            5 
 4649000   0.52167935   -8.0114425    791.98807  0.014196388   0.01267252           11 
 4650000   0.49852203   -8.0118495     792.4857  0.014202253  0.012668414            9 
 4651000   0.50566549    -8.035404    791.45622  0.014180754  0.012664304           12 
 4652000   0.50774192   -8.0149931    791.42407  0.014177129  0.012660195            6 
 4653000   0.51497993   -8.0216894    791.47335  0.014174965   0.01265609           12 
 4654000    0.5056348   -8.0158829    792.32731   0.01418721  0.012651985            9 
 4655000   0.50480017   -8.0175401    792.28182  0.014183348  0.012647883           11 
 4656000   0.50217863   -8.0257997    792.62456  0.014186436  0.012643781            5 
 4657000   0.51612915   -8.0125302    792.18676  0.014175556  0.012639685           10 
 4658000   0.50923164   -8.0286499    791.66718  0.014163217  0.012635582            9 
 4659000    0.4968202   -8.0250923    790.99567  0.014148166  0.012631485           13 
 4660000   0.50621696   -8.0218362     790.1991  0.014130885  0.012627392            9 
 4661000   0.50753536   -8.0227943    791.20188  0.014145782  0.012623302           12 
 4662000   0.50378942   -8.0202042    790.89022  0.014137177  0.012619207           11 
 4663000   0.50156517    -8.011567    792.51208   0.01416313  0.012615119            8 
 4664000   0.50525988   -8.0156868    791.66591  0.014144974   0.01261103            6 
 4665000   0.50848328   -8.0367945     793.3791  0.014172546  0.012606945            6 
 4666000   0.51126136   -8.0103129     791.6482  0.014138595  0.012602861           12 
 4667000   0.49784897   -8.0085744    791.49118  0.014132762  0.012598777           14 
 4668000   0.49980924    -8.023787    790.39249   0.01411012  0.012594697           10 
 4669000   0.49153192   -8.0377372    790.88236  0.014115841  0.012590616            8 
 4670000   0.49347386   -8.0252711     790.6345  0.014108396  0.012586534            9 
 4671000   0.51229038   -8.0323781    792.24152  0.014134046  0.012582458            7 
 4672000    0.5086778   -8.0124427    790.54863  0.014100825  0.012578386           12 
 4673000   0.50544101   -8.0081446    791.87604  0.014121479  0.012574311           10 
 4674000   0.50256637   -8.0246078    791.80514  0.014117193   0.01257024           14 
 4675000   0.48827636   -8.0168004    792.60469  0.014128426  0.012566171           12 
 4676000   0.51104695   -8.0208966    791.72496  0.014109726  0.012562104            7 
 4677000   0.50072683    -8.015052    791.50955  0.014102871  0.012558037           13 
 4678000   0.48698481   -8.0205806    792.39541  0.014115637  0.012553972            8 
 4679000   0.49852306   -8.0308034    792.14215   0.01410811  0.012549905            9 
 4680000   0.50981184   -7.9993054    792.76532  0.014116192  0.012545846            7 
 4681000   0.50024428   -8.0187979    793.50184  0.014126288  0.012541787            9 
 4682000    0.5035176   -8.0296288     791.6402  0.014090136  0.012537728           15 
 4683000   0.49805334   -8.0207749    791.67199  0.014087693  0.012533673           13 
 4684000   0.49584058    -8.021987    790.60338  0.014065674  0.012529618           10 
 4685000   0.50106607   -8.0102968    792.57426  0.014097728  0.012525565            8 
 4686000   0.49990522   -8.0153751    791.40911  0.014073999  0.012521515           14 
 4687000   0.50517282   -8.0049347    791.28724  0.014068829  0.012517467           14 
 4688000   0.51432011   -8.0207418    793.08353  0.014097759  0.012513419           11 
 4689000   0.50493859   -8.0266785    790.46606  0.014048235  0.012509371            9 
 4690000   0.50494907   -8.0302704    791.60937  0.014065554  0.012505325           19 
 4691000   0.50221625   -8.0118535    792.33196  0.014075392  0.012501278           10 
 4692000   0.49620075   -8.0189459     790.4649  0.014039232  0.012497236           10 
 4693000   0.49018177   -8.0288752    792.14278  0.014066034  0.012493194           16 
 4694000   0.50182219   -8.0216781    791.95524  0.014059708  0.012489153           14 
 4695000   0.50831575   -8.0183876    791.53756    0.0140493  0.012485114           16 
 4696000   0.49828708   -8.0372659    792.49594  0.014063315  0.012481075           12 
 4697000   0.49265499   -8.0349352    790.58932  0.014026494  0.012477039           10 
 4698000   0.50333307   -8.0051032    792.28133  0.014053521  0.012473007           13 
 4699000   0.50106175   -8.0091364     790.9129  0.014026263  0.012468975           11 
 4700000   0.48912592   -8.0270041    792.52826   0.01405192  0.012464949           11 
 4701000   0.51034215   -8.0410123    791.20049  0.014025393  0.012460918           12 
 4702000   0.50004921    -8.037412    791.03981  0.014019563   0.01245689           25 
 4703000   0.50137661   -8.0108209    790.87996  0.014013749  0.012452868           12 
 4704000   0.50043482   -8.0135139    791.70747   0.01402543  0.012448843           20 
 4705000   0.50324911   -8.0303401    791.64178  0.014021285  0.012444821           11 
 4706000   0.50255322   -8.0195043     791.4951  0.014015709  0.012440798            8 
 4707000   0.50331203   -8.0095372    790.86461  0.014001569  0.012436778           14 
 4708000   0.50045111   -8.0189955    791.74346  0.014014151  0.012432758           10 
 4709000   0.49180832   -8.0236062    792.15534  0.014018464  0.012428747            9 
 4710000   0.50073144    -8.024021     791.8191  0.014009538  0.012424731           11 
 4711000   0.49358485   -8.0164679    792.06069  0.014010838  0.012420718           16 
 4712000   0.49313257   -8.0235889    793.15999  0.014027306   0.01241671            7 
 4713000    0.5017657   -8.0224409    792.60865  0.014014581  0.012412702           11 
 4714000   0.49255701   -8.0310095    792.08533  0.014002357  0.012408695           12 
 4715000   0.50362377   -8.0062198    791.21616  0.013984026  0.012404688           12 
 4716000   0.49122494   -8.0239404    791.52818  0.013986574  0.012400683           12 
 4717000   0.48062565   -8.0331238    790.54645  0.013966265  0.012396681           13 
 4718000   0.49005985   -8.0269446    790.88577  0.013969298  0.012392677           11 
 4719000   0.48585433   -8.0269499    791.63524  0.013979573  0.012388678           13 
 4720000   0.49705056   -8.0374811    790.16805  0.013950707   0.01238468           17 
 4721000    0.5068988   -8.0295226    791.33789  0.013968402  0.012380682            7 
 4722000   0.50629679   -8.0425638    790.78166  0.013955627  0.012376689           12 
 4723000   0.49823346   -8.0357226    790.84505  0.013953791  0.012372695           12 
 4724000   0.49786622   -8.0388068    793.50809  0.013997814  0.012368704           11 
 4725000   0.49205037   -8.0189443    790.77009  0.013946562  0.012364714           10 
 4726000    0.5026595   -8.0234575    790.96378  0.013947027  0.012360726           13 
 4727000   0.50663618     -8.02622    791.80402  0.013958889  0.012356735            8 
 4728000   0.49661905   -8.0306594    792.44491  0.013967233  0.012352745            7 
 4729000   0.49174902    -8.024114    791.26357  0.013943462  0.012348759           10 
 4730000   0.49873341   -8.0371351    791.91003  0.013951903  0.012344775           14 
 4731000   0.49298405   -8.0427661    791.90876  0.013948932  0.012340794           10 
 4732000   0.49882219    -8.041932    790.84094  0.013927179  0.012336811           10 
 4733000   0.50118546   -8.0337392    791.16943   0.01393002   0.01233283           13 
 4734000   0.49424029   -8.0328408    791.05531  0.013925069  0.012328855           11 
 4735000   0.48728689   -8.0234086    791.55022  0.013930838  0.012324877           11 
 4736000    0.4880449   -8.0308282    791.69239  0.013930398    0.0123209           12 
 4737000    0.4834396   -8.0389717    791.23215  0.013919361  0.012316929            7 
 4738000   0.48548471    -8.034924    791.02892  0.013912849  0.012312957            9 
 4739000   0.49883938   -8.0272934    792.00615  0.013927097  0.012308985            9 
 4740000   0.49371764   -8.0280525    791.11748  0.013908535  0.012305016            9 
 4741000   0.49610033   -8.0501195    790.61459  0.013896762  0.012301048           12 
 4742000   0.48170788   -8.0273747    792.84181  0.013932971  0.012297082           13 
 4743000   0.49910583   -8.0270147    790.80429  0.013894235  0.012293119           10 
 4744000   0.49324347   -8.0222184    790.45399  0.013885153  0.012289157           14 
 4745000   0.49113973   -8.0381097    791.97395  0.013908921  0.012285194           24 
 4746000   0.48775542   -8.0419248     791.4827  0.013897365  0.012281233           13 
 4747000   0.49429846   -8.0085097    790.77483   0.01388201  0.012277274           23 
 4748000   0.48765774   -8.0430538      791.295  0.013888216  0.012273319           10 
 4749000   0.48723261   -8.0386174    791.04794  0.013880956  0.012269361           12 
 4750000   0.49078064   -8.0376096    790.17649  0.013862746  0.012265407           18 
 4751000   0.48318136   -8.0512807    790.24876  0.013861095  0.012261454           21 
 4752000   0.49928746   -8.0385124    791.04412  0.013872126  0.012257502           13 
 4753000   0.49049388   -8.0346639    789.53077  0.013842674  0.012253553           13 
 4754000   0.49511163   -8.0172142    790.76335  0.013861368  0.012249605           15 
 4755000    0.4964892    -8.043204     790.9932  0.013862482  0.012245656           11 
 4756000   0.48837139   -8.0420062    791.22037  0.013863547  0.012241708           11 
 4757000   0.48329781   -8.0381024    791.04739  0.013857603  0.012237764           14 
 4758000   0.48952634   -8.0469062    791.55658  0.013863608  0.012233818            9 
 4759000   0.48463149   -8.0345214    793.48863  0.013894527  0.012229875            9 
 4760000   0.49169855   -8.0417259    790.72089  0.013843153  0.012225933            8 
 4761000   0.48463983   -8.0484273    790.81039  0.013841812  0.012221995           11 
 4762000   0.49505605   -8.0258607     790.2105  0.013828407  0.012218059            8 
 4763000   0.50429283   -8.0402267    791.31696  0.013844862  0.012214123           14 
 4764000   0.49350947   -8.0399629    790.88099   0.01383433   0.01221019            8 
 4765000   0.48895572   -8.0432593    791.42581  0.013840955  0.012206261           16 
 4766000   0.48460925   -8.0465855    790.57137  0.013823111   0.01220233            8 
 4767000   0.49096307   -8.0500012    792.25828  0.013849701  0.012198398            9 
 4768000   0.47932081   -8.0388648    790.72061  0.013819921  0.012194469           19 
 4769000   0.48473569   -8.0408285    790.48395  0.013812888  0.012190539           11 
 4770000   0.48787168   -8.0499179    789.74503  0.013797083  0.012186615           19 
 4771000   0.48828399   -8.0344567    791.45486  0.013824056  0.012182689           23 
 4772000   0.49391462   -8.0325813     790.2807  0.013800655  0.012178768           19 
 4773000   0.47620409   -8.0481973    791.77808  0.013823907  0.012174851           16 
 4774000   0.48695793   -8.0239737    791.40037  0.013814418  0.012170936           14 
 4775000   0.49218453   -8.0308464    791.25344  0.013808961  0.012167023           15 
 4776000   0.48435052   -8.0306797    791.82119  0.013815976  0.012163111           11 
 4777000   0.49269476   -8.0325132    790.27682  0.013786142  0.012159201            7 
 4778000   0.49092034   -8.0612495    790.29557  0.013783584  0.012155292            9 
 4779000   0.48512697   -8.0527498    791.35941   0.01379925  0.012151384            6 
 4780000   0.49139238   -8.0275471    790.67824  0.013784488  0.012147477           13 
 4781000   0.48985308   -8.0396662    790.93261  0.013786039  0.012143573           15 
 4782000   0.48213376   -8.0354164    789.79105  0.013763262   0.01213967           18 
 4783000   0.47407766   -8.0269096    790.62601  0.013774932  0.012135768           14 
 4784000   0.48366913   -8.0364826     790.5221  0.013770243  0.012131867           14 
 4785000   0.49262913   -8.0353805    790.59245   0.01376859  0.012127971           14 
 4786000   0.47987025   -8.0359907    790.45949  0.013763398  0.012124071           11 
 4787000   0.48561316   -8.0312609    790.10153  0.013754292  0.012120178           10 
 4788000   0.49180786   -8.0585617    790.68105  0.013761505  0.012116286           24 
 4789000   0.48776012   -8.0278603     791.6619    0.0137757  0.012112396           18 
 4790000   0.47871486    -8.041018    790.46207   0.01375195  0.012108506           12 
 4791000   0.48734762   -8.0323921    789.95047  0.013740181  0.012104614           10 
 4792000   0.49347906   -8.0397263    790.04754  0.013739002  0.012100721           20 
 4793000   0.48273091    -8.047453    791.21824  0.013756489  0.012096832           18 
 4794000   0.49350834   -8.0434579    791.45372  0.013757713  0.012092944           12 
 4795000   0.47828414    -8.059372    791.13546  0.013749313  0.012089058           17 
 4796000   0.48342145   -8.0622038    791.31078  0.013749492  0.012085172           11 
 4797000   0.48147803   -8.0411553    791.58482  0.013751387  0.012081293           22 
 4798000   0.48819079   -8.0440711    789.50851  0.013712458  0.012077413           19 
 4799000   0.49046289   -8.0448412    789.76869  0.013714119  0.012073539           18 
 4800000   0.47799056    -8.060078    791.26777  0.013737288  0.012069665           12 
 4801000   0.48851297   -8.0491993    791.23808  0.013733911  0.012065791           10 
 4802000   0.47552857   -8.0462118    789.57608  0.013702209   0.01206192           19 
 4803000   0.48369635   -8.0522742    792.43728  0.013748999   0.01205805           14 
 4804000   0.47855605   -8.0484396    790.32414  0.013709481  0.012054183            7 
 4805000   0.48889361   -8.0646652    790.37682  0.013707541  0.012050314           17 
 4806000   0.47728575   -8.0453552     790.1889   0.01370143  0.012046448           11 
 4807000   0.47291768   -8.0463956    790.62877  0.013706206  0.012042579            9 
 4808000   0.48038479    -8.042954     789.6762  0.013686845  0.012038712           14 
 4809000   0.48560207   -8.0566776    789.85121  0.013687031  0.012034848           21 
 4810000   0.48505976   -8.0558914    791.12237  0.013706209  0.012030985           10 
 4811000   0.48863839   -8.0366926     789.6812  0.013678397  0.012027125           12 
 4812000   0.48713389    -8.043439    790.78011  0.013694585  0.012023265           10 
 4813000   0.47962146   -8.0467286    789.64929   0.01367216  0.012019405            9 
 4814000   0.48836172   -8.0453469    789.93127  0.013674201  0.012015549           11 
 4815000   0.47986706   -8.0463716    790.48586   0.01368096  0.012011696           25 
 4816000   0.48274277   -8.0570593    791.84957  0.013701716  0.012007846           15 
 4817000   0.49325152   -8.0485932    789.84114  0.013664126  0.012003996           12 
 4818000   0.47996376   -8.0480356    790.45853  0.013671968  0.012000143           18 
 4819000   0.48128574   -8.0464442    790.53518  0.013670457  0.011996294           11 
 4820000   0.47761901   -8.0313276    791.02453  0.013676081  0.011992449           10 
 4821000   0.48692743   -8.0472147    790.70885  0.013667788  0.011988602           18 
 4822000   0.48478547   -8.0292049    790.50912  0.013661501  0.011984759           14 
 4823000   0.48307364   -8.0442008    789.72542  0.013645128  0.011980918           17 
 4824000   0.48782312   -8.0642938    789.62816  0.013640619  0.011977077           16 
 4825000   0.48653813   -8.0519821    790.54981   0.01365371  0.011973235           17 
 4826000   0.48757643   -8.0539129    789.40307  0.013631079  0.011969393           11 
 4827000   0.48881136   -8.0581458    790.31415  0.013643984  0.011965554           14 
 4828000   0.48276406   -8.0678718    791.05725  0.013653985  0.011961715           21 
 4829000   0.48633105   -8.0479598    790.86163  0.013647781  0.011957879           14 
 4830000   0.48211927   -8.0357695    789.37458  0.013619299  0.011954047            8 
 4831000   0.48054986   -8.0265606    791.62967   0.01365538   0.01195022           21 
 4832000   0.48106491   -8.0554783    789.66575  0.013618684   0.01194639           14 
 4833000   0.49098802   -8.0551166    789.30205  0.013609595  0.011942563           11 
 4834000   0.47734727   -8.0438211    790.12386  0.013620946  0.011938737           10 
 4835000   0.47421253   -8.0472627    790.38079  0.013622558  0.011934913           19 
 4836000   0.47958957   -8.0484891    790.16617  0.013616042  0.011931087           19 
 4837000   0.48575442    -8.053247    789.95909   0.01360966  0.011927268           15 
 4838000   0.47906538     -8.05286    790.75008  0.013620471  0.011923443           15 
 4839000   0.47765788   -8.0489159    790.79248  0.013618387  0.011919627           11 
 4840000    0.4719525   -8.0600664    788.81798  0.013581577  0.011915808           20 
 4841000   0.47632064   -8.0474128    791.45664  0.013624193  0.011911991           18 
 4842000   0.45713046   -8.0429989    789.54248  0.013588436  0.011908177           14 
 4843000   0.47103176   -8.0633344    789.52058  0.013585253  0.011904364            9 
 4844000   0.48149119   -8.0451344    789.86261  0.013588333  0.011900549           19 
 4845000   0.47956919   -8.0677823    790.68581  0.013599687  0.011896737           15 
 4846000   0.46541276   -8.0471127    790.75566  0.013598082  0.011892927           15 
 4847000    0.4744773   -8.0412626    789.74493  0.013577899  0.011889114           16 
 4848000   0.47399744   -8.0522129    790.99566  0.013596598  0.011885309           15 
 4849000   0.46901795   -8.0573903     790.4085  0.013583703  0.011881505           15 
 4850000   0.47618056   -8.0749557    790.60339  0.013584251  0.011877698           13 
 4851000   0.47551462    -8.060573    789.85986  0.013568678  0.011873898           15 
 4852000   0.47083847   -8.0457313    790.18263  0.013571425  0.011870098           13 
 4853000   0.47217912   -8.0826703    790.50514  0.013574166  0.011866298           12 
 4854000    0.4646746    -8.050703    790.89815  0.013578117  0.011862495           11 
 4855000   0.46675592   -8.0566862    790.49454  0.013568392  0.011858699           14 
 4856000   0.48545779   -8.0569445    789.50272  0.013548578  0.011854903           12 
 4857000    0.4757805   -8.0532789    790.72596  0.013566776  0.011851106            9 
 4858000   0.47629447   -8.0474139    790.54512  0.013560881  0.011847312           19 
 4859000    0.4676831    -8.053079    789.14199  0.013534026  0.011843522           26 
 4860000   0.48574184   -8.0654179    791.19963  0.013566523  0.011839732           14 
 4861000   0.45940632    -8.048882    791.35442  0.013566386  0.011835945            9 
 4862000   0.46932127   -8.0645951    789.24521  0.013527444  0.011832159           11 
 4863000   0.47990802   -8.0473749    790.54826  0.013546992  0.011828375           12 
 4864000   0.46917368   -8.0670407    789.82133  0.013531753  0.011824592           12 
 4865000   0.47087856   -8.0620839    791.27096  0.013553802  0.011820816            7 
 4866000   0.46590145   -8.0586621    789.98132  0.013528931  0.011817036           11 
 4867000   0.47548978   -8.0545207    789.76837  0.013522505  0.011813258            9 
 4868000   0.47302237   -8.0699188    791.03484  0.013541407  0.011809481           17 
 4869000   0.47367223   -8.0542091    789.43527  0.013511249  0.011805708           16 
 4870000   0.47857607   -8.0501548    790.09193  0.013519711  0.011801933           17 
 4871000   0.47749819   -8.0505188    789.96639  0.013514788  0.011798164           17 
 4872000   0.47284849   -8.0517056    789.75041   0.01350832  0.011794395            9 
 4873000   0.46948922   -8.0621111    790.21974  0.013513574  0.011790625           13 
 4874000   0.47499703   -8.0615999    788.89941  0.013488227  0.011786857           17 
 4875000   0.47178103   -8.0544732    789.48812  0.013495523  0.011783089           14 
 4876000   0.47273701   -8.0565137    789.83891  0.013498751  0.011779323           21 
 4877000   0.46768644   -8.0634227    790.00318   0.01349879   0.01177556           16 
 4878000   0.47398907   -8.0687945    790.89891  0.013511325    0.0117718            9 
 4879000   0.47196711    -8.070503    789.15779  0.013478817  0.011768041           16 
 4880000   0.46505721   -8.0643509    790.03102  0.013490967  0.011764281           10 
 4881000   0.47642916   -8.0582245    790.68527  0.013499373  0.011760524           16 
 4882000   0.46550961   -8.0681473    789.76373  0.013480877  0.011756767           17 
 4883000   0.47694432   -8.0655545    790.97696  0.013498822  0.011753015            8 
 4884000   0.46836623   -8.0685913    789.79706  0.013475926  0.011749263           10 
 4885000   0.47906157   -8.0718029    790.69491  0.013488484   0.01174551           17 
 4886000   0.46824889   -8.0742792    789.67346  0.013468302  0.011741761           11 
 4887000   0.45875403   -8.0482177    790.42775  0.013478408  0.011738012           13 
 4888000   0.47191131   -8.0613855    790.23504  0.013472365  0.011734267            6 
 4889000   0.46872195   -8.0714762    789.91312  0.013464122  0.011730522           13 
 4890000   0.46963366    -8.063878    790.01207  0.013463055  0.011726776           24 
 4891000   0.46906594   -8.0672489    789.60745  0.013453409  0.011723033           14 
 4892000   0.46816119   -8.0771784    790.98795  0.013474175  0.011719294           18 
 4893000   0.47511083   -8.0648511    789.19874  0.013440949   0.01171555           19 
 4894000   0.46635953   -8.0705301    790.20444  0.013455327   0.01171181           13 
 4895000   0.46936694   -8.0533601    788.91923  0.013430699   0.01170807           14 
 4896000   0.46670196   -8.0721104     789.8565  0.013443908  0.011704332           10 
 4897000   0.47405483   -8.0591304    788.80088  0.013423199  0.011700597           11 
 4898000   0.46154328    -8.063907     789.1185  0.013425863  0.011696862           13 
 4899000   0.47521033   -8.0733213    789.70133  0.013433036  0.011693127           15 
 4900000   0.46915318   -8.0680362    790.34903   0.01344131  0.011689394           13 
 4901000   0.47174765   -8.0765659    789.12886  0.013417821  0.011685662           11 
 4902000   0.46314686    -8.066877    789.80784  0.013426626  0.011681935           11 
 4903000   0.45928813   -8.0640147    788.94368    0.0134092  0.011678208           24 
 4904000   0.48185258   -8.0679976    788.69909  0.013402309  0.011674479           11 
 4905000    0.4690757   -8.0750281    789.90719  0.013420102  0.011670755           13 
 4906000   0.45989333   -8.0636127    788.86087  0.013399594  0.011667036           17 
 4907000   0.47029149   -8.0657093    790.38431  0.013422735  0.011663318           14 
 4908000   0.46806572   -8.0869958    789.25223  0.013400778  0.011659596           34 
 4909000     0.465583   -8.0732682    788.83148  0.013390906  0.011655879           16 
 4910000   0.46456145   -8.0760018    790.49777  0.013416459  0.011652167           12 
 4911000   0.46128484   -8.0546287    788.81771  0.013385219  0.011648453           17 
 4912000   0.46596348   -8.0520861    788.76441  0.013381589  0.011644737           13 
 4913000   0.45797681   -8.0592398    789.95563  0.013399071  0.011641022           17 
 4914000   0.46031029   -8.0748783     789.5852  0.013390062   0.01163731           10 
 4915000   0.46689606    -8.080464    789.56251  0.013386953  0.011633598           24 
 4916000   0.46456325   -8.0677841    788.45326  0.013365427  0.011629887           15 
 4917000   0.47160004   -8.0685434    787.92202  0.013353705   0.01162618           11 
 4918000   0.47131273   -8.0754876    789.37661  0.013375637  0.011622475           11 
 4919000   0.45680693   -8.0914297    789.49978  0.013375005   0.01161877           16 
 4920000   0.46170527   -8.0664259    790.04779  0.013381568  0.011615065           13 
 4921000   0.46490733   -8.0662002    788.99513  0.013361023  0.011611362           11 
 4922000   0.46126793   -8.1104397    789.41482  0.013365414  0.011607661           24 
 4923000   0.46462874   -8.0626933    788.97905  0.013355323  0.011603959           15 
 4924000   0.46194725   -8.0679668    787.81791  0.013332959  0.011600258           11 
 4925000   0.46578464   -8.0808393    788.41753  0.013340398  0.011596562           17 
 4926000   0.45740124   -8.0647172    789.70938  0.013359544  0.011592869           14 
 4927000   0.46254872   -8.0655018    789.31455  0.013350155  0.011589173            9 
 4928000   0.45571172   -8.0746764    789.03976  0.013342799  0.011585479           21 
 4929000   0.47296649   -8.0877743    790.09964  0.013358011  0.011581787           10 
 4930000   0.47121233   -8.0770868    789.60603  0.013346958  0.011578098           21 
 4931000   0.45492968   -8.0838153     789.5363  0.013343073  0.011574408           14 
 4932000   0.45877738    -8.073612    789.25173  0.013335559  0.011570719           18 
 4933000   0.45646062   -8.1008267     788.7041  0.013323605   0.01156703           26 
 4934000   0.46403788   -8.0873917    789.53395   0.01333492  0.011563344           15 
 4935000   0.45943865   -8.0731588    788.90763  0.013321642  0.011559664           12 
 4936000   0.46659324    -8.071083    789.63324  0.013331193  0.011555983           15 
 4937000   0.46401149   -8.0755559    788.81058  0.013314607  0.011552304           15 
 4938000   0.46544806   -8.0713451    788.62665  0.013308807  0.011548627           19 
 4939000   0.45559508   -8.0912333    789.72522  0.013324648  0.011544948           15 
 4940000   0.45733855   -8.0883008    789.13633  0.013312016  0.011541272           16 
 4941000    0.4527432   -8.0781285    789.07671  0.013308317  0.011537595           16 
 4942000    0.4620493   -8.0699891    788.04248  0.013288184  0.011533921           10 
 4943000   0.45636802   -8.0768351    789.01539  0.013301898  0.011530251           17 
 4944000   0.46030206   -8.0821551     789.2118  0.013302518  0.011526579           21 
 4945000   0.45508996   -8.0698085    788.25085  0.013283634  0.011522912           13 
 4946000   0.46906435   -8.0797032    789.84323  0.013307778  0.011519244           18 
 4947000   0.45853963   -8.0572506    788.63568  0.013284746  0.011515578           11 
 4948000   0.45336994   -8.0876818    789.04457  0.013288948  0.011511911           15 
 4949000   0.45827454   -8.0808515    788.57392  0.013278338  0.011508246           13 
 4950000   0.46010294   -8.0890368    789.39425  0.013289465   0.01150458           17 
 4951000   0.46506774   -8.0808041     788.4641  0.013271125  0.011500918           15 
 4952000   0.46544369   -8.0929681    788.63814  0.013271374  0.011497258           18 
 4953000   0.46024305   -8.0667337    788.91856  0.013273413  0.011493597           13 
 4954000   0.46112204   -8.0827581    788.75018  0.013267901   0.01148994           20 
 4955000   0.45455658   -8.0761217    789.42771  0.013276618  0.011486284           18 
 4956000   0.45456771   -8.0942556    788.40297  0.013256709  0.011482626           20 
 4957000   0.46105792   -8.0726917    789.10708  0.013265871  0.011478972           21 
 4958000   0.46341469   -8.0822541    788.70602  0.013256455  0.011475322           16 
 4959000   0.46309186   -8.0764914    788.39841  0.013248612  0.011471675           19 
 4960000   0.44743822   -8.0760749    787.94301   0.01323829  0.011468027           12 
 4961000   0.45410648    -8.076533     789.1537  0.013255958  0.011464381           27 
 4962000   0.46683339   -8.0715752    788.38535  0.013240383  0.011460736           18 
 4963000   0.45494166   -8.0822881     789.7564  0.013260736  0.011457091           15 
 4964000   0.45112418   -8.0737111    787.82989  0.013225723  0.011453449           19 
 4965000   0.45938683    -8.082287    789.26049  0.013247071  0.011449812           19 
 4966000   0.46104524   -8.0696339    788.23689  0.013227227  0.011446173           18 
 4967000   0.45670441   -8.0770284    788.58759  0.013230447  0.011442533           20 
 4968000   0.45803592   -8.1017784    789.37078  0.013240922  0.011438893           17 
 4969000   0.45278632   -8.0806422    789.42942   0.01323924  0.011435258           16 
 4970000   0.45567358   -8.0813582    788.86229  0.013227067  0.011431623           22 
 4971000   0.45264357   -8.0937685    788.44563  0.013217422  0.011427988           17 
 4972000   0.46174959   -8.0776489    789.28049  0.013228756  0.011424354           21 
 4973000   0.44850248    -8.100273     789.6215   0.01323181  0.011420726           34 
 4974000   0.46347092   -8.0836672    789.20231  0.013222127  0.011417098           22 
 4975000   0.45282915    -8.099782    789.12114   0.01321811   0.01141347           17 
 4976000   0.45664717   -8.0963792    789.28195  0.013218146  0.011409846           16 
 4977000   0.45808036   -8.0855485    787.33997  0.013182975  0.011406223           18 
 4978000   0.46891097   -8.0829472    788.49286  0.013199626  0.011402597           19 
 4979000    0.4588929   -8.1019552    787.70349  0.013183763  0.011398972           22 
 4980000   0.45845849   -8.0778707    788.43851  0.013193416   0.01139535           26 
 4981000   0.45551953   -8.0870191    788.22902  0.013187262  0.011391729           19 
 4982000   0.45422575   -8.0916163    788.50547  0.013189239  0.011388111           13 
 4983000   0.45783492   -8.0960356    789.47208  0.013202757  0.011384494           17 
 4984000   0.44916798   -8.0967712    787.61319  0.013169027  0.011380877           14 
 4985000   0.45657422   -8.1035547    789.63252  0.013200142  0.011377264           18 
 4986000   0.45980597   -8.0959297    788.80188  0.013183612   0.01137365           10 
 4987000   0.45110998    -8.079576     789.1397  0.013186614  0.011370039           19 
 4988000   0.44569238   -8.0873027     789.2021  0.013185012  0.011366429           18 
 4989000   0.43919467   -8.0899947    789.55345  0.013188238  0.011362824           18 
 4990000    0.4618845   -8.1002384     788.2014  0.013163016  0.011359217           12 
 4991000   0.45303607   -8.0922018    787.11073  0.013142168  0.011355612           13 
 4992000   0.44690786    -8.089724    789.07753  0.013172368  0.011352007           12 
 4993000   0.45755169   -8.0834944    788.39407  0.013158323  0.011348406           14 
 4994000   0.45445802   -8.0882885    788.10022  0.013150785  0.011344806           15 
 4995000   0.45933665   -8.0872629    788.56398  0.013155889  0.011341207           18 
 4996000   0.45969663   -8.0893475    789.34765  0.013166327  0.011337612           16 
 4997000   0.45424244   -8.0767892    789.12548  0.013159987  0.011334017           19 
 4998000   0.44982501   -8.0895433    787.54699  0.013131036   0.01133042           16 
 4999000   0.43757604   -8.0965139     788.9228  0.013151344  0.011326826           15 
 5000000   0.44807285   -8.0898744    787.73504  0.013128917   0.01132323           15 
 5001000   0.45521053   -8.0928093     788.5132  0.013139259  0.011319641           12 
 5002000   0.45106708   -8.0899338     789.2465  0.013148849  0.011316054           13 
 5003000   0.44888164   -8.0968213    788.47924  0.013133441  0.011312464           15 
 5004000   0.44860416   -8.0892069    788.18485  0.013125914  0.011308878           15 
 5005000   0.45414518   -8.0839713    788.61263  0.013130414  0.011305289           18 
 5006000   0.44896737   -8.0789555    788.10417  0.013119326  0.011301705           25 
 5007000   0.45272482   -8.0982203     787.7359  0.013110577  0.011298121           16 
 5008000   0.45209865   -8.0843522    789.10976   0.01313082  0.011294543           16 
 5009000   0.44345669   -8.0838417    788.38659  0.013116167  0.011290962           21 
 5010000   0.44984644   -8.0803634    788.18325  0.013110167  0.011287381           19 
 5011000   0.44308704     -8.09423    789.15155  0.013123654  0.011283805           17 
 5012000   0.44959444   -8.0885811    788.69458  0.013113437  0.011280227           20 
Loop time of 11278.1 on 48 procs for 5000000 steps with 4000 atoms

Performance: 76608.647 tau/day, 443.337 timesteps/s
99.4% CPU use with 48 MPI tasks x no OpenMP threads

MPI task timing breakdown:
Section |  min time  |  avg time  |  max time  |%varavg| %total
---------------------------------------------------------------
Pair    | 720.91     | 783.4      | 819.88     |  70.4 |  6.95
Neigh   | 72.839     | 74.345     | 76.44      |   9.3 |  0.66
Comm    | 669.51     | 713.51     | 776.69     |  72.7 |  6.33
Output  | 13.627     | 13.631     | 13.712     |   0.3 |  0.12
Modify  | 9551.5     | 9579.9     | 9610.3     |  14.3 | 84.94
Other   |            | 113.4      |            |       |  1.01

Nlocal:        83.3333 ave          93 max          75 min
Histogram: 3 0 5 15 4 11 4 2 2 2
Nghost:        1896.35 ave        1918 max        1872 min
Histogram: 2 3 2 5 8 10 6 5 5 2
Neighs:        11906.2 ave       13518 max       10352 min
Histogram: 1 3 4 11 6 8 5 7 1 2
FullNghs:      23812.5 ave       26865 max       21103 min
Histogram: 3 0 5 13 8 6 6 3 2 2

Total # of neighbors = 1142999
Ave neighs/atom = 285.74975
Neighbor list builds = 268915
Dangerous builds = 1

#clear
#
#next RN
#
#jump SELF
Total wall time: 3:08:01
