
units lj                  # Use reduced LJ style units
atom_style atomic         # Uncharged point particles
atom_modify map hash      # Needed for indexing of clusters etc
                          # Used to be able to find where atoms are in relation to each other.

lattice fcc 1.0 spacing 1 1 1
Lattice spacing in x,y,z = 1.5874011 1.5874011 1.5874011
region box block 0 10 0 10 0 10 units lattice
create_box 2 box
Created orthogonal box = (0.0000000 0.0000000 0.0000000) to (15.874011 15.874011 15.874011)
  3 by 4 by 4 MPI processor grid
create_atoms 1 box
Created 4000 atoms
  using lattice units in orthogonal box = (0.0000000 0.0000000 0.0000000) to (15.874011 15.874011 15.874011)
  create_atoms CPU = 0.002 seconds
set type 1 type/fraction 2 0.74 78393
Setting atom values ...
  2966 settings made for type/fraction
mass 1 1.0
mass 2 1.0
pair_style lj/cut  3.5
pair_modify tail  yes
pair_coeff 1  1  1.0  1.0   # Intearaction between 1 and 1 set with epsilon = 1 and sigma = 1
pair_coeff 1  2  1.5  0.8
pair_coeff 2  2  0.5  0.88

write_data data.0
System init for write_data ...
Neighbor list info ...
  update every 1 steps, delay 10 steps, check yes
  max neighbors/atom: 2000, page size: 100000
  master list distance cutoff = 3.8
  ghost atom cutoff = 3.8
  binsize = 1.9, bins = 9 9 9
  1 neighbor lists, perpetual/occasional/extra = 1 0 0
  (1) pair lj/cut, perpetual
      attributes: half, newton on
      pair build: half/bin/atomonly/newton
      stencil: half/bin/3d
      bin: standard
WARNING: Not all mixed pair coeffs generated from mixing. Use write_data with 'pair ij' option to store all pair coeffs. (../write_data.cpp:312)


#############################
#   M E L T   S Y S T E M   #
#############################

velocity all create 2.4 6583654 mom yes dist gaussian # Assign velocities
                                                    # Temperature 2.4, random number seed, zero linear momentum
                                                                                # Gaussian distribution

timestep 0.002   # simulation timestep
thermo 1000       # output thermodynamic data every 1000 steps bf 100

# Define a fix  in this case with index 1 applied to all
# particles in the simulation. This fix is for simulations
# in the anisotropic NPT ensemble. Note that we use the MTK
# correction.
fix 1 all npt temp 2.4 2.4 0.1 iso 5.68 5.68 0.5 mtk yes tchain 5 pchain 5 # Use NPT ensemble
                                                                         # Set temperature and pressure and damping
                                                                         # Numbers of thermostats in chain and in barostat
run 10000          # run for 10000 steps
Per MPI rank memory allocation (min/avg/max) = 3.642 | 3.644 | 3.648 Mbytes
Step Temp E_pair E_mol TotEng Press Volume 
       0          2.4   -3.9840525            0  -0.38495247   -3.5781436         4000 
    1000    2.3804571   -3.5283896            0  0.041403475    5.7855997    3676.1243 
    2000    2.3956624   -3.5520456            0  0.040549657    5.4874569    3697.0911 
    3000    2.3895202   -3.6062805            0 -0.022896302    5.5698144    3655.4585 
    4000    2.4263175   -3.5227484            0   0.11581797    5.9304137    3671.1322 
    5000    2.4149853   -3.4517091            0   0.16986326    6.1119911    3706.1594 
    6000    2.3954083   -3.4553216            0   0.13689264    5.8908652    3709.5447 
    7000    2.4357918   -3.4840882            0   0.16868603    5.9362969    3699.7196 
    8000    2.4086512   -3.4682798            0   0.14379378    5.8102818    3712.9794 
    9000    2.3534023   -3.4829388            0    0.0462821    5.8467119    3705.2477 
   10000    2.4107916   -3.5191163            0  0.096167121    5.6453626    3699.1784 
Loop time of 2.63298 on 48 procs for 10000 steps with 4000 atoms

Performance: 656289.859 tau/day, 3797.974 timesteps/s
99.6% CPU use with 48 MPI tasks x no OpenMP threads

MPI task timing breakdown:
Section |  min time  |  avg time  |  max time  |%varavg| %total
---------------------------------------------------------------
Pair    | 1.1779     | 1.2424     | 1.4135     |   3.3 | 47.19
Neigh   | 0.2155     | 0.22212    | 0.24657    |   1.1 |  8.44
Comm    | 0.7487     | 0.89705    | 0.98562    |   4.2 | 34.07
Output  | 0.00024669 | 0.00025286 | 0.0003155  |   0.0 |  0.01
Modify  | 0.20798    | 0.25556    | 0.30765    |   5.9 |  9.71
Other   |            | 0.01558    |            |       |  0.59

Nlocal:        83.3333 ave          90 max          75 min
Histogram: 1 0 6 3 10 6 10 1 6 5
Nghost:        1731.85 ave        1760 max        1712 min
Histogram: 4 9 5 9 5 5 4 2 2 3
Neighs:        10325.7 ave       11512 max        9202 min
Histogram: 2 5 2 9 10 4 6 3 6 1

Total # of neighbors = 495634
Ave neighs/atom = 123.90850
Neighbor list builds = 903
Dangerous builds = 198

# Equilibrate just above the melting temperature to avoid step fn in T

fix 1 all npt temp 1.25 1.25 0.1 iso 5.68 5.68 0.5 mtk yes tchain 5 pchain 5
run 2000
Per MPI rank memory allocation (min/avg/max) = 3.644 | 3.646 | 3.649 Mbytes
Step Temp E_pair E_mol TotEng Press Volume 
   10000    2.4107916   -3.5191163            0  0.096167121    5.6453626    3699.1784 
   11000    1.2521848   -5.1441184            0   -3.2663108    5.9483213    2830.5845 
   12000    1.2330103    -5.162289            0   -3.3132359    5.6629199    2828.9342 
Loop time of 0.648776 on 48 procs for 2000 steps with 4000 atoms

Performance: 532695.793 tau/day, 3082.730 timesteps/s
99.7% CPU use with 48 MPI tasks x no OpenMP threads

MPI task timing breakdown:
Section |  min time  |  avg time  |  max time  |%varavg| %total
---------------------------------------------------------------
Pair    | 0.29069    | 0.31851    | 0.35356    |   2.3 | 49.09
Neigh   | 0.04119    | 0.043741   | 0.047848   |   0.6 |  6.74
Comm    | 0.19873    | 0.23678    | 0.26406    |   2.9 | 36.50
Output  | 5.1773e-05 | 5.3353e-05 | 6.7916e-05 |   0.0 |  0.01
Modify  | 0.042028   | 0.044725   | 0.047589   |   0.9 |  6.89
Other   |            | 0.004967   |            |       |  0.77

Nlocal:        83.3333 ave          92 max          73 min
Histogram: 2 1 2 5 7 10 14 4 2 1
Nghost:        2083.88 ave        2106 max        2058 min
Histogram: 1 3 5 6 4 8 5 8 6 2
Neighs:        13491.6 ave       15887 max       11747 min
Histogram: 4 1 6 9 11 10 4 2 0 1

Total # of neighbors = 647595
Ave neighs/atom = 161.89875
Neighbor list builds = 144
Dangerous builds = 12

#############################
# L I N E A R  Q U E N C H  #
#############################

# Define solid atoms. This closely follows ten Wolde  Ruiz-Montero and Frenkel  Faraday Discuss  1996  104  93-110
# Compute components of the per-atom q6 vector
compute q6 all orientorder/atom degrees 1 6 components 6 nnn NULL cutoff 1.3 # compute the Q6 parameter.
                                                                             # Use all neighbours within 1.3 unit cell.

# get number of connections
compute coord_number all coord/atom orientorder q6 0.5

# An atom is solid if it has 8 or more connections (of a possible 14)
variable is_solid atom c_coord_number>=8
group solid dynamic all var is_solid    # Must be dynamic to update
dynamic group solid defined

# do clustering
compute cluster solid cluster/atom 1.3 # Create a cluster where all atoms within are solid and max 1.3 units from another member

# define chunks one chunk per cluster
compute clus_chunks solid chunk/atom c_cluster nchunk every compress yes  # Says which atoms are in which chunk

# count the size of each chunk
compute size_chunks solid property/chunk clus_chunks count


# Find the maximum entry in the vector of chunk sizes
variable max_n equal max(c_size_chunks)


# Thermo style which includes this variable
# thermo_style custom step temp pe vol v_max_n

thermo ${N}  # Print the thermo information every 100 steps
thermo 1000  

# Reset the npt fix at a lower temperature (below freezing)
fix 1  all npt temp  ${temp} ${temp}  0.1  iso  5.68  5.68  0.5  mtk yes tchain  5  pchain  5
fix 1  all npt temp  0.45 ${temp}  0.1  iso  5.68  5.68  0.5  mtk yes tchain  5  pchain  5
fix 1  all npt temp  0.45 0.45  0.1  iso  5.68  5.68  0.5  mtk yes tchain  5  pchain  5

dump dmp2 all dcd ${N} traj.dcd
dump dmp2 all dcd 1000 traj.dcd


compute msd all msd com yes
variable twopoint equal c_msd[4]/6/(step*dt+1.0e-6)
fix 9 all vector 10 c_msd[4]
variable fit equal slope(f_9)/6/(10*dt)
thermo_style custom step temp pe c_msd[4] v_twopoint v_fit v_max_n

fix 1 all npt temp 1.25 ${temp} 0.1 iso 5.68 5.68 0.5 mtk yes tchain 5 pchain 5
fix 1 all npt temp 1.25 0.45 0.1 iso 5.68 5.68 0.5 mtk yes tchain 5 pchain 5
run 5000000 # 5000000  # Run for this many steps
Neighbor list info ...
  update every 1 steps, delay 10 steps, check yes
  max neighbors/atom: 2000, page size: 100000
  master list distance cutoff = 3.8
  ghost atom cutoff = 3.8
  binsize = 1.9, bins = 8 8 8
  4 neighbor lists, perpetual/occasional/extra = 1 3 0
  (1) pair lj/cut, perpetual
      attributes: half, newton on
      pair build: half/bin/atomonly/newton
      stencil: half/bin/3d
      bin: standard
  (2) compute orientorder/atom, occasional
      attributes: full, newton on
      pair build: full/bin/atomonly
      stencil: full/bin/3d
      bin: standard
  (3) compute coord/atom, occasional
      attributes: full, newton on
      pair build: full/bin/atomonly
      stencil: full/bin/3d
      bin: standard
  (4) compute cluster/atom, occasional
      attributes: full, newton on
      pair build: full/bin/atomonly
      stencil: full/bin/3d
      bin: standard
Per MPI rank memory allocation (min/avg/max) = 9.843 | 9.848 | 9.852 Mbytes
Step Temp PotEng c_msd[4] v_twopoint v_fit v_max_n 
   12000    1.2330103    -5.162289 1.9721523e-34 1.3695501e-36 8.3333333e+20            5 
   13000    1.2527307   -5.2180022   0.67403373 0.0043207288  0.056104669            1 
   14000    1.2761341   -5.2051216    1.3417681 0.0079867148   0.05570981            3 
   15000    1.2330705   -5.1915509    1.9906355  0.011059086  0.055094778            3 
   16000     1.268225   -5.2068426    2.6365558  0.013732061  0.054843535            2 
   17000    1.2526115     -5.22409    3.2828629  0.016092465  0.054612408            3 
   18000    1.2365881   -5.2104723     3.948183  0.018278624  0.054417294            6 
   19000    1.2724112   -5.1690165    4.6781971  0.020518408  0.055006454            3 
   20000    1.2771322   -5.2228056    5.3657082  0.022357117  0.055557658            3 
   21000    1.2583943   -5.2198062      5.99479  0.023788849  0.055628016            2 
   22000    1.2526198   -5.2307185    6.6586874    0.0252223  0.055752366            1 
   23000    1.2371338   -5.1714965    7.3418772  0.026601004  0.055675015            1 
   24000    1.2250498   -5.2463122    7.9534632  0.027616191  0.055614274            4 
   25000    1.2380871    -5.221108      8.66957  0.028898566  0.055626507            3 
   26000    1.2603135   -5.2014127    9.3450102  0.029951955  0.055712812            3 
   27000    1.2802303   -5.2496166    10.104662  0.031187228  0.055882739            2 
   28000    1.2485232   -5.2080418    10.766896  0.032044334  0.056031521            2 
   29000    1.2653428   -5.2304172    11.367232   0.03266446  0.056045741            2 
   30000    1.2207718   -5.2606872    12.086399  0.033573331  0.056093025            3 
   31000     1.255181   -5.2191996     12.88557  0.034638629  0.056217168            4 
   32000    1.2345524   -5.1822973    13.576575  0.035355664  0.056341879            2 
   33000    1.2711761   -5.2194661    14.134926  0.035694257  0.056399958            2 
   34000    1.2406477   -5.2387495    14.848124  0.036392461  0.056426905            5 
   35000    1.2739485    -5.233304    15.561884  0.037052103  0.056452917            4 
   36000     1.245875   -5.2276813    16.441034  0.038057949  0.056601016            1 
   37000    1.2482429    -5.223154    17.125373   0.03857066  0.056799857            4 
   38000    1.2377173   -5.1740837    17.752111  0.038930067  0.056907456            1 
   39000    1.2724558   -5.2357834       18.504  0.039538462  0.057018193            2 
   40000    1.2335474   -5.1882839    19.164944  0.039926966  0.057116099            4 
   41000     1.236035   -5.1464789    20.029671  0.040710713   0.05721527            2 
   42000    1.2511503   -5.2223106    20.738834  0.041148479  0.057350626            2 
   43000    1.2693786   -5.2647379    21.495604  0.041658147  0.057470813            2 
   44000     1.214511   -5.1861556     22.23953  0.042120322  0.057602917            1 
   45000    1.2396296   -5.2395949    22.922858  0.042449737  0.057731153            2 
   46000    1.2487653   -5.2140413    23.635849  0.042818567  0.057879981            1 
   47000     1.272882   -5.2270901    24.387965  0.043241072  0.057991381            3 
   48000    1.2463604   -5.2144181    25.265038  0.043862912  0.058138306            2 
   49000    1.2119889   -5.2233304    26.142491  0.044460018  0.058351919            3 
   50000     1.243015   -5.2092385    26.697284  0.044495472  0.058529431            2 
   51000     1.255311   -5.2285373    27.668405  0.045209812  0.058680589            1 
   52000    1.2322469   -5.2149407    28.036684  0.044930583  0.058818107            2 
   53000    1.2562698   -5.1785489    28.866797  0.045388045  0.058927198            3 
   54000     1.246216   -5.2057301    29.686885  0.045813093  0.059023082            2 
   55000    1.2268211   -5.2053384    30.566345  0.046312644  0.059137301            4 
   56000    1.2381516   -5.1947064    31.224891  0.046465612  0.059257089            4 
   57000    1.2360602   -5.2565348    32.042368  0.046845568  0.059370809            2 
   58000    1.2406719   -5.2170498    32.670175  0.046939906   0.05946159            2 
   59000    1.2413827   -5.2052881    33.309737   0.04704765  0.059517754            5 
   60000    1.2656966    -5.247497    33.818596  0.046970272  0.059529973            2 
   61000       1.2313    -5.231347    34.198782  0.046719647  0.059491465            3 
   62000    1.2505741    -5.200208    35.006356  0.047051554  0.059448593            3 
   63000    1.2566354   -5.2119044    35.644682   0.04714905    0.0594089            1 
   64000     1.248465   -5.1771455    36.354975  0.047337207  0.059350403            5 
   65000    1.2556415   -5.1906398    37.171513  0.047655785  0.059300977            4 
   66000    1.2185392   -5.1826378     37.92144  0.047880605  0.059280761            1 
   67000    1.2296792   -5.2409901    38.308511  0.047647401  0.059236447            2 
   68000     1.221938   -5.2339859    39.023184  0.047822529   0.05917137            1 
   69000    1.2473489    -5.180488    39.719228  0.047970081  0.059113484            1 
   70000    1.2604784   -5.1798342    40.308094  0.047985826  0.059055109            2 
   71000    1.2444514   -5.2186116    41.130295  0.048274993  0.059013552            2 
   72000    1.2285151   -5.2620526    41.705432  0.048270175  0.058982916            2 
   73000    1.2222952   -5.2339202    42.431519  0.048437807  0.058946855            4 
   74000    1.2218757   -5.2177385    43.113159  0.048550854  0.058895399            3 
   75000    1.2658968   -5.2290439    43.736289  0.048595876  0.058838712            3 
   76000    1.2086557    -5.229931    44.070016  0.048322386  0.058773875            1 
   77000    1.2425321   -5.2143061     44.96553  0.048663993  0.058687096            3 
   78000     1.227654   -5.2307037    45.624799  0.048744443  0.058626059            5 
   79000    1.2418014    -5.236817     46.28288  0.048821604  0.058551629            1 
   80000      1.23539   -5.2291244    46.631239  0.048574207  0.058465931            4 
   81000    1.2347022   -5.2450368    47.309122  0.048671936  0.058376558            2 
   82000    1.2255353   -5.2420882    47.970595  0.048750605  0.058275597            2 
   83000    1.2602889   -5.2555608    48.465284  0.048659924  0.058191187            2 
   84000    1.2574361   -5.2220962    49.402207  0.049010125  0.058119826            3 
   85000    1.2345394   -5.1981578    50.308951  0.049322501  0.058062937            2 
   86000    1.2174264    -5.260654    50.717083   0.04914446   0.05800834            3 
   87000    1.2367968   -5.2212746    51.620471  0.049444895  0.057963285            2 
   88000    1.2330803   -5.2437601    52.392048  0.049613682  0.057924975            2 
   89000    1.2333647   -5.1849825    53.587372  0.050175442  0.057908285            2 
   90000    1.2239286   -5.2360214    54.504984  0.050467578  0.057916877            2 
   91000    1.2255993   -5.2291948    55.070141  0.050430531  0.057940698            2 
   92000    1.2337706   -5.2462667    55.928182  0.050659585  0.057967642            2 
   93000    1.2080384   -5.2503365    56.540266  0.050663321  0.057993067            3 
   94000    1.2323264   -5.1762581    57.350827  0.050842932  0.058014026            5 
   95000    1.2578199   -5.2301496    57.988352  0.050866975  0.058038445            2 
   96000    1.2439281   -5.2550367    58.309188  0.050615614  0.058047807            2 
   97000    1.2434694   -5.2256625    58.962831  0.050655352  0.058044042            4 
   98000    1.2684109   -5.2307895    59.587832  0.050669925   0.05803589            1 
   99000    1.2236697   -5.2448939    60.224792  0.050694269  0.058030855            3 
  100000    1.2258662   -5.2396924    60.932575  0.050777146  0.058037843            2 
  101000    1.2810298   -5.2357525     62.08468  0.051224983  0.058042422            2 
  102000    1.2605536   -5.2734302    62.646218   0.05118155  0.058058624            3 
  103000     1.234083   -5.2158444    63.412419  0.051304546  0.058073053            2 
  104000    1.2014509   -5.2373414    63.861107  0.051170758  0.058069962            1 
  105000     1.228489   -5.2789507    64.365202  0.051083494  0.058059918            3 
  106000    1.2269541   -5.2258685    65.287933  0.051326991  0.058054686            3 
  107000    1.2306247   -5.2568707    65.753456  0.051209857  0.058038658            2 
  108000    1.2229653   -5.2391532    66.092032  0.050996938  0.058012093            1 
  109000      1.25655   -5.2524214    66.350761  0.050726881  0.057970254            5 
  110000    1.2331775   -5.2303992    66.817747  0.050619505  0.057921142            2 
  111000    1.2513184   -5.2400757    67.286358  0.050515283  0.057865064            2 
  112000    1.2446981   -5.2181011    68.371083  0.050871341  0.057801131            3 
  113000     1.224565   -5.2482716    68.879622  0.050796181   0.05774608            3 
  114000    1.2270422   -5.1985716    69.770598  0.051001899  0.057692332            1 
  115000    1.2488728   -5.2625353    69.833976   0.05060433  0.057639638            2 
  116000    1.2025225   -5.2198307    71.036626  0.051032059  0.057588849            2 
  117000    1.2824902   -5.2738632     71.41655  0.050866489   0.05754815            2 
  118000    1.2353357   -5.2395346    72.253979  0.051026821  0.057497365            3 
  119000    1.2245898   -5.2141822    73.265635  0.051306467  0.057450497            2 
  120000    1.2195515   -5.2356713    73.528545  0.051061489  0.057403604            3 
  121000    1.2306643   -5.2429729    73.991328  0.050958215  0.057356035            2 
  122000    1.2361352   -5.2050071    74.861432  0.051134858  0.057309276            4 
  123000    1.2455926   -5.2616187     75.27951  0.051002378  0.057269729            2 
  124000    1.2324736   -5.2196209    76.219269  0.051222627  0.057237194            3 
  125000    1.2469221   -5.2308261    77.332947  0.051555298   0.05721048            2 
  126000    1.2355781   -5.2639649     77.43136  0.051211216  0.057186545            3 
  127000    1.2111868   -5.2554339    78.344273  0.051407003  0.057155934            3 
  128000    1.2193895   -5.2434116    79.141168  0.051524198   0.05713258            2 
  129000    1.2183353   -5.2802601    80.074567  0.051727756  0.057112581            1 
  130000    1.2265829   -5.2108399    80.774139  0.051778294  0.057098823            2 
  131000    1.2157778   -5.2280013    81.569326  0.051888884  0.057088406            2 
  132000    1.2266237   -5.2722634      82.2469  0.051923548  0.057080131            1 
  133000    1.2384592   -5.2578058    82.905703  0.051945929  0.057074927            2 
  134000    1.2245156     -5.22639    84.153991  0.052334571  0.057083292            3 
  135000     1.229661   -5.2719462    84.621735  0.052235638  0.057088523            1 
  136000    1.2329595   -5.2643113    85.308244  0.052272208    0.0570915            1 
  137000    1.2142572    -5.233621    85.717626  0.052139675  0.057091354            2 
  138000    1.2073146   -5.2508796    86.475471  0.052219487  0.057085732            1 
  139000    1.2289611   -5.2564119    86.845558  0.052065682  0.057073614            3 
  140000    1.2704465   -5.2014344    87.671669  0.052185517  0.057065565            2 
  141000    1.2248467   -5.2588509    88.000257  0.052009608  0.057051437            3 
  142000    1.2155821   -5.2012913    88.922286   0.05218444  0.057030447            3 
  143000    1.2406057   -5.2168386    89.878468   0.05237673  0.057015969            4 
  144000    1.2106524   -5.2343453    90.004529  0.052085954  0.056998506            2 
  145000    1.2251545   -5.2829211    90.319846  0.051907957  0.056978444            5 
  146000    1.2323452   -5.2673152     91.29952  0.052111598  0.056963525            1 
  147000    1.2184971    -5.237743    91.778738  0.052028763  0.056945751            3 
  148000    1.2401138   -5.1911838     93.06562  0.052401813  0.056928658            3 
  149000    1.2421744   -5.2150946    92.964432   0.05199353  0.056905678            3 
  150000    1.2470538   -5.3054978    93.281681  0.051823156  0.056876647            1 
  151000    1.2120002   -5.2765486    93.592807   0.05165166  0.056839742            4 
  152000    1.2361592   -5.2665661    94.078634  0.051578198  0.056800498            2 
  153000    1.2587954   -5.2730809    95.050363   0.05177035   0.05676051            2 
  154000    1.2307731   -5.2322402    95.879755  0.051882984  0.056723007            2 
  155000     1.199525   -5.2576541    96.128687  0.051682089  0.056685816            2 
  156000    1.2214786   -5.2780093    96.769448  0.051693081   0.05664995            2 
  157000    1.2048288   -5.2739797    97.245713   0.05161662  0.056610326            5 
  158000    1.2155115   -5.2210037    98.302442  0.051847279  0.056571102            2 
  159000    1.2432534   -5.2257189    99.097001  0.051937632  0.056540081            3 
  160000    1.2179743    -5.252832    99.911503  0.052037241  0.056514471            3 
  161000    1.2486762   -5.2991718     100.0018  0.051760764  0.056486996            2 
  162000    1.2440369   -5.2526977    100.84779  0.051876433  0.056458016            2 
  163000    1.2142281   -5.2700719    100.94856  0.051609693  0.056426756            1 
  164000    1.2628297   -5.2984863      102.007  0.051832823  0.056395812            2 
  165000    1.2479256   -5.2789158    102.15169  0.051591761   0.05635788            5 
  166000    1.2309327   -5.2556886    102.96038  0.051686938  0.056317593            2 
  167000      1.17857   -5.2637521    103.30376  0.051548784  0.056277796            2 
  168000    1.2016815   -5.2090345    104.07519  0.051624598  0.056233774            3 
  169000    1.2519687   -5.2141178    104.36649  0.051462764  0.056185436            2 
  170000    1.2310556   -5.2408913    104.71245   0.05132963  0.056134789            2 
  171000    1.2550532   -5.2343437    105.46444  0.051395927  0.056085605            3 
  172000    1.2227529   -5.2380781    105.99151  0.051352476  0.056033681            2 
  173000     1.192457   -5.2478035    106.43549  0.051269503  0.055983397            4 
  174000    1.2245542   -5.2738858    107.62204  0.051543124  0.055937532            3 
  175000    1.2257346   -5.2742937    108.14748  0.051498798  0.055899532            2 
  176000    1.2114312   -5.2893373    108.56807  0.051405337  0.055861555            3 
  177000    1.2171038   -5.2757821    109.54846  0.051576489   0.05582594            2 
  178000    1.2451837   -5.2477518    110.15026  0.051568473  0.055786532            1 
  179000    1.2067642   -5.2828561    111.00249  0.051677138  0.055750374            4 
  180000    1.2355921   -5.2755834    110.78835  0.051290904  0.055708817            2 
  181000    1.2261925   -5.2520345    111.46474  0.051318943  0.055669287            2 
  182000    1.2108096   -5.2870299    112.30819  0.051423165   0.05562744            1 
  183000    1.2113525   -5.2714339    113.03395  0.051472653  0.055587811            1 
  184000     1.237183   -5.2350481    113.84231  0.051559018  0.055550672            2 
  185000    1.2297558   -5.2472947    114.13196  0.051410791  0.055508985            2 
  186000    1.2345786   -5.2836941    114.78061  0.051425003  0.055466796            2 
  187000    1.1976067   -5.2547465    115.42407  0.051436751  0.055426618            1 
  188000    1.2125735   -5.2602521    115.71816  0.051293511  0.055388831            3 
  189000    1.2407356   -5.2928363    115.98757  0.051140906  0.055349529            3 
  190000    1.2032235   -5.2154045    117.21127  0.051408452  0.055307322            2 
  191000    1.2357929   -5.2166006    118.09947  0.051526821  0.055271532            3 
  192000    1.2429459   -5.2469176    118.51951  0.051440757  0.055230927            2 
  193000    1.2344145   -5.3196964    118.72234  0.051261803  0.055191211            4 
  194000    1.2363244   -5.2493099    119.36654  0.051274285  0.055152926            3 
  195000    1.2183241   -5.2782123    119.96194  0.051265788  0.055112728            1 
  196000     1.226383   -5.2284351    120.63258  0.051289363  0.055074664            2 
  197000    1.2253805    -5.270255    121.20216  0.051269949  0.055036278            3 
  198000     1.235584   -5.2916229    121.68778  0.051215395  0.054997642            2 
  199000    1.2260574   -5.2411884     122.6115  0.051344849  0.054962491            2 
  200000    1.1969353    -5.257191    122.91397  0.051214154  0.054926293            2 
  201000    1.2289804   -5.2312207    123.94435  0.051386544  0.054893827            2 
  202000    1.2163019   -5.2867787    124.22684  0.051248696  0.054861626            1 
  203000    1.1961798   -5.2457841    124.51277  0.051113617   0.05482713            3 
  204000    1.2306404   -5.2641956    125.30835  0.051188053  0.054790581            1 
  205000    1.2037057   -5.2711511    125.25019  0.050914711  0.054750752            2 
  206000    1.2062549   -5.2974059    125.88908  0.050926003  0.054710293            2 
  207000    1.2136524   -5.2757861    127.29447  0.051245762  0.054669129            3 
  208000    1.2204497   -5.2728796    126.73774   0.05077634  0.054626937            3 
  209000    1.2335202   -5.2900128    127.52367  0.050846757  0.054587828            2 
  210000    1.2158194   -5.2848912     127.4712  0.050583808  0.054541815            3 
  211000    1.2263405   -5.2730024    129.23111  0.051039142  0.054502497            2 
  212000    1.1901961   -5.2741976    130.37521  0.051248117  0.054466463            2 
  213000    1.1969728   -5.2898896    130.57708  0.051086493  0.054427249            1 
  214000    1.2022837   -5.2619954    131.42251  0.051176991  0.054389423            2 
  215000    1.2244993    -5.289897    131.30408  0.050893055  0.054352465            4 
  216000    1.2014928   -5.2851522    132.24239   0.05101944  0.054315532            2 
  217000    1.1885074   -5.2680612     133.1521  0.051133677  0.054279497            2 
  218000    1.2290206   -5.2364345    133.59511  0.051068465  0.054246986            3 
  219000    1.2055161   -5.2476743    134.09137  0.051024113   0.05421534            2 
  220000     1.206305   -5.2434207    135.13252  0.051186559  0.054187786            2 
  221000    1.2020795   -5.2858692    135.29028  0.051014436  0.054153755            3 
  222000     1.222439    -5.284708    135.85235  0.050995629  0.054120103            5 
  223000    1.2419814   -5.2602913    136.28806   0.05092977  0.054086928            2 
  224000    1.2150459   -5.2777366    137.29537  0.051077145  0.054053433            4 
  225000    1.2215123   -5.2611252    137.56364  0.050949495  0.054022759            3 
  226000    1.2100077   -5.3148147     138.0521  0.050904167  0.053991623            2 
  227000    1.2197923   -5.2495031    139.24365  0.051117344  0.053962942            1 
  228000    1.2264261   -5.2675685    139.58374  0.051017448  0.053932572            2 
  229000    1.2244591   -5.2899938    139.64615  0.050817376  0.053901733            4 
  230000    1.2168807   -5.2757459    140.07036  0.050750131  0.053872555            2 
  231000    1.2056082   -5.2632475    141.13136  0.050913191  0.053844402            2 
  232000    1.1927708   -5.2754497    141.83917  0.050947977   0.05381475            3 
  233000    1.2295292   -5.2362396    142.62692   0.05101106   0.05378645            2 
  234000    1.2173865   -5.2747994    143.85288  0.051229658  0.053761522            2 
  235000    1.2057615   -5.2863832    143.47084  0.050876184  0.053733144            2 
  236000    1.1952176   -5.3014905    143.78609  0.050771924  0.053704326            4 
  237000    1.2166661   -5.3257839    144.71825  0.050885459  0.053674318            3 
  238000    1.2193556   -5.3213142    145.34519  0.050891174  0.053644553            2 
  239000    1.2246049   -5.3145962    145.37255   0.05068778  0.053615974            3 
  240000    1.2072915   -5.3064031    146.18172  0.050757542  0.053588513            2 
  241000    1.2181958   -5.2792056    147.30147  0.050934117  0.053562287            2 
  242000    1.2465242   -5.2913921     147.3288  0.050733059  0.053536017            3 
  243000    1.2036825   -5.2570613    148.59441  0.050958301  0.053509712            1 
  244000    1.1802759   -5.2914993    149.37033  0.051014458  0.053483623            1 
  245000    1.2397189   -5.3145114    149.13244  0.050725321  0.053458012            2 
  246000    1.2256424    -5.262548    150.41107  0.050952261  0.053435337            2 
  247000    1.1983825   -5.2269919     151.1709  0.051002326  0.053408953            1 
  248000    1.2088939   -5.2827715    151.92372  0.051049637  0.053383075            2 
  249000    1.2230997   -5.2795251    152.00204  0.050870829   0.05335717            2 
  250000    1.2305345   -5.2483919    152.86428  0.050954759  0.053332444            1 
  251000    1.2116034   -5.3171994    153.40262  0.050930485  0.053308232            3 
  252000    1.2549707   -5.2554387    154.29052  0.051021997  0.053289066            2 
  253000     1.205365   -5.2975318    154.72106  0.050962142  0.053271375            3 
  254000    1.2187541   -5.3071146    155.41215  0.050988238    0.0532537            2 
  255000    1.2317336    -5.264667    155.58205  0.050843808  0.053234204            3 
  256000    1.2112068   -5.2782453    156.29635  0.050877717  0.053213438            3 
  257000     1.203372   -5.2666099    156.76137  0.050830536  0.053193278            3 
  258000    1.2183521   -5.2679419    157.55999  0.050891469  0.053170083            2 
  259000    1.2149456   -5.2879045    158.45918  0.050984292  0.053150967            3 
  260000    1.1847833   -5.3231222    158.77376  0.050889025  0.053133069            3 
  261000    1.2264434   -5.2777357    160.15309  0.051134449   0.05311368            2 
  262000    1.2063294    -5.278742    160.59939  0.051081231  0.053093584            4 
  263000    1.2325793   -5.3032222    160.35028  0.050808074  0.053072562            3 
  264000    1.2170437   -5.2628228    161.80397  0.051074484  0.053050008            3 
  265000    1.1908016   -5.3173262    161.38808  0.050750969  0.053030779            1 
  266000    1.2107231   -5.2966093    162.64208  0.050953032   0.05301249            5 
  267000    1.1940369   -5.3025018    163.23933  0.050948605  0.052996388            4 
  268000    1.2100806   -5.2549468    163.90699  0.050966103  0.052979273            4 
  269000    1.2126623   -5.2983523    164.01811  0.050811064   0.05296157            1 
  270000    1.2171198   -5.2868721     165.3117   0.05102213  0.052942213            3 
  271000     1.221577   -5.2505659    166.07568  0.051068781   0.05292506            2 
  272000     1.177993   -5.2972886    165.85465  0.050813312  0.052908031            4 
  273000     1.229773   -5.2818617    166.95869  0.050964192  0.052889562            4 
  274000    1.2104534   -5.2837319    167.35169  0.050897717  0.052871141            2 
  275000    1.1686402   -5.2724546    167.71927  0.050824021   0.05285169            2 
  276000    1.2129445   -5.2854498    167.55973  0.050591705  0.052831345            2 
  277000    1.1955573   -5.2858234    168.23308  0.050611637  0.052810941            2 
  278000    1.2115941   -5.3090569    169.23585  0.050730171  0.052790142            3 
  279000    1.1912768   -5.2982188    169.08025  0.050501866  0.052767728            1 
  280000    1.2048768   -5.2892807    170.85511  0.050849734  0.052747951            2 
  281000    1.2052636   -5.3222047    171.14136  0.050753665  0.052727186            1 
  282000    1.2056479   -5.3034323    171.44349   0.05066297   0.05270798            1 
  283000    1.2111109   -5.3090462    171.91428   0.05062258  0.052688395            2 
  284000    1.2077694   -5.2618139    173.45834  0.050897399  0.052669627            3 
  285000    1.2121893   -5.2898038    173.07154  0.050605712  0.052652214            2 
  286000     1.213655    -5.281014    174.14167  0.050740579  0.052635402            6 
  287000    1.2227793   -5.2204514    175.73349  0.051025983  0.052619309            2 
  288000    1.2086931   -5.2913734    175.11033    0.0506685  0.052602277            3 
  289000     1.178557   -5.2678979    176.04966   0.05076403   0.05258354            1 
  290000    1.2013526   -5.2597788    176.31543  0.050665355  0.052568502            5 
  291000    1.2022513   -5.3198422    177.82746  0.050924244  0.052550682            1 
  292000    1.2302418   -5.2863917    178.20386  0.050857267  0.052538215            4 
  293000    1.1579126   -5.3265951    178.44403  0.050752001  0.052525996            4 
  294000    1.2140415   -5.3058104    179.67727  0.050928931  0.052511994            3 
  295000    1.2008431   -5.2857597    179.98025  0.050841879  0.052499303            2 
  296000    1.2186464   -5.2983388    180.75203  0.050887395  0.052488404            2 
  297000    1.1985355   -5.2592981    183.06133  0.051364008  0.052476708            3 
  298000    1.2160583   -5.2880484    182.24052  0.050962115  0.052468026            1 
  299000    1.1902383   -5.2630978    183.13539   0.05104108  0.052459173            2 
  300000    1.1830927   -5.2745583    183.60836  0.051002323  0.052450497            3 
  301000    1.1972101    -5.260672    184.32269  0.051030645  0.052438837            3 
  302000    1.1766143   -5.3044529    184.07961  0.050794595  0.052428413            2 
  303000     1.198424    -5.320157    185.44859  0.051003463  0.052416355            4 
  304000    1.2040392   -5.3021983    186.26444  0.051059331  0.052406882            3 
  305000    1.1963644   -5.2781867    187.84408  0.051323518  0.052398168            5 
  306000    1.2052157   -5.3284407    187.27421  0.051000603  0.052389745            7 
  307000    1.2148882   -5.2908252    188.91827  0.051280746   0.05238393            2 
  308000    1.2093603   -5.3128165     188.6134  0.051031765  0.052377132            2 
  309000    1.1974711   -5.2847931    189.73746  0.051169757  0.052372267            3 
  310000    1.2081701   -5.2929048    190.27351  0.051148792   0.05236691            1 
  311000    1.2153025   -5.3200539     190.0782  0.050931993  0.052359061            4 
  312000    1.2167017   -5.2800659    191.22178  0.051074194  0.052349856            1 
  313000    1.1986244   -5.2773313    191.63434  0.051020857  0.052339373            2 
  314000    1.1889432   -5.2538501    192.74752    0.0511538  0.052330039            2 
  315000     1.187839   -5.2991946    192.39514  0.050898185  0.052321579            4 
  316000    1.2058123   -5.2967317    192.80628  0.050845537  0.052312827            3 
  317000    1.1749702   -5.3165349    193.80624  0.050948012  0.052304066            3 
  318000    1.1976071   -5.3204312    193.59565  0.050732614   0.05229482            4 
  319000    1.1766996   -5.3076461    194.55077  0.050823084  0.052285667            1 
  320000    1.2381521   -5.3217885    194.90842  0.050757402  0.052276649            2 
  321000    1.2082427   -5.3033284    196.21662  0.050938895  0.052268587            2 
  322000    1.1587467   -5.2751077    198.19065  0.051291576  0.052262007            3 
  323000    1.1898665   -5.3163938    197.49058  0.050952162  0.052256916            2 
  324000    1.2103268   -5.3138201    199.12482  0.051215232  0.052252759            2 
  325000    1.2293761   -5.2866087    199.99385  0.051280474  0.052248596            1 
  326000    1.1964433   -5.2989526    199.63057  0.051030309  0.052243366            3 
  327000    1.2103263   -5.3277534    200.04685  0.050980338   0.05223702            2 
  328000    1.2018499   -5.3029263    201.06121  0.051082626  0.052231605            1 
  329000    1.1898319   -5.3140939    202.57777  0.051311492  0.052227167            3 
  330000     1.163093   -5.2911423     202.8792   0.05123212  0.052223505            5 
  331000    1.1849182   -5.2471765    203.76276  0.051299789  0.052221021            1 
  332000    1.1898048   -5.3223169    203.40894  0.051056462  0.052216815            2 
  333000    1.2285809   -5.2472785     204.6551  0.051214989  0.052213189            2 
  334000    1.2074327   -5.3147466    204.98173  0.051143146  0.052208769            2 
  335000    1.1898816   -5.3263891    205.42698  0.051101238  0.052203388            2 
  336000    1.1999753   -5.3097363      206.208  0.051142856  0.052197474            1 
  337000    1.2214388   -5.3473532    205.51916  0.050820763  0.052189874            2 
  338000    1.1990535   -5.3377406    206.58343  0.050932799  0.052180286            2 
  339000    1.2165713   -5.3139064    208.22228  0.051185418  0.052173176            1 
  340000    1.1824109   -5.3427065    207.97368   0.05097394  0.052166821            3 
  341000    1.2042636   -5.3077299    208.40846  0.050930708  0.052159938            1 
  342000    1.2044169   -5.2891569     209.9107  0.051147832  0.052155302            1 
  343000    1.2200239   -5.3061706    210.11902  0.051049325  0.052150977            1 
  344000    1.2210233   -5.3254184    210.05505  0.050885429  0.052146953            1 
  345000    1.1819264   -5.2743446    211.75995  0.051149746  0.052140333            1 
  346000    1.1779556   -5.3124143    212.64887   0.05121601  0.052136771            3 
  347000    1.1752194   -5.3128887    212.32698  0.050991109  0.052131821            3 
  348000    1.2061739   -5.3163098    213.29848  0.051077221  0.052126325            1 
  349000     1.206478   -5.3359257     215.1189  0.051365544  0.052123167            3 
  350000    1.2009381   -5.3184627     214.7484  0.051130572  0.052119004            8 
  351000    1.2220237   -5.3070668    215.98382   0.05127821  0.052116797            2 
  352000    1.2019893    -5.328782    215.77181  0.051082342  0.052110647            2 
  353000    1.1872529   -5.3131638    216.36837  0.051078463  0.052105555            1 
  354000    1.1990336   -5.3298953    216.47577  0.050959457  0.052100155            8 
  355000    1.1976723   -5.3030782    217.36593  0.051024867  0.052094344            3 
  356000    1.1944377   -5.3370785    218.12908  0.051060177  0.052088367            1 
  357000    1.1878845   -5.3326444    218.83938  0.051082956  0.052081489            4 
  358000     1.204992   -5.2710757    220.29408  0.051278882  0.052077997            2 
  359000    1.1737997   -5.3177081    219.97627  0.051062271  0.052072127            2 
  360000    1.1941839   -5.2555798    221.07367  0.051174461   0.05206658            4 
  361000    1.1875417   -5.3152519    221.78623   0.05119719  0.052061272            3 
  362000     1.203577   -5.2966846    222.59011  0.051240818  0.052057034            4 
  363000     1.182237   -5.3588941    221.90038  0.050941318  0.052051563            3 
  364000    1.1780672    -5.308945    222.60044  0.050961639  0.052046156            1 
  365000    1.2032122   -5.3494028    222.67028  0.050837963  0.052039719            3 
  366000    1.2212367   -5.2846311    224.28198  0.051066023  0.052034633            2 
  367000    1.1847236   -5.3132971    224.54399  0.050986373  0.052027995            3 
  368000    1.1965119   -5.2703413    226.04482  0.051187687   0.05202204            5 
  369000    1.1818921    -5.303478    227.29791  0.051331958  0.052018308            2 
  370000    1.1772401   -5.2560151    227.60512  0.051262414  0.052015043            2 
  371000    1.2268849   -5.3249546    226.93698  0.050974164  0.052012747            2 
  372000    1.1569757   -5.3448742    227.52877  0.050969707  0.052009266            1 
  373000    1.2115515   -5.2888564    229.11229  0.051186838  0.052004542            2 
  374000    1.2032901   -5.2926377    229.13122  0.051054194  0.051999223            2 
  375000     1.225542    -5.303009     230.1831  0.051151799  0.051993553            1 
  376000    1.1851748   -5.3060622    230.36997  0.051057175  0.051989007            1 
  377000    1.1806172   -5.3442069    230.59661  0.050971841  0.051983357            4 
  378000    1.1585891   -5.3442352    231.21718  0.050973805  0.051979338            3 
  379000    1.1898123    -5.321736    232.64427  0.051153093  0.051975218            4 
  380000    1.1920099   -5.3339865    233.05494  0.051108538  0.051970296            3 
  381000     1.213572   -5.2865159    233.77254  0.051131351  0.051966664            2 
  382000    1.1901433   -5.3364839    233.87552  0.051019966  0.051961959            3 
  383000    1.1980209   -5.3334762    234.41343  0.051003792  0.051955252            2 
  384000    1.2023443   -5.3272666     235.1182  0.051023914   0.05194771            4 
  385000    1.2113708   -5.2979132    235.49104  0.050972086  0.051940633            2 
  386000    1.1993868    -5.325322    236.62924  0.051085759   0.05193378            2 
  387000    1.2017367   -5.3232725    236.08174  0.050835862  0.051926669            1 
  388000    1.1707284   -5.3383344    235.32698  0.050542736  0.051918168            3 
  389000    1.2178231   -5.3321912    237.41532   0.05086018  0.051909326            5 
  390000    1.1673835   -5.3594776     235.8311   0.05039126  0.051898499            4 
  391000    1.1958411   -5.2762716    238.39055  0.050807875  0.051889182            1 
  392000    1.1703512   -5.3228366    239.02366  0.050812853  0.051878603            2 
  393000    1.1729724   -5.3360309    239.95704  0.050881476  0.051869238            6 
  394000    1.1745025   -5.3521853    239.53012   0.05066204  0.051859314            3 
  395000    1.1983532   -5.3734947    238.53283  0.050323382  0.051848909            3 
  396000       1.1804   -5.3713587    240.14526  0.050535618  0.051838374            3 
  397000    1.1757728   -5.3000738     242.5051  0.050903673  0.051827769            2 
  398000    1.2037795   -5.3382253    242.14321  0.050700002  0.051818468            5 
  399000    1.1972544   -5.3365311    242.13124  0.050570434   0.05180923            3 
  400000    1.1570763   -5.3421477    242.15999  0.050449997  0.051799697            4 
  401000    1.1696754   -5.3522767    242.72905  0.050442446  0.051788291            2 
  402000    1.1742048   -5.3477588    243.38179  0.050452278   0.05177779            3 
  403000    1.1866039   -5.3371818     243.5592  0.050363772  0.051766019            2 
  404000    1.1875536   -5.3448592    243.67917  0.050263854   0.05175509            3 
  405000    1.1737243   -5.3150989    245.23986  0.050460877  0.051741825            4 
  406000    1.2168416   -5.3043258    245.56464  0.050403251  0.051729574            1 
  407000    1.1487667   -5.3664324    245.60576   0.05028783  0.051716701            2 
  408000     1.210321   -5.3163867    246.87926  0.050424685  0.051704474            4 
  409000    1.1912862   -5.3811613    247.57785  0.050443734  0.051691667            1 
  410000    1.2024099   -5.3222561    248.54051  0.050516364  0.051679641            3 
  411000    1.2232313   -5.3593007    247.85007  0.050253461  0.051666951            2 
  412000     1.192338   -5.3305748    249.45714  0.050456541  0.051653178            3 
  413000    1.1807903   -5.3633193    249.38712  0.050320241  0.051641491            3 
  414000    1.1767598   -5.2941333    251.60224  0.050644574  0.051629902            7 
  415000    1.1877627   -5.3576044    249.81818  0.050164293  0.051618082            2 
  416000    1.1935016   -5.3326195    251.13367  0.050307226  0.051606907            3 
  417000    1.2014671   -5.3593441    251.09594  0.050179045  0.051593237            3 
  418000    1.1857617   -5.3158735    251.68503  0.050176442  0.051579681            2 
  419000    1.1788183   -5.3693345    253.37211  0.050392226  0.051567714            2 
  420000    1.1542012   -5.3342908    253.76987  0.050351164  0.051555665            4 
  421000    1.1710584   -5.3454605     254.5173  0.050379512  0.051543824            4 
  422000    1.1743626    -5.360338    254.25229  0.050207799  0.051532749            3 
  423000     1.176845   -5.3624218    255.25129  0.050285911  0.051520552            2 
  424000    1.1592085   -5.3487969      255.333  0.050183373  0.051507991            2 
  425000    1.1970941   -5.3202146    257.02946  0.050397933  0.051495256            2 
  426000    1.1858073   -5.3686517    256.38612   0.05015378  0.051481275            6 
  427000    1.2103497   -5.3146168    259.41995  0.050628406  0.051469606            2 
  428000     1.187939   -5.3214907    259.49384  0.050524501  0.051458681            4 
  429000    1.2131191   -5.3384983     258.3813  0.050190617   0.05144774            3 
  430000    1.1647299   -5.2792293    260.83149  0.050548739  0.051437036            2 
  431000    1.1687523   -5.3417906    259.75117  0.050222578  0.051425655            4 
  432000    1.1864329   -5.3512005    259.79429  0.050114639  0.051413038            2 
  433000     1.173545   -5.3217545    261.22638  0.050274515  0.051401604            4 
  434000    1.1865058   -5.3403594    261.82696  0.050273994  0.051389499            6 
  435000    1.1578213    -5.364938    261.04891   0.05000937  0.051376839            1 
  436000    1.1956834   -5.3301731    263.41962  0.050347787  0.051365127            3 
  437000    1.1959772   -5.3432104    263.40783  0.050230325  0.051352392            5 
  438000    1.1865768   -5.3379748    263.75307  0.050181331  0.051339549            1 
  439000    1.1813364   -5.3070695    264.97714  0.050299381  0.051327071            1 
  440000    1.1673791   -5.3092544    265.26962  0.050240458  0.051315502            1 
  441000    1.1738504    -5.336651    264.71984  0.050022646    0.0513042            2 
  442000    1.1834088   -5.3695147    266.40019  0.050226279  0.051291644            6 
  443000    1.1784349   -5.3344867    267.36575  0.050294536  0.051278765            2 
  444000    1.1612599   -5.3706526    266.70609   0.05005745  0.051267407            4 
  445000    1.1940947   -5.3439314     268.1025  0.050206461  0.051256832            2 
  446000    1.1664695   -5.3343742    268.66643  0.050199259  0.051246406            2 
  447000    1.1763392   -5.3696241     268.0685  0.049975485   0.05123542            2 
  448000    1.1601714   -5.3278835    269.92983  0.050210162   0.05122527            2 
  449000    1.1802826   -5.2956457    270.29694  0.050166469  0.051214377            1 
  450000    1.1924786   -5.3505073    271.46158  0.050270663  0.051204629            3 
  451000    1.1925254   -5.3501241    270.79106  0.050035302   0.05119546            2 
  452000    1.1833726      -5.3472    272.87254  0.050308359  0.051186755            2 
  453000    1.2051625   -5.3840395    272.06264  0.050048315   0.05117753            2 
  454000    1.1577622   -5.3438921     273.6385  0.050227331  0.051169309            2 
  455000    1.1734896   -5.3572651    273.97427  0.050178437  0.051160142            2 
  456000    1.1962615   -5.3189832    274.87594  0.050233175  0.051151622            3 
  457000    1.1626604   -5.3245666    276.21993  0.050368332  0.051144446            3 
  458000    1.2085951   -5.3683625    275.38225  0.050105941   0.05113657            6 
  459000    1.1810145   -5.3699049    276.01649  0.050111926  0.051127581            5 
  460000    1.1802621   -5.3467054    278.10935  0.050382129  0.051118862            3 
  461000     1.172479   -5.3670119    277.93404   0.05024115  0.051109887            2 
  462000    1.1889229   -5.3372734    278.28913  0.050196452  0.051100961            3 
  463000    1.1806059   -5.3562486    278.89967  0.050197925  0.051092659            3 
  464000    1.1600351   -5.3708356    279.93909  0.050276417  0.051084323            3 
  465000    1.1786512   -5.3478404    281.23712  0.050400918  0.051077005            3 
  466000    1.1873874   -5.3598567    280.41456  0.050145665  0.051068452            5 
  467000    1.1843125   -5.3647802     280.8518  0.050116309  0.051059061            2 
  468000    1.1858463     -5.34908     281.9839  0.050210809   0.05104984            4 
  469000    1.1996945   -5.3664596    281.50708  0.050019026  0.051040576            2 
  470000    1.1453263   -5.3533093    282.58417  0.050103575  0.051029665            4 
  471000    1.1572142    -5.348055     283.0738  0.050083828  0.051020159            1 
  472000    1.1769492   -5.3360649    284.73926  0.050271762  0.051009692            2 
  473000    1.1725569   -5.3791069    283.11469  0.049879262   0.05100008            4 
  474000    1.1645562    -5.365829    284.26957   0.04997707  0.050990726            4 
  475000    1.1890583   -5.3301178    285.60506  0.050106152  0.050981269            2 
  476000    1.1692322    -5.328779    286.32245  0.050126479  0.050972672            2 
  477000     1.186127   -5.3704375    285.83839  0.049936825  0.050962712            3 
  478000    1.1922598    -5.330056    288.67827  0.050327453  0.050953437            1 
  479000     1.155786   -5.3528105    287.19845  0.049964935  0.050943748            6 
  480000    1.1733195   -5.3727983    288.01716  0.050002979  0.050934963            3 
  481000    1.1584425   -5.3848567    287.60012  0.049826771  0.050924689            3 
  482000    1.1916071   -5.3449966    288.88195  0.049945012  0.050914459            2 
  483000    1.1775049   -5.3611716    290.22562  0.050073433  0.050903427            5 
  484000    1.1757456   -5.3315053    290.25623  0.049975246  0.050892358            2 
  485000    1.1782337   -5.3570702     290.7097   0.04995012   0.05088123            1 
  486000     1.166354    -5.357605    290.31753  0.049780097  0.050870889            3 
  487000    1.1500975     -5.36552    290.76576  0.049754579  0.050859956            3 
  488000    1.1816021   -5.3577435    292.28068  0.049911318  0.050849681            6 
  489000    1.1697436   -5.3805603    292.91173   0.04991679  0.050839405            2 
  490000    1.1942181   -5.3533178    293.81343   0.04996827  0.050828789            3 
  491000    1.1531466   -5.3697185    294.17952  0.049928635  0.050817405            2 
  492000    1.1646064    -5.386884    293.89254  0.049778546  0.050806526            4 
  493000    1.1840643   -5.3477988    295.93962    0.0500236  0.050796557            5 
  494000    1.1563563    -5.357869    296.42722  0.050004592  0.050787974            1 
  495000     1.165063   -5.3694648    296.64763  0.049940678  0.050778753            2 
  496000    1.1887184   -5.3424801    298.03025  0.050072286  0.050769536            3 
  497000    1.1553499   -5.4096838    297.53094  0.049887817  0.050761316            4 
  498000    1.1623623   -5.3408419    299.63911  0.050140413  0.050752972            3 
  499000    1.1750193    -5.320002    299.71061  0.050051872  0.050743693            4 
  500000    1.1892964   -5.3505015    299.32913  0.049888189   0.05073487            2 
  501000    1.1825728   -5.3412405    300.52024  0.049986733  0.050724343            2 
  502000    1.1688661    -5.369237    300.26405   0.04984463  0.050713386            4 
  503000    1.1368327   -5.3693882    299.89901  0.049685058  0.050702438            3 
  504000    1.1526571   -5.3740422    299.88646  0.049584401  0.050691496            3 
  505000    1.1813598   -5.3454861     301.2276  0.049707525  0.050680284            3 
  506000    1.1808188   -5.3861943    302.80027  0.049868292  0.050670479            4 
  507000     1.171444    -5.377151    302.40942   0.04970569  0.050659896            3 
  508000    1.1597975   -5.3813611    302.02318  0.049544485  0.050648564            2 
  509000    1.1525194   -5.3805903    303.98164  0.049767786  0.050639129            3 
  510000    1.1835259    -5.342254    305.57187  0.049930044  0.050629635            3 
  511000    1.1825496   -5.3785184    305.43673  0.049810295  0.050619573            3 
  512000    1.1581273   -5.3255726    306.46995  0.049881177  0.050611193            1 
  513000    1.1742171   -5.3567833    307.20189  0.049902842  0.050602427            3 
  514000    1.1599343   -5.3557086    307.38903  0.049836095  0.050593346            4 
  515000    1.1610927   -5.3681136    307.29993  0.049724907   0.05058484            1 
  516000    1.1939437   -5.3598178    308.72803  0.049859178  0.050576698            4 
  517000    1.1864452   -5.3679841    309.51527   0.04988963  0.050568161            4 
  518000    1.1802815   -5.3399258    310.50958  0.049953279  0.050560848            3 
  519000    1.1834112   -5.3313721    310.32115  0.049826775  0.050552976            2 
  520000    1.2031513   -5.3802619    310.08035  0.049692364  0.050544565            2 
  521000    1.1574354   -5.3627785    310.44175  0.049654791  0.050536118            1 
  522000    1.1453274   -5.3908049    311.25185  0.049688992  0.050527671            2 
  523000    1.1679826    -5.341876    313.22466  0.049908326  0.050518808            2 
  524000    1.1685455   -5.3508485    314.17713  0.049964557  0.050509821            1 
  525000     1.174317   -5.3477177    312.65902  0.049628415  0.050501243            2 
  526000    1.1565089   -5.3554402    313.44808  0.049659074  0.050491657            1 
  527000    1.1586407   -5.3662514    314.25325  0.049692164  0.050482041            3 
  528000    1.2103225     -5.35728    314.08965  0.049572231  0.050471873            3 
  529000    1.1723313   -5.3982696     314.5659  0.049553544  0.050462126            4 
  530000    1.1554231   -5.3905677    315.63348  0.049627906   0.05045105            2 
  531000    1.1686986   -5.3514997     316.6901  0.049700267  0.050441179            1 
  532000    1.1500364   -5.3524428    317.03383  0.049660687  0.050431573            3 
  533000    1.1927789   -5.3761875    317.46963  0.049635652  0.050421551            6 
  534000    1.1527687   -5.3309897    319.46271  0.049853732  0.050412081            2 
  535000    1.1620646   -5.3749527    318.28848  0.049577645  0.050403255            2 
  536000    1.1768751   -5.3978943     318.5277  0.049522342  0.050393905            4 
  537000    1.1617659   -5.3764392    319.37003  0.049560837    0.0503848            4 
  538000    1.1689603   -5.3785081    318.89827  0.049395643  0.050374853            5 
  539000    1.1582261   -5.3348689    320.72167  0.049585911  0.050364774            3 
  540000    1.1548265   -5.3658019    320.80552  0.049507024  0.050354765            3 
  541000    1.1544951   -5.3652467     321.3567  0.049500416  0.050344194            3 
  542000    1.1741907   -5.3962936    320.73621  0.049313685   0.05033333            2 
  543000    1.1488969   -5.4241384    321.28327  0.049306825  0.050321751            2 
  544000    1.1570799   -5.3791191    323.40736  0.049541568  0.050311136            2 
  545000    1.1641658   -5.3815335    322.01633  0.049237971  0.050300711            3 
  546000    1.1679461   -5.4039266    322.47514  0.049217818  0.050289374            4 
  547000    1.1513734   -5.3770227     324.2988  0.049405667  0.050277261            2 
  548000    1.1679842   -5.4070766    323.49106   0.04919268  0.050265018            1 
  549000     1.161862   -5.3762208     323.9109  0.049166803  0.050253247            3 
  550000    1.2013742   -5.3709902    325.74624  0.049355491  0.050241825            2 
  551000    1.1669346   -5.3662222    324.60959  0.049094009  0.050230476            4 
  552000    1.1587046   -5.3693228    326.00096  0.049215121  0.050218769            1 
  553000    1.1492589   -5.3839963     326.4793  0.049198206  0.050207384            3 
  554000    1.1485386   -5.4336374    325.96021   0.04903132  0.050195081            2 
  555000    1.1458498   -5.3991406    327.39419  0.049158287  0.050182592            4 
  556000    1.1712819   -5.3975959    328.30232  0.049205983  0.050169869            3 
  557000    1.1489416   -5.3687001    329.42524  0.049285643  0.050157808            3 
  558000    1.1635456   -5.3877229    328.35734  0.049037835  0.050145655            3 
  559000    1.1677588   -5.3743982    331.06834  0.049354255  0.050132635            3 
  560000    1.1717065    -5.417464    330.40305   0.04916712  0.050120571            4 
  561000    1.1696095   -5.3735777    329.83257  0.048994736  0.050107928            2 
  562000    1.1536661   -5.3811651    332.42619   0.04929214  0.050095883            2 
  563000    1.1870734   -5.4142222    331.39307  0.049051668  0.050084576            3 
  564000    1.1723694   -5.3813525    332.62925  0.049147348  0.050072866            4 
  565000    1.1455235   -5.3529246    333.52636  0.049192678  0.050060849            3 
  566000    1.1617743   -5.3677181    333.38459  0.049084892  0.050048267            1 
  567000    1.1556967   -5.4212577    333.22151  0.048974354  0.050035839            1 
  568000    1.1569358   -5.3372144    335.27625   0.04918959  0.050023708            3 
  569000    1.1753321   -5.4203706    335.59304  0.049149537  0.050011799            3 
  570000    1.1470491    -5.385338    334.88318  0.048959529  0.049999711            2 
  571000    1.1524056   -5.4118466    334.67461  0.048843347  0.049986927            5 
  572000    1.1788746   -5.3587009    336.84167  0.049073669   0.04997567            1 
  573000    1.1377413   -5.4223017    337.35914  0.049063284  0.049963817            2 
  574000    1.1811788   -5.3853723     337.0693  0.048935729  0.049950612            2 
  575000    1.1613718   -5.4196586     337.0686  0.048850522  0.049937539            2 
  576000    1.1458876    -5.403153    338.98007  0.049042256  0.049925199            3 
  577000    1.1732109   -5.3847863    338.32232  0.048862265  0.049912645            4 
  578000    1.1613972   -5.4019349    338.50807  0.048804509  0.049899789            2 
  579000    1.1531571   -5.3786375    338.97555    0.0487875  0.049885624            2 
  580000    1.1421144   -5.3752861    338.86208   0.04868708  0.049871801            2 
  581000    1.1503307   -5.4307184    339.82104  0.048740827  0.049858474            2 
  582000    1.1725739   -5.3611892    342.13725  0.048988724  0.049845162            2 
  583000    1.1320724   -5.4050158    341.22049  0.048773655  0.049832624            4 
  584000    1.1659562   -5.3906562    341.95832  0.048795422  0.049820147            2 
  585000    1.1530445   -5.3638714    343.63719  0.048951166   0.04980778            3 
  586000    1.1502886   -5.3946599    343.47396   0.04884442  0.049795992            5 
  587000    1.1609048   -5.3798171    344.17533  0.048860779   0.04978354            4 
  588000     1.164054   -5.4294015    343.42359  0.048671144   0.04977104            3 
  589000    1.1274878   -5.4102675    343.64809  0.048620273  0.049757233            3 
  590000    1.1779296   -5.3908299    344.95923  0.048723055  0.049744251            7 
  591000    1.1396749   -5.3969812    345.74241  0.048751045  0.049731866            2 
  592000    1.1815569   -5.3741778    344.96251  0.048558911  0.049718495            2 
  593000    1.1784691    -5.388572     346.4866  0.048691203  0.049704541            2 
  594000      1.14821   -5.4067996    346.19644  0.048568525  0.049690273            2 
  595000    1.1737228   -5.4417766    345.73222  0.048421879  0.049675326            6 
  596000    1.1580839   -5.4241484    346.49772  0.048447668  0.049661275            1 
  597000    1.1509601   -5.3876543    348.95094  0.048708952  0.049648402            3 
  598000    1.1390136   -5.4217245    348.46486  0.048559763  0.049635564            2 
  599000    1.1462959   -5.3181811    351.97853   0.04896752  0.049624156            4 
  600000    1.1643243   -5.3868725    351.30752  0.048792711  0.049612498            2 
  601000    1.1470418   -5.3985103    351.49901  0.048738077  0.049600225            3 
  602000    1.1376466   -5.3697094    351.78334  0.048696475  0.049588674            6 
  603000      1.13818   -5.3944592     352.5261  0.048718366  0.049576807            3 
  604000    1.1363954   -5.4159717    353.18837   0.04872908  0.049564892            1 
  605000    1.1307159   -5.4240986    353.63014  0.048709386   0.04955332            3 
  606000     1.171144   -5.3925826    353.97276  0.048676122  0.049541777            4 
  607000    1.1653964   -5.3855604    353.87303  0.048582239  0.049530282            3 
  608000      1.14146   -5.4064279    355.05357   0.04866414  0.049519508            2 
  609000    1.1569557   -5.4157214      354.869  0.048558977  0.049508418            5 
  610000    1.1758779   -5.3867712    357.58307  0.048850147  0.049497862           17 
  611000    1.1623273   -5.3878552    358.38499  0.048879567  0.049487455            4 
  612000    1.1465565   -5.4122483     359.4736   0.04894793   0.04947658            2 
  613000    1.1442319   -5.4261579    359.67792  0.048895856  0.049466675            2 
  614000    1.1536995   -5.4413891    357.89591  0.048574363  0.049456473            3 
  615000    1.1456005    -5.429503    358.77305  0.048614234   0.04944545            3 
  616000    1.1521504   -5.4426779    359.90408  0.048688322  0.049435302            4 
  617000    1.1749592   -5.3621793    362.51648  0.048962247  0.049426207            2 
  618000    1.1631133   -5.3900553    363.46988   0.04901158  0.049417332            4 
  619000    1.1560023    -5.377565    362.98842  0.048867584  0.049408501            3 
  620000    1.1520261    -5.409688     363.6037  0.048871465   0.04940026            2 
  621000    1.1602542   -5.3709218    365.07453   0.04899014  0.049392087            2 
  622000    1.1387213   -5.4121362     365.1861  0.048926326  0.049384201            2 
  623000    1.1665667   -5.3750313    366.20106  0.048983555  0.049375569            3 
  624000    1.1926071   -5.4148402    366.36892  0.048927473  0.049366391            2 
  625000    1.1575268   -5.3990972    365.29814  0.048706419  0.049357019            2 
  626000      1.13977   -5.4109897    365.41719   0.04864446   0.04934704            2 
  627000    1.1423817   -5.4006042    366.14726   0.04866391  0.049336378            3 
  628000    1.1349647   -5.4127526     367.4958  0.048765366  0.049326878            4 
  629000    1.1509795   -5.4076445    367.32676  0.048665443  0.049317038            4 
  630000    1.1479064   -5.3937254     368.8005  0.048783135  0.049308457            3 
  631000    1.1404525   -5.4119507    367.78522  0.048571741  0.049299342            1 
  632000    1.1526966    -5.422453    369.51158  0.048722519  0.049289568            2 
  633000    1.1595113   -5.4214758    368.32538  0.048489386  0.049279326            2 
  634000    1.1737582   -5.3803657    370.23977  0.048664533  0.049269412            2 
  635000    1.1370025   -5.3786508       370.49  0.048620734  0.049260562            5 
  636000    1.1338451   -5.4473477    370.96856  0.048606992  0.049250815            3 
  637000    1.1732657   -5.4684435     370.9688  0.048530717   0.04924177            2 
  638000    1.1368554    -5.390412    373.30973  0.048760414   0.04923362            3 
  639000    1.1198297   -5.4136348    373.84071  0.048753352  0.049225038            4 
  640000    1.1695231   -5.3744104    375.93252  0.048949546  0.049216874            4 
  641000    1.1281153    -5.368496    375.72168  0.048845772  0.049208248            2 
  642000    1.1624902   -5.4224205    375.42937  0.048731746  0.049199013            4 
  643000    1.1503225   -5.4208631    375.89008  0.048715666  0.049190301            4 
  644000    1.1319954   -5.3981526    375.01377  0.048526627   0.04918135            3 
  645000    1.1517186   -5.4210811    376.16943  0.048600702  0.049172141            3 
  646000    1.1503509   -5.4016488    376.65423  0.048588007  0.049164182            6 
  647000    1.1419697   -5.3978885    377.80193  0.048660732  0.049155396            1 
  648000     1.143987   -5.4026208    379.02465  0.048742882  0.049147157            1 
  649000    1.1358649   -5.3921316      380.205  0.048819338  0.049139356            6 
  650000    1.1455705   -5.3939562    380.39662  0.048768797  0.049132046            3 
  651000    1.1515963    -5.411861    380.35558   0.04868863  0.049124027            3 
  652000    1.1572517   -5.4035012    381.63051  0.048776906  0.049116538            2 
  653000    1.1318355   -5.4364106    380.77614  0.048593178  0.049108756            2 
  654000    1.1382005   -5.4235467    382.31291  0.048714693  0.049100655            2 
  655000    1.1436537   -5.4396981    382.80654  0.048703122  0.049093135            3 
  656000    1.1632963   -5.4218999    383.54267  0.048722393  0.049085331            3 
  657000    1.1553119   -5.4390332    382.93943  0.048571719  0.049077843            2 
  658000    1.1409032    -5.432448    383.89438  0.048618842  0.049069893            3 
  659000    1.1421035   -5.4173641    385.25915  0.048717646  0.049061868            3 
  660000    1.1353627    -5.393318    386.75126   0.04883223  0.049053916            6 
  661000    1.1465901   -5.4025994    386.50387  0.048727165   0.04904723            3 
  662000    1.1190695   -5.4459637    386.10673  0.048603566  0.049040367            3 
  663000    1.1379759   -5.4179885    387.29387  0.048679471  0.049033668            3 
  664000    1.1154865   -5.4305022    387.33078   0.04861079  0.049025957            2 
  665000    1.1430204   -5.3924877    389.70094  0.048834704  0.049017934            2 
  666000    1.1423317   -5.4005364    389.87329  0.048782945    0.0490114            1 
  667000    1.1502573   -5.4373329    388.63892  0.048555588    0.0490039            3 
  668000     1.146698   -5.4039182    390.21549  0.048679578  0.048997075            1 
  669000    1.1571326   -5.4013619     391.3869  0.048752728   0.04899018            2 
  670000    1.1395637   -5.4156951    392.06444  0.048764234  0.048982453            3 
  671000    1.1633774   -5.4381591    390.89112  0.048545841   0.04897479            3 
  672000    1.1285979    -5.453674    391.28104  0.048521954  0.048967264            1 
  673000    1.1283112   -5.3957545    392.70491  0.048626165  0.048959863            4 
  674000    1.1341013   -5.4663741    393.48949  0.048651025  0.048952777            4 
  675000    1.1246577   -5.4104926     396.0465   0.04889463  0.048945192            2 
  676000    1.1248797   -5.3983363    395.54365  0.048760312  0.048938585            2 
  677000    1.1522577   -5.4420211    395.16492  0.048641669  0.048932143            4 
  678000    1.1431126   -5.4522397    393.75875  0.048397093  0.048925979            3 
  679000    1.1138748   -5.4140363     396.4431  0.048655265  0.048918472            4 
  680000    1.1370905   -5.4369909     395.8518   0.04851125  0.048910754            3 
  681000    1.1168698   -5.4106555    396.48356  0.048517322  0.048903471            3 
  682000    1.1344457   -5.4261083    398.95027  0.048747589   0.04889615            1 
  683000    1.1356851   -5.4419523    399.02184  0.048684949  0.048888738            3 
  684000    1.1444739   -5.4236243    398.92154  0.048601552  0.048880848            4 
  685000    1.1361063   -5.4631075    398.89873  0.048527827  0.048872884            3 
  686000    1.1389868   -5.4361775    399.44093  0.048522951  0.048865398            2 
  687000    1.1173658   -5.4548463    398.58762  0.048348814  0.048858002            2 
  688000    1.1513096   -5.4554518    399.38401  0.048375001   0.04885005            3 
  689000    1.1285683   -5.4128318    402.74962  0.048711856  0.048842113            4 
  690000    1.1528561   -5.4360702    400.99486  0.048429331  0.048834265            5 
  691000    1.1510061   -5.3969453    401.82107  0.048458884  0.048827055            1 
  692000    1.1329096   -5.4061789    403.49389  0.048590304  0.048819382            4 
  693000    1.1352217   -5.4505393    401.31594   0.04825829  0.048811387            2 
  694000    1.1369157   -5.4278775    403.44844  0.048444817  0.048803375            3 
  695000    1.1506079   -5.3718126    404.79559  0.048536642  0.048795721            4 
  696000    1.1458468   -5.4448286    404.02408  0.048374531  0.048789315            2 
  697000    1.1372402   -5.4397402    405.63345  0.048497543  0.048781521            3 
  698000    1.1395706   -5.4366701    406.11729  0.048485828  0.048774259            2 
  699000    1.1530026   -5.3872361    408.36212  0.048684087  0.048767084            5 
  700000    1.1213745   -5.4350246    406.81743  0.048430647  0.048760944            2 
  701000    1.1241247   -5.4096029    408.03192  0.048505935  0.048754687            3 
  702000    1.1577866   -5.4052729    407.92437  0.048424071  0.048748028            1 
  703000    1.1525501    -5.430408    407.67315  0.048325409  0.048740581            4 
  704000      1.13172   -5.4461853    408.32383  0.048333786  0.048732749            1 
  705000     1.129038    -5.410337    409.20002  0.048368797  0.048725458            6 
  706000    1.1420052   -5.4289997    409.38746   0.04832241  0.048718436            2 
  707000    1.1367146   -5.4606072    409.34126  0.048248616  0.048710598            2 
  708000    1.1155054   -5.4677758    410.21016   0.04828274  0.048702208            3 
  709000    1.1126443   -5.4152329    410.88638  0.048294121  0.048693605            4 
  710000    1.1365007   -5.4186921    411.50987   0.04829928  0.048685066            2 
  711000    1.1320111   -5.4134716    412.06143  0.048295995  0.048675822            2 
  712000    1.1715557   -5.4832865    410.01918  0.047989136  0.048667494            2 
  713000    1.1447239   -5.4295208    413.86854  0.048371733   0.04865887           12 
  714000    1.1487437   -5.4160801    413.77572  0.048293151  0.048650487            2 
  715000    1.1472167   -5.4351576    413.12825  0.048150146  0.048642456            2 
  716000    1.1369098   -5.4151342    414.13251   0.04819978   0.04863394            3 
  717000    1.1278095   -5.4221955    415.25904  0.048263487  0.048625716            2 
  718000    1.1337157   -5.4474286    415.41834  0.048214757  0.048617266            2 
  719000    1.1176253   -5.4470683    415.54504  0.048162382   0.04860838            2 
  720000    1.1348803   -5.4877087    414.84552  0.048014528  0.048599125            3 
  721000    1.1350117   -5.4335997    416.52372    0.0481419  0.048589738            2 
  722000    1.1381257    -5.413331    418.01344  0.048247165   0.04858086            3 
  723000     1.175536   -5.4043181      416.533  0.048009797  0.048572453            2 
  724000    1.1401978   -5.4338094    419.02331  0.048230123   0.04856337            2 
  725000     1.130153   -5.4371783    419.05843  0.048167635  0.048554829            2 
  726000    1.1371097   -5.4275995    419.15329  0.048112177  0.048546351            3 
  727000    1.1342738   -5.4397948    419.20508  0.048051934  0.048537459            4 
  728000    1.1492189   -5.4069982    419.00848  0.047963425  0.048528892            3 
  729000    1.1163998   -5.5111742    419.78095  0.047985933  0.048519729            2 
  730000    1.1413905   -5.4397827    421.03217  0.048063033  0.048510673            4 
  731000    1.1362298   -5.4277188    420.80883  0.047971822  0.048501565            2 
  732000    1.1411107   -5.4510153    420.90148  0.047916835  0.048492875            4 
  733000    1.1052549   -5.4414059    422.81462  0.048068965  0.048483605            3 
  734000    1.1490596   -5.4263357    423.63128  0.048096194  0.048474877            1 
  735000    1.1474589   -5.4181656     424.8216  0.048165715  0.048467115            3 
  736000    1.1391164   -5.4556761    423.75329  0.047979313  0.048458168            5 
  737000    1.1332561   -5.4256083    425.29347  0.048088362  0.048449494            3 
  738000    1.1427024   -5.4248814    424.50972  0.047934702  0.048439963            2 
  739000    1.1319689   -5.4448719    425.13588  0.047940446   0.04843102            2 
  740000    1.1216179   -5.4379448    426.19124  0.047994509  0.048422052            3 
  741000    1.1343453   -5.4752364    425.62302  0.047865837  0.048413734            2 
  742000    1.1605542    -5.454705    427.41012  0.048002035  0.048405084            1 
  743000    1.1199937   -5.4247696    427.85549  0.047987381  0.048396672            3 
  744000    1.1357109   -5.4298863    428.77972  0.048026403  0.048388276            4 
  745000     1.121779   -5.4097634    427.71543  0.047842889  0.048379389            4 
  746000    1.1530783   -5.4634943    428.95359  0.047917068  0.048371258            3 
  747000    1.1399285   -5.4288705    431.95602  0.048187865  0.048363248            2 
  748000    1.1305831   -5.4305862    431.26317  0.048046254  0.048356035            1 
  749000    1.1370627   -5.4141178    432.21959  0.048088516  0.048348642            2 
  750000     1.124515   -5.4178724    433.74367  0.048193741  0.048341686            4 
  751000    1.1179042   -5.4302193    434.15852  0.048175602  0.048334251            4 
  752000    1.1193532   -5.4623992    432.40463   0.04791718  0.048327314            5 
  753000    1.1325832     -5.42537    433.88187  0.048017029  0.048320375            3 
  754000    1.1408991    -5.401557    434.97221  0.048073851  0.048313418            2 
  755000    1.1350286   -5.4701117    435.05456  0.048019267  0.048306122            6 
  756000     1.118276   -5.4415522    437.15046  0.048186779  0.048298708            5 
  757000    1.1312067   -5.4485395    437.38224  0.048148639  0.048291623            1 
  758000    1.1416491   -5.4619571    436.50626  0.047988814  0.048284872            5 
  759000    1.1441162   -5.4640144    437.56682  0.048042031  0.048277511            3 
  760000    1.1390476   -5.4640224    437.14142  0.047932173  0.048269996            3 
  761000    1.1408427   -5.4406984    440.88565    0.0482792  0.048262989            4 
  762000    1.1450863   -5.4457146    440.11551  0.048131617  0.048256473            2 
  763000    1.1142446   -5.4697238    439.13616  0.047961573  0.048250172            2 
  764000    1.1422965   -5.4123712    441.84279  0.048194021  0.048243821            3 
  765000    1.1576688   -5.4439313    441.11207  0.048051424  0.048237601            6 
  766000     1.162781    -5.439737    442.63384  0.048154247  0.048231288            6 
  767000     1.117003   -5.4473077    443.08804  0.048140812  0.048225361            1 
  768000    1.1097494   -5.4454095    443.40262  0.048112263  0.048218943            2 
  769000     1.132466   -5.4739052    443.82729  0.048095719  0.048212324            2 
  770000    1.1254224   -5.4280902    443.76763    0.0480268  0.048205601            3 
  771000    1.1320477   -5.4893959    442.21804  0.047797021  0.048198483            6 
  772000    1.1478006   -5.4495706    446.19581  0.048164487  0.048191782            6 
  773000    1.1450862   -5.4054401    446.73694  0.048160515  0.048184936            3 
  774000    1.1412091   -5.4553331    445.22988  0.047936033  0.048179045            4 
  775000     1.159679   -5.4290959    449.50594  0.048333972  0.048173327            2 
  776000    1.1320301   -5.4528735    447.87135   0.04809615   0.04816752            4 
  777000      1.12924    -5.464002    447.45659  0.047989767  0.048161626            3 
  778000     1.097948    -5.462925    447.53256  0.047936222  0.048156666            4 
  779000    1.1209794   -5.4892316    449.09117  0.048041418  0.048150893            6 
  780000     1.138223   -5.4468207    449.34478  0.048006921  0.048145201            6 
  781000    1.1127804   -5.4686944    449.24984  0.047935322  0.048139685            2 
  782000    1.1172558    -5.485474    449.80036   0.04793269  0.048133697            4 
  783000    1.1244668   -5.4595021    451.46844  0.048049004  0.048128129            2 
  784000    1.1449086   -5.4840358    451.01488  0.047939506  0.048122777            1 
  785000    1.1383282   -5.4550963    453.40967  0.048132662   0.04811755            2 
  786000    1.1091787   -5.4247638    454.38232  0.048174546  0.048112551            2 
  787000    1.1372527   -5.4561918    454.05561  0.048078738  0.048107336            2 
  788000    1.1245376   -5.4513101    454.99614  0.048117189   0.04810167            2 
  789000    1.1154716    -5.491139    454.96328  0.048052733  0.048095731            2 
  790000     1.125682   -5.4978399    455.10701  0.048007069  0.048090063            4 
  791000    1.1258975   -5.5120574    454.99761  0.047934852  0.048084344            3 
  792000    1.1033215   -5.4559389    457.40802  0.048127948  0.048079076            5 
  793000    1.1198734   -5.4379756    458.63082  0.048195757  0.048073818            2 
  794000    1.1490983   -5.4568075    457.34113  0.047999699   0.04806824            2 
  795000    1.1174344   -5.4463603    457.57645  0.047963989  0.048062638            4 
  796000     1.140886   -5.4584928    460.11058  0.048169031  0.048057419            1 
  797000     1.109703   -5.4687768    460.02169  0.048099299   0.04805206            1 
  798000    1.1356925   -5.5014621    459.62043  0.047997121  0.048046731            2 
  799000    1.1489996   -5.4546266    462.36296  0.048223087  0.048041387            2 
  800000    1.1159903   -5.4652067    460.99639  0.048020457  0.048035997            7 
  801000    1.1319541   -5.4711359    463.18984  0.048188705  0.048031154            4 
  802000    1.1431489   -5.4632485    462.34787  0.048041134   0.04802673            2 
  803000    1.1211932   -5.5137755    463.59371  0.048110596  0.048022268            5 
  804000    1.1166579   -5.4308162    464.24746  0.048118518  0.048017361            3 
  805000    1.1132801    -5.461907    463.85997   0.04801863  0.048012296            5 
  806000    1.1182653   -5.4714301    463.91645  0.047964893  0.048007351            4 
  807000    1.1077574    -5.456572    464.43659  0.047959169  0.048002374            2 
  808000     1.134696   -5.4808239    465.92618  0.048053442    0.0479969            1 
  809000     1.129359   -5.4513347    465.83606  0.047984761  0.047991811            1 
  810000    1.1454391   -5.4586193    466.54073  0.047998018  0.047986652            2 
  811000    1.1390808   -5.4833272    465.98714   0.04788195  0.047981493            2 
  812000    1.1465809   -5.4665694    467.11859    0.0479391  0.047975573            4 
  813000    1.1160266    -5.476012    466.29745  0.047795966  0.047969566            5 
  814000    1.1179144   -5.4696716     468.4809   0.04796078  0.047963936            5 
  815000    1.1200003   -5.4809203    467.37441  0.047788794  0.047958017            2 
  816000    1.1261617   -5.4292436    470.72331  0.048072233  0.047952365            4 
  817000    1.1095154   -5.4570478    468.53672  0.047790363  0.047946106            5 
  818000    1.1383186   -5.4815029    468.53168  0.047731426  0.047939604            4 
  819000    1.1175119   -5.4476949    468.49072  0.047668978  0.047933245            2 
  820000     1.109711   -5.5157697    468.89304  0.047651731  0.047926851            2 
  821000    1.1333957    -5.440493    468.92077  0.047596505  0.047920342            2 
  822000    1.1289746   -5.4773218    471.63027  0.047813287  0.047913481            4 
  823000    1.1113847   -5.4582996    470.50787  0.047641542  0.047907347            4 
  824000    1.1411976   -5.4457586    473.76103  0.047912726  0.047901283            5 
  825000     1.114783   -5.4867678    472.36281  0.047713415  0.047895615            3 
  826000    1.1222867   -5.4654137    473.00746  0.047720688  0.047889371            2 
  827000    1.1123721   -5.4526237    473.70784  0.047733559  0.047883146            3 
  828000     1.123806    -5.461235    474.62115  0.047767829  0.047877163            2 
  829000    1.1471305   -5.5062202    473.98067  0.047645826  0.047871229            3 
  830000    1.1076264   -5.5081552    476.31984  0.047823277  0.047865318            4 
  831000    1.1242781   -5.4857266    476.02525  0.047736186   0.04785964            5 
  832000    1.1176116   -5.4750367    475.65518  0.047641744  0.047853748            3 
  833000     1.123859   -5.5126465    476.23772   0.04764283  0.047847419            6 
  834000    1.1007149   -5.4781143    475.50586  0.047512575    0.0478412            4 
  835000    1.1307926   -5.4785814    479.72414   0.04787666  0.047834928            3 
  836000    1.0972634    -5.495535    479.80159  0.047827112  0.047828344            3 
  837000    1.1115176   -5.5025217    478.42536  0.047632951  0.047822012            2 
  838000    1.1441922   -5.4728272    480.88715  0.047820918  0.047816198            3 
  839000    1.1027156   -5.4787824    478.57057  0.047533827  0.047810394            4 
  840000    1.1166844   -5.4481602    481.64418  0.047782161  0.047804009            2 
  841000     1.109236   -5.4768193    483.66579  0.047925663   0.04779762            2 
  842000    1.1010481   -5.4705747    478.16226  0.047324056  0.047791051            3 
  843000    1.1082289    -5.503065    479.76063  0.047425922  0.047784006            4 
  844000    1.1398184   -5.4821451    481.85536  0.047576556  0.047777366            3 
  845000    1.1222354   -5.4986587    482.13883  0.047548208  0.047770729            4 
  846000    1.1129993   -5.4746206    482.70341  0.047547617  0.047764398            1 
  847000    1.1129439   -5.4961878    484.71077  0.047688978  0.047757951            4 
  848000    1.1430187    -5.482505    485.96671  0.047756163  0.047751725            3 
  849000     1.122131   -5.4959375    485.56414  0.047660398  0.047745987            3 
  850000    1.1064985   -5.4644455    488.81027  0.047922576  0.047740127            2 
  851000     1.118138   -5.4770358    486.80006  0.047669415  0.047734004            3 
  852000    1.1071488   -5.4988109    487.76236  0.047707586  0.047728167            5 
  853000    1.1330846   -5.4505478    488.89144  0.047761962  0.047723018            2 
  854000    1.1210234   -5.4720912    487.67347  0.047587185  0.047717569            3 
  855000    1.1136931   -5.4824389    488.62615  0.047624381  0.047712089            6 
  856000    1.1512013   -5.4699524    488.81807  0.047587429  0.047706514            2 
  857000    1.1246749   -5.4671401    490.58985  0.047704187  0.047701317            8 
  858000    1.0912591   -5.4756595    490.39329  0.047629496   0.04769579            6 
  859000    1.1136651   -5.4832158    490.95491  0.047628533  0.047689899            3 
  860000    1.1051476   -5.4673673    493.05132  0.047776291  0.047685093            4 
  861000    1.1188043   -5.4642049     492.6536  0.047682308   0.04767951            1 
  862000    1.1226149   -5.4545932    493.86634  0.047744232  0.047674032            2 
  863000    1.1264434   -5.4514386    493.85179  0.047687503  0.047668885            3 
  864000    1.1414672   -5.4734416    496.24822  0.047863447  0.047663701            5 
  865000    1.1166993     -5.42864    496.02775  0.047786874  0.047659157            2 
  866000    1.0998902   -5.5051139    494.28224  0.047563726  0.047654214            2 
  867000    1.1015052   -5.4573009     495.2349  0.047600432  0.047649434            4 
  868000     1.119657   -5.4693442    495.76007  0.047596013  0.047644323            5 
  869000    1.1286524   -5.4707685    497.82043  0.047738822  0.047639304            2 
  870000    1.1201608    -5.495909    496.98088  0.047603532  0.047633935            4 
  871000    1.1360057   -5.4984178    496.25945  0.047479855  0.047628699            1 
  872000    1.1075851   -5.4861112    498.31318  0.047621673  0.047623196            2 
  873000    1.0849809   -5.4740631    497.41023  0.047480931  0.047617309            3 
  874000    1.1179975    -5.449092    498.61685  0.047541652  0.047611577            5 
  875000    1.1173709   -5.4758192     500.1579  0.047634086  0.047605883            1 
  876000    1.1119446   -5.5200844    497.87325  0.047362372  0.047599744            2 
  877000    1.1080239   -5.5058866    500.82684  0.047589019  0.047593563            3 
  878000    1.1082948   -5.4871471    500.24737  0.047479819  0.047586965            3 
  879000    1.1155601   -5.4975785    499.76519   0.04738009   0.04758087            4 
  880000    1.0969228    -5.488716    503.57352  0.047686886  0.047575244            3 
  881000    1.1433497   -5.4799121     501.9826  0.047482274   0.04756944            2 
  882000    1.1194118   -5.4700555    502.77108  0.047502936  0.047563561            3 
  883000     1.116967   -5.4673167    503.33837  0.047502677  0.047557771            3 
  884000    1.1004968   -5.4981873    502.22926  0.047344387  0.047551706            3 
  885000    1.1060273   -5.4948165    503.77135  0.047436097  0.047545318            5 
  886000     1.120155   -5.4648497    504.95677  0.047494053  0.047539543            4 
  887000    1.1039991   -5.5504701    503.19169   0.04727468  0.047532831            5 
  888000    1.0899989   -5.5044962    504.09828   0.04730652   0.04752636            4 
  889000    1.1150845    -5.487308    505.87108  0.047419486  0.047519792            1 
  890000     1.102766   -5.4973335      505.084  0.047292509  0.047513337            3 
  891000    1.0849499    -5.484705    507.40628  0.047456629  0.047507013            3 
  892000     1.117717    -5.495682    506.17699  0.047288583  0.047500524           10 
  893000    1.0814363   -5.5064179     506.7524  0.047289324  0.047494129            5 
  894000    1.1204887   -5.4961907    508.70018  0.047417988  0.047487903            4 
  895000     1.087342   -5.4867451    508.37611  0.047334833  0.047482013            3 
  896000    1.0941594   -5.4871679    508.95957  0.047336269   0.04747618            2 
  897000    1.1003996   -5.4932791    510.05395  0.047385168  0.047469854            2 
  898000    1.1217193   -5.4660522    509.38152      0.04727  0.047463687           13 
  899000    1.1178131   -5.5365037    510.32648  0.047305013  0.047457685            2 
  900000    1.1170309   -5.5241309    510.51714  0.047270105  0.047451386            6 
  901000    1.1233825    -5.462366    513.72358  0.047514204  0.047445614            7 
  902000    1.1300518   -5.4980562    512.40793  0.047339979  0.047439423            2 
  903000    1.1071428   -5.4916314    514.64034  0.047493571  0.047433225            2 
  904000    1.0938417   -5.5049673    514.39603  0.047418513  0.047427588            2 
  905000     1.102772    -5.485933     514.9923  0.047421022  0.047421845            3 
  906000    1.1125612   -5.4928751    514.37144  0.047311574  0.047416114            4 
  907000    1.1191902   -5.5397488    515.23543  0.047338794  0.047409663            3 
  908000    1.1150358   -5.5013416    516.16364  0.047371847  0.047403326            3 
  909000    1.1356369      -5.5251    516.94752  0.047391595  0.047397772            2 
  910000    1.1373939   -5.5288206    516.69142  0.047316064  0.047392264            3 
  911000    1.1282104   -5.5148334    518.68373  0.047446371  0.047387038            2 
  912000    1.1211512   -5.5146301    519.25628  0.047446663  0.047381586            1 
  913000    1.1349171   -5.5005224    519.18855  0.047388513  0.047376217            4 
  914000    1.0942399   -5.4728045    522.01765  0.047594607  0.047371056            2 
  915000    1.0974198   -5.4714212    521.58168  0.047502885  0.047366105            2 
  916000    1.0976551   -5.5096032    520.81464  0.047381245  0.047360872            4 
  917000     1.115733   -5.5189205    520.45988  0.047297335   0.04735525            3 
  918000    1.0974279   -5.5080757    521.49914  0.047340154  0.047349152            3 
  919000    1.0918569   -5.4813399    521.40853  0.047280425  0.047343045            3 
  920000    1.1080687   -5.4915166    520.76204  0.047170474  0.047336419            6 
  921000    1.0767311      -5.4853    520.32134  0.047079383  0.047329266            3 
  922000    1.1139434   -5.5190026    520.90613  0.047081176  0.047322392            2 
  923000    1.1292475   -5.5218166      520.052  0.046953052  0.047315704            1 
  924000    1.0935606   -5.4813745     520.9745  0.046985435  0.047308787            4 
  925000    1.0922161   -5.5152541     521.6051  0.046991451  0.047301734            3 
  926000    1.1101061   -5.5245154    520.99873  0.046886135  0.047294839            3 
  927000    1.1124362   -5.5282102    522.30949  0.046953388  0.047287733            1 
  928000    1.1122215   -5.4794094    523.83025  0.047039354  0.047280998            2 
  929000    1.1012768   -5.5299567    522.74984  0.046891805  0.047273733            3 
  930000    1.0881832    -5.498868    526.10512  0.047142036  0.047265838            5 
  931000    1.1119829   -5.5066993    524.43139  0.046941585  0.047258421            2 
  932000    1.1022762   -5.5232854     524.7084  0.046915988  0.047250825            4 
  933000    1.1084619   -5.5131546    526.36473  0.047013641  0.047243063            3 
  934000    1.1188663   -5.5193155    525.62336  0.046897159  0.047235431            4 
  935000    1.0992839   -5.5217449     524.6986  0.046764581  0.047227513            2 
  936000    1.0725068   -5.5077203    524.06703   0.04665839   0.04721946            1 
  937000    1.0986297   -5.5093244    525.42113  0.046729023  0.047211192            1 
  938000     1.090696    -5.509542    525.69819  0.046703819  0.047203184            2 
  939000    1.0756621   -5.5030342    526.09133  0.046688972  0.047195079            3 
  940000    1.0940789   -5.4912316    528.10731  0.046818024  0.047186016            3 
  941000    1.0857067   -5.5270191    525.80725  0.046564581  0.047176841            5 
  942000    1.1131592   -5.5503457    527.50243  0.046665112  0.047167501            3 
  943000    1.1104922    -5.475089    529.36111  0.046779879  0.047158678            1 
  944000    1.1011237   -5.5085214    528.09032  0.046618142  0.047150332            3 
  945000    1.1402898   -5.5177877    528.03316  0.046563771  0.047141605            3 
  946000    1.1019745   -5.5475596    527.35053  0.046454416  0.047132478            4 
  947000    1.1028514   -5.5022554    528.87069  0.046539131  0.047123139            2 
  948000    1.1029907   -5.5059178    529.86287  0.046577257  0.047114595            3 
  949000    1.0902791   -5.4812329    533.14063  0.046816002  0.047106357            3 
  950000    1.0920918   -5.4656945     533.0433  0.046758185  0.047098624            2 
  951000    1.1120785   -5.5001152    534.61188  0.046846467  0.047090371            2 
  952000    1.0827163   -5.5096023    532.28768   0.04659381  0.047082192            3 
  953000    1.1282834   -5.5229249     531.3798   0.04646553  0.047073722            3 
  954000     1.098462   -5.4924878    535.64224  0.046789154  0.047065709            2 
  955000    1.1064402   -5.4934821    535.14965  0.046697177  0.047057697            4 
  956000    1.1008565   -5.5320069    536.99946  0.046809577  0.047050051            3 
  957000     1.109969   -5.5163852    535.70846  0.046648247  0.047042252            4 
  958000    1.0975633    -5.519104    536.58215  0.046675553  0.047034337            5 
  959000    1.1004082   -5.5647537    537.44323  0.046701705  0.047026804            2 
  960000    1.1000912   -5.5208566     539.0184  0.046789791   0.04701934            5 
  961000    1.0984805    -5.547987    536.40091  0.046514127  0.047011965            4 
  962000    1.0774861   -5.5349091    538.08867  0.046611978   0.04700404            6 
  963000    1.0879477   -5.5498629    537.14353  0.046481787  0.046996168            3 
  964000    1.0959129    -5.532878    540.13077  0.046691802  0.046988435            3 
  965000    1.0959693   -5.5335995    542.23518  0.046825145  0.046980976            3 
  966000    1.1015442   -5.5002342    541.97103  0.046753885  0.046973562            4 
  967000    1.0989586   -5.5466239    542.39983  0.046742488  0.046966791            2 
  968000     1.091139   -5.5099923       544.18  0.046847452  0.046959604            4 
  969000    1.0989266   -5.5173481    543.77683  0.046764433  0.046952875            6 
  970000    1.0896717    -5.491021    546.11859  0.046917404   0.04694636            5 
  971000    1.1124615   -5.5220214    543.49256  0.046643714  0.046939203            2 
  972000    1.1046431   -5.5344397    544.48643  0.046680936  0.046932417            4 
  973000    1.1095643   -5.4980425    544.83327  0.046662664  0.046924871            2 
  974000     1.082643   -5.5507975    543.57774  0.046507335  0.046917785            4 
  975000    1.0955771   -5.5141801    546.01425  0.046667885  0.046910697            2 
  976000    1.0915377   -5.5531712    546.54117  0.046665059  0.046903224            4 
  977000    1.0848764   -5.5302387    548.47889  0.046782574  0.046896072            3 
  978000    1.1048984   -5.5298276    547.44135  0.046646331  0.046888972            2 
  979000      1.09467   -5.5002638    550.25526  0.046838207  0.046881744            2 
  980000    1.0873734   -5.5427994    547.46429  0.046553086  0.046874483            2 
  981000    1.0833399   -5.5222935    547.43036  0.046502749  0.046866659            2 
  982000    1.1030419   -5.5306445    547.42185  0.046454672  0.046858942            4 
  983000     1.099085    -5.568739    549.58722  0.046590981  0.046851732            2 
  984000    1.0923901   -5.5148507    548.73605  0.046471549  0.046844166            4 
  985000    1.1169689   -5.5394748     548.5743  0.046410685  0.046836648            1 
  986000    1.0943682   -5.5114152    549.85992  0.046472272  0.046829304            3 
  987000    1.1078903   -5.5239581    552.58984  0.046655677  0.046821515            2 
  988000    1.0910055   -5.5306914     549.8622  0.046378391  0.046813706            3 
  989000    1.0945153   -5.5365236    551.41035  0.046461944  0.046805823            2 
  990000     1.075532    -5.550165    551.20211  0.046397484  0.046797577           11 
  991000    1.0863282   -5.5349407      551.327  0.046361167  0.046789297            2 
  992000     1.088196   -5.4986622    553.37674  0.046486621  0.046781672            6 
  993000    1.1072641   -5.5360778     555.4688  0.046615374  0.046774141            3 
  994000    1.0987324   -5.5558274    554.48608   0.04648609  0.046766775            3 
  995000    1.0961367   -5.4994828    553.98477  0.046397384  0.046759351            3 
  996000    1.0800261   -5.5285942    555.24314  0.046456086  0.046751784            5 
  997000    1.1133105   -5.5333594    553.93192  0.046299893  0.046743782            1 
  998000     1.076906    -5.537306    556.67279  0.046482364  0.046735474            4 
  999000    1.0725296   -5.5822861     553.7631  0.046193118  0.046727557            6 
 1000000    1.1072462    -5.563057    554.52811  0.046210675  0.046719251            2 
 1001000    1.0838021   -5.5535146    558.58691  0.046502407  0.046711084            1 
 1002000    1.0979494   -5.5464629    556.04594  0.046244672  0.046702935            3 
 1003000    1.0600805   -5.5362577    556.75912   0.04625782  0.046694508            4 
 1004000    1.0873532   -5.5667246    556.87605  0.046221452  0.046686195            2 
 1005000    1.1063631   -5.5240458    558.98307  0.046350172  0.046678122            6 
 1006000    1.0799663   -5.5414296    559.72668  0.046365696   0.04666985            4 
 1007000    1.1103559   -5.5169124    559.28795  0.046283345  0.046661638            2 
 1008000    1.0967818    -5.499364    560.85078  0.046366632  0.046653614            3 
 1009000     1.079415    -5.535139    559.80651  0.046234433  0.046645808            3 
 1010000    1.1112921   -5.5599334    557.34434  0.045985507  0.046637759            4 
 1011000    1.1013968   -5.5891435    559.30739  0.046101829  0.046629211            3 
 1012000    1.0791171   -5.5522029    560.31168  0.046138973  0.046621144            4 
 1013000    1.0767829   -5.5263102     561.5881  0.046198429  0.046613291            2 
 1014000    1.0928813   -5.5082846    563.72016  0.046328087  0.046605628            2 
 1015000    1.0616878   -5.5388573    564.33415  0.046332853  0.046597368            2 
 1016000    1.1108986   -5.5058218    563.95085  0.046255811  0.046588896            1 
 1017000    1.0948992   -5.5539143    562.92528  0.046126293  0.046580479            3 
 1018000    1.1044004   -5.5405048    565.60196  0.046300095  0.046571933            2 
 1019000    1.0847829   -5.5665576    564.00889  0.046124378  0.046563414            3 
 1020000    1.0638163   -5.5848917    563.02858  0.045999067  0.046554443            3 
 1021000    1.0781935   -5.5164213    565.91865    0.0461899  0.046545583            6 
 1022000    1.0917987   -5.5039942    566.85755  0.046221261  0.046536776            4 
 1023000    1.1008393   -5.5208479    564.26091  0.045964557  0.046527911            8 
 1024000    1.1021506    -5.564924    565.31596  0.046005531  0.046519052            5 
 1025000    1.0999734   -5.5015232    564.63085  0.045904947  0.046510379            5 
 1026000    1.0748366    -5.540587    565.62198  0.045940706  0.046501329            3 
 1027000    1.1066146   -5.5673617    566.03384  0.045929393  0.046491659            3 
 1028000    1.0938642    -5.537052    566.97804  0.045961255  0.046482056            1 
 1029000    1.0905331   -5.5642539    566.94637  0.045914024  0.046472821            4 
 1030000    1.0612474    -5.563599    566.07618  0.045799044  0.046463794            3 
 1031000    1.0717797   -5.5168676    569.24842  0.046011027  0.046454636            4 
 1032000    1.0959844   -5.5380379    568.64667  0.045917851  0.046445005            2 
 1033000    1.0786817   -5.5660695    568.34928  0.045849409  0.046435587            3 
 1034000    1.0794022   -5.5017264    569.13755  0.045868597  0.046426639            3 
 1035000    1.0776182   -5.5720609    568.14159   0.04574409  0.046417279            3 
 1036000    1.0840513     -5.55736    568.03443  0.045691315  0.046407566            4 
 1037000     1.076198   -5.5495371    571.56123  0.045930668  0.046398563            6 
 1038000    1.0554828   -5.5406059    572.18098  0.045936174  0.046389715            3 
 1039000    1.0801271   -5.5675371    572.14088  0.045888745  0.046380597            3 
 1040000    1.1093687   -5.4977127    573.98861  0.045992677  0.046371779            2 
 1041000    1.0841116   -5.5489811    572.91099  0.045862231  0.046362887            3 
 1042000    1.1057177   -5.5374234    574.81971  0.045970866  0.046354154            8 
 1043000    1.0891681   -5.5141405    572.36727  0.045730846   0.04634512            4 
 1044000     1.057469   -5.5173911    575.01064   0.04589804  0.046335919            6 
 1045000    1.0859768   -5.5076353    576.67399  0.045986762  0.046327208            4 
 1046000    1.1083942   -5.5268394    576.49739  0.045928727  0.046318377            3 
 1047000    1.0951877   -5.5309241    575.70568  0.045821847  0.046309371            4 
 1048000    1.0832087   -5.5510031    574.59423  0.045689745  0.046299983            3 
 1049000    1.1061026   -5.5821074    576.85676  0.045825926   0.04629049            2 
 1050000    1.0620697   -5.5375805    576.51449  0.045755118  0.046280883            4 
 1051000    1.0802546   -5.5120896    576.69751  0.045726095   0.04627121            3 
 1052000    1.0607974   -5.5524902    577.31606  0.045731627  0.046261915            3 
 1053000    1.0694218   -5.5361899    577.54256  0.045706123   0.04625241            2 
 1054000    1.0910361   -5.5251001    577.13746  0.045630729  0.046242837            4 
 1055000    1.0963023   -5.5392052    577.11636   0.04558581  0.046233071            3 
 1056000    1.0775593   -5.5719437    577.16882  0.045546782  0.046223531            3 
 1057000    1.0870758   -5.5525563    578.51062  0.045609478  0.046213643            2 
 1058000     1.066708   -5.5602816    580.65672  0.045735407  0.046204134            2 
 1059000     1.113105   -5.5651441     580.1403  0.045651582  0.046194821            3 
 1060000    1.0895462   -5.5439707    580.25596  0.045617607  0.046185168            3 
 1061000    1.0785626   -5.5602752    583.24735  0.045809562  0.046176068            3 
 1062000    1.0968791    -5.533396    581.66164  0.045641999  0.046167229            4 
 1063000    1.0553047   -5.5369289    582.71576  0.045681699  0.046157986            4 
 1064000    1.0867932   -5.5463202    582.57157  0.045627473  0.046148791            4 
 1065000    1.0718478   -5.5408651    584.16402  0.045709235  0.046139493            2 
 1066000    1.0730131    -5.523739    586.60669  0.045857309  0.046130502            4 
 1067000    1.0883301   -5.5801118    585.22109  0.045706114  0.046121471            4 
 1068000    1.0735398   -5.5590499     586.6337  0.045773541  0.046112468            7 
 1069000    1.0643934   -5.5821455    584.83966  0.045590868  0.046103514            6 
 1070000     1.086639   -5.5798452    585.04689  0.045564399   0.04609436            2 
 1071000    1.0736557   -5.5452061    588.08937  0.045758588  0.046085324            3 
 1072000    1.0910477   -5.5419652    588.52488  0.045749758  0.046076641            3 
 1073000    1.0666163   -5.5776872    589.00939  0.045744749  0.046067549            3 
 1074000    1.0710076   -5.6006483     585.9418  0.045464137  0.046058375            2 
 1075000    1.0830072   -5.5668761    588.59315  0.045627376    0.0460492            4 
 1076000    1.0707918   -5.5652744    587.34162  0.045488044  0.046040323            2 
 1077000    1.0923731   -5.5626555    588.14546  0.045508005   0.04603102            1 
 1078000    1.0798789   -5.5700985    589.42222  0.045564488  0.046021818            2 
 1079000    1.0698202   -5.5700922    588.31559  0.045436793  0.046012755            3 
 1080000    1.0648336   -5.5307741    593.33862  0.045782301  0.046003669            4 
 1081000    1.0775707   -5.5706697    591.06107  0.045564375  0.045994958            2 
 1082000    1.0646598   -5.5893491    591.11976  0.045526783  0.045986253            3 
 1083000    1.0906007   -5.5529176    595.17931  0.045797115  0.045977624            3 
 1084000    1.0659346   -5.5964599    592.40088  0.045541273  0.045969063            6 
 1085000    1.0811163    -5.525419    595.08119  0.045705161  0.045960688            2 
 1086000    1.0875439   -5.5723056    594.40095  0.045610877  0.045952606            2 
 1087000    1.0774444   -5.5418385    594.19649  0.045553242  0.045944031            4 
 1088000    1.0991505   -5.5497557    595.19007  0.045587475  0.045935654            6 
 1089000    1.0909636   -5.6124089    591.37016  0.045253303  0.045927076            3 
 1090000    1.0718425   -5.5670525    595.17172  0.045502425  0.045919005            3 
 1091000    1.1013886   -5.5709354    594.66258  0.045421829  0.045910821            4 
 1092000    1.0744832    -5.532073    597.63049  0.045606722  0.045902426            8 
 1093000    1.0903611   -5.5813348    596.85444  0.045505828  0.045894192            2 
 1094000    1.0844234     -5.55422     601.0343  0.045782625  0.045886399            2 
 1095000    1.1050864   -5.5414604    599.22326  0.045602988  0.045878222            5 
 1096000     1.073542   -5.5639081    597.60115  0.045438044  0.045869886            5 
 1097000    1.1074677   -5.5080497    598.82147  0.045489325  0.045861424            3 
 1098000    1.0650048    -5.563505    600.75172  0.045594393  0.045852571            3 
 1099000    1.0616067   -5.5453354    599.78938  0.045479935  0.045843658            2 
 1100000    1.1037165   -5.5666404    599.33192  0.045403933  0.045835073            4 
 1101000    1.1012523   -5.5363791       601.16   0.04550106  0.045826402            2 
 1102000    1.0916043   -5.5648114    600.31768  0.045396074  0.045817945            5 
 1103000    1.0559073   -5.5817779    599.43155  0.045287968  0.045809158            2 
 1104000    1.0642597   -5.5694738    602.01944  0.045442289  0.045800058            4 
 1105000    1.0798683   -5.5979978    599.57919  0.045217134  0.045790894            2 
 1106000    1.0699459   -5.5286833    602.61951  0.045405328  0.045781312            3 
 1107000    1.0882845   -5.5711602    600.03121  0.045169468  0.045772303            5 
 1108000    1.0717129   -5.5804048     603.2641  0.045371849  0.045762988            5 
 1109000    1.0835888   -5.5783942    599.88633  0.045077121  0.045753805            4 
 1110000    1.1190157   -5.5823756      600.597  0.045089865  0.045744793            4 
 1111000    1.0447997   -5.5810477    604.18502  0.045318409  0.045735634            6 
 1112000    1.0745788   -5.5645493    603.66536  0.045238711  0.045726582            2 
 1113000    1.0675918   -5.5713502    603.68464  0.045199509  0.045717427            2 
 1114000     1.073579   -5.5910671    603.23701  0.045125449  0.045708244            5 
 1115000    1.0731732   -5.5842969    604.17364   0.04515498  0.045698944            5 
 1116000    1.0766047   -5.5703053    604.70139  0.045153927  0.045689945            3 
 1117000    1.0780158   -5.5611923    606.12216  0.045219499  0.045680787            4 
 1118000    1.0584822   -5.5496459    607.21327  0.045260381  0.045671787            3 
 1119000    1.0775228   -5.5814205    604.84328  0.045043438   0.04566274            2 
 1120000    1.0572875   -5.5785328    607.75003  0.045219497  0.045653598            4 
 1121000    1.0580527   -5.5799894    607.67141  0.045173313  0.045644649            4 
 1122000    1.0948051   -5.6095848    607.47415  0.045118401  0.045635218            3 
 1123000    1.0602415   -5.5647815    608.26618  0.045136998   0.04562612            4 
 1124000    1.0614983   -5.5533891    607.15446  0.045014418  0.045617087            4 
 1125000     1.051669   -5.5647059    607.89074  0.045028944  0.045607944            3 
 1126000    1.0689596   -5.5651006    609.20947   0.04508655  0.045598812            3 
 1127000    1.0843471   -5.5514088    610.46947  0.045139712  0.045589898            6 
 1128000    1.0627038   -5.5745335    610.92941  0.045133674  0.045580551            3 
 1129000    1.0617741   -5.6077811    608.79535  0.044936178   0.04557095            5 
 1130000    1.0546441   -5.5683795    609.41826  0.044942349  0.045561433            2 
 1131000    1.0699839   -5.5660601    610.63046  0.044991929  0.045552104            2 
 1132000    1.0574061   -5.6084664    610.10582  0.044913562  0.045542838            5 
 1133000    1.1035029   -5.5174809    614.23709  0.045177779  0.045533512            3 
 1134000    1.1091705    -5.555767    613.17474  0.045059872  0.045524797            7 
 1135000    1.0589031   -5.5422701    613.28217  0.045028059  0.045515943            1 
 1136000    1.0651877   -5.5629499    614.86923  0.045104844  0.045506776            4 
 1137000    1.0726515    -5.571654     614.0843  0.045007645  0.045497731            2 
 1138000    1.0697681   -5.6060546    614.24529  0.044979883  0.045488248            2 
 1139000    1.0697149   -5.5759363     613.9998  0.044922432  0.045478546            4 
 1140000    1.0763452   -5.5906266    614.43283  0.044914681  0.045468907            3 
 1141000    1.0749443   -5.5630958    613.47373  0.044805268  0.045459129            4 
 1142000    1.0770994    -5.550831    615.39774  0.044906432  0.045449242            4 
 1143000    1.0429561   -5.5645026    615.12333  0.044847137  0.045439656            2 
 1144000     1.064977   -5.5855547    616.25705   0.04489052  0.045429902            3 
 1145000    1.0611699   -5.5923153    615.48041  0.044794789   0.04541998            2 
 1146000     1.075753   -5.5718768    616.17467  0.044806186  0.045410003            4 
 1147000    1.0711267   -5.5816427    616.20435  0.044769278   0.04540046            2 
 1148000    1.0963915   -5.6054786    615.64352  0.044689571  0.045390357            3 
 1149000     1.039322   -5.5833465    616.40203  0.044705689  0.045380467            3 
 1150000    1.0497089   -5.5652514    618.06227  0.044787121  0.045370857            2 
 1151000    1.0916868   -5.5869223    618.82029  0.044803091  0.045361054            6 
 1152000    1.0652352   -5.5505979    619.51638  0.044814553  0.045351309            5 
 1153000    1.0612487   -5.5572836     619.5293  0.044776619  0.045341787            2 
 1154000    1.0723754    -5.591766    618.33271  0.044651409  0.045332207            4 
 1155000    1.0437118   -5.5559609    621.36384  0.044831446  0.045322408            3 
 1156000    1.0585162   -5.5525574    622.78572  0.044895164  0.045312895            1 
 1157000    1.0684173   -5.5277314    624.44346   0.04497576  0.045303548            2 
 1158000    1.0461353   -5.5564889    621.66224  0.044736776  0.045294101            3 
 1159000    1.0556268   -5.5741547    623.14474   0.04480477  0.045284343            5 
 1160000    1.0673892   -5.5799847    624.63992  0.044873558  0.045274765            3 
 1161000    1.0595154      -5.6207    623.24551   0.04473482   0.04526479            6 
 1162000    1.0810463   -5.6256477    621.44816  0.044567424  0.045254565            3 
 1163000    1.0740231     -5.58643    621.86278  0.044558812  0.045244224            2 
 1164000    1.0772515    -5.551849    624.08229  0.044679431  0.045234094            3 
 1165000    1.0698969   -5.5847196    623.31287  0.044586042  0.045224062            5 
 1166000    1.0795904   -5.6169625    622.70661  0.044504474  0.045213739            3 
 1167000    1.0568323   -5.5725844    625.95278  0.044698142  0.045203926            5 
 1168000    1.0747198   -5.6248064     622.2541  0.044395983  0.045193955            3 
 1169000    1.0544249   -5.5817071    626.24934   0.04464281  0.045184471            4 
 1170000    1.0674636   -5.5530609    625.72739  0.044567478  0.045174806            5 
 1171000    1.0433929   -5.5874593    625.25658  0.044495914  0.045165129            3 
 1172000    1.0491499   -5.5796928    626.70021  0.044560595  0.045155319            3 
 1173000    1.0681068   -5.5928491    627.36907  0.044570124  0.045145442            7 
 1174000    1.0419951   -5.5956056    628.56271  0.044616888  0.045135857            3 
 1175000    1.0793333   -5.6181163    627.83478   0.04452729  0.045126246            3 
 1176000    1.0666644   -5.6293655     627.5261  0.044467552  0.045116736            6 
 1177000    1.0309192   -5.6074562    629.25208  0.044551974  0.045107047            2 
 1178000    1.0683696   -5.6022008    629.23534   0.04451297  0.045097074            3 
 1179000     1.065763   -5.5931299    628.02113  0.044389393   0.04508717            4 
 1180000    1.0558616   -5.6256121    629.14923  0.044431443  0.045077024            5 
 1181000    1.0482812   -5.5892236    628.86882  0.044374034  0.045067081            3 
 1182000    1.0709857   -5.6015838    628.69705  0.044324383    0.0450568            2 
 1183000    1.0787895   -5.5956803    631.36841  0.044475092  0.045046564            2 
 1184000    1.0707318   -5.5639488    631.89923  0.044474889  0.045036304            3 
 1185000    1.0515763   -5.6216052    631.87768  0.044435843  0.045026305            2 
 1186000    1.0674809   -5.5857192    631.48987  0.044371126  0.045015881            5 
 1187000    1.0535437   -5.6064062    630.26574  0.044247805  0.045005643            3 
 1188000     1.060239   -5.5682433    633.64623  0.044447687  0.044995452            5 
 1189000    1.0557076   -5.5950114    632.82914  0.044353037  0.044985521            4 
 1190000    1.0439966   -5.6072014    632.58339  0.044298557  0.044975538            3 
 1191000    1.0526263   -5.6364863    634.06215   0.04436483  0.044965346            5 
 1192000    1.0427834   -5.5603859    634.24902  0.044340676  0.044955239            3 
 1193000    1.0396656    -5.575936    635.20243  0.044370105  0.044945094            3 
 1194000    1.0465053    -5.613926    632.53467  0.044146752  0.044934989            3 
 1195000    1.0586789   -5.5508992    634.75208  0.044264441  0.044924653            4 
 1196000    1.0359654    -5.617871    635.46014  0.044276766   0.04491425            4 
 1197000    1.0427527   -5.5977123     635.8678  0.044268157  0.044903755            3 
 1198000    1.0772376   -5.6150623    635.47962  0.044204203  0.044893448            3 
 1199000    1.0787666   -5.5655702    637.36724  0.044298529  0.044883364            3 
 1200000    1.0593211   -5.5822137    635.91967  0.044161088  0.044873413            3 
 1201000    1.0387182   -5.6040358    635.85586   0.04411989  0.044862941            2 
 1202000    1.0638518   -5.5648429    638.51621  0.044267624  0.044852942            2 
 1203000    1.0553263   -5.6162372    637.36092  0.044150798  0.044843111            6 
 1204000    1.0373918   -5.5967616    638.05618   0.04416225  0.044832898            1 
 1205000      1.04926   -5.5788015    638.74529  0.044173257  0.044822963            3 
 1206000    1.0399788     -5.56353    641.48654  0.044326046  0.044812725            3 
 1207000    1.0612411   -5.5972694    639.19713  0.044131257  0.044802638            5 
 1208000    1.0677197   -5.6004933    641.05362  0.044222794   0.04479268            5 
 1209000    1.0529028   -5.5671593    641.46276  0.044214417  0.044782754            3 
 1210000    1.0509941   -5.5655424    641.48342  0.044179299  0.044772528            2 
 1211000    1.0743614   -5.5981906    643.08596  0.044253094  0.044762634            2 
 1212000    1.0743053   -5.6214625    641.36196  0.044098045  0.044752496            3 
 1213000    1.0592399   -5.5889529    643.08236  0.044179882  0.044742424            2 
 1214000    1.0539159   -5.5566468    644.15369   0.04421703  0.044732401            2 
 1215000    1.0731613   -5.6293754    643.56075  0.044139969  0.044722362            2 
 1216000    1.0481758   -5.6181793    642.20719  0.044010909  0.044712137            3 
 1217000    1.0714096   -5.5851498    646.15861  0.044245317  0.044701824            4 
 1218000    1.0432619   -5.5732062    644.91692  0.044124037  0.044691745            3 
 1219000    1.0598597   -5.5816028    643.50917  0.043991603  0.044681405            4 
 1220000    1.0566516   -5.6072289    644.19273  0.044002236  0.044670927            3 
 1221000    1.0488026   -5.6142512    645.10093  0.044028182   0.04466026            4 
 1222000    1.0622652   -5.6011294    644.88272  0.043977272  0.044649732            5 
 1223000    1.0525485   -5.5878394    645.95486  0.044014368  0.044638832            2 
 1224000     1.064047   -5.5822876    645.77804   0.04396637  0.044628084            6 
 1225000     1.078047    -5.599722    646.54474  0.043982635  0.044617271            3 
 1226000    1.0407139   -5.5961458    650.51679  0.044216748   0.04460701            3 
 1227000    1.0480606   -5.6277018     648.1074  0.044017074  0.044597041            5 
 1228000    1.0531953    -5.600589    647.21202  0.043920468  0.044586814            3 
 1229000    1.0755914   -5.6061121    649.92915  0.044068968  0.044576585            2 
 1230000     1.074673   -5.6509797    648.28437  0.043921705  0.044566548            4 
 1231000    1.0570266   -5.6247677    649.05762  0.043938371  0.044556337            3 
 1232000    1.0260878   -5.6130379    650.03002  0.043968481  0.044546251            3 
 1233000    1.0443627   -5.6051806    649.76533  0.043914932  0.044535986            4 
 1234000    1.0394273   -5.6407284    647.92822  0.043755282  0.044525653            3 
 1235000    1.0515572   -5.6357273     649.3094   0.04381305  0.044515245            3 
 1236000    1.0391834   -5.5855761    649.68112  0.043802664  0.044505026            3 
 1237000    1.0604693   -5.6201675    650.41538  0.043816719  0.044494829            3 
 1238000    1.0458626   -5.6610606    647.88496  0.043610996  0.044484297            5 
 1239000    1.0645542   -5.5926708     652.2105  0.043866727  0.044473946            3 
 1240000    1.0472867   -5.6505268    649.30889   0.04363635  0.044463864            6 
 1241000    1.0682299   -5.5525902    655.83886  0.044039677  0.044453701            2 
 1242000    1.0463751   -5.5874984    653.03028  0.043815773  0.044444097            5 
 1243000     1.074374   -5.5928915    654.70783  0.043892989  0.044434195            5 
 1244000    1.0740484   -5.5863193    656.59985  0.043984449  0.044424485            9 
 1245000    1.0585153    -5.600678    657.28201   0.04399478   0.04441452            2 
 1246000    1.0391159   -5.5914949    653.96016  0.043737303  0.044404577            3 
 1247000    1.0926646   -5.6520949    654.74303  0.043754546  0.044394134            2 
 1248000    1.0231269   -5.5935217    658.99124  0.044003155  0.044383662            3 
 1249000    1.0431875   -5.5999735    656.55906  0.043805648  0.044373619            3 
 1250000    1.0642617   -5.6240537    655.45695   0.04369713  0.044363309            4 
 1251000    1.0521769   -5.5885954    657.18476  0.043777295   0.04435302            2 
 1252000    1.0479085   -5.5769122    659.58827  0.043902307  0.044342973            3 
 1253000    1.0586498   -5.5704128    657.14512  0.043704783  0.044332993            4 
 1254000    1.0549499   -5.6232899    657.98773  0.043725925   0.04432274            3 
 1255000    1.0196792   -5.5694701    659.78557  0.043810463  0.044312332            5 
 1256000     1.037773   -5.6216967    657.73725   0.04363968  0.044302034            5 
 1257000    1.0299223   -5.6202725    658.52213  0.043656996  0.044291684            5 
 1258000    1.0654608   -5.6005998    658.71141  0.043634831  0.044281187            7 
 1259000    1.0443359   -5.6459501    657.94914  0.043549718  0.044270715            3 
 1260000    1.0288869   -5.6202557     657.8007  0.043505337  0.044260042            3 
 1261000    1.0622192    -5.570415    662.16729  0.043759404  0.044249421            3 
 1262000    1.0523182   -5.6151566    659.59251  0.043554709  0.044238672            3 
 1263000    1.0406866   -5.6249796    661.50259  0.043646252  0.044228079            3 
 1264000    1.0500173   -5.6356395    659.64272  0.043489104  0.044217237            3 
 1265000    1.0597165   -5.5541749    662.97328  0.043674129  0.044206452            9 
 1266000    1.0621253   -5.6037697    661.51409  0.043543582  0.044195848            4 
 1267000    1.0447024   -5.6312995    661.95977  0.043538527  0.044184983            2 
 1268000    1.0804212    -5.606866    661.52943  0.043475909  0.044174449            4 
 1269000    1.0688471   -5.6061189    662.39595  0.043498552  0.044163742            3 
 1270000      1.04116   -5.5889444    661.10904  0.043379859  0.044153093            3 
 1271000    1.0261747   -5.6178419    662.96966   0.04346772  0.044142725            4 
 1272000    1.0429042   -5.6293371    662.07282  0.043374792  0.044132021            4 
 1273000    1.0501772   -5.6399042    663.88614  0.043459422  0.044121324            5 
 1274000    1.0593503   -5.6276549    665.93611    0.0435594   0.04411072            3 
 1275000    1.0535709   -5.6303291    663.93037  0.043394142  0.044099965            3 
 1276000     1.045162   -5.6263285     665.8019   0.04348236   0.04408931            1 
 1277000    1.0696226   -5.6082222    666.37333    0.0434856  0.044078929            5 
 1278000    1.0507258   -5.6550231    663.16082  0.043242099  0.044068301            4 
 1279000     1.042755   -5.6175058    668.54613  0.043559169  0.044057894            2 
 1280000     1.035052   -5.6567401    666.11119  0.043366614  0.044047774            4 
 1281000    1.0734625   -5.6295505    669.78561  0.043571794  0.044037589            5 
 1282000    1.0488358   -5.6123599    668.14467  0.043431141  0.044027558            3 
 1283000    1.0299614   -5.6215277    667.98924  0.043387194   0.04401742            4 
 1284000    1.0680594   -5.6401824    669.05665   0.04342268  0.044007198            2 
 1285000    1.0607032   -5.6282436    670.16247  0.043460601  0.043997151            4 
 1286000    1.0486916   -5.6484085    669.85707  0.043407016  0.043987086            3 
 1287000     1.060634   -5.6294836    669.44429  0.043346561  0.043977203            2 
 1288000    1.0348954   -5.6202316    671.44562  0.043442393  0.043967438            6 
 1289000     1.055787   -5.6334933    670.76716  0.043364828  0.043957071            5 
 1290000    1.0419774   -5.6473176    670.95458  0.043343319  0.043946816            2 
 1291000    1.0406779   -5.6498064    669.65836  0.043226076  0.043936686            3 
 1292000    1.0500989   -5.6472565    673.86361  0.043463855  0.043926436            7 
 1293000      1.05205    -5.643771    671.16389  0.043256244   0.04391608            3 
 1294000    1.0295672    -5.627948    669.75608  0.043132154  0.043905744            3 
 1295000    1.0368428   -5.6182753    673.20526  0.043320802   0.04389554            3 
 1296000    1.0311378   -5.6042526    675.94015   0.04346323   0.04388521            1 
 1297000    1.0430347   -5.5973052    673.02156  0.043242198  0.043875002            2 
 1298000    1.0602327   -5.6579271    672.76821  0.043192618  0.043864705            2 
 1299000    1.0524653   -5.6291542    675.92425  0.043361833  0.043854509            3 
 1300000    1.0456722   -5.6351961    674.02305  0.043206606  0.043844218            3 
 1301000    1.0471584   -5.6547842    677.20408  0.043377151  0.043833999            5 
 1302000    1.0180716   -5.6264169    677.07107  0.043335322  0.043823817            5 
 1303000    1.0429253   -5.6585197    674.53237  0.043139701  0.043813993            4 
 1304000    1.0565634   -5.6388939    677.82718  0.043317177  0.043803907            4 
 1305000     1.059688   -5.6252038     677.0498  0.043234342   0.04379393            5 
 1306000    1.0742232   -5.6258805    680.12249    0.0433973  0.043784092            2 
 1307000     1.051659   -5.6616699     678.4533   0.04325767  0.043774197            5 
 1308000    1.0514086   -5.6498539    677.91101  0.043190049  0.043764106            4 
 1309000    1.0465704   -5.6748962    678.96139  0.043223923  0.043753959            3 
 1310000     1.050794   -5.6125079    679.06172  0.043197311  0.043744099            2 
 1311000    1.0541543   -5.6189949     681.9626  0.043348754  0.043734261            4 
 1312000    1.0408781   -5.6057515    683.28749  0.043399866  0.043724158            5 
 1313000    1.0434997   -5.6275479     681.9507  0.043281969  0.043714381            4 
 1314000    1.0371612    -5.637278    680.78584  0.043175155  0.043704846            4 
 1315000    1.0352485   -5.6223143    683.42375   0.04330949  0.043695099            4 
 1316000    1.0325363   -5.6550028    683.19878  0.043262334  0.043685501            3 
 1317000    1.0318636   -5.6230565    684.35833  0.043302855  0.043675864            2 
 1318000    1.0138473   -5.6617344    683.47921  0.043214416  0.043665938            3 
 1319000    1.0487763   -5.6428811    682.93623  0.043147348  0.043656206            3 
 1320000    1.0405367   -5.6516994    683.14991  0.043128151  0.043646642            3 
 1321000    1.0437347   -5.6833178    683.23287  0.043100736  0.043636752            3 
 1322000    1.0544057   -5.6275829     683.4045  0.043078952  0.043626717            3 
 1323000    1.0258724   -5.6148827     684.4972  0.043115218   0.04361688            6 
 1324000    1.0451638   -5.6449368     685.5349  0.043147967  0.043607063            6 
 1325000    1.0280756   -5.6440048    684.73364  0.043065009  0.043597077            2 
 1326000    1.0606669   -5.6588939    685.44446  0.043077203  0.043586923            4 
 1327000    1.0428783   -5.6295036    685.88141  0.043072181  0.043576601            5 
 1328000    1.0243643   -5.6417616    685.61665  0.043023133  0.043566442            5 
 1329000    1.0505478   -5.6450051    685.54949   0.04298655  0.043556496            4 
 1330000    1.0533878   -5.6382963     687.3683  0.043068189  0.043546794            1 
 1331000    1.0431571   -5.6728294    684.81246  0.042875812  0.043536842            1 
 1332000    1.0378522   -5.6504505    689.07601  0.043110361  0.043526667            2 
 1333000    1.0241411   -5.6478526    690.40291  0.043160972  0.043516732            5 
 1334000    1.0391439   -5.6456752    690.99829   0.04316581  0.043506831            3 
 1335000    1.0645293   -5.6479262    689.05535  0.043012194   0.04349722            2 
 1336000    1.0306102   -5.6918604    686.55829  0.042824244  0.043487446            3 
 1337000    1.0119292   -5.6425053    689.72388  0.042989521  0.043477681            3 
 1338000    1.0252133   -5.6787074    687.35304  0.042809731  0.043467861            3 
 1339000    1.0369471   -5.6493542    692.53584  0.043100314  0.043458471            3 
 1340000    1.0342296   -5.6557367     693.0382   0.04309939  0.043449175            9 
 1341000     1.047789   -5.6122302    694.37867  0.043150551  0.043439961            2 
 1342000    1.0507528   -5.6578553    694.60851   0.04313267  0.043430624            4 
 1343000     1.055321   -5.6801293    691.18725  0.042888263  0.043421074            4 
 1344000    1.0381732   -5.6491288    692.20543  0.042919483  0.043411585            3 
 1345000    1.0186953    -5.658856    692.60082  0.042912071  0.043401693            2 
 1346000    1.0403356    -5.675499    690.77104  0.042766904  0.043392039            7 
 1347000    1.0427812   -5.6590628    693.50361  0.042904207  0.043381973            5 
 1348000    1.0334545   -5.6102445    693.84136  0.042893259   0.04337242            2 
 1349000    1.0523631   -5.6361322    694.17885  0.042882311  0.043362683            4 
 1350000    1.0030228   -5.6990224    692.86674  0.042769552  0.043352525            3 
 1351000    1.0494861    -5.652443    695.50195  0.042900441  0.043342597            2 
 1352000    1.0080703   -5.6416384    693.96194  0.042773788  0.043332482            2 
 1353000    1.0294746   -5.6499867    692.95676  0.042680264  0.043322511            2 
 1354000    1.0315447   -5.6179196    696.68858   0.04287842  0.043312616            2 
 1355000    1.0287327   -5.6728423    695.01828  0.042744052  0.043302644            5 
 1356000    1.0204701    -5.672714    695.02895  0.042713185  0.043292391            4 
 1357000    1.0366833   -5.6913071    696.38897  0.042765228  0.043282105            5 
 1358000    1.0486739   -5.6026379    697.42055  0.042797039  0.043271896            4 
 1359000    1.0417304   -5.6539006    697.03146  0.042741689  0.043262048            5 
 1360000    1.0161922   -5.6590881    695.44353  0.042612961  0.043251874            4 
 1361000    1.0642801   -5.6575924    697.94307  0.042734697  0.043241957            7 
 1362000    1.0305101   -5.6801125    696.20875  0.042597207  0.043231668            3 
 1363000    1.0553204   -5.6584217    698.30175  0.042693919  0.043221453            6 
 1364000     1.018908   -5.6591444    698.60324  0.042681038  0.043211351            3 
 1365000    1.0408471   -5.6785731     697.5982  0.042588413  0.043201439            4 
 1366000    1.0445353    -5.647275    696.80413  0.042508793   0.04319135            3 
 1367000    1.0455313   -5.6135727    701.25831  0.042749226  0.043181454            6 
 1368000    1.0427813   -5.6785981    700.66785  0.042682008  0.043171317            3 
 1369000    1.0419844   -5.6775191    699.28271  0.042566515  0.043160979            1 
 1370000    1.0348538     -5.68014    699.38115  0.042541432   0.04315075            3 
 1371000    1.0140119   -5.6339139    700.60658  0.042584888  0.043140676            3 
 1372000    1.0600574   -5.6974352     698.8668  0.042448178  0.043130173            4 
 1373000    1.0275944   -5.6489879    701.29347  0.042564546  0.043119902            4 
 1374000    1.0320385   -5.6808288    700.06983  0.042459354   0.04310977            4 
 1375000    1.0231372   -5.6863545    699.77612  0.042410674  0.043099492            4 
 1376000    1.0309952   -5.6754385    700.51336  0.042424501  0.043088991            7 
 1377000    1.0157222   -5.6571508    702.45765  0.042511356  0.043078584            8 
 1378000    1.0428576    -5.673899    702.87948  0.042506016  0.043068088            2 
 1379000    1.0385402   -5.6523187    703.64289  0.042521325  0.043057795            2 
 1380000    1.0511353   -5.6759502    702.56646  0.042425511  0.043047419           10 
 1381000    1.0130882   -5.6767208    703.94279  0.042477842  0.043037092            3 
 1382000    1.0242144   -5.6696621    705.19159  0.042522406  0.043026815            6 
 1383000    1.0621523   -5.6523405    704.32505  0.042439446  0.043016625            2 
 1384000    1.0207047   -5.6437818    704.57101  0.042423592  0.043006425            3 
 1385000    1.0071432   -5.6531382    706.32562  0.042498533  0.042996217            3 
 1386000     1.029291   -5.6820024     706.3426  0.042468891    0.0429861            4 
 1387000    1.0303458   -5.6944567     705.0206  0.042358844   0.04297572            4 
 1388000    1.0227507   -5.6990056    703.66698  0.042247057  0.042965337            4 
 1389000    1.0150085   -5.6459199    707.51673  0.042447608  0.042955117            2 
 1390000    1.0250137   -5.6719463    709.44686  0.042532785   0.04294514            3 
 1391000    1.0701228   -5.6579168    706.97282  0.042353991  0.042934815            3 
 1392000    1.0314634   -5.6612737    708.48579   0.04241414  0.042924295            2 
 1393000     1.046899   -5.6495352    708.46339  0.042382352  0.042914019            3 
 1394000    1.0270283   -5.6959173    707.30727  0.042282835  0.042903764            3 
 1395000    1.0199902   -5.6849224     709.9626  0.042411147   0.04289338            5 
 1396000    1.0341443   -5.6398341    711.28088   0.04245946  0.042883121            5 
 1397000    1.0371036   -5.6768174    708.69889  0.042275047  0.042873028            2 
 1398000    1.0392312   -5.6745609      710.499   0.04235211  0.042862702            4 
 1399000    1.0336344   -5.6968742    707.76974  0.042159265  0.042852483           11 
 1400000    1.0373773   -5.6716234     709.3162  0.042221202  0.042842149            4 
 1401000    1.0327761   -5.6840865    710.20177  0.042243741  0.042832034            3 
 1402000    1.0256527    -5.680007    710.82599  0.042250712  0.042821916            5 
 1403000    1.0256749   -5.6611592    712.43588   0.04231622  0.042811686            2 
 1404000    1.0488029   -5.6755291    710.03079  0.042143328  0.042801308            4 
 1405000    1.0368496   -5.7161604    712.94247   0.04228603  0.042790848            5 
 1406000    1.0246813   -5.6516696    710.37467  0.042103762  0.042780305            3 
 1407000    1.0307575   -5.6837095     710.8495   0.04210196  0.042769786            4 
 1408000    1.0473783   -5.6865024    713.23118   0.04221302  0.042759414            5 
 1409000    1.0193878   -5.6557841    713.34528  0.042189808  0.042748892            5 
 1410000     1.023425   -5.6965516    708.80384   0.04189148   0.04273837            6 
 1411000    1.0254491    -5.659434     713.9259  0.042164298  0.042727622            7 
 1412000    1.0164225   -5.6907536    713.09641  0.042085482  0.042717129            3 
 1413000    1.0105274   -5.7068439    713.38575  0.042072762  0.042706644            3 
 1414000    1.0484443   -5.7049799    714.41503  0.042103667  0.042695974            4 
 1415000    1.0287222    -5.688999    714.11368  0.042056165  0.042685476            4 
 1416000    1.0304269   -5.6821892    716.42362  0.042162407  0.042675003            2 
 1417000    1.0347436   -5.6478194    717.37027  0.042188324  0.042664962            2 
 1418000    1.0180194   -5.6540662    718.43226  0.042220984   0.04265485            1 
 1419000    1.0595547   -5.6537272    715.41576   0.04201408   0.04264483            2 
 1420000    1.0113469   -5.6802877    717.09215  0.042082873   0.04263433            3 
 1421000    1.0473547   -5.6889929    716.84936  0.042039019   0.04262401            3 
 1422000    1.0121882   -5.7123073     716.6277  0.041996466  0.042613504            3 
 1423000    1.0243974   -5.6867264    716.85518  0.041980275  0.042602909            2 
 1424000    1.0443448   -5.6707748     715.6268  0.041878909  0.042592467            9 
 1425000    1.0208035    -5.658181    718.80637   0.04203546  0.042581837            6 
 1426000    1.0427248   -5.6802623    717.45502  0.041927011  0.042571345            6 
 1427000    1.0078617   -5.6795607    719.10951  0.041994249  0.042560708            5 
 1428000    1.0361182   -5.6876821    716.96808  0.041839874  0.042550026            3 
 1429000    1.0295929   -5.7004641    717.94014  0.041867282  0.042539267            3 
 1430000   0.98694998   -5.7062077    717.77044  0.041828114   0.04252857           11 
 1431000    1.0205734   -5.6671658    721.80144  0.042033627   0.04251766            2 
 1432000    1.0252449   -5.6763982    718.64419  0.041820542  0.042506947            3 
 1433000     1.023917   -5.7000939    719.29802   0.04182938  0.042496118            4 
 1434000    1.0236404   -5.6720427    719.13361  0.041790656  0.042484896            2 
 1435000    1.0213873   -5.7135518    719.29817   0.04177109  0.042473719            8 
 1436000    1.0360103   -5.7060751    717.86652  0.041658921  0.042462694            3 
 1437000    1.0526643   -5.6777822    721.09548  0.041817182  0.042451792            1 
 1438000    1.0159764   -5.7002044     721.8588  0.041832337  0.042440853            2 
 1439000    1.0056231   -5.6794331    720.70933    0.0417367   0.04242993            4 
 1440000    1.0268621   -5.6827689    721.15389  0.041733443  0.042419035            3 
 1441000    1.0137544   -5.7029072    720.56178  0.041670239  0.042408198            9 
 1442000    1.0251208   -5.6758178    721.30454  0.041684266  0.042397064            4 
 1443000    1.0394387   -5.7021227    721.28239    0.0416541  0.042386103            2 
 1444000   0.99178056   -5.7218107    719.36071  0.041514353  0.042375179            5 
 1445000    1.0447923   -5.6780584    722.32477  0.041656561  0.042363993            4 
 1446000    1.0383729   -5.6959894    722.76344  0.041653034  0.042352953            3 
 1447000   0.99719011   -5.7124127    722.41955  0.041604443  0.042342069            4 
 1448000    1.0232542   -5.6928483    722.22176  0.041564328  0.042331028            3 
 1449000    1.0206594   -5.6915272    723.16978  0.041590164  0.042320166            4 
 1450000   0.99825701   -5.7049321    725.34074   0.04168625  0.042309285            3 
 1451000    1.0147734   -5.6797875    724.61723  0.041615967  0.042298152            4 
 1452000    1.0301538   -5.6570521    724.98237  0.041608263  0.042287039            4 
 1453000    1.0287094    -5.650822    725.74547  0.041623392  0.042276308            5 
 1454000    1.0159133   -5.6962941    725.48785  0.041580001  0.042265351            3 
 1455000    1.0111799    -5.668619    726.00995  0.041581326  0.042254382            3 
 1456000    1.0458318   -5.6991416    722.39884  0.041346087  0.042242995            4 
 1457000     1.006063   -5.6860237    726.70232  0.041563848  0.042231857            7 
 1458000    1.0127881   -5.6864708    725.73968   0.04148032  0.042220535            4 
 1459000    1.0305263   -5.6884286    726.21052  0.041478782  0.042209387            4 
 1460000    1.0192529   -5.6834202     724.9057  0.041375896  0.042198189            2 
 1461000    1.0204534   -5.6994875    726.95804  0.041464638  0.042186804            5 
 1462000    1.0128439   -5.7168037    725.22318   0.04133739  0.042175345            4 
 1463000    1.0121437   -5.7087356     726.6727  0.041391701   0.04216394            4 
 1464000    1.0355321   -5.6849667    729.03519  0.041497905  0.042152686           12 
 1465000    1.0135756   -5.6984145    727.31721  0.041371855  0.042141447            4 
 1466000    1.0145006   -5.7156479    725.80705   0.04125779  0.042129923            4 
 1467000    1.0299502   -5.6882769    731.96541  0.041579494  0.042118499            7 
 1468000    1.0156199   -5.7223614    726.82152  0.041259169  0.042107249            3 
 1469000    1.0068208   -5.7138176    728.82865  0.041344943  0.042095815            7 
 1470000    1.0351576    -5.664899    729.61292  0.041361277  0.042084453            4 
 1471000    1.0338282   -5.7273081    727.07896  0.041189608  0.042073059            3 
 1472000     1.020998   -5.6893726    732.64926  0.041476973  0.042061754            2 
 1473000    1.0088051    -5.723183      728.282  0.041201742  0.042050253            2 
 1474000    1.0146879   -5.6888533    729.73197  0.041255765  0.042038708            3 
 1475000    1.0106861   -5.6803658    729.33304  0.041205257  0.042027388            7 
 1476000    1.0324395   -5.6637868    730.97069  0.041269799   0.04201629            2 
 1477000   0.99096988   -5.6582891     733.1342  0.041363924  0.042005125            8 
 1478000    1.0213703   -5.6746541    732.17736  0.041281989  0.041993778            3 
 1479000    1.0281172   -5.7160006    732.08838  0.041249063  0.041982455            5 
 1480000    1.0193885   -5.7017189     731.3633  0.041180366  0.041971289            4 
 1481000    1.0000667   -5.7180409    735.22301   0.04136974  0.041960115            4 
 1482000    1.0277354   -5.7033394    732.61824  0.041195358  0.041949089           15 
 1483000    1.0307768   -5.7255771    734.95058  0.041298639  0.041938007            7 
 1484000    1.0456713   -5.6699567    735.02906  0.041275217  0.041926941            8 
 1485000    1.0019089   -5.6669702    737.42641  0.041381954  0.041916129            3 
 1486000   0.99867491   -5.7095071    733.87675  0.041155044  0.041905154            5 
 1487000    1.0156343   -5.6795554    735.65267  0.041226893  0.041894031            4 
 1488000    1.0252156   -5.6957447    735.06145  0.041166076   0.04188295            2 
 1489000    1.0274508   -5.7227696    738.51155  0.041331517  0.041872108            3 
 1490000    1.0136102   -5.7599208    734.51609  0.041080318  0.041860797            5 
 1491000    1.0035633   -5.7239569    736.17839  0.041145673  0.041849534            3 
 1492000   0.99298837   -5.7259393    735.55696  0.041083387  0.041838387            3 
 1493000     1.000786   -5.6777855    741.55894  0.041390876  0.041827452            4 
 1494000     1.006161   -5.6696518    742.01955  0.041388864  0.041816736            3 
 1495000    1.0113817     -5.68513    741.89005  0.041353961   0.04180605            7 
 1496000    1.0215627   -5.7117897    740.06521  0.041224666  0.041795446            7 
 1497000    1.0363207   -5.7022416    741.94579  0.041301814  0.041784974            3 
 1498000   0.99914227   -5.7330979    740.71472  0.041205759  0.041774261            4 
 1499000    1.0023641   -5.6750559    742.64505  0.041285582  0.041763738            3 
 1500000     1.012212   -5.6599338    745.73067  0.041429481  0.041753295            3 
 1501000   0.99332451   -5.7016115    742.74446   0.04123609  0.041742728            2 
 1502000   0.99854743   -5.7218408    743.13224  0.041230151  0.041731978            2 
 1503000    1.0092297   -5.7041344    742.30168  0.041156669  0.041721315            5 
 1504000    1.0018037   -5.7112187    743.13784  0.041175634  0.041710717            2 
 1505000   0.98657566   -5.6770605    743.48276  0.041167373   0.04170022            3 
 1506000   0.99921284     -5.71387    743.59461  0.041146227  0.041689497            2 
 1507000    1.0070664   -5.7252161    742.00792  0.041031183  0.041678772            3 
 1508000    1.0205283   -5.6946306    744.34502  0.041133124  0.041668069            4 
 1509000    1.0377638   -5.6952031    743.81287  0.041076478   0.04165749            4 
 1510000    1.0162491   -5.7120707    745.43916  0.041139026  0.041646634            4 
 1511000    1.0057532   -5.6720147    745.67354  0.041124726  0.041635925            6 
 1512000   0.99538363   -5.7100358    742.53979  0.040924812  0.041625037            4 
 1513000    1.0257832   -5.6861274    743.54097  0.040952907  0.041613974            3 
 1514000    1.0066805   -5.7181561    742.06531  0.040844634  0.041603056            4 
 1515000    1.0228963   -5.7281751     745.4922  0.041006171  0.041592096            7 
 1516000    1.0086889   -5.7191182    744.06213  0.040900513  0.041581287            4 
 1517000   0.99703114   -5.6801757    748.85238  0.041136694  0.041570546            7 
 1518000    1.0089777   -5.6601527    745.75429   0.04093952  0.041559846            7 
 1519000    1.0047112    -5.719174    746.97468  0.040979519  0.041549281            4 
 1520000    1.0264028    -5.732827    749.23853  0.041076674  0.041538939            2 
 1521000    1.0213112   -5.7215009    749.41665  0.041059426  0.041528414            3 
 1522000   0.99461712   -5.7296485    749.01547  0.041010483  0.041517886            7 
 1523000    1.0095229   -5.7551551    745.57287  0.040795189  0.041507083            5 
 1524000    1.0044093   -5.6882112    749.14223  0.040963595  0.041496507            5 
 1525000   0.99756154   -5.7374396    748.93839  0.040925595  0.041485898            5 
 1526000    1.0116917   -5.7373879    746.96207  0.040790851  0.041475182            3 
 1527000    1.0194867   -5.7297284    751.89945  0.041033587  0.041464706            2 
 1528000   0.99907124   -5.7139355     748.2321  0.040806724  0.041454235            3 
 1529000   0.99562988   -5.7380906    748.70083  0.040805583  0.041443658            3 
 1530000    1.0231919   -5.7051085     750.7381  0.040889875  0.041433199            3 
 1531000    1.0154926   -5.7140836    752.09255   0.04093689  0.041422819            3 
 1532000   0.98727413    -5.746239    751.67514  0.040887464  0.041412387            5 
 1533000    1.0178899   -5.6913587    753.63322  0.040967233  0.041402096            2 
 1534000    1.0103941   -5.7192229    753.07713  0.040910318  0.041391946            2 
 1535000    1.0026699   -5.7128091    751.51183  0.040798688  0.041381511            4 
 1536000    1.0169755   -5.6856041    753.81675  0.040897176  0.041371073            3 
 1537000    1.0016448   -5.6830348    753.21828   0.04083812  0.041360545            4 
 1538000    1.0214064   -5.7236599    753.17897  0.040809437  0.041349856            5 
 1539000   0.99622833   -5.7281917    754.71388  0.040866032   0.04133908            2 
 1540000    1.0015763   -5.7153319    753.79863  0.040789969  0.041328236            5 
 1541000    0.9963785   -5.7296674    752.90516  0.040715183  0.041317578            4 
 1542000    1.0063202   -5.7296762    754.06521  0.040751471  0.041307052            3 
 1543000   0.98620737   -5.6807418    754.09217  0.040726516   0.04129651            5 
 1544000    1.0295966   -5.7153909    756.57298  0.040834034   0.04128594            3 
 1545000    1.0035445   -5.7435185    754.95108  0.040720123  0.041275352            3 
 1546000    1.0077996   -5.7406315    755.87092  0.040743366  0.041264838            3 
 1547000   0.99070106   -5.7254474    755.55253  0.040699878  0.041254278            3 
 1548000    0.9891671   -5.7227574     755.2437   0.04065696  0.041243866            6 
 1549000    1.0239984   -5.7046615    758.21307   0.04079046   0.04123339            2 
 1550000   0.99810405   -5.7044942    758.16136  0.040761363  0.041223114            3 
 1551000    1.0163733   -5.7384603     759.1573  0.040788594  0.041212487            2 
 1552000     1.002139     -5.73653    755.52771  0.040567424   0.04120194            6 
 1553000    1.0037321   -5.7305304     756.7015  0.040604287  0.041191389            3 
 1554000    1.0107107   -5.7255311    757.51993  0.040622047  0.041180745            4 
 1555000    1.0019825   -5.7372688     758.7522  0.040661962  0.041170414            4 
 1556000   0.99681191   -5.7547641    758.23384  0.040608068  0.041159961            3 
 1557000    1.0177479   -5.7212242    760.19576  0.040686992  0.041149424            2 
 1558000    1.0144801   -5.7418501    761.46058  0.040728529   0.04113919            3 
 1559000    1.0038466     -5.67975    761.82475  0.040721871  0.041128936            3 
 1560000    1.0187062    -5.726354    761.80807  0.040694875  0.041118799            3 
 1561000    1.0115068   -5.7228737    761.45219  0.040649807  0.041108291            5 
 1562000    0.9941743   -5.7581712    760.95113  0.040597051  0.041097879            1 
 1563000    1.0047579   -5.7039145     760.0809   0.04052468  0.041087289            4 
 1564000   0.99488491    -5.722811    760.44699  0.040518275  0.041076763            3 
 1565000   0.98930632   -5.7037792    763.60277  0.040660424  0.041066349            4 
 1566000   0.98882223   -5.7360235    760.97448  0.040494598   0.04105606            3 
 1567000    1.0321859   -5.7359316    762.75715  0.040563558  0.041045378            3 
 1568000   0.97953853   -5.7614254    760.43502  0.040414276  0.041034929            5 
 1569000   0.99020082   -5.7668832    761.48227   0.04044414  0.041024276            4 
 1570000    1.0069952   -5.7267508    763.98922  0.040551445  0.041013749            3 
 1571000   0.99532363   -5.7257931    763.79514  0.040515337  0.041003467            3 
 1572000   0.98285309   -5.7186313     762.2759  0.040409028  0.040993249            2 
 1573000    1.0035789   -5.7283168    764.40868  0.040496327  0.040982774            9 
 1574000    1.0016724   -5.7312691    763.45073  0.040419882  0.040972289            3 
 1575000    1.0269692   -5.7311073    763.81591   0.04041354  0.040961938            8 
 1576000   0.99773641   -5.7258982    767.02611  0.040557641   0.04095155            6 
 1577000   0.98884753   -5.7703786    763.38298  0.040339409  0.040940974            7 
 1578000    1.0222437   -5.7531123    766.66079  0.040486945  0.040930605            5 
 1579000    1.0451938   -5.7304658    766.82839  0.040470149  0.040920293            3 
 1580000   0.98845054   -5.7515837    766.88729  0.040447642   0.04091002            6 
 1581000   0.96991353   -5.7015077     767.4367  0.040451017  0.040899774            9 
 1582000   0.99885755   -5.7536273    764.78254  0.040285637  0.040889435            3 
 1583000    1.0135221   -5.7366419    769.90885  0.040530051  0.040879025            4 
 1584000    1.0303758    -5.735949    767.56686  0.040381253  0.040868987            3 
 1585000   0.98226092   -5.7273159    768.68348  0.040414484  0.040858728            2 
 1586000   0.99756657   -5.7632596    768.25658  0.040366571  0.040848518            4 
 1587000    1.0197589    -5.746729    767.55677  0.040304388  0.040838271            1 
 1588000   0.99618634   -5.7339098    772.45701  0.040536157   0.04082802            6 
 1589000    1.0121014    -5.735592    771.91968  0.040482467   0.04081806            2 
 1590000    1.0007503    -5.701256    773.65042  0.040547716  0.040807975            2 
 1591000   0.99605251   -5.7204282    771.18688  0.040393195  0.040797938            4 
 1592000    1.0094602    -5.714022     771.9194  0.040406166  0.040787836            4 
 1593000    1.0015319   -5.7180362    771.43778  0.040355607  0.040777693            5 
 1594000   0.97605133     -5.76857    769.59723  0.040234067  0.040767548            5 
 1595000    0.9635418   -5.7087159    775.08039  0.040495318  0.040757306            5 
 1596000    0.9966114   -5.7293159    771.70472  0.040293688  0.040747216            4 
 1597000    1.0062241   -5.7252145    769.58586  0.040157893  0.040737123            5 
 1598000   0.98519539   -5.7721438    772.72072  0.040296241  0.040727025            4 
 1599000    1.0018264   -5.7870451     771.6261  0.040213993   0.04071671            3 
 1600000    0.9914765   -5.7416401    773.76357  0.040300186   0.04070637            2 
 1601000   0.99936514   -5.7238874    774.90568  0.040334462  0.040696189            4 
 1602000   0.97752219   -5.7421793    773.40246  0.040231089  0.040685997            4 
 1603000    1.0130718   -5.7584753    772.63966  0.040166337  0.040675722            5 
 1604000    1.0025141   -5.7337836    778.42278  0.040441749  0.040665536            2 
 1605000    0.9825849   -5.7511724    772.44298  0.040106074   0.04065534            2 
 1606000   0.99897632   -5.7243796    775.96405  0.040263805  0.040645006            3 
 1607000    1.0011492   -5.7625623    773.04018  0.040087128  0.040634713            3 
 1608000    1.0126766   -5.7641029    772.07136   0.04001199  0.040624195           10 
 1609000    1.0059727   -5.7465829    775.73235  0.040176732  0.040613792            8 
 1610000   0.98553707   -5.7660094     772.1756  0.039967681  0.040603343            6 
 1611000    0.9970767   -5.7564566    776.71057  0.040177456  0.040593051            6 
 1612000   0.97709366   -5.7448597    774.51684  0.040039125  0.040582568            3 
 1613000   0.96525582     -5.73237    779.22776  0.040257685  0.040572136            6 
 1614000    1.0193386   -5.7480765     777.9908  0.040168877  0.040561825            7 
 1615000   0.99097934   -5.6984631    778.28352  0.040159108  0.040551676            4 
 1616000   0.98812875   -5.7405736     778.8267  0.040162268  0.040541357            2 
 1617000   0.98758513   -5.7462222    775.56352   0.03996926  0.040530819            5 
 1618000   0.98594134    -5.753442    779.42593  0.040143487  0.040520414            4 
 1619000    0.9988192   -5.7307845    779.77657  0.040136739  0.040510048            2 
 1620000   0.99184011   -5.7521994    778.15419  0.040028508  0.040499714            2 
 1621000    1.0021828   -5.7700485    775.39615  0.039862027  0.040488974            3 
 1622000     1.000218    -5.743033    777.90126  0.039966156  0.040478236            2 
 1623000    1.0114676   -5.7459173    777.73892  0.039933196  0.040467736            4 
 1624000   0.99629854   -5.7652432    774.56366  0.039745672  0.040457095            6 
 1625000   0.98130703   -5.7806208    775.38465  0.039763315  0.040446574            4 
 1626000   0.99833594   -5.7125903    782.27331  0.040091908  0.040436143            3 
 1627000   0.99074815   -5.7133204    784.03781  0.040157643  0.040425709            2 
 1628000   0.99299588   -5.7793057    778.17347  0.039832794  0.040415242            3 
 1629000   0.99951613   -5.7883683    780.40156  0.039922323   0.04040466            2 
 1630000   0.98994239    -5.758863    779.41085  0.039847181  0.040394084            8 
 1631000    0.9970531   -5.7379437    780.90414  0.039899047   0.04038357            3 
 1632000    0.9758717   -5.7504227    781.38227  0.039899013  0.040372911            5 
 1633000   0.97247908   -5.7299099    780.36768  0.039822805  0.040362351            3 
 1634000   0.97928198   -5.7354372    784.07197   0.03998735  0.040352073            1 
 1635000   0.97982495   -5.7807777    780.15777  0.039763393  0.040341391            4 
 1636000    1.0111793   -5.7639866    782.61929  0.039864471  0.040330837            2 
 1637000   0.98144734   -5.7525391    783.18675  0.039869006   0.04032042            4 
 1638000    1.0085248   -5.7323141    786.20216  0.039998075  0.040310105            4 
 1639000    1.0062482   -5.7316316    784.15809  0.039869742  0.040299967            3 
 1640000    1.0042723   -5.7737771    783.52641  0.039813334  0.040289662            4 
 1641000   0.98412359   -5.7406416    784.46365  0.039836667   0.04027937            3 
 1642000    1.0292811   -5.7209857    787.19012  0.039950777  0.040269257            6 
 1643000    1.0028934   -5.7352245    786.83671  0.039908537  0.040259177            4 
 1644000   0.98989615   -5.7237138    785.49818  0.039816412  0.040248997            3 
 1645000   0.98937511   -5.7407042    784.63545  0.039748503  0.040238688            3 
 1646000   0.98548434   -5.7825506     783.1617  0.039649742  0.040228377            6 
 1647000   0.99222922   -5.7651844    784.59113  0.039697993  0.040217913            5 
 1648000   0.97204291   -5.7317781    784.62909  0.039675824  0.040207597            2 
 1649000   0.98232621   -5.7521414    787.69214  0.039806557  0.040197237            7 
 1650000   0.98957232   -5.7744713    786.90811  0.039742834  0.040186678            3 
 1651000   0.99057056   -5.7654169    787.07211   0.03972704  0.040176101            6 
 1652000   0.96936763   -5.7712525    785.70252  0.039633905  0.040165554            5 
 1653000    0.9834273   -5.7844448    786.48365  0.039649307  0.040154989            7 
 1654000   0.99962077   -5.7532165    789.25549  0.039764988  0.040144489            4 
 1655000   0.98221729   -5.7200737    787.35725   0.03964538   0.04013401            2 
 1656000   0.99137043   -5.7536605    789.05809   0.03970703  0.040123518            1 
 1657000   0.96525986    -5.792613    787.76853  0.039618212  0.040112921            3 
 1658000   0.98219996   -5.7554075    787.48297  0.039579964  0.040102301            9 
 1659000    1.0178032   -5.7491682    789.58471  0.039661679  0.040091706            4 
 1660000   0.99322223   -5.7767247    788.85392    0.0396011  0.040081013            3 
 1661000   0.99804273   -5.7392356    791.30174  0.039700067  0.040070518            5 
 1662000   0.99833505   -5.7541755    791.48357  0.039685297  0.040060179            4 
 1663000    0.9766437   -5.7785059    789.44843  0.039559452  0.040049771            5 
 1664000   0.98026216   -5.7129332    789.48903  0.039537712  0.040039399            4 
 1665000   0.99859373   -5.7396758    791.83627  0.039631445  0.040029142            4 
 1666000   0.99738695   -5.7267679    795.22937   0.03977738  0.040018935            6 
 1667000   0.96013819   -5.7438442    792.80346  0.039632247  0.040008688            6 
 1668000   0.99420432   -5.7905272    791.48438  0.039542585  0.039998305           10 
 1669000    1.0068968   -5.7666257    793.04681  0.039596905  0.039988134            4 
 1670000   0.99029551   -5.7592172    793.28327  0.039584994  0.039978075            3 
 1671000   0.99941359    -5.746578     795.4219  0.039667958  0.039967946            3 
 1672000   0.97834428   -5.7428472    795.71587  0.039658885  0.039958114            5 
 1673000   0.96676271   -5.7433828    796.01906  0.039650282  0.039948435            3 
 1674000    1.0064393   -5.7585096    795.70551  0.039610987   0.03993849            5 
 1675000   0.97399078   -5.7716612    794.38801  0.039521792  0.039928489            3 
 1676000   0.97377459   -5.7621892    796.47102  0.039601781  0.039918545            2 
 1677000   0.98900821   -5.7359267    799.00242  0.039703956  0.039908914            3 
 1678000   0.98287342   -5.7573357    799.30539  0.039695341  0.039899081            3 
 1679000   0.97803342   -5.7793407      799.477  0.039680217  0.039889214            4 
 1680000   0.96559088   -5.7943673    797.09256  0.039538321  0.039879221            4 
 1681000   0.99074245   -5.7725794    797.12738  0.039516527  0.039869299            3 
 1682000   0.99488954   -5.7750354    796.04708  0.039439511  0.039859239            3 
 1683000   0.99659102   -5.7629782    799.33805  0.039579028  0.039849227            3 
 1684000   0.98816581   -5.7849954    796.68771  0.039424372  0.039839204            5 
 1685000   0.97602033   -5.7941054    799.15672  0.039523082  0.039829053            3 
 1686000   0.98059324   -5.7593775    800.16069  0.039549263  0.039819084            3 
 1687000   0.97539109   -5.7424706    800.54862  0.039544982  0.039809252            5 
 1688000   0.97546179   -5.7881726    798.85422  0.039437906  0.039799458            5 
 1689000   0.97977757   -5.7381391    801.12191  0.039526441   0.03978948            5 
 1690000   0.98265956   -5.7771113    800.93351  0.039493763  0.039779477            4 
 1691000   0.98116638   -5.7701571    800.80334  0.039463993  0.039769522            2 
 1692000   0.99617494   -5.7978003    799.04127  0.039353884  0.039759467            7 
 1693000   0.96182965   -5.8043713    799.15001  0.039335992  0.039749319            3 
 1694000   0.97527212   -5.7791298    799.12764  0.039311671   0.03973933            8 
 1695000   0.99339982   -5.7610374    802.86705  0.039472323  0.039729188            3 
 1696000   0.97759622   -5.7840871    801.05334  0.039359932  0.039719274            3 
 1697000   0.97461221   -5.7830138    801.43521   0.03935549  0.039709162            4 
 1698000   0.99201276   -5.7989703    801.76563  0.039348529  0.039699032            3 
 1699000    1.0051102   -5.7744622    802.69378  0.039370894  0.039688877            5 
 1700000   0.97033846   -5.7408821    803.25642  0.039375315  0.039678877           10 
 1701000   0.95767559   -5.7610213    802.51594   0.03931589  0.039668929            2 
 1702000   0.97450059   -5.7805402    802.57627  0.039295744  0.039658792            7 
 1703000   0.97273007   -5.7962548    801.78462  0.039233931  0.039648644            4 
 1704000   0.98541069   -5.8065151     803.0458  0.039272584  0.039638511            3 
 1705000    0.9687151   -5.7634941    804.77621  0.039334126  0.039628446           10 
 1706000   0.94806982   -5.8023616    800.33995   0.03909437  0.039618266            2 
 1707000   0.98400344   -5.8109094     803.4103  0.039221358   0.03960801           10 
 1708000   0.98391721   -5.7835616     805.6765  0.039308963  0.039598004            6 
 1709000   0.98230453   -5.7786774    804.72509   0.03923957  0.039587843            3 
 1710000   0.97526025   -5.7668432    802.84067  0.039124789  0.039577694            7 
 1711000   0.97567299   -5.7800913    804.00797  0.039158775    0.0395675            6 
 1712000   0.96769159    -5.752863    806.32371  0.039248623  0.039557354            3 
 1713000   0.98849877   -5.7645013    806.42542  0.039230659  0.039547208            5 
 1714000    0.9792456   -5.7576267    807.16417  0.039243688  0.039537117            2 
 1715000   0.96237266   -5.7790216    805.76727  0.039152928  0.039526961            3 
 1716000    0.9903514   -5.7961145    806.21831  0.039152016   0.03951664            3 
 1717000   0.99643077   -5.7390113    808.26186  0.039228396    0.0395065            5 
 1718000   0.97557764   -5.8104599    806.19216  0.039105169  0.039496152            6 
 1719000   0.99345797   -5.7580861    805.72827  0.039059932  0.039485818            3 
 1720000   0.97707701   -5.7753246    805.88618  0.039044873  0.039475665            3 
 1721000   0.97542199   -5.8027034    805.82984  0.039019458  0.039465575            4 
 1722000    0.9736015   -5.7805405    807.55171  0.039080125  0.039455289            2 
 1723000   0.97334298   -5.8116331    808.17638  0.039087656  0.039445192            5 
 1724000   0.95468141   -5.7765406    808.94163  0.039101974  0.039435038            6 
 1725000   0.97086849   -5.7713322    809.03067  0.039083607   0.03942503            2 
 1726000   0.96988232    -5.766494    808.45352  0.039033098  0.039414866            6 
 1727000    0.9628217   -5.8124639    808.51301  0.039013367  0.039404601            4 
 1728000   0.98391917   -5.7984264    809.50793   0.03903877  0.039394257            2 
 1729000   0.97253866    -5.747779    810.31661  0.039055167  0.039384244            3 
 1730000   0.96271122   -5.8058734    810.03182  0.039018874  0.039374103            7 
 1731000   0.95891992   -5.8091421    809.79239  0.038984806  0.039363897            5 
 1732000   0.97643883   -5.7674856    812.76331   0.03910524  0.039353776            6 
 1733000   0.98562238   -5.7962228     809.7196  0.038936315  0.039343724            5 
 1734000   0.97482181   -5.8148544    811.62966  0.039005655  0.039333439            3 
 1735000   0.97751244   -5.7564443    811.04383  0.038955035  0.039323274            2 
 1736000   0.99190862   -5.7837544    811.21888  0.038940998  0.039313003            8 
 1737000   0.98440734   -5.8150806     807.8633  0.038757595  0.039302734            4 
 1738000    0.9649584   -5.8058821    810.00222  0.038837851  0.039292434            3 
 1739000   0.99044592   -5.7694382    809.96568  0.038813766  0.039282213            3 
 1740000   0.98696982   -5.8042107    810.12126  0.038798911  0.039272085            5 
 1741000   0.98045128   -5.7579504    814.75415   0.03899838   0.03926167            7 
 1742000   0.96809395   -5.7984642     812.3129  0.038859209  0.039251345            6 
 1743000   0.98142281   -5.7893583    810.15928  0.038733949  0.039241029            3 
 1744000   0.96851173   -5.7521649     814.6954  0.038928488  0.039230853            4 
 1745000   0.97880173   -5.8134741     813.6984  0.038858568  0.039220572            4 
 1746000   0.96108576   -5.8036618    810.63004  0.038689864  0.039210241            3 
 1747000   0.95559156    -5.765964    816.22895   0.03893479  0.039199903            4 
 1748000   0.96089452   -5.7661242    814.67937  0.038838643  0.039189684            3 
 1749000   0.97867585   -5.7996284    816.35416  0.038896234  0.039179378            3 
 1750000   0.97903476   -5.8037716    812.08881  0.038670896  0.039169048            4 
 1751000   0.95707997   -5.8280164    813.66665  0.038723903   0.03915846            4 
 1752000   0.95412982   -5.8024989    812.51055  0.038646811  0.039148073            2 
 1753000   0.98216382   -5.7775276     813.6818  0.038680443  0.039137458            3 
 1754000   0.95847911   -5.8021395    812.77817  0.038615458  0.039126962            5 
 1755000   0.99013394   -5.8321006    812.96267  0.038602216  0.039116449            3 
 1756000   0.96911663   -5.8218868    815.00197  0.038677011  0.039106175            6 
 1757000   0.96132554   -5.7546687    817.48838  0.038772926   0.03909588           11 
 1758000   0.98231996   -5.8258364    813.25259  0.038550085  0.039085554            5 
 1759000    0.9598444   -5.7678672    817.03456  0.038707341  0.039075318           11 
 1760000   0.96347477   -5.7943207    816.63472  0.038666417  0.039064955            8 
 1761000   0.96748441   -5.7878986    818.11764  0.038714634  0.039054613            6 
 1762000    0.9777704   -5.7812456    819.45121  0.038755732  0.039044588            2 
 1763000     1.006313   -5.8224259    813.96728  0.038474536   0.03903456            4 
 1764000   0.95114668   -5.7904079     819.3148  0.038705348  0.039024239            3 
 1765000   0.98021043   -5.8130383     819.5832  0.038696091  0.039014111            4 
 1766000   0.98237607   -5.8285182    818.27085  0.038612252  0.039003945            6 
 1767000   0.95749427   -5.7675253    820.90052  0.038714418  0.038993749            5 
 1768000   0.97134002   -5.8161246    818.60014  0.038584094  0.038983553            3 
 1769000   0.95418371   -5.8106747    816.92806  0.038483515  0.038973273            3 
 1770000   0.97147009   -5.7834153     821.9797  0.038699609  0.038962973            9 
 1771000   0.95533111   -5.8053058    820.42253  0.038604486   0.03895284            5 
 1772000   0.96016324   -5.7873274    820.28899   0.03857642  0.038942764            4 
 1773000   0.96601164   -5.7780394    820.55671  0.038567245  0.038932765            5 
 1774000   0.97248017   -5.8249366    822.64086  0.038643408  0.038922747            4 
 1775000   0.97163299   -5.8060384    822.98061  0.038637587  0.038912748            5 
 1776000   0.95087055   -5.8214941    822.73773  0.038604436  0.038902796            6 
 1777000   0.99674395   -5.8369539    820.72468  0.038488308  0.038892799            6 
 1778000   0.98886389    -5.837094    822.31558  0.038541225  0.038882852           10 
 1779000   0.96763124   -5.7904909     824.4036  0.038617369  0.038872966            7 
 1780000   0.96856951   -5.7802269    825.29528   0.03863742  0.038862895           13 
 1781000   0.95405546   -5.8067694    823.72976  0.038542474  0.038852838            2 
 1782000   0.97320995   -5.7997726    821.09098  0.038397446  0.038842759            3 
 1783000    0.9366997   -5.7948986    822.95346  0.038462959   0.03883264            2 
 1784000   0.97483265   -5.8151774    824.44332  0.038510992  0.038822502            4 
 1785000   0.97255487   -5.8035153    827.55981  0.038634912   0.03881244            5 
 1786000   0.96848387   -5.7968541    821.47703  0.038329462  0.038802332            7 
 1787000   0.95099506   -5.8329835     824.7165   0.03845908  0.038792205            5 
 1788000    0.9565979   -5.7912139     826.1282  0.038503365  0.038781961            3 
 1789000   0.96203267   -5.8144525    823.31316  0.038350715  0.038771781            4 
 1790000   0.96412419   -5.8177631    824.17782  0.038369545  0.038761679            4 
 1791000   0.95188087   -5.7864415    824.27277  0.038352539  0.038751478            6 
 1792000   0.96498499   -5.7740879    828.42896  0.038524412   0.03874128            5 
 1793000   0.97243286   -5.7912691    827.24156  0.038447739   0.03873127            5 
 1794000   0.96306988   -5.8266211    827.81808  0.038453088   0.03872116            4 
 1795000   0.96557469   -5.8068383    828.45489   0.03846123   0.03871111            5 
 1796000   0.95975521   -5.8233002    824.30235   0.03824714  0.038701013            2 
 1797000    0.9547023   -5.7930946    829.66135  0.038474372  0.038691126            2 
 1798000   0.96477178   -5.8041414      827.453  0.038350621  0.038680935            6 
 1799000   0.94821772     -5.82645    824.48117  0.038191642  0.038670835            4 
 1800000   0.95836575   -5.8127545    826.29054  0.038254192  0.038660704            4 
 1801000   0.98471477   -5.8544192    825.35438  0.038189635  0.038650637            7 
 1802000   0.97625818   -5.8143228    827.13753  0.038250903  0.038640555            7 
 1803000   0.94049552    -5.809911    826.06314   0.03818003  0.038630362            4 
 1804000   0.95244844   -5.7974585    829.13372  0.038300708  0.038620126            5 
 1805000   0.96079205   -5.8158872    829.24245  0.038284508   0.03860984            4 
 1806000   0.96266062   -5.8030491    829.45389  0.038273066  0.038599886            3 
 1807000   0.96532239   -5.7945531    828.96353  0.038229272  0.038589748            4 
 1808000    0.9488137   -5.8368133    827.58357  0.038144523  0.038579501            3 
 1809000   0.96989348   -5.8081247    829.40077  0.038207148  0.038569329            7 
 1810000   0.97373589   -5.8386352    826.55455  0.038054998  0.038559074            6 
 1811000   0.95889942   -5.8042939    832.90831  0.038326353  0.038549073            2 
 1812000   0.97533144    -5.827488    829.35771  0.038141911   0.03853898            5 
 1813000   0.97820757   -5.8034549    828.96079  0.038102629  0.038528927            5 
 1814000   0.97580934    -5.810569     831.5405  0.038200133  0.038518795            2 
 1815000   0.96638278   -5.8197639    830.69565  0.038140296  0.038508682            4 
 1816000   0.98636113   -5.7892912    831.36346  0.038149938  0.038498713            4 
 1817000   0.96425202   -5.7861287    834.65169  0.038279751  0.038488628            8 
 1818000   0.96097732   -5.8324102    829.38954  0.038017489  0.038478425            1 
 1819000   0.96477305   -5.8219218    831.65124  0.038100204  0.038468224            3 
 1820000   0.94397706   -5.8196735     832.5421  0.038120059  0.038457862            4 
 1821000   0.92753516   -5.8474959    832.49241  0.038096852  0.038447651            3 
 1822000   0.94884084   -5.8469877    829.58207  0.037942831  0.038437301            4 
 1823000   0.98531894   -5.8198078    832.66288  0.038062849  0.038427046            7 
 1824000   0.96159616   -5.8531081    831.88362  0.038006379  0.038416694            3 
 1825000   0.95734359   -5.8310994    834.11039  0.038087232  0.038406469            4 
 1826000   0.96642158   -5.8264035    833.88581  0.038056125  0.038396157            4 
 1827000   0.94130166   -5.8393908    832.45481  0.037970024  0.038386063            3 
 1828000   0.93449235   -5.7896811    838.64618    0.0382315  0.038375871            5 
 1829000   0.93638378   -5.8343346    831.96784  0.037906317   0.03836576            3 
 1830000    0.9671852   -5.8090505    837.42325  0.038134028  0.038355659            3 
 1831000   0.96013473   -5.8156334    833.53608  0.037936286  0.038345494            3 
 1832000   0.95140654   -5.8281501    834.07267  0.037939987  0.038335324            4 
 1833000   0.97060462   -5.8239616    834.69662  0.037947655  0.038324992            7 
 1834000   0.95532259   -5.8309104     834.3769  0.037912436  0.038314773            3 
 1835000   0.95293003   -5.8159648    837.22782  0.038021245   0.03830453            3 
 1836000   0.95942825   -5.8269173    836.30477  0.037958641  0.038294354            6 
 1837000   0.96057246   -5.8397133    834.07735  0.037836933  0.038284153            5 
 1838000   0.96597833   -5.8312967    839.36656  0.038056155   0.03827389            4 
 1839000   0.96803815   -5.7595661    840.49285  0.038086499  0.038263894            3 
 1840000   0.94543188   -5.8110198    840.35809  0.038059696  0.038253956           10 
 1841000   0.94558456   -5.8442083    837.11589  0.037892264  0.038243743            5 
 1842000   0.94075617    -5.843517    836.43921  0.037841079  0.038233685            4 
 1843000   0.96555057   -5.8364138    837.17642   0.03785388  0.038223371            3 
 1844000   0.95152566   -5.8235329    838.52493  0.037894293  0.038213211            3 
 1845000    0.9515216   -5.8318441    840.80423  0.037976704  0.038203175            2 
 1846000   0.95416683   -5.8603305    837.49838  0.037806897  0.038192942            4 
 1847000   0.95352032   -5.8533844     837.1096  0.037768887  0.038182496            8 
 1848000   0.94910997   -5.8236197    837.52937  0.037767378  0.038172284            3 
 1849000   0.96399805   -5.8474878    840.90681  0.037899171   0.03816218           14 
 1850000   0.94894291    -5.821111     841.6853  0.037913752  0.038152269            4 
 1851000   0.95771941   -5.8569175     838.8114  0.037763884  0.038142263            5 
 1852000   0.93433543   -5.8541005    841.22927  0.037852289  0.038132363            5 
 1853000   0.94783686   -5.8197996    842.53256  0.037890473  0.038122348            5 
 1854000   0.94870481   -5.8201978    846.65351  0.038055264  0.038112498            4 
 1855000   0.95313555   -5.8533955    842.56374  0.037851021  0.038102398            3 
 1856000    0.9348693   -5.8440901    841.38976  0.037777917  0.038092365            7 
 1857000   0.95438655   -5.8551264    840.41064  0.037713635  0.038082281            2 
 1858000    0.9443693   -5.8369112    843.56851  0.037834971  0.038072208            6 
 1859000   0.95482473   -5.8488435    840.06428  0.037657535  0.038062044            2 
 1860000   0.96141425   -5.8488418    841.02947  0.037680532  0.038051685            8 
 1861000   0.96914882   -5.8722049    840.94477  0.037656491  0.038041566            4 
 1862000   0.96047015   -5.8552425    841.30478   0.03765238  0.038031505            3 
 1863000   0.95004429   -5.8438664    843.37097  0.037724591  0.038021413            6 
 1864000   0.95425048   -5.8742302      842.327  0.037657681  0.038011248            6 
 1865000   0.96708167   -5.8366009    845.52715  0.037780481  0.038001329            8 
 1866000   0.94711742    -5.829319    844.33776  0.037707117  0.037991173            4 
 1867000    0.9705004   -5.8467284    843.94763  0.037669507  0.037981198            4 
 1868000   0.95770279   -5.8165968    846.70883  0.037772521  0.037971182            9 
 1869000   0.94733333   -5.8213211    846.11921  0.037726022  0.037961162            7 
 1870000   0.94234209    -5.852324     843.4153  0.037585352  0.037951205            4 
 1871000   0.98760953   -5.8353497    845.36568  0.037652133  0.037941314            6 
 1872000    0.9388718   -5.8510253    844.36838  0.037587624  0.037931472            3 
 1873000   0.96377736   -5.8204085    848.90735  0.037769503  0.037921715            3 
 1874000   0.95116985   -5.8128179    851.64633  0.037871146  0.037912065            3 
 1875000   0.94308446   -5.8443756    845.73323  0.037588144  0.037902215           11 
 1876000   0.94596139   -5.8482398    844.65104  0.037520036  0.037892295            5 
 1877000   0.95460364   -5.8109111    847.19815  0.037613131  0.037882234            4 
 1878000   0.94214175   -5.8958831    843.97497  0.037450079  0.037872203            2 
 1879000   0.94586886   -5.8390625    849.79246  0.037688152  0.037862006            5 
 1880000   0.93545227   -5.8758716     848.4217  0.037607345   0.03785199            5 
 1881000   0.96069928   -5.8569753    847.92901  0.037565524  0.037841913            4 
 1882000   0.95555256   -5.8485026    846.88581  0.037499371  0.037831825            4 
 1883000   0.95082684   -5.8431287    848.50745  0.037551224  0.037821665            4 
 1884000   0.96661177   -5.8270946     850.8168   0.03763344  0.037811706            5 
 1885000    0.9587354   -5.7939872    853.64115  0.037738336  0.037801902            3 
 1886000   0.95556726   -5.8548028    850.09458   0.03756162  0.037791961           10 
 1887000   0.95994004   -5.8653348    847.09829  0.037409393  0.037781875            3 
 1888000   0.93558409   -5.8504061    847.94154  0.037426798  0.037771768            8 
 1889000   0.95744882    -5.850203     850.5131   0.03752043  0.037761665            4 
 1890000    0.9373363   -5.8678784    850.74642  0.037510865  0.037751514            3 
 1891000   0.95089729   -5.8288887    848.98637  0.037413466  0.037741373            4 
 1892000   0.95625467   -5.8309308    851.54883  0.037506555  0.037731301            3 
 1893000   0.94054446    -5.867582    850.38892   0.03743568  0.037721269            5 
 1894000   0.96833433   -5.8510704    852.40017  0.037504407  0.037711177            5 
 1895000   0.96564408   -5.8398499    851.71346  0.037454418  0.037701167            4 
 1896000   0.95672655   -5.8746874    850.62869  0.037386985    0.0376911            9 
 1897000   0.95074691   -5.8682222    849.38856  0.037312799  0.037681061            5 
 1898000    0.9579244   -5.8432898    848.91306  0.037272263  0.037670971            8 
 1899000   0.94237572   -5.8371479    852.93933  0.037429319  0.037660841            2 
 1900000    0.9527572   -5.8265242    851.51349  0.037347083  0.037650843            6 
 1901000   0.94147049   -5.8461819    853.91091  0.037432531  0.037640904            6 
 1902000   0.94406599   -5.8327136    854.05298  0.037419075  0.037631049            8 
 1903000   0.94592809   -5.8507072    852.00947  0.037309926  0.037621186            8 
 1904000   0.94499565   -5.8289858    856.28801  0.037477591  0.037611247            4 
 1905000   0.93718923   -5.8586519    855.08354  0.037405229  0.037601326            3 
 1906000    0.9538807   -5.8432093    855.30558  0.037395312  0.037591509            3 
 1907000    0.9388921    -5.852292    854.58225  0.037344094  0.037581688            4 
 1908000   0.95470045   -5.8241982    853.33586  0.037270085  0.037571817            8 
 1909000    0.9390514   -5.8564363    855.15892  0.037330143  0.037561979            6 
 1910000   0.93506673   -5.8665401    855.71357  0.037334798  0.037552091            4 
 1911000   0.93709659    -5.806333    860.69076  0.037532302  0.037542415            3 
 1912000   0.95404635    -5.848573    854.98842   0.03726414   0.03753278            5 
 1913000   0.95258072   -5.8108175    858.06489  0.037378676   0.03752292            4 
 1914000   0.94848087   -5.8695546    857.55678  0.037337024   0.03751311            4 
 1915000   0.92414972   -5.8403698    857.20756  0.037302331  0.037503303            5 
 1916000   0.95863401   -5.8675134    858.07692  0.037320673  0.037493381            3 
 1917000    0.9365716   -5.8414508    857.98697  0.037297295  0.037483493            5 
 1918000   0.95626398   -5.8804044    859.40746  0.037339566  0.037473843            2 
 1919000   0.93566316   -5.8410292    859.22396   0.03731214  0.037464132            5 
 1920000   0.95293591   -5.8554286    859.81786  0.037318483  0.037454272            6 
 1921000   0.95372523   -5.8622236    857.94779  0.037217933  0.037444445            2 
 1922000   0.94648301     -5.85259    858.58858  0.037226352  0.037434784            3 
 1923000   0.93609449   -5.8466976    861.81878  0.037346974  0.037425007            5 
 1924000   0.93056612   -5.8509699    858.84063  0.037198572  0.037415275            6 
 1925000   0.96412918   -5.8506054     861.1018  0.037277134  0.037405518            3 
 1926000   0.98029238   -5.8462867    860.47306  0.037230575  0.037395826            2 
 1927000   0.93415092   -5.8580606    859.00666   0.03714784  0.037386102            2 
 1928000   0.92136746   -5.8386037     859.1879  0.037136407  0.037376397            7 
 1929000   0.92547576   -5.8542777    863.12185  0.037287103  0.037366609            6 
 1930000   0.94893507   -5.8893498    858.34273   0.03706143  0.037356754            8 
 1931000   0.97023785   -5.8512532    862.37201  0.037216123  0.037347008            8 
 1932000   0.94752726   -5.9054659     857.5105  0.036987168   0.03733733           14 
 1933000   0.94663278   -5.8739565    859.85758  0.037069218  0.037327306            4 
 1934000   0.94003696   -5.8532537    861.25214   0.03711014  0.037317458            3 
 1935000   0.96093958   -5.8984708    859.29808  0.037006808  0.037307682            4 
 1936000   0.94453925   -5.8479679    863.23282   0.03715706    0.0372979            6 
 1937000   0.93816322   -5.8557845    861.60628    0.0370679  0.037288055            6 
 1938000   0.95516005   -5.8519292    865.89293  0.037233098  0.037278198            5 
 1939000   0.91234533   -5.8573452    863.99604  0.037132372  0.037268488            5 
 1940000    0.9303247   -5.8488345    861.31246  0.036997958  0.037258802            3 
 1941000   0.95140644   -5.8460848    863.10424  0.037055824  0.037249001            5 
 1942000    0.9324899    -5.874364    863.65977  0.037060581  0.037239122            6 
 1943000   0.94180962   -5.9028114    859.76939  0.036874652  0.037229178            7 
 1944000   0.92833629   -5.8625684     863.9747  0.037035953  0.037219367            5 
 1945000    0.9590206   -5.8770427    864.30612   0.03703111  0.037209598           11 
 1946000   0.92555913   -5.8681523    863.45666  0.036975705  0.037199726            2 
 1947000   0.92965042    -5.834342    867.41101  0.037125964  0.037189959            3 
 1948000   0.93614971   -5.8779112    865.64509  0.037031361  0.037180225           10 
 1949000   0.93734007   -5.8696224    862.92901  0.036896229  0.037170335            3 
 1950000   0.96005377   -5.8896009     865.0947  0.036969859  0.037160461            4 
 1951000   0.94261722   -5.8803052    865.55149  0.036970421  0.037150577            6 
 1952000    0.9181347   -5.8731601    867.17478  0.037020781  0.037140678            4 
 1953000   0.95931504    -5.897067    865.74699  0.036940903  0.037130871            6 
 1954000   0.96113428   -5.8814648    864.71509  0.036877989  0.037120996            5 
 1955000   0.93010783   -5.8632601    865.85116  0.036907552  0.037111404            4 
 1956000   0.92429811   -5.8547585    869.28232  0.037034864  0.037101763            4 
 1957000    0.9622722   -5.8657089    868.20546  0.036970084  0.037092071            4 
 1958000   0.94363928   -5.8607444    868.11832  0.036947494  0.037082383            2 
 1959000   0.92060443   -5.8684994    869.08354  0.036969693  0.037072715            2 
 1960000   0.93608929   -5.8410327     869.7133  0.036977606   0.03706317            6 
 1961000   0.95145131   -5.8668783    866.85647  0.036837348  0.037053631            5 
 1962000   0.92714093   -5.8388208    868.45972  0.036886668  0.037044029            3 
 1963000   0.93555834   -5.8742117    870.85601  0.036969605  0.037034427            5 
 1964000   0.94135921   -5.8665197    870.25342  0.036925213  0.037024892           10 
 1965000    0.9390291    -5.856562    869.93963  0.036893114  0.037015433            3 
 1966000   0.96453788   -5.8763561    870.86689  0.036913653  0.037005939            6 
 1967000   0.94174633   -5.8709251    872.05211  0.036945099  0.036996374            5 
 1968000   0.92098979   -5.8729545    870.14358  0.036845511  0.036986895            2 
 1969000   0.93562444   -5.8873436    872.94986  0.036945567  0.036977434            4 
 1970000   0.92942743   -5.8713504    870.51622  0.036823867  0.036967937            2 
 1971000   0.94274041   -5.8976795    870.54253  0.036806297  0.036958497           12 
 1972000    0.9587081   -5.8611698    871.37283  0.036822719  0.036949051            4 
 1973000   0.94686254   -5.8955533    870.90029  0.036784097  0.036939656            5 
 1974000   0.91889601   -5.8906436    871.75212  0.036801423  0.036930318            5 
 1975000   0.94659152   -5.8784859    873.69252  0.036864663  0.036920976            9 
 1976000   0.92076558   -5.8629379    871.96923  0.036773331  0.036911529            4 
 1977000   0.93720713   -5.8782857    873.46845  0.036817925  0.036902094            5 
 1978000   0.94579344   -5.9021825    872.68888  0.036766468  0.036892618            4 
 1979000   0.92918787   -5.8783464    873.03971  0.036762663  0.036883122            3 
 1980000    0.9289902   -5.9006214    870.97875  0.036657355  0.036873779            4 
 1981000    0.9372796   -5.8716673    873.69799  0.036753239   0.03686436            4 
 1982000   0.93737291   -5.8768667    876.66667  0.036859513  0.036854876            4 
 1983000   0.93570348    -5.902707     874.3811  0.036744877  0.036845359            3 
 1984000   0.92718651   -5.8937147    876.96423  0.036834855  0.036835882            4 
 1985000   0.92799424   -5.8928531    875.95676  0.036774003  0.036826424           15 
 1986000   0.93729515   -5.8868756     875.3025  0.036728034  0.036816996            3 
 1987000   0.92918497   -5.9003323    875.14306  0.036702863  0.036807443            3 
 1988000   0.91500555   -5.8532047    879.02798  0.036847249  0.036798227            3 
 1989000   0.92280858   -5.8891728    878.22166  0.036794941  0.036788981            4 
 1990000   0.93402032   -5.8609695    878.11143  0.036771836  0.036779677            7 
 1991000   0.92074222   -5.9034826    874.71002     0.036611  0.036770135            9 
 1992000    0.9323565   -5.8958295    877.07981  0.036691759  0.036760632            3 
 1993000    0.9395269   -5.8833588    875.49051  0.036606895  0.036751223            5 
 1994000   0.94160274   -5.8828603    879.34463  0.036749608  0.036741757            4 
 1995000   0.93731423   -5.8989114    876.56886  0.036615241   0.03673217            3 
 1996000   0.92158082   -5.8678214     880.4067  0.036757127  0.036722698            3 
 1997000   0.91302443   -5.8755321    879.48073   0.03670008  0.036713248            4 
 1998000   0.91838778    -5.878651    880.14602   0.03670946  0.036703776            6 
 1999000   0.93597042   -5.9001803    877.18146  0.036567511  0.036694265            4 
 2000000   0.93500714   -5.8969156    877.04037  0.036543349  0.036684764            9 
 2001000   0.93971731   -5.8735088    877.53311  0.036545607  0.036675291            3 
 2002000   0.95009155    -5.922896    875.10697  0.036426364  0.036665811            4 
 2003000   0.92900823    -5.872865    879.39302  0.036586496  0.036656219            4 
 2004000   0.92558168   -5.9038296     876.6043  0.036452275  0.036646679            4 
 2005000   0.92891619   -5.8785423    880.68947  0.036603885  0.036637118            4 
 2006000   0.90954427    -5.873352    878.16009  0.036480562  0.036627603            5 
 2007000   0.92747659    -5.916509    877.21018  0.036422944  0.036618127            4 
 2008000   0.91940042   -5.9069481    878.37086  0.036452974    0.0366085            4 
 2009000   0.94520164   -5.8877459     881.1923  0.036551863  0.036598935            5 
 2010000   0.93745703   -5.8982792    876.01561  0.036319055  0.036589357            5 
 2011000   0.92695516   -5.8808044    879.90802  0.036462292  0.036579817            4 
 2012000    0.9361241   -5.8656049    880.82516  0.036482155  0.036570163            3 
 2013000   0.92025298   -5.9043435    879.84899  0.036423621  0.036560657            2 
 2014000   0.93433953   -5.9148835    878.90766  0.036366586  0.036551064            6 
 2015000   0.93941435   -5.8810464    880.48501  0.036413772  0.036541596            5 
 2016000   0.95478864   -5.9096751    878.81087  0.036326508  0.036532166            7 
 2017000   0.92269654   -5.8976516    883.02816  0.036482737   0.03652276            4 
 2018000   0.93148928   -5.8882978    880.75006  0.036370584  0.036513329            6 
 2019000   0.91657763   -5.9017942    880.73467  0.036351935  0.036503869            6 
 2020000   0.91942475   -5.8956551    884.51493   0.03648989  0.036494398           10 
 2021000    0.9496988   -5.8984303    881.04618  0.036328805  0.036484857           13 
 2022000   0.91390337   -5.8985655    881.21241  0.036317689  0.036475435            3 
 2023000   0.93212719   -5.8697244    883.23632  0.036383108  0.036465966            5 
 2024000   0.91788283   -5.8903214    884.90139  0.036433687  0.036456581            4 
 2025000   0.91201381   -5.8921017    883.93004  0.036375722  0.036447256            2 
 2026000   0.94094043   -5.9023063    883.69459  0.036348083  0.036437856            5 
 2027000   0.93017522   -5.9235067    883.22821  0.036310977  0.036428499            6 
 2028000   0.92158566   -5.9340144    882.91123  0.036280047  0.036419145            8 
 2029000   0.93157934   -5.8665196    887.84072  0.036464626  0.036409793            4 
 2030000   0.93182082   -5.8951177    886.92034  0.036408881  0.036400483            4 
 2031000   0.91634053   -5.8644727    887.22986  0.036403654  0.036391175            4 
 2032000   0.91751892   -5.9046283    886.36688  0.036350348  0.036381846            2 
 2033000   0.92737714   -5.8940126    887.19067  0.036366235  0.036372559            6 
 2034000   0.92209921    -5.906624    884.49198   0.03623779  0.036363232           10 
 2035000   0.92583431   -5.8993529    884.54891  0.036222314   0.03635365            2 
 2036000   0.92549109   -5.9038717    889.78971  0.036419029  0.036344175            5 
 2037000   0.93344994   -5.9222888    884.98717  0.036204679  0.036334725            9 
 2038000    0.9179556   -5.8891908    889.97664  0.036390932  0.036325265            3 
 2039000   0.91344919   -5.9149141    886.04555  0.036212423  0.036315838            3 
 2040000   0.91978918   -5.9087197     883.8756  0.036106029  0.036306333            4 
 2041000   0.92831139   -5.9249806    882.36221  0.036026548  0.036296849            4 
 2042000   0.92491069   -5.9102679    885.65671  0.036143352   0.03628715            7 
 2043000   0.92822289   -5.9234684    886.31656  0.036152576  0.036277467            4 
 2044000   0.92622602   -5.9119603    887.19601  0.036170744  0.036267874            3 
 2045000   0.94256839   -5.8871745    888.01272  0.036186337  0.036258223            5 
 2046000   0.93137741   -5.8845906    889.88177  0.036244777  0.036248747            4 
 2047000   0.91031995   -5.9063057    886.50448  0.036089582   0.03623912            5 
 2048000   0.91422535   -5.9002792    890.18237  0.036221613  0.036229666            5 
 2049000   0.91694835   -5.9088685    888.03241  0.036116496  0.036220106            3 
 2050000    0.9318347   -5.8930376    887.00967  0.036057304  0.036210582           15 
 2051000   0.92417586   -5.9206041    884.12611  0.035922562  0.036200993            4 
 2052000   0.91405634    -5.922224    885.30588  0.035952968  0.036191331            9 
 2053000   0.93041428   -5.9112129     891.8324  0.036200373   0.03618161            7 
 2054000   0.91098165   -5.9082311    885.82321  0.035938949  0.036171926            3 
 2055000   0.93281035   -5.9322573    888.39747   0.03602585  0.036162177            2 
 2056000   0.90239767   -5.8755465    889.36185  0.036047416  0.036152535            5 
 2057000   0.91933243   -5.8994513    891.09419  0.036100072  0.036142908            3 
 2058000   0.93956743    -5.921458    890.36262  0.036052908  0.036133177            6 
 2059000   0.93315178    -5.910413      888.139  0.035945402   0.03612345            2 
 2060000   0.91466643    -5.895915     889.5465  0.035984891  0.036113866            6 
 2061000   0.91040493   -5.8994929    890.99716  0.036026086  0.036104195            2 
 2062000   0.92245673   -5.8894573    890.42397   0.03598545  0.036094508            5 
 2063000   0.94010441    -5.867478    890.68557  0.035978574  0.036084869            5 
 2064000   0.92951202   -5.9086563    890.88493  0.035969191  0.036075262            7 
 2065000   0.92615812   -5.9038966    890.95383  0.035954553  0.036065723            5 
 2066000   0.91868934   -5.9200991    890.57214  0.035921755  0.036056076            6 
 2067000   0.92357167   -5.9020254    888.31482   0.03581337   0.03604641            5 
 2068000   0.91379563   -5.9280552     888.7088  0.035811928  0.036036698            6 
 2069000   0.92479197   -5.9395291    888.94488  0.035804127  0.036027044            8 
 2070000   0.92246981   -5.9395786    890.60279  0.035853574    0.0360173           11 
 2071000   0.91087131   -5.9190646    886.86858  0.035686004  0.036007542            5 
 2072000   0.90206942   -5.9079908    891.15045  0.035840993  0.035997747            5 
 2073000    0.9184514   -5.9516486    892.53958  0.035879546  0.035988068            4 
 2074000   0.90971532    -5.904696    891.78509  0.035831931  0.035978301            4 
 2075000   0.91167937     -5.90818    893.85196  0.035897669  0.035968482            3 
 2076000   0.90699141   -5.8943627    895.78413  0.035957937  0.035958843            2 
 2077000   0.91244795   -5.9166775    890.82752  0.035741756  0.035949132            4 
 2078000   0.92713686   -5.8986682    892.46722  0.035790312   0.03593947            3 
 2079000   0.93211292    -5.916679    891.34189   0.03572799  0.035929701            2 
 2080000   0.91575981   -5.9112971    891.86872   0.03573192  0.035919972            4 
 2081000   0.89874699   -5.9342501    889.63038  0.035625115  0.035910171           10 
 2082000    0.9288075   -5.9510118    891.46518  0.035681444  0.035900247            4 
 2083000   0.92731347   -5.8701879    895.11501   0.03581033  0.035890463            8 
 2084000   0.90391677   -5.9158871    892.79955  0.035700558  0.035880967            3 
 2085000   0.89445266   -5.9078452    897.56413  0.035873866  0.035871358            7 
 2086000   0.92049905   -5.9278885     895.1577  0.035760534  0.035861732            3 
 2087000   0.91002426   -5.9070737    896.57715  0.035800078  0.035851959            4 
 2088000    0.8951812   -5.9446834    892.56607  0.035622847  0.035842274            5 
 2089000   0.91789276    -5.923904    893.72775  0.035652136  0.035832575            3 
 2090000   0.90401019   -5.9187744    893.18598  0.035613476  0.035822748            5 
 2091000   0.92061423     -5.90727    892.34951  0.035563108  0.035813125            9 
 2092000    0.9279807   -5.9143591    895.64071  0.035677211  0.035803468            3 
 2093000   0.90545276   -5.8893457    895.83305  0.035667823  0.035793931            5 
 2094000   0.92475073   -5.9036488    896.07563  0.035660444  0.035784453            4 
 2095000    0.9145922   -5.9286218    895.00296  0.035600754  0.035774872            3 
 2096000   0.92308921   -5.9363337    893.55247    0.0355261  0.035765182            7 
 2097000   0.90631297   -5.9464253      892.144  0.035453187  0.035755321            4 
 2098000   0.92376449   -5.9446843     897.7914  0.035660605   0.03574565           11 
 2099000   0.89888353   -5.9104184    897.07962  0.035615357  0.035735936            9 
 2100000   0.91944336   -5.9385581    897.35237  0.035609221  0.035726311            3 
 2101000   0.91726753   -5.9149833    898.33926  0.035631416  0.035716635            3 
 2102000   0.90846868   -5.9265849    898.46289  0.035619366  0.035707025            6 
 2103000   0.89422328   -5.9115547    896.52885  0.035525791  0.035697324            3 
 2104000   0.89740511   -5.9327087    895.86473  0.035482602  0.035687596            4 
 2105000   0.93059488   -5.8906478    898.68298  0.035577315   0.03567793            5 
 2106000   0.93602048   -5.8927518     899.3203   0.03558564  0.035668361            8 
 2107000   0.92588171   -5.9349279    896.87528  0.035472049   0.03565881           16 
 2108000   0.90964224   -5.9497849    898.03637  0.035501122  0.035649316            4 
 2109000   0.90707226   -5.9500384    898.08979  0.035486399  0.035639619            6 
 2110000   0.91350882   -5.9553657    897.21054  0.035434855  0.035629873            3 
 2111000   0.91614413   -5.8888563    901.76589  0.035597895  0.035620301            3 
 2112000   0.91832966   -5.9615445    899.81385  0.035504019  0.035610805            4 
 2113000   0.90507476   -5.9022848    900.90167  0.035530118  0.035601176            3 
 2114000   0.91884221   -5.9218448    898.06221   0.03540138  0.035591754            9 
 2115000   0.91708888   -5.9746413     897.9733  0.035381138  0.035582108            4 
 2116000   0.90395432   -5.9306609    899.44199  0.035422259  0.035572382            5 
 2117000    0.9121633   -5.9462991    896.90668  0.035305727  0.035562649            9 
 2118000   0.92447164   -5.9239899    901.60161  0.035473781  0.035552991            3 
 2119000   0.91157563   -5.9440501    899.04151  0.035356359  0.035543282            2 
 2120000   0.90892028    -5.913308    903.57685  0.035517958  0.035533765            8 
 2121000   0.89911116   -5.9187373    903.10242  0.035482572  0.035524389            4 
 2122000   0.90148196    -5.914387     903.3123  0.035474093  0.035515065            6 
 2123000   0.89210065   -5.9152502    903.71975  0.035473377  0.035505641            5 
 2124000   0.91721823   -5.9107777    902.33868   0.03540249  0.035496228           14 
 2125000   0.91294611   -5.9201978    903.07978  0.035414893  0.035486852            4 
 2126000   0.89906826   -5.9697958    902.75924  0.035385671   0.03547738            4 
 2127000   0.90199214   -5.9378215    902.67413    0.0353657  0.035467924            5 
 2128000   0.91936292   -5.9292434    904.87655  0.035435329  0.035458557            8 
 2129000    0.9289961   -5.9296252    904.49299  0.035403671  0.035449264            9 
 2130000   0.90074104   -5.9924598    905.11983  0.035411574  0.035439837            6 
 2131000   0.92832973   -5.9684467    905.49223   0.03540952  0.035430375            7 
 2132000   0.92311089   -5.9388234    905.53604  0.035394623  0.035420964            6 
 2133000   0.90011321   -5.9605825    901.73324  0.035229459  0.035411593            6 
 2134000     0.901531   -5.9260612      903.732  0.035291003  0.035402242            9 
 2135000   0.92307434   -5.9566556    906.45116  0.035380607  0.035392876            4 
 2136000   0.89012216   -5.9263639    906.90395  0.035381709    0.0353835            8 
 2137000   0.91273681    -5.952207    906.13201  0.035335049  0.035374157            6 
 2138000   0.92431834   -5.9717781     905.5501  0.035295841  0.035364671            8 
 2139000   0.91120877   -5.9313571    905.77778   0.03528821  0.035355195           10 
 2140000   0.90651846   -5.9463219    906.68152  0.035306913  0.035345891            5 
 2141000   0.90412579   -5.9203517    909.80549  0.035412015  0.035336602            7 
 2142000   0.88884139   -5.9348137    908.44321  0.035342484   0.03532714            6 
 2143000   0.92587015   -5.9377101    906.53806  0.035251908  0.035317862           13 
 2144000   0.89865752   -5.9183199    908.21805  0.035300764  0.035308571            5 
 2145000   0.90242276    -5.927869    906.96878  0.035235772  0.035299283            4 
 2146000   0.92019548   -5.9395447    907.58982  0.035243469  0.035289994            4 
 2147000   0.88471286   -5.9270957    906.53569  0.035186139  0.035280767            9 
 2148000   0.90721878   -5.9505627    907.34491  0.035201153  0.035271384            4 
 2149000     0.923874    -5.924493    909.26709   0.03525931  0.035261913            5 
 2150000   0.89722909   -5.9531655    910.06067  0.035273669  0.035252714            5 
 2151000   0.92859415    -5.955289    911.24476  0.035303144  0.035243569            4 
 2152000   0.88097062   -5.9240387    913.26356  0.035364915  0.035234248            4 
 2153000    0.9138281   -5.9332586    909.90565  0.035218519   0.03522495            3 
 2154000   0.90182903   -5.9419134    909.39798  0.035182528  0.035215712            4 
 2155000   0.90231496   -5.9505635    912.60215  0.035290106  0.035206547            9 
 2156000    0.9087376   -5.9672581    907.93446  0.035093323  0.035197296            6 
 2157000   0.89270392   -5.9443358    910.80535  0.035187967  0.035188013            8 
 2158000   0.89672101   -5.9493257    910.30683  0.035152411  0.035178755            3 
 2159000   0.89443785   -5.9559954    912.45673  0.035219111  0.035169534            4 
 2160000   0.88943247   -5.9843575    909.54856  0.035090608  0.035160351            2 
 2161000   0.91621402   -5.9303295    913.08856  0.035210881  0.035151092            2 
 2162000   0.92042075   -5.9348386    911.31402  0.035126196  0.035142006            3 
 2163000    0.9026905   -5.9487251    912.15165  0.035142227  0.035132794            6 
 2164000   0.89314728   -5.9384731    913.37714   0.03517318   0.03512353            5 
 2165000   0.92182618   -5.9035829    914.73523  0.035209208  0.035114378            3 
 2166000    0.9099839   -5.9578744    912.41225   0.03510358  0.035105166            5 
 2167000   0.91107962   -5.9510826    910.66762   0.03502029  0.035095801            2 
 2168000   0.89438738   -5.9650419    912.11151  0.035059637  0.035086399            6 
 2169000    0.9147258   -5.9490056    912.14177  0.035044635  0.035076942            6 
 2170000   0.90966814   -5.9266285    911.76328  0.035013951   0.03506765            5 
 2171000   0.89611263   -5.9678921    911.55005  0.034989638  0.035058236            5 
 2172000    0.9035438    -5.967496    910.22743  0.034922784  0.035048662            6 
 2173000   0.90616045   -5.9670022    910.34449  0.034911201  0.035039219            5 
 2174000   0.90238418   -5.9536051    911.86901  0.034953581  0.035029797            4 
 2175000   0.88535859   -5.9304045    915.25214  0.035067132  0.035020314            4 
 2176000   0.90356404   -5.9429051    914.67494  0.035028912  0.035010993            9 
 2177000   0.88860281     -5.95922    912.63209  0.034934623  0.035001662           10 
 2178000   0.90700445   -5.9461172    916.01719  0.035048102  0.034992283            6 
 2179000    0.9127219   -5.9461503     911.6227  0.034863955  0.034983023            6 
 2180000    0.9203051   -5.9600098     912.2715  0.034872764  0.034973692            8 
 2181000   0.89888345   -5.9380012    913.25951  0.034894525  0.034964257            2 
 2182000   0.88446905    -5.971153    912.27072   0.03484077  0.034954807            4 
 2183000   0.93960138   -5.9657398    915.73253   0.03495696   0.03494529            3 
 2184000   0.91083629   -5.9714321    916.56841  0.034972848  0.034935905            4 
 2185000   0.89438617   -5.9492378     917.9768  0.035010557  0.034926489            3 
 2186000   0.88544371   -5.9500761    914.80351  0.034873571  0.034917067            6 
 2187000   0.90888796   -5.9291644     916.0349  0.034904546  0.034907569            3 
 2188000   0.90252104   -5.9675672    915.62178  0.034872859  0.034898114            4 
 2189000   0.91550241   -5.9753634     915.3658  0.034847183   0.03488858            7 
 2190000   0.90078305   -5.9898809    912.04589  0.034704942  0.034878969            8 
 2191000   0.89818486   -5.9743888    917.36251  0.034891317  0.034869446            8 
 2192000   0.88713917   -5.9583869    915.76021  0.034814485  0.034859979            2 
 2193000    0.9020717   -5.9488314    917.16301  0.034851915  0.034850613            6 
 2194000   0.90711035   -5.9772101    915.75833  0.034782678  0.034841247            3 
 2195000   0.90181441   -5.9639707    915.03545  0.034739387  0.034831859            5 
 2196000   0.90017776   -5.9737249    912.61812  0.034631835  0.034822398           12 
 2197000   0.90510774   -5.9791976    915.00455  0.034706591  0.034812943            8 
 2198000   0.88335761    -5.943385    915.63517  0.034714709  0.034803513            3 
 2199000   0.90212171   -5.9604643    918.03299  0.034789791  0.034794069            5 
 2200000   0.89270234   -5.9399499    915.96022  0.034695463  0.034784649            4 
 2201000   0.90046342   -6.0026749     916.1014  0.034685045  0.034775249            5 
 2202000     0.917172   -5.9412072    918.66196  0.034766196  0.034765791            4 
 2203000   0.90955833   -5.9015631    917.33342   0.03470016  0.034756277           19 
 2204000   0.90707714   -5.9431838    917.95776  0.034708022  0.034746804            8 
 2205000    0.9137079   -5.9551519    918.61806  0.034717236  0.034737325            5 
 2206000   0.88263603   -5.9660358    920.43832   0.03477026  0.034727859            2 
 2207000   0.89327941   -5.9629122    916.96413  0.034623325  0.034718526           13 
 2208000   0.90300399   -5.9698733    916.01214  0.034571714  0.034709031           10 
 2209000   0.90164882   -5.9671087    918.87033  0.034663887  0.034699608            8 
 2210000   0.90465515   -5.9564495    920.89031  0.034724371  0.034690242           10 
 2211000   0.92175635   -5.9711779     918.8782  0.034632828  0.034680852            4 
 2212000   0.89632214   -5.9650609    919.69257  0.034647851  0.034671544           10 
 2213000     0.918836   -5.9473127    918.71151  0.034595252  0.034662156            3 
 2214000   0.91917976   -5.9602083    921.48042  0.034683846  0.034652869            4 
 2215000   0.90191386   -5.9509464    922.14893  0.034693338  0.034643577            5 
 2216000    0.9072005    -5.948618     921.9673  0.034670852  0.034634279            4 
 2217000   0.90525399   -5.9917263    917.98683  0.034505594  0.034624973            5 
 2218000   0.89646414    -5.963217    921.60257  0.034625885  0.034615634            8 
 2219000   0.90035568   -5.9753353    918.42781  0.034491055  0.034606382           12 
 2220000   0.87876586   -5.9709326    921.85922  0.034604325   0.03459714           10 
 2221000   0.87721058   -5.9477541     921.5816  0.034578328  0.034587741            5 
 2222000   0.87779896   -5.9629661    920.43708  0.034519843  0.034578371           17 
 2223000   0.89728468   -5.9812096    919.40474  0.034465615  0.034569058            4 
 2224000   0.88367119   -6.0190927    917.84731  0.034391761  0.034559594            4 
 2225000   0.90667151   -5.9757241    919.16048  0.034425486  0.034550114            6 
 2226000   0.87026114   -5.9442377    922.23175  0.034524998  0.034540773            3 
 2227000   0.89259851   -5.9958588    921.83776  0.034494752  0.034531394            7 
 2228000   0.89131978    -5.966416     922.4823  0.034503378  0.034522096            5 
 2229000   0.88846224   -5.9617834    921.60359  0.034455047  0.034512743            3 
 2230000   0.89368965   -5.9879777    922.17397  0.034460911  0.034503398            8 
 2231000   0.90411064   -5.9763373      923.244  0.034485432  0.034493977            4 
 2232000   0.89619052   -5.9961395    921.57264  0.034407581  0.034484609            4 
 2233000   0.90013482   -5.9715969    926.02772  0.034558431  0.034475349            3 
 2234000    0.9258589   -5.9509688    927.00628  0.034579464  0.034466065            3 
 2235000   0.88321673   -5.9696915    923.52948  0.034434358  0.034456807            4 
 2236000   0.90526988   -5.9883634    921.82479  0.034355426  0.034447408            4 
 2237000   0.88509634   -5.9786416     925.0676   0.03446087  0.034438065            6 
 2238000   0.88893267   -5.9283091      925.298  0.034454051  0.034428809            5 
 2239000   0.88405455   -6.0115945    923.31951  0.034365026  0.034419465            4 
 2240000   0.89813322   -5.9488518    924.78387  0.034404162  0.034410149            6 
 2241000   0.88746428   -5.9772331    925.70261  0.034422974   0.03440103            2 
 2242000   0.88019704   -5.9878699    926.70241  0.034444782   0.03439187            4 
 2243000   0.89633607   -5.9518249    925.32003  0.034378066  0.034382731            3 
 2244000   0.89043344   -5.9525064    927.13836  0.034430272  0.034373507            5 
 2245000    0.9062515   -5.9813458     926.2483  0.034381897  0.034364319            3 
 2246000   0.89613221   -5.9847778    924.99311  0.034320018  0.034355141            5 
 2247000   0.90003077   -5.9425702    928.83745  0.034447317  0.034346028            7 
 2248000   0.90828953   -5.9993375    929.06262   0.03444034  0.034336911            3 
 2249000   0.89288756   -6.0018961    926.60018  0.034333784  0.034327839            5 
 2250000   0.88955128   -6.0034254    926.09875  0.034299954  0.034318674            3 
 2251000    0.8840847   -5.9923336    925.34223  0.034256709  0.034309504            6 
 2252000   0.89134464    -6.006384    928.00256  0.034339941  0.034300345            5 
 2253000   0.88353719   -5.9796092    926.58853  0.034272397  0.034291211            7 
 2254000   0.88850997   -6.0018311    927.18501  0.034279245  0.034281994           12 
 2255000   0.88373172   -5.9793516     930.5074  0.034386822  0.034272829            5 
 2256000   0.88339336    -5.951517    932.11609  0.034431002  0.034263807            5 
 2257000   0.90342266   -6.0031156    929.58313  0.034322225  0.034254702            4 
 2258000   0.89070075   -6.0124612    929.18489  0.034292327  0.034245657            4 
 2259000   0.87259979   -5.9932977    931.37022  0.034357762  0.034236606            9 
 2260000   0.89232789   -6.0020648    929.90754  0.034288626  0.034227611            7 
 2261000   0.88382827   -6.0112911    932.26639  0.034360401  0.034218476            4 
 2262000   0.89363046   -5.9749514    930.58411  0.034283234  0.034209275            7 
 2263000   0.88076654   -5.9755028    932.11538  0.034324473   0.03420019            4 
 2264000   0.89163719   -5.9684756     930.4605  0.034248399  0.034191023            9 
 2265000   0.87864908   -5.9991754     932.6669  0.034314456  0.034181828            8 
 2266000   0.87969805   -5.9875466    930.37443  0.034215006  0.034172547            5 
 2267000   0.88785907   -5.9829847    931.97565  0.034258773  0.034163333            3 
 2268000   0.88722717   -5.9646445    932.32055   0.03425634  0.034154283            4 
 2269000   0.91030054   -5.9617984    933.36217  0.034279498  0.034145194            8 
 2270000   0.87562799    -5.969774    932.22664  0.034222711  0.034136099            3 
 2271000   0.89868046   -6.0055901    931.15873  0.034168455  0.034126917            4 
 2272000   0.88038771   -5.9961516     928.5245  0.034056796  0.034117674           12 
 2273000   0.90185393     -5.96505    927.76669   0.03401403  0.034108477            4 
 2274000   0.86150502   -5.9907474    932.35329  0.034167154  0.034099222            8 
 2275000   0.88606902   -5.9867391    932.48692   0.03415703  0.034090005            5 
 2276000   0.91732908   -5.9785949     932.2526  0.034133443  0.034080833            7 
 2277000   0.86505834   -5.9697219    933.11378   0.03414997  0.034071678            4 
 2278000   0.87367261   -5.9457412     939.1377  0.034355345  0.034062733            6 
 2279000   0.88782481   -6.0076193    931.65372  0.034066612  0.034053662            6 
 2280000   0.88421717   -5.9775042    933.00431  0.034101035   0.03404459            4 
 2281000   0.89789927   -5.9932605    932.82016  0.034079357  0.034035487           28 
 2282000   0.88756063   -5.9870578    935.13375   0.03414891  0.034026304            4 
 2283000   0.89429281   -6.0069137    933.86443   0.03408762  0.034017179            6 
 2284000   0.89254505   -5.9829937    934.45659    0.0340943  0.034008058            7 
 2285000   0.89025912   -5.9729015    937.82003  0.034202043  0.033999006            8 
 2286000   0.88390608   -6.0176445    933.91933  0.034044887  0.033989937            8 
 2287000   0.87220394    -6.036069    935.05394  0.034071343  0.033980835            9 
 2288000   0.89559331   -6.0002618    933.67682  0.034006294  0.033971687            5 
 2289000    0.8961089   -5.9961651     936.0098  0.034076372  0.033962691            9 
 2290000   0.87350685   -5.9817702    936.35993  0.034074233  0.033953691           10 
 2291000   0.86953049   -5.9633799    935.32652  0.034021771    0.0339447           12 
 2292000   0.88547745   -6.0249263    935.18221   0.03400168  0.033935813            2 
 2293000   0.90788955   -6.0188383    939.16013  0.034131419  0.033926865            3 
 2294000   0.87486026   -5.9807794     937.6561  0.034061904  0.033917983            2 
 2295000   0.89924732    -5.988453    939.45964   0.03411255  0.033909175           11 
 2296000   0.89660756    -6.028338    936.15244  0.033977658  0.033900199            4 
 2297000    0.8977579   -5.9989627    937.95816  0.034028376  0.033891209            7 
 2298000   0.87425457   -5.9848153    937.67347  0.034003245   0.03388223            6 
 2299000   0.88015973   -6.0034458    936.95969  0.033962581  0.033873212            6 
 2300000    0.8790606   -6.0078521     940.3961  0.034072322  0.033864227            5 
 2301000    0.8816809   -5.9983729    936.73109  0.033924782  0.033855177           12 
 2302000   0.87422479   -6.0073039    938.99163  0.033991878  0.033846188            8 
 2303000   0.87949014   -6.0289483    937.41287  0.033919991  0.033837218            4 
 2304000   0.88350375   -5.9999512    937.32481  0.033902084   0.03382821            6 
 2305000   0.87891887   -5.9585527    943.09449  0.034095969  0.033819259            4 
 2306000   0.86477766   -5.9876944    942.25362  0.034050796  0.033810463            1 
 2307000   0.87285464   -5.9908384    938.16706  0.033888422  0.033801533            6 
 2308000   0.88982714   -6.0178236    936.84146  0.033825876  0.033792508           10 
 2309000   0.87447854   -6.0103767    937.38411  0.033830811  0.033783449            5 
 2310000   0.89140597   -6.0324744    936.36153  0.033779276  0.033774473           10 
 2311000   0.85722534    -6.012029    940.13585  0.033900759  0.033765543           12 
 2312000   0.88671876   -6.0124948    939.89068  0.033877259  0.033756645            3 
 2313000   0.89577639   -6.0141784    940.19969  0.033873746  0.033747688            3 
 2314000   0.86069085   -6.0428841    939.50493  0.033834087  0.033738722           11 
 2315000   0.88948407   -6.0453094    938.64981   0.03378869  0.033729711            5 
 2316000   0.88695791   -6.0217241    939.52412   0.03380556  0.033720809            2 
 2317000   0.88000886   -6.0124593    941.46867  0.033860907  0.033711837            4 
 2318000   0.87338359   -5.9756571     940.6233  0.033815908  0.033703061            6 
 2319000   0.87624283   -6.0219578    940.82276  0.033808494  0.033694244            4 
 2320000   0.88921702     -6.00337    940.45818  0.033780825   0.03368524           10 
 2321000   0.88521203   -6.0239109    939.75274  0.033740943  0.033676238           10 
 2322000   0.87508379   -6.0087146      944.113  0.033882896  0.033667376            5 
 2323000   0.87358501   -6.0459783    937.98298  0.033648407   0.03365846            8 
 2324000   0.86698165   -5.9987405    944.68141  0.033874118  0.033649538            6 
 2325000   0.87851112   -6.0101425    944.05603  0.033837134  0.033640755            3 
 2326000   0.90184217   -6.0160819    941.70152  0.033738231  0.033631972            3 
 2327000   0.86382649   -5.9836001    943.62723  0.033792695  0.033623088            6 
 2328000   0.89766285   -6.0124865    942.05165   0.03372178  0.033614236            9 
 2329000   0.87412207   -6.0047592    944.36258  0.033789988  0.033605401            6 
 2330000    0.8988435   -6.0234874    943.06819  0.033729191  0.033596476            7 
 2331000   0.85833006   -6.0291473    945.21238  0.033791376  0.033587669            6 
 2332000   0.87132584    -5.993725    944.38372  0.033747274  0.033578874            5 
 2333000   0.89579618   -6.0196493    943.46514  0.033699998   0.03357003           11 
 2334000   0.86557284   -6.0008401    947.65371  0.033835108   0.03356127            9 
 2335000   0.84993866   -6.0149893    943.94731  0.033688341  0.033552431            6 
 2336000    0.8754309    -6.027653    946.53658  0.033766288  0.033543603            4 
 2337000   0.86565933   -6.0143899    945.31608  0.033708318  0.033534813            6 
 2338000   0.86854266   -6.0335044    943.98043  0.033646294  0.033525957            6 
 2339000   0.89390117   -6.0171901    944.19357  0.033639503   0.03351705           12 
 2340000   0.88346992   -6.0178839    945.86778   0.03368475  0.033508188            9 
 2341000    0.8706718   -6.0261613    947.30904  0.033721666  0.033499339            6 
 2342000   0.87488574   -6.0085033    945.48063  0.033642209   0.03349058            6 
 2343000   0.88644808   -6.0379692     941.6121  0.033490258  0.033481653            7 
 2344000   0.87402966   -5.9930407    947.66797  0.033691267  0.033472869            9 
 2345000   0.87079858   -5.9986458    945.84172  0.033612001  0.033464147            7 
 2346000   0.90276905    -6.006016    943.50953  0.033514831  0.033455367            4 
 2347000   0.88572024   -6.0093334    946.80588  0.033617593  0.033446709            6 
 2348000   0.87000953   -5.9893748    948.74498  0.033672096  0.033438039           13 
 2349000   0.87509571   -5.9974968    948.72742  0.033657138  0.033429334            6 
 2350000   0.87337275   -5.9837824    952.01044  0.033759235  0.033420677            8 
 2351000   0.88022553   -5.9924785     949.7206   0.03366371  0.033411963            5 
 2352000    0.8905843    -6.004101    949.36276  0.033636719    0.0334032           11 
 2353000   0.87214746   -6.0253904    946.74218  0.033529614  0.033394485            7 
 2354000   0.87336923   -6.0197512    946.88792  0.033520529   0.03338571            6 
 2355000   0.87897392   -6.0069129    948.22817  0.033553722  0.033376923            7 
 2356000   0.85237117   -6.0149901    946.26611   0.03347008  0.033368099            5 
 2357000   0.88179972   -6.0237138    948.50476  0.033535029  0.033359281            3 
 2358000   0.88193993   -6.0568515    945.67789  0.033420904  0.033350369           11 
 2359000   0.87596754   -6.0297778    948.86389  0.033519284  0.033341609            5 
 2360000   0.87391435   -6.0475542    946.79826  0.033432142  0.033332809           14 
 2361000   0.85751666   -6.0477268    946.23694   0.03339817  0.033324014            5 
 2362000   0.89364168   -6.0310692    947.91539  0.033443247  0.033315285            4 
 2363000   0.86708469   -6.0241918    950.90042  0.033534364  0.033306537            4 
 2364000   0.88496107    -5.975083     953.5576  0.033613847   0.03329792            6 
 2365000   0.86157762   -6.0286709    952.73952  0.033570808   0.03328936            4 
 2366000    0.8777978   -6.0237771    951.98236  0.033529951  0.033280657            5 
 2367000   0.86866256   -6.0340607    953.34765  0.033563852   0.03327199            4 
 2368000   0.87211503   -6.0533513    948.41089  0.033375946  0.033263387            5 
 2369000   0.87105603    -6.028271     949.7642  0.033409462  0.033254691            4 
 2370000   0.89031351   -6.0011429    952.49311  0.033491319  0.033246083            4 
 2371000   0.88194664   -6.0176097    954.12041  0.033534388  0.033237439            5 
 2372000    0.8697528   -6.0180304    951.92322  0.033443059   0.03322865           13 
 2373000   0.87775627   -6.0397564    952.47438  0.033448321  0.033219957            5 
 2374000   0.85550063     -6.04231      951.828  0.033411542  0.033211254            5 
 2375000   0.89110073     -6.03258    951.63114  0.033390566  0.033202575           12 
 2376000   0.88803784   -6.0293978    954.42517  0.033474508  0.033193899            3 
 2377000   0.88003472   -6.0248256    952.47018  0.033391887  0.033185229            5 
 2378000   0.86838014   -6.0209816    952.83366  0.033390583  0.033176579            4 
 2379000    0.8796241   -6.0516007    954.85264  0.033447269   0.03316788           14 
 2380000     0.874679   -6.0307655    954.79083  0.033431051  0.033159315            8 
 2381000    0.8617437    -6.006418    953.54335   0.03337335  0.033150734            6 
 2382000   0.86617116   -6.0130513    953.90911  0.033372135  0.033142131            3 
 2383000   0.86253444   -6.0149044     955.7951  0.033424084  0.033133552            4 
 2384000   0.87166091   -6.0324983    953.17322  0.033318415  0.033124881            8 
 2385000   0.87507888   -6.0535895    950.99021  0.033228169  0.033116198            4 
 2386000   0.84918162   -6.0353498    954.00515  0.033319543  0.033107425            5 
 2387000   0.89646316   -6.0211977    958.93313  0.033477626  0.033098791            5 
 2388000   0.87049788   -6.0486296    953.52394  0.033274845  0.033090033           12 
 2389000   0.88205487    -6.058019     952.8575  0.033237669  0.033081305            6 
 2390000   0.86139056   -6.0297498    955.36898  0.033311331  0.033072495            3 
 2391000   0.88431471   -6.0015138    956.70902  0.033344104  0.033063859            4 
 2392000   0.86691393   -6.0450737    955.69042  0.033294677  0.033055193           10 
 2393000   0.85582229   -6.0393488    953.27158  0.033196531  0.033046371            5 
 2394000   0.86300915   -6.0570046    954.55811  0.033227447  0.033037651            6 
 2395000   0.88078865    -6.020846    957.14422  0.033303557  0.033028919            7 
 2396000   0.87870275   -6.0458591    953.36017  0.033158047  0.033020142            4 
 2397000   0.87719892   -6.0411091    953.58187  0.033151921  0.033011389            2 
 2398000    0.8601085   -6.0253155    954.54966  0.033171728  0.033002617            6 
 2399000   0.85801091    -6.043139    957.14908  0.033248197  0.032993954            6 
 2400000   0.85760589   -6.0900215    952.19991  0.033062497  0.032985188            5 
 2401000    0.8561779   -6.0359119    954.96673  0.033144757  0.032976394            6 
 2402000    0.8721692   -6.0675068    956.60977   0.03318796   0.03296773            4 
 2403000   0.86922204   -6.0437378    953.32786  0.033060337  0.032958968            4 
 2404000    0.8491789   -6.0513593     954.9045  0.033101237  0.032950221            5 
 2405000   0.88149644   -6.0283811    957.19693  0.033166907  0.032941485            7 
 2406000   0.85780087   -6.0545279    956.06283  0.033113842  0.032932614            4 
 2407000   0.87887415   -6.0325335    956.92532  0.033129945  0.032923888            5 
 2408000   0.84900809   -6.0470173    955.32989  0.033060974  0.032915112            6 
 2409000   0.85350441   -6.0597585    955.78597  0.033063026  0.032906363            7 
 2410000   0.86101408   -6.0250503    960.15861  0.033200505  0.032897719            3 
 2411000   0.86651853   -6.0440115    957.70851   0.03310205  0.032888923            8 
 2412000   0.85417768   -6.0093869    957.89366  0.033094723  0.032880166            5 
 2413000   0.88375955   -6.0442316    955.10251  0.032984615  0.032871411            7 
 2414000   0.89177539   -6.0372019    956.58438  0.033022107  0.032862604            5 
 2415000   0.88222673   -6.0604638     957.6132  0.033043934  0.032853889            5 
 2416000   0.86397707   -6.0704772     955.5464  0.032958968  0.032845005            5 
 2417000   0.86190307   -6.0557803    957.98927  0.033029557  0.032836201            5 
 2418000   0.85683669   -6.0459118     955.5853  0.032933047  0.032827381            5 
 2419000   0.86246791   -6.0288246    956.97954  0.032967464   0.03281863            8 
 2420000   0.86506974   -6.0533798    958.94783   0.03302162  0.032809827            7 
 2421000   0.85984362   -6.0593414    956.79491  0.032933874   0.03280102            6 
 2422000   0.87608731   -6.0359061     962.2641  0.033108454  0.032792154            8 
 2423000   0.84279471   -6.0558101    955.69981  0.032869026  0.032783338           10 
 2424000   0.86266647   -6.0512867    959.28022  0.032978555  0.032774544            5 
 2425000   0.86072517   -6.0393327    960.71029  0.033014099  0.032765745            2 
 2426000   0.84675289   -6.0765155    956.58206  0.032858686  0.032756973            7 
 2427000   0.85662713   -6.0172439    961.56419  0.033016213  0.032748139            6 
 2428000   0.85015718   -6.0220776    962.62856  0.033039146  0.032739526            4 
 2429000   0.85140959   -6.0750582    957.46359  0.032848346   0.03273077           11 
 2430000   0.84722933   -6.0833106    957.82121  0.032847092  0.032721903           11 
 2431000   0.86062856   -6.0511267    961.06284  0.032944702  0.032713063            7 
 2432000    0.8667591   -6.0738152    960.64905  0.032916977  0.032704366            8 
 2433000   0.86895282   -6.0469897    959.54309  0.032865567  0.032695532            7 
 2434000   0.88159775   -5.9990591     962.4224  0.032950644  0.032686815            3 
 2435000   0.84537348   -6.0658829    957.30151  0.032761858   0.03267812           11 
 2436000   0.87488645    -6.060973     959.3488  0.032818445  0.032669331            6 
 2437000   0.87154305   -6.0676506    958.60339  0.032779489  0.032660534            5 
 2438000   0.85800262   -6.0530179    959.79284  0.032806701  0.032651709            4 
 2439000   0.86163801   -6.0430005    961.62368  0.032855804  0.032642942           10 
 2440000   0.84859972   -6.0259657    960.44723  0.032802159  0.032634067            8 
 2441000   0.85862578   -6.0499753    960.92335  0.032804976  0.032625303            4 
 2442000   0.86216632   -6.0582082    958.76848  0.032718007  0.032616432            6 
 2443000   0.85048787    -6.028229    962.39861  0.032828442  0.032607563            4 
 2444000   0.87270088    -6.094494    960.40334  0.032746977  0.032598658           15 
 2445000   0.85879754    -6.058458     961.1468  0.032758923  0.032589782           14 
 2446000   0.87464881   -6.0818718    959.64641  0.032694413  0.032580985            8 
 2447000    0.8611269   -6.0542192    964.46965  0.032845309  0.032572169            4 
 2448000   0.84743293   -6.0544187     963.0089  0.032782166  0.032563382            5 
 2449000   0.86090414   -6.0695155    960.54325   0.03268488  0.032554491            6 
 2450000   0.86099381   -6.0562601    964.15896  0.032794522  0.032545603            5 
 2451000   0.87039858   -6.0371445    965.35191  0.032821702  0.032536775            7 
 2452000   0.84810519   -6.0496409    963.76904  0.032754522  0.032527952            7 
 2453000   0.85406585   -6.0824597    960.60782  0.032633776  0.032519215            6 
 2454000   0.86776219   -6.0317768    964.31965  0.032746524  0.032510443            4 
 2455000   0.87181932   -6.0246964    960.28524   0.03259624  0.032501625            5 
 2456000   0.86824189   -6.0584135    961.84793  0.032635991  0.032492784            4 
 2457000   0.87502747   -6.0476191    963.16586  0.032667408     0.032484            9 
 2458000   0.85236266   -6.0658501    961.57743  0.032600265  0.032475302            6 
 2459000   0.87989837   -6.0902542    964.90652  0.032699828  0.032466444           13 
 2460000   0.86555035   -6.0765448    962.68811  0.032611386  0.032457657           10 
 2461000    0.8664865   -6.0841916    963.46339  0.032624387  0.032448843            3 
 2462000   0.85117385    -6.097937    962.79312  0.032588448  0.032440129            7 
 2463000   0.87457233   -6.0864896    963.97927  0.032615349  0.032431395            8 
 2464000   0.85081895   -6.0355701    965.85401  0.032665517  0.032422769            5 
 2465000   0.85765924   -6.0500072    967.89651  0.032721315  0.032414196           10 
 2466000    0.8563732   -6.0759052    966.76839  0.032669924   0.03240561            4 
 2467000   0.85865145   -6.0609148    964.19241  0.032569667  0.032397047            7 
 2468000   0.86227593   -6.0367733    967.42974   0.03266578  0.032388525            7 
 2469000   0.86705074   -6.0386103    968.39146  0.032685009  0.032379916            4 
 2470000   0.86418627   -6.0608259    967.93706  0.032656446  0.032371312            8 
 2471000   0.86189776   -6.0710977    966.57824  0.032597405  0.032362696            4 
 2472000   0.84350808   -6.0488577    967.42094  0.032612626  0.032353996            7 
 2473000   0.84699264   -6.0721219    964.79638  0.032510998  0.032345226            6 
 2474000   0.86675076   -6.0851398    965.89576  0.032534888  0.032336543           10 
 2475000   0.85780014    -6.062804    967.00418  0.032559063  0.032327808            3 
 2476000   0.85752274   -6.0904486     967.6479  0.032567579  0.032319121            4 
 2477000    0.8530009   -6.0563936    968.22102  0.032573712  0.032310487            5 
 2478000   0.84712771   -6.0845509    965.41796  0.032466302  0.032301734            6 
 2479000   0.84068327   -6.0764977    966.02879  0.032473739  0.032292971            6 
 2480000    0.8661397   -6.0874324    967.68655  0.032516349  0.032284153            7 
 2481000   0.85445609   -6.0572326    967.71496  0.032504197  0.032275355           14 
 2482000   0.84312752   -6.0579563    967.28671  0.032476723  0.032266635            6 
 2483000   0.86812376   -6.0842314    966.25495  0.032429016  0.032257978            5 
 2484000   0.84614575   -6.0780021    967.68439  0.032463915  0.032249244            5 
 2485000   0.84168753   -6.0811822    967.61346  0.032448473  0.032240446           12 
 2486000   0.86226101   -6.0626816    970.02996  0.032516424  0.032231683           10 
 2487000   0.85366346   -6.0490699    970.79498  0.032528983  0.032223014            6 
 2488000   0.86077144   -6.0998862     967.3642  0.032400998  0.032214347            7 
 2489000   0.84234436   -6.0890536    967.06901  0.032378097  0.032205578           12 
 2490000    0.8691251   -6.0697885    967.97221  0.032395321  0.032196923           12 
 2491000   0.84986665   -6.0770426    969.43914  0.032431391  0.032188146            7 
 2492000   0.85987495   -6.0666764    969.53499  0.032421582   0.03217938           12 
 2493000   0.86977413   -6.0668003    969.35032  0.032402404  0.032170673           10 
 2494000   0.84373953   -6.0675934    972.33437   0.03248912  0.032162057            6 
 2495000   0.85255331   -6.0582671     972.0294  0.032465912  0.032153424            5 
 2496000   0.83703544   -6.0681705    971.40209  0.032431961  0.032144734            4 
 2497000   0.86421477   -6.0533451    970.17438     0.032378  0.032136025            3 
 2498000   0.85160005   -6.0457566     970.3495   0.03237088  0.032127443            5 
 2499000   0.85378158   -6.0886438    969.29569  0.032322785  0.032118753            5 
 2500000    0.8494429   -6.0289633    972.35997  0.032411999  0.032110148            7 
 2501000   0.86178756   -6.0904785    969.89349  0.032316856  0.032101549            3 
 2502000   0.82942173   -6.0583811    968.99271  0.032273938  0.032092837           16 
 2503000   0.83478058   -6.0535119    969.51876  0.032278558  0.032084147            6 
 2504000   0.83970363   -6.0404012    969.09778  0.032251657  0.032075421            6 
 2505000   0.85576203   -6.0893329    968.01365  0.032202716  0.032066677           14 
 2506000   0.84071849   -6.1005011    966.77809  0.032148779  0.032057903            6 
 2507000   0.85575641   -6.0912411    969.89559  0.032239582  0.032049074           10 
 2508000   0.86822249   -6.0899189    969.05569   0.03219882  0.032040337            9 
 2509000   0.87641787   -6.0878686    970.49519  0.032233798  0.032031565            6 
 2510000   0.84013481   -6.0505452    970.40105   0.03221783    0.0320229            4 
 2511000     0.850864     -6.10282    969.88714  0.032187944  0.032014278           11 
 2512000   0.83814558   -6.1024115    970.54545  0.032196969  0.032005537            7 
 2513000    0.8404492   -6.0746871    975.42937  0.032346112   0.03199688            4 
 2514000    0.8430868   -6.0851605    973.87082  0.032281584  0.031988186            5 
 2515000   0.85294146   -6.0706651     969.6365  0.032128446   0.03197949           10 
 2516000   0.86284021   -6.1036344    971.01635  0.032161379   0.03197073            7 
 2517000   0.84121802   -6.0879394     972.3652  0.032193259  0.031961975            6 
 2518000   0.83899389   -6.0968898    973.61703  0.032221903  0.031953247            4 
 2519000   0.85317036   -6.0761344    974.13043  0.032226096  0.031944575            6 
 2520000    0.8218516   -6.0761885    974.61255  0.032229251     0.031936            9 
 2521000   0.85380238   -6.1224325    973.40597  0.032176582  0.031927354            7 
 2522000   0.84265903   -6.0931674    974.38691  0.032196237  0.031918732           14 
 2523000   0.85129903   -6.0996262    972.69449  0.032127576  0.031910119            4 
 2524000   0.84773565   -6.0716084    973.46037  0.032140134  0.031901494            9 
 2525000   0.84222791   -6.1056427    971.27149  0.032055165  0.031892987            4 
 2526000   0.83821841   -6.0954976    973.85655  0.032127756  0.031884392           11 
 2527000    0.8434523   -6.0875586    977.91357  0.032248832  0.031875824            6 
 2528000   0.85190548   -6.0802319    974.44388    0.0321217  0.031867241           10 
 2529000   0.83901272   -6.0898441    976.11297  0.032163997  0.031858679            4 
 2530000   0.83246408    -6.056649     977.9217   0.03221086  0.031850047            6 
 2531000   0.84598059   -6.1098999    972.97844  0.032035376  0.031841437            8 
 2532000    0.8421648   -6.0947026     972.3365  0.032001596  0.031832743            5 
 2533000   0.85800896   -6.0812091    974.42371   0.03205763   0.03182413            6 
 2534000   0.85126847   -6.0882674    972.99658  0.031998046  0.031815546            9 
 2535000   0.84403683   -6.0722781    974.04767  0.032019976  0.031806894            4 
 2536000   0.81964872   -6.0931171    972.75181  0.031964768  0.031798253            6 
 2537000   0.85975648    -6.122529    975.19505  0.032032422  0.031789605            4 
 2538000    0.8490614   -6.0953655    976.24163  0.032054164  0.031781024            2 
 2539000   0.82272678    -6.072419    975.47127  0.032016255  0.031772464            6 
 2540000   0.83927181   -6.0471609      975.824  0.032015223  0.031763988            5 
 2541000   0.83928642   -6.0529147    976.36166  0.032020256  0.031755408            3 
 2542000   0.84481554   -6.0901979    975.66155  0.031984709  0.031746868            4 
 2543000   0.84525787   -6.0933389    973.66801  0.031906803  0.031738247            5 
 2544000   0.83180488   -6.0744243     977.7982  0.032029553  0.031729596            6 
 2545000   0.84765514   -6.0635986    979.08803  0.032059202  0.031721099            6 
 2546000     0.832247   -6.0882676    975.44564  0.031927391  0.031712631            8 
 2547000   0.86633036   -6.0926423    978.20234   0.03200505  0.031704049            4 
 2548000   0.86512521   -6.0615347    979.57336  0.032037329  0.031695556            5 
 2549000   0.85554946   -6.0815807    977.10305  0.031943999  0.031687098            5 
 2550000   0.83842398   -6.0722867    982.02303  0.032092256  0.031678727            7 
 2551000   0.85254668   -6.1179114    980.80909   0.03204002   0.03167026            8 
 2552000    0.8213238   -6.1115855    975.07434  0.031840202  0.031661694            7 
 2553000   0.84780131   -6.1306411    977.71881  0.031914049  0.031653102            3 
 2554000   0.84854437   -6.1133887    978.16384  0.031916074  0.031644612           19 
 2555000   0.83778322   -6.0910839    980.33771  0.031974485  0.031636125           10 
 2556000   0.86716332   -6.1256048    980.51846  0.031967869  0.031627655            4 
 2557000   0.84406735   -6.0784492    981.23406  0.031978688  0.031619163            3 
 2558000   0.82678803   -6.1057494    978.10213  0.031864156  0.031610714            2 
 2559000   0.82960786   -6.0867593    980.16579  0.031918907  0.031602223            6 
 2560000    0.8396471   -6.0797373    981.21218  0.031940501  0.031593828            7 
 2561000   0.84755672   -6.0931523    979.84819  0.031883645  0.031585417            7 
 2562000   0.83672805   -6.0611023    982.62431  0.031961499  0.031576941           14 
 2563000   0.83300475   -6.0993647    981.96409  0.031927562  0.031568569            4 
 2564000   0.83891589   -6.1034002     980.5434  0.031868935  0.031560074            5 
 2565000   0.85384367   -6.0713926    984.48114  0.031984442  0.031551635            8 
 2566000   0.84672751    -6.087852    979.72613  0.031817554  0.031543249           14 
 2567000   0.86850576   -6.0830259    980.68555  0.031836305  0.031534818            4 
 2568000   0.85813444   -6.1174206     980.7724  0.031826726  0.031526312            7 
 2569000   0.83271904   -6.1024855    980.52243  0.031806229  0.031517807            8 
 2570000   0.83792425    -6.093107    982.72643  0.031865319  0.031509396            9 
 2571000   0.84216118   -6.0977215    982.52961  0.031846545   0.03150101           12 
 2572000   0.85503686   -6.1356735     979.7986  0.031745678  0.031492508            4 
 2573000   0.84190288   -6.0833434    982.92633  0.031834639   0.03148408            5 
 2574000   0.84311899   -6.1169926    982.86502  0.031820287  0.031475596            8 
 2575000   0.83978957   -6.1349752    981.26786  0.031756241  0.031467152            5 
 2576000   0.83013056   -6.0800869    985.45303  0.031879304  0.031458762            4 
 2577000   0.83345657    -6.112412    981.54018  0.031740402  0.031450337            6 
 2578000    0.8385476   -6.1075868    983.68573  0.031797444  0.031441909            6 
 2579000   0.84145981   -6.0717547    984.57545  0.031813864  0.031433591            5 
 2580000   0.83993986   -6.1148269    984.02305   0.03178369  0.031425266            9 
 2581000   0.82619079   -6.0978561    985.35176  0.031814276  0.031416983            5 
 2582000   0.84808178   -6.1020166    985.22847  0.031797976  0.031408641           13 
 2583000   0.83000376   -6.0932028    982.55983  0.031699569  0.031400196           14 
 2584000   0.83528722   -6.0885043    984.55819  0.031751748  0.031391744           11 
 2585000   0.82910898   -6.1314844    983.89978  0.031718239  0.031383355            6 
 2586000   0.83938838   -6.1015766    984.49045  0.031725008  0.031374912            5 
 2587000   0.83971686   -6.1089687    981.95338   0.03163102  0.031366555           13 
 2588000   0.84573839   -6.0954834    984.61787  0.031704594  0.031358201            9 
 2589000   0.81427067   -6.1084121    987.53025   0.03178609  0.031349758           10 
 2590000   0.84210313   -6.0991238    985.40592  0.031705467  0.031341331            7 
 2591000   0.82722535   -6.1237317    984.29151  0.031657388  0.031332943            6 
 2592000   0.81965316   -6.0948422    986.87111  0.031728109  0.031324582            8 
 2593000   0.82816701   -6.0998204    987.28135  0.031729058  0.031316248            8 
 2594000   0.81854892   -6.1095831    985.93494  0.031673572   0.03130787            9 
 2595000   0.83054135   -6.0998703    986.27742  0.031672364  0.031299566            7 
 2596000   0.81805059   -6.1135065    986.25956   0.03165959  0.031291201           13 
 2597000   0.82086452   -6.1248488    985.58336  0.031625701  0.031282849            6 
 2598000   0.82211491   -6.1344579    985.63209  0.031615091  0.031274548            4 
 2599000   0.82712066   -6.1046109    987.25127  0.031654844  0.031266309            6 
 2600000   0.84703681   -6.1214928    984.74408   0.03156231  0.031258002           11 
 2601000   0.83316443   -6.1358932     987.3208  0.031632731  0.031249628            4 
 2602000   0.83136559   -6.0973497    986.29314  0.031587661  0.031241229            6 
 2603000   0.82229208   -6.1037168    988.55655  0.031647988  0.031232972            7 
 2604000    0.8463875   -6.1125284    986.77832  0.031578927  0.031224585            7 
 2605000   0.82281255   -6.0778943    989.35015  0.031649077  0.031216357            4 
 2606000   0.83651319    -6.123889     989.6043  0.031645059  0.031208001            7 
 2607000   0.83581314    -6.134721    986.41107  0.031530849  0.031199684            5 
 2608000   0.84775831   -6.1274117    984.27251  0.031450425  0.031191272            5 
 2609000   0.83552273   -6.1301382     988.5881  0.031576214  0.031182953            7 
 2610000   0.83548625   -6.1350246    987.27138  0.031522075  0.031174631           10 
 2611000   0.82194526   -6.1053603    989.45048  0.031579551  0.031166363           10 
 2612000   0.85419193   -6.1013003    990.02495  0.031585788  0.031158077            4 
 2613000   0.82898399    -6.141926    987.94633  0.031507409  0.031149751            5 
 2614000   0.84412614   -6.1447313    983.82617  0.031364007  0.031141354            7 
 2615000   0.82960412   -6.0941284    988.45102  0.031499395  0.031133006            9 
 2616000    0.8373102   -6.1305792    987.33066  0.031451665  0.031124694            6 
 2617000   0.83370098   -6.1298657    989.26289  0.031501175  0.031116275            7 
 2618000   0.81440056   -6.1415069    986.71134  0.031407924  0.031107905            4 
 2619000   0.81753178   -6.1117367    988.03447  0.031438032  0.031099546            3 
 2620000   0.81521756   -6.1231225    987.23576  0.031400628  0.031091227            8 
 2621000   0.82901051   -6.1251334    990.52903  0.031493356  0.031082903            5 
 2622000    0.8379121   -6.1179432    990.55287  0.031482102  0.031074539            7 
 2623000   0.84448557    -6.144006    986.78567  0.031350415  0.031066187            5 
 2624000   0.84085279   -6.1350396     987.6805  0.031366886  0.031057805           14 
 2625000   0.83797422    -6.155591    989.67195  0.031418157   0.03104942            7 
 2626000   0.83277648   -6.1304495    990.12131  0.031420453  0.031041085            7 
 2627000   0.82550443   -6.1373686    990.92586  0.031434014  0.031032758           13 
 2628000   0.83793415   -6.1183685    991.28806  0.031433538   0.03102441            7 
 2629000   0.83208783   -6.1205013     988.1169  0.031321063  0.031016073            5 
 2630000   0.82528585   -6.1458984    989.91976  0.031366279  0.031007692            6 
 2631000   0.83435557    -6.114007    992.62568  0.031440063   0.03099933            6 
 2632000   0.82400397   -6.1366928    991.02186  0.031377338  0.030991021            9 
 2633000   0.82324588    -6.155681    988.36579  0.031281358  0.030982706           16 
 2634000   0.82334791   -6.1210944    989.61308  0.031308943  0.030974387            9 
 2635000   0.83821962   -6.1539516    988.02042  0.031246693  0.030966051            6 
 2636000   0.83924701    -6.126645    990.34828  0.031308431   0.03095767           12 
 2637000   0.81919878   -6.1338053    988.85052  0.031249226  0.030949303            4 
 2638000   0.83373627   -6.1252394    990.23901  0.031281242  0.030940917            9 
 2639000   0.80538436   -6.1178581    991.18378  0.031299222  0.030932549            6 
 2640000   0.83369933   -6.1584984    990.62263  0.031269654  0.030924179            4 
 2641000   0.84533572   -6.1136644    990.17141  0.031243576  0.030915812            9 
 2642000   0.84278312   -6.1403504    989.58556  0.031213272  0.030907439            5 
 2643000   0.81153467   -6.1113935    993.42615  0.031322555  0.030899038           11 
 2644000    0.8152387   -6.1225273    989.73471  0.031194362  0.030890732           10 
 2645000   0.82706737   -6.1205736    990.34272  0.031201724  0.030882416            7 
 2646000   0.83475422   -6.1350078    992.27482  0.031250782  0.030874132            8 
 2647000   0.83698549   -6.1763068    991.68259  0.031220331  0.030865835            8 
 2648000   0.80978267   -6.1357598    990.32383   0.03116578  0.030857502           10 
 2649000   0.81681419   -6.1579034    990.55717  0.031161355  0.030849231            9 
 2650000   0.82693733   -6.1379815    993.69967  0.031248417  0.030840937            7 
 2651000   0.82398223   -6.1277195     992.2689  0.031191654  0.030832566           12 
 2652000   0.83310595   -6.1504705    991.71186  0.031162389   0.03082424            6 
 2653000   0.80844969   -6.1312055    991.33487  0.031138801  0.030815914            9 
 2654000   0.82707402   -6.1693086     990.8626  0.031112239  0.030807533           14 
 2655000   0.85263312   -6.1464423    993.19608  0.031173763  0.030799156            6 
 2656000   0.83925494   -6.1461034    991.53836  0.031110014  0.030790744            5 
 2657000   0.82332016   -6.1323108    989.44573  0.031032672  0.030782279           11 
 2658000   0.82691183   -6.1369196    994.29661  0.031173082  0.030773871            7 
 2659000   0.82526773   -6.1167687    989.79129  0.031020161  0.030765514            7 
 2660000   0.81578365   -6.1145999    994.32799  0.031150626  0.030757218            6 
 2661000   0.82457627   -6.1554822     993.6659  0.031118186  0.030748925            7 
 2662000   0.82838966    -6.142529    993.54784    0.0311028  0.030740574            3 
 2663000   0.82406225   -6.1688521    991.64838  0.031031681  0.030732241            9 
 2664000   0.84557101   -6.1342898    996.76382  0.031180049  0.030723936            6 
 2665000   0.85171072   -6.1456035    995.29385  0.031122384  0.030715678           10 
 2666000    0.8100776   -6.1471628    995.19454  0.031107606  0.030707411            8 
 2667000   0.83029133   -6.1486208    996.14463  0.031125629  0.030699089            5 
 2668000   0.81412869   -6.1577335    994.69841  0.031068791  0.030690838            3 
 2669000   0.82937648   -6.1619643    992.06424  0.030974904  0.030682473            5 
 2670000   0.81590553   -6.1449295    995.76311  0.031078749  0.030674168            9 
 2671000   0.81907876   -6.1556995    995.89915  0.031071358  0.030665853           13 
 2672000   0.82182796   -6.1746222    993.36912  0.030980823  0.030657577            6 
 2673000    0.8126337   -6.1444798    997.79978  0.031107363  0.030649387            7 
 2674000   0.84117795   -6.1525139    994.97362  0.031007655   0.03064111            8 
 2675000    0.8184004   -6.1268239    996.36738  0.031039482   0.03063286            5 
 2676000   0.83066836   -6.1386387    996.73658   0.03103938  0.030624589            7 
 2677000   0.81501269   -6.1659557    993.95716  0.030941264  0.030616347           13 
 2678000      0.83189   -6.1457137    997.16924  0.031029663  0.030608069            8 
 2679000   0.81668816   -6.1122304    998.82862  0.031069697  0.030599862            5 
 2680000    0.8110465   -6.1456405      997.966  0.031031281  0.030591671            6 
 2681000   0.84286141   -6.1454848     998.4288  0.031034092  0.030583438            6 
 2682000   0.82380399     -6.15401    996.10194  0.030950222  0.030575117            5 
 2683000   0.82593607   -6.1305078    997.27423  0.030975097  0.030566852           11 
 2684000   0.81606687   -6.1551979    996.00079  0.030924019  0.030558547            6 
 2685000   0.83735921   -6.1437684    997.41455   0.03095638  0.030550257            8 
 2686000   0.81117652   -6.1248366    997.94335   0.03096126  0.030541949            5 
 2687000   0.81542669   -6.1955455    994.93176  0.030856338  0.030533656            7 
 2688000   0.80358667   -6.1779743    997.73466  0.030931754  0.030525308            9 
 2689000   0.82556034   -6.1402468    998.52863  0.030944856  0.030517093            8 
 2690000   0.82981754   -6.1523156    997.39424  0.030898211  0.030508852            8 
 2691000   0.83866268    -6.154286    998.27095  0.030913878  0.030500579           12 
 2692000   0.82447697   -6.1451746    996.93543  0.030861052  0.030492285            7 
 2693000   0.82032688   -6.1902748    995.12951  0.030793709  0.030483995            6 
 2694000   0.80658974   -6.1243626     997.8295  0.030865798  0.030475727            3 
 2695000   0.82149466   -6.1511895    1000.0888  0.030924207  0.030467415            4 
 2696000   0.84045233   -6.1575834    995.20816  0.030761875  0.030459096            7 
 2697000   0.80251234    -6.110054    999.77711  0.030891642  0.030450883           13 
 2698000   0.82469107   -6.1661048    997.26374  0.030802562  0.030442659           12 
 2699000     0.824784   -6.1537977     996.8895  0.030779594  0.030434342            6 
 2700000   0.83937177   -6.1266367    998.04601  0.030803889  0.030426075            3 
 2701000   0.82627117   -6.1668372    1000.0762  0.030855122  0.030417855            8 
 2702000    0.8044538   -6.1676052    996.15933  0.030722901  0.030409535            7 
 2703000   0.82197649   -6.1599305    998.34055  0.030778781  0.030401166            6 
 2704000   0.80688624   -6.1514686    1000.6205  0.030837663   0.03039294           10 
 2705000   0.81977131   -6.1299462    996.98901  0.030714387  0.030384727            7 
 2706000    0.8286042   -6.1723261    1001.5897  0.030844719  0.030376497           11 
 2707000    0.8318293   -6.1554283    998.70083  0.030744392  0.030368295            8 
 2708000   0.82506702   -6.1070847    1000.5227  0.030789102  0.030360104           17 
 2709000   0.81841223   -6.1733979    998.50721  0.030715738  0.030351908            7 
 2710000   0.81482611   -6.1452481    1002.2999  0.030821031   0.03034365            7 
 2711000    0.8304375   -6.1599063    998.60343  0.030696036  0.030335381           15 
 2712000   0.79097141   -6.1495537    1000.6122  0.030746443  0.030327125           11 
 2713000   0.80443039   -6.1495036    999.00964  0.030685884  0.030318795            6 
 2714000   0.80425037   -6.1618536     999.5258  0.030690426  0.030310562            5 
 2715000   0.81044634   -6.1768732    997.20795  0.030607979  0.030302237            5 
 2716000   0.80541338   -6.1682632    1001.2192  0.030719785  0.030293888            3 
 2717000   0.81921771   -6.1689152    999.84879  0.030666446  0.030285618            9 
 2718000   0.81123614   -6.1628126    1000.9064  0.030687588  0.030277341            6 
 2719000   0.79902742   -6.1561091    999.68392  0.030638835  0.030269079            3 
 2720000   0.82251333    -6.169022    998.59816  0.030594306  0.030260794            6 
 2721000   0.81936363   -6.1632239     1001.096  0.030659561  0.030252522            6 
 2722000   0.83157653    -6.175314    1001.0507  0.030646911  0.030244266            7 
 2723000   0.82219003   -6.1824876     1001.902   0.03066171  0.030236009           17 
 2724000   0.81880634   -6.1509801    1001.6243  0.030641957  0.030227684            8 
 2725000   0.81627678   -6.1462246    1002.1615  0.030647142  0.030219461           21 
 2726000   0.80514959   -6.1575153    999.28205  0.030547874  0.030211216            7 
 2727000   0.81562267   -6.1429966    1002.5758  0.030637326     0.030203            4 
 2728000   0.81555308   -6.1496605    999.83777  0.030542454  0.030194735            6 
 2729000   0.82970696   -6.1614823    1003.6259  0.030646936  0.030186496            7 
 2730000   0.82472767   -6.1668589    1001.5626  0.030572728  0.030178279            8 
 2731000   0.81150292   -6.1394825    1003.8333  0.030630822  0.030170156            6 
 2732000   0.82878878   -6.1420208    1005.3949  0.030667244  0.030162047            5 
 2733000   0.80363399    -6.189013    1000.6263  0.030510621  0.030153889           17 
 2734000   0.79991399   -6.1716232     1001.517  0.030526611  0.030145645            6 
 2735000   0.82185173   -6.1904049    1003.6392  0.030580109  0.030137411           22 
 2736000   0.81148698   -6.1798887     1004.216    0.0305865  0.030129149            7 
 2737000   0.80402657   -6.1533087    1002.1549  0.030512573  0.030120927           10 
 2738000   0.79512504   -6.1947535    1002.1537   0.03050139  0.030112738            4 
 2739000   0.80947226   -6.1979881     1003.062   0.03051789  0.030104528            4 
 2740000     0.812717   -6.1801173    1003.8338  0.030530226  0.030096317            5 
 2741000   0.80781523   -6.1715766    1004.2267  0.030531031   0.03008816            8 
 2742000   0.79346864   -6.1936683      1002.97  0.030481705  0.030080026           19 
 2743000   0.81622504   -6.1612464    1005.7567  0.030555251  0.030071819            8 
 2744000   0.81635877   -6.1805781    1001.6808  0.030420334  0.030063632           11 
 2745000   0.81974164   -6.1742236    1007.3711     0.030582  0.030055573            9 
 2746000   0.84331211   -6.1758824    1006.0655  0.030531244  0.030047499            6 
 2747000   0.79957162   -6.1639723    1007.4899  0.030563338  0.030039427           11 
 2748000   0.81895028   -6.1541933    1007.2855  0.030546017  0.030031406            5 
 2749000   0.84153561   -6.1780497    1001.8893  0.030371327  0.030023311            7 
 2750000   0.82423168   -6.1577543    1006.2273  0.030491736  0.030015279            6 
 2751000   0.82191668   -6.1911537    1004.7886  0.030437073  0.030007175           10 
 2752000   0.80551762   -6.1992882      1005.69  0.030453306  0.029999108            8 
 2753000   0.79942872   -6.1824849    1003.6929  0.030381792  0.029990954            7 
 2754000   0.79737678   -6.1702107    1008.9463  0.030529725  0.029982895           10 
 2755000   0.80879567   -6.1669957    1008.7617  0.030513057  0.029974882           13 
 2756000    0.7943753   -6.1796715     1008.484   0.03049359  0.029966806            7 
 2757000    0.8197117   -6.1587142      1008.27  0.030476062  0.029958705            9 
 2758000   0.80791636   -6.1805572    1008.2358  0.030463976   0.02995064            5 
 2759000   0.80037929   -6.1810218    1009.0587  0.030477791  0.029942658            7 
 2760000   0.80264915   -6.1651368    1009.3001  0.030474037  0.029934608            8 
 2761000   0.80329264   -6.1876992    1007.4984  0.030408622  0.029926532            6 
 2762000     0.806885   -6.1536009    1008.2342  0.030419811  0.029918478            8 
 2763000   0.81436384   -6.1892077    1009.0833  0.030434411  0.029910452            5 
 2764000    0.8084045   -6.1939607    1008.2776  0.030399106  0.029902397            7 
 2765000   0.81333474   -6.1760241    1008.6125  0.030398207  0.029894363            5 
 2766000   0.80354007   -6.1913688    1005.4937  0.030293253  0.029886351            6 
 2767000   0.80650995   -6.1875546    1007.1291   0.03033156  0.029878232            8 
 2768000   0.80043656   -6.1905767    1006.2711  0.030294771   0.02987013            5 
 2769000   0.79367704   -6.1600857    1007.1844  0.030311317  0.029862117            6 
 2770000   0.80099154   -6.1734981    1008.0482   0.03032636  0.029854072            5 
 2771000   0.81109225   -6.1806883    1006.4734  0.030268056  0.029845977            9 
 2772000    0.8249036    -6.217699    1005.8384  0.030238046  0.029837832            7 
 2773000   0.80999213   -6.2296033    1005.4815  0.030216418  0.029829692           17 
 2774000   0.80748885   -6.1996345     1008.125  0.030284939  0.029821502            4 
 2775000    0.8100044    -6.186728    1006.6762  0.030230518  0.029813331            4 
 2776000   0.80188985   -6.1843597    1006.7122  0.030220709  0.029805254            5 
 2777000   0.83022367    -6.159823    1005.7286  0.030180309  0.029797144            7 
 2778000   0.80789275   -6.1899066    1007.1281  0.030211426  0.029789064           10 
 2779000    0.7930478   -6.1716018    1010.2577    0.0302944  0.029780989            3 
 2780000   0.79355881   -6.1719722    1010.0847  0.030278317  0.029772968            8 
 2781000   0.82345094   -6.1881411    1010.3933  0.030276678  0.029764961            8 
 2782000   0.79360701   -6.1791636    1009.5594  0.030240816  0.029756919            6 
 2783000   0.79972218   -6.2033509    1008.4542  0.030196856  0.029748869            7 
 2784000   0.80682225   -6.1491858    1013.3913  0.030333791  0.029740866           11 
 2785000   0.79947708   -6.1656714    1010.2614  0.030229245  0.029732897           13 
 2786000   0.80970466   -6.1858755    1010.8218  0.030235157  0.029724888           10 
 2787000   0.82119619   -6.2106289    1007.2399  0.030117208  0.029716839            8 
 2788000   0.80916817    -6.215086    1010.3607  0.030199686  0.029708738            7 
 2789000   0.79717402   -6.1910374    1011.4506  0.030221422  0.029700697            9 
 2790000   0.80068683   -6.2094173    1010.2071  0.030173451  0.029692682            6 
 2791000   0.81392739   -6.1908082    1009.9984  0.030156407  0.029684675            6 
 2792000   0.80636236   -6.1897045    1010.2053  0.030151781  0.029676647            4 
 2793000    0.7960348   -6.2236395    1010.1319  0.030138797  0.029668591           18 
 2794000   0.79470591   -6.2327633    1010.8396  0.030149116  0.029660539            8 
 2795000   0.79958114   -6.2025019    1010.6398  0.030132372  0.029652493            7 
 2796000   0.79044238    -6.216364    1009.4988   0.03008759  0.029644454            7 
 2797000   0.80682796   -6.1575714    1012.7532  0.030173793  0.029636434           15 
 2798000   0.79258705   -6.1839485    1010.8357  0.030105899  0.029628467           12 
 2799000    0.8063138   -6.1604922    1015.7762  0.030242236   0.02962056            6 
 2800000   0.78192091   -6.1681831    1014.1604  0.030183344  0.029612675           10 
 2801000    0.8109861   -6.1842654    1010.1524  0.030053326  0.029604741            9 
 2802000   0.81351448   -6.1879988    1013.3399  0.030137399  0.029596743            6 
 2803000   0.80050766   -6.1997821      1011.66  0.030076702  0.029588783            8 
 2804000   0.79449102    -6.171801    1014.4594  0.030149174  0.029580787            6 
 2805000    0.7948639   -6.2124821    1009.6152  0.029994511  0.029572733           14 
 2806000    0.7969251   -6.2286236    1010.3649  0.030006086  0.029564711           12 
 2807000   0.79199761   -6.1783929    1010.4493  0.029997901  0.029556692           11 
 2808000   0.78998253   -6.1950904    1011.9627  0.030032132  0.029548682            5 
 2809000   0.80679753   -6.2298507     1013.049  0.030053667  0.029540608            5 
 2810000   0.81982889    -6.178133    1010.8456  0.029977628  0.029532631           11 
 2811000   0.79075486   -6.1927309    1012.7545  0.030023554  0.029524656            7 
 2812000   0.79806544   -6.1927361    1013.9284  0.030047665  0.029516737            4 
 2813000   0.80595902   -6.1775835    1013.5161  0.030024769  0.029508801           11 
 2814000   0.81910172   -6.2157068    1012.1991  0.029975099  0.029500846            8 
 2815000   0.80845898    -6.199504    1015.3167  0.030056742   0.02949289            4 
 2816000   0.80949778   -6.1852137    1014.7818  0.030030238  0.029484969            6 
 2817000   0.80541306   -6.2290615    1010.3219  0.029887642   0.02947697           11 
 2818000   0.81015225   -6.1845862     1012.947  0.029954666  0.029468945           15 
 2819000   0.79143001   -6.1963598    1013.1923  0.029951291  0.029460978            9 
 2820000    0.7907824   -6.2296755    1012.7492  0.029927578  0.029453055           11 
 2821000   0.81162578   -6.2045823    1013.2994  0.029933222   0.02944508            4 
 2822000   0.81402662   -6.1865968    1013.6906  0.029934167  0.029437136            7 
 2823000   0.77981592   -6.1905701    1014.6032  0.029950501  0.029429183            6 
 2824000   0.80242734   -6.2087335    1014.4123  0.029934262  0.029421215           10 
 2825000    0.7999596   -6.1879114     1013.312   0.02989121  0.029413269            4 
 2826000   0.79323722   -6.1452295    1016.0887  0.029962511  0.029405339           10 
 2827000   0.78394983   -6.1619738     1016.219  0.029955753  0.029397436            5 
 2828000   0.80397344   -6.2071263     1013.883  0.029876327  0.029389508           16 
 2829000    0.8103207   -6.2206279    1012.1798  0.029815594  0.029381504            8 
 2830000   0.79716539    -6.210357    1012.3764  0.029810848  0.029373489            6 
 2831000   0.79236474   -6.2111171    1012.7248  0.029810572  0.029365463           13 
 2832000   0.78596997   -6.1920252    1012.9975  0.029808073  0.029357398           22 
 2833000   0.78213872   -6.2135485    1014.4133  0.029839195  0.029349347            7 
 2834000    0.8013076   -6.2301488    1014.1001  0.029819458  0.029341244            7 
 2835000   0.79657891    -6.213067    1014.2597   0.02981363  0.029333209            3 
 2836000   0.78765839    -6.193137    1014.8875  0.029821566  0.029325252            7 
 2837000   0.79750257   -6.2031916    1014.5934  0.029802416  0.029317223            6 
 2838000   0.78116702   -6.2135925    1013.0175   0.02974564  0.029309201            6 
 2839000   0.79690817   -6.2342257    1014.3274  0.029773613  0.029301132            5 
 2840000   0.80595223   -6.1909033    1015.1469  0.029787175  0.029293084           15 
 2841000   0.79602484   -6.2209745    1012.2228  0.029690919  0.029285048           11 
 2842000   0.81729383   -6.1794186    1014.4965   0.02974714  0.029277024            6 
 2843000   0.80216118   -6.1888132    1017.3619  0.029820667  0.029269036            9 
 2844000   0.78721573   -6.2086026    1015.1979  0.029746773  0.029261068            7 
 2845000   0.77581541   -6.2113966    1016.5372  0.029775549   0.02925306           11 
 2846000   0.78579548   -6.2353015    1013.1527  0.029665985  0.029245009           12 
 2847000   0.79709531    -6.219678    1012.7317  0.029643242  0.029236973            8 
 2848000   0.77627086   -6.2220336    1016.8052  0.029752026  0.029228902            4 
 2849000   0.78469425   -6.2076575    1015.8962  0.029714993  0.029220863            6 
 2850000   0.80159362   -6.2101157    1015.6798   0.02969824  0.029212777            7 
 2851000   0.80246038   -6.2284151    1013.7944  0.029632715  0.029204626           16 
 2852000   0.79132794   -6.2221036    1013.2421  0.029606186  0.029196532           11 
 2853000   0.79403167   -6.2307101    1015.3379  0.029657023  0.029188479           17 
 2854000   0.80164705    -6.215366    1015.3568  0.029647185  0.029180464            8 
 2855000   0.80924438    -6.198791    1019.2238  0.029749673  0.029172478            7 
 2856000   0.79006816   -6.1732986    1017.1663  0.029679221  0.029164517           10 
 2857000   0.79098913   -6.1896186    1018.0578  0.029694838  0.029156551           12 
 2858000   0.78300613   -6.2128213    1018.4072  0.029694635  0.029148557            7 
 2859000   0.81026299   -6.2249749    1014.4199  0.029568029   0.02914057            5 
 2860000   0.80114035   -6.1956672    1016.9764  0.029632181  0.029132553            4 
 2861000   0.79590691   -6.2104716    1018.4375   0.02966438  0.029124565            5 
 2862000   0.78220347   -6.2266689    1016.9015  0.029609291   0.02911658            5 
 2863000   0.77181389   -6.1919311     1021.073   0.02972037  0.029108625           10 
 2864000   0.77732025   -6.2291039      1017.64  0.029610102  0.029100663            5 
 2865000    0.7859175   -6.2194999    1016.8949  0.029578094  0.029092695           21 
 2866000    0.7868532    -6.246603    1019.0338  0.029629967  0.029084754            8 
 2867000   0.77974945   -6.2174564    1016.0981    0.0295343  0.029076806            6 
 2868000   0.79142443   -6.1891056    1018.0826  0.029581665  0.029068796            9 
 2869000   0.79066773   -6.2865178    1014.8817  0.029478382  0.029060809           13 
 2870000   0.80205758   -6.2402575    1014.5468  0.029458385  0.029052778           20 
 2871000   0.80819015   -6.2577842    1014.4844  0.029446314  0.029044806           11 
 2872000    0.7904669   -6.2319707     1018.706  0.029558555  0.029036796            7 
 2873000   0.79809124   -6.2630835    1017.2199  0.029505161  0.029028803           15 
 2874000   0.79989775   -6.2144716    1019.8617  0.029571493  0.029020842            5 
 2875000   0.79286164   -6.2373179    1015.8774  0.029445722  0.029012905            6 
 2876000   0.79503831   -6.2363921    1019.0504  0.029527423  0.029004944            6 
 2877000   0.79768271   -6.2411502    1018.3961  0.029498207  0.028997021            3 
 2878000   0.78922414   -6.2364081    1017.6646  0.029466777  0.028989107           11 
 2879000    0.7896325   -6.2206947    1020.6167  0.029541991  0.028981181            7 
 2880000   0.78332806   -6.2416179    1017.6405  0.029445616  0.028973303            7 
 2881000   0.80157288   -6.2388173    1020.5082  0.029518346  0.028965372            9 
 2882000     0.793736   -6.2252475     1021.378  0.029533252  0.028957528           16 
 2883000   0.79312757   -6.2460569    1019.1748  0.029459324  0.028949674           13 
 2884000   0.79733104   -6.2275928    1019.7552  0.029465882  0.028941766           11 
 2885000   0.78426378   -6.2640528    1018.2204  0.029411335  0.028933817            9 
 2886000   0.78990753   -6.2355141    1019.5819  0.029440456  0.028925913            8 
 2887000   0.80273858   -6.2126466    1022.0991  0.029502918  0.028918095            6 
 2888000   0.78769651   -6.1933663    1024.0792  0.029549839  0.028910273            4 
 2889000   0.79055681   -6.2099719    1021.9298  0.029477612  0.028902479            6 
 2890000   0.79508332   -6.2159057    1019.8593  0.029407706  0.028894706            6 
 2891000   0.78308142   -6.2245881    1021.4055  0.029442106  0.028886901            6 
 2892000   0.78149891   -6.2241073    1022.1966  0.029454721  0.028879079            8 
 2893000   0.78882087   -6.2337685     1021.549  0.029425884  0.028871256            4 
 2894000   0.78411213   -6.2061194    1021.2307  0.029406552  0.028863432           21 
 2895000   0.78567118   -6.2302124    1023.0916   0.02944996  0.028855615            6 
 2896000   0.78922733    -6.249639    1023.6258  0.029455161  0.028847748           15 
 2897000   0.79224496   -6.2661712    1020.5908  0.029357691  0.028839943            5 
 2898000   0.77410883   -6.2273263    1023.6749  0.029436246  0.028832122            5 
 2899000   0.79082449   -6.2195944    1021.6449  0.029367739  0.028824262            6 
 2900000   0.78902719   -6.2457025    1023.4457  0.029409358  0.028816479            7 
 2901000   0.79422494   -6.2294864    1020.8753  0.029325386  0.028808649           15 
 2902000   0.78867771   -6.2491582    1023.4563  0.029389396  0.028800786            6 
 2903000   0.77960469   -6.2047057    1020.6684  0.029299241  0.028792954            6 
 2904000   0.78191842   -6.2198422    1022.9902  0.029355779  0.028785113           11 
 2905000   0.78947268   -6.2383111      1023.14   0.02934997   0.02877731            6 
 2906000   0.82360172   -6.2257081    1023.7874  0.029358438  0.028769613           16 
 2907000   0.79439294   -6.2168592    1024.9497  0.029381656  0.028761865            5 
 2908000   0.77441413   -6.2487412    1024.0464  0.029345667  0.028754046            4 
 2909000   0.77180395   -6.2341677    1023.0562  0.029307214  0.028746199           11 
 2910000   0.78566818   -6.2380833    1023.2128  0.029301627  0.028738346            6 
 2911000   0.79419166   -6.2190904    1024.1689  0.029318931  0.028730527           10 
 2912000   0.79906357   -6.2525842    1024.7145  0.029324475  0.028722735            7 
 2913000   0.78831122   -6.2548403    1021.3474  0.029218087  0.028714884           14 
 2914000   0.79890095   -6.2386106    1022.6767  0.029246074  0.028707033            7 
 2915000   0.77643353   -6.2453261    1024.7707  0.029295903  0.028699232            7 
 2916000   0.77855377   -6.2452533    1023.8183  0.029258638  0.028691394            9 
 2917000    0.7828579   -6.2482053    1024.3262  0.029263118  0.028683606           12 
 2918000   0.77074931   -6.2201482    1026.6896  0.029320586  0.028675802            5 
 2919000   0.78543994    -6.234786    1025.4126  0.029274084  0.028668025            9 
 2920000   0.78743859   -6.2518351    1022.6308  0.029184668  0.028660224            9 
 2921000   0.79182816   -6.2220304     1028.164  0.029332533  0.028652435           14 
 2922000   0.78694325   -6.2611497    1024.2988  0.029212264  0.028644588           10 
 2923000   0.77829003   -6.2384929    1024.4352  0.029206159  0.028636749            8 
 2924000   0.77168646   -6.2477791    1022.7435  0.029147956  0.028628948            9 
 2925000   0.77969565   -6.2305248    1024.7184  0.029194257  0.028621147            5 
 2926000   0.77574728   -6.2297371    1024.0825  0.029166169  0.028613374           21 
 2927000   0.79092118    -6.214601     1028.096   0.02927047  0.028605597            5 
 2928000   0.77621327   -6.2539269    1024.2009  0.029149616  0.028597778           12 
 2929000   0.79509932   -6.2434773    1026.6967  0.029210673  0.028590016            8 
 2930000    0.7951049   -6.2355119    1026.9338  0.029207445  0.028582207           12 
 2931000   0.79531778   -6.2543929     1023.894  0.029111053  0.028574375            9 
 2932000   0.77321034   -6.2402715    1024.6126   0.02912155  0.028566543            7 
 2933000   0.78456419   -6.2302898    1027.0699  0.029181437  0.028558748            3 
 2934000   0.78484702   -6.2612309    1022.4614  0.029040597  0.028550977            3 
 2935000   0.77460139   -6.2515073    1025.1409  0.029106782  0.028543164            5 
 2936000   0.79114936   -6.2676863    1025.2478  0.029099902  0.028535319            6 
 2937000   0.77604549   -6.2926831    1023.3213  0.029035334   0.02852747           15 
 2938000   0.78371509   -6.2408822     1026.104   0.02910438  0.028519694           10 
 2939000   0.78656963   -6.2829342    1024.3152  0.029043756  0.028511852            9 
 2940000    0.8039942   -6.2411567     1024.988  0.029052949  0.028503966           14 
 2941000   0.78811373   -6.2781033    1022.3933   0.02896955  0.028496101            7 
 2942000   0.76742858   -6.2375128    1025.4709  0.029046875  0.028488282            9 
 2943000   0.77407885   -6.2015721     1027.394  0.029091461  0.028480514            9 
 2944000   0.78202437   -6.2538138    1024.6073  0.029002699  0.028472681           10 
 2945000   0.78968599   -6.2408314    1025.6749  0.029023059  0.028464853           10 
 2946000   0.78732189   -6.2533938    1025.6681  0.029013015  0.028457032            5 
 2947000   0.77296512   -6.2543399    1024.5434  0.028971366  0.028449204            5 
 2948000   0.78921106   -6.2723009    1025.7504  0.028995657  0.028441345            9 
 2949000   0.78762116   -6.2649669    1023.7192  0.028928429  0.028433456            7 
 2950000   0.78930835   -6.2353143    1026.6752  0.029002124  0.028425614            9 
 2951000   0.77522961   -6.2330818    1022.4317  0.028872463  0.028417744            9 
 2952000   0.76853003    -6.239645    1026.3864  0.028974322  0.028409901            9 
 2953000   0.79297189   -6.2367753    1030.0013  0.029066523  0.028402069            8 
 2954000   0.77342932   -6.2374372    1024.9678  0.028914687  0.028394241           10 
 2955000   0.78172951   -6.2593263    1027.8029  0.028984854  0.028386395            5 
 2956000   0.78642672   -6.2549333    1027.9291  0.028978607  0.028378546            6 
 2957000   0.78303702   -6.2539521    1026.5105  0.028928828  0.028370714           16 
 2958000   0.78269675   -6.2639796     1025.497  0.028890494  0.028362838            8 
 2959000     0.777065    -6.247422    1025.3934  0.028877813  0.028354951            8 
 2960000   0.78620144   -6.2541324    1024.7201  0.028849102  0.028347096            7 
 2961000   0.78438933   -6.2510366    1028.0852  0.028934064  0.028339296           12 
 2962000   0.77847859   -6.2642753    1024.6932  0.028828866   0.02833142            9 
 2963000   0.79718087   -6.2366866    1028.4437  0.028924618  0.028323634            5 
 2964000   0.75844801   -6.2326672    1027.8004  0.028896774  0.028315841            4 
 2965000   0.77243554   -6.3053102    1023.7382  0.028772855  0.028308002            8 
 2966000   0.76357458   -6.2553622    1028.4843  0.028896502  0.028300146           14 
 2967000   0.77776395   -6.2696763    1026.9087   0.02884251  0.028292263            7 
 2968000    0.7699615   -6.2433778    1029.4849  0.028905123  0.028284464            9 
 2969000   0.76861576   -6.2508074    1028.4774  0.028867111  0.028276673           10 
 2970000   0.78840105   -6.2845948    1024.2879  0.028739841   0.02826891            8 
 2971000   0.78160603   -6.2572528    1024.3757  0.028732629  0.028261039           10 
 2972000   0.77475933   -6.2717557    1025.9768  0.028767856  0.028253181            9 
 2973000   0.77757802   -6.2577143     1027.894   0.02881192  0.028245342           11 
 2974000   0.76894705   -6.2689966    1024.7519  0.028714185  0.028237503            7 
 2975000    0.7520535   -6.2521122    1026.2424  0.028746286  0.028229721           11 
 2976000   0.78443146   -6.2578152     1027.149  0.028762011  0.028221878            6 
 2977000   0.77266331   -6.2589292    1026.3438  0.028729811  0.028214019            7 
 2978000   0.77454851   -6.2405929    1028.3793  0.028777125  0.028206211            7 
 2979000   0.77576923   -6.2852402    1026.6287  0.028718494  0.028198385           10 
 2980000   0.77621827   -6.2962125    1027.5765  0.028735361  0.028190554            8 
 2981000    0.7751254    -6.297385    1025.3923  0.028664662  0.028182681           10 
 2982000   0.77146367   -6.2899878    1027.3618   0.02871009   0.02817484            4 
 2983000   0.77591266   -6.2496529    1029.2319  0.028752707  0.028166986            6 
 2984000   0.79113924   -6.2438675    1030.3106  0.028773195  0.028159197            7 
 2985000   0.77030518   -6.2534696    1027.8908  0.028696002  0.028151428           12 
 2986000   0.77347352    -6.267496    1029.5344  0.028732262  0.028143596            5 
 2987000   0.78340349   -6.2980258    1027.0512  0.028653365  0.028135735           12 
 2988000   0.77507123   -6.2352923    1029.1587  0.028702552  0.028127879            6 
 2989000   0.75363726   -6.2781838    1026.0809  0.028607139  0.028119988           10 
 2990000   0.80518021   -6.2800176    1026.8927  0.028620198  0.028112099            6 
 2991000    0.7668135    -6.255826    1027.8124  0.028636254  0.028104248           13 
 2992000   0.76520938   -6.2589635    1027.2738  0.028611682  0.028096395            7 
 2993000   0.76589407   -6.2616212     1030.791  0.028700049  0.028088546            8 
 2994000   0.76805303    -6.276238    1027.5681  0.028600761  0.028080727           21 
 2995000   0.77048099   -6.2792481    1027.6197  0.028592647  0.028072897            5 
 2996000    0.7637394   -6.2826787    1031.1754  0.028682005  0.028065047            5 
 2997000   0.77769379   -6.2788949     1027.459  0.028569098  0.028057233           10 
 2998000   0.78466851   -6.2645228    1028.7044  0.028594185  0.028049399            4 
 2999000   0.76924714   -6.2403237    1029.7634  0.028614078  0.028041627            6 
 3000000   0.77250569   -6.2700766    1028.5303  0.028570286  0.028033864            4 
 3001000   0.77924867   -6.2922657    1028.1222  0.028549433   0.02802605           13 
 3002000   0.78299303   -6.3267436    1028.0323  0.028537428  0.028018195            7 
 3003000   0.76243722   -6.2859901    1026.2182  0.028477584   0.02801032            6 
 3004000   0.76726388   -6.2745647     1028.207  0.028523276  0.028002444           11 
 3005000   0.77663934   -6.2742888    1030.4589   0.02857623  0.027994604            6 
 3006000   0.77903611   -6.2481553    1030.4197  0.028565639  0.027986791           10 
 3007000   0.77718548   -6.2624592    1029.2102   0.02852262  0.027978986           13 
 3008000   0.75477118    -6.280102    1030.0846  0.028537361  0.027971215           14 
 3009000    0.7665615   -6.2702957    1030.7964   0.02854759  0.027963439            5 
 3010000    0.7592289   -6.2885985     1028.329  0.028469795  0.027955603            6 
 3011000   0.77574534   -6.2826095    1028.4572  0.028463889  0.027947766            5 
 3012000   0.78394724   -6.2881324    1028.9495  0.028468059  0.027939967           11 
 3013000    0.7657379    -6.293964    1028.6593  0.028450583  0.027932133            7 
 3014000   0.75451713   -6.2893357    1028.9687    0.0284497  0.027924279           11 
 3015000   0.77026436   -6.2619985    1031.8291  0.028519322  0.027916463           10 
 3016000   0.75795109   -6.2855699    1030.2028  0.028464933  0.027908754            9 
 3017000   0.77004708   -6.2636152    1031.7468  0.028498144  0.027901028           10 
 3018000   0.78016849   -6.2719303    1031.5645  0.028483667  0.027893264            6 
 3019000   0.76667322   -6.2986009    1031.2667  0.028466012  0.027885454           13 
 3020000   0.76451622   -6.2978129    1030.2895  0.028429622  0.027877685           11 
 3021000   0.76355516   -6.3076263    1031.2234  0.028445973  0.027869892            8 
 3022000   0.76394667   -6.2928391    1030.5269  0.028417353  0.027862124            6 
 3023000   0.77745003   -6.2887868    1030.9423  0.028419404  0.027854349           21 
 3024000   0.77016685   -6.2683082    1032.3744  0.028449472  0.027846588            7 
 3025000   0.76268232   -6.2948597    1030.3901  0.028385402  0.027838842           10 
 3026000   0.78272981   -6.2772597     1030.309  0.028373788  0.027831048            8 
 3027000   0.77057278   -6.2738515    1034.1882   0.02847121  0.027823274            8 
 3028000    0.7749639   -6.2474123     1036.708  0.028531152  0.027815518           15 
 3029000    0.7722772    -6.283843    1030.8948  0.028361804  0.027807764           15 
 3030000   0.76050101   -6.2469213    1033.1548  0.028414599  0.027800052            8 
 3031000   0.75845414   -6.2760534    1030.9767   0.02834534  0.027792328            6 
 3032000    0.7714657   -6.2832562    1033.5489  0.028406687  0.027784608            7 
 3033000   0.76768154   -6.2684203     1033.549  0.028397324   0.02777691            7 
 3034000   0.77892728   -6.2808071    1033.3656  0.028382927   0.02776923            9 
 3035000   0.76743799   -6.2622274    1033.8246  0.028386179  0.027761517           12 
 3036000   0.77872832   -6.2777339    1033.8068  0.028376339  0.027753851           12 
 3037000   0.77304579   -6.2762704    1035.0538  0.028401213  0.027746137           13 
 3038000   0.76965355   -6.3110405    1032.0768  0.028310203  0.027738385            6 
 3039000   0.77130585   -6.3158654    1032.7585  0.028319582   0.02773063            6 
 3040000   0.77780226   -6.2882389    1035.2751  0.028379251  0.027722879            4 
 3041000   0.76912768   -6.2552964    1033.6278  0.028324778  0.027715191            9 
 3042000   0.77959984   -6.2718924    1034.6436  0.028343293   0.02770754           12 
 3043000   0.75252168   -6.3106355    1031.0469  0.028235484  0.027699824           12 
 3044000   0.75905885   -6.3119811    1029.2241  0.028176305  0.027692086            6 
 3045000   0.75115827   -6.2747707    1032.1587  0.028247365  0.027684341           10 
 3046000   0.76341185   -6.2763538    1034.1441  0.028292407   0.02767665            9 
 3047000   0.75166287   -6.2987073    1032.4269  0.028236158  0.027668912            8 
 3048000   0.75086005   -6.2787584    1036.9404  0.028350295  0.027661163           13 
 3049000   0.76989825   -6.3000001    1032.5378  0.028220668  0.027653449           13 
 3050000   0.75163018   -6.2920208    1034.0691  0.028253255  0.027645763            6 
 3051000   0.76256506    -6.275895    1035.8088  0.028291512  0.027638065           27 
 3052000   0.76404124   -6.2709449    1034.7005  0.028251981  0.027630369            8 
 3053000   0.75283491   -6.2839906    1033.6255  0.028213382  0.027622715           10 
 3054000   0.76044706   -6.2882688    1036.8949  0.028293356  0.027615043            6 
 3055000   0.73323844   -6.3215039    1031.3244  0.028132143  0.027607337           17 
 3056000    0.7590111   -6.3034347    1037.1085  0.028280664    0.0275996            8 
 3057000   0.75849096   -6.3329742    1032.6389  0.028149573  0.027591857            5 
 3058000   0.75352351    -6.318662    1033.1395  0.028154007  0.027584103           15 
 3059000   0.76659563   -6.3050732    1032.3391  0.028123001  0.027576375            9 
 3060000   0.76000936   -6.3168529    1033.5565  0.028146964  0.027568658           10 
 3061000   0.76737309   -6.2580159     1037.896  0.028255909  0.027560916           10 
 3062000   0.76350432   -6.2890889    1033.0166  0.028113886  0.027553237            8 
 3063000   0.75384623   -6.2940154    1033.8172  0.028126489  0.027545556           10 
 3064000   0.75928602    -6.304913    1032.6875  0.028086584  0.027537893            3 
 3065000   0.76057414   -6.3070851    1033.1926  0.028091153  0.027530184            3 
 3066000    0.7507588   -6.3209398    1036.5812  0.028174091  0.027522442            9 
 3067000   0.75179933   -6.3122455    1032.0133  0.028040791  0.027514734            4 
 3068000   0.75896482   -6.3142123    1033.9076  0.028083106  0.027506999            9 
 3069000   0.75190404   -6.2841449    1033.7821  0.028070546  0.027499262           18 
 3070000   0.76118707   -6.3233402      1030.69  0.027977471  0.027491505           22 
 3071000   0.75343551   -6.2980793     1033.306  0.028039347  0.027483735            7 
 3072000   0.74590405   -6.3033484    1035.0024  0.028076237  0.027475981           10 
 3073000   0.75242709    -6.299329    1034.9891   0.02806674  0.027468236           16 
 3074000   0.76416673   -6.2819744    1034.8494  0.028053823   0.02746048           11 
 3075000   0.75147446   -6.3191387    1033.6162  0.028011278  0.027452729            8 
 3076000   0.76036822   -6.2992349    1032.7254   0.02797804   0.02744497            8 
 3077000   0.76820191    -6.297597     1033.887  0.028000405  0.027437226            6 
 3078000   0.75134987   -6.2889958    1034.6623    0.0280123   0.02742955            5 
 3079000   0.74350381   -6.2920966    1035.9943  0.028039253  0.027421911           19 
 3080000   0.75356609   -6.2877055    1034.8524  0.027999254  0.027414255            6 
 3081000   0.79190741   -6.2797495    1034.7364  0.027987027  0.027406587            7 
 3082000   0.76490853   -6.3169738    1035.3987  0.027995856  0.027398864            6 
 3083000   0.75862229   -6.3209936    1036.3858  0.028013456  0.027391166           12 
 3084000   0.75080029    -6.305208    1036.8631  0.028017269  0.027383398           10 
 3085000   0.75588028   -6.3224558    1035.4881  0.027971045  0.027375659            4 
 3086000   0.75584426   -6.3135215    1035.8169  0.027970861  0.027367908           10 
 3087000   0.75215754   -6.3029106    1035.9776  0.027966138  0.027360176            6 
 3088000   0.77571786    -6.305001    1035.5022  0.027944253  0.027352485            4 
 3089000   0.75392781    -6.312669    1034.0347  0.027895617  0.027344732           10 
 3090000   0.76287246   -6.3265238    1035.5082  0.027926327  0.027336983            5 
 3091000    0.7613577   -6.3087317    1034.2166  0.027882471   0.02732923            7 
 3092000    0.7452554   -6.3084834    1036.5809  0.027937174  0.027321498           14 
 3093000   0.76122324   -6.3300931    1030.9578  0.027776641  0.027313701           12 
 3094000   0.75958404   -6.3145106    1035.5447  0.027891206  0.027305924            7 
 3095000   0.76484023    -6.331658    1033.2375  0.027820073  0.027298137           11 
 3096000   0.75071536   -6.3458732    1031.6957  0.027769586  0.027290309           16 
 3097000   0.73891342    -6.327134    1031.5154  0.027755768  0.027282479           13 
 3098000   0.74772162   -6.3282816     1035.268  0.027847752   0.02727471           25 
 3099000    0.7592459   -6.3432179    1036.2984  0.027866474  0.027266961           15 
 3100000   0.75525399   -6.3025746    1037.8471  0.027899115  0.027259221            9 
 3101000    0.7663104   -6.3153714    1037.5147  0.027881185  0.027251574            8 
 3102000   0.75091232   -6.3203032    1035.5145  0.027818465  0.027243866            8 
 3103000    0.7566019   -6.3126726    1036.6015   0.02783869  0.027236156           13 
 3104000    0.7416002   -6.3127188    1037.4329  0.027852042  0.027228407            9 
 3105000   0.75598389   -6.3445963    1035.8338  0.027800155  0.027220721           15 
 3106000   0.75439648   -6.3329042    1036.9781  0.027821905  0.027212961            5 
 3107000   0.75059865   -6.3324891    1037.8072   0.02783519  0.027205221            7 
 3108000   0.75267972   -6.3234313    1037.7181  0.027823844  0.027197483            8 
 3109000   0.76424562   -6.3091271    1036.9967  0.027795559  0.027189794            9 
 3110000   0.73033293   -6.3122808    1038.0446  0.027814699  0.027182113           10 
 3111000   0.76635329   -6.2918738    1034.8028  0.027718921  0.027174447            8 
 3112000   0.76253482   -6.2934044    1036.1833  0.027746983  0.027166736            6 
 3113000    0.7513002   -6.3490982    1034.1803  0.027684448  0.027158969            6 
 3114000   0.74538731   -6.3116407    1036.0072  0.027724448  0.027151233           14 
 3115000   0.77266289   -6.3509846    1035.5404   0.02770306  0.027143543           15 
 3116000   0.74452071   -6.3301103    1038.3023  0.027768032  0.027135872           11 
 3117000   0.74970082   -6.3426718    1035.9728  0.027696846  0.027128156           18 
 3118000   0.77173886   -6.3395618    1036.1754  0.027693376   0.02712042            8 
 3119000     0.741274   -6.3507609     1035.495  0.027666318  0.027112709            9 
 3120000   0.76232409   -6.3194708    1033.6333  0.027607726  0.027104938           12 
 3121000   0.74907727   -6.3176209    1036.0729   0.02766402  0.027097218            7 
 3122000    0.7554887   -6.3038926    1037.5265  0.027693958  0.027089464           10 
 3123000   0.74776209   -6.3036572    1035.6411  0.027634782  0.027081773            9 
 3124000   0.73465707    -6.326663    1034.3915  0.027592603  0.027074017            9 
 3125000   0.74534556   -6.3244967    1036.3806  0.027636816  0.027066256           10 
 3126000     0.766046   -6.3201696    1037.4247  0.027655808  0.027058535            7 
 3127000   0.75708848   -6.3207848    1036.6897  0.027627378  0.027050838            9 
 3128000   0.75941589   -6.3431139    1037.5284   0.02764089  0.027043162            6 
 3129000   0.74996033   -6.3241149    1034.7034  0.027556818  0.027035434            8 
 3130000   0.75706525   -6.3005736    1039.6421  0.027679503  0.027027731            9 
 3131000   0.74641527   -6.3156516    1036.8141  0.027595394  0.027020102           12 
 3132000   0.73671165   -6.3252855    1035.7843  0.027559181  0.027012422            4 
 3133000   0.74491077   -6.3352476    1036.4394   0.02756781   0.02700472           12 
 3134000   0.76066343   -6.3545947    1036.4675  0.027559762  0.026996999            8 
 3135000   0.74761778   -6.3300798    1037.0704  0.027566996  0.026989273           10 
 3136000   0.74903191   -6.2786147    1039.7878  0.027630416  0.026981615           11 
 3137000   0.73418606    -6.338258    1035.8446  0.027516858  0.026973926            6 
 3138000   0.73254744   -6.2863892    1038.8972  0.027589156  0.026966186           12 
 3139000   0.75677295   -6.3268338    1037.6522  0.027547313  0.026958469            7 
 3140000   0.74447475   -6.3158792    1036.6224   0.02751121  0.026950752           10 
 3141000   0.75169835   -6.3398109    1038.1507  0.027542999  0.026943067            8 
 3142000     0.756438   -6.3284714    1034.1839  0.027429025  0.026935381            9 
 3143000   0.74836867   -6.3389149    1036.0847  0.027470693  0.026927683            8 
 3144000    0.7344279   -6.3472964    1037.6282  0.027502867  0.026919922           12 
 3145000   0.73914444   -6.3026972    1037.0889  0.027479833   0.02691223           11 
 3146000    0.7501833   -6.3491033    1036.9951  0.027468613  0.026904483           10 
 3147000   0.74042973   -6.3348223    1038.3126  0.027494773  0.026896728            5 
 3148000   0.76323953    -6.322713    1035.4341   0.02740984  0.026888935            5 
 3149000   0.74893513   -6.3353367    1036.8507  0.027438622    0.0268812           12 
 3150000   0.74029966   -6.3476778     1037.309  0.027442036  0.026873465           23 
 3151000   0.75596628   -6.3344913    1036.2885  0.027406338  0.026865734           12 
 3152000   0.75285599   -6.3590079     1038.023  0.027443501  0.026857971            9 
 3153000   0.75006459   -6.3445804     1037.359  0.027417247  0.026850214           16 
 3154000    0.7441846   -6.3466624    1038.0697  0.027427334  0.026842514            6 
 3155000   0.73772882   -6.3302593    1039.1904  0.027448242  0.026834837            8 
 3156000   0.75200275   -6.3424486    1036.4747  0.027367837  0.026827161            9 
 3157000   0.76251702    -6.330194    1038.7384  0.027418921  0.026819482           13 
 3158000   0.75225855   -6.3593397    1036.4263  0.027349227  0.026811735           15 
 3159000   0.73577001   -6.3324401    1039.0902  0.027410841   0.02680404           15 
 3160000   0.75514803   -6.3245264     1039.005  0.027399921  0.026796365            5 
 3161000   0.74778692   -6.3377414    1035.7894  0.027306481   0.02678868            7 
 3162000   0.75261846   -6.3418282    1036.0158  0.027303812   0.02678096            7 
 3163000   0.73536552   -6.3366355    1038.3955  0.027357875  0.026773256           11 
 3164000   0.74078863   -6.3154539    1038.4275  0.027350071  0.026765577           12 
 3165000   0.72189594   -6.3316484    1037.3018  0.027311789  0.026757925            8 
 3166000   0.74248247   -6.3320325    1040.0715  0.027376066  0.026750283            7 
 3167000   0.74562734   -6.3115475    1040.2528  0.027372192  0.026742641            9 
 3168000   0.74392557   -6.3726693    1037.6216  0.027294341  0.026734923           19 
 3169000   0.73030864   -6.3236141    1041.7814  0.027395115  0.026727237            8 
 3170000   0.75333706   -6.3492677    1040.5276  0.027353513  0.026719595           11 
 3171000   0.75380223   -6.3576774    1038.7583   0.02729839  0.026711942           25 
 3172000   0.74443866   -6.3297825    1042.5078  0.027388288  0.026704247            5 
 3173000   0.73512283   -6.3320812    1038.4233  0.027272385  0.026696579            6 
 3174000   0.75249342   -6.3399157    1038.8194  0.027274191  0.026688922            8 
 3175000   0.76070596     -6.32742    1042.3185  0.027357441  0.026681274            6 
 3176000   0.74472722   -6.3517493    1036.7788  0.027203475  0.026673617           12 
 3177000    0.7364471    -6.355044    1039.7652  0.027273244  0.026665909            9 
 3178000   0.75746421   -6.3601052    1040.0016  0.027270862  0.026658238            8 
 3179000   0.76102611   -6.3223516    1038.3079  0.027217885  0.026650575            6 
 3180000   0.75125327   -6.3348727    1041.7819  0.027300364  0.026642887            7 
 3181000   0.76343758   -6.3526868    1038.6869  0.027210701  0.026635193            7 
 3182000   0.73591509   -6.3431159    1041.0815  0.027264861  0.026627495            6 
 3183000    0.7521813   -6.3400915    1038.0905  0.027177991  0.026619792            8 
 3184000   0.73046136   -6.3457698    1037.1405   0.02714459  0.026612111            7 
 3185000    0.7410562   -6.3377303    1039.6549  0.027201855  0.026604399           20 
 3186000      0.76809   -6.3388655    1041.7664  0.027248547  0.026596719            5 
 3187000   0.72853759    -6.374454      1037.19  0.027120332  0.026589006           18 
 3188000   0.74510588   -6.3406626    1040.9204  0.027209336  0.026581276            7 
 3189000   0.73442031   -6.3844239    1035.9048   0.02706974  0.026573541           19 
 3190000   0.72547198   -6.3457665    1039.3818  0.027152084  0.026565873           12 
 3191000   0.73717673    -6.342894    1040.1549  0.027163764  0.026558184            8 
 3192000   0.72994974   -6.3440473    1042.7072  0.027221887  0.026550512            9 
 3193000   0.73821109   -6.3492663    1041.4438  0.027180389  0.026542858           31 
 3194000     0.737306   -6.3561451    1041.0723  0.027162186  0.026535141            9 
 3195000    0.7372933   -6.3493388    1039.1145  0.027102622  0.026527453            8 
 3196000   0.73605071   -6.3350055     1039.687  0.027109067   0.02651979           15 
 3197000    0.7382294   -6.3416299    1040.3083  0.027116783  0.026512116            7 
 3198000   0.73505877   -6.3693206    1035.6384  0.026986616  0.026504428           16 
 3199000    0.7322194   -6.3488882    1038.4282  0.027050854  0.026496719            8 
 3200000    0.7505261   -6.3651517    1039.5426  0.027071421  0.026489063           11 
 3201000   0.74570456   -6.3781623    1038.2447  0.027029176  0.026481358           11 
 3202000   0.72533869   -6.3489532    1039.4969  0.027053324  0.026473657            4 
 3203000   0.74135667   -6.3720545    1039.5489   0.02704623  0.026465947            8 
 3204000   0.73115044   -6.3511165    1037.9681  0.026996672   0.02645822           16 
 3205000   0.74410714   -6.3666856    1041.0297  0.027067854  0.026450524            5 
 3206000    0.7305186   -6.3989177    1036.9854  0.026954288  0.026442833            9 
 3207000   0.74863248   -6.3546113    1039.0288  0.026998981  0.026435069            7 
 3208000   0.73878858   -6.3481644    1037.9359  0.026962175   0.02642738            5 
 3209000    0.7385548   -6.3675555     1038.178  0.026960061  0.026419641           18 
 3210000   0.74327703   -6.3701961    1038.0937  0.026949474  0.026411913           11 
 3211000   0.74909818   -6.3578762    1041.2735  0.027023603  0.026404188           14 
 3212000   0.74824166   -6.3442766    1041.7127  0.027026586  0.026396467            9 
 3213000   0.73278915   -6.3669533    1038.9223  0.026945802  0.026388732            8 
 3214000   0.74425449   -6.3843235    1039.2463  0.026945819  0.026381041           12 
 3215000   0.74176715   -6.3615668    1038.6971    0.0269232  0.026373354           13 
 3216000   0.73490102   -6.3508456    1039.7466  0.026942023  0.026365668            5 
 3217000   0.74143411   -6.3439655    1039.4168  0.026925107  0.026357973            8 
 3218000    0.7497934   -6.3423107    1040.7251   0.02695062  0.026350322           10 
 3219000   0.73615676    -6.355379    1038.2627  0.026878501  0.026342646           13 
 3220000   0.74373064   -6.3609332    1039.9574  0.026914012  0.026334965           12 
 3221000   0.72980881   -6.3520381    1040.4399  0.026918139   0.02632722           11 
 3222000   0.72943948   -6.3422464    1039.8553  0.026894665  0.026319481            7 
 3223000   0.73263785   -6.4077942    1038.9544  0.026863026  0.026311748            9 
 3224000   0.74133308   -6.3809546     1038.847  0.026851918  0.026304014           10 
 3225000   0.73125906   -6.3655153     1038.756   0.02684124  0.026296336            5 
 3226000    0.7347202   -6.3644935    1040.4856    0.0268776  0.026288621           23 
 3227000   0.73626935   -6.3406814    1040.0349   0.02685763  0.026280918            8 
 3228000   0.73575459   -6.3638043    1039.6346  0.026838975  0.026273222            8 
 3229000   0.72953482   -6.3685204    1041.1868  0.026870723  0.026265499            9 
 3230000   0.74027227   -6.3506093    1039.0699  0.026807789  0.026257841            8 
 3231000   0.73971493   -6.3684151     1039.941   0.02682196  0.026250147           10 
 3232000   0.72688494   -6.3617246    1040.9725  0.026840257  0.026242455            6 
 3233000   0.73490283   -6.3516764    1041.8011  0.026853312  0.026234796           16 
 3234000   0.74909645   -6.3812191     1038.786  0.026767317  0.026227126           26 
 3235000   0.73421982   -6.3641316    1037.3429  0.026721868  0.026219432           10 
 3236000    0.7327384   -6.3860382    1040.2589  0.026788701  0.026211725           11 
 3237000   0.74303554   -6.3434323    1042.9607  0.026849982  0.026204034            9 
 3238000   0.73749909   -6.3655891    1040.2574  0.026772117  0.026196316            7 
 3239000   0.73188412   -6.3839034    1040.0002  0.026757236    0.0261886            9 
 3240000   0.73559544    -6.376175    1040.3607  0.026758248  0.026180852            8 
 3241000   0.74142438   -6.3770526    1038.3971  0.026699503   0.02617313            8 
 3242000   0.73688429   -6.4062958    1036.3933  0.026639761  0.026165388           21 
 3243000   0.73221606   -6.3801911    1038.8282  0.026694116  0.026157589           17 
 3244000   0.74537096   -6.3683907    1040.5723  0.026730689  0.026149855            7 
 3245000   0.71587262   -6.3779878    1038.7561  0.026675811  0.026142089           12 
 3246000   0.74090142   -6.4055544    1038.7933  0.026668548  0.026134324            8 
 3247000   0.75187303   -6.3610341    1039.2231  0.026671366  0.026126588           23 
 3248000   0.71234263   -6.3998856    1037.7334  0.026624934  0.026118885            9 
 3249000    0.7118546   -6.3959974    1038.7229  0.026642118  0.026111158           18 
 3250000   0.73540749   -6.3746767     1041.222  0.026698001  0.026103417            6 
 3251000   0.72916865   -6.3899882    1039.3828  0.026642643  0.026095692           15 
 3252000   0.72720114   -6.3761958    1038.3821  0.026608808  0.026087944            7 
 3253000   0.72569075   -6.3712782    1044.0834  0.026746679  0.026080273           11 
 3254000   0.74103568   -6.3668308    1041.2319  0.026665434  0.026072634           10 
 3255000    0.7158691   -6.3584505    1041.4934  0.026663937  0.026064992           17 
 3256000    0.7374334   -6.3501962     1044.485  0.026732315  0.026057313            7 
 3257000   0.71672322   -6.3756958    1042.3994  0.026670746  0.026049659           30 
 3258000   0.75827808   -6.3706576    1041.8968  0.026649703  0.026041974            7 
 3259000   0.72980278   -6.4045644    1040.0872  0.026595255  0.026034305            9 
 3260000   0.72870198   -6.3768389    1042.7091  0.026654118  0.026026604           13 
 3261000   0.72834651   -6.3983187    1041.2397  0.026608395   0.02601893           12 
 3262000   0.72852248   -6.3843387    1039.2798  0.026550169  0.026011228           21 
 3263000   0.71370416   -6.3710391    1038.7927  0.026529591  0.026003539           14 
 3264000   0.72564193   -6.3775593    1041.5134  0.026590926  0.025995873            6 
 3265000   0.73084181    -6.375665    1042.2744  0.026602205  0.025988203           13 
 3266000   0.72401866   -6.3829618    1040.3885  0.026545941  0.025980529           17 
 3267000   0.74148965   -6.4039376    1040.4287   0.02653884  0.025972837           15 
 3268000   0.73488361   -6.3765997    1040.6609   0.02653664  0.025965123           13 
 3269000   0.72807321   -6.3676089    1040.6929  0.026529338  0.025957411           11 
 3270000   0.71874487   -6.3811455    1040.4362  0.026514685  0.025949735           14 
 3271000   0.72583893   -6.4074514    1040.3071  0.026503288  0.025941993           18 
 3272000   0.70871014   -6.3772795    1042.2925  0.026545754  0.025934251           10 
 3273000   0.71710388   -6.3756529    1042.0268  0.026530879  0.025926545           11 
 3274000   0.73485557   -6.3632935    1044.3228  0.026581217    0.0259189            9 
 3275000   0.74464799   -6.4184678    1039.5425  0.026451463   0.02591118            9 
 3276000    0.7238299   -6.3859928    1040.3513  0.026463962  0.025903472           12 
 3277000   0.71445681   -6.3870052    1040.5629  0.026461269  0.025895741           11 
 3278000   0.72831817   -6.3760195    1040.1961  0.026443871  0.025888033            9 
 3279000   0.74364222   -6.3752224     1042.168  0.026485922  0.025880359            8 
 3280000   0.71778508   -6.3726959    1041.8191  0.026468982  0.025872724            8 
 3281000   0.72413251   -6.3632355    1041.4326  0.026451098  0.025865058           11 
 3282000    0.7538216    -6.376829    1041.4113  0.026442496  0.025857385            6 
 3283000   0.73602473   -6.3815511     1038.249  0.026354174  0.025849708           21 
 3284000   0.72675639   -6.3890797     1040.656  0.026407227  0.025841981            9 
 3285000   0.74159193   -6.3858334    1038.8367  0.026353036  0.025834279           11 
 3286000   0.73092563   -6.4096557    1038.8644  0.026345718  0.025826549           51 
 3287000   0.72173833   -6.4043391    1039.0382   0.02634211  0.025818812           18 
 3288000   0.71456114     -6.39786      1042.13   0.02641246   0.02581104           25 
 3289000   0.71767449   -6.4136374    1037.1683  0.026278713  0.025803251            8 
 3290000    0.7250142   -6.4010863    1040.6465  0.026358826  0.025795505            8 
 3291000   0.72976824   -6.4110006    1039.0445  0.026310254  0.025787756           11 
 3292000   0.72026855    -6.410978    1038.9657  0.026300267  0.025780015            9 
 3293000   0.70131172    -6.389191      1040.83  0.026339458  0.025772278           26 
 3294000   0.72412369   -6.3837014    1041.3066  0.026343519  0.025764596            9 
 3295000    0.7328203   -6.3962426     1039.672  0.026294183  0.025756939            9 
 3296000   0.70823739   -6.4116245     1040.763   0.02631379  0.025749218           17 
 3297000   0.70255506   -6.4041323    1041.7322  0.026330306   0.02574149           30 
 3298000   0.73116779    -6.411839    1041.2322  0.026309688  0.025733807           13 
 3299000   0.71645846    -6.415034    1044.2107  0.026376951  0.025726122           14 
 3300000   0.71372438   -6.3796757    1042.2351  0.026319069  0.025718495           11 
 3301000   0.72191608   -6.3925413    1041.3993  0.026289996  0.025710881           25 
 3302000   0.72404271   -6.4023703    1044.2522  0.026354034  0.025703246           13 
 3303000   0.71586521   -6.3869775    1040.5202  0.026251897  0.025695636           10 
 3304000    0.7313741   -6.3928653    1040.8523  0.026252329  0.025688023           10 
 3305000   0.70812615    -6.402893    1041.5708  0.026262502  0.025680374           10 
 3306000   0.70628531   -6.3981983    1041.2974  0.026247665  0.025672745            7 
 3307000   0.72508985   -6.3796534    1044.5863  0.026322607  0.025665145           10 
 3308000   0.71384181   -6.4202431    1044.3124   0.02630775  0.025657566           10 
 3309000   0.73032494   -6.4226664    1044.4876   0.02630421      0.02565           13 
 3310000    0.7361506    -6.382085    1045.1047    0.0263118  0.025642415            6 
 3311000    0.7392616   -6.4451627    1041.9508  0.026224473  0.025634812           15 
 3312000   0.73414796   -6.4098699     1043.136  0.026246377  0.025627205            8 
 3313000   0.71348732   -6.4197186    1042.0601  0.026211391  0.025619569            8 
 3314000   0.71837772   -6.3956676    1041.0285  0.026177542  0.025611952           12 
 3315000   0.72774294   -6.4203931    1043.9117  0.026242125  0.025604331           18 
 3316000    0.7270431   -6.3937728    1045.0893  0.026263803  0.025596746           10 
 3317000   0.71773087    -6.409239     1045.398  0.026263641  0.025589173           17 
 3318000   0.71780049   -6.3961292    1043.8338   0.02621644  0.025581589            9 
 3319000   0.72773213   -6.4248819    1044.4843  0.026224875  0.025574037           10 
 3320000   0.71665482   -6.4209155    1042.7161  0.026172592  0.025566472           19 
 3321000   0.73877165    -6.420128    1041.3834  0.026131272  0.025558881            7 
 3322000    0.7368009   -6.4025264     1046.432  0.026250051  0.025551321            8 
 3323000   0.74029058   -6.3998464    1042.1885  0.026135733  0.025543751           12 
 3324000   0.72849143   -6.3926012    1044.1966  0.026178213  0.025536202           10 
 3325000   0.72277368   -6.4054045    1045.8306  0.026211293  0.025528696           14 
 3326000   0.73037557   -6.3771875    1043.3012  0.026140038  0.025521142            9 
 3327000   0.71283572   -6.4116586    1044.8596  0.026171215  0.025513601           10 
 3328000   0.71998622    -6.413319    1039.6601  0.026033156  0.025506056            8 
 3329000   0.70160167   -6.4187381     1043.846  0.026130119  0.025498466           11 
 3330000   0.71294703   -6.4183537     1044.472  0.026137939  0.025490868           22 
 3331000   0.71725171   -6.4012456    1044.7252  0.026136425  0.025483283           12 
 3332000   0.72052968   -6.3992093    1043.8239  0.026106041   0.02547571           18 
 3333000   0.71264274   -6.4244722    1043.5887  0.026092326  0.025468142           27 
 3334000   0.73025916    -6.416538    1044.5967  0.026109695  0.025460573           11 
 3335000    0.7128623    -6.422985    1042.7654  0.026056106  0.025453001           19 
 3336000   0.71877544   -6.4139349    1043.0747  0.026056022  0.025445465            8 
 3337000   0.69892353   -6.3847813    1042.2669  0.026028041  0.025437916            7 
 3338000   0.70520978   -6.4107836    1044.7159  0.026081384  0.025430361           11 
 3339000   0.72381165   -6.3802754    1046.0103  0.026105877   0.02542279           16 
 3340000   0.72462966   -6.4365582     1043.991  0.026047681  0.025415219            7 
 3341000   0.73769447   -6.4057804    1043.7489  0.026033845  0.025407646            8 
 3342000   0.71643791   -6.4019424    1044.6869  0.026049444  0.025400087           20 
 3343000   0.73169855   -6.4419111     1040.606  0.025939925  0.025392512           11 
 3344000   0.72358885    -6.436287    1042.2683  0.025973592  0.025384899           11 
 3345000   0.69847928   -6.4175781    1040.2427  0.025915364  0.025377287           11 
 3346000   0.72617043    -6.426764    1044.6265    0.0260168  0.025369698            8 
 3347000   0.71690141   -6.4284201    1045.5085  0.026030984  0.025362136            8 
 3348000   0.70591792   -6.4120278    1046.0898  0.026037679  0.025354628            8 
 3349000   0.71143653   -6.4030869    1044.1901  0.025982634  0.025347128            6 
 3350000   0.71718194   -6.4028823    1044.6588  0.025986537  0.025339574            6 
 3351000   0.71412671   -6.4250732    1044.6387  0.025978283  0.025332029            8 
 3352000   0.72818263   -6.4253978    1042.1472  0.025908592  0.025324489           10 
 3353000   0.70497294   -6.4326415    1043.8852  0.025944061  0.025316963            6 
 3354000   0.71179805   -6.4121509    1043.9385  0.025937649  0.025309418           15 
 3355000   0.71429192   -6.4181192    1043.9066  0.025929125  0.025301874           21 
 3356000   0.71706863   -6.4069552      1047.73  0.026016338  0.025294379           16 
 3357000   0.71592199   -6.3892293    1045.2039  0.025945881  0.025286876            7 
 3358000   0.73093223   -6.4273955    1043.8959  0.025905694  0.025279324           13 
 3359000   0.73145806   -6.4245325    1044.3469  0.025909172  0.025271794           18 
 3360000    0.7071339   -6.4466847    1041.3999  0.025828372  0.025264234            8 
 3361000   0.71987531   -6.4266883    1043.6603   0.02587673  0.025256682            8 
 3362000    0.7228106   -6.4235689    1045.9572  0.025925966  0.025249143           11 
 3363000   0.72286651   -6.4159745    1045.9751  0.025918701  0.025241667           11 
 3364000   0.71803268   -6.4181119    1047.0458  0.025937519  0.025234206            6 
 3365000   0.71921691   -6.3997238    1046.1123  0.025906693  0.025226719            8 
 3366000   0.72262587    -6.401742    1048.4341  0.025956478  0.025219245           20 
 3367000   0.71099399   -6.4150057     1047.555  0.025927011  0.025211784           17 
 3368000   0.71340805   -6.4410064    1043.7124  0.025824238  0.025204302           16 
 3369000   0.70793204    -6.435481     1042.952  0.025797763  0.025196785           10 
 3370000   0.70131798   -6.4301599    1043.8932  0.025813382  0.025189288            7 
 3371000   0.71541905   -6.4179198     1044.234  0.025814151  0.025181795           12 
 3372000   0.72466824   -6.4155548     1045.102  0.025827946  0.025174319            9 
 3373000   0.71431591   -6.4323458    1047.0566  0.025868579  0.025166845           20 
 3374000   0.71841774    -6.391104    1046.3664  0.025843864  0.025159394           10 
 3375000   0.71722823   -6.4264727     1046.786  0.025846569  0.025151921           13 
 3376000   0.70675144   -6.4145571    1044.6578  0.025786381  0.025144473           15 
 3377000   0.70485642   -6.4292514    1046.0189   0.02581233  0.025137003           24 
 3378000   0.70386163   -6.4276327    1046.7402  0.025822484   0.02512952           13 
 3379000   0.71365189   -6.4386374    1045.5127  0.025784568  0.025121999           13 
 3380000   0.72420396   -6.4492877    1044.6752  0.025756292  0.025114481           15 
 3381000   0.72620759   -6.4425299    1045.8072  0.025776575  0.025106948           15 
 3382000    0.7107042   -6.4552239    1044.7781  0.025743595  0.025099462           31 
 3383000   0.71946504   -6.4353668    1044.2811  0.025723743  0.025092017            8 
 3384000   0.71868024    -6.458057    1044.5817  0.025723545  0.025084539           11 
 3385000    0.7176386   -6.4199007    1047.2744  0.025782235  0.025077046           16 
 3386000   0.70697346   -6.4548388    1045.3408  0.025727033  0.025069587           19 
 3387000   0.69978244   -6.4375213    1047.5301  0.025773302  0.025062192            8 
 3388000   0.72385518   -6.4068742    1048.8915   0.02579918  0.025054786            6 
 3389000   0.69817079   -6.4164302    1047.2844   0.02575205  0.025047378           15 
 3390000   0.70543554     -6.40118    1048.5036  0.025774424   0.02503996           12 
 3391000   0.70067248   -6.4285276    1047.3032  0.025737323  0.025032547           11 
 3392000   0.72068942   -6.4221355    1046.3984  0.025707508  0.025025148           15 
 3393000   0.69397194   -6.4203956    1048.6031  0.025754079   0.02501773           14 
 3394000   0.72194418   -6.4279062    1046.6283  0.025698004  0.025010328           12 
 3395000   0.70431388    -6.429288    1045.9305  0.025673306   0.02500296           20 
 3396000   0.71325045   -6.4397708     1049.482  0.025752896  0.024995575           10 
 3397000   0.70104539   -6.4317724    1047.3086  0.025691998  0.024988186            8 
 3398000   0.71518402   -6.4232966    1049.7248  0.025743693  0.024980798           11 
 3399000   0.68005919   -6.4265644    1045.6965  0.025637357  0.024973394           12 
 3400000   0.70039902   -6.4499932    1047.0812  0.025663756  0.024965946           26 
 3401000   0.71399932   -6.4297303    1048.2061  0.025683772  0.024958522           28 
 3402000   0.70997462   -6.4368215    1046.7174  0.025639756  0.024951145           30 
 3403000   0.70452295   -6.4513823    1044.7898  0.025585017  0.024943733           20 
 3404000   0.70900256   -6.4487619    1046.7213  0.025624786  0.024936318           18 
 3405000   0.71390438    -6.446687    1045.6456  0.025590936  0.024928882           31 
 3406000   0.70115175   -6.4441365    1046.7728  0.025611001  0.024921437           12 
 3407000   0.71265773   -6.4354553    1048.8031  0.025653144  0.024914008           11 
 3408000   0.70140303   -6.4691204    1047.9173  0.025623957  0.024906586           10 
 3409000   0.70323222   -6.4340193    1047.5937  0.025608529  0.024899192           27 
 3410000   0.71089573   -6.4355123    1047.7618  0.025605128  0.024891773           12 
 3411000   0.69199165    -6.409159    1047.0766  0.025580881  0.024884366           14 
 3412000   0.70729301   -6.4463046    1049.4813  0.025632113  0.024876977           19 
 3413000   0.70854316   -6.4530719    1046.7794  0.025558634  0.024869567           14 
 3414000   0.70898387    -6.455756    1046.1417   0.02553558  0.024862167           22 
 3415000   0.71282124   -6.4290754    1048.7033  0.025590612  0.024854768           20 
 3416000     0.705524   -6.4278179    1046.1203  0.025520108  0.024847366           11 
 3417000   0.71471313   -6.4423152    1046.9412   0.02553266  0.024839976           15 
 3418000   0.70764248    -6.453975    1049.5176  0.025588004  0.024832567            8 
 3419000   0.70764861   -6.4571102    1047.6072  0.025533958  0.024825162           16 
 3420000   0.70625702   -6.4662572    1047.5441  0.025524953  0.024817756           26 
 3421000   0.71214181   -6.4655249    1048.0795  0.025530534  0.024810347           17 
 3422000   0.68912408   -6.4374681    1050.4541    0.0255809  0.024802957           10 
 3423000   0.72082236   -6.4464689    1051.0972  0.025589084  0.024795606           13 
 3424000   0.68875187   -6.4395374    1048.7847  0.025525329  0.024788257            8 
 3425000   0.70313844   -6.4651649    1051.3505  0.025580304  0.024780918            5 
 3426000   0.70586023   -6.4465245    1047.8351  0.025487331  0.024773593           26 
 3427000   0.70712155   -6.4400135    1048.3864  0.025493298  0.024766225           10 
 3428000   0.69700854   -6.4637359      1046.79  0.025447053  0.024758853           19 
 3429000    0.6910217   -6.4424777    1047.8387  0.025465118  0.024751466           11 
 3430000   0.71289228   -6.4403048    1049.4293   0.02549634  0.024744136           11 
 3431000   0.70727963   -6.4380326    1050.3091  0.025510275  0.024736832           13 
 3432000   0.69741458   -6.4428732    1049.2996  0.025478331  0.024729523           18 
 3433000   0.69030299   -6.4699749    1049.4772  0.025475222  0.024722177           15 
 3434000   0.71071874   -6.4571338    1050.3041  0.025487869  0.024714865            8 
 3435000   0.69787335   -6.4732498    1047.0703  0.025401998  0.024707494           12 
 3436000   0.71010653   -6.4326006    1050.3862  0.025475024   0.02470016           25 
 3437000   0.69989818   -6.4350162     1052.865  0.025527713  0.024692904           12 
 3438000   0.71386007   -6.4509206    1050.0736  0.025452629  0.024685581           15 
 3439000   0.69516739   -6.4450279    1048.2585  0.025401243  0.024678268           15 
 3440000    0.7122235   -6.4511874    1048.9654  0.025410983  0.024670943            8 
 3441000   0.69281832   -6.4698965    1047.7948   0.02537525   0.02466362           11 
 3442000   0.70318049   -6.4576182    1047.5423  0.025361764  0.024656247           10 
 3443000    0.7002224   -6.4480421    1051.6622  0.025454116  0.024648882           42 
 3444000   0.69831867   -6.4498549    1050.9361  0.025429155  0.024641538            7 
 3445000   0.70560375   -6.4400525    1050.0215  0.025399648  0.024634215            5 
 3446000   0.68971349   -6.4861662    1043.7295  0.025240122  0.024626865           19 
 3447000   0.69847502   -6.4859875    1048.5924  0.025350363  0.024619479           15 
 3448000   0.69681942   -6.4649082    1049.8942  0.025374473   0.02461213           16 
 3449000   0.68904532   -6.4525157    1047.4187  0.025307304  0.024604765           12 
 3450000    0.6973734   -6.4536115    1049.1484   0.02534175  0.024597412           16 
 3451000   0.70511273   -6.4394864    1048.2686   0.02531316  0.024590055           20 
 3452000   0.69550587   -6.4875048    1046.9371  0.025273683  0.024582677           19 
 3453000   0.70323351   -6.4609647    1047.6998  0.025284771   0.02457529            9 
 3454000   0.71453321    -6.474032    1045.8399  0.025232579  0.024567888           21 
 3455000   0.69278995   -6.4628362    1047.3593  0.025261922  0.024560508            7 
 3456000   0.68959194   -6.4652647    1042.9359  0.025147953  0.024553148           15 
 3457000   0.67925101   -6.4536902    1047.4439  0.025249347  0.024545789           21 
 3458000   0.68606969   -6.4480408    1048.5393  0.025268442  0.024538409           28 
 3459000    0.6933527   -6.4544012    1047.4607  0.025235153  0.024531057           12 
 3460000    0.6825847   -6.4439767    1049.6464  0.025280502  0.024523717           19 
 3461000   0.68540526   -6.4613673    1045.9625  0.025184497  0.024516359           15 
 3462000   0.69802998    -6.454955    1050.4094  0.025284263   0.02450897           12 
 3463000   0.70922635   -6.4644376    1049.4647  0.025254227  0.024501641           17 
 3464000   0.69951114   -6.4737453    1046.6904  0.025180197  0.024494278           21 
 3465000   0.70273396   -6.4895213    1047.3887  0.025189722  0.024486917           14 
 3466000   0.68022664   -6.4400851    1048.6307  0.025212318  0.024479516            7 
 3467000   0.69805587   -6.4843735    1049.8467  0.025234274  0.024472155           24 
 3468000   0.70543133   -6.5062786    1048.2565  0.025188787  0.024464748           15 
 3469000   0.70343756   -6.4504896    1048.9908  0.025199164   0.02445736           20 
 3470000   0.68832743   -6.4672866    1047.5393  0.025157043  0.024449988            8 
 3471000   0.69023524   -6.4621768    1048.1825  0.025165239  0.024442607           15 
 3472000   0.70460086   -6.4683327     1048.909  0.025175427  0.024435233            6 
 3473000   0.69793037   -6.4851118    1048.5858  0.025160424  0.024427851           30 
 3474000   0.68600312   -6.5079086     1046.266  0.025097535  0.024420466           22 
 3475000   0.70844111   -6.4609852    1048.4438  0.025142536  0.024413113           18 
 3476000   0.69943054   -6.4743171    1049.8514  0.025169049  0.024405744           10 
 3477000   0.70862929   -6.4743369    1051.6229  0.025204268  0.024398465           14 
 3478000   0.69522237   -6.4846301    1050.9494  0.025180885  0.024391166           10 
 3479000   0.68646854   -6.4695107     1044.537  0.025020049  0.024383815           12 
 3480000   0.70246954   -6.4521731    1050.6046  0.025158156  0.024376527           11 
 3481000   0.68606231    -6.484737    1048.5822  0.025102514  0.024369221           16 
 3482000    0.6958909   -6.4895058    1050.2093  0.025134244  0.024361902           17 
 3483000   0.68785561   -6.4901557    1049.3872   0.02510736  0.024354597           14 
 3484000   0.70092396   -6.4519336    1048.2138  0.025072086  0.024347285            6 
 3485000   0.69614793   -6.4653568    1052.3158  0.025162979  0.024339964           11 
 3486000   0.70780816    -6.448636    1051.7599  0.025142472  0.024332678           24 
 3487000   0.69152485   -6.4734855    1048.3395   0.02505352  0.024325386           17 
 3488000   0.69180222   -6.4568688      1049.64  0.025077409  0.024318087           12 
 3489000    0.7038951   -6.4561516    1049.0788  0.025056816  0.024310794            8 
 3490000   0.70340512   -6.4920597    1047.7242  0.025017293  0.024303517           12 
 3491000   0.70091428    -6.476992    1047.6046  0.025007271  0.024296198           25 
 3492000   0.70656443   -6.4710627    1047.8468   0.02500589  0.024288891           10 
 3493000   0.69488731   -6.4651321    1051.3822  0.025083076  0.024281592           12 
 3494000   0.69438012   -6.4722785    1050.4702  0.025054144  0.024274291           23 
 3495000   0.69184278   -6.4623298    1050.0453  0.025036845  0.024267012           15 
 3496000    0.6896996   -6.4725534    1049.3364  0.025012786  0.024259744           12 
 3497000   0.69352118   -6.4603222     1049.588  0.025011628  0.024252498           17 
 3498000   0.69812227   -6.4743861    1049.0968  0.024992777  0.024245214           11 
 3499000   0.68476659    -6.488853    1048.8018  0.024978609    0.0242379           19 
 3500000   0.68027623   -6.5063614    1049.4376  0.024986609  0.024230559           12 
 3501000   0.69434419   -6.4980027     1046.746  0.024915405  0.024223236           10 
 3502000   0.69655084    -6.503912    1045.4777  0.024878109  0.024215892            8 
 3503000   0.68392015   -6.4834987    1048.6375  0.024946176  0.024208582           17 
 3504000   0.68735767   -6.4989152    1046.0445  0.024877391  0.024201261           22 
 3505000   0.68470116   -6.5070233    1050.1727  0.024968443   0.02419396           15 
 3506000   0.69166556   -6.4670162    1050.0598  0.024958638  0.024186666           11 
 3507000   0.69060823   -6.4982364     1049.431  0.024936579  0.024179426           13 
 3508000   0.69234224    -6.454106    1051.3341  0.024974679   0.02417219           18 
 3509000   0.68052524    -6.494198    1051.8298  0.024979335  0.024164984           11 
 3510000   0.70171125   -6.5044992    1052.5012  0.024988158  0.024157735           16 
 3511000    0.6936533   -6.4707602    1051.9161  0.024967153   0.02415049           25 
 3512000   0.68983929   -6.4698396    1053.0233  0.024986317  0.024143308           15 
 3513000   0.69250124   -6.4718686    1052.3701   0.02496371  0.024136105            8 
 3514000   0.69097703   -6.4880153    1049.6179  0.024891336  0.024128915           24 
 3515000    0.6940869   -6.4923527    1051.2769  0.024923588  0.024121686           16 
 3516000   0.67557498   -6.4901892    1048.6104  0.024853298  0.024114468           25 
 3517000   0.69633821   -6.5127423    1049.8418  0.024875411   0.02410721           16 
 3518000   0.68702478     -6.49291     1049.814   0.02486768  0.024099958           28 
 3519000   0.67269946   -6.5402998    1046.7333  0.024787659  0.024092682            5 
 3520000    0.6718416   -6.5118898    1050.4666     0.024869  0.024085452            7 
 3521000   0.68358331   -6.5029148    1050.5615  0.024864184  0.024078217            8 
 3522000   0.67402167   -6.5318531    1049.8932  0.024841312  0.024070972           16 
 3523000   0.69021787    -6.495863    1051.1676  0.024864405  0.024063729            9 
 3524000   0.67267536   -6.5074249    1050.7873  0.024848357  0.024056473           10 
 3525000   0.68698594   -6.4990519    1048.4139  0.024785198  0.024049241           15 
 3526000   0.69387576   -6.5020202     1050.841  0.024835531  0.024042048           19 
 3527000   0.69166261    -6.476851    1053.9502  0.024901952  0.024034872           10 
 3528000   0.69720628   -6.5086081    1050.8269  0.024821119  0.024027703            9 
 3529000   0.68975572   -6.4845321    1052.5553  0.024854899  0.024020502            8 
 3530000   0.66812509   -6.4968135    1053.9361  0.024880455  0.024013327            7 
 3531000    0.6808641   -6.4884386    1052.6925  0.024844059   0.02400616           17 
 3532000   0.68878213   -6.4891569    1052.5184  0.024832917  0.023998982           12 
 3533000   0.68649674   -6.5110937    1052.0118   0.02481394  0.023991763           12 
 3534000   0.68826511    -6.495131     1051.392  0.024792302  0.023984576           11 
 3535000   0.68525744   -6.4908973    1050.6918  0.024768784  0.023977408           19 
 3536000   0.68549488   -6.4747209    1050.2727  0.024751903  0.023970282           16 
 3537000   0.68129476   -6.4988302     1052.525  0.024797969  0.023963132           25 
 3538000    0.6860458   -6.4786319    1052.5949  0.024792606  0.023955948           19 
 3539000   0.68827253   -6.4790273    1053.8295  0.024814673   0.02394879           10 
 3540000   0.68500446   -6.4896019    1051.7117  0.024757807  0.023941651           20 
 3541000   0.68189909   -6.5005004    1050.0519  0.024711756  0.023934453           17 
 3542000   0.69784661   -6.5009807    1051.8884  0.024747987  0.023927277            8 
 3543000    0.6993481   -6.5328657    1049.3201  0.024680593  0.023920078           25 
 3544000   0.69162103   -6.5102003     1048.674  0.024658436  0.023912879           13 
 3545000   0.68944373   -6.5146335    1051.4542  0.024716836  0.023905671           12 
 3546000   0.67397722   -6.5239447    1049.6668   0.02466786  0.023898454            8 
 3547000   0.70782174   -6.4870073    1053.2827  0.024745859  0.023891244           16 
 3548000   0.68189057   -6.5086222    1052.1968  0.024713379  0.023884043           10 
 3549000   0.68668744   -6.5219902    1053.5806  0.024738907  0.023876845           18 
 3550000   0.66042611   -6.5046547    1051.9459  0.024693567  0.023869648           22 
 3551000   0.67877879   -6.4892154    1051.6183  0.024678923  0.023862462           10 
 3552000   0.69053506   -6.5045948    1051.3709  0.024666172  0.023855282           12 
 3553000   0.69027128   -6.5175442    1050.8271  0.024646474  0.023848098           15 
 3554000   0.67889021   -6.5441883    1048.3672  0.024581861  0.023840851           26 
 3555000   0.68341687   -6.4879351    1050.0431  0.024614231  0.023833626           16 
 3556000   0.69731482   -6.5224452    1049.4315  0.024592976   0.02382641           21 
 3557000   0.69167261   -6.5030353    1050.5725  0.024612795  0.023819193           15 
 3558000   0.68863142    -6.483933    1054.1539  0.024689758  0.023811994           22 
 3559000   0.66933093   -6.5203464     1049.778  0.024580359  0.023804796           17 
 3560000   0.68662834   -6.5305284    1050.6321  0.024593447  0.023797607           25 
 3561000   0.68505289   -6.5234551    1048.4739  0.024536036  0.023790392           11 
 3562000   0.67214828   -6.5235383    1047.9835  0.024517675  0.023783191           15 
 3563000    0.6774679   -6.5176505     1051.746  0.024598793  0.023775964           12 
 3564000   0.68485356   -6.5461884    1051.0455  0.024575511  0.023768767           18 
 3565000   0.68238872   -6.5229071    1050.6502  0.024559379  0.023761536            9 
 3566000   0.68664439    -6.527003    1049.9422  0.024535946  0.023754311            9 
 3567000    0.7022894   -6.5211816    1051.0022  0.024553831  0.023747098           18 
 3568000   0.68795218   -6.5357077    1049.3619   0.02450864  0.023739882           10 
 3569000   0.67947144   -6.5080504    1052.6625  0.024578838   0.02373268            8 
 3570000   0.68898378    -6.543453     1049.495  0.024498016  0.023725479           16 
 3571000   0.69275608   -6.5109979    1051.4448  0.024536657  0.023718294           20 
 3572000   0.67929599   -6.5312603    1050.1438  0.024499436  0.023711103           18 
 3573000   0.67937976   -6.5143475    1052.1457  0.024539269  0.023703916           25 
 3574000   0.68575255   -6.5315016    1047.4787  0.024423586  0.023696707           22 
 3575000   0.67403854   -6.5071778    1050.2515  0.024481387  0.023689539           11 
 3576000   0.67685838   -6.5098858    1051.5826  0.024505559  0.023682398           20 
 3577000    0.6895151   -6.5140123    1054.1631  0.024558827   0.02367526           34 
 3578000   0.68102123   -6.5263582    1051.8087  0.024497127  0.023668084           11 
 3579000   0.68502508   -6.5319584    1052.9318  0.024516434  0.023660945           32 
 3580000   0.67764507   -6.5214905    1050.5915  0.024455111  0.023653784           22 
 3581000   0.67614243   -6.5220702    1053.3267  0.024511931  0.023646646           15 
 3582000   0.66531398   -6.5053033    1053.4418  0.024507765  0.023639539           12 
 3583000   0.68997578   -6.4783016    1054.8498  0.024533673  0.023632476           20 
 3584000    0.6912479   -6.5065805    1051.0516  0.024438513    0.0236254            7 
 3585000   0.69178375   -6.5296547    1051.4892  0.024441868  0.023618306           23 
 3586000   0.70533557   -6.5512153    1051.2722   0.02443001  0.023611176           15 
 3587000   0.70840163   -6.5397033    1050.9548  0.024415826  0.023604066           22 
 3588000   0.67721319   -6.5347167    1051.0953  0.024412284  0.023596924           13 
 3589000   0.68836434   -6.5233481    1050.2296  0.024385381  0.023589749           15 
 3590000   0.65748848   -6.5379472      1053.96  0.024465181  0.023582611           18 
 3591000   0.67996417   -6.5243224    1051.1126  0.024392291  0.023575479           15 
 3592000   0.67511665   -6.5435037    1049.3569  0.024344769  0.023568323           16 
 3593000   0.68266604   -6.5083911    1053.0008  0.024422507  0.023561182           22 
 3594000   0.66875954   -6.5482307    1050.3292  0.024353766  0.023554046           33 
 3595000   0.66066172   -6.5293583    1053.1423    0.0244122  0.023546878           17 
 3596000   0.66976534   -6.5701399    1050.4675  0.024343425   0.02353974           22 
 3597000   0.68520588   -6.5227693    1051.5546  0.024361843  0.023532609           29 
 3598000   0.68017576   -6.5162463    1050.0781  0.024320874  0.023525467           38 
 3599000   0.67273499   -6.5479058    1051.0432  0.024336463  0.023518321           27 
 3600000   0.67061103   -6.5433916    1051.7776  0.024346703  0.023511176           24 
 3601000   0.67749001   -6.5414349    1051.7896  0.024340221  0.023504002           32 
 3602000   0.66714429   -6.5218776    1052.7764  0.024356292  0.023496877           11 
 3603000   0.67295715   -6.5240855    1052.2523  0.024337412   0.02348977           20 
 3604000   0.66029145   -6.5265377    1051.5754  0.024315006  0.023482648            9 
 3605000    0.6816199   -6.5594413    1048.2267  0.024230854  0.023475534           17 
 3606000   0.67481075   -6.5554723     1049.204  0.024246717    0.0234684           19 
 3607000   0.66654559    -6.557263    1050.6804  0.024274107  0.023461257           14 
 3608000   0.67799346   -6.5349313    1052.6226  0.024312236  0.023454145           14 
 3609000   0.67523684   -6.5316738    1052.5844  0.024304618  0.023447044            8 
 3610000   0.68085852   -6.5369747    1052.5877  0.024297962   0.02343995           21 
 3611000    0.6617255   -6.5342937    1051.4586  0.024265175  0.023432852           24 
 3612000    0.6781615   -6.4806798    1052.9974   0.02429396  0.023425809           19 
 3613000    0.6726262   -6.5484599    1050.8773  0.024238337  0.023418734           21 
 3614000   0.67369673   -6.5659709    1052.4879  0.024268767  0.023411646           13 
 3615000   0.67955356   -6.5456401    1052.4835  0.024261952  0.023404543           37 
 3616000   0.67914501   -6.5548773    1050.5979  0.024211788  0.023397408           26 
 3617000   0.67092626   -6.5409013    1053.3804    0.0242692   0.02339032           23 
 3618000   0.68305273   -6.5383069    1054.5665  0.024289813  0.023383244           16 
 3619000   0.68045215   -6.5152975    1052.2845  0.024230554  0.023376168            9 
 3620000   0.67016154   -6.5665871    1053.6408  0.024255084  0.023369094           13 
 3621000   0.66116121   -6.5273322    1053.0866  0.024235629  0.023362017           21 
 3622000   0.66083841   -6.5605052     1054.053  0.024251174  0.023354956            6 
 3623000   0.67672299   -6.5574322    1051.5518  0.024186948  0.023347901           20 
 3624000   0.66550105   -6.5513259    1052.2201  0.024195643   0.02334085           20 
 3625000   0.67903445   -6.5031305    1054.5005   0.02424139   0.02333382           13 
 3626000   0.65530154   -6.5493649    1052.3007   0.02418415  0.023326756           17 
 3627000   0.67772172    -6.532769    1053.1564  0.024197142  0.023319692            8 
 3628000   0.67984552   -6.5544506    1052.1726  0.024167875  0.023312647           11 
 3629000   0.67431217   -6.5568406    1051.3613  0.024142585  0.023305587           29 
 3630000   0.67425016   -6.5239681    1054.5065  0.024208139  0.023298537           17 
 3631000   0.68145819   -6.5573065    1052.2566  0.024149835  0.023291493           21 
 3632000    0.6796838   -6.5430637    1054.9508  0.024205001   0.02328446           17 
 3633000   0.68047197   -6.5565876     1051.641  0.024122419  0.023277424            9 
 3634000   0.66811666   -6.5406277    1053.1234  0.024149775  0.023270372           12 
 3635000   0.67188968   -6.5303045    1053.3607  0.024148572  0.023263346            9 
 3636000   0.66624207   -6.5068247    1055.6256  0.024193839  0.023256354           11 
 3637000   0.68159965   -6.5504514    1054.4018  0.024159146  0.023249362           15 
 3638000   0.66145367   -6.5537712     1051.892  0.024095017  0.023242356            8 
 3639000   0.66789955     -6.51081    1053.6057  0.024127637  0.023235351           11 
 3640000   0.66580009   -6.5341087    1053.0146  0.024107477  0.023228349           10 
 3641000   0.67076827   -6.5288753    1054.6836  0.024139054  0.023221344           16 
 3642000   0.67088309   -6.5390781    1052.2863  0.024077575  0.023214344           43 
 3643000   0.69160862   -6.5452166    1052.3497  0.024072415  0.023207276           23 
 3644000    0.6701644    -6.569189    1050.6915  0.024027889  0.023200234            5 
 3645000   0.66609184   -6.5329919    1055.5289   0.02413189  0.023193232           17 
 3646000   0.65663292   -6.5556712    1051.1941  0.024026196   0.02318621           10 
 3647000   0.67069795   -6.5429566    1054.0071  0.024083883  0.023179208           11 
 3648000   0.67550271   -6.5461179    1053.7362  0.024071093  0.023172197            9 
 3649000   0.65941924   -6.5463869    1054.3442  0.024078382  0.023165163            7 
 3650000   0.64780937   -6.5274878    1054.9536  0.024085699  0.023158166           13 
 3651000   0.67725961   -6.5274074    1052.7938  0.024029804  0.023151161           14 
 3652000   0.68851561   -6.5587556    1052.4239  0.024014784  0.023144152           18 
 3653000   0.66505439   -6.5414368    1055.1072  0.024069423  0.023137121            5 
 3654000    0.6539225   -6.5682011    1052.2879  0.023998538   0.02313008           12 
 3655000   0.65612289   -6.5451071    1051.0524  0.023963802  0.023123063           16 
 3656000   0.66132105   -6.5284752    1054.7066   0.02404054  0.023116049           31 
 3657000   0.67308105   -6.5154113     1055.795   0.02405877  0.023109068           16 
 3658000   0.67522999   -6.5454347    1054.8408  0.024030454   0.02310207            8 
 3659000   0.66338617   -6.5457116    1053.9736  0.024004136  0.023095056           15 
 3660000   0.65785354   -6.5592235    1054.0117  0.023998445  0.023088024           16 
 3661000   0.67197673   -6.5279726      1053.16  0.023972503  0.023081032           10 
 3662000   0.68256967     -6.54326    1053.3845  0.023971066  0.023074054            8 
 3663000   0.66517519   -6.5325801    1052.8564  0.023952507  0.023067045           32 
 3664000   0.65756978   -6.5666324    1053.1633  0.023952949   0.02306004           16 
 3665000   0.66989763    -6.556982    1051.7531   0.02391435  0.023053027           11 
 3666000   0.65348265   -6.5599297    1052.3822  0.023922128  0.023046012           23 
 3667000   0.67255386    -6.569586    1050.6558   0.02387637  0.023038999           19 
 3668000   0.67129182   -6.5726355    1053.4164  0.023932578  0.023031976           13 
 3669000   0.66396433   -6.5722636    1053.4123  0.023925962  0.023024957           30 
 3670000   0.66908922   -6.5678304    1054.2706  0.023938934  0.023017949           25 
 3671000   0.66032239   -6.5728225    1050.1556  0.023838998  0.023010922           28 
 3672000   0.67621033   -6.5651566    1050.8949  0.023849284  0.023003869           14 
 3673000    0.6637705   -6.5496557    1052.0984  0.023870097  0.022996843           22 
 3674000   0.67105033   -6.5308583    1053.2578  0.023889897  0.022989822           42 
 3675000    0.6568763   -6.5818731    1053.2526  0.023883279  0.022982815           47 
 3676000   0.66864205   -6.5713288    1052.4794  0.023859253  0.022975796           39 
 3677000   0.66079796   -6.5351045    1053.5824  0.023877762  0.022968813           11 
 3678000   0.64325994   -6.5628602    1050.9957  0.023812664  0.022961803           39 
 3679000     0.669138   -6.5494077    1051.7352   0.02382294  0.022954805           30 
 3680000   0.65693597   -6.5575925    1051.2801  0.023806162  0.022947792           16 
 3681000   0.66653558   -6.5419495    1053.2716  0.023844779  0.022940814            9 
 3682000   0.65133671   -6.5456841    1052.6057  0.023823232  0.022933848           11 
 3683000   0.65413287   -6.5557263    1054.3633  0.023856533  0.022926893           15 
 3684000    0.6672746   -6.5140464    1055.4126  0.023873792  0.022919956           11 
 3685000   0.67193782   -6.5585129     1056.963  0.023902374  0.022913027           13 
 3686000   0.67172019   -6.5364121    1055.4712  0.023862164   0.02290607           28 
 3687000   0.65293727   -6.5402208    1053.7948  0.023817801  0.022899117           25 
 3688000   0.66032571    -6.575886    1053.4273  0.023803038   0.02289213           33 
 3689000   0.65493292    -6.557693    1053.7627  0.023804164  0.022885168           19 
 3690000   0.64801152   -6.5618611    1053.5905  0.023793823  0.022878219           19 
 3691000   0.65299234   -6.5598464    1054.2159  0.023801496  0.022871241           24 
 3692000   0.65528771   -6.5543357    1050.5215  0.023711663  0.022864284           23 
 3693000    0.6549453   -6.5589929    1052.8866  0.023758612  0.022857296            9 
 3694000   0.65356285   -6.5761224    1051.7919  0.023727483  0.022850313           12 
 3695000   0.66211901   -6.5831782    1052.2041  0.023730359   0.02284329           14 
 3696000   0.64221447   -6.5715977    1050.4356  0.023684064  0.022836288           25 
 3697000   0.64738068   -6.5596753    1054.3815  0.023766602  0.022829308           20 
 3698000   0.67578173    -6.570777    1052.1374  0.023709605  0.022822352           15 
 3699000   0.65927653   -6.5704109    1055.0062  0.023767824  0.022815389           21 
 3700000   0.65748568   -6.5690476    1054.4428  0.023748713  0.022808437           14 
 3701000    0.6535284   -6.5553528    1055.2128  0.023759633  0.022801501           20 
 3702000   0.64969497   -6.5561092    1052.8005  0.023698912  0.022794587           12 
 3703000    0.6537793   -6.5762591    1056.5524  0.023776946  0.022787649           21 
 3704000   0.64473169   -6.5745764    1053.7332  0.023707101  0.022780718           34 
 3705000   0.67532679   -6.5448952    1055.1626  0.023732853  0.022773781           18 
 3706000   0.66454732   -6.5576334    1056.4014  0.023754303  0.022766847           20 
 3707000    0.6753963   -6.5618713    1054.3775  0.023702399  0.022759955           14 
 3708000   0.66831883   -6.5612211    1054.7274  0.023703869  0.022753064           26 
 3709000   0.65677864   -6.5966537    1051.8025  0.023631764  0.022746171           28 
 3710000   0.67720883   -6.5605782     1056.298   0.02372637  0.022739252           15 
 3711000     0.663301   -6.5559929    1053.4939  0.023657007   0.02273235           15 
 3712000   0.65993888   -6.5686245    1053.3884  0.023648267  0.022725437           13 
 3713000   0.64787342   -6.5692007    1053.4432  0.023643128   0.02271852           16 
 3714000   0.63549549   -6.5395047    1052.8601  0.023623679  0.022711624           14 
 3715000   0.65335898   -6.5724723    1054.4971   0.02365404  0.022704727           20 
 3716000    0.6640692    -6.568802    1054.5933  0.023649833   0.02269784            9 
 3717000   0.64845571   -6.5791419    1053.9164  0.023628294  0.022690917           12 
 3718000   0.64839581   -6.5545827    1054.3782   0.02363229  0.022684003           30 
 3719000   0.65610703   -6.5779276    1053.8513  0.023614127  0.022677104           34 
 3720000   0.66365809   -6.5895905    1053.5716  0.023601515  0.022670199           12 
 3721000   0.65824754   -6.5826795    1055.2191  0.023632068  0.022663293           11 
 3722000   0.65305732   -6.5695502    1055.1814  0.023624874  0.022656396           17 
 3723000   0.66376461   -6.5919182    1053.2128  0.023574464  0.022649494           19 
 3724000   0.65634463   -6.5831074    1053.9262  0.023584098  0.022642586           12 
 3725000    0.6493403   -6.5774036    1053.6635   0.02357189  0.022635675           10 
 3726000   0.66487331    -6.584065    1054.5533  0.023585464  0.022628765            8 
 3727000   0.65985987   -6.5903213    1054.5513  0.023579091   0.02262188           15 
 3728000   0.64984159   -6.5883911    1053.2248  0.023543116  0.022615003           13 
 3729000   0.66259498   -6.6053302    1053.6575  0.023546471  0.022608145           18 
 3730000   0.65402698   -6.5830667    1055.3714  0.023578451  0.022601242           16 
 3731000   0.64839354   -6.5992542     1052.005  0.023496941  0.022594368           18 
 3732000   0.66257987   -6.5780936    1055.2779  0.023563725  0.022587499           26 
 3733000   0.67174544    -6.579136    1054.5442  0.023541035  0.022580626           15 
 3734000   0.65852013   -6.5781917    1054.0879  0.023524546  0.022573793           19 
 3735000   0.65906357   -6.5590716    1054.6758  0.023531366  0.022566976           13 
 3736000    0.6517475   -6.5774753    1054.8065  0.023527982   0.02256016           12 
 3737000   0.66366458    -6.547638    1056.8162  0.023566503  0.022553313           18 
 3738000   0.65492501   -6.5866927    1053.6453  0.023489507  0.022546463           29 
 3739000   0.65415563   -6.5846134    1056.6294  0.023549734  0.022539611           13 
 3740000   0.64932026    -6.585931     1054.235  0.023490085  0.022532755           31 
 3741000   0.66043988   -6.5717967    1054.3435  0.023486222  0.022525926           24 
 3742000   0.66952698   -6.6210516    1053.5826  0.023463001  0.022519066           16 
 3743000   0.65557789   -6.5856908    1055.6564  0.023502904  0.022512209           44 
 3744000    0.6538792   -6.5994369    1053.9372   0.02345836  0.022505338           32 
 3745000   0.63744817   -6.5995408    1054.6583  0.023468142  0.022498475           38 
 3746000   0.65086943   -6.6010525    1053.9793  0.023446771  0.022491624           24 
 3747000   0.66543613    -6.613031    1056.2799  0.023491679  0.022484779           66 
 3748000   0.65910869   -6.5874318    1056.7429  0.023495706  0.022477955           53 
 3749000   0.65800056   -6.5930844    1054.2383  0.023433766  0.022471155           53 
 3750000   0.66086981   -6.5864576    1054.7678  0.023439286  0.022464338           16 
 3751000   0.65757445   -6.6150082    1056.8746   0.02347984  0.022457502           18 
 3752000   0.65419432   -6.6006073    1054.3333  0.023417139  0.022450664           17 
 3753000   0.64984815   -6.5978281    1054.8339  0.023422016   0.02244383           15 
 3754000   0.63980431   -6.5968764    1058.5248  0.023497708  0.022437023           14 
 3755000   0.65952734   -6.5994402    1056.6808  0.023450528  0.022430213           31 
 3756000   0.67406984   -6.6063141    1053.9824  0.023384416  0.022423393           31 
 3757000   0.64978666    -6.584427    1057.6529  0.023459606  0.022416586           23 
 3758000    0.6710059   -6.5888205    1056.2779  0.023422874  0.022409794           25 
 3759000   0.64602465   -6.5983369    1054.8513  0.023385017  0.022402999           27 
 3760000   0.65072203   -6.5979351    1054.9958  0.023381998  0.022396173           49 
 3761000   0.65068116   -6.5944666    1055.8766  0.023395298  0.022389364           20 
 3762000   0.64740923   -6.5927739    1058.2602  0.023441879  0.022382567           39 
 3763000   0.65378678    -6.590125    1054.6935  0.023356664  0.022375767           14 
 3764000   0.64569007   -6.5975482    1056.6397  0.023393546  0.022368983           46 
 3765000   0.64387147   -6.5755329    1055.9579  0.023372242  0.022362184            9 
 3766000   0.64454996   -6.5841809    1057.2414  0.023394437  0.022355399           17 
 3767000   0.64468473   -6.5902352    1053.7899  0.023311872  0.022348603           12 
 3768000   0.64418763   -6.5879723     1053.428  0.023297683  0.022341836           24 
 3769000   0.65890539   -6.5830385     1058.527  0.023404241  0.022335064           16 
 3770000   0.63863694   -6.5879842    1055.4285  0.023329542   0.02232829           28 
 3771000   0.65129624   -6.5981713     1055.956  0.023335013  0.022321517           27 
 3772000   0.66535144   -6.5912894    1054.8968  0.023305426  0.022314742           19 
 3773000   0.64634351   -6.5896014    1053.6472  0.023271649   0.02230797           14 
 3774000   0.64546887   -6.6451789    1052.8975   0.02324893  0.022301189           20 
 3775000   0.64596556   -6.5957503    1055.9164  0.023309412  0.022294391           29 
 3776000   0.65083226   -6.6122222    1055.4121   0.02329211  0.022287605           20 
 3777000   0.64722935   -6.5993668    1052.9956  0.023232627  0.022280807           19 
 3778000      0.64335   -6.6187065    1054.1043  0.023250934  0.022274005           27 
 3779000   0.63871374   -6.6132062    1053.3327  0.023227766  0.022267232           19 
 3780000   0.63780355   -6.6038301    1053.8237  0.023232444  0.022260458           25 
 3781000   0.64316904   -6.5957688    1055.5634  0.023264642  0.022253664           34 
 3782000   0.64623013   -6.6066611    1054.1038  0.023226332  0.022246858           48 
 3783000   0.64949885   -6.6143322    1054.8844  0.023237387  0.022240054           18 
 3784000   0.64866572   -6.6107208    1054.4266  0.023221163  0.022233265           70 
 3785000   0.65557723   -6.6039649    1053.5668  0.023196098  0.022226508           14 
 3786000   0.64977901   -6.6088882    1055.0135  0.023221816   0.02221973           19 
 3787000   0.65122506     -6.62245    1055.5138  0.023226691  0.022212949           19 
 3788000   0.64517254   -6.6067108    1055.3043  0.023215951  0.022206174           14 
 3789000   0.64124475   -6.6129984    1054.5733  0.023193747  0.022199405           33 
 3790000   0.64402104   -6.5942447    1054.9248  0.023195357  0.022192638           14 
 3791000    0.6385417   -6.5872625    1056.9783  0.023234378  0.022185876           11 
 3792000   0.65314354    -6.591063    1057.8998  0.023248501  0.022179111           22 
 3793000    0.6607892   -6.6055443    1056.7042  0.023216104  0.022172374           40 
 3794000    0.6391747   -6.6375517    1053.8174  0.023146578  0.022165637           50 
 3795000   0.65202723   -6.6088462    1057.1417  0.023213475  0.022158884           21 
 3796000   0.64366163   -6.5978319    1057.1299  0.023207103  0.022152143           16 
 3797000   0.65493805   -6.6253237    1055.6341  0.023168162  0.022145404           53 
 3798000   0.63746079   -6.6148614    1056.4212  0.023179331  0.022138679            9 
 3799000   0.64554551   -6.5845593    1054.9644  0.023141273  0.022131972           15 
 3800000   0.64062597   -6.6105224    1059.0438  0.023224645   0.02212527           13 
 3801000    0.6378115   -6.6122033    1053.9271  0.023106356  0.022118555           39 
 3802000   0.64125524   -6.6075137    1055.6431  0.023137891  0.022111852           27 
 3803000   0.64010134    -6.615955    1055.6814  0.023132645  0.022105134           38 
 3804000   0.63244478   -6.5896142     1057.497  0.023166337  0.022098426           24 
 3805000   0.64660998   -6.6100923    1055.5574  0.023117771   0.02209173           18 
 3806000   0.64808032   -6.6217243    1056.1099  0.023123794  0.022084998           30 
 3807000   0.63876916   -6.6270507    1055.4198  0.023102613  0.022078284           18 
 3808000   0.63549578   -6.5977599    1055.3368   0.02309473  0.022071575           34 
 3809000   0.63330926   -6.5908169    1056.4637   0.02311332  0.022064852           15 
 3810000   0.64789046   -6.6193623    1058.6237  0.023154498  0.022058156           20 
 3811000     0.636269   -6.5978416    1055.5943  0.023082181  0.022051455           24 
 3812000   0.63710315   -6.6045833    1057.0347  0.023107615  0.022044766           10 
 3813000   0.63311473   -6.6275135    1055.7825  0.023074186  0.022038058           12 
 3814000   0.64495077    -6.606896    1056.9831  0.023094369  0.022031339           11 
 3815000   0.63728796   -6.6142301    1055.9276  0.023065259  0.022024648           17 
 3816000   0.64542941   -6.6397944    1056.7434  0.023077031  0.022017935           12 
 3817000   0.64491178   -6.6333386    1056.1806  0.023058699  0.022011217           21 
 3818000   0.64410343    -6.634956    1051.9401  0.022960103  0.022004492           34 
 3819000   0.64347181   -6.6348801    1054.5559  0.023011171  0.021997753           15 
 3820000   0.63699109   -6.6217578    1055.1588  0.023018297  0.021991054           36 
 3821000   0.64345397   -6.6099361     1057.303  0.023059038   0.02198438           17 
 3822000   0.65653849   -6.6225061    1055.5071  0.023013847  0.021977692           16 
 3823000   0.65091298   -6.6285876    1055.7249  0.023012574   0.02197099           32 
 3824000   0.63518648   -6.6240992    1055.8705  0.023009729  0.021964281           32 
 3825000   0.64037956    -6.639074    1056.4759  0.023016904  0.021957581           57 
 3826000   0.63447944   -6.6171356     1057.907  0.023042058  0.021950873           12 
 3827000   0.63634023   -6.6308081    1053.2148  0.022933865  0.021944177           37 
 3828000   0.64217215   -6.6462783    1053.4527  0.022933052  0.021937466           37 
 3829000   0.63919455   -6.5910365    1057.3215  0.023011263  0.021930743           21 
 3830000   0.62984479   -6.6473981    1053.8601  0.022929941  0.021924023           39 
 3831000   0.64047822   -6.6264785    1053.8844  0.022924483  0.021917297           39 
 3832000   0.65174522   -6.6318894     1054.599  0.022934043  0.021910583           25 
 3833000   0.63499669     -6.62225    1055.6541  0.022950999  0.021903898           26 
 3834000   0.62685408   -6.6539363    1055.8203  0.022948623  0.021897206           38 
 3835000   0.65234163   -6.6287157    1056.6254  0.022960135  0.021890511           61 
 3836000   0.63206942   -6.6355407    1056.1956  0.022944812  0.021883819           28 
 3837000   0.63622029   -6.6181787    1055.7392   0.02292892  0.021877138           39 
 3838000   0.63256233   -6.6235015    1054.5689  0.022897535  0.021870449           24 
 3839000    0.6536511   -6.6636038    1054.1801  0.022883133  0.021863729           43 
 3840000   0.62816116   -6.6595993    1054.0009  0.022873283  0.021857012           17 
 3841000   0.64648503   -6.6061291    1055.8362  0.022907147  0.021850322           29 
 3842000   0.63341791   -6.6242574    1055.4927  0.022893734  0.021843667           14 
 3843000    0.6411428   -6.6213776     1052.743   0.02282815  0.021837004           17 
 3844000   0.64812509   -6.6304512    1056.4984  0.022903624  0.021830316           15 
 3845000   0.62616568   -6.6293238    1055.8402  0.022883403  0.021823632           20 
 3846000   0.62171055   -6.6335716    1055.5645  0.022871478   0.02181695           28 
 3847000   0.63359851   -6.6384005    1055.0229  0.022853802  0.021810282           16 
 3848000   0.62569303   -6.6410666    1055.2049  0.022851805  0.021803604           17 
 3849000   0.63240648   -6.6351618    1056.8804  0.022882143   0.02179696           17 
 3850000   0.62722881   -6.6358173     1055.906  0.022855108  0.021790304           16 
 3851000   0.64438783   -6.6519119    1055.4709  0.022839758  0.021783647           67 
 3852000   0.62991248   -6.6698025    1054.6345  0.022815734   0.02177696           31 
 3853000   0.64572282   -6.6275777    1058.8586  0.022901172  0.021770324           13 
 3854000   0.63882211   -6.6221127    1055.8807   0.02283084  0.021763678           26 
 3855000   0.62303061   -6.6629881    1055.1802  0.022809774  0.021757009           29 
 3856000   0.63392786   -6.6419658    1056.3057  0.022828184   0.02175034           30 
 3857000   0.63011276    -6.663153    1053.4949  0.022761535  0.021743703           43 
 3858000   0.63768166   -6.6392474     1053.795  0.022762118  0.021737052           57 
 3859000   0.62159656   -6.6529582    1055.5383  0.022793864  0.021730377           26 
 3860000   0.63454528   -6.6578877    1056.2554  0.022803442   0.02172372           44 
 3861000   0.62006258   -6.6508187    1055.9262  0.022790429  0.021717057           35 
 3862000   0.62677971   -6.6600907    1052.9902  0.022721177  0.021710398           44 
 3863000   0.63887606   -6.6695216    1054.1826  0.022741018  0.021703725           47 
 3864000   0.62051201   -6.6579765    1053.9457  0.022730023  0.021697041           60 
 3865000   0.62893738    -6.661772    1054.9533  0.022745867  0.021690341           53 
 3866000   0.62409643   -6.6382135    1054.5992   0.02273235  0.021683657           42 
 3867000    0.6176883   -6.6905264    1055.7573  0.022751429  0.021676986           41 
 3868000   0.62943453   -6.6560943    1055.1477  0.022732414  0.021670331           74 
 3869000   0.62105819   -6.6101258    1056.9724   0.02276584  0.021663692           82 
 3870000   0.63302515   -6.6487145     1054.877  0.022714835  0.021657086           41 
 3871000   0.62627301   -6.6403652    1055.9637  0.022732363  0.021650452           35 
 3872000   0.63664281   -6.6570806    1055.3419   0.02271311  0.021643825           47 
 3873000   0.63747851   -6.6499693    1055.4223  0.022708974  0.021637163           33 
 3874000   0.62015768   -6.6664832    1053.8242  0.022668735  0.021630518           22 
 3875000   0.64296154   -6.6430664    1055.8281  0.022705981  0.021623878           41 
 3876000   0.62374463     -6.64383    1055.7966  0.022699445  0.021617264           30 
 3877000   0.62915375   -6.6421144    1054.2743  0.022660871  0.021610661           23 
 3878000    0.6252879   -6.6522458     1055.322  0.022677541   0.02160407           19 
 3879000   0.63522059   -6.6240354     1058.083  0.022731008  0.021597473           27 
 3880000   0.62653253   -6.6355344    1054.8665  0.022656067  0.021590869           25 
 3881000   0.63073969   -6.6458259    1054.9947  0.022652982  0.021584294           35 
 3882000   0.63924307   -6.6471499    1054.2248  0.022630621  0.021577684           43 
 3883000   0.62054596   -6.6463119    1055.4971  0.022652097  0.021571072           25 
 3884000   0.64219631   -6.6534743    1052.7969   0.02258833  0.021564458           40 
 3885000    0.6281608   -6.6580195    1056.6044  0.022664186  0.021557836           48 
 3886000   0.62069015   -6.6801963    1055.7256   0.02263951  0.021551225           62 
 3887000   0.62232233   -6.6610054    1054.8378  0.022614651  0.021544603           29 
 3888000   0.62706688   -6.6746405    1055.6806  0.022626898  0.021537991           59 
 3889000   0.64866277    -6.662353    1055.3485  0.022613966  0.021531369           58 
 3890000   0.63315972   -6.6611685    1056.8095   0.02263945  0.021524769           26 
 3891000    0.6165902   -6.6598709    1055.7175  0.022610244  0.021518165           33 
 3892000    0.6157267   -6.6335506    1058.1071  0.022655599  0.021511576           32 
 3893000   0.62447105   -6.6559969    1057.0501  0.022627154  0.021504995           27 
 3894000   0.62266845    -6.664277    1054.2096  0.022560556   0.02149838           24 
 3895000   0.62736282   -6.6531861      1056.64  0.022606762  0.021491767           33 
 3896000    0.6262026   -6.6601215     1054.871   0.02256312  0.021485171           35 
 3897000   0.63203783   -6.6616335    1057.0545  0.022604023  0.021478594           49 
 3898000    0.6147608   -6.6580337    1056.6042  0.022588598  0.021472017           23 
 3899000   0.62596105   -6.6519224    1057.5804  0.022603668  0.021465426           32 
 3900000   0.63402912     -6.67317    1055.5595  0.022554691  0.021458832           30 
 3901000   0.61890424   -6.6702272    1055.6832  0.022551551  0.021452263           38 
 3902000   0.62927425    -6.667837    1054.4366  0.022519148  0.021445672           53 
 3903000   0.62662148   -6.6632063    1057.2281  0.022572979  0.021439087           41 
 3904000   0.62509262   -6.6816979     1055.248  0.022524932   0.02143247           50 
 3905000   0.62553921   -6.6595418    1054.1217  0.022495127  0.021425867           96 
 3906000   0.61743863   -6.6522995    1055.6408  0.022521779  0.021419277           26 
 3907000   0.63428728   -6.6470623     1056.435  0.022532955  0.021412696           49 
 3908000   0.62463083    -6.663605    1056.8162  0.022535316  0.021406117           49 
 3909000   0.62563685   -6.6648891    1056.9766  0.022532971  0.021399537           33 
 3910000   0.62267563   -6.6747967    1056.7539  0.022522461   0.02139296           36 
 3911000   0.62323863   -6.6483933    1056.3563  0.022508231  0.021386405           29 
 3912000   0.62903038   -6.6584728    1054.7734  0.022468759   0.02137982           34 
 3913000   0.62703938   -6.6716959    1054.4786  0.022456739  0.021373253           22 
 3914000     0.628571   -6.6557139    1056.2838  0.022489434   0.02136667           45 
 3915000   0.64168849   -6.6762485    1054.8647  0.022453484  0.021360105           30 
 3916000    0.6147207   -6.6841513    1053.7588  0.022424217  0.021353526           32 
 3917000   0.62377083   -6.6835036    1054.8743  0.022442223   0.02134694           53 
 3918000   0.63794111   -6.6880821    1053.9515  0.022416868  0.021340345           30 
 3919000   0.63844001   -6.6645625    1055.3513  0.022440913  0.021333759           59 
 3920000    0.6282671   -6.6967688     1053.808  0.022402381  0.021327179           60 
 3921000   0.62165187   -6.6934658    1053.1678   0.02238306  0.021320612          111 
 3922000   0.62408466   -6.7042577     1054.904  0.022414244  0.021314052           35 
 3923000   0.60607505   -6.6742953    1055.9708  0.022431192  0.021307478           35 
 3924000   0.61092566   -6.6673174    1055.0924  0.022406822  0.021300912           65 
 3925000   0.61462028    -6.680538    1057.1348  0.022444475  0.021294346           32 
 3926000   0.63136417   -6.6865285    1054.0798  0.022373914  0.021287782           27 
 3927000   0.62268717   -6.6578573    1058.4067  0.022460034  0.021281248           29 
 3928000   0.62034662   -6.6550687    1054.8197  0.022378218   0.02127473           25 
 3929000   0.62044107   -6.6481319    1056.8851   0.02241633  0.021268201           25 
 3930000   0.63015767   -6.6450166    1054.6015  0.022362203  0.021261684           65 
 3931000   0.61562442   -6.6404992    1057.5848  0.022419757  0.021255175           17 
 3932000   0.61962877   -6.6557864    1055.1683  0.022362842  0.021248662           17 
 3933000   0.63137188    -6.678119    1056.2813  0.022380737  0.021242137           16 
 3934000   0.61373348   -6.6551302    1056.1475  0.022372214  0.021235615           32 
 3935000   0.63406635   -6.6797363    1055.7078  0.022357218  0.021229103           58 
 3936000    0.6282898   -6.6573908    1055.2881  0.022342651  0.021222566           15 
 3937000   0.63493755   -6.6784191    1055.9955   0.02235195  0.021216017           14 
 3938000   0.63096021   -6.6795779    1052.7202  0.022276963  0.021209456           20 
 3939000   0.61267956   -6.6909861    1054.4768  0.022308471  0.021202892           17 
 3940000   0.62124489   -6.6746162    1055.2868  0.022319941  0.021196356            9 
 3941000   0.63285438   -6.6412008    1056.0588  0.022330601  0.021189842           31 
 3942000   0.62537978   -6.6514179    1055.8344  0.022320192  0.021183332           32 
 3943000   0.61886264   -6.6570406    1057.2951  0.022345404  0.021176808           17 
 3944000   0.59993624   -6.6598042    1057.4033  0.022342024  0.021170273           14 
 3945000   0.61508456   -6.6646566    1055.9692  0.022306068   0.02116375           35 
 3946000   0.62191111    -6.660264    1054.3886  0.022267033   0.02115723           31 
 3947000     0.628338   -6.6880515    1055.7867  0.022290912  0.021150685           30 
 3948000   0.62399472   -6.6927595    1054.3978  0.022255948  0.021144117           30 
 3949000   0.61349188   -6.6786396    1054.5223  0.022252939  0.021137572           30 
 3950000    0.6178057   -6.6807141    1056.5539  0.022290166   0.02113104           23 
 3951000    0.6229143   -6.6766471    1052.9997   0.02220956  0.021124515           22 
 3952000   0.62407014    -6.687067    1051.4695  0.022171674  0.021117964           28 
 3953000   0.61571524   -6.6689918    1056.3051  0.022268004  0.021111435           43 
 3954000   0.61515199   -6.6887066     1053.518  0.022203633  0.021104894           19 
 3955000   0.62604311    -6.684402    1053.5583  0.022198869  0.021098351           24 
 3956000   0.63427225   -6.6830735    1055.8615  0.022241774  0.021091813           36 
 3957000   0.61782645   -6.6437205    1055.4616  0.022227731    0.0210853           26 
 3958000   0.62553886   -6.6791666    1055.3793  0.022220382  0.021078785           61 
 3959000   0.62124765   -6.6766824    1054.2151  0.022190265  0.021072264           18 
 3960000   0.61278894   -6.6611334    1055.0287  0.022201782  0.021065749           19 
 3961000   0.61828647   -6.7049519    1052.9286  0.022151994  0.021059247           35 
 3962000   0.61096263   -6.6611269    1056.6783  0.022225271  0.021052732           21 
 3963000   0.62283779   -6.6612262    1054.0699  0.022164814  0.021046227           29 
 3964000   0.61288616   -6.6842997    1051.3525  0.022102097  0.021039716           19 
 3965000   0.60295347   -6.7012474    1055.8773  0.022191621  0.021033208           18 
 3966000   0.62519339    -6.680789    1055.8959  0.022186416  0.021026704           23 
 3967000   0.61484569   -6.6855884    1056.3545  0.022190458  0.021020208           38 
 3968000   0.61711065   -6.6908864    1052.0758  0.022095006  0.021013712           36 
 3969000   0.61546801   -6.6808095    1055.0475  0.022151833  0.021007188           49 
 3970000    0.6166331   -6.6765955    1054.1914  0.022128282  0.021000682           24 
 3971000   0.62402856   -6.6890994    1053.9944  0.022118576  0.020994166           35 
 3972000   0.62801166   -6.6945982    1054.0382  0.022113926  0.020987644           62 
 3973000   0.62769684   -6.6952541    1054.7217  0.022122696  0.020981124           59 
 3974000   0.62908758   -6.7047446    1055.0113  0.022123204  0.020974611           27 
 3975000   0.61188757   -6.6903193    1053.9758  0.022095929  0.020968095           39 
 3976000    0.6134231   -6.6971194    1052.1342  0.022051773  0.020961607           27 
 3977000   0.61229084    -6.705777    1052.0299  0.022044044  0.020955097           62 
 3978000   0.61479318   -6.6858349    1054.5593  0.022091489  0.020948577           24 
 3979000   0.62076831   -6.6929759    1054.1413  0.022077182  0.020942047           38 
 3980000   0.60948574    -6.712401    1054.0737  0.022070219  0.020935523           34 
 3981000   0.62527982   -6.6713468    1053.8277  0.022059526  0.020929003           40 
 3982000   0.60571952   -6.7140596     1053.455  0.022046188  0.020922487           17 
 3983000   0.60637638   -6.7146054    1052.8306  0.022027588  0.020915972           32 
 3984000   0.62555308   -6.7149205    1054.2256  0.022051238  0.020909428           23 
 3985000   0.62190925   -6.7059245    1050.8996  0.021976152  0.020902886           23 
 3986000   0.63922614   -6.6948395    1053.3437  0.022021736  0.020896357           39 
 3987000   0.61083214   -6.7240348    1051.0949   0.02196921  0.020889837           54 
 3988000   0.60219078   -6.7161975    1052.9633  0.022002744  0.020883323           64 
 3989000   0.60851326   -6.7127088     1054.717  0.022033864  0.020876811           27 
 3990000   0.60849693   -6.7183589    1052.9984  0.021992448  0.020870306           24 
 3991000   0.60540375   -6.7290991    1050.0564  0.021925508  0.020863789           73 
 3992000   0.60791362   -6.7287354    1052.0374  0.021961368   0.02085728           26 
 3993000   0.60984862    -6.694761    1053.1393  0.021978865  0.020850771           67 
 3994000    0.6188401   -6.7220966    1051.7478   0.02194433  0.020844264           85 
 3995000    0.6135953   -6.7026277    1050.6242  0.021915398  0.020837763           93 
 3996000   0.61878455   -6.7016679    1052.5932  0.021950975  0.020831283          150 
 3997000   0.60905446   -6.7330433    1054.2042  0.021979072  0.020824803           47 
 3998000   0.60580649   -6.7160601    1054.3074  0.021975725  0.020818311           51 
 3999000   0.61745186   -6.7066831    1054.3214  0.021970521  0.020811842           34 
 4000000   0.60388247   -6.7064256    1055.2887  0.021985182  0.020805401           53 
 4001000   0.61311689   -6.7135511    1053.1379  0.021934888   0.02079893           36 
 4002000   0.62332675   -6.7069924    1054.5225   0.02195824  0.020792467           80 
 4003000   0.60852012   -6.6965332    1052.1227  0.021902795  0.020785999           66 
 4004000   0.61337893   -6.7193931    1053.8239  0.021932733  0.020779548           46 
 4005000   0.62265968   -6.7177649    1053.4508  0.021919491   0.02077308           65 
 4006000   0.60307681   -6.7137639    1055.3824  0.021954203  0.020766617           71 
 4007000   0.61286074   -6.7001867    1052.8133  0.021895294  0.020760155           75 
 4008000   0.61164685   -6.7054123    1053.4463  0.021902992   0.02075371           83 
 4009000   0.61646374   -6.7109117     1052.142  0.021870417  0.020747255           55 
 4010000     0.617771   -6.7288829    1051.4544  0.021850673   0.02074079           71 
 4011000   0.61537967   -6.7309961    1052.2759  0.021862293  0.020734326           59 
 4012000   0.60850063   -6.7172715    1052.0047   0.02185121  0.020727866           56 
 4013000   0.60811392    -6.706659    1051.7458   0.02184039  0.020721399           69 
 4014000   0.60834181   -6.7120096    1052.1353  0.021843034  0.020714931           36 
 4015000   0.61427634   -6.7109088    1053.5167  0.021866266  0.020708475          101 
 4016000   0.62559161   -6.7404618      1055.12  0.021894089  0.020702012           80 
 4017000   0.61215947   -6.7211345    1052.8769  0.021842106   0.02069558           63 
 4018000   0.60956898   -6.7400686    1052.4239  0.021827275  0.020689123           89 
 4019000   0.62170681    -6.720612    1052.7667  0.021828952  0.020682661           87 
 4020000   0.62569217   -6.7005379    1051.7872  0.021803217  0.020676224           46 
 4021000   0.60633792    -6.708835    1054.8074  0.021860386  0.020669781           37 
 4022000   0.60439051   -6.7091034    1054.8893  0.021856648   0.02066335           29 
 4023000   0.61568991   -6.7150454    1050.9449  0.021769511  0.020656898           36 
 4024000   0.60427634   -6.7169129    1053.3055  0.021812986  0.020650455           86 
 4025000   0.61683613   -6.6950811     1054.126  0.021824554   0.02064403           40 
 4026000    0.6095698    -6.698562    1053.9975  0.021816474  0.020637599           46 
 4027000   0.60212487   -6.7007983     1052.776  0.021785778  0.020631193           50 
 4028000   0.60745151   -6.7334244    1051.3512  0.021750893  0.020624759           75 
 4029000   0.61517822   -6.7196828    1052.2059  0.021763174  0.020618311           53 
 4030000   0.61452931   -6.7419969    1054.7214  0.021809789  0.020611865           34 
 4031000   0.60677626   -6.7001465    1050.7261  0.021721783  0.020605394           81 
 4032000   0.60141563   -6.7369937     1054.116  0.021786458  0.020598921           45 
 4033000   0.60495168   -6.7515335    1052.9599  0.021757167  0.020592443           80 
 4034000   0.60792009   -6.7219487    1053.6346  0.021765713  0.020585987           65 
 4035000   0.61024031   -6.7486094    1052.2014  0.021730718  0.020579545           39 
 4036000   0.59779537   -6.7282607    1050.7914  0.021696222   0.02057309           39 
 4037000   0.60970546   -6.7332328    1054.0028  0.021757139   0.02056664           41 
 4038000   0.60194197   -6.7336128    1053.3127  0.021737508  0.020560192           78 
 4039000   0.60162703   -6.7293374    1053.0958  0.021727651  0.020553738          109 
 4040000   0.59693858   -6.7148761    1053.2652  0.021725767  0.020547282           35 
 4041000   0.59821673   -6.7371469    1051.5052  0.021684095  0.020540829           57 
 4042000   0.60200947   -6.7206429     1053.724  0.021724476  0.020534379           76 
 4043000   0.60134852    -6.726644    1053.3208  0.021710792  0.020527942           64 
 4044000   0.59734671   -6.7323786    1050.6259   0.02164989  0.020521518           52 
 4045000   0.60749372   -6.7566829    1051.0716   0.02165372  0.020515082           64 
 4046000   0.60719289   -6.7272258    1051.6468  0.021660217   0.02050865           72 
 4047000   0.59520694   -6.7466602    1052.8087  0.021678789  0.020502209           79 
 4048000   0.59813524   -6.7299642    1052.6935  0.021671061  0.020495777           91 
 4049000   0.61745396   -6.7447714    1049.9069  0.021608359  0.020489337           45 
 4050000    0.6019359   -6.7508355    1049.6648  0.021598042   0.02048291           37 
 4051000   0.59781053   -6.7419897    1051.3635  0.021627653  0.020476491          108 
 4052000   0.59910143   -6.7073784    1055.0983  0.021699126  0.020470092           64 
 4053000   0.61036589   -6.7187302    1053.2682  0.021656143  0.020463711           53 
 4054000   0.60233445   -6.6968531     1053.327  0.021652011  0.020457334           47 
 4055000   0.59786412   -6.7094681     1053.384  0.021647842  0.020450951           41 
 4056000   0.61332742   -6.7402287     1052.691  0.021628266  0.020444585           59 
 4057000   0.60605948   -6.7309122      1051.42  0.021596828  0.020438199           49 
 4058000   0.60774409   -6.7190546    1052.9056  0.021622015  0.020431821           62 
 4059000   0.59624573   -6.7157528     1052.585  0.021610106  0.020425447           60 
 4060000   0.60375047   -6.7202035    1053.5881  0.021625372  0.020419061           41 
 4061000   0.59687424   -6.7277667    1052.8246  0.021604379  0.020412682           34 
 4062000   0.60738715    -6.741962    1053.7668  0.021618389  0.020406289           49 
 4063000   0.60266525    -6.719691    1052.5703  0.021588529  0.020399918           62 
 4064000   0.61093275   -6.7225263    1051.7741  0.021566889  0.020393547           41 
 4065000   0.60006445   -6.7245412    1052.8759  0.021584171  0.020387168           30 
 4066000    0.5991742   -6.7450714    1052.7327  0.021575929  0.020380791           88 
 4067000   0.60663565   -6.7258998    1051.5143  0.021545659  0.020374398          135 
 4068000    0.6119542   -6.7205783    1053.2869  0.021576673  0.020368024           32 
 4069000   0.61139735   -6.7268857    1053.7127  0.021580092  0.020361654           28 
 4070000   0.58640402   -6.7484755    1050.1499  0.021501841  0.020355269           84 
 4071000   0.60711059   -6.7312692    1054.1954  0.021579371  0.020348887           47 
 4072000    0.6078358   -6.7425993    1051.5329  0.021519583  0.020342495           92 
 4073000   0.58545301   -6.7164023    1052.9838  0.021543984  0.020336139           80 
 4074000    0.6069964   -6.7464932    1052.9323  0.021537643  0.020329772           37 
 4075000   0.60816809   -6.7249214    1052.9728  0.021533186  0.020323404           30 
 4076000   0.60908675   -6.7526164    1050.1734   0.02147067  0.020317039           37 
 4077000   0.59680677   -6.7592277    1051.5565  0.021493675  0.020310664           24 
 4078000   0.59943159   -6.7278879    1052.5566   0.02150884  0.020304287           52 
 4079000   0.60198647    -6.732589    1049.7801  0.021446844  0.020297922           46 
 4080000   0.59680817   -6.7209375    1053.2541  0.021512544  0.020291542           54 
 4081000   0.59960559   -6.7167229    1052.8172   0.02149835  0.020285182           56 
 4082000   0.58774783   -6.7285328    1051.3229  0.021462578   0.02027881          103 
 4083000   0.59275883   -6.6931952    1052.5272  0.021481901  0.020272462           92 
 4084000   0.61309203   -6.7452705     1050.603  0.021437377   0.02026611           64 
 4085000   0.59948481   -6.7357007    1051.4327  0.021449055  0.020259752          170 
 4086000   0.58892297   -6.7277382    1052.7322  0.021470309  0.020253397          139 
 4087000    0.6111479    -6.721988    1053.7476   0.02148576   0.02024705          136 
 4088000   0.59027031   -6.7529321     1049.251  0.021388841  0.020240702          113 
 4089000    0.5886921   -6.7427978    1050.5396  0.021409871  0.020234338           61 
 4090000   0.59674129   -6.7378241    1050.7816  0.021409569  0.020227951           41 
 4091000    0.5977684   -6.7639999    1050.4559  0.021397701  0.020221584          108 
 4092000   0.59692524   -6.7329501    1051.3593  0.021410868  0.020215218          122 
 4093000   0.60008825   -6.7501262    1050.6102  0.021390387   0.02020885          100 
 4094000    0.5917813    -6.748851    1050.3591  0.021380051  0.020202475           92 
 4095000   0.59514172   -6.7580503    1050.1303  0.021370174  0.020196112          139 
 4096000    0.6002985   -6.7570366    1048.8298  0.021338497  0.020189739          149 
 4097000   0.61069176   -6.7500516    1051.1939  0.021381374  0.020183373          154 
 4098000   0.59923143   -6.7419596    1052.9855   0.02141259  0.020177024          125 
 4099000   0.59957109   -6.7470463    1051.5106   0.02137738  0.020170682           81 
 4100000   0.59567501   -6.7384626    1053.4465  0.021411515  0.020164329          100 
 4101000   0.61346504   -6.7432117    1049.9074  0.021334378  0.020157987           82 
 4102000   0.60091005    -6.747415    1050.5382  0.021341992  0.020151648           56 
 4103000   0.59343996   -6.7662375    1050.4285  0.021334562   0.02014531          123 
 4104000   0.59269369   -6.7151328    1052.3174  0.021367718  0.020138992           88 
 4105000   0.60369169    -6.751948    1051.0594  0.021336975  0.020132655          116 
 4106000   0.59848911   -6.7614479    1049.1409  0.021292841  0.020126318          110 
 4107000   0.59457194   -6.7559508    1049.1632  0.021288109   0.02011997          103 
 4108000   0.58774263   -6.7582249    1050.1907  0.021303771   0.02011363           70 
 4109000   0.60432934   -6.7721179    1050.5302  0.021305472  0.020107288          111 
 4110000   0.59441995   -6.7533749    1051.6289  0.021322564  0.020100966          110 
 4111000   0.58914027   -6.7385936    1051.3059  0.021310831  0.020094651          139 
 4112000   0.59541712   -6.7744791    1051.1476  0.021302439   0.02008833          172 
 4113000   0.60151744   -6.7649083    1049.1567  0.021256923  0.020082019          195 
 4114000   0.58547862   -6.7605502     1049.962  0.021268069  0.020075704          106 
 4115000   0.58607518   -6.7689083    1051.3156  0.021290313  0.020069387          211 
 4116000   0.59018891   -6.7698763    1051.0814  0.021280397  0.020063061          180 
 4117000   0.59779914   -6.7682225    1050.9442  0.021272452  0.020056739          167 
 4118000   0.59125558   -6.7529911     1052.117   0.02129102  0.020050424          195 
 4119000   0.58495408   -6.7553216      1052.33  0.021290159  0.020044094          287 
 4120000   0.58429953   -6.7584045    1052.1529   0.02128141  0.020037781          279 
 4121000   0.59199567   -6.7513013    1050.8543  0.021249986  0.020031476          306 
 4122000   0.59360394   -6.7733277    1050.4628  0.021236915  0.020025161          255 
 4123000   0.57108962   -6.7422051    1051.6288  0.021255332  0.020018845          256 
 4124000   0.59043742   -6.7497734    1051.2227  0.021241972  0.020012537          210 
 4125000   0.59131305   -6.7660483    1049.5917  0.021203873   0.02000623          258 
 4126000   0.59342335   -6.7809975    1052.1889   0.02125119  0.019999932          220 
 4127000   0.59576386   -6.7551776    1050.8636  0.021219279  0.019993643          187 
 4128000   0.59087468   -6.7650885      1050.95  0.021215884  0.019987367          203 
 4129000   0.58767456   -6.7569509    1051.0882  0.021213534  0.019981099          241 
 4130000   0.58342819   -6.7663328    1050.6898   0.02120036   0.01997483          218 
 4131000   0.59080328   -6.7663665    1051.1792    0.0212051   0.01996856          167 
 4132000   0.58005383    -6.741513    1051.5786  0.021208022  0.019962281          278 
 4133000   0.59788716   -6.7716773    1050.9163  0.021189538  0.019956003          245 
 4134000    0.6042589   -6.7619248    1051.8524  0.021203281  0.019949732          263 
 4135000   0.59138575   -6.7733269    1052.4809   0.02121082   0.01994347          249 
 4136000   0.58673847   -6.7640769    1051.4924  0.021185774  0.019937203          164 
 4137000   0.58794888    -6.773027    1053.4327  0.021219739  0.019930948          163 
 4138000   0.59547088    -6.770238    1050.9593    0.0211648  0.019924694          144 
 4139000   0.59075101   -6.7602899    1051.1959   0.02116445  0.019918458          123 
 4140000   0.58473328   -6.7792204    1051.3359  0.021162155  0.019912214          131 
 4141000   0.58131778   -6.7551344    1053.1508  0.021193569  0.019905974          209 
 4142000   0.59848314   -6.7726259    1052.0615  0.021166535  0.019899725          203 
 4143000   0.58042502   -6.7586445    1051.7569  0.021155301  0.019893484          141 
 4144000    0.5834432    -6.756992    1050.5997  0.021126924  0.019887234          205 
 4145000   0.59552262   -6.7665424    1048.4199  0.021078004   0.01988098          182 
 4146000    0.5771905   -6.7616969     1050.668  0.021118105  0.019874724          171 
 4147000   0.58604273   -6.7663705    1049.5797  0.021091144  0.019868467          185 
 4148000   0.59023331    -6.798002    1049.6982   0.02108844  0.019862198          110 
 4149000   0.59343939   -6.7914831    1051.6172    0.0211219  0.019855938          201 
 4150000   0.59775799   -6.7813993    1051.3635  0.021111716  0.019849679          172 
 4151000   0.58681913   -6.7927235    1051.6883  0.021113151  0.019843419          158 
 4152000   0.58318438   -6.7722519    1050.7862  0.021089962  0.019837171          213 
 4153000   0.58281165   -6.7746349    1051.0871   0.02109092  0.019830908          230 
 4154000   0.58205056   -6.7863374    1051.5473  0.021095076  0.019824665          198 
 4155000   0.58288371   -6.7884308    1051.6068   0.02109119  0.019818434          186 
 4156000   0.59451909   -6.7837036    1051.4075   0.02108212  0.019812203          259 
 4157000   0.58289761   -6.7887121    1050.3632  0.021056113  0.019805988          269 
 4158000   0.59026842   -6.7805719    1050.4615   0.02105302  0.019799765          282 
 4159000   0.58676067   -6.7878357     1050.953  0.021057806  0.019793532          221 
 4160000   0.59129808   -6.7662254    1047.7514   0.02098861    0.0197873          267 
 4161000   0.58509876   -6.7911386    1050.1712  0.021032027  0.019781056          271 
 4162000    0.5896712   -6.8155166    1050.6035   0.02103563  0.019774828          384 
 4163000   0.59268433   -6.7978767    1048.3179  0.020984824  0.019768571          452 
 4164000   0.60040122   -6.7866278    1053.1782  0.021077054  0.019762319          379 
 4165000   0.59048889   -6.7800861    1050.4882   0.02101817  0.019756079          347 
 4166000   0.59127095   -6.7685973    1049.9519  0.021002398  0.019749832          277 
 4167000   0.58621944   -6.7900458     1049.311  0.020984541  0.019743592          320 
 4168000   0.59491518   -6.7938172    1049.1222  0.020975731  0.019737342          221 
 4169000   0.57176385   -6.7854197    1050.9258  0.021006751  0.019731104          263 
 4170000    0.5783295   -6.7946654    1046.0811  0.020904897  0.019724854          324 
 4171000   0.58302498   -6.8002851    1048.3046   0.02094431  0.019718594          235 
 4172000   0.59754568   -6.8217456    1046.3454  0.020900156  0.019712326          248 
 4173000   0.59063814   -6.7943917    1049.8821  0.020965773  0.019706062          260 
 4174000   0.57931405    -6.789228     1047.714  0.020917465  0.019699814          249 
 4175000   0.57421637   -6.7851207    1048.9849  0.020937823  0.019693566          264 
 4176000   0.57455554   -6.7967774    1047.1869  0.020896929  0.019687318          244 
 4177000   0.58001014   -6.8036782    1049.6833  0.020941731  0.019681068          246 
 4178000   0.58605503   -6.7985401     1050.097   0.02094497  0.019674828          247 
 4179000   0.58330266   -6.7958291    1050.6754  0.020951492   0.01966859          245 
 4180000   0.57171701   -6.7786969     1049.332  0.020919698  0.019662369          303 
 4181000    0.5791036   -6.7985119    1049.8514  0.020925047  0.019656143          306 
 4182000   0.57399393   -6.7925719    1050.5907  0.020934775  0.019649914          292 
 4183000   0.57110693   -6.7821237    1050.7641  0.020933223  0.019643697          277 
 4184000   0.57585628   -6.8051096    1051.1597  0.020936099  0.019637468          334 
 4185000   0.58517633   -6.7834992    1050.4156   0.02091628  0.019631238          312 
 4186000   0.58205547   -6.7944504    1047.6917  0.020857056  0.019625009          272 
 4187000   0.58900324   -6.7998267    1046.5993  0.020830334  0.019618785          277 
 4188000   0.58266021   -6.7905155    1050.6258  0.020905481  0.019612558          273 
 4189000   0.57621582   -6.7987037    1048.8359  0.020864882  0.019606338          303 
 4190000    0.5703656   -6.8203551    1049.5701  0.020874505  0.019600115          323 
 4191000   0.58130768   -6.8100498    1048.0247  0.020838795   0.01959389          249 
 4192000   0.60125761   -6.7982637     1051.349  0.020899909  0.019587687          272 
 4193000   0.57519283   -6.8029452    1048.0001  0.020828366   0.01958148          262 
 4194000   0.59276061   -6.7959814     1048.594  0.020835201  0.019575287          318 
 4195000   0.59148272   -6.7805809     1050.714  0.020872349  0.019569083          315 
 4196000   0.57385753   -6.8150834    1049.8754  0.020850719  0.019562877          365 
 4197000   0.57389451   -6.8169956    1048.6368  0.020821159  0.019556658          302 
 4198000    0.5835449   -6.7950354    1046.9487  0.020782688  0.019550443          301 
 4199000    0.5927999   -6.7818039    1051.0664  0.020859458  0.019544237          260 
 4200000   0.58132529   -6.8316044    1049.4779  0.020822974  0.019538033          359 
 4201000   0.58875956    -6.798528    1049.6792  0.020822011  0.019531837          299 
 4202000   0.60074791   -6.7949807    1047.9369  0.020782502  0.019525643          338 
 4203000   0.58462738   -6.8131176    1049.5703  0.020809944  0.019519446          318 
 4204000   0.57670155   -6.8101105    1050.1224  0.020815937  0.019513239          261 
 4205000    0.5814987   -6.8257847    1050.1426  0.020811387  0.019507046          254 
 4206000   0.56303713   -6.8124219    1048.0984  0.020765937  0.019500847          254 
 4207000   0.58399814   -6.7951196    1049.8824  0.020796339  0.019494654          285 
 4208000   0.58314997   -6.8116685    1048.5196  0.020764409  0.019488479          349 
 4209000   0.57727884   -6.8010577    1050.4945  0.020798576  0.019482301          272 
 4210000   0.57907974   -6.7956939    1050.9526  0.020802703  0.019476102          284 
 4211000   0.58996116   -6.8260619    1047.4606  0.020728659  0.019469917          378 
 4212000   0.56489711    -6.826737    1048.0692   0.02073578  0.019463732          295 
 4213000   0.58068486   -6.7997817    1048.1429  0.020732316  0.019457562          220 
 4214000   0.58494218   -6.8194426    1048.7765  0.020739925  0.019451384          259 
 4215000   0.57889863   -6.7987574    1049.9689  0.020758578  0.019445215          199 
 4216000   0.57617157   -6.8134723    1048.9411   0.02073334  0.019439044          234 
 4217000   0.59372738   -6.8002221    1051.0101   0.02076931  0.019432883          267 
 4218000   0.57367926   -6.7891013    1049.9142  0.020742733  0.019426724          169 
 4219000   0.56435637   -6.8037572     1047.865  0.020697341  0.019420571          216 
 4220000   0.58174227   -6.7920876    1048.4284  0.020703562  0.019414408          197 
 4221000   0.58117862   -6.8084582    1048.7818  0.020705634  0.019408246          308 
 4222000   0.57821381   -6.8179221    1049.0839  0.020706693  0.019402085          211 
 4223000   0.57976202   -6.8010028    1050.9147  0.020737917  0.019395936          206 
 4224000   0.57791583   -6.8122728    1048.3559  0.020682527  0.019389775          214 
 4225000    0.5707979   -6.7996065    1048.5306  0.020681076  0.019383619          190 
 4226000   0.58526104   -6.8250391    1048.0957  0.020667607  0.019377454          179 
 4227000   0.57241945   -6.8125904    1049.2282  0.020685045  0.019371308          205 
 4228000   0.57604522    -6.828333    1048.7667  0.020671056  0.019365156          363 
 4229000   0.57786089    -6.817601    1048.6354  0.020663581  0.019359014          195 
 4230000    0.5681722   -6.8098056    1048.2523  0.020651148  0.019352876          203 
 4231000   0.56764271   -6.8122552    1049.8288  0.020677318  0.019346732          297 
 4232000   0.56939357   -6.8326091    1047.9898   0.02063622  0.019340579          214 
 4233000   0.57941703   -6.8310628    1049.7903  0.020666791   0.01933443          221 
 4234000   0.57257609   -6.8098262    1049.3315  0.020652879  0.019328296          198 
 4235000   0.56521253   -6.8173784    1047.5631  0.020613205  0.019322165          208 
 4236000   0.57484068   -6.8207634    1048.2944  0.020622726  0.019316031          165 
 4237000   0.58315462   -6.7994328    1047.3475  0.020599234  0.019309899          202 
 4238000   0.57043654   -6.8123111    1048.3947  0.020614966  0.019303773          216 
 4239000   0.58186488   -6.8176418    1047.7468  0.020597367  0.019297653          172 
 4240000   0.57971428   -6.8162486    1048.7124  0.020611485   0.01929153          220 
 4241000   0.56333289   -6.8184328    1048.7795  0.020607944  0.019285408          220 
 4242000   0.57481821   -6.8018794    1048.7105   0.02060173  0.019279297          265 
 4243000   0.57459815   -6.8217909    1049.2264  0.020607008  0.019273173          242 
 4244000   0.56815696   -6.8303195    1048.3125  0.020584206  0.019267053          207 
 4245000   0.58178468    -6.825928    1047.9025   0.02057131  0.019260925          290 
 4246000   0.56149477   -6.8109431    1048.9628  0.020587274  0.019254788          542 
 4247000   0.58094545   -6.8312585    1046.9148  0.020542242  0.019248655          362 
 4248000   0.56672747   -6.8218845    1049.2079  0.020582391  0.019242512          256 
 4249000    0.5820424   -6.8208636    1047.8081  0.020550093   0.01923638          251 
 4250000   0.55042555   -6.8351877    1046.7527  0.020524562  0.019230238          480 
 4251000   0.56563223   -6.8389102    1048.7138  0.020558179  0.019224105          595 
 4252000   0.57885476   -6.8411246    1046.0756  0.020501639  0.019217964          437 
 4253000   0.56397881   -6.8257661    1049.0992  0.020556062  0.019211812          517 
 4254000   0.57307797   -6.8271863    1046.0434  0.020491369  0.019205674          529 
 4255000    0.5666146   -6.8330395    1048.0686  0.020526216  0.019199526          586 
 4256000   0.59339789    -6.837911    1047.4774  0.020509818  0.019193379          269 
 4257000   0.58081301   -6.8297521    1046.5074  0.020486011  0.019187249          273 
 4258000   0.56489788   -6.8109498    1048.3008    0.0205163  0.019181122          444 
 4259000   0.56923074   -6.8319872    1046.9752  0.020485545  0.019174998          568 
 4260000   0.57422139   -6.8563411    1046.6112  0.020473615   0.01916887          314 
 4261000   0.57866413   -6.8502843    1046.3036  0.020462794  0.019162743          545 
 4262000   0.56443701   -6.8708963    1045.4843  0.020441973  0.019156612          256 
 4263000   0.57290425   -6.8362412    1046.8101  0.020463095   0.01915048          513 
 4264000   0.56945752   -6.8727691    1045.3233   0.02042924  0.019144351          564 
 4265000   0.56716369   -6.8382203    1045.9133  0.020435977  0.019138213          473 
 4266000    0.5766878   -6.8374978    1046.1489  0.020435789    0.0191321          675 
 4267000   0.57097537   -6.8329685    1047.9706  0.020466577  0.019125991          608 
 4268000   0.57488755   -6.8386656    1046.4553  0.020432194  0.019119874          531 
 4269000   0.55663222   -6.8433301     1046.974  0.020437535  0.019113762          691 
 4270000   0.55912374   -6.8309918    1049.0639  0.020473534  0.019107647          601 
 4271000   0.57167407   -6.8254386    1047.3008   0.02043434  0.019101545          474 
 4272000   0.57063761   -6.8470958    1046.7577  0.020418962  0.019095441          558 
 4273000   0.56074751   -6.8362228    1048.2668  0.020443616  0.019089334          595 
 4274000   0.56754474   -6.8381275     1047.584  0.020425519  0.019083239          519 
 4275000   0.55229826   -6.8581135    1045.8692  0.020387313  0.019077144          275 
 4276000   0.56181623   -6.8583978    1046.0664  0.020386389  0.019071039          543 
 4277000   0.55894221   -6.8455229    1047.8784  0.020416928  0.019064933          520 
 4278000   0.56416802   -6.8447636    1045.9652  0.020374886  0.019058829          628 
 4279000   0.57055306   -6.8477422     1048.182  0.020413297  0.019052722          490 
 4280000   0.56502795   -6.8385187    1046.6506   0.02037871  0.019046631          569 
 4281000    0.5622581   -6.8414406    1046.7242  0.020375384  0.019040544          700 
 4282000   0.57185914   -6.8445703    1047.1974  0.020379835  0.019034467          581 
 4283000   0.56045385    -6.852282    1045.5888  0.020343777  0.019028375          595 
 4284000   0.56968451    -6.852612    1045.9202  0.020345476   0.01902228          699 
 4285000   0.57004498   -6.8726111    1044.2914  0.020309051  0.019016178          640 
 4286000   0.56908722   -6.8317959    1047.4606  0.020365932  0.019010084          555 
 4287000   0.55976294   -6.8823112     1045.748   0.02032789  0.019003999          606 
 4288000   0.56397934   -6.8454825    1044.2023  0.020293111  0.018997911          499 
 4289000   0.56428078   -6.8325431    1044.5118  0.020294393  0.018991826          417 
 4290000   0.56543739   -6.8532029    1044.6729  0.020292791   0.01898573          574 
 4291000   0.56451618   -6.8642793    1043.8213  0.020271524  0.018979651          560 
 4292000   0.56531176    -6.841001    1047.1356  0.020331151   0.01897356          536 
 4293000   0.55398096   -6.8614437    1045.6946  0.020298444  0.018967484          734 
 4294000   0.55984214   -6.8393292    1044.9856  0.020279956  0.018961402          564 
 4295000   0.57565405   -6.8766305     1044.144  0.020258906  0.018955328          635 
 4296000   0.55742007   -6.8572306    1044.3733  0.020258637  0.018949248          673 
 4297000   0.57160882   -6.8638036    1044.9758  0.020265608   0.01894318          586 
 4298000   0.55988347   -6.8575081    1045.0997  0.020263294  0.018937115          331 
 4299000   0.55246777   -6.8702546    1044.5765   0.02024844  0.018931048          650 
 4300000   0.56215399   -6.8578671    1046.2567  0.020276292  0.018924979          644 
 4301000   0.55371993   -6.8396417    1045.1573  0.020250277   0.01891892          517 
 4302000   0.57282093    -6.861869    1045.6896  0.020255881  0.018912851          651 
 4303000   0.57568739    -6.856625    1044.2613  0.020223514  0.018906775          638 
 4304000   0.56180648   -6.8484865    1045.3383  0.020239666  0.018900705          701 
 4305000    0.5502176   -6.8696331    1045.4275  0.020236692  0.018894625          778 
 4306000   0.55307113   -6.8657754    1046.5125  0.020252989  0.018888563          707 
 4307000   0.56482675   -6.8673709    1043.7384  0.020194612  0.018882499          644 
 4308000   0.55264765   -6.8616474    1044.0066  0.020195115  0.018876439          710 
 4309000   0.55762992   -6.8918552    1046.2019  0.020232882   0.01887037          742 
 4310000   0.55644102   -6.8528542    1045.5758  0.020216083  0.018864315          682 
 4311000   0.56778854   -6.8508711    1048.1387  0.020260935  0.018858261          725 
 4312000   0.57087972   -6.8519191     1048.956  0.020272032   0.01885221          776 
 4313000   0.56941946   -6.8786378    1045.2198  0.020195142  0.018846159          787 
 4314000   0.57034964   -6.8715103    1045.0679  0.020187526  0.018840114          725 
 4315000    0.5593786   -6.8608494    1045.5511  0.020192179  0.018834067          640 
 4316000   0.56360861   -6.8668807    1044.5782  0.020168718  0.018828011          768 
 4317000   0.57194989   -6.8608492    1043.3779  0.020140876  0.018821962          671 
 4318000   0.55564813   -6.8538406    1043.4198  0.020137019  0.018815907          805 
 4319000   0.56047854   -6.8585635    1045.0045  0.020162934  0.018809863          769 
 4320000   0.56775804   -6.8602679     1046.623  0.020189486  0.018803825          742 
 4321000   0.57365822   -6.8623255    1046.8966  0.020190091  0.018797788          395 
 4322000   0.56875981   -6.8735941    1044.6818  0.020142716  0.018791759          675 
 4323000   0.55434097   -6.8564208    1045.7157  0.020157987  0.018785729          716 
 4324000   0.56301323   -6.8547958    1045.6367  0.020151802  0.018779696          760 
 4325000   0.55321035    -6.871163    1043.8296  0.020112324  0.018773669          660 
 4326000   0.56106963   -6.8434034    1047.4781  0.020177958   0.01876765          553 
 4327000   0.55340761   -6.8671241    1045.3865  0.020133012  0.018761635          800 
 4328000   0.56916396   -6.8686007    1043.5851  0.020093675  0.018755623          771 
 4329000   0.55961207   -6.8401784    1044.7568  0.020111588    0.0187496          676 
 4330000   0.57164032   -6.8686592    1045.2973  0.020117347  0.018743586          626 
 4331000   0.55456961   -6.8546615    1043.9367  0.020086521  0.018737579          659 
 4332000   0.56839223   -6.8686591    1043.2457  0.020068592  0.018731558          679 
 4333000   0.55007643   -6.8571117     1045.526  0.020107816  0.018725538          746 
 4334000   0.55134273   -6.8753529    1044.3904  0.020081341  0.018719515          767 
 4335000   0.55594147   -6.8657237    1046.0798  0.020109185  0.018713504          714 
 4336000    0.5683863   -6.8829319    1044.9996  0.020083786  0.018707497          624 
 4337000   0.56542994   -6.8746248    1044.5942  0.020071366  0.018701485          571 
 4338000   0.56559673   -6.8739442    1045.3313  0.020080899  0.018695488          624 
 4339000   0.56552311   -6.8897828    1043.1415  0.020034215  0.018689488          636 
 4340000   0.55950338   -6.8846286    1045.6729  0.020078204  0.018683492          575 
 4341000   0.55320254   -6.8727569    1045.5741  0.020071683  0.018677497          652 
 4342000   0.55313588   -6.8769129    1045.2678  0.020061182    0.0186715          517 
 4343000   0.54560656   -6.8723376    1042.7845  0.020008913  0.018665504          639 
 4344000   0.55728427   -6.8850591    1043.7164  0.020022184  0.018659511          638 
 4345000   0.56108558   -6.8662468    1043.8935  0.020020972  0.018653507          619 
 4346000   0.56115764   -6.8903504    1043.9994  0.020018397   0.01864751          655 
 4347000    0.5571405   -6.8635168    1043.7361  0.020008743  0.018641523          572 
 4348000   0.55337852   -6.8787298    1044.4168  0.020017187   0.01863553          660 
 4349000   0.56094885   -6.8824893    1044.1143   0.02000679  0.018629543          627 
 4350000   0.55295615    -6.868817    1045.0424   0.02001997  0.018623556          553 
 4351000   0.55684501   -6.8580862    1045.1118  0.020016697  0.018617579          645 
 4352000   0.55211638   -6.8537813    1046.8748  0.020045856  0.018611609          628 
 4353000   0.56359196   -6.8868758    1041.9985    0.0199479  0.018605635          671 
 4354000    0.5593483   -6.8667211    1043.9369  0.019980418  0.018599661          388 
 4355000   0.55686952    -6.876233    1045.2309  0.020000591  0.018593697          709 
 4356000   0.55887325   -6.8888689    1046.3757    0.0200179  0.018587717          595 
 4357000   0.55661265   -6.8972145    1043.1871  0.019952321  0.018581741          723 
 4358000   0.55510151   -6.8568392    1044.3086  0.019969188  0.018575766          334 
 4359000   0.55336683   -6.8738457    1043.5766  0.019950612  0.018569797          721 
 4360000   0.55917251   -6.8997292    1045.2932  0.019978846  0.018563827          818 
 4361000   0.55446137   -6.8731472    1043.2102  0.019934461  0.018557855          762 
 4362000   0.56058849    -6.882614    1044.5618  0.019955713  0.018551885          719 
 4363000   0.55460454   -6.8847989     1044.693  0.019953644  0.018545926          882 
 4364000   0.54321062   -6.9133688    1044.3087  0.019941734   0.01853996          760 
 4365000   0.54711097   -6.9104999     1044.863  0.019947747  0.018533993          855 
 4366000    0.5564531   -6.9020463    1041.2743   0.01987468  0.018528023          777 
 4367000   0.55179246   -6.8837062    1044.3438  0.019928705  0.018522044          799 
 4368000   0.56305576   -6.8978551    1042.7852  0.019894406  0.018516077          704 
 4369000   0.55634809   -6.8910878    1043.5518  0.019904474  0.018510106          720 
 4370000   0.56565662   -6.9011044    1042.3401  0.019876814  0.018504133          811 
 4371000   0.54334617    -6.910456    1043.3283  0.019891106  0.018498163          837 
 4372000   0.57183924   -6.8856546    1042.1439  0.019863981  0.018492199          776 
 4373000   0.54825982    -6.889886     1043.251  0.019880535  0.018486235          829 
 4374000   0.54574358   -6.8793321    1043.9421  0.019889157  0.018480282          908 
 4375000   0.55313272   -6.8889065    1042.6091   0.01985922   0.01847432          756 
 4376000   0.54714376   -6.8708067    1042.7565   0.01985749  0.018468357          862 
 4377000   0.54709272     -6.90319    1041.0222  0.019819934  0.018462404          878 
 4378000   0.54751546   -6.8897835    1043.5861  0.019864209  0.018456453          761 
 4379000   0.54491113   -6.8843829    1041.0604  0.019811609  0.018450503          758 
 4380000   0.54679234   -6.9059726    1044.3045  0.019868807  0.018444552          752 
 4381000   0.55153257   -6.8712203     1043.983  0.019858156  0.018438605          817 
 4382000   0.54151194   -6.9309913    1039.9993  0.019777866  0.018432665          896 
 4383000    0.5504307   -6.9028929    1042.6499  0.019823749  0.018426712          886 
 4384000   0.54153493   -6.8888907    1042.8432  0.019822902  0.018420766          878 
 4385000   0.55526916   -6.9166144    1044.5599  0.019851005  0.018414818          810 
 4386000   0.54992254   -6.8952121     1043.015  0.019817126  0.018408878          827 
 4387000   0.54870062    -6.891891    1043.2866  0.019817768  0.018402934          853 
 4388000   0.55255626   -6.8984846     1042.254  0.019793642  0.018397004          913 
 4389000   0.54471031   -6.8847721    1041.7924  0.019780368  0.018391069          873 
 4390000    0.5645516    -6.886255    1042.2025  0.019783647  0.018385131          841 
 4391000   0.55909878   -6.8988657    1041.2851   0.01976173   0.01837919          915 
 4392000   0.55103692     -6.89698    1041.8969  0.019768839  0.018373255          851 
 4393000   0.54181322   -6.8925749    1043.9817  0.019803887   0.01836733          740 
 4394000   0.54863759   -6.8952962    1041.7894  0.019757802  0.018361393          893 
 4395000    0.5571971   -6.8922782    1043.1385  0.019778886   0.01835546          802 
 4396000   0.53778409   -6.9040234    1041.9037   0.01975098  0.018349533          851 
 4397000   0.54369744   -6.8964401    1043.8684  0.019783723  0.018343599          833 
 4398000   0.53710178   -6.8971755    1042.0329  0.019744447  0.018337671          850 
 4399000   0.55550057   -6.9120469    1042.6576  0.019751791  0.018331744          892 
 4400000    0.5529932   -6.9053937    1042.1949   0.01973854  0.018325826          922 
 4401000   0.53818599   -6.9120093    1041.1891   0.01971501  0.018319907          817 
 4402000   0.54540613   -6.8978823    1042.5157  0.019735645   0.01831398          825 
 4403000   0.53532113   -6.9060594    1040.9358   0.01970126  0.018308058          853 
 4404000   0.55664139   -6.8918881    1042.3172  0.019722926  0.018302139          923 
 4405000   0.54600371   -6.9221695    1041.2417  0.019698102  0.018296215          869 
 4406000   0.53453752   -6.9242446    1041.3547  0.019695769  0.018290291          802 
 4407000   0.54275925   -6.9289455    1041.0555  0.019685642  0.018284369          870 
 4408000   0.55174728   -6.9184967    1040.2866   0.01966664  0.018278444          809 
 4409000   0.54662886   -6.9079652    1041.5316  0.019685711  0.018272529          880 
 4410000   0.54911555   -6.9207655    1040.9065  0.019669434  0.018266606          897 
 4411000   0.54112313   -6.9212975    1040.5762  0.019658736  0.018260681          948 
 4412000   0.56367306   -6.9130905    1041.3018  0.019667986  0.018254765          943 
 4413000     0.541376   -6.9201512    1041.2935  0.019663371  0.018248854          978 
 4414000   0.55407326   -6.9207956    1042.9003  0.019689251  0.018242939          883 
 4415000   0.54113804   -6.9230655    1040.9399  0.019647789   0.01823703          944 
 4416000   0.53909184   -6.9262247     1044.702  0.019714334  0.018231127          913 
 4417000   0.53937094   -6.9111551    1041.5053   0.01964956   0.01822523          844 
 4418000   0.54837816   -6.9215495    1041.1998  0.019639351   0.01821933          926 
 4419000   0.54451259   -6.9173651    1040.4855  0.019621435  0.018213438          776 
 4420000     0.543197   -6.9145813      1042.75   0.01965969  0.018207547          819 
 4421000   0.54015832    -6.896446    1042.5177  0.019650865  0.018201655          838 
 4422000   0.55319452   -6.9168335    1040.0901  0.019600672  0.018195775          943 
 4423000   0.56038463   -6.9109378    1043.0763  0.019652504  0.018189884          930 
 4424000   0.54142484   -6.9468961    1038.9941  0.019571166  0.018183994          899 
 4425000   0.53390521   -6.9274985    1040.2209  0.019589847  0.018178099          928 
 4426000   0.54755488   -6.9009178    1040.0133  0.019581513  0.018172214          807 
 4427000    0.5322166   -6.9122014    1042.2987  0.019620109  0.018166335          822 
 4428000   0.54414949   -6.8993056    1041.9135  0.019608429  0.018160457          750 
 4429000   0.55477985   -6.9237048      1041.72  0.019600362  0.018154582          946 
 4430000   0.54371351   -6.9139372    1042.5955  0.019612406  0.018148706          948 
 4431000   0.54182845   -6.9196965    1041.3915  0.019585336  0.018142834          938 
 4432000   0.54568593   -6.9214709    1041.4277  0.019581597  0.018136959          828 
 4433000   0.53372542   -6.9118428    1040.8826  0.019566933  0.018131088         1034 
 4434000   0.54163458   -6.9170062    1041.2979  0.019570325  0.018125219          927 
 4435000   0.53138357   -6.9011675    1040.3409   0.01954793  0.018119355         1027 
 4436000   0.54039849   -6.9099314      1041.23  0.019560228  0.018113495          873 
 4437000   0.53912554   -6.9068373    1040.6276  0.019544505   0.01810763          817 
 4438000   0.54024223   -6.9261697    1040.9726  0.019546579  0.018101769          846 
 4439000   0.53478438   -6.9239768    1040.5886  0.019534966  0.018095919          827 
 4440000   0.55124946   -6.9186411    1042.0377  0.019557764   0.01809006          969 
 4441000   0.53792705   -6.9058668    1040.6813  0.019527908  0.018084212          875 
 4442000   0.53273586    -6.897906    1041.9063  0.019546494  0.018078361          951 
 4443000    0.5435347   -6.9312433    1039.0133  0.019487832  0.018072511         1003 
 4444000   0.55096805   -6.9140023    1042.1284  0.019541861  0.018066661          948 
 4445000   0.54627152   -6.9322571    1040.2019  0.019501349  0.018060812          965 
 4446000   0.53925585   -6.9371196    1042.8632  0.019546844  0.018054969          897 
 4447000   0.53264125   -6.9037095    1041.9759   0.01952582  0.018049121          915 
 4448000   0.53456485   -6.9218999    1040.2545   0.01948918  0.018043285          938 
 4449000   0.53927592   -6.9143573    1042.1206  0.019519754  0.018037454         1001 
 4450000   0.53718699   -6.9157851    1041.5049  0.019503837   0.01803163          842 
 4451000   0.54812201   -6.9226238    1041.9803  0.019508355  0.018025809          969 
 4452000   0.54054441   -6.9025964    1042.1551  0.019507245  0.018019989          916 
 4453000   0.53685877   -6.9109191    1042.4054   0.01950755   0.01801418          834 
 4454000   0.52677931   -6.9056644    1041.5575  0.019487305  0.018008365          895 
 4455000   0.53660819   -6.9140292    1042.9581   0.01950913  0.018002555          864 
 4456000   0.53202569   -6.9127629    1042.0482  0.019487736  0.017996753          911 
 4457000   0.54260387   -6.9066731    1041.4103  0.019471437  0.017990957          873 
 4458000   0.52826127   -6.9274971    1040.8837  0.019457224  0.017985153          929 
 4459000   0.54620072   -6.9254577    1040.0766  0.019437777  0.017979345          997 
 4460000   0.52925919    -6.898552    1041.4459  0.019459004  0.017973534          947 
 4461000   0.54645947   -6.9132673    1041.9139  0.019463385   0.01796772          809 
 4462000   0.52223745   -6.9315968    1038.8608  0.019402002  0.017961912          819 
 4463000   0.53810491   -6.9350394    1041.7125  0.019450902  0.017956089          907 
 4464000   0.53239958   -6.9349518    1039.8338  0.019411474  0.017950271         1000 
 4465000   0.53235765   -6.9378392    1039.5063  0.019401013  0.017944457          968 
 4466000   0.53922238   -6.9156102    1040.1598  0.019408863  0.017938643         1013 
 4467000   0.53869786   -6.9273621    1041.8081  0.019435268  0.017932841          873 
 4468000   0.54426059   -6.9330031    1040.8999  0.019413979  0.017927042          906 
 4469000   0.55369674   -6.9302922    1040.4943  0.019402071  0.017921247          864 
 4470000   0.53612379   -6.9294831    1040.7377  0.019402269  0.017915455          858 
 4471000   0.53225163   -6.9393502    1039.4076  0.019373138  0.017909655          845 
 4472000   0.54656713   -6.9332712     1038.947  0.019360222  0.017903858          964 
 4473000   0.53767807   -6.9313147    1041.4674  0.019402851  0.017898059          900 
 4474000   0.53620649   -6.9479349    1041.0575  0.019390879  0.017892267          971 
 4475000    0.5246828   -6.9343179    1039.7296  0.019361817  0.017886479          963 
 4476000   0.54254985   -6.9421283    1041.7444  0.019395003  0.017880691         1022 
 4477000   0.53699818   -6.9296482    1041.1357   0.01937934  0.017874918          940 
 4478000   0.54714718   -6.9156054    1040.4113  0.019361532  0.017869148          940 
 4479000     0.534543   -6.9291422     1040.094  0.019351306  0.017863371          925 
 4480000   0.51815796    -6.924394    1040.4328  0.019353288  0.017857602         1018 
 4481000   0.53892878   -6.9295912    1040.8802  0.019357291  0.017851839          922 
 4482000   0.54033697   -6.9236467    1044.2404  0.019415446  0.017846079          954 
 4483000   0.53406064   -6.9146127    1040.0361  0.019332963   0.01784032          992 
 4484000   0.53226703   -6.9300961    1040.7566  0.019342043  0.017834558         1048 
 4485000   0.52664994    -6.922041      1042.38  0.019367893  0.017828791         1053 
 4486000   0.53179288   -6.9309473    1041.9493  0.019355575  0.017823035          999 
 4487000   0.54124855   -6.9346173    1044.2407  0.019393817  0.017817288         1056 
 4488000   0.52665499     -6.93256    1040.1895  0.019314273  0.017811531         1122 
 4489000   0.52834532   -6.9268707    1042.1003  0.019345442  0.017805776         1034 
 4490000   0.53970818   -6.9243877    1039.3368  0.019289844  0.017800022         1056 
 4491000   0.52401712   -6.9345613    1039.6171  0.019290749  0.017794267         1001 
 4492000    0.5432369    -6.925002    1039.0861  0.019276605  0.017788519          965 
 4493000   0.52467222   -6.9306948     1039.777   0.01928513  0.017782761         1025 
 4494000   0.52942399   -6.9362492    1039.6022  0.019277597  0.017777012         1051 
 4495000   0.53725298   -6.9439484    1039.9196  0.019279191  0.017771258         1165 
 4496000    0.5155494    -6.930018    1039.7665  0.019272066  0.017765516         1071 
 4497000   0.53302119   -6.9301028    1041.2996  0.019296191  0.017759767         1085 
 4498000   0.53072673   -6.9422665    1040.7448  0.019281622  0.017754018          983 
 4499000   0.52805039   -6.9328977    1040.3861  0.019270692  0.017748273         1075 
 4500000   0.51333361   -6.9459761    1040.5837  0.019270069  0.017742532         1114 
 4501000   0.53347738   -6.9465728    1039.5439  0.019246535  0.017736784         1134 
 4502000   0.52945514   -6.9479473     1040.558  0.019261032  0.017731044         1118 
 4503000   0.54325031   -6.9447337    1037.6084   0.01920217  0.017725304          975 
 4504000   0.52993182    -6.933258     1038.814  0.019220212  0.017719567         1073 
 4505000   0.53661571   -6.9418014    1039.9427  0.019236824  0.017713827         1015 
 4506000   0.52220933   -6.9323285    1038.0976  0.019198433  0.017708088         1105 
 4507000    0.5440442   -6.9464949    1038.1136  0.019194467  0.017702358         1071 
 4508000   0.53085768   -6.9370404     1039.525  0.019216301  0.017696622         1060 
 4509000   0.52318829   -6.9674037    1040.1883  0.019224297  0.017690899          964 
 4510000   0.54394566     -6.94791    1040.5939  0.019227529  0.017685166         1095 
 4511000   0.51663815   -6.9311322    1037.8283  0.019172178  0.017679443         1152 
 4512000   0.53398872   -6.9501922    1038.4716  0.019179809  0.017673717         1111 
 4513000   0.53185107   -6.9380803    1039.0994  0.019187153  0.017667988         1061 
 4514000   0.51270955   -6.9650364    1039.5911  0.019191979  0.017662266         1115 
 4515000   0.53525333   -6.9569704    1039.7022  0.019189778  0.017656547         1024 
 4516000   0.52615756   -6.9421947    1037.9678  0.019153524  0.017650829         1065 
 4517000   0.53071501   -6.9611132     1040.954  0.019204376  0.017645113         1113 
 4518000   0.52595813   -6.9543411    1039.3964  0.019171396   0.01763939         1081 
 4519000   0.52562575   -6.9320157    1039.2628  0.019164689  0.017633678         1139 
 4520000   0.53334795   -6.9557199    1038.2215  0.019141252  0.017627966         1099 
 4521000   0.52796022   -6.9487055    1038.8663  0.019148902  0.017622249         1039 
 4522000   0.53664989    -6.946622    1037.8903  0.019126682  0.017616529         1118 
 4523000   0.52563617   -6.9460996    1039.8865  0.019159233  0.017610814         1221 
 4524000   0.52729385   -6.9612663    1040.6403  0.019168882    0.0176051         1223 
 4525000   0.53299759   -6.9493748    1039.6493  0.019146396  0.017599394         1256 
 4526000   0.52604514   -6.9701784    1038.4741  0.019120528  0.017593685         1223 
 4527000   0.53529452   -6.9470223    1039.5633  0.019136354  0.017587975         1156 
 4528000   0.52691075   -6.9585722    1040.6108  0.019151406  0.017582273         1088 
 4529000    0.5340277   -6.9645506    1037.8102  0.019095646  0.017576571         1137 
 4530000   0.52306907   -6.9638182    1036.9504  0.019075615  0.017570871         1193 
 4531000    0.5283774   -6.9510735    1037.0565  0.019073356  0.017565169         1134 
 4532000   0.54326484   -6.9491937    1040.0706  0.019124569  0.017559469         1169 
 4533000   0.53405313   -6.9549346    1037.1059  0.019065849  0.017553766         1154 
 4534000   0.53888962   -6.9746205    1038.5799  0.019088735  0.017548066         1147 
 4535000   0.51206041    -6.944396    1037.0319  0.019056081   0.01754237         1139 
 4536000    0.5139257   -6.9605354    1038.1288  0.019072032  0.017536681         1114 
 4537000   0.53266089   -6.9831325    1037.9798  0.019065092   0.01753099         1191 
 4538000   0.53062859   -6.9587937    1036.9144  0.019041325  0.017525306         1166 
 4539000   0.52783656   -6.9673046    1037.1242  0.019040981  0.017519625         1216 
 4540000    0.5310292   -6.9594223    1038.6224  0.019064287  0.017513939         1149 
 4541000   0.51466747   -6.9541115    1039.3775  0.019073947   0.01750826         1177 
 4542000    0.5217897   -6.9580833    1039.9185  0.019079673  0.017502576         1088 
 4543000   0.52217061   -6.9739753    1035.8379  0.019000621  0.017496898         1097 
 4544000   0.51626175   -6.9613699    1038.2608  0.019040875  0.017491222         1183 
 4545000   0.52207074   -6.9706126    1041.2185  0.019090915  0.017485549         1146 
 4546000   0.52471727    -6.960676    1038.9446  0.019045032  0.017479875         1113 
 4547000   0.52751778   -6.9649844    1039.0886  0.019043484  0.017474205         1109 
 4548000   0.53333552    -6.981903     1037.964   0.01901869  0.017468533         1122 
 4549000   0.52461045   -6.9927984    1035.9532  0.018977673  0.017462863         1124 
 4550000   0.51615414   -6.9699083     1036.484  0.018983224  0.017457193         1135 
 4551000   0.53676715   -6.9878546    1038.4334  0.019014748  0.017451533         1083 
 4552000   0.51150895   -6.9809944    1037.4475  0.018992522  0.017445867         1166 
 4553000   0.53155499   -6.9804939    1038.7249   0.01901173  0.017440201         1070 
 4554000   0.52233112   -6.9814819    1038.1152  0.018996398  0.017434541         1150 
 4555000   0.52658182   -6.9645137    1038.3939  0.018997327  0.017428881         1052 
 4556000   0.52480203   -6.9639555     1038.986  0.019003988  0.017423227         1120 
 4557000   0.52863098   -6.9722039    1037.2818  0.018968654  0.017417578         1134 
 4558000   0.52121263   -6.9472831    1038.1764  0.018980846  0.017411933         1206 
 4559000   0.52046538   -6.9595938    1041.3867  0.019035364  0.017406286         1118 
 4560000   0.53444472   -6.9706803    1037.2721  0.018955995  0.017400638         1191 
 4561000   0.51413415   -6.9691941    1037.6702  0.018959113  0.017394992         1195 
 4562000   0.52686453   -6.9674906    1035.7564  0.018919999  0.017389342         1040 
 4563000   0.53144356   -6.9853816    1037.6816  0.018951012  0.017383691         1141 
 4564000   0.52702596   -6.9849622    1039.1924  0.018974445   0.01737804         1156 
 4565000    0.5267331   -6.9769296    1037.2189  0.018934262    0.0173724         1180 
 4566000   0.51661904   -6.9948176      1037.05  0.018927034  0.017366756         1126 
 4567000   0.53058406   -6.9774538    1037.0125  0.018922205  0.017361126         1116 
 4568000   0.52495702   -6.9781587    1039.1418  0.018956907  0.017355491         1104 
 4569000    0.5167952   -6.9620508    1035.9005   0.01889364  0.017349865         1099 
 4570000   0.51883317   -6.9808981    1039.3643  0.018952668  0.017344233         1081 
 4571000   0.52290679   -6.9954978    1037.4197   0.01891307  0.017338603         1093 
 4572000   0.51879336   -6.9687171    1037.3039  0.018906822  0.017332972         1142 
 4573000   0.52120397   -6.9897036     1036.655  0.018890864  0.017327346         1203 
 4574000   0.51956313   -6.9756376     1037.058  0.018894076  0.017321734         1229 
 4575000   0.52671442   -6.9826037    1035.3498  0.018858831  0.017316124         1170 
 4576000    0.5239171   -6.9645715    1038.4036  0.018910323  0.017310507         1201 
 4577000   0.52643614   -6.9770327    1037.6752  0.018892929   0.01730489         1084 
 4578000   0.51835085   -6.9697651    1036.6608  0.018870337  0.017299269         1238 
 4579000   0.50053954   -6.9740391    1037.2956  0.018877769  0.017293653         1166 
 4580000   0.52007261   -6.9792564    1037.5364  0.018878028  0.017288032         1159 
 4581000   0.50596297    -6.968701    1038.8824  0.018898393   0.01728242         1139 
 4582000   0.51927828   -6.9916788    1036.9085  0.018858368  0.017276805         1235 
 4583000   0.51454029   -6.9833252    1037.7059  0.018868752  0.017271192         1203 
 4584000    0.5252439   -6.9760724    1034.8143  0.018812069  0.017265589         1222 
 4585000   0.52282198   -6.9836413    1036.7112  0.018842443  0.017259989         1187 
 4586000   0.52053577   -6.9952353    1036.7028  0.018838182  0.017254385         1157 
 4587000   0.51912944   -6.9837173    1035.8895  0.018819299   0.01724878         1193 
 4588000   0.52562129   -6.9683665    1038.6271  0.018864922  0.017243176         1159 
 4589000   0.51023807   -6.9767911     1037.117  0.018833388  0.017237579         1116 
 4590000   0.51625674   -7.0006056    1035.4121  0.018798331  0.017231976         1157 
 4591000   0.51651678    -6.980046    1037.4856  0.018831873  0.017226384         1227 
 4592000   0.52480653   -6.9822811    1036.9775  0.018818553  0.017220786         1194 
 4593000   0.51709463   -6.9833455    1035.7891  0.018792893   0.01721519         1229 
 4594000   0.51801764   -6.9694939     1039.676   0.01885931  0.017209602         1202 
 4595000   0.51660835   -6.9832044    1035.9736   0.01878806  0.017204014         1149 
 4596000   0.51814621   -6.9996154    1033.8721  0.018745867  0.017198431         1140 
 4597000   0.51952415   -6.9868985    1035.9537  0.018779524  0.017192848         1212 
 4598000   0.52105709   -6.9812323    1036.1885  0.018779696  0.017187268         1211 
 4599000   0.51771774   -6.9926514     1037.803  0.018804867  0.017181681         1201 
 4600000   0.51830255   -6.9820773    1035.5284  0.018759572    0.0171761         1203 
 4601000   0.52211616   -6.9859615    1037.0565  0.018783172  0.017170523         1126 
 4602000   0.51400267   -6.9935171    1037.6206  0.018789305  0.017164957         1107 
 4603000   0.51851953   -6.9822293    1036.6872  0.018768325  0.017159387         1182 
 4604000    0.5096593   -6.9861738    1039.5265   0.01881564  0.017153817         1103 
 4605000   0.51558249   -6.9978886    1036.2277  0.018751859  0.017148245         1159 
 4606000   0.51094296   -6.9963123    1037.4908   0.01877064  0.017142678         1184 
 4607000   0.52386255    -6.985193    1036.5165  0.018748943  0.017137113         1175 
 4608000   0.52077609   -7.0000948    1036.8748  0.018751354  0.017131545         1268 
 4609000   0.50084033   -6.9988641    1035.2139  0.018717254  0.017125984         1241 
 4610000   0.50542221   -6.9954118    1036.7933  0.018741745  0.017120424         1216 
 4611000   0.51820581   -6.9938191     1036.554  0.018733355  0.017114858         1286 
 4612000   0.52166489    -6.979931    1037.4056   0.01874468  0.017109298         1139 
 4613000   0.53052834   -6.9955982    1036.5614  0.018725367  0.017103739         1080 
 4614000    0.5035383   -6.9748916    1035.7583  0.018706803  0.017098195         1131 
 4615000    0.5094707   -6.9603011    1037.1216  0.018727367  0.017092647         1126 
 4616000    0.5132636   -6.9960318    1036.5786  0.018713507  0.017087101         1192 
 4617000   0.51829276      -6.9797    1035.3121  0.018686595   0.01708155         1170 
 4618000   0.51534154   -6.9926951    1037.0289  0.018713529  0.017076001         1225 
 4619000   0.51625622   -6.9978203    1035.2999  0.018678284  0.017070462         1301 
 4620000   0.51469509   -6.9856766    1036.0544   0.01868785  0.017064926         1212 
 4621000     0.518271   -6.9931392    1036.2299  0.018686971   0.01705938         1179 
 4622000   0.50711294   -6.9880984    1037.2601  0.018701503  0.017053837         1244 
 4623000   0.51480345   -7.0136141    1034.7687  0.018652547  0.017048303         1275 
 4624000   0.51028908   -6.9864527    1034.8224  0.018649482  0.017042767         1167 
 4625000   0.50821391   -6.9963306    1036.6617   0.01867859  0.017037239         1278 
 4626000   0.51386119   -6.9761151    1037.6935  0.018693139  0.017031712         1212 
 4627000   0.50721266   -7.0081804    1036.0289  0.018659119  0.017026183         1302 
 4628000   0.50522703   -6.9944091    1036.6476  0.018666228  0.017020665         1307 
 4629000   0.50772109   -6.9969213    1037.2066  0.018672258   0.01701514         1276 
 4630000   0.50659306    -6.996797    1033.9181  0.018609038  0.017009615         1316 
 4631000   0.51810548   -6.9878408    1034.9289  0.018623208  0.017004099         1311 
 4632000   0.50705743   -7.0060838    1036.2412  0.018642797  0.016998579         1264 
 4633000   0.51584882   -6.9965369    1035.0742  0.018617781  0.016993069         1290 
 4634000   0.50400778   -6.9995924    1034.2572  0.018599072  0.016987551         1327 
 4635000   0.50945538   -6.9992556    1035.6724  0.018620503  0.016982035         1260 
 4636000   0.51056751   -6.9851807    1036.3739  0.018629097  0.016976519         1288 
 4637000   0.50229322   -7.0145616    1038.0371  0.018654969  0.016971011         1269 
 4638000   0.51557439   -7.0010691    1036.8418   0.01862947  0.016965506         1253 
 4639000   0.51086838   -6.9980311    1032.4996  0.018547454  0.016959993         1255 
 4640000   0.50581976   -6.9922695    1037.0314  0.018624845  0.016954499         1214 
 4641000   0.50676135   -6.9693562    1035.0342  0.018584971  0.016949002         1265 
 4642000   0.50011336   -6.9900178    1036.4024  0.018605529  0.016943512         1365 
 4643000   0.49919996   -6.9851147    1036.2149  0.018598157  0.016938022         1295 
 4644000   0.51384944   -7.0023514    1037.1042   0.01861011  0.016932529         1309 
 4645000   0.51036101   -7.0098647    1035.3054  0.018573833  0.016927035         1254 
 4646000   0.50472391   -7.0043329    1035.1917  0.018567795  0.016921547         1377 
 4647000   0.51014218   -6.9861533    1035.4826  0.018569017  0.016916066         1411 
 4648000   0.50591226   -6.9971957    1034.7013  0.018551014  0.016910586         1286 
 4649000   0.50456816   -6.9885349    1036.4236  0.018577894  0.016905108         1301 
 4650000   0.50735986   -6.9957833    1038.7249  0.018615142  0.016899637         1265 
 4651000   0.51809755   -6.9986162    1035.4463  0.018552395  0.016894156         1240 
 4652000   0.50460438   -7.0186531    1035.6306  0.018551709  0.016888669         1391 
 4653000   0.50915449   -6.9843717    1036.4735  0.018562817  0.016883192         1274 
 4654000   0.49683703   -6.9981485     1037.736  0.018581435  0.016877723         1404 
 4655000   0.49355175   -6.9974995    1034.8634  0.018526018  0.016872261         1392 
 4656000   0.50312865   -6.9989445    1036.0076  0.018542519  0.016866795         1252 
 4657000   0.50561274   -7.0095123    1035.4697  0.018528912  0.016861337         1413 
 4658000   0.50355195   -6.9992927     1033.953  0.018497799  0.016855867         1342 
 4659000   0.50349967   -6.9998617    1036.3087  0.018535965  0.016850405         1289 
 4660000    0.5024932   -7.0004253    1036.3734  0.018533145  0.016844943         1363 
 4661000   0.50313464   -7.0021321    1035.4127  0.018511991  0.016839484         1372 
 4662000   0.49971084   -6.9978682    1036.3974  0.018525622  0.016834033         1278 
 4663000   0.51065132   -6.9950319    1035.5536  0.018506569  0.016828577         1241 
 4664000   0.50874544   -7.0019894    1034.8649  0.018490296  0.016823125         1313 
 4665000   0.50315098   -7.0006557    1034.0225  0.018471284  0.016817675         1270 
 4666000   0.49804686   -6.9863466    1036.0599  0.018503712  0.016812228         1341 
 4667000   0.50116246   -6.9963026    1033.2433  0.018449455  0.016806779         1210 
 4668000   0.50459136   -7.0067974    1035.6283  0.018488081  0.016801332         1287 
 4669000   0.50171911   -6.9964474    1036.1111  0.018492737  0.016795895         1289 
 4670000    0.5062715    -7.003331    1035.8083  0.018483374  0.016790452         1253 
 4671000   0.50058388   -7.0078449    1035.7606  0.018478567  0.016785016         1299 
 4672000   0.50842343   -7.0040285    1035.8818  0.018476773  0.016779576         1334 
 4673000   0.49032628   -7.0053375    1034.8761  0.018454884  0.016774136         1403 
 4674000    0.5059676   -6.9917029    1033.9374  0.018434199  0.016768696         1397 
 4675000   0.51357237   -7.0083381    1034.3715  0.018437994  0.016763258         1412 
 4676000   0.50629737   -7.0222333    1034.6277  0.018438617  0.016757821         1342 
 4677000   0.50473188   -7.0037176    1035.1413  0.018443827  0.016752382         1291 
 4678000   0.50215633   -7.0252388    1036.0493  0.018456058  0.016746945         1378 
 4679000   0.50123981   -7.0078172    1034.8152  0.018430134  0.016741508         1291 
 4680000   0.51899152   -7.0088547      1033.35  0.018400107  0.016736077         1322 
 4681000   0.50660001    -7.012681    1034.5811  0.018418093  0.016730645         1339 
 4682000   0.50521121   -7.0166494    1034.6371  0.018415156  0.016725216         1355 
 4683000   0.49373741   -7.0013331    1036.1453  0.018438061   0.01671979         1420 
 4684000   0.49553539   -7.0096233    1035.0867  0.018415292  0.016714373         1363 
 4685000   0.49856197   -6.9963166    1035.7262  0.018422735  0.016708945         1334 
 4686000   0.49750331   -6.9946964    1035.2226  0.018409848  0.016703529         1368 
 4687000    0.5006347   -7.0119013    1033.6948  0.018378757  0.016698114         1452 
 4688000   0.49498198   -7.0127124    1032.1919  0.018348122  0.016692694         1418 
 4689000   0.50032535   -7.0140215    1035.8492  0.018409207  0.016687284         1362 
 4690000   0.50622679    -7.014137    1036.7877  0.018421956  0.016681868         1402 
 4691000   0.50089857   -6.9988162    1035.6027  0.018396978   0.01667646         1398 
 4692000   0.50215662   -7.0097628    1036.8919  0.018415955  0.016671049         1413 
 4693000    0.5082333   -7.0144092    1033.7765  0.018356711  0.016665648         1379 
 4694000   0.50294113   -7.0167239    1033.5885  0.018349462  0.016660251         1418 
 4695000   0.51188261   -6.9965634    1036.0558  0.018389347  0.016654854         1396 
 4696000   0.50007368   -7.0110942    1034.5575  0.018358843  0.016649458         1341 
 4697000   0.49857078   -7.0020447    1033.2306  0.018331393   0.01664406         1413 
 4698000   0.50590238   -7.0165157    1035.3618  0.018365294  0.016638669         1319 
 4699000   0.49875637   -7.0215973    1035.6985  0.018367357  0.016633273         1396 
 4700000   0.48866688   -7.0308284    1033.6837  0.018327725  0.016627876         1339 
 4701000   0.49747487   -7.0100761    1034.3591    0.0183358  0.016622484         1430 
 4702000   0.49426236   -7.0264491     1035.345  0.018349373  0.016617096         1373 
 4703000   0.50067416   -7.0310428    1032.4659  0.018294456  0.016611707         1415 
 4704000   0.50526517   -7.0200406    1032.9789  0.018299654  0.016606315         1414 
 4705000   0.49488798   -7.0177997    1035.2422  0.018335852  0.016600931         1350 
 4706000   0.50813805   -7.0231904    1034.8568  0.018325131  0.016595546         1385 
 4707000   0.49970057   -7.0230093    1033.7274  0.018301243  0.016590163         1291 
 4708000   0.50442327   -7.0151052    1033.8767  0.018299998  0.016584777         1303 
 4709000   0.50163191   -7.0109104    1034.1649  0.018301213  0.016579398         1358 
 4710000    0.4912472   -7.0253153    1032.5974  0.018269593  0.016574022         1365 
 4711000   0.48878978    -7.028197    1033.2484   0.01827723  0.016568642         1426 
 4712000   0.49769971   -7.0159146    1034.4447  0.018294509   0.01656327         1385 
 4713000   0.49265292   -7.0352003    1034.9024   0.01829872  0.016557904         1289 
 4714000   0.50105145   -7.0204201    1032.5423  0.018253117  0.016552542         1408 
 4715000   0.49827133   -7.0086569    1035.6654  0.018304443  0.016547183         1229 
 4716000   0.48842988   -7.0245046    1033.3978  0.018260493  0.016541823         1369 
 4717000   0.49064188   -7.0163858    1035.0962  0.018286626  0.016536466         1356 
 4718000   0.49974506    -7.009063    1036.0824  0.018300169   0.01653111         1348 
 4719000   0.50943459   -7.0230774    1033.9482  0.018258604   0.01652576         1346 
 4720000   0.48950029   -7.0178909    1035.3988  0.018280347   0.01652041         1383 
 4721000    0.5059941   -7.0066921    1033.5321  0.018243524  0.016515062         1350 
 4722000   0.48976752   -7.0241118    1034.6912  0.018260116  0.016509714         1370 
 4723000   0.51061199   -7.0248033    1035.4965  0.018270459  0.016504363         1414 
 4724000   0.49088273   -7.0252968    1034.3326  0.018246058  0.016499021         1287 
 4725000   0.49950253   -7.0054549    1034.5157  0.018245426  0.016493679         1343 
 4726000   0.49725886   -7.0328216    1035.2721  0.018254904   0.01648834         1285 
 4727000     0.491999   -7.0142678    1035.0636  0.018247365  0.016483007         1338 
 4728000   0.49716583   -7.0244102    1033.5211  0.018216319  0.016477675         1397 
 4729000   0.49318702   -7.0257834    1033.2461  0.018207622  0.016472341         1370 
 4730000   0.49352172   -7.0136037    1035.0255  0.018235122  0.016467013         1419 
 4731000   0.48948151   -7.0332452    1035.1506  0.018233471  0.016461685         1373 
 4732000   0.49285306   -7.0226358    1035.1648  0.018229868  0.016456356         1374 
 4733000   0.49184982   -7.0184748     1033.457  0.018195947  0.016451029         1351 
 4734000   0.50082476   -7.0243078    1034.0091  0.018201821  0.016445696         1366 
 4735000    0.4902721   -7.0125801    1036.2844  0.018238023  0.016440374         1407 
 4736000   0.49196188   -7.0215126    1034.0963   0.01819567  0.016435051         1312 
 4737000   0.47932473   -7.0443228    1033.7223   0.01818525  0.016429729         1446 
 4738000   0.49300647   -7.0184896    1034.7598  0.018199659  0.016424408         1399 
 4739000   0.49442141    -7.028408    1033.4011  0.018171926  0.016419098         1437 
 4740000   0.48748313   -7.0128148    1033.5827  0.018171286  0.016413796         1381 
 4741000   0.50060334   -7.0407407    1033.3722  0.018163752  0.016408492         1428 
 4742000   0.50145407   -7.0134529    1033.5916  0.018163777  0.016403182         1449 
 4743000   0.49957092   -7.0205449    1034.0395  0.018167817  0.016397877         1384 
 4744000   0.49176331   -7.0280237    1034.8918   0.01817896  0.016392572         1415 
 4745000   0.49505283   -7.0318792    1032.9318  0.018140706  0.016387276         1461 
 4746000   0.48960949   -7.0230869    1033.0965  0.018139776  0.016381971         1389 
 4747000   0.48906187   -7.0172848    1034.7112  0.018164299  0.016376676         1405 
 4748000   0.49212084   -7.0269162    1032.7204  0.018125534  0.016371386         1483 
 4749000   0.49608985   -7.0324483    1035.0028  0.018161767  0.016366092         1508 
 4750000   0.49574426   -7.0382075    1033.8871   0.01813837  0.016360793         1440 
 4751000   0.49140375    -7.041371    1033.0388  0.018119674  0.016355505         1441 
 4752000   0.49890251   -7.0494202     1032.905  0.018113514  0.016350212         1522 
 4753000   0.48283563   -7.0304955    1032.9905  0.018111201  0.016344925         1418 
 4754000   0.50026173   -7.0404842    1033.9233  0.018123743  0.016339633         1387 
 4755000   0.49425351   -7.0411864     1032.334  0.018092078  0.016334348         1461 
 4756000   0.48508833   -7.0156182    1031.9858  0.018082173  0.016329066         1459 
 4757000   0.49104147   -7.0224096    1033.7318  0.018108959  0.016323789         1478 
 4758000   0.49032404   -7.0240951    1034.4632  0.018117962   0.01631851         1432 
 4759000   0.48709736   -7.0438498    1035.3652   0.01812995  0.016313232         1411 
 4760000   0.48932885   -7.0423563     1032.604  0.018077801  0.016307954         1405 
 4761000   0.48899153   -7.0289497    1033.1035  0.018082746  0.016302685         1415 
 4762000   0.48510263   -7.0336662    1033.0349   0.01807775  0.016297413         1494 
 4763000   0.48669537   -7.0299781    1032.5616  0.018065673  0.016292143         1393 
 4764000   0.49362971   -7.0415791    1032.9254  0.018068245   0.01628688         1442 
 4765000   0.49189203   -7.0360607     1033.348  0.018071843  0.016281615         1402 
 4766000   0.49503448   -7.0239084    1033.7161  0.018074488  0.016276352         1466 
 4767000   0.47686501   -7.0476002    1033.5454  0.018067713  0.016271094         1427 
 4768000    0.4836094   -7.0319301     1033.529  0.018063636  0.016265838         1350 
 4769000   0.49195002   -7.0279632    1031.7886  0.018029436   0.01626058         1385 
 4770000   0.48532201   -7.0376147    1033.9263  0.018063003  0.016255317         1529 
 4771000   0.49255024   -7.0290097    1032.4602  0.018033609  0.016250064         1483 
 4772000   0.48768458   -7.0354561    1032.6599  0.018033317  0.016244808         1452 
 4773000   0.48103403   -7.0018857    1034.9086  0.018068801   0.01623956         1380 
 4774000   0.49316539   -7.0359301    1033.7494  0.018044781  0.016234313         1421 
 4775000   0.48462857   -7.0252604     1032.045  0.018011257  0.016229067         1475 
 4776000   0.48024774   -7.0343757    1033.0071  0.018024273  0.016223829         1411 
 4777000   0.48658536   -7.0363817    1034.2275  0.018041789  0.016218592         1461 
 4778000   0.48836814   -7.0555094    1032.2836   0.01800411  0.016213352         1435 
 4779000   0.48847273     -7.05682    1033.9736  0.018029811  0.016208116         1510 
 4780000   0.48764645   -7.0418993     1035.852  0.018058786  0.016202881         1438 
 4781000   0.48200311   -7.0440406    1033.4571  0.018013267   0.01619765         1486 
 4782000   0.48799247    -7.027871    1035.1477  0.018038961  0.016192419         1440 
 4783000    0.4850591   -7.0421312    1034.0353  0.018015808  0.016187193         1488 
 4784000   0.48836773   -7.0461849    1034.5435  0.018020895  0.016181962         1478 
 4785000   0.48574061   -7.0296095    1033.9195  0.018006261  0.016176732         1569 
 4786000   0.48828837   -7.0699472    1031.7451  0.017964638  0.016171504         1489 
 4787000   0.48987252   -7.0519974    1034.0675  0.018001314  0.016166284         1421 
 4788000   0.47826038   -7.0517415    1032.8113  0.017975691  0.016161056         1525 
 4789000   0.48164607   -7.0275101    1032.9749  0.017974784  0.016155833         1544 
 4790000   0.48038602   -7.0507003     1031.268  0.017941336  0.016150611         1407 
 4791000    0.4871666   -7.0330595    1034.1949    0.0179885  0.016145396         1524 
 4792000   0.47718078   -7.0385912    1034.4285  0.017988809  0.016140183         1507 
 4793000   0.48056397   -7.0489729    1033.7373  0.017973038  0.016134974         1532 
 4794000   0.48818197   -7.0489557    1033.4533  0.017964353  0.016129765         1498 
 4795000   0.49155846    -7.053882    1033.5837  0.017962872  0.016124564         1560 
 4796000     0.484241   -7.0439013    1033.2261  0.017952915  0.016119363         1496 
 4797000   0.48788707   -7.0280488    1034.0776  0.017963964  0.016114162         1447 
 4798000   0.48851478   -7.0471343    1034.0446  0.017959647  0.016108965         1458 
 4799000   0.48443384   -7.0481035    1033.8098  0.017951827  0.016103768         1506 
 4800000   0.48426426   -7.0549284    1032.4598  0.017924648  0.016098568         1503 
 4801000   0.48844787   -7.0485796     1032.955  0.017929511  0.016093374         1501 
 4802000   0.47698087    -7.056094    1031.5914  0.017902114  0.016088175         1474 
 4803000   0.49365241   -7.0465389    1032.5795  0.017915531  0.016082985         1553 
 4804000   0.48740332   -7.0548566    1035.9324  0.017969963  0.016077794         1442 
 4805000   0.48528051   -7.0445878    1032.7777   0.01791151   0.01607261         1586 
 4806000   0.47618357    -7.049672    1034.8276  0.017943328  0.016067423         1631 
 4807000   0.47838919   -7.0567056    1031.7455  0.017886164  0.016062234         1423 
 4808000   0.47261756   -7.0468197    1032.9712  0.017903687  0.016057055         1417 
 4809000   0.48858164     -7.04974    1032.8197   0.01789734   0.01605188         1403 
 4810000   0.48989193   -7.0495073    1033.8841  0.017912061  0.016046714         1438 
 4811000   0.48658819   -7.0515725    1033.8066  0.017906994  0.016041544         1372 
 4812000   0.49332348   -7.0473626     1033.418  0.017896543  0.016036379         1505 
 4813000   0.48439183   -7.0461283    1034.7555  0.017915982  0.016031215         1453 
 4814000   0.47078382   -7.0414234    1034.2471   0.01790346  0.016026054         1403 
 4815000   0.48293313   -7.0641268    1033.6951  0.017890188  0.016020887         1526 
 4816000    0.4948187   -7.0440152    1033.1932  0.017877789  0.016015721         1499 
 4817000   0.48284721   -7.0523676    1033.9532  0.017887226  0.016010552         1526 
 4818000   0.48204095   -7.0503824    1033.9225  0.017882983   0.01600539         1435 
 4819000   0.48708872   -7.0672821    1032.0498  0.017846888  0.016000225         1503 
 4820000   0.48300452    -7.058984    1032.8468  0.017856964  0.015995065         1560 
 4821000   0.48040962   -7.0627896    1031.0972  0.017823017  0.015989905         1548 
 4822000   0.48559801   -7.0593051    1033.7545  0.017865245  0.015984748         1638 
 4823000   0.46978284   -7.0543773    1031.0487  0.017814789  0.015979586         1540 
 4824000   0.48074882   -7.0569341    1032.9242  0.017843494  0.015974432         1526 
 4825000   0.47464228   -7.0338548    1033.3434  0.017847037   0.01596928         1523 
 4826000     0.473922   -7.0512989    1035.0761  0.017873257  0.015964134         1494 
 4827000   0.48228658   -7.0524838    1032.2663  0.017821047  0.015958985         1549 
 4828000   0.48732426   -7.0523097    1032.2776  0.017817551  0.015953841         1535 
 4829000   0.47641114   -7.0594187    1033.2942  0.017831405    0.0159487         1548 
 4830000   0.47161465   -7.0644523    1032.7138  0.017817698  0.015943559         1549 
 4831000   0.45941742   -7.0378502    1032.5825  0.017811746  0.015938421         1441 
 4832000    0.4805365   -7.0555547    1033.1393  0.017817662   0.01593329         1560 
 4833000    0.4889843   -7.0620495    1032.0393  0.017795008  0.015928157         1520 
 4834000   0.48511998   -7.0528897    1032.7263  0.017803169  0.015923028         1463 
 4835000   0.48131595   -7.0614744    1032.9734  0.017803747  0.015917894         1484 
 4836000   0.48077613   -7.0612611    1032.7962  0.017797012  0.015912765         1510 
 4837000   0.48409059    -7.080762    1032.3784  0.017786135  0.015907636         1559 
 4838000   0.48377393   -7.0573264    1031.8334   0.01777307  0.015902501         1570 
 4839000   0.47129132   -7.0560096    1031.9293   0.01777105  0.015897382         1553 
 4840000   0.47178652   -7.0554758    1030.7734  0.017747475  0.015892265         1519 
 4841000   0.48474159    -7.069991    1033.2613  0.017786637  0.015887146         1544 
 4842000   0.48510509   -7.0617897    1030.6194  0.017737495  0.015882017         1548 
 4843000    0.4726344   -7.0588838    1031.3444  0.017746307  0.015876903         1516 
 4844000   0.47944684   -7.0544011    1033.2974  0.017776241  0.015871789         1570 
 4845000   0.47581017   -7.0597393     1030.756  0.017728862  0.015866677         1595 
 4846000   0.46994134   -7.0597273    1033.0153  0.017764055  0.015861567         1605 
 4847000    0.4770765   -7.0753454    1031.1636  0.017728553  0.015856461         1548 
 4848000   0.47943892   -7.0539738    1031.8856  0.017737308  0.015851354         1603 
 4849000   0.46828998   -7.0745853    1030.3661  0.017707535  0.015846249         1610 
 4850000   0.47815519   -7.0611483    1034.1503  0.017768906  0.015841145         1583 
 4851000   0.47479819   -7.0713902    1031.3131  0.017716504  0.015836048         1613 
 4852000   0.48085953   -7.0600193    1032.8809  0.017739779  0.015830951         1570 
 4853000   0.47177876   -7.0631442    1031.2319  0.017707807  0.015825852         1581 
 4854000   0.48668165   -7.0734016    1031.7448  0.017712965  0.015820756         1541 
 4855000   0.47257906   -7.0587234     1033.192  0.017734157   0.01581566         1665 
 4856000   0.47508393   -7.0610396    1030.4699  0.017683792   0.01581057         1663 
 4857000   0.47195271   -7.0549663    1031.5375  0.017698468  0.015805488         1605 
 4858000   0.46631453   -7.0446024    1033.3752  0.017726349  0.015800404         1554 
 4859000   0.48727488   -7.0686907    1031.5492  0.017691384  0.015795317         1600 
 4860000   0.46608882   -7.0524506    1032.1838  0.017698625  0.015790232         1613 
 4861000   0.47030017   -7.0499607    1032.8402  0.017706237  0.015785142         1586 
 4862000   0.47619944   -7.0734505    1031.2489   0.01767532  0.015780059         1624 
 4863000   0.46613267   -7.0893206    1031.9173   0.01768314  0.015774976         1629 
 4864000   0.46668991   -7.0661904    1031.5015   0.01767238  0.015769889         1654 
 4865000    0.4778794    -7.082097    1030.1054  0.017644833  0.015764808         1688 
 4866000   0.46047779   -7.0717608    1032.2371  0.017677715  0.015759731         1695 
 4867000   0.48242543    -7.059431    1031.1951   0.01765624  0.015754656         1600 
 4868000   0.48684799   -7.0697963    1031.4844  0.017657566  0.015749584         1562 
 4869000   0.46710742   -7.0612293    1031.5487   0.01765504  0.015744513         1651 
 4870000   0.48135688   -7.0725212    1029.8549  0.017622432  0.015739437         1584 
 4871000   0.47081485   -7.0606938    1031.8325  0.017652647  0.015734365         1624 
 4872000    0.4755753   -7.0738558    1031.1884  0.017638007  0.015729294         1642 
 4873000   0.48517441   -7.0668379    1030.5684  0.017623783  0.015724226         1609 
 4874000   0.47474994   -7.0613664    1031.7711  0.017640732  0.015719161         1670 
 4875000   0.46835306   -7.0528857    1029.5302  0.017598808  0.015714096         1602 
 4876000   0.46331372   -7.0593053    1031.3351  0.017626044  0.015709034         1690 
 4877000    0.4748529   -7.0609119    1031.5557  0.017626199  0.015703973         1587 
 4878000   0.46941565   -7.0832178    1030.9431  0.017612121  0.015698914         1670 
 4879000   0.46387953     -7.06498    1032.9029  0.017641985  0.015693856         1667 
 4880000   0.46237853   -7.0945987    1031.4029  0.017612755  0.015688799         1591 
 4881000   0.47079886   -7.0837505    1030.6733  0.017596689  0.015683744         1612 
 4882000   0.46603182   -7.0711421    1031.9036  0.017614085  0.015678691         1716 
 4883000   0.46819294   -7.0734359    1029.7632  0.017573951  0.015673629         1655 
 4884000   0.46315962   -7.0730008    1030.7465   0.01758713  0.015668579         1623 
 4885000   0.46259002   -7.0689326    1030.9855  0.017587607  0.015663531         1596 
 4886000   0.46809334   -7.0911113    1029.4551  0.017557906  0.015658483         1632 
 4887000   0.47073431   -7.0835762    1031.1279  0.017582836  0.015653436         1640 
 4888000     0.474225   -7.0599478     1030.134  0.017562296  0.015648389         1580 
 4889000   0.46756997   -7.0820902    1029.9264  0.017555164  0.015643353         1557 
 4890000   0.47198523    -7.075419    1029.7394  0.017548389  0.015638315         1572 
 4891000   0.46959935   -7.0908642     1029.852  0.017546719  0.015633275         1578 
 4892000   0.47412264   -7.0764138    1030.1355   0.01754796   0.01562824         1566 
 4893000   0.46362343   -7.0711364    1031.8708  0.017573929  0.015623207         1649 
 4894000   0.47175435   -7.0939761    1031.4603  0.017563349  0.015618178         1605 
 4895000   0.47787562     -7.08162    1031.1231  0.017554019  0.015613144         1571 
 4896000   0.46490276   -7.0673876    1031.1925  0.017551615   0.01560812         1560 
 4897000   0.46767423     -7.08818    1031.3607  0.017550893  0.015603095         1637 
 4898000   0.45609254   -7.0735772    1031.7951  0.017554701  0.015598071         1592 
 4899000   0.46738383   -7.0895895    1029.6176  0.017514077  0.015593054         1609 
 4900000   0.47298188   -7.0726899    1031.6404  0.017544904  0.015588038         1641 
 4901000    0.4685479   -7.0772431    1030.9178  0.017529039  0.015583022         1657 
 4902000   0.46001055   -7.0779385    1028.4061  0.017482764  0.015578004         1579 
 4903000    0.4724276   -7.0837016    1030.6738  0.017517741  0.015572993         1596 
 4904000    0.4691037   -7.0821662    1032.0664  0.017537834  0.015567977         1618 
 4905000   0.46452181   -7.0831715    1029.5592  0.017491662  0.015562971         1705 
 4906000   0.45982622   -7.0635829    1030.7089  0.017507624  0.015557966         1581 
 4907000   0.45454689   -7.0639863    1031.4267  0.017516248  0.015552966         1616 
 4908000   0.46884603   -7.0835544    1029.5081  0.017480101  0.015547964         1515 
 4909000   0.46672953   -7.0660267      1032.37  0.017525123  0.015542967         1561 
 4910000   0.46788395   -7.0807618    1031.2215  0.017502062  0.015537972         1707 
 4911000   0.46375373   -7.0794999    1028.5573   0.01745329  0.015532977         1676 
 4912000   0.47398887   -7.0926701    1029.8695  0.017471999  0.015527983         1604 
 4913000   0.47076961   -7.0825767    1029.4922  0.017462043  0.015522991         1590 
 4914000   0.46251728   -7.0794649      1031.03  0.017484568  0.015517995         1559 
 4915000   0.46486162   -7.0738912    1031.1775  0.017483512  0.015513008         1666 
 4916000   0.45679764   -7.0676096    1029.8943  0.017458202  0.015508022         1588 
 4917000   0.44919822   -7.0929592    1029.6467  0.017450455  0.015503033         1578 
 4918000   0.45761117   -7.0640355    1030.7378  0.017465396  0.015498052         1578 
 4919000   0.46429871   -7.0972797    1030.4929  0.017457696  0.015493074         1666 
 4920000   0.46052381   -7.0898275    1030.2426  0.017449908  0.015488098         1650 
 4921000   0.45866471   -7.0745185     1030.614  0.017452652  0.015483127         1573 
 4922000   0.46707604   -7.0702712    1029.4145  0.017428798  0.015478161         1669 
 4923000   0.45699736   -7.0757326    1030.6692  0.017446496  0.015473188         1667 
 4924000   0.46716835   -7.0685477    1031.2899  0.017453457  0.015468219         1540 
 4925000   0.45430179   -7.0719268    1031.4641  0.017452861  0.015463246         1571 
 4926000   0.45447731   -7.0840153    1029.4935  0.017415982  0.015458277         1665 
 4927000   0.46596534   -7.0920573    1031.1565  0.017440574  0.015453308         1665 
 4928000   0.46580269   -7.0900789    1029.6842  0.017412139  0.015448346         1634 
 4929000   0.45755493    -7.074667    1029.9598  0.017413264  0.015443378         1598 
 4930000   0.46727068   -7.0813914    1030.7124  0.017422454  0.015438416         1598 
 4931000   0.46686697   -7.0661353    1029.7787  0.017403141  0.015433459         1559 
 4932000   0.46572537   -7.0754371    1030.2871  0.017408203  0.015428497         1601 
 4933000   0.46571617   -7.0675965    1030.3877  0.017406373  0.015423545         1569 
 4934000   0.46145949    -7.067193    1031.0133  0.017413412  0.015418592         1584 
 4935000   0.45546849   -7.0843635    1030.3795  0.017399182  0.015413635         1664 
 4936000   0.45980603   -7.1062815    1030.9844  0.017405869  0.015408682         1542 
 4937000   0.45375409   -7.0750145    1029.4552  0.017376531  0.015403727         1518 
 4938000   0.46095921   -7.0858126     1029.761  0.017378173  0.015398777         1598 
 4939000   0.45155258   -7.0872454    1029.7766  0.017374917  0.015393832         1570 
 4940000   0.46513145   -7.0955787    1030.4332  0.017382477  0.015388886         1615 
 4941000     0.456087   -7.0806941    1030.9385  0.017387481  0.015383942         1570 
 4942000   0.47243213   -7.0948847    1029.7598  0.017364086  0.015378998         1630 
 4943000   0.45949129   -7.0988553    1028.0344  0.017331486  0.015374052         1641 
 4944000   0.45771034   -7.1036945    1029.3305  0.017349827  0.015369112         1637 
 4945000   0.45611824   -7.0794885    1028.7023  0.017335731  0.015364172         1615 
 4946000   0.45336252   -7.0973807    1030.8455  0.017368337  0.015359239         1506 
 4947000   0.45875319    -7.089992    1031.1047  0.017369191  0.015354303         1556 
 4948000   0.45275901   -7.0911904    1029.1169  0.017332203  0.015349364         1579 
 4949000   0.46212862   -7.0993564    1028.7435  0.017322413  0.015344431         1618 
 4950000   0.45546634   -7.1067519    1030.4305  0.017347314  0.015339502         1626 
 4951000    0.4651107   -7.0905193    1029.3935  0.017326356  0.015334578         1640 
 4952000   0.45184831   -7.0891274    1030.3885  0.017339601  0.015329657         1565 
 4953000   0.45796275   -7.1163865    1027.8825  0.017293938  0.015324734         1529 
 4954000   0.47538242   -7.0899062    1028.5331  0.017301391  0.015319813         1596 
 4955000   0.46694747      -7.0785    1030.8359  0.017336628  0.015314896         1495 
 4956000   0.45622601   -7.1076431    1030.4134  0.017326026  0.015309979         1610 
 4957000   0.45826364   -7.0885512    1028.8729  0.017296633  0.015305067         1560 
 4958000   0.45808765   -7.0918653     1031.152   0.01733145  0.015300156         1601 
 4959000   0.45483135   -7.0853731    1030.2743  0.017313206  0.015295246         1515 
 4960000   0.46033617   -7.1001002    1030.7704  0.017318052   0.01529034         1611 
 4961000   0.46364728   -7.0997891    1029.7315   0.01729711  0.015285431         1562 
 4962000   0.45427623   -7.0883644    1030.1584  0.017300793  0.015280525         1648 
 4963000   0.45555717   -7.0826439    1029.9784  0.017294284  0.015275619         1687 
 4964000   0.46442201   -7.0987862    1030.0072  0.017291283  0.015270719         1562 
 4965000   0.45356367   -7.1103979     1029.374  0.017277173  0.015265816         1541 
 4966000   0.45237672   -7.0943689    1027.9533  0.017249854  0.015260915         1557 
 4967000   0.47143924   -7.0933075    1029.9312  0.017279565  0.015256022         1515 
 4968000   0.44583482   -7.0816556    1029.8644  0.017274966  0.015251128         1578 
 4969000   0.46173554   -7.0965454      1027.49  0.017231669  0.015246238         1546 
 4970000   0.47010291   -7.0906271    1027.8686  0.017234551  0.015241349         1539 
 4971000   0.45369746   -7.1034044    1027.4692  0.017224388  0.015236459         1597 
 4972000    0.4524049   -7.0948318     1029.962  0.017262705  0.015231573         1608 
 4973000   0.45123579   -7.1015059    1031.0141  0.017276864  0.015226693         1636 
 4974000   0.44967375   -7.1101427    1027.7254  0.017218293  0.015221814         1589 
 4975000   0.45589087   -7.0900341    1030.9785  0.017269322  0.015216928         1546 
 4976000   0.45499725   -7.0933187    1027.7942  0.017212524  0.015212047         1546 
 4977000   0.45664154   -7.1051472    1029.4694  0.017237113  0.015207169         1659 
 4978000    0.4504958   -7.0939408    1030.1877  0.017245675  0.015202296         1543 
 4979000   0.46276125   -7.0987992    1030.5588  0.017248423  0.015197422         1546 
 4980000   0.46275681   -7.0914115    1029.1053  0.017220637  0.015192555         1566 
 4981000   0.46309603   -7.1025235    1030.9172  0.017247494  0.015187683         1646 
 4982000   0.45476318   -7.1059841     1028.477  0.017203215  0.015182815         1593 
 4983000   0.45212379   -7.1046686    1027.8887  0.017189925  0.015177949         1546 
 4984000   0.45119084   -7.0997601    1030.6585  0.017232786  0.015173084         1542 
 4985000   0.46084999    -7.117293    1027.8755  0.017182807  0.015168221         1653 
 4986000   0.44957331   -7.1038464     1029.478  0.017206145  0.015163356         1505 
 4987000   0.46763792   -7.1042545    1028.8872  0.017192822  0.015158502         1538 
 4988000   0.45819124   -7.1104521    1030.5687  0.017217466  0.015153649         1598 
 4989000   0.45676091   -7.0990578    1028.5257   0.01717989  0.015148796         1475 
 4990000   0.45548093   -7.0900316     1028.209  0.017171159   0.01514394         1555 
 4991000   0.45844769   -7.0996853      1028.75  0.017176752  0.015139087         1528 
 4992000   0.45777366   -7.0966763     1027.954  0.017160023  0.015134238         1517 
 4993000   0.45090617   -7.0984255    1030.5993  0.017200737  0.015129391         1537 
 4994000   0.44450898   -7.0985046    1028.2236  0.017157649  0.015124547         1510 
 4995000   0.45932179    -7.103928     1029.565  0.017176593    0.0151197         1586 
 4996000   0.45614649   -7.1052241    1028.7808  0.017160074  0.015114863         1591 
 4997000   0.45153163   -7.0898733    1028.0242  0.017144023  0.015110021         1574 
 4998000   0.45532666   -7.0830555    1029.8971  0.017171821  0.015105188         1538 
 4999000   0.44605038   -7.1050298    1028.6617  0.017147791  0.015100352         1663 
 5000000   0.45105838   -7.0954162    1029.1834  0.017153056  0.015095523         1570 
 5001000   0.45202328   -7.1219319    1028.5475   0.01713903   0.01509069         1659 
 5002000   0.45224611    -7.113751    1028.0173  0.017126771  0.015085858         1583 
 5003000   0.44567199   -7.1010595     1028.179  0.017126041  0.015081025         1595 
 5004000   0.44811914   -7.0925997    1028.6803  0.017130967  0.015076198         1626 
 5005000   0.45044583   -7.1121176    1028.8521  0.017130404  0.015071367         1620 
 5006000   0.45006846   -7.1214225    1029.4151  0.017136355  0.015066545         1662 
 5007000   0.45295002   -7.1073494     1030.349  0.017148475  0.015061723         1567 
 5008000   0.44758474   -7.1195102    1027.7677  0.017102098  0.015056905         1561 
 5009000   0.44546263     -7.09742    1028.0511  0.017103399  0.015052086         1591 
 5010000      0.45042   -7.1199166    1030.2885    0.0171372  0.015047272         1664 
 5011000     0.462985   -7.0941473    1028.5684  0.017105175  0.015042459         1624 
 5012000   0.44575265   -7.0967706    1027.8619  0.017090016  0.015037649         1640 
Loop time of 12888.6 on 48 procs for 5000000 steps with 4000 atoms

Performance: 67035.942 tau/day, 387.939 timesteps/s
99.4% CPU use with 48 MPI tasks x no OpenMP threads

MPI task timing breakdown:
Section |  min time  |  avg time  |  max time  |%varavg| %total
---------------------------------------------------------------
Pair    | 971.39     | 1040.7     | 1121.8     | 108.4 |  8.07
Neigh   | 89.646     | 92.539     | 95.462     |  16.5 |  0.72
Comm    | 828.68     | 901.96     | 981.18     | 124.1 |  7.00
Output  | 15.95      | 15.955     | 16.051     |   0.4 |  0.12
Modify  | 10685      | 10721      | 10769      |  14.7 | 83.18
Other   |            | 116.5      |            |       |  0.90

Nlocal:        83.3333 ave          89 max          75 min
Histogram: 1 0 4 3 4 12 9 7 5 3
Nghost:        2412.62 ave        2430 max        2388 min
Histogram: 1 1 4 7 4 8 8 4 5 6
Neighs:        16679.9 ave       18999 max       14889 min
Histogram: 7 7 5 5 4 4 3 6 3 4
FullNghs:      33359.3 ave       36053 max       29911 min
Histogram: 1 0 4 4 9 9 10 4 5 2

Total # of neighbors = 1601246
Ave neighs/atom = 400.31150
Neighbor list builds = 267742
Dangerous builds = 0

#clear
#
#next RN
#
#jump SELF
Total wall time: 3:34:52
