
units lj                  # Use reduced LJ style units
atom_style atomic         # Uncharged point particles
atom_modify map hash      # Needed for indexing of clusters etc
                          # Used to be able to find where atoms are in relation to each other.

lattice fcc 1.0 spacing 1 1 1
Lattice spacing in x,y,z = 1.5874011 1.5874011 1.5874011
region box block 0 10 0 10 0 10 units lattice
create_box 2 box
Created orthogonal box = (0.0000000 0.0000000 0.0000000) to (15.874011 15.874011 15.874011)
  3 by 4 by 4 MPI processor grid
create_atoms 1 box
Created 4000 atoms
  using lattice units in orthogonal box = (0.0000000 0.0000000 0.0000000) to (15.874011 15.874011 15.874011)
  create_atoms CPU = 0.002 seconds
set type 1 type/fraction 2 0.98 78393
Setting atom values ...
  3920 settings made for type/fraction
mass 1 1.0
mass 2 1.0
pair_style lj/cut  3.5
pair_modify tail  yes
pair_coeff 1  1  1.0  1.0   # Intearaction between 1 and 1 set with epsilon = 1 and sigma = 1
pair_coeff 1  2  1.5  0.8
pair_coeff 2  2  0.5  0.88

write_data data.0
System init for write_data ...
Neighbor list info ...
  update every 1 steps, delay 10 steps, check yes
  max neighbors/atom: 2000, page size: 100000
  master list distance cutoff = 3.8
  ghost atom cutoff = 3.8
  binsize = 1.9, bins = 9 9 9
  1 neighbor lists, perpetual/occasional/extra = 1 0 0
  (1) pair lj/cut, perpetual
      attributes: half, newton on
      pair build: half/bin/atomonly/newton
      stencil: half/bin/3d
      bin: standard
WARNING: Not all mixed pair coeffs generated from mixing. Use write_data with 'pair ij' option to store all pair coeffs. (../write_data.cpp:312)


#############################
#   M E L T   S Y S T E M   #
#############################

velocity all create 2.4 9622624 mom yes dist gaussian # Assign velocities
                                                    # Temperature 2.4, random number seed, zero linear momentum
                                                                                # Gaussian distribution

timestep 0.002   # simulation timestep
thermo 1000       # output thermodynamic data every 1000 steps bf 100

# Define a fix  in this case with index 1 applied to all
# particles in the simulation. This fix is for simulations
# in the anisotropic NPT ensemble. Note that we use the MTK
# correction.
fix 1 all npt temp 2.4 2.4 0.1 iso 5.68 5.68 0.5 mtk yes tchain 5 pchain 5 # Use NPT ensemble
                                                                         # Set temperature and pressure and damping
                                                                         # Numbers of thermostats in chain and in barostat
run 10000          # run for 10000 steps
Per MPI rank memory allocation (min/avg/max) = 3.642 | 3.644 | 3.648 Mbytes
Step Temp E_pair E_mol TotEng Press Volume 
       0          2.4   -2.7962588            0   0.80284124   -1.8826162         4000 
    1000    2.4618329    -1.581638            0    2.1101882    5.7413698    4220.1535 
    2000    2.4032841   -1.5561943            0    2.0478307    5.7868998    4225.7085 
    3000    2.3845618   -1.6097716            0    1.9661769    5.6380037    4186.6556 
    4000    2.3712359   -1.5548916            0     2.001073    5.8395333    4201.9382 
    5000    2.4128811   -1.5757895            0    2.0426273     5.733342     4213.528 
    6000    2.3844727    -1.573219            0    2.0025958    5.7764411    4207.2668 
    7000    2.3535146   -1.6076369            0    1.9217524    5.5778958    4197.0515 
    8000    2.3963818   -1.5668696            0    2.0268045      5.43252    4278.8019 
    9000    2.4253474   -1.5982118            0    2.0388998    5.8713609    4175.7168 
   10000     2.377422    -1.595921            0    1.9693204     5.645345    4211.9701 
Loop time of 2.52493 on 48 procs for 10000 steps with 4000 atoms

Performance: 684376.433 tau/day, 3960.512 timesteps/s
99.6% CPU use with 48 MPI tasks x no OpenMP threads

MPI task timing breakdown:
Section |  min time  |  avg time  |  max time  |%varavg| %total
---------------------------------------------------------------
Pair    | 1.0418     | 1.1046     | 1.2317     |   3.5 | 43.75
Neigh   | 0.20413    | 0.21183    | 0.23084    |   1.2 |  8.39
Comm    | 0.71752    | 0.8545     | 0.94141    |   4.9 | 33.84
Output  | 0.00024299 | 0.0002496  | 0.00031806 |   0.0 |  0.01
Modify  | 0.29394    | 0.33879    | 0.39234    |   4.2 | 13.42
Other   |            | 0.01501    |            |       |  0.59

Nlocal:        83.3333 ave          99 max          75 min
Histogram: 6 6 11 7 9 2 4 2 0 1
Nghost:        1591.85 ave        1634 max        1566 min
Histogram: 3 7 10 11 3 5 5 1 2 1
Neighs:        9058.21 ave       11003 max        7730 min
Histogram: 3 1 12 10 9 4 5 2 1 1

Total # of neighbors = 434794
Ave neighs/atom = 108.69850
Neighbor list builds = 909
Dangerous builds = 217

# Equilibrate just above the melting temperature to avoid step fn in T

fix 1 all npt temp 1.25 1.25 0.1 iso 5.68 5.68 0.5 mtk yes tchain 5 pchain 5
run 2000
Per MPI rank memory allocation (min/avg/max) = 3.643 | 3.645 | 3.649 Mbytes
Step Temp E_pair E_mol TotEng Press Volume 
   10000     2.377422    -1.595921            0    1.9693204     5.645345    4211.9701 
   11000    1.2314552   -2.4021421            0  -0.55542108    5.8259501    3295.4951 
   12000    1.2518398   -2.4462206            0  -0.56893037    5.6290761    3290.8731 
Loop time of 0.583287 on 48 procs for 2000 steps with 4000 atoms

Performance: 592503.935 tau/day, 3428.842 timesteps/s
99.6% CPU use with 48 MPI tasks x no OpenMP threads

MPI task timing breakdown:
Section |  min time  |  avg time  |  max time  |%varavg| %total
---------------------------------------------------------------
Pair    | 0.25359    | 0.27738    | 0.29725    |   2.0 | 47.55
Neigh   | 0.039409   | 0.040907   | 0.042784   |   0.5 |  7.01
Comm    | 0.18876    | 0.21327    | 0.23988    |   2.7 | 36.56
Output  | 5.3181e-05 | 5.4629e-05 | 7.0371e-05 |   0.0 |  0.01
Modify  | 0.043668   | 0.04694    | 0.049978   |   0.9 |  8.05
Other   |            | 0.004741   |            |       |  0.81

Nlocal:        83.3333 ave          91 max          74 min
Histogram: 1 2 3 3 12 11 4 4 7 1
Nghost:        1866.56 ave        1895 max        1845 min
Histogram: 5 6 6 6 5 5 5 6 2 2
Neighs:        11617.5 ave       13413 max       10120 min
Histogram: 3 5 4 8 10 6 3 6 2 1

Total # of neighbors = 557642
Ave neighs/atom = 139.41050
Neighbor list builds = 145
Dangerous builds = 17

#############################
# L I N E A R  Q U E N C H  #
#############################

# Define solid atoms. This closely follows ten Wolde  Ruiz-Montero and Frenkel  Faraday Discuss  1996  104  93-110
# Compute components of the per-atom q6 vector
compute q6 all orientorder/atom degrees 1 6 components 6 nnn NULL cutoff 1.3 # compute the Q6 parameter.
                                                                             # Use all neighbours within 1.3 unit cell.

# get number of connections
compute coord_number all coord/atom orientorder q6 0.5

# An atom is solid if it has 8 or more connections (of a possible 14)
variable is_solid atom c_coord_number>=8
group solid dynamic all var is_solid    # Must be dynamic to update
dynamic group solid defined

# do clustering
compute cluster solid cluster/atom 1.3 # Create a cluster where all atoms within are solid and max 1.3 units from another member

# define chunks one chunk per cluster
compute clus_chunks solid chunk/atom c_cluster nchunk every compress yes  # Says which atoms are in which chunk

# count the size of each chunk
compute size_chunks solid property/chunk clus_chunks count


# Find the maximum entry in the vector of chunk sizes
variable max_n equal max(c_size_chunks)


# Thermo style which includes this variable
# thermo_style custom step temp pe vol v_max_n

thermo ${N}  # Print the thermo information every 100 steps
thermo 1000  

# Reset the npt fix at a lower temperature (below freezing)
fix 1  all npt temp  ${temp} ${temp}  0.1  iso  5.68  5.68  0.5  mtk yes tchain  5  pchain  5
fix 1  all npt temp  0.45 ${temp}  0.1  iso  5.68  5.68  0.5  mtk yes tchain  5  pchain  5
fix 1  all npt temp  0.45 0.45  0.1  iso  5.68  5.68  0.5  mtk yes tchain  5  pchain  5

dump dmp2 all dcd ${N} traj.dcd
dump dmp2 all dcd 1000 traj.dcd


compute msd all msd com yes
variable twopoint equal c_msd[4]/6/(step*dt+1.0e-6)
fix 9 all vector 10 c_msd[4]
variable fit equal slope(f_9)/6/(10*dt)
thermo_style custom step temp pe c_msd[4] v_twopoint v_fit v_max_n

fix 1 all npt temp 1.25 ${temp} 0.1 iso 5.68 5.68 0.5 mtk yes tchain 5 pchain 5
fix 1 all npt temp 1.25 0.45 0.1 iso 5.68 5.68 0.5 mtk yes tchain 5 pchain 5
run 500000 # 5000000  # Run for this many steps
Neighbor list info ...
  update every 1 steps, delay 10 steps, check yes
  max neighbors/atom: 2000, page size: 100000
  master list distance cutoff = 3.8
  ghost atom cutoff = 3.8
  binsize = 1.9, bins = 8 8 8
  4 neighbor lists, perpetual/occasional/extra = 1 3 0
  (1) pair lj/cut, perpetual
      attributes: half, newton on
      pair build: half/bin/atomonly/newton
      stencil: half/bin/3d
      bin: standard
  (2) compute orientorder/atom, occasional
      attributes: full, newton on
      pair build: full/bin/atomonly
      stencil: full/bin/3d
      bin: standard
  (3) compute coord/atom, occasional
      attributes: full, newton on
      pair build: full/bin/atomonly
      stencil: full/bin/3d
      bin: standard
  (4) compute cluster/atom, occasional
      attributes: full, newton on
      pair build: full/bin/atomonly
      stencil: full/bin/3d
      bin: standard
Per MPI rank memory allocation (min/avg/max) = 9.810 | 9.816 | 9.821 Mbytes
Step Temp PotEng c_msd[4] v_twopoint v_fit v_max_n 
   12000    1.2518398   -2.4462206 8.2574015e-31 5.7343064e-33 8.3333333e+20            1 
   13000    1.2436189   -2.4421788    1.1905116 0.0076314841   0.10231444            3 
   14000    1.2483319   -2.4266937    2.4785028  0.014752993   0.10457457            1 
   15000     1.245738   -2.4492276     3.749195   0.02082886   0.10585838            3 
   16000    1.2507798    -2.442962    5.0820093  0.026468798   0.10709502            1 
   17000    1.2306626   -2.3996708     6.429498  0.031517146   0.10764826            1 
   18000    1.2476317   -2.4536954    7.6759884  0.035536983   0.10806803            1 
   19000    1.2391422   -2.4593571     9.014865  0.039538881   0.10839889            1 
   20000    1.2171113   -2.4594647    10.173853  0.042391054   0.10791292            1 
   21000    1.2490724    -2.454221    11.270783  0.044725327   0.10699561            1 
   22000    1.2460567   -2.4485574    12.669501  0.047990534   0.10622608            1 
   23000    1.2576822   -2.4448294    14.039793  0.050868813   0.10600917            1 
   24000    1.2475035    -2.460973    15.193577  0.052755476   0.10615835            2 
   25000    1.2186267   -2.4422903    16.596187  0.055320621   0.10621836            1 
   26000    1.2085246   -2.4716422    17.810378  0.057084544   0.10621735            1 
   27000    1.2281031   -2.4978062    18.974218    0.0585624   0.10610931            2 
   28000    1.2341135   -2.4521503    20.226164  0.060196914   0.10593811            2 
   29000    1.2360986   -2.4214215    21.663492  0.062251413   0.10597941            1 
   30000    1.2120033   -2.4830671    22.811959  0.063366551   0.10597384            2 
   31000    1.2270349   -2.4492122    24.408305  0.065613723   0.10603511            3 
   32000    1.2193129   -2.4788246    25.433962  0.066234274   0.10605065            1 
   33000    1.2212634   -2.4752238    26.802158  0.067682217   0.10612962            1 
   34000     1.176742   -2.4781721    28.034847  0.068712859   0.10622979            2 
   35000    1.2238139   -2.4950512     29.19779  0.069518546   0.10618173            1 
   36000    1.2277741   -2.4732764    30.179372  0.069859656   0.10611201            2 
   37000     1.215648   -2.4853483    31.397503  0.070715095   0.10590747            2 
   38000    1.1940284   -2.4806153    32.542927  0.071366068   0.10563226       -1e+20 
   39000    1.1959427   -2.5045959    33.593592  0.071781179   0.10528996            1 
   40000    1.2286838    -2.498955    34.970678  0.072855578   0.10501993            2 
   41000    1.2191969   -2.4647271    36.190008  0.073556926   0.10477781            1 
   42000    1.1902347   -2.5281702    37.550424  0.074504808   0.10460963            1 
   43000    1.1981554   -2.4782384    38.660308  0.074923077     0.104396            3 
   44000    1.1842199   -2.4793967    39.696012   0.07518184   0.10416793            2 
   45000    1.1934596   -2.4818941    40.678727  0.075330975   0.10389678            1 
   46000    1.1649137   -2.4731876    41.936365  0.075971676   0.10359296            2 
   47000    1.2108117   -2.4747444    43.037266  0.076307209   0.10335223            4 
   48000    1.1947566   -2.4932757    44.436466  0.077146641   0.10312715            2 
   49000    1.1890084   -2.4960541    45.844538  0.077966901    0.1029406            1 
   50000    1.2035307   -2.5187556     46.75534  0.077925566   0.10281167            2 
   51000    1.1799083    -2.483765    48.129601  0.078643138   0.10266992            2 
   52000    1.1848678   -2.4826758    49.095427  0.078678569   0.10248709            2 
   53000    1.2068236   -2.4926061     50.30478  0.079095566    0.1023042            1 
   54000    1.1999971   -2.5126891    51.330019  0.079212991   0.10216334            1 
   55000    1.1841506   -2.4986847    52.753846  0.079930069   0.10198486            1 
   56000    1.1508122   -2.4777934    53.677246  0.079876854   0.10180343            1 
   57000     1.175249    -2.504849     54.65525  0.079905335   0.10161654            1 
   58000    1.1695261   -2.5119397    55.897231  0.080312113    0.1014059            1 
   59000    1.1739378   -2.5141954    56.687389  0.080066932   0.10121043            1 
   60000    1.1815745   -2.4991639    58.087955  0.080677714    0.1010429            4 
   61000    1.1658487   -2.5300417    59.185747  0.080854845   0.10085156            1 
   62000    1.1336252      -2.5376    60.076922  0.080748551   0.10068006            2 
   63000     1.177432   -2.5422746    61.428466  0.081254584   0.10050435            1 
   64000    1.1832598   -2.5670001    62.668081  0.081599063   0.10032994            2 
   65000    1.1559716   -2.5265465    63.444033  0.081338503    0.1001711            2 
   66000    1.1626733   -2.5108443    64.960923  0.082021366  0.099998052            2 
   67000    1.1461523   -2.5378087     65.21286  0.081110522  0.099814233            1 
   68000    1.1507778   -2.5549986    66.760589  0.081814446   0.09962145            2 
   69000    1.1550287   -2.5417167    67.903124  0.082008603  0.099451271            2 
   70000    1.1517026   -2.5061758    69.144564  0.082314957  0.099311858            1 
   71000    1.1715523   -2.5414408    69.956639  0.082108731  0.099151677            2 
   72000    1.1488785   -2.5526799    71.476637  0.082727588  0.098998846            1 
   73000    1.1603045    -2.515207    72.575323  0.082848542   0.09887139            2 
   74000    1.1519518   -2.5592209      73.8118  0.083121396  0.098754977            2 
   75000    1.1553765   -2.5299665    74.610977  0.082901085  0.098620596            1 
   76000    1.1740054   -2.5474662    75.735715  0.083043547  0.098481032            1 
   77000    1.1446032   -2.5063426    76.798799  0.083115583  0.098346114            1 
   78000    1.1378738   -2.5555403    78.056518  0.083393715  0.098206772            1 
   79000    1.1577079   -2.5438622    78.649755  0.082963876  0.098032757            2 
   80000    1.1379806   -2.5632823    78.887662  0.082174647  0.097818846            1 
   81000    1.1324559   -2.5457163     80.07147  0.082378055  0.097605989            2 
   82000    1.1462162   -2.5793456     81.22277  0.082543465  0.097413996            2 
   83000    1.1286693   -2.5412687    82.193611  0.082523706  0.097226623            1 
   84000    1.1442248   -2.5738154    84.094239  0.083426824  0.097062732            1 
   85000    1.1358485   -2.5483848    85.398931  0.083724441  0.096909774            3 
   86000    1.1184526   -2.5514302    86.085476  0.083416158  0.096774597            2 
   87000    1.1319409    -2.578439    87.043773  0.083375261  0.096628253            4 
   88000    1.1206262   -2.5777724    87.629767  0.082982734  0.096470836            3 
   89000     1.115343   -2.5294501    89.075396  0.083403928  0.096313733            2 
   90000    1.0893711   -2.5621847    90.357798  0.083664627  0.096157838            1 
   91000    1.1102109    -2.554187    90.642949  0.083006363  0.095984018            1 
   92000    1.0991197   -2.5679081     91.64791  0.083014411  0.095798778            1 
   93000    1.1331389   -2.5567533    92.931135  0.083271626  0.095618667            3 
   94000    1.1371585    -2.547501    93.659021  0.083031047  0.095456516            2 
   95000    1.1166065    -2.564234    94.715913  0.083084134  0.095302347            2 
   96000    1.1326528   -2.5932385      95.5519  0.082944357  0.095124818            3 
   97000     1.095286     -2.57222    96.327866  0.082755898  0.094937551            2 
   98000    1.1169397   -2.5611373    97.129608  0.082593204  0.094741898            1 
   99000    1.1316718   -2.5846966    98.220072  0.082676828  0.094542943            1 
  100000    1.1561643   -2.5937279    99.129097  0.082607581  0.094341747            8 
  101000    1.1216787   -2.5924717    100.12939  0.082615007   0.09415646            2 
  102000     1.116616   -2.6005858    100.77635  0.082333621  0.093971497            2 
  103000    1.1329425   -2.5890835    101.55953    0.0821679  0.093765796            2 
  104000    1.0853308   -2.6153072    101.97996  0.081714713  0.093555568            1 
  105000    1.1112523   -2.6037648    103.18439  0.081892374  0.093324486            3 
  106000    1.1078615   -2.5911229    104.27913  0.081980449  0.093105324            1 
  107000    1.1012923     -2.59736    104.97208  0.081753956  0.092883552            6 
  108000    1.0727709   -2.5923261    106.03125  0.081814232  0.092669257            2 
  109000    1.1008647   -2.6095912    106.00938  0.081046927  0.092455075            3 
  110000     1.101855   -2.6062019    107.77383  0.081646838  0.092236619            2 
  111000    1.0775928   -2.6195503    108.63333  0.081556557  0.092038565            1 
  112000    1.0771278     -2.64228    109.52261  0.081490038  0.091837641            5 
  113000    1.0645903   -2.5973886    110.97082   0.08183689  0.091661736            3 
  114000    1.0678064   -2.5693118    112.19393  0.082013107  0.091481471            2 
  115000    1.0759149   -2.6147689    113.46793  0.082223136  0.091321587            2 
  116000    1.0859207   -2.6240032    114.93235  0.082566344  0.091173835            2 
  117000    1.0981889   -2.6309203    114.89862  0.081836623  0.091020769            2 
  118000    1.0786319   -2.6304973    115.93827  0.081877308  0.090865733            1 
  119000    1.0848469   -2.6444595    116.51016  0.081589751  0.090706616            1 
  120000    1.0868055   -2.6178015    118.29697   0.08215067  0.090557563            2 
  121000    1.0728779     -2.64563    119.13483  0.082048781  0.090420524            4 
  122000    1.0632207   -2.6663552     119.6483  0.081726982  0.090273171            2 
  123000    1.0758683   -2.6083022    121.20902   0.08211993   0.09013465            2 
  124000    1.0725301     -2.61305    122.07024  0.082036454  0.089995226            2 
  125000    1.0915178    -2.640529    123.00712  0.082004743  0.089861401            2 
  126000    1.0581711   -2.6130921    124.20473  0.082145986  0.089734144            3 
  127000    1.0897891    -2.616166    124.87636  0.081939872  0.089612327            2 
  128000    1.0477352   -2.6571169     125.3455  0.081605142  0.089481495            1 
  129000     1.043816   -2.6266014    126.04196  0.081422456  0.089354101            2 
  130000    1.0595877   -2.6631598    127.21262  0.081546549  0.089214231            2 
  131000    1.0466007   -2.6347412    128.44603  0.081708671  0.089087979            2 
  132000    1.0585051   -2.6510775    128.76804  0.081292952  0.088948138            2 
  133000    1.0877407   -2.6339012    129.44925  0.081108555  0.088803095            2 
  134000    1.0639399   -2.6335317    130.53308  0.081177287  0.088661378            2 
  135000    1.0395118   -2.6320818    130.73095  0.080698117  0.088518653            2 
  136000    1.0438917   -2.6407033     131.8186  0.080771201  0.088379138            1 
  137000     1.035913   -2.6528296    132.56314  0.080634516   0.08823234            3 
  138000    1.0505742   -2.6576934    133.53502  0.080637092  0.088071317            4 
  139000    1.0498811   -2.6560171    133.92194  0.080288931  0.087916089            3 
  140000     1.065048   -2.6898265    134.73474  0.080199248  0.087759112            3 
  141000    1.0427184   -2.6505971    136.29182  0.080550721   0.08760108            1 
  142000    1.0495204   -2.6644683    136.32059  0.080000344  0.087444699            3 
  143000    1.0332314   -2.6560729    138.10301  0.080479612  0.087291895            1 
  144000     1.038035   -2.6840868    138.19599  0.079974531  0.087131766            2 
  145000     1.043474   -2.6595136    138.49262  0.079593462  0.086977032            2 
  146000     1.035806   -2.6608006    139.68173  0.079727014  0.086816216            2 
  147000    1.0426711    -2.658123    140.08411  0.079412761   0.08665706            1 
  148000    1.0275394   -2.6743001    141.32192  0.079573154  0.086487445            1 
  149000    1.0589697   -2.7102664    141.56313  0.079174011  0.086320804            3 
  150000    1.0194004   -2.6572966    143.31986  0.079622143  0.086158803            2 
  151000    1.0286785   -2.6744682    143.62309   0.07926219  0.086001371            3 
  152000    1.0228495   -2.6588042    143.97733   0.07893494  0.085835031            2 
  153000    1.0318499   -2.6755887    144.87117  0.078905866   0.08566499            2 
  154000    1.0329945   -2.6652746    144.76101  0.078333881  0.085485811            1 
  155000      1.02406   -2.7113817    146.16761  0.078584736  0.085310482            4 
  156000     1.036645    -2.698748    146.55191  0.078286274  0.085140209            3 
  157000    1.0081288   -2.6992602    147.20306  0.078133257  0.084966383            2 
  158000    1.0359218   -2.6465774    148.32774  0.078231929   0.08479584            4 
  159000    1.0129988   -2.6758323    148.83727  0.078006954  0.084619682            4 
  160000    1.0246965   -2.6948716    149.56692  0.077899435  0.084450452            3 
  161000   0.98969938   -2.7026713     150.6419     0.077972  0.084282202            1 
  162000    1.0291013   -2.6985179    151.31208  0.077835433  0.084120656            3 
  163000    1.0119665   -2.6787788    152.52557  0.077978306  0.083965787            5 
  164000    1.0073147   -2.7318294    153.48757  0.077991649  0.083806466            2 
  165000    1.0227396   -2.7187252    153.38739  0.077468379  0.083641017            2 
  166000    1.0052639   -2.6955118    153.58691  0.077101864  0.083479346            1 
  167000     1.001954   -2.7180478    154.57766  0.077134559  0.083320271            2 
  168000   0.98788093   -2.6794424     155.4446  0.077105457  0.083161318            2 
  169000    0.9943268   -2.6899815    157.26945   0.07754904  0.083007858            2 
  170000   0.99543846   -2.7314571    157.66444  0.077286489  0.082852156            4 
  171000   0.99673716   -2.7115574    158.72979  0.077353698   0.08269822            2 
  172000   0.99744537   -2.7027004    159.63672  0.077343374   0.08255232            2 
  173000   0.97198845   -2.6983675    160.59495  0.077357877  0.082412529            2 
  174000    1.0066267   -2.7189853    161.81297  0.077496633  0.082272027            5 
  175000    0.9937454   -2.7023617    161.88239   0.07708685  0.082135126            2 
  176000   0.97442773   -2.7310839    162.15463   0.07677776  0.081993615            2 
  177000   0.98686628   -2.7222232    162.70061  0.076601039  0.081849112            5 
  178000   0.99746482   -2.6978263    164.47579  0.077001776  0.081707719            2 
  179000   0.98355286   -2.7365747    164.84757  0.076744679  0.081563758            2 
  180000    0.9690907    -2.750507    164.69844   0.07624928  0.081428928            2 
  181000   0.96958958   -2.7297872    165.82953  0.076348771  0.081292677            3 
  182000   0.97528169   -2.7595491    166.73191   0.07634245  0.081152883            2 
  183000    0.9667401   -2.7435285    167.53052  0.076288942  0.081016363            2 
  184000   0.97844597   -2.7471575    166.98162  0.075625732  0.080875657            2 
  185000   0.98063959   -2.7313765    168.35728  0.075836612  0.080734344            4 
  186000   0.97135594   -2.7422808    170.37579  0.076333238  0.080597447            2 
  187000   0.94408333   -2.7417067     170.2211  0.075856106  0.080461642            2 
  188000   0.95502705   -2.7559561    171.39614  0.075973466  0.080324989            3 
  189000   0.97447581   -2.7710349    172.15306  0.075905228  0.080196924            4 
  190000   0.97462577   -2.7530886    173.12367  0.075931433  0.080067918            2 
  191000   0.97698451   -2.7574308    173.54855  0.075719261  0.079941024            3 
  192000   0.96359389   -2.7460858    175.49134  0.076168116  0.079815617            4 
  193000   0.95606976   -2.7580795     175.3256  0.075701899  0.079693125            2 
  194000   0.96273022   -2.7730145    176.26863  0.075716767  0.079574213            2 
  195000   0.97316567   -2.7475345    176.78988   0.07555123  0.079456076            4 
  196000   0.95405933   -2.7646747    177.30861  0.075386314  0.079336127            1 
  197000   0.96382971   -2.7720391    177.05321  0.074895605  0.079212963            3 
  198000   0.96299461   -2.7520869    179.47592  0.075537001  0.079093169            3 
  199000   0.95904003   -2.8054513    179.93739  0.075350665  0.078974682            1 
  200000   0.95251695   -2.7754847      180.537  0.075223748  0.078858275            3 
  201000   0.93539843   -2.7779281    180.88009  0.074991747  0.078744316            3 
  202000   0.94278014   -2.7798819    181.45064  0.074855874  0.078624701            1 
  203000    0.9373145   -2.8025963    182.04432  0.074730838  0.078502838            2 
  204000   0.93525828   -2.7404499    183.23975  0.074852837  0.078383577            4 
  205000   0.91415758   -2.7951748    183.69559  0.074673002  0.078267712            2 
  206000   0.95260971   -2.7836305    185.02431  0.074848021   0.07815237            4 
  207000    0.9283504   -2.8060405     185.0077   0.07447975  0.078034091            1 
  208000   0.91568736   -2.7821838     186.2905  0.074635616   0.07792087            5 
  209000   0.92099435   -2.7825359    186.85134  0.074502128  0.077804396            3 
  210000   0.93588056   -2.7957198    186.64238  0.074064438  0.077687739            4 
  211000   0.94396607   -2.7997546     188.2269  0.074339216  0.077568885            1 
  212000   0.92772108   -2.8144283    188.21812  0.073985109  0.077451784            3 
  213000   0.93522725   -2.7581746     188.5358   0.07376205  0.077331188            5 
  214000    0.9027808   -2.7951781    189.79304  0.073906947  0.077208985           10 
  215000   0.90434083   -2.8198511    189.29152  0.073368807   0.07708553            2 
  216000   0.91708123   -2.8306563    190.02934  0.073313789  0.076958778            3 
  217000   0.92751571   -2.7932273    191.17522  0.073415984   0.07683528            2 
  218000   0.91464732   -2.7917865    191.40944  0.073168745  0.076709696            4 
  219000   0.90834097    -2.824666    192.23205   0.07314766  0.076585777            3 
  220000    0.9304023   -2.8224607    192.91253  0.073072928  0.076460583            1 
  221000   0.91999019   -2.8036043    193.53557  0.072977215  0.076332892            3 
  222000   0.90954663   -2.7858765    194.83129  0.073134869  0.076207638            4 
  223000   0.92377666    -2.853126    194.18794  0.072566494  0.076079138            4 
  224000   0.92221212   -2.8141727    195.05967   0.07256684  0.075951209            2 
  225000   0.89472033   -2.8064834     194.9241  0.072194111  0.075821911            4 
  226000   0.90717467    -2.823504    196.24813  0.072362879  0.075693739            3 
  227000   0.91113836   -2.7948173     196.8142  0.072251908  0.075566043            2 
  228000   0.89079534   -2.8250777    197.71596  0.072264606  0.075440947            2 
  229000   0.90395641   -2.8349503    197.42768  0.071844135  0.075313522            1 
  230000   0.87159789   -2.8434831    199.25721  0.072194642  0.075189634            2 
  231000   0.90396747   -2.8183567     198.5591  0.071630266  0.075063024            3 
  232000   0.88334941   -2.8478843    198.89193  0.071441067  0.074935633            4 
  233000   0.91055812   -2.8208593    201.65408  0.072122346  0.074812566            4 
  234000   0.88027439   -2.8625837    201.36617  0.071711598  0.074689421            2 
  235000   0.89875975    -2.861661    201.60392  0.071490753  0.074570087            2 
  236000   0.89016033   -2.8646303    202.87469  0.071636542  0.074449644            3 
  237000   0.88899326   -2.8524672    203.22885  0.071458807  0.074329832            6 
  238000   0.87711391   -2.8455337    203.78926  0.071354781  0.074215836            1 
  239000   0.87771251   -2.8668925    204.27598  0.071225936  0.074097207            3 
  240000   0.86758472   -2.8775868     205.4149  0.071324618  0.073979197            2 
  241000   0.87953398   -2.8353339    206.34686   0.07135092  0.073859985            3 
  242000   0.89579806   -2.8699642    206.34874  0.071056729  0.073745166            7 
  243000   0.88455848   -2.8528674    207.32798   0.07110013  0.073630434            4 
  244000   0.88054202   -2.8651058    207.75973  0.070956193   0.07351706            2 
  245000   0.84794578   -2.8640231    207.87273  0.070705009  0.073399373            4 
  246000   0.88668339   -2.8447382     208.7031  0.070698883  0.073285344            3 
  247000   0.87592539   -2.8806091    208.82023  0.070452168  0.073169092            4 
  248000   0.89508284   -2.8514748    210.35973  0.070685393  0.073053327            2 
  249000   0.86027442   -2.8469206     209.6569  0.070166298  0.072935854            5 
  250000    0.8789107   -2.8773701    209.84391  0.069947969  0.072817242            1 
  251000    0.8728299   -2.8630732    211.80544   0.07032053  0.072697017            3 
  252000    0.8742969   -2.8868583    211.29563  0.069872894  0.072575448            2 
  253000   0.86707526   -2.8859118    211.95212  0.069812952  0.072456813            3 
  254000   0.86850231   -2.8812868    211.66182  0.069442854  0.072336014            8 
  255000   0.86642751   -2.9021701    213.28524  0.069701059  0.072216711            2 
  256000   0.87134833    -2.865419    213.69412  0.069561889  0.072094405            1 
  257000   0.84047878   -2.8971241    213.92516  0.069366134   0.07197372            2 
  258000   0.84297789   -2.8942119    214.24953  0.069202044  0.071852691            1 
  259000   0.85370204   -2.8940912    214.97606  0.069168617  0.071732214            6 
  260000   0.83693261   -2.9101397    215.82338   0.06917416  0.071612483            3 
  261000   0.83667146   -2.9118169    216.03257  0.068975918  0.071494277            6 
  262000   0.84799837   -2.8819913    216.60544  0.068894861  0.071377349            2 
  263000   0.85355131   -2.9323731    217.87591  0.069035461  0.071260845            4 
  264000   0.83383241   -2.8916446     217.4739  0.068647065   0.07114543            4 
  265000   0.83650455   -2.8954615    219.42262  0.069000824   0.07103009            5 
  266000    0.8586714    -2.919547    218.58472  0.068478923  0.070912362            5 
  267000   0.84889128   -2.9043827    219.60673  0.068541426  0.070794275            2 
  268000   0.85523539   -2.9166213    219.50218  0.068253165  0.070678334            4 
  269000   0.83301204    -2.903899    220.33045  0.068256025  0.070559958            3 
  270000   0.82748815   -2.9038757    221.54519  0.068378145  0.070441869            2 
  271000   0.82936042   -2.9090211    220.83855  0.067908533  0.070324107            4 
  272000   0.85053821   -2.9264751    222.75779  0.068246873  0.070207261            5 
  273000   0.82827488   -2.9328973    222.32953  0.067866158  0.070091873            5 
  274000   0.83115995   -2.8989149    224.02069  0.068132812  0.069978646            4 
  275000   0.82124079   -2.9033249    224.19161   0.06793685  0.069865977            3 
  276000   0.83335914   -2.9384724     224.0412  0.067645289   0.06975615            4 
  277000   0.84800971   -2.9459786    224.84469  0.067642808    0.0696437            4 
  278000   0.81311768   -2.9357432    225.96749  0.067736059   0.06953163            2 
  279000   0.83172203    -2.937196    226.59366  0.067680305  0.069423019            2 
  280000   0.80985426   -2.9515932    226.95395  0.067545819    0.0693154            4 
  281000   0.81690184   -2.9484227    227.66362    0.0675159  0.069208314            4 
  282000   0.82963538   -2.9389143    229.58831  0.067845245  0.069101949            4 
  283000    0.8222974   -2.9302206    228.70212  0.067344558  0.068996459            3 
  284000   0.81100637   -2.9288605    229.72776   0.06740838  0.068890136            2 
  285000   0.80541903   -2.9460771    228.23229  0.066734586  0.068780599            5 
  286000   0.80099481   -2.9693679    229.58068  0.066894137  0.068670467            3 
  287000   0.80894781   -2.9473536    230.26309  0.066859201  0.068561453            2 
  288000   0.79082441   -2.9403425    230.15221  0.066594968  0.068451282            7 
  289000    0.8309701   -2.9602834    230.50073  0.066465032  0.068341806            5 
  290000     0.803049   -2.9610673    231.77148     0.066601  0.068230715            6 
  291000   0.79132752   -2.9444169    231.75765   0.06636817  0.068119936            3 
  292000   0.81112026   -2.9652696    232.41924  0.066329691  0.068010181            2 
  293000   0.79881844   -2.9874044    232.35695  0.066085595  0.067898214            5 
  294000   0.82124802   -2.9923584    232.36224  0.065862314     0.067788            3 
  295000   0.79221113   -2.9782567    233.90824  0.066075773  0.067679627            4 
  296000     0.774764   -2.9881999    234.79758  0.066102921  0.067573602            3 
  297000   0.79494187   -2.9684755     235.2137  0.065997109  0.067467807            8 
  298000   0.78764915   -3.0011911    235.83292  0.065948802  0.067362839            2 
  299000   0.79628806   -2.9483888    236.15308  0.065817468  0.067257225            4 
  300000   0.80319551   -2.9998832    237.16428  0.065878966  0.067149989            6 
  301000   0.77656822   -2.9899784    236.62021  0.065509472  0.067042253            4 
  302000   0.80015815   -3.0023745    237.10659  0.065426763  0.066933749            3 
  303000   0.78827953   -3.0074827    237.21797  0.065241467  0.066825852            9 
  304000    0.7777705   -2.9829218    237.52647  0.065111424   0.06671765            5 
  305000   0.78847501   -3.0093601    237.90648  0.065001769  0.066607288            4 
  306000   0.77780276    -2.985632    238.88632  0.065056187  0.066496544            3 
  307000   0.78906634   -3.0015928    238.64121  0.064777745  0.066388412            3 
  308000   0.79994898   -2.9876456    240.79771  0.065150894  0.066280537            4 
  309000    0.7871013   -2.9860885    240.33385  0.064814955  0.066174782            4 
  310000   0.77064289   -3.0314087    239.96869  0.064507712  0.066067758            7 
  311000   0.75071059   -3.0042296    241.92009  0.064823176  0.065960227            2 
  312000   0.78691253    -3.012089    241.23878  0.064433435  0.065852872            3 
  313000   0.76633972   -3.0091802    241.24499  0.064229231  0.065742431            3 
  314000   0.74761972   -3.0220343    241.83821  0.064182115  0.065632614            3 
  315000    0.7607386   -3.0302884    242.26402   0.06409101  0.065523173            5 
  316000   0.76096057   -3.0067029    241.74382  0.063751008  0.065412597            6 
  317000    0.7574821   -3.0200383    242.97061    0.0638724   0.06530368            4 
  318000   0.75493323   -3.0131801    243.28779  0.063754663  0.065191916            5 
  319000   0.76296689   -2.9982528    243.19803  0.063531356  0.065080217            3 
  320000   0.78145885   -3.0605625    243.53169  0.063419711  0.064968327            3 
  321000   0.74837686   -3.0242394    243.89261  0.063315838   0.06485665            3 
  322000   0.75183413   -3.0432992    243.74679  0.063081466  0.064746064            4 
  323000   0.77148139   -3.0238056    244.07223  0.062970131  0.064636845            4 
  324000    0.7296398    -3.011469    245.03276  0.063022829  0.064525962            3 
  325000   0.75329469   -3.0344799    245.99578   0.06307584  0.064415985           11 
  326000   0.75464335   -3.0515168    246.20954     0.062937  0.064304967            2 
  327000   0.76500947   -3.0394438    246.35107    0.0627806  0.064194926            5 
  328000    0.7386535   -3.0150772    247.32637  0.062836985   0.06408593            4 
  329000   0.73350053   -3.0293336    246.79001  0.062510135  0.063976787            3 
  330000   0.74826621   -3.0267237    247.25193  0.062437356  0.063866809            3 
  331000   0.74368722   -3.0456508    246.95314    0.0621735  0.063755676            5 
  332000   0.74226593   -3.0576239    248.38044  0.062344487  0.063645318            4 
  333000   0.73909029   -3.0212612     248.1009  0.062087312  0.063534886            4 
  334000    0.7418404   -3.0341677    248.51682  0.062005194  0.063425651            8 
  335000   0.72653884   -3.0692314    248.63288  0.061848976  0.063315216            5 
  336000   0.73854757   -3.0870229    248.66453   0.06167275  0.063204261            5 
  337000   0.72713664   -3.0617764    249.66966  0.061738295  0.063094689            2 
  338000   0.72163459    -3.061378    250.55293  0.061773405  0.062984348            7 
  339000    0.7193276   -3.0589479    250.14094  0.061489906  0.062874169            3 
  340000   0.72870166   -3.0835138    250.17849  0.061318256  0.062762492            5 
  341000   0.71772325   -3.0764606    250.78595   0.06128689  0.062651195            3 
  342000   0.72744761    -3.070716    250.13742  0.060949663  0.062538556            6 
  343000   0.70037845   -3.0687003    250.95336  0.060970203  0.062424669            5 
  344000   0.71177631   -3.0607076    251.83718  0.061007068  0.062311255            5 
  345000   0.72194968   -3.0875603    251.68702  0.060793965  0.062197812            4 
  346000    0.7111072   -3.0978581    251.90018    0.0606696  0.062085222            9 
  347000   0.72050022   -3.0902198    251.50087  0.060398865  0.061972039            4 
  348000   0.72029193   -3.0999074    252.35518  0.060429879  0.061858004            6 
  349000   0.72605335   -3.0913931    253.17542  0.060452584  0.061744914            3 
  350000   0.71279549    -3.091957    252.50024  0.060119104  0.061632456            6 
  351000   0.71630934   -3.0849617    253.48813  0.060182367   0.06151911           11 
  352000   0.69788005   -3.1062774    252.96098  0.059886596  0.061404052            4 
  353000   0.68857048   -3.0942373     252.2365  0.059545916  0.061288209            8 
  354000   0.69662656   -3.1163489    254.29383  0.059862012  0.061174089            4 
  355000   0.70527669    -3.104034    253.83299  0.059585208  0.061059812            9 
  356000   0.70008888   -3.1255052    254.63958  0.059606644  0.060945761            4 
  357000   0.69500031   -3.1119499    254.82401  0.059482729  0.060832145            4 
  358000   0.70708852   -3.1052075    254.74557  0.059298318  0.060720021            6 
  359000   0.70210032   -3.1216769    255.14916  0.059226825  0.060606102            9 
  360000   0.69190934   -3.1070805    255.46904  0.059136351  0.060490429            4 
  361000   0.67923111   -3.1632548    254.64088  0.058781368  0.060375033            7 
  362000   0.69254592   -3.1168788    255.27451   0.05876485  0.060257753            4 
  363000   0.69819809   -3.1287571    255.17083  0.058579162  0.060140661            5 
  364000   0.70674795   -3.1374754    254.93531   0.05836431  0.060022655            7 
  365000   0.68329317   -3.1429899    256.18901  0.058490641  0.059906088            5 
  366000   0.66995356   -3.1182235    256.07915  0.058305817  0.059788864            4 
  367000   0.67459348   -3.1152352    256.55626  0.058255281  0.059671939            3 
  368000   0.68828816   -3.1437927    257.81833  0.058382775  0.059554689            9 
  369000   0.67633936   -3.1239555    256.89962  0.058017078  0.059438797            4 
  370000   0.67808382   -3.1658363    257.27215  0.057944178  0.059321786            5 
  371000   0.68428868   -3.1649418    257.74888  0.057895077  0.059205637            8 
  372000   0.67215182   -3.1333527    257.06048  0.057585232  0.059089705            5 
  373000   0.68251443   -3.1413725    257.39682  0.057505993  0.058972022            4 
  374000   0.65034654   -3.1360712    257.26182  0.057322153  0.058854222            6 
  375000   0.68864511   -3.1809462    257.21157  0.057158126  0.058736615            6 
  376000   0.68014376   -3.1470832     258.9627  0.057394216  0.058619757            3 
  377000   0.66430225   -3.1592691    257.84758  0.056995485  0.058502937            9 
  378000   0.67778095   -3.1613316    258.86167   0.05706827  0.058385727            9 
  379000   0.68050444   -3.1662645    257.68706  0.056659423  0.058268916            8 
  380000   0.64787559   -3.1746965    258.31811  0.056648709  0.058151264            6 
  381000   0.65094362   -3.1720716    259.10215  0.056671512  0.058034728            7 
  382000   0.65494324   -3.1957539    259.71767  0.056657433  0.057918232            8 
  383000   0.64050044   -3.1748804    259.49687  0.056461461  0.057800445           11 
  384000   0.66209818   -3.1891471    259.84242  0.056389415  0.057683888            4 
  385000   0.64066734   -3.1559795    259.75522  0.056224074  0.057566677            5 
  386000   0.65798285   -3.2005916    259.92995  0.056116137  0.057448913            6 
  387000   0.62340113   -3.1843627    260.51279  0.056096638  0.057331118            7 
  388000   0.64814768   -3.1707982    260.73049  0.055998816  0.057214713           17 
  389000   0.64017445   -3.1862229    259.73507  0.055641616  0.057097501            4 
  390000   0.65089561    -3.194635    259.91828  0.055538094  0.056980037            6 
  391000   0.64988595   -3.2037787    260.77593  0.055578843  0.056863207           14 
  392000   0.64261303   -3.1905756    261.15814  0.055518311  0.056746812            3 
  393000   0.63104219   -3.1857231     261.0511  0.055354346  0.056630865           22 
  394000   0.62837588   -3.2132519    261.75123  0.055361935  0.056513268            5 
  395000   0.64315636   -3.1861701    262.23515  0.055323871  0.056396826           10 
  396000   0.64718518   -3.2097354    261.98745  0.055132039  0.056281133           10 
  397000   0.63031491    -3.221209    261.84862  0.054964026  0.056165067            6 
  398000   0.64571907   -3.2231802    261.54901  0.054763193  0.056048002            6 
  399000   0.62639762   -3.2279675    262.21247  0.054764509  0.055932268            8 
  400000   0.62590653    -3.201481    263.36027  0.054866723  0.055818169            7 
  401000   0.62506548   -3.2266841     262.6477  0.054581817  0.055703259           10 
  402000   0.63367069   -3.2415296    263.30509  0.054582316  0.055586935            4 
  403000   0.62690092   -3.2393387    262.19829  0.054218009  0.055470301            5 
  404000   0.62893755   -3.2286436    262.63509  0.054173905  0.055353574            3 
  405000   0.62904583    -3.221731    262.48026  0.054008283  0.055237675            6 
  406000    0.6133668    -3.219373    263.03734  0.053989602  0.055121792            5 
  407000   0.63046755   -3.2433939    263.30964  0.053912702  0.055006703            4 
  408000   0.61791127   -3.2424718     263.7973  0.053880167  0.054891274            5 
  409000     0.612513   -3.2690512    263.23511  0.053633886  0.054775531            6 
  410000   0.60071113   -3.2476338    263.50195  0.053557306  0.054659364            5 
  411000   0.61383644   -3.2515441    263.17683  0.053361076  0.054543401            7 
  412000    0.6188188   -3.2605555    263.64181   0.05332561  0.054427814            7 
  413000   0.61212179   -3.2519374     264.3997  0.053349414  0.054312744            7 
  414000   0.61041123   -3.2476569    264.22163  0.053184707  0.054198389            6 
  415000     0.616512   -3.2640792    263.92998  0.052997988  0.054083926            6 
  416000   0.61073101   -3.2741383    264.35681  0.052956091  0.053969119           13 
  417000   0.60809461    -3.261869    264.15643  0.052789056  0.053854237           10 
  418000   0.60281101   -3.2630087    265.63578  0.052957691  0.053740102           11 
  419000   0.61220395   -3.2652285    265.34426  0.052773321   0.05362572            6 
  420000   0.59856686   -3.2899414    265.07001  0.052593257  0.053512129            4 
  421000   0.58414672   -3.2862661    264.97358  0.052449243   0.05339895            7 
  422000   0.58559461   -3.2952697    265.28956  0.052387353  0.053286405            6 
  423000   0.59437602   -3.2798467    266.52702  0.052507292    0.0531747            8 
  424000   0.58617943   -3.2913664    266.45041  0.052368397  0.053062825            6 
  425000    0.5941022   -3.2738045    266.45422  0.052245926  0.052951527            6 
  426000   0.60514962   -3.3041984    265.90836  0.052016502   0.05283997           14 
  427000   0.58181016   -3.2873305    266.76535  0.052061935  0.052727802           11 
  428000   0.58111169   -3.2817868    266.18537   0.05182737  0.052616344            7 
  429000   0.58389774   -3.2854601    266.65353  0.051797499  0.052506204            6 
  430000   0.58578242   -3.2841098    267.12149  0.051767731  0.052396061            8 
  431000   0.58748312   -3.3065711    267.61248  0.051742552  0.052286178           11 
  432000   0.58186223   -3.3155234    267.24166  0.051551245  0.052176552            9 
  433000   0.57940539   -3.3104734    266.93031  0.051372269  0.052066843           13 
  434000   0.58546077   -3.3062924    268.16664  0.051491291  0.051957016            4 
  435000   0.56303378   -3.3134552    268.23437  0.051385894  0.051847405            8 
  436000   0.57161548   -3.3241067    267.90942  0.051205929  0.051738511            7 
  437000    0.5823451   -3.3140255    267.94906  0.051096311  0.051628908            4 
  438000   0.56304919   -3.3134994    267.89504  0.050969375  0.051519309           14 
  439000   0.56485038   -3.3495149    267.51053  0.050780282   0.05140894           24 
  440000    0.5656516   -3.3182197    267.45069  0.050653539  0.051299047           13 
  441000   0.56570722   -3.3169337    267.84494  0.050613178  0.051189655            8 
  442000   0.56181496   -3.3331878    267.85291  0.050500171  0.051079531           10 
  443000    0.5673604   -3.3363426    268.03922  0.050421222  0.050968705            6 
  444000   0.55641762   -3.3435831    268.08745  0.050316713  0.050858008           12 
  445000   0.55989494    -3.339663    267.74852  0.050140173  0.050747515           10 
  446000   0.55812806   -3.3361318    267.96153  0.050067551  0.050635918           10 
  447000   0.55511782   -3.3609088    267.96481  0.049956154  0.050524393            3 
  448000   0.54563837   -3.3677394    267.65258  0.049786567  0.050412376            9 
  449000   0.55590807   -3.3542895    267.91827  0.049724995   0.05030093           15 
  450000   0.55339825   -3.3495296    268.00653  0.049630839  0.050190061           18 
  451000   0.55762584   -3.3549433    267.95562  0.049511385  0.050079195           10 
  452000   0.54497651   -3.3648058    267.88237  0.049388342  0.049968103           10 
  453000    0.5586328   -3.3615031    268.11256  0.049321663  0.049857514            9 
  454000   0.55227164   -3.3678599    268.75213   0.04933042  0.049747312           10 
  455000   0.54014283   -3.3708537    268.55817  0.049186478  0.049637508           10 
  456000   0.52770514   -3.3817283    268.07934  0.048991107  0.049527582           12 
  457000   0.53400202   -3.3686059    268.18085  0.048902416  0.049417364            7 
  458000   0.54152799   -3.3766938    268.42527  0.048840114  0.049307783           13 
  459000   0.54747623   -3.3922911    268.36627  0.048722997  0.049197437           16 
  460000   0.53265995   -3.3681278    268.80983  0.048697434  0.049087233            9 
  461000   0.52754533   -3.3809101    267.97238  0.048440415  0.048977001           13 
  462000   0.54282588    -3.382489    268.42772  0.048417699  0.048866807           17 
  463000   0.53539158   -3.3969953    267.96901  0.048230564  0.048756773           11 
  464000   0.52658025   -3.3871008    268.93033  0.048299268  0.048647055           16 
  465000   0.52401483   -3.3960736    268.99195  0.048206443  0.048537695           16 
  466000   0.51590317   -3.4144704    268.85164  0.048077905  0.048428887           21 
  467000   0.52374541   -3.4003881    268.95693  0.047993741  0.048319783           26 
  468000   0.51424103   -3.3816787    269.19825  0.047934161  0.048211386            7 
  469000   0.51215922   -3.3992975    268.98974  0.047794907  0.048102948           21 
  470000   0.52193507   -3.4031583    268.97871   0.04769126   0.04799476           23 
  471000   0.52238304   -3.3992839    269.15872  0.047621854  0.047886245            7 
  472000   0.50999717   -3.4130748    267.85437  0.047290672  0.047777074           11 
  473000   0.51607247   -3.3986963    268.12312   0.04723804  0.047667414            8 
  474000   0.51037045   -3.4213719    269.11508  0.047312777  0.047558453            7 
  475000   0.51442668   -3.4207521    269.34929  0.047254261  0.047450688           13 
  476000    0.5008451   -3.4049035     269.1577  0.047121446  0.047342789           14 
  477000   0.51052578   -3.4209083    269.64909  0.047108507  0.047235318            8 
  478000   0.50947028   -3.4182544    269.56425  0.046995163  0.047128325            8 
  479000   0.50360632   -3.4398969    269.25995   0.04684411  0.047021193           23 
  480000   0.50940516   -3.4343472     269.0062  0.046702465  0.046913516           15 
  481000   0.48595819   -3.4488475    269.22219   0.04664279  0.046806322            8 
  482000   0.49067671   -3.4274312    268.67337  0.046451137  0.046698832           18 
  483000   0.50166762   -3.4322073    268.95749  0.046403984  0.046592043            7 
  484000   0.50703683   -3.4607022    269.20546  0.046350802  0.046484598           17 
  485000   0.49411522    -3.440313    268.77152  0.046180673  0.046377832            7 
  486000   0.49712357   -3.4524064    269.23925  0.046165853  0.046271135           13 
  487000   0.48926287   -3.4437903    268.77056  0.045990855  0.046164672           18 
  488000   0.48621612   -3.4658725     269.1648  0.045963935  0.046058483            8 
  489000   0.48465027   -3.4622976    269.25573  0.045885434  0.045952042           14 
  490000   0.49187346   -3.4688381    268.90003  0.045731298  0.045845851           17 
  491000   0.48272881   -3.4575429    269.05579  0.045664595  0.045739395           21 
  492000   0.47813801   -3.4683713    268.53535   0.04548363   0.04563283           14 
  493000   0.47829204   -3.4688053    268.57125  0.045397439   0.04552615           24 
  494000   0.48826159   -3.4741245    268.77971  0.045340706  0.045419931           28 
  495000   0.47033533   -3.4926854    268.81665  0.045255328  0.045313525           29 
  496000    0.4814243   -3.4764136    269.08131  0.045208553  0.045207289           31 
  497000   0.46133259   -3.4784516    268.40397   0.04500402  0.045100942           45 
  498000   0.48083958   -3.4750274    268.07161  0.044858033  0.044994711           12 
  499000   0.46996135   -3.4875227    268.05042  0.044764598  0.044888622           12 
  500000   0.47141489   -3.4932877    268.04429  0.044674048  0.044782422           24 
  501000   0.46119676   -3.5011777    268.47668    0.0446568  0.044676417           33 
  502000   0.46179049    -3.498562    268.35867  0.044548252  0.044571003           10 
  503000    0.4595043   -3.5123191    269.03506  0.044571745  0.044465892            9 
  504000   0.45519938   -3.5119351    268.38109   0.04437518  0.044360161           26 
  505000    0.4644515   -3.5141061      268.083  0.044238119  0.044254796           24 
  506000   0.45319162   -3.5238755    268.50939  0.044220914  0.044149206           17 
  507000    0.4586401   -3.5110795    268.62617  0.044152889  0.044043955           59 
  508000   0.45588142   -3.5162076    268.66156  0.044071778  0.043939173           41 
  509000   0.46459515   -3.5112277    268.54518  0.043966139  0.043834134           13 
  510000   0.45620391   -3.5129593     268.0887  0.043805343  0.043729723           15 
  511000   0.45270435   -3.5183054    268.50497  0.043787503  0.043625804           21 
  512000   0.45052104    -3.518008    268.29626   0.04366801  0.043522166           29 
Loop time of 1196.13 on 48 procs for 500000 steps with 4000 atoms

Performance: 72233.107 tau/day, 418.016 timesteps/s
99.4% CPU use with 48 MPI tasks x no OpenMP threads

MPI task timing breakdown:
Section |  min time  |  avg time  |  max time  |%varavg| %total
---------------------------------------------------------------
Pair    | 75.087     | 83.149     | 91.698     |  37.6 |  6.95
Neigh   | 8.1079     | 8.4237     | 8.7015     |   5.7 |  0.70
Comm    | 74.714     | 83.442     | 91.323     |  38.7 |  6.98
Output  | 0.84043    | 0.8409     | 0.85019    |   0.1 |  0.07
Modify  | 1007.6     | 1009.6     | 1012.3     |   3.5 | 84.41
Other   |            | 10.65      |            |       |  0.89

Nlocal:        83.3333 ave          89 max          76 min
Histogram: 2 2 3 10 5 2 9 2 8 5
Nghost:        2177.52 ave        2198 max        2160 min
Histogram: 4 4 3 7 9 7 8 3 1 2
Neighs:        14398.0 ave       16088 max       13003 min
Histogram: 2 4 5 12 10 3 4 4 1 3
FullNghs:      28796.3 ave       30879 max       26240 min
Histogram: 2 3 6 6 6 2 6 5 7 5

Total # of neighbors = 1382223
Ave neighs/atom = 345.55575
Neighbor list builds = 27178
Dangerous builds = 0

#clear
#
#next RN
#
#jump SELF
Total wall time: 0:19:59
