
units lj                  # Use reduced LJ style units
atom_style atomic         # Uncharged point particles
atom_modify map hash      # Needed for indexing of clusters etc
                          # Used to be able to find where atoms are in relation to each other.

lattice fcc 1.0 spacing 1 1 1
Lattice spacing in x,y,z = 1.5874011 1.5874011 1.5874011
region box block 0 10 0 10 0 10 units lattice
create_box 2 box
Created orthogonal box = (0.0000000 0.0000000 0.0000000) to (15.874011 15.874011 15.874011)
  3 by 4 by 4 MPI processor grid
create_atoms 1 box
Created 4000 atoms
  using lattice units in orthogonal box = (0.0000000 0.0000000 0.0000000) to (15.874011 15.874011 15.874011)
  create_atoms CPU = 0.016 seconds
set type 1 type/fraction 2 0.03 78393
Setting atom values ...
  125 settings made for type/fraction
mass 1 1.0
mass 2 1.0
pair_style lj/cut  3.5
pair_modify tail  yes
pair_coeff 1  1  1.0  1.0   # Intearaction between 1 and 1 set with epsilon = 1 and sigma = 1
pair_coeff 1  2  1.5  0.8
pair_coeff 2  2  0.5  0.88

write_data data.0
System init for write_data ...
Neighbor list info ...
  update every 1 steps, delay 10 steps, check yes
  max neighbors/atom: 2000, page size: 100000
  master list distance cutoff = 3.8
  ghost atom cutoff = 3.8
  binsize = 1.9, bins = 9 9 9
  1 neighbor lists, perpetual/occasional/extra = 1 0 0
  (1) pair lj/cut, perpetual
      attributes: half, newton on
      pair build: half/bin/atomonly/newton
      stencil: half/bin/3d
      bin: standard
WARNING: Not all mixed pair coeffs generated from mixing. Use write_data with 'pair ij' option to store all pair coeffs. (../write_data.cpp:312)


#############################
#   M E L T   S Y S T E M   #
#############################

velocity all create 2.4 9622624 mom yes dist gaussian # Assign velocities
                                                    # Temperature 2.4, random number seed, zero linear momentum
                                                                                # Gaussian distribution

timestep 0.002   # simulation timestep
thermo 1000       # output thermodynamic data every 1000 steps bf 100

# Define a fix  in this case with index 1 applied to all
# particles in the simulation. This fix is for simulations
# in the anisotropic NPT ensemble. Note that we use the MTK
# correction.
fix 1 all npt temp 2.4 2.4 0.1 iso 5.68 5.68 0.5 mtk yes tchain 5 pchain 5 # Use NPT ensemble
                                                                         # Set temperature and pressure and damping
                                                                         # Numbers of thermostats in chain and in barostat
run 10000          # run for 10000 steps
Per MPI rank memory allocation (min/avg/max) = 3.642 | 3.644 | 3.648 Mbytes
Step Temp E_pair E_mol TotEng Press Volume 
       0          2.4    -8.178823            0    -4.579723   -2.4950487         4000 
    1000    2.3949901   -4.4890585            0  -0.89747143    5.6077764    5088.2978 
    2000    2.3953936   -4.4596588            0   -0.8674666    5.5680122    5118.2075 
    3000    2.4257576   -4.4349863            0  -0.79725956    5.7396258    5107.1552 
    4000    2.4644577   -4.3996522            0  -0.70388979    5.6345656    5136.7926 
    5000    2.4260669   -4.4618563            0  -0.82366577     5.870833    5069.9669 
    6000    2.4172848   -4.4402455            0  -0.81522482    5.5416018    5133.4598 
    7000    2.4401635   -4.4180669            0  -0.75873676    5.8291289    5100.7065 
    8000     2.399778   -4.4632194            0  -0.86445234    5.2724371    5157.0473 
    9000    2.3540873   -4.4269216            0  -0.89667336      5.82904    5101.5491 
   10000    2.4203761   -4.4535383            0   -0.8238817    5.5948125    5120.8649 
Loop time of 2.09213 on 48 procs for 10000 steps with 4000 atoms

Performance: 825950.616 tau/day, 4779.807 timesteps/s
99.6% CPU use with 48 MPI tasks x no OpenMP threads

MPI task timing breakdown:
Section |  min time  |  avg time  |  max time  |%varavg| %total
---------------------------------------------------------------
Pair    | 0.84752    | 0.92392    | 1.0586     |   4.0 | 44.16
Neigh   | 0.16734    | 0.17404    | 0.19508    |   1.1 |  8.32
Comm    | 0.61646    | 0.73707    | 0.83532    |   5.7 | 35.23
Output  | 0.00024126 | 0.00024516 | 0.00031187 |   0.0 |  0.01
Modify  | 0.19417    | 0.24264    | 0.29791    |   6.5 | 11.60
Other   |            | 0.01422    |            |       |  0.68

Nlocal:        83.3333 ave          94 max          71 min
Histogram: 1 2 3 7 7 8 11 4 3 2
Nghost:        1397.92 ave        1434 max        1378 min
Histogram: 3 7 11 9 7 6 4 0 0 1
Neighs:        7439.04 ave        8511 max        6350 min
Histogram: 2 6 2 6 10 6 5 5 2 4

Total # of neighbors = 357074
Ave neighs/atom = 89.268500
Neighbor list builds = 906
Dangerous builds = 209

# Equilibrate just above the melting temperature to avoid step fn in T

fix 1 all npt temp 1.25 1.25 0.1 iso 5.68 5.68 0.5 mtk yes tchain 5 pchain 5
run 2000
Per MPI rank memory allocation (min/avg/max) = 3.643 | 3.645 | 3.648 Mbytes
Step Temp E_pair E_mol TotEng Press Volume 
   10000    2.4203761   -4.4535383            0   -0.8238817    5.5948125    5120.8649 
   11000    1.2487218   -5.9183559            0   -4.0457415    5.6151477    4252.4212 
   12000     1.261754   -5.9676628            0   -4.0755049    5.7433942    4224.0688 
Loop time of 0.457867 on 48 procs for 2000 steps with 4000 atoms

Performance: 754804.978 tau/day, 4368.084 timesteps/s
99.6% CPU use with 48 MPI tasks x no OpenMP threads

MPI task timing breakdown:
Section |  min time  |  avg time  |  max time  |%varavg| %total
---------------------------------------------------------------
Pair    | 0.19563    | 0.21299    | 0.2306     |   1.8 | 46.52
Neigh   | 0.030862   | 0.032202   | 0.034355   |   0.5 |  7.03
Comm    | 0.13415    | 0.15879    | 0.1801     |   2.4 | 34.68
Output  | 5.1622e-05 | 5.2758e-05 | 6.6252e-05 |   0.0 |  0.01
Modify  | 0.041599   | 0.049023   | 0.061905   |   2.1 | 10.71
Other   |            | 0.004809   |            |       |  1.05

Nlocal:        83.3333 ave          92 max          78 min
Histogram: 7 5 9 7 3 6 5 5 0 1
Nghost:        1581.15 ave        1611 max        1557 min
Histogram: 1 6 7 9 5 6 8 4 0 2
Neighs:        9016.50 ave       10292 max        8375 min
Histogram: 7 10 7 6 6 5 5 1 0 1

Total # of neighbors = 432792
Ave neighs/atom = 108.19800
Neighbor list builds = 143
Dangerous builds = 7

#############################
# L I N E A R  Q U E N C H  #
#############################

# Define solid atoms. This closely follows ten Wolde  Ruiz-Montero and Frenkel  Faraday Discuss  1996  104  93-110
# Compute components of the per-atom q6 vector
compute q6 all orientorder/atom degrees 1 6 components 6 nnn NULL cutoff 1.3 # compute the Q6 parameter.
                                                                             # Use all neighbours within 1.3 unit cell.

# get number of connections
compute coord_number all coord/atom orientorder q6 0.5

# An atom is solid if it has 8 or more connections (of a possible 14)
variable is_solid atom c_coord_number>=8
group solid dynamic all var is_solid    # Must be dynamic to update
dynamic group solid defined

# do clustering
compute cluster solid cluster/atom 1.3 # Create a cluster where all atoms within are solid and max 1.3 units from another member

# define chunks one chunk per cluster
compute clus_chunks solid chunk/atom c_cluster nchunk every compress yes  # Says which atoms are in which chunk

# count the size of each chunk
compute size_chunks solid property/chunk clus_chunks count


# Find the maximum entry in the vector of chunk sizes
variable max_n equal max(c_size_chunks)


# Thermo style which includes this variable
# thermo_style custom step temp pe vol v_max_n

thermo ${N}  # Print the thermo information every 100 steps
thermo 1000  

# Reset the npt fix at a lower temperature (below freezing)
fix 1  all npt temp  ${temp} ${temp}  0.1  iso  5.68  5.68  0.5  mtk yes tchain  5  pchain  5
fix 1  all npt temp  0.45 ${temp}  0.1  iso  5.68  5.68  0.5  mtk yes tchain  5  pchain  5
fix 1  all npt temp  0.45 0.45  0.1  iso  5.68  5.68  0.5  mtk yes tchain  5  pchain  5

dump dmp2 all dcd ${N} traj.dcd
dump dmp2 all dcd 1000 traj.dcd


compute msd all msd com yes
variable twopoint equal c_msd[4]/6/(step*dt+1.0e-6)
fix 9 all vector 10 c_msd[4]
variable fit equal slope(f_9)/6/(10*dt)
thermo_style custom step temp pe c_msd[4] v_twopoint v_fit v_max_n

fix 1 all npt temp 1.25 ${temp} 0.1 iso 5.68 5.68 0.5 mtk yes tchain 5 pchain 5
fix 1 all npt temp 1.25 0.45 0.1 iso 5.68 5.68 0.5 mtk yes tchain 5 pchain 5
run 500000 # 5000000  # Run for this many steps
Neighbor list info ...
  update every 1 steps, delay 10 steps, check yes
  max neighbors/atom: 2000, page size: 100000
  master list distance cutoff = 3.8
  ghost atom cutoff = 3.8
  binsize = 1.9, bins = 9 9 9
  4 neighbor lists, perpetual/occasional/extra = 1 3 0
  (1) pair lj/cut, perpetual
      attributes: half, newton on
      pair build: half/bin/atomonly/newton
      stencil: half/bin/3d
      bin: standard
  (2) compute orientorder/atom, occasional
      attributes: full, newton on
      pair build: full/bin/atomonly
      stencil: full/bin/3d
      bin: standard
  (3) compute coord/atom, occasional
      attributes: full, newton on
      pair build: full/bin/atomonly
      stencil: full/bin/3d
      bin: standard
  (4) compute cluster/atom, occasional
      attributes: full, newton on
      pair build: full/bin/atomonly
      stencil: full/bin/3d
      bin: standard
Per MPI rank memory allocation (min/avg/max) = 9.731 | 9.739 | 9.744 Mbytes
Step Temp PotEng c_msd[4] v_twopoint v_fit v_max_n 
   12000     1.261754   -5.9676628            0            0 8.3333333e+20            3 
   13000    1.2716574   -5.9279262   0.54068196 0.0034659099  0.044433853            4 
   14000    1.2527941   -5.9545214    1.0879514 0.0064759008  0.044351725            2 
   15000    1.2493563   -5.9908622    1.6056167 0.0089200925  0.044475004            6 
   16000    1.2434648   -5.9917981    2.1343968   0.01111665   0.04415185            3 
   17000    1.2408585   -5.9708948    2.6741313  0.013108486  0.044318924            5 
   18000    1.2321534   -5.9633118     3.227896  0.014943963  0.044331905            2 
   19000    1.2375051    -5.955089    3.7491246  0.016443529  0.044475945            2 
   20000    1.2277064   -5.9292116    4.2196334  0.017581805  0.044128956            2 
   21000     1.233738   -5.9688631    4.7162458  0.018715261  0.043725814            2 
   22000    1.2316548   -5.9714713    5.2396459  0.019847143  0.043528165            3 
   23000    1.2438117   -5.9654475    5.8355482   0.02114329  0.043610566            3 
   24000    1.2371073   -5.9987553     6.389609  0.022186142  0.043748927            4 
   25000    1.2700687   -5.9943496    6.9056973   0.02301899  0.043931969            4 
   26000    1.2116628   -5.9495552     7.346628  0.023546884  0.043868124            2 
   27000    1.2145485   -5.9756197    7.8121601  0.024111605  0.043686572            2 
   28000    1.2328116   -6.0174689      8.29407  0.024684732  0.043515573            4 
   29000    1.2333439   -6.0019994     8.706914  0.025019868  0.043274089            3 
   30000    1.2364015   -5.9751298    9.1981438  0.025550399  0.042965901            4 
   31000    1.1982294   -6.0199727    9.7187787  0.026125749   0.04271947            3 
   32000    1.1877891   -6.0296174    10.270118  0.026745098  0.042573719            2 
   33000    1.2013769   -6.0272414     10.81648  0.027314342  0.042513184            3 
   34000     1.196716   -6.0235732    11.360236  0.027843715  0.042523038            2 
   35000    1.2037457   -6.0193499     11.85659  0.028229975  0.042527779            4 
   36000    1.1997506   -6.0352268    12.305886  0.028485846  0.042513804            2 
   37000    1.2304337   -6.0046029    12.848576  0.028938235  0.042487139            3 
   38000    1.2128841   -6.0093714    13.232055  0.029017664  0.042418663            2 
   39000      1.23354   -6.0393689    13.810036  0.029508625  0.042361786            6 
   40000    1.2044182   -6.0607356    14.227353  0.029640318  0.042333712            2 
   41000    1.1865264   -6.0057888    14.637471  0.029750957   0.04223042            4 
   42000    1.2041039   -6.0185335    15.142836   0.03004531  0.042123691            3 
   43000    1.1904608   -6.0565386     15.64033  0.030310717  0.042025907            3 
   44000    1.1963484   -6.0702875    16.117531  0.030525626  0.041919978            4 
   45000     1.226819   -6.0814211    16.490509  0.030537979   0.04181912            5 
   46000    1.1943893   -6.0579296    17.026006  0.030844214  0.041727829            2 
   47000    1.1893108   -6.0392519    17.435606  0.030914195  0.041626795            5 
   48000    1.2229256   -6.0085138    17.951404  0.031165631  0.041513035            3 
   49000    1.2026561    -6.013686    18.487144  0.031440721  0.041437946            2 
   50000    1.1678173   -6.0424688     18.92273  0.031537884  0.041373094            2 
   51000    1.2151567   -6.0443113    19.422776  0.031736562  0.041304817            2 
   52000    1.1969687   -6.0872877    19.888058  0.031871887  0.041266729            4 
   53000    1.1601111   -6.0695195    20.427958  0.032119431  0.041223797            4 
   54000    1.1905986   -6.0704027    20.755057  0.032029408  0.041161902            3 
   55000    1.1751695   -6.0768512    21.245939  0.032190817  0.041091608            3 
   56000    1.1688909    -6.043809    21.668049   0.03224412  0.041021384            2 
   57000    1.1655474   -6.0873435    22.265194  0.032551453  0.040963794            4 
   58000    1.1624023   -6.0873838    22.751312  0.032688667  0.040916819            4 
   59000    1.1880779   -6.0952415    23.300497  0.032910306  0.040886223            4 
   60000    1.1851104   -6.0642255    23.805149  0.033062707  0.040860106            6 
   61000    1.1837872   -6.1035638    24.416576  0.033355977  0.040855059            3 
   62000    1.1644676   -6.1021511    24.943694  0.033526471  0.040862407            2 
   63000    1.1848455   -6.0476397    25.500367  0.033730644  0.040885258            2 
   64000    1.1563392   -6.0839877    25.821402  0.033621616  0.040898942            4 
   65000     1.161376   -6.1213966    26.139339  0.033511973  0.040881545            4 
   66000    1.1605468   -6.1231024    26.592999  0.033577019  0.040855402            3 
   67000    1.1580022   -6.1267501    27.012672   0.03359785  0.040821119            4 
   68000    1.1484821   -6.0849917    27.629439  0.033859606  0.040782818            3 
   69000    1.1532761   -6.0913111    28.066167  0.033896337  0.040762735            2 
   70000    1.1702578    -6.111984    28.486307   0.03391227  0.040732227            7 
   71000    1.1562314   -6.1053339     29.10047   0.03415548  0.040709614           13 
   72000    1.1376991   -6.1550999    29.388678  0.034014674  0.040682035            5 
   73000    1.1655837   -6.1105243    29.934672     0.034172  0.040659697            4 
   74000    1.1663494   -6.0673681    30.455029  0.034296203  0.040632038            3 
   75000    1.1333021    -6.118372    30.706932  0.034118813  0.040590619            5 
   76000    1.1736586   -6.0876797    31.032209  0.034026545  0.040533199            4 
   77000    1.1451472    -6.127576    31.545252  0.034139883  0.040470983            3 
   78000    1.1556317   -6.1110499    32.026764  0.034216628  0.040410961            5 
   79000    1.1281931   -6.1366896    32.316586  0.034089225  0.040352496            3 
   80000    1.1388977   -6.1405038    32.808262  0.034175272  0.040300397            5 
   81000    1.1299661   -6.1355428     33.22782     0.034185  0.040241084            3 
   82000    1.1342751   -6.1346182    33.847251  0.034397612  0.040186372            5 
   83000    1.1189806   -6.1586909    34.188995    0.0343263  0.040138203            6 
   84000    1.1466324   -6.1592199    34.573999  0.034299602  0.040080969            4 
   85000      1.13306    -6.124103    34.853518  0.034170115   0.04001598            4 
   86000    1.1323869   -6.1574665    35.323711  0.034228402  0.039949074            4 
   87000    1.1496429    -6.176977    35.679892  0.034176141  0.039881915            6 
   88000    1.1387411   -6.1680537    36.017898  0.034107857  0.039807711            9 
   89000    1.1224211   -6.1926577    36.361412  0.034046266  0.039729418            9 
   90000    1.1128862   -6.1548487     36.81264  0.034085778  0.039649826            2 
   91000    1.1487924   -6.1831734    37.295225  0.034153136  0.039569985            3 
   92000     1.125432   -6.1298077    37.671614  0.034122839  0.039490914            4 
   93000    1.1118126   -6.1630237    37.962383  0.034016472  0.039417674            3 
   94000    1.1126842   -6.1658838    38.319952  0.033971589  0.039340173            4 
   95000    1.1271263   -6.1784609    38.755056  0.033995663  0.039256324            4 
   96000    1.0980136   -6.2185415    39.058838  0.033905241  0.039173088            4 
   97000     1.087505   -6.1819965      39.5369  0.033966409  0.039088273            4 
   98000    1.0937598   -6.1801143     39.72968  0.033783741   0.03899615            3 
   99000    1.1118851   -6.1470013    40.277124  0.033903303  0.038900996            3 
  100000    1.1073272   -6.1894498    40.440795  0.033700662  0.038808018            4 
  101000    1.1186866   -6.2042794    40.945302  0.033783252  0.038718451            7 
  102000    1.0893391   -6.1883612    41.124125  0.033598142  0.038627663            5 
  103000    1.0973912   -6.2227934    41.638726  0.033688289  0.038537243            4 
  104000     1.102404   -6.2023988    41.989696  0.033645589  0.038448588            3 
  105000    1.1012789   -6.1982821     42.54711  0.033767547  0.038369329            5 
  106000    1.1204477   -6.2054552    42.975355  0.033785656   0.03829143            4 
  107000    1.0849332   -6.2133365    43.369014   0.03377649  0.038209873            4 
  108000    1.1035492   -6.1608692    43.642347   0.03367465  0.038126903            7 
  109000    1.1052284   -6.2108288    44.069248  0.033692085  0.038045367            6 
  110000    1.0910886   -6.2024919    44.364142  0.033609198  0.037965538            7 
  111000    1.0855392   -6.2271287    44.701606  0.033559764  0.037886623            4 
  112000    1.0873521   -6.2366225    44.988666   0.03347371  0.037806337            3 
  113000    1.0978767   -6.2336025    45.416477  0.033492977  0.037724473            4 
  114000     1.082821   -6.2215228    45.519896  0.033274778  0.037638998            5 
  115000    1.0909723   -6.2170919    46.081957  0.033392722   0.03755187            3 
  116000     1.113598   -6.2456054    46.340655    0.0332907  0.037462438            4 
  117000    1.0945374   -6.2388572    46.770466  0.033312297  0.037375661           10 
  118000    1.0552928   -6.2411685    47.161764   0.03330633  0.037289814            3 
  119000    1.0954929   -6.2640893    47.459264  0.033234778  0.037207537            4 
  120000    1.0791043   -6.2473904    47.893096  0.033259095   0.03712795            2 
  121000    1.0681227   -6.2304185    48.339455  0.033291635  0.037050456            7 
  122000    1.0685801    -6.260814    48.717092  0.033276702  0.036976242            5 
  123000    1.0945946     -6.21725    49.072274  0.033246798  0.036899789            4 
  124000    1.0582724   -6.2645302    49.386403  0.033189787   0.03682629            7 
  125000    1.0808852   -6.3038959    49.514446  0.033009631  0.036750695            4 
  126000     1.065291   -6.2734018     49.84255  0.032964649  0.036671637            4 
  127000    1.0868146   -6.2777777    50.125196  0.032890548  0.036587913            2 
  128000    1.0766104   -6.2541381    50.634701    0.0329653  0.036507245            5 
  129000    1.0424439   -6.2800116    51.044099  0.032974224  0.036430381            5 
  130000    1.0376077   -6.2995699    51.366104   0.03292699  0.036354797            6 
  131000    1.0572298   -6.2955203    51.782395  0.032940455  0.036283017            5 
  132000    1.0619869   -6.2975665    52.039184   0.03285302  0.036208095            6 
  133000    1.0582325   -6.2704271    52.084711   0.03263453  0.036132615            2 
  134000    1.0538216   -6.3029163    52.447416  0.032616552  0.036049556            6 
  135000    1.0646657   -6.2995495    52.789473  0.032586094  0.035968913            5 
  136000    1.0352599   -6.3255383    53.158636  0.032572694  0.035888763            9 
  137000    1.0426188   -6.3035231    53.350392  0.032451577  0.035806777            4 
  138000    1.0400398   -6.2880319     53.70496  0.032430531  0.035725393            4 
  139000    1.0340268    -6.288782    53.985008  0.032365113  0.035644686            5 
  140000    1.0420706   -6.2906483    54.326803  0.032337383  0.035562453            7 
  141000    1.0555245   -6.3143181    54.605402  0.032272696  0.035480735            3 
  142000     1.022276   -6.3197577     54.75054  0.032130599   0.03539952            7 
  143000    1.0481816   -6.2550171    55.289099  0.032219754  0.035318151           10 
  144000     1.041139   -6.3346789     55.50871  0.032123096  0.035239987            4 
  145000    1.0297374   -6.3314906    55.802738  0.032070539  0.035162814            7 
  146000    1.0195939    -6.346305    56.327743  0.032150538  0.035086243            7 
  147000    1.0295346   -6.3319955    56.585082  0.032077711  0.035010323            7 
  148000    1.0352257   -6.2939303    57.065738  0.032131609  0.034935828            4 
  149000    1.0271271   -6.3311701    57.411817  0.032109517  0.034862676            4 
  150000    1.0213532   -6.3505753    57.620616  0.032011453  0.034788357           11 
  151000    1.0323885   -6.2947787    57.772095  0.031883055  0.034715602            3 
  152000    1.0544816   -6.3241431    58.123298  0.031865843  0.034643329            8 
  153000     1.030201     -6.34882    58.405563  0.031811309  0.034568606            7 
  154000    1.0159205   -6.3454796    58.667765  0.031746626  0.034494917            5 
  155000    1.0166358   -6.3430814    59.026286  0.031734562  0.034420571            6 
  156000    1.0243407   -6.3133535    59.236604  0.031643485  0.034345952            5 
  157000    1.0152446   -6.3970457     59.20052  0.031422781  0.034268229            5 
  158000    1.0091657   -6.3305121    59.854738  0.031568955  0.034190065            7 
  159000    1.0097134   -6.3504257    59.971619  0.031431666  0.034110933            4 
  160000    1.0139817   -6.3570291    60.242876  0.031376498   0.03403412            4 
  161000   0.99721229    -6.387194    60.615452  0.031374457   0.03395551            6 
  162000    1.0323468   -6.3782474    60.617721  0.031181955  0.033878523            7 
  163000    1.0006966   -6.3689917    61.090113  0.031232164  0.033799913            3 
  164000   0.97680762    -6.378645    61.024379  0.031008322  0.033717604            6 
  165000   0.98573517   -6.3940267    61.359497  0.030989645  0.033635318            8 
  166000    1.0015444   -6.4004901    61.884898  0.031066716  0.033556329            5 
  167000    1.0050176   -6.3860441    62.023577  0.030949889  0.033477889            4 
  168000     1.003888   -6.3747937    62.249688  0.030877821  0.033397553            7 
  169000   0.99772144   -6.3849158    62.524132   0.03083044  0.033317438            4 
  170000    1.0016555   -6.3906969    62.731844  0.030750904  0.033238096            5 
  171000    1.0017889   -6.4079704    62.956919   0.03068076  0.033159982            7 
  172000   0.98252822   -6.4322781    63.344126  0.030689983  0.033081664            5 
  173000   0.98681654   -6.4341166     63.46235  0.030569532  0.033002955            5 
  174000   0.99020741   -6.3847414    63.751709  0.030532428  0.032922857            3 
  175000   0.98023423   -6.4039948    64.072145  0.030510545  0.032844736            3 
  176000   0.98724831   -6.4088202    64.193671  0.030394731   0.03276678            5 
  177000   0.98655368   -6.3775494    64.734315  0.030477549  0.032691088            5 
  178000   0.97899042   -6.4233277    64.816785  0.030344937  0.032616023            3 
  179000   0.98692306    -6.427069    65.133076  0.030322661  0.032540615            5 
  180000    0.9746914   -6.4553325    65.354399  0.030256666  0.032463761            7 
  181000   0.97971374   -6.4309079    65.670569  0.030235069  0.032388023            3 
  182000   0.98435111   -6.4712395    65.740883  0.030101137  0.032309803            8 
  183000     0.957329   -6.4226683    65.679448  0.029908674  0.032230589            5 
  184000   0.98513323   -6.4631477    66.105476  0.029939074  0.032150759            4 
  185000   0.98254396   -6.4436493    66.288217  0.029859557  0.032071509            4 
  186000   0.96008404   -6.4432142    66.460916  0.029776396  0.031992527           10 
  187000   0.97092887   -6.4097166    66.594175  0.029676549  0.031913157            4 
  188000   0.97461893   -6.4326477    67.086377  0.029736869  0.031832814            8 
  189000   0.96693102   -6.4165037    67.318401  0.029681835  0.031754652            7 
  190000   0.95569347   -6.4322433    67.390366  0.029557178  0.031675965            4 
  191000    0.9640748   -6.4636359     67.65878  0.029519538  0.031598662            4 
  192000   0.95746354   -6.4442496    67.895303  0.029468447  0.031520292            8 
  193000   0.96583823   -6.4843231    68.136497  0.029419904  0.031442772            8 
  194000   0.96737887   -6.4818779    68.294849  0.029336275  0.031364031            7 
  195000   0.97764261   -6.4644354    68.224248  0.029155662  0.031285682            4 
  196000   0.98093058   -6.4630727    68.589399   0.02916216  0.031205956            6 
  197000   0.94086842   -6.4767503    68.776841  0.029093418  0.031127487            5 
  198000   0.96128682   -6.4752665    69.192891  0.029121587  0.031050212            5 
  199000   0.96069419   -6.4991996    69.370469   0.02904961  0.030972654            4 
  200000   0.95131439    -6.452276    69.482244  0.028950935  0.030894106            7 
  201000   0.94092448   -6.4658673    69.684461  0.028890738  0.030815758            7 
  202000   0.93969448   -6.4697948    69.879421  0.028828144  0.030739563            4 
  203000   0.93818314   -6.5119567    70.072831   0.02876553  0.030662953           12 
  204000   0.94369519   -6.5007005    70.286202  0.028711684  0.030586283            6 
  205000   0.92781504    -6.493105    70.443697  0.028635649  0.030509376            5 
  206000   0.94262843   -6.4883831    70.517504  0.028526498   0.03043106            8 
  207000   0.94523291   -6.4868675    70.718246  0.028469503  0.030352093            6 
  208000   0.93322392   -6.4645866    70.848215  0.028384702  0.030272939            4 
  209000   0.94467125   -6.5111484    71.190803  0.028385488  0.030193107            5 
  210000   0.90327728   -6.4974276    71.320991   0.02830198  0.030113766            8 
  211000   0.92778474   -6.5507593    71.413709  0.028204466  0.030035841            6 
  212000   0.93854586   -6.5238812    71.971432  0.028290657  0.029957859            8 
  213000    0.9303962   -6.5297005    72.002138   0.02816985  0.029882068           18 
  214000   0.91961105    -6.538358    72.171026  0.028103982  0.029806303            7 
  215000   0.92542894   -6.5092688    72.425947  0.028072073  0.029731014           13 
  216000   0.93684074   -6.5299886    72.814235  0.028091912  0.029656598            8 
  217000   0.92745062   -6.5197964    72.912769  0.028000295  0.029584262           10 
  218000   0.92384496   -6.5269608    73.210003  0.027985475  0.029511126            9 
  219000   0.90811404   -6.5367689    73.114057  0.027821179  0.029436267            8 
  220000   0.92179569   -6.5002809    73.516497  0.027847158  0.029361149           10 
  221000   0.91800073   -6.5600668    73.473178  0.027704818  0.029287172            9 
  222000   0.90629305   -6.5328259     73.92137  0.027748262  0.029213395            4 
  223000    0.9144111   -6.5407592    74.109799  0.027694245  0.029140509           18 
  224000   0.91618427   -6.5437649    74.377428  0.027670174  0.029068085            6 
  225000    0.9020236   -6.5537694      74.5126  0.027597259  0.028996209            7 
  226000   0.90159937   -6.5497415    74.557295  0.027491628  0.028923727           10 
  227000   0.93223213   -6.5328019    74.717943  0.027429495  0.028851315            5 
  228000   0.90230245    -6.599887     74.69587  0.027301122  0.028778283           20 
  229000   0.89757525   -6.5853727    74.721951  0.027191394   0.02870396           11 
  230000   0.88448943   -6.5797911    75.096132  0.027208743  0.028630295            5 
  231000    0.8995452   -6.5711071    74.910931  0.027024145  0.028556594            6 
  232000   0.88978691   -6.5879877    75.357404  0.027068033  0.028483882           14 
  233000   0.89971481    -6.573287    75.769586   0.02709928  0.028411768            5 
  234000   0.88300688   -6.5693065    75.995237  0.027063831  0.028341277            5 
  235000   0.89936932   -6.5861524    76.083387  0.026979925  0.028270944           17 
  236000   0.87416898    -6.578221    76.292357  0.026939392  0.028201064            8 
  237000   0.87125519   -6.5781494    76.669475  0.026958324  0.028130777           15 
  238000   0.89272654   -6.5643976      76.5996  0.026820588  0.028060284            6 
  239000   0.89011922   -6.5994329    76.606065  0.026710622   0.02798965            9 
  240000   0.88830564   -6.6111307    77.045696  0.026751978  0.027920246            6 
  241000   0.88708887   -6.6047801    77.257319  0.026714149  0.027850922            4 
  242000   0.87619477   -6.6327762    77.223841  0.026592232  0.027781006            5 
  243000   0.88871001   -6.6187097    77.386751  0.026538666  0.027710333           10 
  244000   0.88983467   -6.6219381    77.519305  0.026475172  0.027639782            9 
  245000     0.893369    -6.616264    77.624148  0.026402771  0.027569511            7 
  246000   0.88084822   -6.6406338    77.648045  0.026303538  0.027499618            8 
  247000   0.88800531   -6.6294666    77.625561   0.02618946   0.02742845            7 
  248000   0.87220286   -6.6413813      78.0377  0.026222345  0.027358109            9 
  249000   0.86093904   -6.6046504    78.339923   0.02621818  0.027288932            8 
  250000   0.87655373   -6.6155116    78.256097  0.026085366  0.027219473            7 
  251000   0.86600838   -6.6445344     78.38049  0.026022739  0.027149799           11 
  252000   0.85301787   -6.6566119    78.529235  0.025968662  0.027080575            8 
  253000   0.86834819   -6.6279643    78.740269   0.02593553  0.027011921            9 
  254000   0.87188154   -6.6450773    78.992832  0.025916283    0.0269427           11 
  255000    0.8663665   -6.6371649    79.143617  0.025863927  0.026873753            9 
  256000    0.8678157   -6.6454761    79.279957  0.025807278  0.026805893            4 
  257000   0.84968863    -6.644661    79.472674  0.025769349  0.026738524           13 
  258000   0.86198899   -6.6572532      79.5614  0.025698127   0.02667104           14 
  259000   0.86608105   -6.6571193    79.776508  0.025668117  0.026603938           19 
  260000   0.83952971   -6.6658416    79.986627  0.025636739  0.026537555           12 
  261000   0.85458296   -6.6727334    79.955631  0.025528618  0.026470969           23 
  262000   0.85319757   -6.6444343    80.277997  0.025533714  0.026404605            9 
  263000   0.83296213   -6.6593289    80.430477  0.025484942  0.026339548           13 
  264000    0.8585833   -6.6552242    80.595869  0.025440615    0.0262743            7 
  265000   0.82734189   -6.6743508    80.589108  0.025342487  0.026209428            9 
  266000   0.85360417    -6.691782     80.77571  0.025305674  0.026144833            6 
  267000   0.84732067   -6.6756392    80.801451   0.02521893  0.026079566           15 
  268000    0.8345668   -6.7051172    80.884068  0.025150519  0.026014259            8 
  269000   0.84389477   -6.7024024    81.181342  0.025149115  0.025949229           13 
  270000   0.84481034   -6.7234814    81.114096  0.025035215  0.025884118            8 
  271000   0.85233778   -6.7010467    81.494114  0.025059691  0.025819494           13 
  272000   0.82956831   -6.7151347    81.417619  0.024944123  0.025754593           18 
  273000   0.84484236   -6.7277115     81.42019  0.024853538  0.025688781           33 
  274000    0.8376714    -6.700662    81.697039  0.024847031  0.025623892           16 
  275000   0.83830772   -6.7353614     81.95127  0.024833718  0.025559375           11 
  276000   0.82682038   -6.7271946    81.920512  0.024734454  0.025495485           16 
  277000   0.82707599   -6.7202122    81.912974  0.024642892  0.025431429           12 
  278000   0.82003617   -6.7131177    82.129792  0.024619242  0.025366662            7 
  279000   0.80520769   -6.7275681    82.215659  0.024556649  0.025302101           14 
  280000   0.81924343    -6.738268    82.223277  0.024471213  0.025236935           10 
  281000   0.83008617   -6.7349149    82.337577  0.024418024   0.02517162            9 
  282000   0.81854168   -6.7387682    82.350088  0.024335132  0.025106457           11 
  283000    0.8069033   -6.7274847    82.544027   0.02430625  0.025041488           27 
  284000   0.81066488   -6.7720835    82.729743  0.024275159  0.024976285           23 
  285000   0.80675355   -6.7338396    82.590701  0.024149328   0.02491071           12 
  286000   0.79126555   -6.7201669    82.748859  0.024110973  0.024845522           19 
  287000   0.79697862    -6.737141    82.830312  0.024050613  0.024780277           23 
  288000   0.80207491   -6.7384876    83.078611   0.02403895  0.024715949            9 
  289000   0.80049341   -6.7507774    82.935054  0.023914375  0.024651148           15 
  290000   0.81175662   -6.7778225    83.171829  0.023899951   0.02458699           18 
  291000   0.79586613   -6.7572845    83.577861  0.023934095  0.024523068           10 
  292000   0.80001592   -6.7575314    83.705175  0.023888463  0.024459387           10 
  293000    0.7857442   -6.7646805    83.735008  0.023815418  0.024395994           21 
  294000   0.80674305    -6.740107    83.397462  0.023638736  0.024332307           17 
  295000   0.79697823   -6.7737656    83.674162  0.023636769  0.024268151           23 
  296000   0.80222364   -6.8147257    83.619242  0.023541453  0.024204358           13 
  297000   0.80605467   -6.7749688     83.93715  0.023551389  0.024141163           20 
  298000   0.80983282   -6.8084432    83.993106  0.023488005   0.02407774           12 
  299000   0.78488956   -6.7809249    84.087902   0.02343587  0.024014435           14 
  300000   0.80455236   -6.7972316    84.075136  0.023354205  0.023951308           21 
  301000   0.79734846   -6.7885027    84.086086  0.023279647  0.023888334           20 
  302000    0.7887417   -6.7973669    84.340243  0.023272694  0.023825131           28 
  303000   0.78716085   -6.8136185     84.50167  0.023240283  0.023762559           58 
  304000   0.80157595   -6.8343269    84.296151  0.023107497  0.023699842           19 
  305000   0.77375288   -6.7949534    84.282483  0.023028001  0.023636874           40 
  306000   0.78577431    -6.808956    84.499993  0.023011981  0.023574012           25 
  307000   0.80124967   -6.8196815    84.822365  0.023024529  0.023511311           21 
  308000   0.77750876   -6.8452434    84.922885  0.022976971  0.023449373           57 
  309000   0.77863996   -6.8266327    85.168251  0.022968784  0.023387807           50 
  310000   0.76402167   -6.8361667    85.062011  0.022866132   0.02332654           30 
  311000   0.78405172   -6.8253167    85.095857  0.022801677  0.023264167           10 
  312000   0.75553247   -6.8324809    85.035308  0.022712422  0.023201417           70 
  313000   0.76861989    -6.819762    85.066337  0.022648119   0.02313911            8 
  314000   0.75419631   -6.8481984    85.108459  0.022587171  0.023076587           23 
  315000    0.7643783   -6.8144362    85.117839  0.022517947  0.023013537           16 
  316000   0.76784384   -6.8578732    85.284729  0.022490699  0.022950139           44 
  317000   0.75373368   -6.8600743     85.18362   0.02239317  0.022887136           46 
  318000   0.76003796    -6.861113    85.274353  0.022346528  0.022824592           21 
  319000   0.75890695   -6.8309621    85.436813  0.022318917  0.022761996           22 
  320000   0.76243107   -6.8756905    85.234662  0.022196527  0.022699464           20 
  321000   0.73534917   -6.8731991    85.364632  0.022161119  0.022636506           36 
  322000   0.75905494   -6.8593586    85.628799  0.022160662  0.022573844           25 
  323000   0.75687911   -6.8567783    85.556121  0.022073303  0.022510735           16 
  324000   0.76723334   -6.8793448    85.444455  0.021976455   0.02244785           19 
  325000   0.74593767   -6.8868718    85.639041  0.021958728  0.022385282           17 
  326000   0.73623897   -6.8542828    85.884584  0.021954137  0.022323372           21 
  327000   0.72942774   -6.8910657    85.961823  0.021906683  0.022261597           20 
  328000   0.74233141   -6.9173628    85.715277  0.021777255  0.022199974           31 
  329000   0.73886322   -6.8825232    86.169175  0.021826032  0.022139039           22 
  330000   0.72619733   -6.8818278    86.105281  0.021743758  0.022078184           28 
  331000   0.74028305   -6.9143294    86.066293  0.021668251  0.022016956           48 
  332000   0.74396361   -6.9152967    86.259112  0.021651384  0.021955923           11 
  333000   0.73506713   -6.8778336    86.348159  0.021608648  0.021895411           13 
  334000   0.71712297   -6.8587154    86.308926  0.021534163  0.021835339           13 
  335000   0.73283034    -6.901088    86.361422  0.021482941  0.021774969           23 
  336000   0.72550784    -6.901269      86.2214  0.021384276  0.021714625           11 
  337000   0.73503876    -6.892983     86.50863  0.021391847  0.021654467           18 
  338000   0.72560841    -6.905882    86.270029  0.021269731  0.021594077           25 
  339000   0.71828686   -6.9376131    86.655885   0.02130184  0.021533959           28 
  340000   0.70822996   -6.9110091    86.724029  0.021255889  0.021473944           36 
  341000   0.72446384   -6.9410584     86.57611  0.021157407   0.02141404           20 
  342000   0.72329164   -6.9083462    86.474596  0.021070808  0.021353943           48 
  343000   0.72712652   -6.9481526    86.660707  0.021054593   0.02129403           26 
  344000   0.71398884   -6.9200194    86.673833  0.020996568  0.021234472           11 
  345000   0.71651286   -6.9532263     86.65462  0.020931068  0.021174473           22 
  346000   0.73128282   -6.9398154    86.742386  0.020891712  0.021114761           35 
  347000   0.72521291   -6.9324486    86.879823  0.020864511  0.021055371           26 
  348000   0.71209801    -6.924103    86.826734  0.020791842  0.020996257           23 
  349000   0.70729043   -6.9510152     86.72582  0.020708171  0.020936806           35 
  350000    0.7105896    -6.940177    86.911081  0.020693114  0.020877852           51 
  351000   0.71006993   -6.9742507    86.933827   0.02063956  0.020819162           95 
  352000   0.70414686   -6.9753861    87.039581  0.020605961  0.020760245           69 
  353000   0.71050189   -6.9916166      87.2536  0.020598111  0.020701751          118 
  354000   0.69547347   -6.9871828      87.2243  0.020533027  0.020643185           84 
  355000   0.70734724   -6.9672309    87.205044  0.020470668  0.020585182          136 
  356000   0.71911763   -7.0018974    87.232618   0.02041962  0.020527243          106 
  357000    0.7022109    -6.984269    87.255551  0.020367776  0.020469477          165 
  358000   0.71651468   -6.9978544    87.389959  0.020342169  0.020411976          190 
  359000   0.69406268   -6.9890487    87.299985   0.02026462  0.020354528          101 
  360000   0.69382429   -6.9846836    87.450543  0.020243181  0.020297435           86 
  361000   0.68194548   -6.9978949    87.476488  0.020193095  0.020240387          175 
  362000   0.69765567   -6.9939792    87.431564  0.020126971  0.020183344          146 
  363000   0.68461597   -7.0056406    87.496204  0.020086365  0.020126639          233 
  364000   0.68847722   -7.0143151    87.643722  0.020064955  0.020069687          172 
  365000   0.68718108   -7.0055952    87.521726  0.019982129  0.020013075          107 
  366000   0.67922115   -6.9988144    87.550626  0.019934113  0.019956444          174 
  367000   0.68738871   -6.9896006    87.549453  0.019879531  0.019899976          205 
  368000   0.66529829   -6.9955247    87.751259  0.019871209  0.019843803          193 
  369000   0.68144823   -7.0112141     87.67566  0.019800284  0.019787619          158 
  370000   0.66825796   -7.0344591    87.846799  0.019785315  0.019731559          279 
  371000   0.67385695   -7.0124718     87.97211  0.019760132  0.019675834          189 
  372000   0.66517886    -7.019515    87.858309  0.019681521  0.019620058          152 
  373000   0.67133469   -7.0331891    87.595198  0.019569973  0.019564027          193 
  374000   0.67855491   -7.0294529    87.521986  0.019501334  0.019507659          298 
  375000   0.68313444    -7.050915    87.537663  0.019452814  0.019451411          199 
  376000   0.68148284    -7.040801    87.504309  0.019393686  0.019395133          321 
  377000   0.66580543   -7.0544295    87.549964  0.019352335  0.019338862          233 
  378000   0.67216506   -7.0712728    87.593162  0.019310662  0.019282689          357 
  379000    0.6596912   -7.0652617    87.600551  0.019261335  0.019226745          362 
  380000   0.65310739   -7.0384391    87.845238  0.019264307  0.019170849          377 
  381000   0.66820631     -7.09815    87.581233     0.019156  0.019115171          501 
  382000   0.63528321    -7.083729    87.849834  0.019164449  0.019059747          570 
  383000    0.6587452   -7.0927084    87.856323  0.019115823  0.019004239          486 
  384000   0.65695191   -7.0891167    87.722912   0.01903709  0.018948449          498 
  385000   0.64991948   -7.1069542    87.840704  0.019013139  0.018892758          470 
  386000    0.6555007   -7.1220625    87.807124  0.018956633  0.018837284          692 
  387000    0.6451251   -7.1258057     87.61094  0.018865405  0.018781868          743 
  388000   0.64564788   -7.1033425    87.600448  0.018814529  0.018726392          755 
  389000    0.6490217   -7.1195187    87.746638   0.01879748   0.01867097          602 
  390000   0.65331709    -7.137441    87.616449  0.018721463  0.018615518          816 
  391000   0.62973665   -7.1026124    87.639254  0.018678443  0.018560506          760 
  392000   0.64568989   -7.1449058    87.419523  0.018584082   0.01850554          826 
  393000   0.65327339   -7.1740519     87.51313  0.018556643  0.018450503          950 
  394000   0.62839605   -7.1784822    87.688283  0.018546591  0.018395526          944 
  395000   0.63202831   -7.1547005    87.742361  0.018511047  0.018340644          981 
  396000   0.63533447   -7.1704105    87.509469  0.018415292  0.018286089         1039 
  397000   0.63588557   -7.1825575    87.720825  0.018413271  0.018231603          983 
  398000   0.64110929   -7.1648201    87.702541  0.018363179  0.018177281          955 
  399000   0.63448365   -7.1692973    87.640075  0.018304109  0.018123029          958 
  400000   0.62807057   -7.1845617    87.629856   0.01825622  0.018068645         1029 
  401000   0.62058148   -7.1843009    87.689816  0.018223154  0.018014458         1083 
  402000   0.62866118   -7.1809606     87.80744  0.018202206  0.017960461         1097 
  403000   0.62700014   -7.1860286    87.462688   0.01808575  0.017906527         1163 
  404000   0.63257166   -7.1884345    87.554611  0.018059944  0.017852548         1123 
  405000   0.62003154   -7.1993513     87.52612   0.01800949  0.017798622         1110 
  406000   0.62573766   -7.2108437    87.447638  0.017949023   0.01774475         1123 
  407000   0.60927424   -7.2025281    87.647718  0.017945888  0.017691001         1127 
  408000   0.60976431      -7.2045    87.456053  0.017862756  0.017637118         1170 
  409000   0.60467458   -7.2230218    87.456725  0.017819219  0.017583725         1211 
  410000   0.60394119   -7.2146088    87.401071  0.017764445  0.017530225         1203 
  411000   0.61626706   -7.2142769    87.283482  0.017697381  0.017476723         1277 
  412000   0.61393244   -7.2148412    87.402505    0.0176785  0.017423431         1254 
  413000   0.62086233   -7.2109126    87.266428  0.017608238  0.017370354         1274 
  414000   0.60917732   -7.2357913    87.293076   0.01757107   0.01731718         1311 
  415000   0.60767892   -7.2244758     87.37202  0.017544582  0.017264136         1414 
  416000   0.59944169   -7.2271759     87.22641  0.017473239  0.017211249         1307 
  417000   0.59157393   -7.2501064    87.319959  0.017450032  0.017158402         1427 
  418000   0.60951433    -7.239278    87.235504  0.017391448  0.017105613         1332 
  419000   0.58166849   -7.2356205    87.273461   0.01735749  0.017052941         1447 
  420000   0.59570278   -7.2445404    87.280527  0.017317565  0.017000374         1471 
  421000   0.58579044   -7.2516072    87.190331  0.017258577  0.016948005         1394 
  422000   0.59223253   -7.2479225    87.122369  0.017204259  0.016895565         1398 
  423000   0.58635332   -7.2493214    87.330289  0.017204549   0.01684338         1374 
  424000   0.58477426   -7.2660945    87.297482  0.017157524  0.016791503         1504 
  425000   0.59057265   -7.2769913    87.203252  0.017098677  0.016739667         1506 
  426000   0.60450966   -7.2697563    87.057801  0.017030086  0.016687881         1501 
  427000    0.5881086   -7.2958176    87.152198  0.017008626  0.016636113         1587 
  428000   0.59014218   -7.2789337    87.037129  0.016946482  0.016584585         1582 
  429000   0.58498601   -7.2746811     87.15295  0.016929478  0.016533129         1570 
  430000   0.57329104   -7.2984419    86.994766  0.016859451  0.016481775         1679 
  431000   0.57716475   -7.2659644    87.158647   0.01685202  0.016430623         1623 
  432000   0.56993867   -7.3039688    87.129853  0.016807456  0.016379518         1686 
  433000   0.57876834   -7.3170449     87.17804  0.016777914    0.0163286         1768 
  434000   0.55884348   -7.2982883    87.096644  0.016723626  0.016277749         1782 
  435000   0.58801583   -7.3048303    87.104906  0.016686763  0.016227094         1673 
  436000    0.5803823   -7.3126283    87.007427   0.01662986  0.016176592         1656 
  437000   0.58369989   -7.3105435    87.015861  0.016593414  0.016126188         1724 
  438000    0.5676174   -7.3049071    87.087406  0.016569141  0.016076055         1758 
  439000   0.55947867    -7.316656    86.985223  0.016512001  0.016026119         1739 
  440000   0.56780359    -7.329389    87.037798  0.016484431   0.01597627         1797 
  441000   0.56909262    -7.319244    86.893889  0.016419858  0.015926609         1700 
  442000   0.56817198   -7.3098305     87.00933  0.016404474   0.01587708         1768 
  443000   0.56255364   -7.3477131    87.020548  0.016369554  0.015827602         1861 
  444000   0.56109277   -7.3454596    87.004229  0.016329623  0.015778204         1798 
  445000    0.5525229   -7.3440761    86.903079  0.016273985  0.015728933         1822 
  446000   0.55517876   -7.3415259    87.009771  0.016257431  0.015679915         1807 
  447000   0.54821906    -7.358723    87.088976  0.016235827   0.01563114         1748 
  448000   0.55453607   -7.3488287    86.964877  0.016176502  0.015582462         1825 
  449000   0.55032157   -7.3479276    86.924674  0.016133013  0.015533943         1821 
  450000   0.56293171   -7.3362201    86.852148  0.016083731  0.015485624         1833 
  451000   0.54465327    -7.337734    87.097322  0.016093371  0.015437551         1830 
  452000   0.55703962   -7.3555658    86.973985  0.016035027  0.015389553         1860 
  453000    0.5527158    -7.361165    86.941326  0.015993621  0.015341712         1863 
  454000   0.53893911   -7.3642337    86.786804   0.01593003  0.015294001         1892 
  455000   0.54581481   -7.3755269    86.945401  0.015924066  0.015246423         1890 
  456000   0.53067295   -7.3557323    86.850159   0.01587174   0.01519893         1790 
  457000   0.54135209     -7.38503    87.028156  0.015869467  0.015151713         1776 
  458000   0.53088775   -7.3768035    86.756689  0.015785424  0.015104544         1792 
  459000   0.54045899   -7.3797592    86.914961  0.015779768  0.015057703         1807 
  460000   0.52671546   -7.3811227    86.872395  0.015737753  0.015010946         1876 
  461000   0.51634337   -7.3943882    86.865075  0.015702291  0.014964307         1900 
  462000   0.54028787   -7.3748775    86.844583  0.015664607  0.014917922         1922 
  463000   0.52400166   -7.3726001     86.87926  0.015637016  0.014871616         1879 
  464000   0.52697853   -7.4056656    86.763576  0.015582539  0.014825528         1897 
  465000   0.52633958    -7.390706    86.800566  0.015555657  0.014779572         1903 
  466000   0.52896124   -7.3924827    86.870293  0.015534745  0.014733777         1883 
  467000   0.51781824    -7.390846    86.808428   0.01549044  0.014688067         1873 
  468000   0.52266463   -7.3950979     86.68854  0.015435994  0.014642578         1925 
  469000   0.51228107   -7.4175028    86.833303  0.015428803  0.014597212         1942 
  470000   0.51388142    -7.394763    86.714425  0.015374898  0.014551987         1938 
  471000   0.51047768    -7.416011    86.732987  0.015345539  0.014506871         1904 
  472000   0.52069483   -7.4152553    86.701949  0.015307547  0.014461935         1908 
  473000   0.51484255   -7.4016474    86.682315  0.015271726   0.01441716         1892 
  474000   0.50417913   -7.4240021    86.699259  0.015242486  0.014372518         1949 
  475000   0.50113053   -7.4145644    86.683131  0.015207567   0.01432806         1946 
  476000   0.49908607     -7.42827    86.687487  0.015176381  0.014283707         1923 
  477000   0.51066551   -7.4115595    86.630195  0.015134555  0.014239534         1942 
  478000   0.50889334    -7.423882    86.701204  0.015115273  0.014195529         1933 
  479000    0.4906517   -7.4102972    86.717761  0.015086597  0.014151682         1911 
  480000    0.5067771    -7.432921    86.709701  0.015053768  0.014107961         1938 
  481000    0.4940276   -7.4083149       86.653  0.015012647  0.014064449         1893 
  482000   0.49096894   -7.4313834    86.678992  0.014985995  0.014021086         1956 
  483000   0.49092972   -7.4353592    86.697206   0.01495811    0.0139779         1980 
  484000     0.482845   -7.4250008    86.572219  0.014905685  0.013934806         2009 
  485000   0.49509222   -7.4363218    86.608521  0.014881189  0.013891865         2032 
  486000   0.48530275   -7.4320112    86.535743   0.01483809  0.013849083         1946 
  487000   0.48487597   -7.4588762    86.558431  0.014811504  0.013806409         1972 
  488000    0.4914541   -7.4318239    86.651974  0.014797127  0.013763877         1950 
  489000   0.48924621   -7.4605683    86.578969  0.014754426  0.013721501         1966 
  490000   0.47462107   -7.4499284    86.591705   0.01472648  0.013679292         1944 
  491000   0.47335416    -7.451049    86.486758  0.014678676  0.013637267         2033 
  492000   0.48851167   -7.4575911    86.479221  0.014647564  0.013595315         2024 
  493000    0.4727722   -7.4674479    86.479619  0.014617921  0.013553534         1973 
  494000   0.47861027   -7.4612972    86.418414  0.014578005  0.013511906         1975 
  495000   0.46717278   -7.4822944    86.457051  0.014555059  0.013470384         2054 
  496000   0.48340509   -7.4516952    86.417939  0.014519143  0.013429028         1978 
  497000   0.46962649   -7.4781407    86.421196  0.014490475  0.013387815         2060 
  498000   0.48085495   -7.4617627    86.452061  0.014466543   0.01334677         2070 
  499000   0.47666373   -7.4698698    86.541122  0.014452425  0.013305903         2034 
  500000   0.46665299    -7.488334    86.565058   0.01442751  0.013265151         2054 
  501000   0.47111484    -7.481873    86.415416  0.014373822  0.013224534         2069 
  502000   0.47119385   -7.4685028    86.434285  0.014348321  0.013184138         2028 
  503000   0.46375264   -7.4884049    86.504957  0.014331504  0.013143861         1979 
  504000    0.4604563   -7.4940721    86.471383  0.014297517  0.013103797         2076 
  505000   0.46186177   -7.4914694     86.45697  0.014266827  0.013063848         2072 
  506000   0.45519191   -7.5052303    86.550452  0.014254027  0.013024005         2118 
  507000   0.45407799   -7.4782188    86.392651  0.014199976  0.012984346         2075 
  508000   0.45402824   -7.4883883    86.566342  0.014200515  0.012944822         2056 
  509000   0.45036114   -7.5096915    86.375991  0.014141452  0.012905439         2072 
  510000   0.45268331   -7.5119915    86.370847  0.014112883  0.012866138         2101 
  511000   0.44726504   -7.5099095    86.404021  0.014090675  0.012826987         2043 
  512000   0.44815719   -7.4964529    86.301119  0.014046406  0.012787933         2052 
Loop time of 1095.72 on 48 procs for 500000 steps with 4000 atoms

Performance: 78852.545 tau/day, 456.323 timesteps/s
99.4% CPU use with 48 MPI tasks x no OpenMP threads

MPI task timing breakdown:
Section |  min time  |  avg time  |  max time  |%varavg| %total
---------------------------------------------------------------
Pair    | 62.78      | 68.877     | 74.736     |  30.2 |  6.29
Neigh   | 6.4215     | 6.6524     | 6.9666     |   5.3 |  0.61
Comm    | 58.561     | 64.63      | 71.056     |  34.7 |  5.90
Output  | 1.0929     | 1.0933     | 1.1026     |   0.1 |  0.10
Modify  | 936.11     | 940.69     | 948.4      |  10.3 | 85.85
Other   |            | 13.77      |            |       |  1.26

Nlocal:        83.3333 ave          91 max          75 min
Histogram: 2 1 2 8 7 13 5 4 4 2
Nghost:        1746.27 ave        1771 max        1724 min
Histogram: 1 3 7 9 8 7 5 4 2 2
Neighs:        10544.6 ave       11709 max        9410 min
Histogram: 2 2 4 8 12 7 4 6 1 2
FullNghs:      21089.2 ave       23265 max       19090 min
Histogram: 2 3 6 6 10 8 4 6 1 2

Total # of neighbors = 1012283
Ave neighs/atom = 253.07075
Neighbor list builds = 26978
Dangerous builds = 0

#clear
#
#next RN
#
#jump SELF
Total wall time: 0:18:18
