
units lj                  # Use reduced LJ style units
atom_style atomic         # Uncharged point particles
atom_modify map hash      # Needed for indexing of clusters etc
                          # Used to be able to find where atoms are in relation to each other.

lattice fcc 1.0 spacing 1 1 1
Lattice spacing in x,y,z = 1.5874011 1.5874011 1.5874011
region box block 0 10 0 10 0 10 units lattice
create_box 2 box
Created orthogonal box = (0.0000000 0.0000000 0.0000000) to (15.874011 15.874011 15.874011)
  3 by 4 by 4 MPI processor grid
create_atoms 1 box
Created 4000 atoms
  using lattice units in orthogonal box = (0.0000000 0.0000000 0.0000000) to (15.874011 15.874011 15.874011)
  create_atoms CPU = 0.002 seconds
set type 1 type/fraction 2 1.0 78393
Setting atom values ...
  4000 settings made for type/fraction
mass 1 1.0
mass 2 1.0
pair_style lj/cut  3.5
pair_modify tail  yes
pair_coeff 1  1  1.0  1.0   # Intearaction between 1 and 1 set with epsilon = 1 and sigma = 1
pair_coeff 1  2  1.5  0.8
pair_coeff 2  2  0.5  0.88

write_data data.0
System init for write_data ...
Neighbor list info ...
  update every 1 steps, delay 10 steps, check yes
  max neighbors/atom: 2000, page size: 100000
  master list distance cutoff = 3.8
  ghost atom cutoff = 3.8
  binsize = 1.9, bins = 9 9 9
  1 neighbor lists, perpetual/occasional/extra = 1 0 0
  (1) pair lj/cut, perpetual
      attributes: half, newton on
      pair build: half/bin/atomonly/newton
      stencil: half/bin/3d
      bin: standard
WARNING: Not all mixed pair coeffs generated from mixing. Use write_data with 'pair ij' option to store all pair coeffs. (../write_data.cpp:312)


#############################
#   M E L T   S Y S T E M   #
#############################

velocity all create 2.4 3143649 mom yes dist gaussian # Assign velocities
                                                    # Temperature 2.4, random number seed, zero linear momentum
                                                                                # Gaussian distribution

timestep 0.002   # simulation timestep
thermo 1000       # output thermodynamic data every 1000 steps bf 100

# Define a fix  in this case with index 1 applied to all
# particles in the simulation. This fix is for simulations
# in the anisotropic NPT ensemble. Note that we use the MTK
# correction.
fix 1 all npt temp 2.4 2.4 0.1 iso 5.68 5.68 0.5 mtk yes tchain 5 pchain 5 # Use NPT ensemble
                                                                         # Set temperature and pressure and damping
                                                                         # Numbers of thermostats in chain and in barostat
run 10000          # run for 10000 steps
Per MPI rank memory allocation (min/avg/max) = 3.642 | 3.644 | 3.648 Mbytes
Step Temp E_pair E_mol TotEng Press Volume 
       0          2.4   -2.7016284            0   0.89747158   -1.6956087         4000 
    1000    2.4125339   -1.4304216            0    2.1874745     5.637515    4277.7722 
    2000    2.3523614   -1.4394204            0    2.0882395    5.5695872     4278.036 
    3000    2.4527366   -1.4151457            0    2.2630395     5.747917    4279.6057 
    4000    2.3437455   -1.4482913            0     2.066448    5.4703932    4284.5388 
    5000     2.442117   -1.4211054            0    2.2411544    5.8650166    4247.2198 
    6000    2.3426542   -1.4619536            0    2.0511491    5.7552295    4202.1989 
    7000    2.3876064     -1.41172            0    2.1687942    5.7451314    4263.2882 
    8000     2.363268   -1.4694448            0     2.074571    5.4400988    4270.0961 
    9000     2.421038   -1.4036381            0     2.227011    5.8877177    4259.9906 
   10000    2.4362911   -1.4391096            0    2.2144134    5.6386242    4265.8314 
Loop time of 2.40433 on 48 procs for 10000 steps with 4000 atoms

Performance: 718703.398 tau/day, 4159.163 timesteps/s
99.6% CPU use with 48 MPI tasks x no OpenMP threads

MPI task timing breakdown:
Section |  min time  |  avg time  |  max time  |%varavg| %total
---------------------------------------------------------------
Pair    | 1.0065     | 1.0893     | 1.209      |   3.6 | 45.31
Neigh   | 0.20504    | 0.21072    | 0.23388    |   1.1 |  8.76
Comm    | 0.74326    | 0.8388     | 0.90668    |   4.1 | 34.89
Output  | 0.00023876 | 0.00024337 | 0.00030924 |   0.0 |  0.01
Modify  | 0.19719    | 0.25057    | 0.29116    |   5.6 | 10.42
Other   |            | 0.01467    |            |       |  0.61

Nlocal:        83.3333 ave          90 max          74 min
Histogram: 2 4 1 6 2 9 8 4 6 6
Nghost:        1577.71 ave        1608 max        1544 min
Histogram: 1 2 4 6 5 13 6 7 2 2
Neighs:        8964.23 ave       10016 max        7555 min
Histogram: 1 1 8 3 5 6 8 4 8 4

Total # of neighbors = 430283
Ave neighs/atom = 107.57075
Neighbor list builds = 912
Dangerous builds = 239

# Equilibrate just above the melting temperature to avoid step fn in T

fix 1 all npt temp 1.25 1.25 0.1 iso 5.68 5.68 0.5 mtk yes tchain 5 pchain 5
run 2000
Per MPI rank memory allocation (min/avg/max) = 3.643 | 3.645 | 3.649 Mbytes
Step Temp E_pair E_mol TotEng Press Volume 
   10000    2.4362911   -1.4391096            0    2.2144134    5.6386242    4265.8314 
   11000    1.2424039   -2.2387341            0  -0.37559413    5.6405666    3334.2028 
   12000     1.254138   -2.2463628            0  -0.36562613    5.6643389     3328.681 
Loop time of 0.574295 on 48 procs for 2000 steps with 4000 atoms

Performance: 601781.630 tau/day, 3482.533 timesteps/s
99.6% CPU use with 48 MPI tasks x no OpenMP threads

MPI task timing breakdown:
Section |  min time  |  avg time  |  max time  |%varavg| %total
---------------------------------------------------------------
Pair    | 0.24285    | 0.27308    | 0.29916    |   2.3 | 47.55
Neigh   | 0.03753    | 0.040119   | 0.045163   |   0.7 |  6.99
Comm    | 0.18299    | 0.2118     | 0.24673    |   2.8 | 36.88
Output  | 5.0699e-05 | 5.2039e-05 | 6.5201e-05 |   0.0 |  0.01
Modify  | 0.040738   | 0.044577   | 0.048816   |   0.9 |  7.76
Other   |            | 0.004669   |            |       |  0.81

Nlocal:        83.3333 ave          91 max          72 min
Histogram: 1 1 1 4 8 10 7 9 6 1
Nghost:        1857.52 ave        1891 max        1822 min
Histogram: 2 1 4 10 7 7 6 5 5 1
Neighs:        11476.1 ave       12910 max        9287 min
Histogram: 1 0 2 7 5 6 10 8 5 4

Total # of neighbors = 550855
Ave neighs/atom = 137.71375
Neighbor list builds = 144
Dangerous builds = 15

#############################
# L I N E A R  Q U E N C H  #
#############################

# Define solid atoms. This closely follows ten Wolde  Ruiz-Montero and Frenkel  Faraday Discuss  1996  104  93-110
# Compute components of the per-atom q6 vector
compute q6 all orientorder/atom degrees 1 6 components 6 nnn NULL cutoff 1.3 # compute the Q6 parameter.
                                                                             # Use all neighbours within 1.3 unit cell.

# get number of connections
compute coord_number all coord/atom orientorder q6 0.5

# An atom is solid if it has 8 or more connections (of a possible 14)
variable is_solid atom c_coord_number>=8
group solid dynamic all var is_solid    # Must be dynamic to update
dynamic group solid defined

# do clustering
compute cluster solid cluster/atom 1.3 # Create a cluster where all atoms within are solid and max 1.3 units from another member

# define chunks one chunk per cluster
compute clus_chunks solid chunk/atom c_cluster nchunk every compress yes  # Says which atoms are in which chunk

# count the size of each chunk
compute size_chunks solid property/chunk clus_chunks count


# Find the maximum entry in the vector of chunk sizes
variable max_n equal max(c_size_chunks)


# Thermo style which includes this variable
# thermo_style custom step temp pe vol v_max_n

thermo ${N}  # Print the thermo information every 100 steps
thermo 1000  

# Reset the npt fix at a lower temperature (below freezing)
fix 1  all npt temp  ${temp} ${temp}  0.1  iso  5.68  5.68  0.5  mtk yes tchain  5  pchain  5
fix 1  all npt temp  0.45 ${temp}  0.1  iso  5.68  5.68  0.5  mtk yes tchain  5  pchain  5
fix 1  all npt temp  0.45 0.45  0.1  iso  5.68  5.68  0.5  mtk yes tchain  5  pchain  5

dump dmp2 all dcd ${N} traj.dcd
dump dmp2 all dcd 1000 traj.dcd


compute msd all msd com yes
variable twopoint equal c_msd[4]/6/(step*dt+1.0e-6)
fix 9 all vector 10 c_msd[4]
variable fit equal slope(f_9)/6/(10*dt)
thermo_style custom step temp pe c_msd[4] v_twopoint v_fit v_max_n

fix 1 all npt temp 1.25 ${temp} 0.1 iso 5.68 5.68 0.5 mtk yes tchain 5 pchain 5
fix 1 all npt temp 1.25 0.45 0.1 iso 5.68 5.68 0.5 mtk yes tchain 5 pchain 5
run 5000000 # 5000000  # Run for this many steps
Neighbor list info ...
  update every 1 steps, delay 10 steps, check yes
  max neighbors/atom: 2000, page size: 100000
  master list distance cutoff = 3.8
  ghost atom cutoff = 3.8
  binsize = 1.9, bins = 8 8 8
  4 neighbor lists, perpetual/occasional/extra = 1 3 0
  (1) pair lj/cut, perpetual
      attributes: half, newton on
      pair build: half/bin/atomonly/newton
      stencil: half/bin/3d
      bin: standard
  (2) compute orientorder/atom, occasional
      attributes: full, newton on
      pair build: full/bin/atomonly
      stencil: full/bin/3d
      bin: standard
  (3) compute coord/atom, occasional
      attributes: full, newton on
      pair build: full/bin/atomonly
      stencil: full/bin/3d
      bin: standard
  (4) compute cluster/atom, occasional
      attributes: full, newton on
      pair build: full/bin/atomonly
      stencil: full/bin/3d
      bin: standard
Per MPI rank memory allocation (min/avg/max) = 9.809 | 9.816 | 9.822 Mbytes
Step Temp PotEng c_msd[4] v_twopoint v_fit v_max_n 
   12000     1.254138   -2.2463628 3.8979589e-30 2.7069158e-32 8.3333333e+20            1 
   13000    1.2499032   -2.2357675    1.2118011 0.0077679552   0.10313828            1 
   14000    1.2285964   -2.2252461    2.5125479  0.014955642   0.10699601            2 
   15000    1.2514079   -2.2447482    3.8406687  0.021337048    0.1080625            1 
   16000    1.2235074   -2.2398984    5.2759385  0.027478845   0.11013035            1 
   17000    1.2385747   -2.2160889    6.7380151  0.033029485   0.11298428            2 
   18000    1.2894291   -2.2048943    8.1191797  0.037588794   0.11446063            3 
   19000     1.278409   -2.2406516    9.3013514    0.0407954   0.11419665            1 
   20000    1.2467839   -2.2521425    10.854635  0.045227643   0.11421686            2 
   21000    1.2360471   -2.2343686     12.34175  0.048975196   0.11510164            1 
   22000    1.2418543   -2.2286004    13.650419  0.051706132   0.11537535            2 
   23000    1.2415087   -2.2108633    15.099004  0.054706536   0.11547666       -1e+20 
   24000    1.2635744    -2.232539    16.535657  0.057415473   0.11581208            2 
   25000    1.2676376   -2.2446863    17.818363  0.059394542   0.11601413            3 
   26000    1.2592607   -2.2410063    19.087063  0.061176482   0.11574699            1 
   27000    1.2145188   -2.2513203    20.568331  0.063482502   0.11554547            1 
   28000    1.2500235   -2.2180935    21.745824  0.064719714   0.11535864            1 
   29000    1.2509967    -2.210702    23.143794  0.066505153   0.11499988            1 
   30000     1.234919   -2.2702175    24.401745  0.067782625   0.11467112            1 
   31000    1.2340742   -2.2519068    25.727378  0.069159616   0.11420064            2 
   32000    1.2546462   -2.2294457    26.777019   0.06973182   0.11383499            2 
   33000    1.2624439   -2.2487709    28.300269  0.071465326   0.11350319            2 
   34000    1.2286381   -2.2406947    29.780055  0.072990331   0.11341545            2 
   35000    1.2607313   -2.1970317    31.327997  0.074590468   0.11336449            1 
   36000    1.2398676   -2.2469641    32.453938  0.075124856   0.11332285            1 
   37000    1.2741305   -2.2221489    33.779049  0.076078939   0.11323689            1 
   38000    1.2365532   -2.2648837    35.435374  0.077709153   0.11319524            2 
   39000    1.2268944   -2.2292583    36.798084  0.078628383   0.11320992            1 
   40000    1.2480663   -2.2176867     38.42208  0.080045999   0.11334051            3 
   41000     1.274525   -2.2187114    39.629206  0.080547165   0.11353723            1 
   42000     1.246994   -2.2443362    41.118507  0.081584339   0.11370577            1 
   43000    1.2327422   -2.2139935      42.4473  0.082262209   0.11387037            1 
   44000    1.2634124   -2.2419952    43.866155  0.083079837   0.11399118            1 
   45000    1.2400911   -2.2504361    45.233457   0.08376566   0.11407851            1 
   46000    1.2611731   -2.2419459    46.945934  0.085046981   0.11421276            1 
   47000    1.2552272   -2.2097392    48.342313   0.08571332   0.11435867            1 
   48000    1.2465176   -2.2415925    49.630039  0.086163262   0.11448348            1 
   49000    1.2333632    -2.244722    51.390995  0.087399651   0.11464841            1 
   50000    1.2664411   -2.2255506    52.832653  0.088054421    0.1148949       -1e+20 
   51000    1.2244599    -2.226608     54.14759  0.088476453   0.11507248            1 
   52000    1.2458422   -2.2207404    55.769343  0.089373946   0.11522222            1 
   53000    1.2560058   -2.2176742    56.684901  0.089127202   0.11539456            1 
   54000    1.2268455    -2.254298    57.997977   0.08950305    0.1154526            2 
   55000    1.2332552    -2.229809    59.326002   0.08988788   0.11546705            2 
   56000    1.2416838    -2.242838     60.68621   0.09030686   0.11544149            2 
   57000    1.2362269    -2.225928    62.138241  0.090845381    0.1154087            1 
   58000    1.2381052   -2.2213837    63.054077  0.090594938   0.11534343            1 
   59000    1.2354032   -2.2158047    64.443813  0.091022335   0.11526166            1 
   60000    1.2382351   -2.2435911    65.402266   0.09083648   0.11515935            1 
   61000    1.2558514   -2.2018637    66.865819  0.091346746    0.1150645            1 
   62000    1.2526017   -2.2381129    67.872162  0.091226024    0.1149514            2 
   63000    1.2399271   -2.2587536    69.634117   0.09210862   0.11484378            2 
   64000    1.2655991   -2.2104796     70.63954  0.091978567   0.11477963            1 
   65000    1.2490042   -2.2363051    72.565897  0.093033201   0.11470185            1 
   66000    1.2253024   -2.2260414    73.840269  0.093232663   0.11463666            1 
   67000    1.2402737   -2.2529737    74.703098    0.0929143   0.11454466            1 
   68000    1.2551158   -2.2144417    76.457544   0.09369797   0.11449642            2 
   69000    1.2432874   -2.2241645    77.739545  0.093888338   0.11442578            1 
   70000    1.2501133   -2.1972244    79.031304  0.094084884   0.11435617            2 
   71000    1.2533711   -2.2454077    80.086726  0.093998504   0.11427772            2 
   72000    1.2282161   -2.2069525    81.904541  0.094796921   0.11420742            3 
   73000    1.2589945   -2.2530641    83.084514  0.094845335    0.1141501            1 
   74000    1.2121426   -2.2426179    84.513022  0.095172321   0.11407112            1 
   75000    1.2609271    -2.254124    85.604067   0.09511563   0.11396888            1 
   76000    1.2315591   -2.2175917    85.966467  0.094261477   0.11382941            2 
   77000    1.2451276   -2.2338716    87.358597  0.094543936   0.11366052            2 
   78000     1.245206   -2.2158836    88.375685  0.094418466   0.11347969            1 
   79000    1.2507504   -2.2183065    89.589053   0.09450322   0.11328459            2 
   80000    1.2339075   -2.2585006    91.330179  0.095135602   0.11312954            2 
   81000    1.2696021   -2.2182503    92.709534  0.095380178   0.11299194            1 
   82000    1.2072819   -2.2459342    93.606168  0.095128219   0.11282634            2 
   83000    1.2425994   -2.2296059    95.004609  0.095386153   0.11266053            1 
   84000      1.25754   -2.2463962    96.134864  0.095371889   0.11250119            2 
   85000    1.2191268   -2.2240751    97.752584  0.095835866   0.11235858            1 
   86000    1.2406504   -2.2519553    99.637942  0.096548393    0.1122428            2 
   87000    1.2444566   -2.1979638    100.81208  0.096563291   0.11215649            2 
   88000    1.2219286   -2.2227951    101.71691  0.096322827   0.11208151            2 
   89000    1.2245811   -2.2607165    102.49712  0.095971084   0.11198426            1 
   90000    1.2090271   -2.2099039    103.88232  0.096187336    0.1118818            1 
   91000    1.2382325   -2.2317167    105.22293   0.09635799   0.11179192            1 
   92000    1.2319835    -2.235999    106.62909  0.096584317   0.11170763            1 
   93000    1.2503387    -2.254421     107.9311  0.096712455   0.11158308            2 
   94000    1.1999095   -2.2573477     108.2991  0.096009841    0.1114604            1 
   95000    1.2762769   -2.2679409    110.47028  0.096903751   0.11133623            1 
   96000    1.2431276   -2.2445692    111.58892  0.096865381     0.111244            1 
   97000     1.233729   -2.2569048     112.3573  0.096526892   0.11115984            1 
   98000    1.2183849   -2.2327042    114.00229  0.096940724   0.11105776            1 
   99000    1.2677987   -2.2291657    115.15784   0.09693421   0.11095381            1 
  100000    1.2487007   -2.2830334    115.49888  0.096249063   0.11085022            2 
  101000    1.2482451   -2.2442213    117.36255  0.096833786     0.110741            4 
  102000    1.2518455   -2.2366623     118.2684  0.096624512    0.1106171            2 
  103000    1.2202871   -2.2672195    119.22623  0.096461347   0.11048585            3 
  104000    1.2374441   -2.2206406    121.02732  0.096977015   0.11036804            1 
  105000    1.2369424   -2.2236682    122.48009  0.097206423   0.11026084            2 
  106000    1.2354106   -2.2377015    124.72278  0.098052502   0.11019203            1 
  107000    1.2564631   -2.2126729    125.69045  0.097889759   0.11012636            2 
  108000    1.2323061   -2.2351122    127.30783  0.098231353   0.11006961            2 
  109000    1.2466981   -2.2320026    128.06833   0.09791157   0.11002082            2 
  110000    1.2216079   -2.2346981    129.53391  0.098131747   0.10998414            1 
  111000      1.21949   -2.2332806    130.77455   0.09817909   0.10993615            1 
  112000    1.2336097   -2.2476229    131.89095  0.098133145      0.10988            1 
  113000    1.2266676   -2.2235513    133.11927  0.098170554   0.10981544            1 
  114000    1.2397657   -2.2479717    134.60915    0.0983985   0.10973974            3 
  115000    1.2522419   -2.2172337    135.73872  0.098361388   0.10968112            2 
  116000    1.2316605   -2.2507522    136.94915  0.098383006   0.10963714            4 
  117000     1.248744   -2.2521598    138.23044  0.098454726   0.10960039       -1e+20 
  118000    1.2096481   -2.2373603    139.54241  0.098546901   0.10955205            1 
  119000     1.223705   -2.2396895    141.27949  0.098935215   0.10951409            1 
  120000    1.2134874    -2.253458    142.95034   0.09927107   0.10948893            3 
  121000    1.2223265   -2.2246546    144.21776  0.099323525   0.10946635            1 
  122000    1.2448352   -2.2527014     146.3379  0.099957581    0.1094736            1 
  123000    1.2469362   -2.2467357    148.53265   0.10063187   0.10949673       -1e+20 
  124000    1.2154011   -2.2584739    148.93508   0.10009078   0.10953696            1 
  125000    1.2457682   -2.2636241    150.66624   0.10044416   0.10956377            1 
  126000    1.2404376   -2.2631864    151.96307   0.10050467   0.10960593            1 
  127000    1.2290595   -2.2329188    153.52042   0.10073518   0.10963021            1 
  128000    1.2150163   -2.2349762    155.53855   0.10126208   0.10967795            1 
  129000    1.2516037   -2.2673158    155.86198   0.10068603   0.10970337            1 
  130000     1.239113   -2.2336134    158.10845   0.10135157   0.10973957            1 
  131000    1.2170952   -2.2256522    159.02553   0.10116128   0.10976011            1 
  132000    1.2425454   -2.2628321    159.21473   0.10051435   0.10977573            2 
  133000    1.2300624   -2.2994819    160.44401   0.10052883   0.10978486            4 
  134000    1.2237086   -2.2363378    162.19923   0.10087017   0.10978148            1 
  135000    1.1879673   -2.2406865    163.21178   0.10074801   0.10978303       -1e+20 
  136000    1.1934185   -2.2335904    164.47737    0.1007827   0.10978054            3 
  137000    1.2356586   -2.2496367    165.18191   0.10047562   0.10977417            1 
  138000    1.2593014   -2.2789426    168.09524   0.10150679   0.10977171            1 
  139000    1.2351394   -2.2355373    168.87703   0.10124522   0.10977095            2 
  140000    1.2335722   -2.2423864    170.84478   0.10169332   0.10978349            3 
  141000    1.2349821   -2.2508653    172.05471   0.10168718   0.10979312            2 
  142000    1.2364877   -2.2541444    172.27914   0.10110278   0.10980706            1 
  143000    1.2072801   -2.2749995    173.71452   0.10123224    0.1098154            3 
  144000    1.2383213   -2.2517703    175.04387   0.10129854    0.1098176            1 
  145000    1.2231537   -2.2574696    177.55284   0.10204186   0.10982409            2 
  146000    1.2184282   -2.2344351     177.8701   0.10152403   0.10983618            2 
  147000    1.2253645   -2.2385833     179.3365   0.10166468   0.10984593            2 
  148000    1.2046953   -2.2550115    180.34227   0.10154407    0.1098461            1 
  149000    1.2243051   -2.2151467    181.79235   0.10167357   0.10984367            1 
  150000    1.2243469   -2.2204692     183.5234   0.10195744   0.10984189            3 
  151000    1.2234234   -2.2200724    184.54927   0.10184838   0.10983488            2 
  152000    1.2145783   -2.2347242    185.16857   0.10151786    0.1098235            1 
  153000    1.2230491   -2.2030178    185.93351   0.10127098   0.10980472            1 
  154000    1.2295951   -2.2482142    187.75884    0.1016011   0.10978298            2 
  155000    1.2501143   -2.2451939    188.67118   0.10143612   0.10976517            2 
  156000    1.2372269   -2.2612548    189.26661   0.10110396   0.10974344            1 
  157000    1.2500931   -2.2485066    190.44925   0.10108771   0.10971438            1 
  158000    1.2089379   -2.2427034    192.58755   0.10157571   0.10968318            3 
  159000    1.1998102   -2.2380552    194.55361    0.1019673   0.10967004            1 
  160000     1.197352   -2.2513682    195.03959   0.10158312   0.10964934            1 
  161000     1.196696   -2.2505117    196.32742   0.10161875   0.10962032            1 
  162000    1.2184474   -2.2681359      197.675   0.10168467   0.10959857            1 
  163000    1.2132704   -2.2492133    199.37188   0.10192836   0.10957641            2 
  164000    1.2546547   -2.2384892    199.63941   0.10144279   0.10955427            1 
  165000    1.2040917   -2.2391836    202.32423   0.10218396   0.10952673            1 
  166000    1.2602714   -2.2537995    201.48656   0.10114787   0.10949803            1 
  167000    1.2476393   -2.2329929    203.71832   0.10165585   0.10947245            1 
  168000    1.2516143    -2.260264    205.07039   0.10172143   0.10943624            2 
  169000    1.2407184   -2.2639222    205.72395   0.10144179   0.10940769            1 
  170000    1.2192706   -2.2342959    208.05796    0.1019892   0.10939054            2 
  171000      1.24192   -2.2576338    208.94454   0.10182482   0.10937298            1 
  172000    1.1994936   -2.2665704    210.57656   0.10202353   0.10935261            1 
  173000    1.2300473   -2.2502603    211.72382   0.10198643   0.10933583            1 
  174000    1.2171704   -2.2414175    212.96701    0.1019957   0.10931188            1 
  175000    1.2439892   -2.2701489    214.46191   0.10212472   0.10929231            2 
  176000    1.2115844   -2.2642238    215.93047    0.1022398   0.10927697            1 
  177000    1.2377456   -2.2482723    216.14421   0.10176281   0.10924974            1 
  178000    1.2357486   -2.2400822    218.39692   0.10224575   0.10922342            1 
  179000    1.2350195    -2.246865    218.98139   0.10194664   0.10919846            1 
  180000    1.2243602   -2.2520268    221.81063   0.10269011    0.1091796            1 
  181000    1.2123567   -2.2495545     221.0855   0.10178891   0.10915095            1 
  182000    1.2359177   -2.2402073    222.24357   0.10175988   0.10911497            1 
  183000    1.2262882   -2.2649573    224.39432   0.10218321   0.10908147            1 
  184000    1.2006292   -2.2450511    225.35317   0.10206212   0.10904446            1 
  185000    1.1998024   -2.2687315    226.43678   0.10199855   0.10901585            1 
  186000    1.2054699   -2.2554512    227.36124   0.10186435   0.10899447            2 
  187000    1.2135377   -2.2838853    228.64833   0.10189319   0.10896332            2 
  188000    1.2375119   -2.2814136    228.35929   0.10122309   0.10892718       -1e+20 
  189000    1.2201409   -2.2248632    231.27171   0.10197165   0.10888496            3 
  190000    1.1979508   -2.2662008    231.29307   0.10144433   0.10883881            1 
  191000    1.2293887   -2.2537907    233.82068     0.102016   0.10879582            2 
  192000    1.2082165   -2.2658139    235.65023   0.10227875   0.10875184            2 
  193000    1.2160156   -2.2408171    236.70895   0.10220594   0.10872263            1 
  194000    1.2324445   -2.2503609    237.71546   0.10211145   0.10869357            1 
  195000     1.262191   -2.2150242    238.43958   0.10189726   0.10866318            1 
  196000    1.2224343   -2.2616438    239.34584   0.10176269   0.10863544            2 
  197000    1.2267847   -2.2788079    241.46917   0.10214432   0.10859997            2 
  198000    1.2191768   -2.2606022    241.14607   0.10149245   0.10857224            1 
  199000    1.2316172   -2.2339523     243.1333   0.10181462   0.10854512       -1e+20 
  200000     1.232391   -2.2619083    245.08615   0.10211923   0.10851569            1 
  201000    1.2576058    -2.268221    245.32109   0.10170858   0.10848184            2 
  202000    1.2163226   -2.2626451    247.56521   0.10213086   0.10845029            3 
  203000    1.2138537   -2.2494508    249.18616   0.10229317   0.10842663            2 
  204000     1.185899   -2.2548071    249.29347   0.10183557   0.10839542            1 
  205000    1.2308683   -2.2281886    250.51107   0.10183377   0.10836706            1 
  206000    1.2384248   -2.2599507    253.17988   0.10241904    0.1083416            1 
  207000    1.2315511   -2.2380097    253.59469   0.10209126   0.10831861            1 
  208000    1.2337673   -2.2662584    253.80855   0.10168612   0.10829763            5 
  209000    1.2224633   -2.2653093    255.61803   0.10192106   0.10826968            1 
  210000    1.2362274   -2.2679646    256.82751   0.10191568   0.10823813            3 
  211000    1.2245606   -2.2543982    258.47626   0.10208383   0.10821125            1 
  212000    1.2022278   -2.2427461    260.55213   0.10241829   0.10818708            1 
  213000    1.2463655   -2.2462746    262.29025   0.10261747   0.10816724            1 
  214000    1.2139931   -2.2498097    262.42571    0.1021907   0.10814773            1 
  215000    1.2061073   -2.1996709    265.33897   0.10284456   0.10812336            1 
  216000    1.1952537   -2.2515537    264.97555   0.10222822   0.10809575            1 
  217000    1.2088928   -2.2586344    265.36714   0.10190751    0.1080695            1 
  218000    1.2337416   -2.2450449    266.99439   0.10206208   0.10803609            2 
  219000    1.2181305   -2.2393664    268.21443   0.10206028   0.10800525            1 
  220000    1.2459799    -2.252809    269.64098   0.10213674   0.10798113            1 
  221000    1.2135619   -2.2588331    270.97467   0.10217748   0.10794697            2 
  222000    1.2220046   -2.2639296    270.96394   0.10171319   0.10791602            1 
  223000    1.1976757   -2.2633741    272.01304   0.10164912   0.10788675            1 
  224000    1.2293386   -2.2806746    273.37982    0.1017038   0.10786937            1 
  225000    1.2231773   -2.2559685     275.4327   0.10201211   0.10785648            1 
  226000    1.2057569   -2.2655347    279.40914   0.10302697   0.10784528            4 
  227000    1.2011606   -2.2499224    281.52164   0.10334862   0.10783656            1 
  228000    1.2200411   -2.2543902    282.26456   0.10316687   0.10783443            1 
  229000    1.2086512   -2.2657539    281.67626   0.10250228   0.10782584            1 
  230000    1.2008308   -2.2692533    284.22006   0.10297828   0.10782015            4 
  231000    1.2182385   -2.2767676    285.29151   0.10291902   0.10781863            1 
  232000     1.187223   -2.2493181    286.35363   0.10285691   0.10781785            1 
  233000    1.2304752    -2.269337    287.61615   0.10286701   0.10781422            3 
  234000    1.2076116   -2.2514377    289.38267   0.10305651   0.10781047            1 
  235000    1.2103694   -2.2777937    291.67274   0.10343005   0.10780528            1 
  236000    1.2205339   -2.2480287    292.28452   0.10320781    0.1078036            2 
  237000    1.2122923   -2.2605954    294.24027   0.10346001   0.10780566            1 
  238000     1.225855   -2.2453435    294.41547   0.10308665   0.10780143            1 
  239000    1.2110097   -2.2634142    296.73497   0.10346408   0.10780452            2 
  240000    1.2210588   -2.2594092     297.0216    0.1031325   0.10781008            1 
  241000    1.2299076   -2.2700527    299.60908   0.10359927   0.10781432            1 
  242000    1.2001097   -2.2550231    301.13894   0.10369798    0.1078148            2 
  243000     1.217785   -2.2737845    300.00538    0.1028825   0.10781703            2 
  244000    1.2247749   -2.2544077     303.4532   0.10363839    0.1078226            1 
  245000    1.2148212   -2.2706806    304.99387   0.10373941   0.10782879            1 
  246000     1.213224   -2.2735141    306.45384   0.10381228    0.1078344            1 
  247000     1.218768   -2.2674887    306.48917    0.1034039   0.10783583            1 
  248000     1.200081   -2.2914687    309.83499   0.10411122   0.10784213            2 
  249000    1.2027546   -2.2754612    309.42319   0.10355529   0.10785155            1 
  250000    1.2114378    -2.271707    311.14489   0.10371496   0.10785692            1 
  251000    1.2250627   -2.2458366    311.74909   0.10350235   0.10786336            1 
  252000    1.2000453   -2.2724279    314.77996    0.1040939   0.10786649            3 
  253000    1.1927892   -2.2253141    313.39908   0.10322763   0.10786934            1 
  254000    1.2179229   -2.2552693     314.6344   0.10322651   0.10786975            1 
  255000    1.2026891   -2.2310785    318.66905   0.10414021   0.10787139            1 
  256000    1.2126568   -2.2796701     317.4274   0.10332923   0.10787365            1 
  257000    1.1741773   -2.2741494    319.60574   0.10363351   0.10786981       -1e+20 
  258000    1.2063672    -2.310849    318.79984   0.10297152   0.10786124            1 
  259000    1.2192062   -2.2531082    322.90214   0.10389387   0.10785609            2 
  260000    1.2131933   -2.2792495    324.70004   0.10407053   0.10786617            1 
  261000    1.2008549   -2.2696068    325.37117   0.10388607   0.10787541            1 
  262000    1.2147215   -2.2773083    326.70773   0.10391467   0.10788235            1 
  263000    1.2200842   -2.2534323    327.11819   0.10364962   0.10788484            1 
  264000    1.2021167   -2.2747793    329.54635   0.10402347   0.10788375       -1e+20 
  265000    1.2055883   -2.2703552    329.99412   0.10377174   0.10788325            1 
  266000    1.1904263   -2.2579414    331.91438    0.1039832   0.10788232            1 
  267000    1.1994328   -2.2709586    334.09004    0.1042728   0.10788329            1 
  268000     1.211777    -2.267451    332.83991     0.103495   0.10788059            1 
  269000    1.2291773   -2.2554972    333.79112   0.10340493   0.10787428            1 
  270000    1.2228279   -2.2561505    335.64769   0.10359497   0.10786982            1 
  271000    1.1982906   -2.2443455    335.93284   0.10330038   0.10786477            2 
  272000    1.2214972   -2.2488405    337.65944   0.10344958      0.10786            2 
  273000     1.222161   -2.2320603    339.23305   0.10355099   0.10785512            3 
  274000    1.1978804   -2.2686061    342.52606   0.10417459   0.10785263            1 
  275000    1.2263505   -2.2784109    341.38002   0.10344849   0.10784657            2 
  276000    1.2075115   -2.2978344    342.52866   0.10342049   0.10783484            1 
  277000    1.2175975   -2.2925765    344.97098   0.10378188    0.1078217            3 
  278000    1.2108836   -2.2591294    347.19445   0.10407508   0.10781822            1 
  279000    1.2329674   -2.3195584    346.32434   0.10344215    0.1078134            2 
  280000    1.1939262   -2.2530792    350.88429   0.10442985   0.10781102            1 
  281000     1.208046   -2.2788705    350.41447   0.10391888   0.10780753            1 
  282000    1.2030533   -2.2925088    351.26517   0.10380176   0.10780427            2 
  283000    1.2093296   -2.2627775    352.57475    0.1038206   0.10780045            2 
  284000    1.2143848   -2.2673417    354.64716   0.10406313   0.10779537            1 
  285000    1.2064794     -2.26126    354.21809   0.10357254   0.10778896            1 
  286000    1.2245115   -2.2804456      355.187   0.10349272    0.1077811            1 
  287000    1.1851465   -2.2708867    357.87221   0.10391179   0.10777397            1 
  288000    1.2221647   -2.2685237     356.6802   0.10320607   0.10776488            1 
  289000    1.2116266   -2.2929487     358.4716   0.10336551   0.10775073            2 
  290000    1.2157808   -2.2439258    361.52901   0.10388765   0.10773372            1 
  291000    1.1828113   -2.2963344     361.6402   0.10356249    0.1077215            3 
  292000    1.2007397   -2.2651831    363.18794   0.10364953   0.10770815            1 
  293000    1.2033545   -2.2585962    364.00066   0.10352692   0.10769701            1 
  294000    1.1925138   -2.2295298    368.17528   0.10435807   0.10768778            1 
  295000    1.2133398   -2.2629042    367.31594   0.10376157   0.10768326            1 
  296000    1.1843523   -2.2810999    369.90384   0.10413959   0.10767604            1 
  297000    1.2034744   -2.2714656    369.08526   0.10355928   0.10767023            1 
  298000    1.2162773   -2.2415147     370.7629    0.1036809   0.10766195            1 
  299000    1.2311289   -2.2826829    371.68295   0.10359056   0.10765605            1 
  300000    1.1769678   -2.2951902    373.70458   0.10380683   0.10764693            2 
  301000    1.1836007   -2.2934695    373.91124   0.10351917   0.10764221            1 
  302000    1.2049066   -2.2455496    376.89991   0.10400108   0.10763991            1 
  303000    1.2007229   -2.2716705     378.7437   0.10416493   0.10764009            3 
  304000     1.198701   -2.2932243    380.33964   0.10425977   0.10763505            1 
  305000     1.176113   -2.2850427    382.67268   0.10455538   0.10763467            1 
  306000    1.2224588   -2.2714804    383.57111   0.10445836   0.10763393            1 
  307000    1.1976155   -2.3009372    382.95581   0.10395109   0.10763108            2 
  308000    1.2035978     -2.28007    384.12243   0.10392923   0.10762641       -1e+20 
  309000    1.1929058   -2.2885634    384.72343   0.10375497   0.10762435            1 
  310000    1.2185226   -2.2540262     388.7778   0.10451016   0.10762481            2 
  311000      1.21275    -2.267205    389.14391   0.10427222    0.1076238            4 
  312000    1.2009433   -2.2968317    388.79032   0.10384357   0.10761947            2 
  313000    1.2206064   -2.2604258    390.26958   0.10390564   0.10761759            1 
  314000    1.1900359   -2.2779435    392.40052   0.10414027   0.10762195            1 
  315000    1.1917191   -2.2487122    395.50379   0.10463063   0.10762584            2 
  316000    1.1848772    -2.292182     397.2453   0.10475878   0.10762694            2 
  317000    1.2049439   -2.2756468       398.18   0.10467403   0.10763154            2 
  318000    1.1918235   -2.2500793    399.43847   0.10467465   0.10763889            2 
  319000    1.2124084   -2.2694917    400.44199   0.10460867     0.107645            1 
  320000    1.1953261   -2.2824885    401.54322   0.10456855   0.10764456            3 
  321000    1.2229813   -2.2950915    401.51515    0.1042355   0.10764178            2 
  322000     1.207445   -2.3088386    405.03953   0.10482389   0.10764647            1 
  323000    1.1806393   -2.2757424    405.76709   0.10468707   0.10765111            1 
  324000    1.1726513   -2.3047776    406.73947   0.10461406   0.10765511            2 
  325000    1.2089821   -2.2771668    407.71341    0.1045419   0.10765969            2 
  326000    1.1948739   -2.2626615    407.05265   0.10405231   0.10766598            2 
  327000    1.2204922   -2.2749901    410.45623   0.10460149   0.10766787            2 
  328000    1.1983437   -2.2884574    410.78391   0.10436583   0.10766769            1 
  329000    1.1772472   -2.2924292    409.89037   0.10382228   0.10766104            1 
  330000    1.1981132   -2.2620163    412.21217   0.10409398   0.10765627            3 
  331000    1.2179414    -2.286635    414.63778   0.10439018   0.10764769            1 
  332000    1.1700037   -2.2633739    412.95141   0.10365246   0.10763509            1 
  333000     1.195434   -2.2914161    413.47648   0.10347259   0.10762318            2 
  334000    1.2156722   -2.2810481    416.17174   0.10383526   0.10761228            1 
  335000    1.1923194   -2.3116542    417.48631   0.10385231   0.10760177            1 
  336000    1.1809803   -2.2720801    419.01307   0.10392189   0.10759114            1 
  337000    1.1923075   -2.2409177    419.47258   0.10372715   0.10758053            2 
  338000     1.201245   -2.2741676    421.98461    0.1040396   0.10757249       -1e+20 
  339000    1.1620649   -2.2842813    421.16583   0.10353142   0.10756584            1 
  340000    1.1903715   -2.2949799    424.40355   0.10402048   0.10755828            1 
  341000    1.1983381   -2.2761352    424.37668   0.10370887   0.10754761            2 
  342000    1.1962794    -2.246219    426.28812   0.10387137   0.10753653            3 
  343000    1.2359507   -2.2627023    427.25365   0.10380312   0.10752345            1 
  344000     1.217167   -2.2624717      430.185   0.10421148   0.10751277            2 
  345000    1.2241125   -2.2805483    429.59035   0.10376578     0.107502            1 
  346000    1.1866763   -2.2819396    430.25778   0.10362663   0.10748771            1 
  347000    1.1901071   -2.2843996    433.10606   0.10401202   0.10747241            3 
  348000    1.2082747   -2.2689646    433.59453   0.10383011   0.10745719            2 
  349000    1.1981457   -2.2821233    433.15458   0.10342755   0.10744278            1 
  350000    1.1842157   -2.2567922    436.26789   0.10387331   0.10742891            1 
  351000    1.1811503   -2.2801092     436.5573   0.10364608   0.10741668            2 
  352000    1.1809795   -2.2965213    438.60374   0.10383611   0.10740198            3 
  353000    1.1842127   -2.2548032    441.06176   0.10412223   0.10738946            1 
  354000    1.1936999   -2.2780645    439.65238   0.10349632   0.10737795            1 
  355000     1.173491   -2.2834738    442.13555   0.10378769   0.10736279            2 
  356000    1.2094026   -2.3009263    442.28022   0.10353001   0.10734473            1 
  357000    1.1809139   -2.2727691    444.93436   0.10385956    0.1073301            2 
  358000    1.1977623   -2.2759723    446.14494   0.10385124   0.10731481            1 
  359000    1.2003199   -2.2745289    445.20062   0.10334276   0.10729999            1 
  360000    1.1866892   -2.2910825    449.16562   0.10397352   0.10728822            1 
  361000    1.2177272   -2.2880891    450.29892   0.10394712   0.10727468            2 
  362000    1.1796013   -2.2871632    449.92667   0.10357428   0.10726137            2 
  363000    1.1906792   -2.2851326    450.92485    0.1035181   0.10724749            1 
  364000    1.1795098    -2.290349    453.55118   0.10383498   0.10723749            2 
  365000    1.2094955   -2.2866195    455.86699   0.10407922   0.10722785            2 
  366000    1.2023405    -2.292534    456.79673   0.10400654   0.10721597            1 
  367000    1.2088677   -2.2865794     456.7501   0.10371256    0.1072067            1 
  368000     1.188871   -2.2819384    457.36802   0.10357066   0.10719424            1 
  369000    1.1833301   -2.2941822     458.7459   0.10360115   0.10717773            2 
  370000    1.1947742   -2.2880242    461.99159   0.10405216   0.10716314            2 
  371000    1.1706152   -2.2855664    462.28345   0.10383725   0.10714899            3 
  372000     1.198856   -2.2906421    464.36336   0.10402405   0.10713038            2 
  373000    1.1884835   -2.3161448    464.16374   0.10370057   0.10711685            1 
  374000    1.1960797   -2.2852824    467.95601   0.10426827   0.10710728            2 
  375000    1.2013232    -2.270449    467.32003    0.1038489   0.10709646            3 
  376000    1.1883195    -2.306679    470.04524   0.10417669   0.10708357            1 
  377000    1.1984268   -2.2796701    467.05131   0.10323857   0.10707025            1 
  378000    1.1943287   -2.2697419    468.06783   0.10318956   0.10705634            2 
  379000     1.194787   -2.3046627    472.03103    0.1037887   0.10703945            1 
  380000    1.1788685   -2.3029911    470.97451   0.10328388   0.10702222            3 
  381000    1.2085158   -2.2750539    469.77691   0.10275086   0.10700087            3 
  382000    1.2141524   -2.2445719     474.3609   0.10348187   0.10698257            2 
  383000     1.194209   -2.2980721    473.12311   0.10294236   0.10696532            1 
  384000    1.1919768   -2.3051054    476.79811   0.10347181   0.10694893            2 
  385000    1.1900635   -2.2734894    477.71434   0.10340137   0.10693124            1 
  386000    1.2036727   -2.2806667    478.03537    0.1032028     0.106913            2 
  387000    1.1759213   -2.2779885    480.71979   0.10351417   0.10689874            1 
  388000    1.1734973   -2.3130435    479.90274   0.10307189   0.10688236            1 
  389000    1.2205394   -2.2843744    482.80717   0.10342913   0.10686462            1 
  390000    1.2068201   -2.2824387    483.52098   0.10331645     0.106846            2 
  391000    1.1844142   -2.2671337    484.03793   0.10316239   0.10683144            1 
  392000    1.1835144    -2.322877    487.00543   0.10353007   0.10681606            1 
  393000    1.1855694   -2.2801059     486.7765   0.10321809   0.10680113            1 
  394000    1.2052453   -2.2683831    490.98586   0.10384642   0.10678692            1 
  395000    1.1915956   -2.3007238    489.96964   0.10336912   0.10677115            1 
  396000    1.1891162   -2.2971249    493.03787   0.10375376   0.10675774            1 
  397000     1.174127   -2.2800736     493.7921   0.10365073   0.10674139            1 
  398000     1.214395   -2.3029753    495.07715   0.10365937   0.10672779            1 
  399000    1.1776058   -2.2788191    495.62086   0.10351313   0.10671424            2 
  400000    1.1998297   -2.2750308    499.66519   0.10409691   0.10670347            1 
  401000    1.1911291   -2.2929739    497.92025    0.1034747     0.106694            2 
  402000    1.1999143   -2.2829662    500.71103   0.10379582   0.10668182            3 
  403000    1.1673474    -2.286552    500.52106   0.10349898   0.10667222            2 
  404000    1.1770166   -2.2868356    501.68657    0.1034832   0.10666288            1 
  405000    1.1779835   -2.2683623    503.77376   0.10365715   0.10665454            2 
  406000    1.1874852   -2.2993919    505.22109   0.10369891   0.10664413            2 
  407000    1.1919908   -2.2950813    507.41788   0.10389391   0.10663478            1 
  408000    1.1835786   -2.2983238    510.04987   0.10417685   0.10662641            1 
  409000    1.1909644   -2.2964852    507.03219   0.10330729   0.10661366            1 
  410000    1.1847104   -2.2891917    508.45911   0.10334535   0.10660312            4 
  411000    1.1738417     -2.30128    511.53937   0.10371844   0.10659148            1 
  412000    1.1931719   -2.2751393    512.51356   0.10366375   0.10658324            1 
  413000    1.2014224   -2.2775119    515.06649   0.10392786   0.10657418            1 
  414000    1.1984317   -2.2889321    513.02947    0.1032668    0.1065672            2 
  415000    1.2041092   -2.2766572    516.82664   0.10378045   0.10655611            1 
  416000    1.1735813   -2.2879743    517.90042   0.10374608   0.10654496            1 
  417000    1.1918422   -2.3022792    521.41112   0.10419887   0.10653626            1 
  418000    1.2004966   -2.3146313     521.7762   0.10402237   0.10652865            2 
  419000    1.1843652   -2.2775115    524.48364   0.10431258   0.10652275            1 
  420000     1.199474    -2.283204      523.459   0.10386091   0.10651722            2 
  421000    1.1590163   -2.2903472    524.92484   0.10390436   0.10651193            2 
  422000    1.1913445   -2.3170919     527.9469   0.10425492   0.10650625            3 
  423000    1.2051315   -2.3001844    529.33958   0.10428282   0.10650225            2 
  424000    1.2126626   -2.3032918    529.29551   0.10402821   0.10649853            2 
  425000    1.1890507   -2.2891746    530.26717   0.10397395    0.1064951            3 
  426000    1.1740465    -2.313389    530.15078   0.10370712   0.10648757            2 
  427000    1.1807787   -2.2902367    532.68429   0.10395868   0.10647929            2 
  428000    1.1829247   -2.2781181    534.46467   0.10406243     0.106472            2 
  429000    1.1902626   -2.2858311    534.14394   0.10375756   0.10646293            1 
  430000     1.188887   -2.2698968    536.85278   0.10404124   0.10645095            2 
  431000    1.1841581   -2.2753784    535.56345   0.10355055   0.10643751            3 
  432000    1.1835664   -2.2995101    537.05864   0.10359927   0.10642505            1 
  433000    1.1755198   -2.3071775    536.93474   0.10333617   0.10641371            1 
  434000    1.1889196   -2.3062039    538.86973   0.10346961    0.1063999            1 
  435000    1.1535191   -2.3189238    540.98493   0.10363696   0.10638714            3 
  436000    1.2052833   -2.3182583    538.92061    0.1030047   0.10637392            1 
  437000    1.1771168   -2.3211662    541.23351   0.10321005   0.10636023            1 
  438000    1.1846007   -2.2997184    542.60524    0.1032354   0.10634967            4 
  439000    1.2083461   -2.3347009    544.07022   0.10327833   0.10633913            1 
  440000    1.2107996   -2.2993291    546.56743   0.10351656   0.10632977            1 
  441000    1.1810833   -2.2918499    546.69448   0.10330584    0.1063201            1 
  442000    1.1856473   -2.2900162    549.96441   0.10368861   0.10631007            1 
  443000    1.1882721   -2.2915784    548.90019   0.10325436       0.1063            3 
  444000    1.1678846   -2.3122269    550.76338   0.10337151   0.10628799            1 
  445000     1.162985   -2.3121345    552.33234   0.10343302   0.10627736            1 
  446000    1.1792261   -2.2765423    554.20294   0.10355062   0.10626592            3 
  447000    1.1788883   -2.3044237    556.71184    0.1037867   0.10625466            2 
  448000    1.1924094   -2.2801319    556.06192   0.10343414   0.10624314            1 
  449000    1.2097564   -2.2927358    558.66362   0.10368664   0.10623433            1 
  450000    1.1555354   -2.3335637    558.36323    0.1034006   0.10622333            2 
  451000    1.1548147   -2.3030724    560.20614   0.10351185   0.10621253            4 
  452000    1.1891638   -2.3118216    562.33603   0.10367552   0.10620237            1 
  453000    1.1767892   -2.2741816    563.07589   0.10358276   0.10619059            1 
  454000     1.181466   -2.3077697    564.08222   0.10353932   0.10618113            3 
  455000    1.1832032   -2.2735047    566.87428   0.10382313   0.10617155            1 
  456000    1.1708818    -2.335485    565.22874   0.10329473   0.10616117            2 
  457000    1.1830605   -2.2860033    568.02629   0.10357883   0.10615252            1 
  458000    1.1720636   -2.2617396    571.44818   0.10397529   0.10614267            3 
  459000    1.1653326   -2.3034187    568.33885   0.10318425   0.10613062            2 
  460000    1.1673827   -2.3052635      570.893   0.10342265   0.10611882            3 
  461000    1.1957408   -2.3253749    573.18056   0.10361182   0.10610794            4 
  462000    1.1677365    -2.280656    574.36656   0.10360147   0.10609806            1 
  463000     1.164689   -2.3196756     576.6875   0.10379545   0.10608745            2 
  464000    1.1788329   -2.3140673    575.66761   0.10338858   0.10607554            1 
  465000    1.1690997     -2.30822     577.0058   0.10340606   0.10606524            3 
  466000    1.1634247   -2.3104287    577.32008   0.10324036   0.10605286            3 
  467000    1.1646933   -2.3059136     579.9312   0.10348522   0.10603716            2 
  468000    1.1755326    -2.293045    579.61596   0.10320797   0.10602304            2 
  469000    1.1696168   -2.3157682    578.09209   0.10271714   0.10600746            1 
  470000    1.1658003   -2.3027454    581.52722   0.10310766   0.10599413            3 
  471000     1.209721   -2.2891892    584.34743   0.10338773   0.10598067            3 
  472000    1.1971341   -2.3356323    581.84762   0.10272733   0.10596296            1 
  473000    1.1524095    -2.281457    585.51841   0.10315687   0.10594523            1 
  474000    1.2006505   -2.2751701    588.27503   0.10342388   0.10592828            1 
  475000    1.1770611   -2.2970099    584.46384   0.10253752   0.10591079            3 
  476000      1.15628   -2.3227038    587.00735   0.10276739   0.10589028            2 
  477000    1.1751041   -2.3125837    589.13237   0.10292319   0.10587126            3 
  478000    1.1806682   -2.3090879    587.95104   0.10250192    0.1058532            5 
  479000    1.1988232   -2.2945128    593.70681   0.10328929   0.10583509            1 
  480000    1.1735142    -2.281682    593.43412   0.10302676   0.10581818            2 
  481000     1.194308   -2.2804128    594.54849   0.10300563   0.10580156            1 
  482000    1.1909542   -2.3221241    594.41115   0.10276818   0.10578504            1 
  483000    1.1398073   -2.2954689    596.05535   0.10283909   0.10576881            1 
  484000    1.2081645   -2.3242193    598.12958   0.10298374     0.105751            2 
  485000    1.1673968   -2.3102643    596.95434   0.10256947   0.10573325            2 
  486000    1.1470659   -2.3040048     598.4412   0.10261338   0.10571228            1 
  487000    1.1558296   -2.3165015    599.18632   0.10253017   0.10569421            2 
  488000    1.1722434   -2.2782811    598.55622   0.10221247   0.10567314            1 
  489000    1.1607797   -2.3020376    601.20709    0.1024552   0.10565155            1 
  490000    1.1804938   -2.3210139    602.06182   0.10239147   0.10562911            2 
  491000    1.1712988   -2.3102045    601.90525   0.10215636   0.10560539            2 
  492000    1.1405224   -2.3254519    602.56302   0.10206013   0.10558338            3 
  493000    1.1617359   -2.2825663    607.70097    0.1027216   0.10556169            1 
  494000    1.1658841    -2.278521    606.41069     0.102296   0.10553835            3 
  495000    1.1876965   -2.3082112    609.88496   0.10267423   0.10551705            1 
  496000    1.1819637   -2.3170041    610.07704    0.1024995   0.10549573            2 
  497000    1.1742071   -2.3035471      610.211   0.10231573   0.10547249            2 
  498000    1.1298891   -2.3059518    613.10419   0.10259441   0.10545194            2 
  499000    1.1660864   -2.3233616    613.07236   0.10238349   0.10543114            1 
  500000    1.1652489   -2.2805895    615.94266   0.10265711   0.10541255            2 
  501000    1.1781837   -2.3175961    615.81137   0.10243037   0.10539373            2 
  502000    1.1762824   -2.3144332     617.1241   0.10244424   0.10537374            2 
  503000    1.1971124   -2.2948211    616.34295   0.10211116   0.10535272            1 
  504000    1.1751238   -2.3357733    619.31006   0.10239915   0.10533311            3 
  505000    1.2002737   -2.2791676    620.95656   0.10246808   0.10531178            2 
  506000    1.1644413   -2.3318558    621.49272   0.10235387   0.10529006            3 
  507000    1.1825047   -2.2870979    623.87771     0.102544   0.10527083            5 
  508000     1.182914   -2.3095185    622.25461   0.10207589   0.10525336            3 
  509000    1.1628316   -2.3126924    625.05315   0.10233352   0.10523502            1 
  510000    1.1704354   -2.2898633    622.29593   0.10168234   0.10521566            2 
  511000    1.1638041   -2.2891208    628.29804   0.10246217   0.10519409            1 
  512000    1.1807481    -2.294752    628.94331   0.10236707   0.10517336            2 
  513000    1.1503281   -2.2734024    626.78018   0.10181614   0.10515284            1 
  514000    1.1556064   -2.3047195    632.51601   0.10254799    0.1051329            1 
  515000    1.1711347   -2.2989672    629.43972   0.10185109   0.10511324            2 
  516000    1.1712598   -2.3039275    632.83132   0.10220144   0.10509609            1 
  517000    1.1572936    -2.281701    635.40713   0.10241894   0.10507876            1 
  518000    1.1445365   -2.3204628    637.57403   0.10256982   0.10506348            2 
  519000    1.1629645   -2.2931523    639.02893    0.1026058   0.10504537            1 
  520000    1.1614117   -2.3119145    639.65482   0.10250879   0.10502913            1 
  521000    1.1890464   -2.3062274      639.299   0.10225512    0.1050119            1 
  522000    1.1646134   -2.2967017    639.98712   0.10216908   0.10499449            1 
  523000    1.1764857   -2.3132099    638.08952   0.10167137   0.10497567            1 
  524000    1.1903862   -2.3331834    644.39405   0.10247997   0.10495383            2 
  525000    1.1658023   -2.3109069    644.35584    0.1022787   0.10493462            2 
  526000     1.171747   -2.2808851    644.21659    0.1020622   0.10491521            1 
  527000    1.1549976   -2.3209897     645.8931   0.10213363   0.10489523            2 
  528000    1.1766467   -2.3049219    647.26086   0.10215607    0.1048764            1 
  529000    1.1386911   -2.2952995    648.60691     0.102175   0.10485617            3 
  530000    1.1876765   -2.3446678    648.17493    0.1019143   0.10483482            1 
  531000    1.1999852   -2.3134526    646.89946    0.1015222   0.10481184            2 
  532000    1.1533235   -2.2997646    649.59361   0.10175338   0.10478786            3 
  533000    1.1582163   -2.2893981    649.12017   0.10148846   0.10476436            1 
  534000    1.1706598   -2.2958054    652.17162    0.1017746   0.10473898            1 
  535000     1.157707   -2.3215232    652.82888   0.10168674   0.10471559            2 
  536000    1.1444869   -2.3085783     654.8132   0.10180553   0.10469362            1 
  537000    1.1915334   -2.3151203    654.68837   0.10159658   0.10467125            2 
  538000    1.1647285    -2.309929    654.98236   0.10145328   0.10464938            1 
  539000    1.1498837   -2.2973007    658.69947   0.10183974    0.1046263            1 
  540000    1.1638809   -2.3207794      658.504   0.10162099   0.10460366            2 
  541000    1.1489211   -2.3152907    659.26148   0.10154983   0.10458368            3 
  542000    1.1646635   -2.3247091    660.24501   0.10151369   0.10456171            2 
  543000    1.1599603   -2.3367633     665.5441   0.10213998   0.10454274            1 
  544000     1.200096   -2.2798838    668.67733   0.10243219   0.10452532            1 
  545000    1.1613926   -2.3166538    667.25277   0.10202642   0.10450592            2 
  546000     1.152613    -2.305107     668.0143   0.10195578   0.10448612            1 
  547000    1.1703645   -2.3138834    668.54036   0.10184954   0.10446556            3 
  548000    1.1677564   -2.3350267    671.50125   0.10211394   0.10444661            1 
  549000    1.1639105   -2.3153873    671.42935   0.10191702    0.1044289            3 
  550000     1.163875   -2.3126435    669.49124   0.10143807    0.1044099            2 
  551000    1.1655188   -2.3264389    671.17103   0.10150802   0.10439214            3 
  552000    1.1523365   -2.3216257    673.37098   0.10165625   0.10437286            3 
  553000    1.1578092   -2.3162342    674.38087    0.1016246   0.10435399            1 
  554000    1.1628094   -2.3049756    679.20287    0.1021665   0.10433599            1 
  555000    1.1833261   -2.3199796    679.44344   0.10201853   0.10431855            3 
  556000    1.1671382   -2.3064856    681.83069   0.10219285   0.10430103            1 
  557000    1.1705154   -2.3305414    680.70834   0.10184146   0.10428258            3 
  558000    1.1771186   -2.3374705    682.20775   0.10188288   0.10426384            1 
  559000    1.1399651   -2.3057399    683.99974   0.10196776   0.10424578            4 
  560000    1.1498472   -2.3009446    686.30397   0.10212857    0.1042298            2 
  561000    1.1617434   -2.3246489    688.15174     0.102221   0.10421513            1 
  562000    1.1698226   -2.3139699    686.06977   0.10173039   0.10420195            1 
  563000    1.1503491   -2.3325004    687.17841    0.1017138   0.10418672            1 
  564000    1.1736009   -2.3241844     689.3752   0.10185804   0.10417176            3 
  565000    1.1688378   -2.3312447    691.91386   0.10205219   0.10415883            2 
  566000    1.1749167   -2.3186285    692.37807   0.10194023   0.10414505            2 
  567000    1.1555942   -2.3136348    693.09537   0.10186587   0.10413249            1 
  568000    1.1532239   -2.3126392    695.09214   0.10197948   0.10411988            1 
  569000    1.1599281   -2.3302266    697.15089   0.10210177   0.10410639            1 
  570000     1.165463   -2.3089864    699.36067   0.10224571   0.10409056            1 
  571000    1.1637871   -2.3432374    697.81807   0.10184152   0.10407554            1 
  572000    1.1640833   -2.3257329     697.2526   0.10158109   0.10406023            3 
  573000    1.1753473    -2.306529    697.71066   0.10147043   0.10404457            1 
  574000     1.147433   -2.3292689     702.6978   0.10201768   0.10402831            3 
  575000    1.1808455   -2.3250652     703.2409   0.10191897   0.10401274            2 
  576000    1.1543578   -2.3553546    702.19982   0.10159141   0.10399598            2 
  577000     1.151461   -2.3198209    700.85355   0.10122091    0.1039783            2 
  578000    1.1660383   -2.3001826    703.87783   0.10148181   0.10395911            1 
  579000    1.1658123   -2.3426175     705.5204   0.10154295   0.10394093            1 
  580000    1.1769447   -2.3167469    706.05977   0.10144537   0.10392212            2 
  581000    1.1537974   -2.3161046    709.33092   0.10173995   0.10390401            2 
  582000    1.1364014   -2.3128845    708.23061   0.10140759   0.10388654            2 
  583000    1.1728087    -2.336922     710.4649   0.10155302   0.10387025            2 
  584000    1.1368101   -2.3186741    713.05836   0.10174919   0.10385194            1 
  585000    1.1566492   -2.2880267    719.06049   0.10243027   0.10383749            1 
  586000    1.1661266   -2.3231205    715.90516   0.10180676   0.10382491            1 
  587000    1.1345424   -2.3237555    718.39748   0.10198715   0.10381084            1 
  588000    1.1752497   -2.2949429    719.17383   0.10192373   0.10379884            3 
  589000    1.1764799   -2.3073942    721.61521    0.1020961   0.10378529            2 
  590000    1.1392028   -2.3302625     718.3863   0.10146699   0.10377482            2 
  591000     1.154688   -2.3184386     721.5702   0.10174425   0.10376049            1 
  592000     1.189345   -2.2923174    724.98595    0.1020532    0.1037468            2 
  593000    1.1467318   -2.3160595    723.69301   0.10169941   0.10373544            3 
  594000    1.1544702   -2.2945923    727.83307   0.10210902   0.10372278            2 
  595000    1.1364129    -2.285373    728.76099   0.10206737   0.10371156            1 
  596000    1.1519216   -2.2924303    729.71416   0.10202939   0.10369911            4 
  597000    1.1581331   -2.3316411    734.18569   0.10248265   0.10368724            2 
  598000    1.1513855   -2.3110225    729.87153   0.10171008   0.10367589            1 
  599000    1.1558332   -2.3349999    732.75311   0.10194117   0.10366462            1 
  600000    1.1457572   -2.2998454    734.19934   0.10197213   0.10365459            1 
  601000    1.1477385   -2.3309956    731.82666   0.10147347   0.10364432            1 
  602000    1.1441431   -2.3311948    738.15956   0.10218156   0.10363293            1 
  603000    1.1174472   -2.3227207    735.22538    0.1016066   0.10362111            2 
  604000    1.1387728    -2.307009    734.01023   0.10127073   0.10360913            1 
  605000    1.1794338   -2.3349643    737.95919   0.10164727   0.10359689            2 
  606000    1.1463052   -2.3362006    742.85364   0.10215259   0.10358509            2 
  607000      1.13059   -2.2829447    742.58943   0.10194803   0.10357579            1 
  608000    1.1671924   -2.3246243    744.71644   0.10207188   0.10356706            1 
  609000     1.153498    -2.345493    745.30543   0.10198487   0.10355658            2 
  610000    1.1336706   -2.3358478    744.68423   0.10173282   0.10354693            4 
  611000     1.151154   -2.3197345    749.58145   0.10223424   0.10353943            2 
  612000    1.1554489   -2.3034493    749.81076   0.10209842   0.10353138            3 
  613000    1.1649297   -2.3433646    749.61777   0.10190562    0.1035249            1 
  614000    1.1713842    -2.322741    752.77932   0.10216875   0.10351688            1 
  615000    1.1559298   -2.3205732    749.82683   0.10160255   0.10350768            1 
  616000     1.153863   -2.3313531    755.90502   0.10225988    0.1035008            1 
  617000    1.1344916   -2.3429416    755.02517   0.10197531   0.10349241            3 
  618000    1.1628668   -2.3107119     758.5715    0.1022885   0.10348519            1 
  619000    1.1784628    -2.338467    761.43241    0.1025084   0.10347857            2 
  620000    1.1627675   -2.3256304    762.62344   0.10250315    0.1034713            1 
  621000    1.1709476   -2.3219952    764.01088   0.10252427   0.10346427            1 
  622000    1.1522861   -2.3188937    766.75395   0.10272695   0.10345966            1 
  623000    1.1742445   -2.3445347    762.44386   0.10198553   0.10345137            2 
  624000    1.1304596   -2.3329822    766.68903   0.10238903   0.10344498            1 
  625000    1.1453338   -2.3341037    768.15598    0.1024208   0.10344012            2 
  626000     1.160013   -2.3370751    768.15741   0.10225738   0.10343476            1 
  627000    1.1398994   -2.3384905    769.26682   0.10224174   0.10342922            1 
  628000    1.1368462   -2.3136047    774.93121   0.10283057   0.10342288            2 
  629000    1.1840321   -2.3238263    774.90739   0.10266394   0.10341697            3 
  630000    1.1508345   -2.3332389    771.96493   0.10211176   0.10341199            2 
  631000    1.1678998   -2.3330028    773.61229    0.1021675   0.10340466            2 
  632000    1.1733321   -2.3150611    774.95445   0.10218281   0.10339728            1 
  633000    1.1736519   -2.3127828    777.33069   0.10233421   0.10339169            2 
  634000    1.1252961   -2.2978871    777.54431   0.10220088   0.10338532            1 
  635000    1.1595357   -2.3476865    777.94585   0.10209263   0.10338048            6 
  636000     1.149004   -2.3154162     781.4447   0.10239055   0.10337431            2 
  637000     1.116677   -2.3260146     783.9396    0.1025562   0.10336818            1 
  638000     1.128371   -2.3207101    781.80318    0.1021164   0.10336315            2 
  639000    1.1283478   -2.3248957    779.17466   0.10161381   0.10335786            1 
  640000    1.1380234   -2.2931278    782.81614   0.10192918   0.10335209            1 
  641000     1.155518   -2.3268156    786.57096   0.10225832   0.10334699            2 
  642000    1.1701043   -2.3271358    791.85069   0.10278436    0.1033432            2 
  643000    1.1600845   -2.3265375    794.53609   0.10297254   0.10333764            2 
  644000    1.1527355   -2.3345685    787.02017   0.10184008   0.10333299            2 
  645000    1.1557331   -2.3234164     793.9733   0.10258053   0.10332875            1 
  646000    1.1376797   -2.3363948    793.98923   0.10242379   0.10332503            3 
  647000    1.1599385   -2.3576432    788.28697   0.10153104   0.10332041            2 
  648000    1.1237373   -2.3367029    793.93608   0.10210083   0.10331699            1 
  649000    1.1503869   -2.3335913    797.41671   0.10239044    0.1033124            2 
  650000    1.1548387   -2.3094635    799.19884   0.10246139   0.10330666            1 
  651000    1.1680093   -2.3391082     799.5404   0.10234772   0.10330225            1 
  652000    1.1680311   -2.3214784    797.65575   0.10194987   0.10329816            2 
  653000    1.1564074   -2.3313704    800.45171   0.10215055   0.10329478            2 
  654000    1.1252984   -2.3300004    802.11067   0.10220574   0.10329045            2 
  655000    1.1393731   -2.3081523    804.70889   0.10238027   0.10328704            2 
  656000    1.1542864   -2.3002904    807.91977   0.10263208   0.10328432            1 
  657000    1.1536061   -2.3406275    808.06081   0.10249376   0.10328139            2 
  658000    1.1611164   -2.3502324    808.31697   0.10237044   0.10327731            1 
  659000    1.1289107   -2.3076507    808.54664   0.10224414   0.10327156            3 
  660000    1.1348325   -2.3290812    806.30376   0.10180603   0.10326629            2 
  661000    1.1710747   -2.3424489    815.22872    0.1027772    0.1032623            2 
  662000    1.1419197   -2.3424366    811.60498   0.10216578   0.10325642            3 
  663000    1.1413217   -2.3486434    810.73787    0.1019027    0.1032505            3 
  664000    1.1399289   -2.3386729    814.51456   0.10222321   0.10324391            1 
  665000    1.1680335   -2.3231472    816.64973   0.10233706   0.10323768            6 
  666000     1.138276   -2.3051143    816.13323   0.10211877   0.10323432            1 
  667000    1.1280683    -2.317919     818.8243   0.10230189   0.10322983            1 
  668000    1.1447194   -2.3492205    816.78257   0.10189403   0.10322516            2 
  669000    1.1442395   -2.3421537    825.77056   0.10286131   0.10322038            2 
  670000    1.1576426   -2.3194354    823.06955   0.10237183   0.10321501            1 
  671000    1.1338343   -2.3181947    825.93881   0.10257561   0.10321175            2 
  672000    1.1615614   -2.3085288    822.54584   0.10200221   0.10320502            4 
  673000    1.1646212   -2.3188565      820.246   0.10156587    0.1031989            3 
  674000    1.1213135   -2.3204002    821.98784   0.10163054   0.10319182            2 
  675000    1.1357215   -2.3754146    823.80831   0.10170473   0.10318542            2 
  676000    1.1558861   -2.3301865    830.85485   0.10242294   0.10317938            1 
  677000    1.1453524   -2.2957775    830.52837   0.10223146   0.10317426            1 
  678000    1.1650324   -2.3407181    831.11381   0.10215263   0.10316962            2 
  679000    1.1545622   -2.3404857    832.59455   0.10218392   0.10316421            1 
  680000    1.1495224   -2.3203291    834.67048   0.10228805   0.10316065            1 
  681000    1.1627223   -2.3318519    839.42824   0.10272005   0.10315715            1 
  682000    1.1417596   -2.3213633    835.21128   0.10205416   0.10315324            2 
  683000    1.1464406   -2.3149738    839.28349    0.1024016   0.10314966            1 
  684000    1.1412145   -2.3230491    837.94965   0.10208938   0.10314385            2 
  685000    1.1126984   -2.3234909    838.36031    0.1019903   0.10313667            2 
  686000    1.1362052   -2.3078651     840.7761   0.10213509   0.10313101            2 
  687000    1.1242595   -2.3399365    840.81433   0.10199106   0.10312358            5 
  688000    1.1670393   -2.3260559    843.01801   0.10210974   0.10311821            1 
  689000    1.1428293   -2.3353476    842.83724   0.10193968   0.10311224            1 
  690000    1.1371418   -2.3266155    844.20915   0.10195763   0.10310592            1 
  691000    1.1497664   -2.3221517    843.35674   0.10170728   0.10310017            1 
  692000    1.1336826   -2.3227289    846.85989   0.10198216   0.10309294            3 
  693000    1.1563301   -2.3403301    847.28289   0.10188587   0.10308514            2 
  694000     1.127762    -2.322327    848.13058   0.10184085   0.10307576            1 
  695000    1.1531878    -2.341915    852.21898   0.10218453   0.10306722            5 
  696000    1.1420665    -2.334296    846.71603   0.10137884   0.10305859            2 
  697000    1.1640362   -2.3399058    853.71623   0.10207033   0.10304972            1 
  698000    1.1162572   -2.3175838    847.98868   0.10124029   0.10304151            2 
  699000    1.1611284    -2.348914    857.45097   0.10222353   0.10303332            1 
  700000    1.1170157    -2.368334    852.43986   0.10148094   0.10302496            2 
  701000    1.1539622   -2.3517013    853.81176   0.10149926   0.10301436            2 
  702000    1.1447668   -2.3552489    855.82626   0.10159381   0.10300497            1 
  703000    1.1221713   -2.3543116    854.70755   0.10131668   0.10299647            1 
  704000    1.1539906   -2.3431681    858.86364   0.10166473   0.10298839            1 
  705000    1.1414303   -2.3577248     859.3724   0.10158066   0.10297976            2 
  706000    1.1501061   -2.3354749    865.06245   0.10210841   0.10296993            2 
  707000    1.1377313   -2.3303486    862.58244   0.10167167   0.10296103            1 
  708000    1.1417014   -2.3354717    865.31672    0.1018499   0.10295309       -1e+20 
  709000    1.1408807    -2.348858    861.47536   0.10125474   0.10294441            1 
  710000    1.1500744   -2.3535878    867.94252   0.10187119   0.10293582            1 
  711000    1.1384101    -2.314385    870.49561   0.10202715   0.10292789            2 
  712000    1.1482482   -2.3444615    871.59304   0.10201229    0.1029202            1 
  713000    1.1452661   -2.3422531    869.30351   0.10160163   0.10291249            2 
  714000    1.1421785   -2.3429727    871.34444   0.10169753   0.10290495            2 
  715000     1.114848   -2.3407022    871.21034   0.10153967   0.10289777            1 
  716000    1.1469616   -2.3394888    873.86239   0.10170652   0.10289101            3 
  717000    1.1562358   -2.3713504    874.31299   0.10161704   0.10288378            2 
  718000    1.1413449   -2.3288452    873.56084   0.10138821   0.10287476            3 
  719000    1.1330677   -2.3234777    876.48227    0.1015858   0.10286638            3 
  720000    1.1540996   -2.3258148    875.12947   0.10128813   0.10285796            2 
  721000    1.1387043   -2.3424979    880.60876   0.10178095   0.10284953            1 
  722000    1.1496887   -2.3133263     878.3884    0.1013837   0.10284129            2 
  723000    1.1555814    -2.343875    880.08638   0.10143919   0.10283282            1 
  724000    1.1298279   -2.3365136    882.95966    0.1016298   0.10282383            1 
  725000    1.1381378   -2.3464879    879.48237   0.10108993   0.10281531            2 
  726000    1.1483449   -2.3290496    884.55736   0.10153321   0.10280711            1 
  727000    1.1262688   -2.3279646    888.04249   0.10179304   0.10279705            1 
  728000    1.1501675     -2.33283    886.51009    0.1014778   0.10278848            2 
  729000    1.1332527   -2.3348138    884.99049   0.10116489   0.10278042            4 
  730000    1.1320026   -2.3516422    884.82196   0.10100707   0.10276994            1 
  731000    1.1353522   -2.3548719    887.80458   0.10120891   0.10275885            1 
  732000    1.1367272   -2.3144922    887.59197   0.10104644   0.10274804            3 
  733000    1.1507413   -2.3481412     890.2647   0.10121245    0.1027372            5 
  734000    1.1188525   -2.3330656    889.25945   0.10096043   0.10272517            3 
  735000    1.1506914   -2.3490927    892.22711   0.10115954   0.10271423            3 
  736000    1.1460145    -2.358604    894.56197   0.10128646   0.10270366            1 
  737000    1.1511606   -2.3487565    892.09048   0.10086957   0.10269151            1 
  738000    1.1553311   -2.3587532    896.70917   0.10125442   0.10267907            1 
  739000    1.1374657   -2.3704674    893.52918   0.10075882   0.10266778            2 
  740000    1.0891122   -2.3524667    898.85054   0.10122191   0.10265537            2 
  741000    1.1166802   -2.3197282    897.00654   0.10087793    0.1026439            1 
  742000    1.1294508   -2.3478183    895.42375   0.10056421   0.10263276            1 
  743000    1.1388813   -2.3632221    901.13743    0.1010697   0.10262126            2 
  744000    1.1130339   -2.3145763    902.35568    0.1010703   0.10260995            2 
  745000    1.1263543   -2.3587277     905.2724    0.1012609   0.10259813            2 
  746000    1.1477306   -2.3359324    905.43073   0.10114284   0.10258549            1 
  747000    1.1386911   -2.3469984    905.21793    0.1009837    0.1025742            2 
  748000     1.141131    -2.350637    903.63821   0.10067271   0.10256156            3 
  749000    1.1391688   -2.3243817    905.41136   0.10073558    0.1025475            1 
  750000    1.1334646   -2.3492056    905.12622   0.10056958   0.10253454            1 
  751000    1.1179779   -2.3451723    908.20964   0.10077781   0.10252113            2 
  752000    1.1564376   -2.3369495    907.95931   0.10061606   0.10250693            3 
  753000    1.1303721   -2.3494717    909.30083    0.1006309   0.10249247            3 
  754000    1.1390385   -2.3344063    913.52924   0.10096477   0.10247867            1 
  755000    1.1247878   -2.3555228    912.86192   0.10075739   0.10246491            1 
  756000    1.1119884   -2.3400034     909.4452   0.10024749   0.10245056            2 
  757000     1.136358   -2.3331305    913.62385   0.10057506   0.10243494            2 
  758000    1.1228798   -2.3382535    913.42987   0.10042105   0.10241905            3 
  759000    1.1405159   -2.3446623    915.84119   0.10055349   0.10240423            2 
  760000    1.1235963   -2.3649001    918.59048   0.10072264   0.10239065            1 
  761000    1.1561712   -2.3302969     925.1998   0.10131404   0.10237738            3 
  762000    1.1164133   -2.3562654    923.53776   0.10099932   0.10236489            2 
  763000    1.1195847   -2.3200685    920.04403   0.10048537   0.10235189            1 
  764000    1.1313506   -2.3601186    920.99737   0.10045783   0.10233921            1 
  765000    1.1376166   -2.3654976    921.20277   0.10034889   0.10232523            1 
  766000    1.1427511   -2.3913018    922.52484   0.10036171   0.10231111            2 
  767000    1.1242281   -2.3375353     924.1709    0.1004097   0.10229793            1 
  768000    1.1223442   -2.3501041     928.1568   0.10071146   0.10228523            2 
  769000    1.1253431   -2.3699581    922.63542  0.099982165   0.10227177            1 
  770000    1.1435788    -2.346029    926.96013   0.10032036   0.10225691            2 
  771000    1.1343339   -2.3511864    925.79278   0.10006407   0.10224277            2 
  772000     1.134884   -2.3359888    928.91821   0.10027183   0.10222703            1 
  773000    1.1380057   -2.3466593    929.57164   0.10021255   0.10221239            1 
  774000     1.114644   -2.3572409      930.674   0.10020177    0.1021975            2 
  775000    1.1271352    -2.367538    929.71658  0.099969525   0.10218059            2 
  776000    1.1204252   -2.3429801    929.10516  0.099775039    0.1021646            1 
  777000    1.1105458    -2.345791    935.17931   0.10029808   0.10214905            2 
  778000    1.1336638   -2.3273095    935.14167   0.10016513   0.10213255            1 
  779000    1.1453054   -2.3482859    936.19067   0.10014877   0.10211601            1 
  780000    1.1260582   -2.3587399    939.92893   0.10041976   0.10210006            2 
  781000    1.1280501   -2.3273934    940.05851   0.10030501   0.10208459            1 
  782000     1.107805   -2.3486119    939.85525   0.10015508   0.10207072            1 
  783000     1.113969   -2.3652354    941.20716   0.10017105   0.10205558            3 
  784000    1.1314197   -2.3557704    944.67487   0.10041187   0.10204023            1 
  785000     1.118742   -2.3495179    941.48437  0.099945262   0.10202405            4 
  786000    1.1393787   -2.3600379    944.31985   0.10011873   0.10200854            1 
  787000    1.1408567   -2.3586734    940.85696  0.099624837   0.10199198            2 
  788000     1.129059   -2.3447676    942.84726  0.099708889   0.10197586       -1e+20 
  789000    1.1494438   -2.3503966    944.80021  0.099788784   0.10195894            1 
  790000    1.1103415   -2.3369847    948.86814   0.10009158   0.10194182            2 
  791000    1.1225159   -2.3626265    949.44859   0.10002619   0.10192495            2 
  792000    1.0948156   -2.3395159    950.55629   0.10001644   0.10190813            1 
  793000    1.1264575   -2.3551412    945.67275  0.099377128    0.1018912            3 
  794000    1.1316153   -2.3371954    955.55871   0.10028954   0.10187638            2 
  795000     1.131707   -2.3532851    953.16274  0.099912236   0.10186011            1 
  796000    1.0888438   -2.3708762    949.27242   0.09937944    0.1018447            3 
  797000    1.1150054   -2.3663048     953.6005  0.099707288    0.1018281            2 
  798000    1.1159843   -2.3483657    953.20326  0.099540858   0.10181224            2 
  799000    1.1171185   -2.3569449    955.29427  0.099634363   0.10179446            1 
  800000    1.1018595   -2.3674209    955.01581  0.099480813   0.10177661            2 
  801000    1.1345217   -2.3316547    962.20036   0.10010407   0.10175994            1 
  802000    1.1331694   -2.3750445    955.60856  0.099294323   0.10174357            1 
  803000    1.1294838   -2.3451878    957.37196  0.099353669   0.10172618            2 
  804000    1.1117164   -2.3459498     960.1437  0.099517382     0.101709            3 
  805000    1.1053133   -2.3423609    962.20518  0.099607161   0.10169217            2 
  806000     1.111768   -2.3737422    960.72617  0.099330662   0.10167502            2 
  807000    1.1295503   -2.3695859    962.29002  0.099369064   0.10165806            1 
  808000    1.1297342   -2.3512571    969.53731  0.099993535   0.10164116            2 
  809000    1.1096624   -2.3489979    970.31242  0.099949775   0.10162519            2 
  810000    1.1064472   -2.3743834    966.25961  0.099409425    0.1016094            4 
  811000    1.1293843   -2.3332829    973.82714   0.10006444   0.10159301            2 
  812000    1.1367288   -2.3515723    972.61184  0.099816486   0.10157617            3 
  813000    1.1077885   -2.3363688    972.60948  0.099693469   0.10155947            3 
  814000    1.1350874   -2.3792486     974.1972  0.099733538   0.10154202            2 
  815000    1.1318997   -2.3409697    971.69134  0.099354943   0.10152411            1 
  816000    1.1370162   -2.3645853    978.08649  0.099886284   0.10150713            1 
  817000    1.1280389   -2.3434106    975.54367  0.099504658   0.10148971            1 
  818000    1.1238769   -2.3473324    973.85466  0.099210947   0.10147207            1 
  819000    1.1141266   -2.3439202    976.09106  0.099317365   0.10145347            2 
  820000    1.1101791   -2.3684211    972.60804   0.09884228   0.10143561            4 
  821000    1.1213587   -2.3525797     979.5142  0.099422879   0.10141779            2 
  822000    1.1032334    -2.357093    979.38488  0.099288816   0.10140005            2 
  823000    1.1289904   -2.3694351     980.0222  0.099232705   0.10138254            1 
  824000    1.1125628   -2.3320052    981.93295  0.099305517   0.10136485            4 
  825000    1.1282801   -2.3149637    984.11861   0.09940592   0.10134769            1 
  826000    1.1286112   -2.3431414    982.25269  0.099097325   0.10133008            1 
  827000    1.1386101   -2.3547439    982.66222  0.099018764   0.10131158            1 
  828000    1.1220057   -2.3722061     985.9818  0.099233273   0.10129342            1 
  829000    1.1173146   -2.3641045    983.45538  0.098859608   0.10127594            1 
  830000    1.1065483   -2.3735393    987.66328   0.09916298   0.10125817            1 
  831000    1.1026146    -2.364142     990.3553  0.099313608   0.10124028            2 
  832000    1.1128884   -2.3381109    989.01178  0.099059673   0.10122266            2 
  833000     1.096478   -2.3739966    984.32794  0.098472183   0.10120451            2 
  834000    1.1356515   -2.3454999    990.22986  0.098943831   0.10118665            4 
  835000    1.1328532   -2.3835347    992.31321  0.099033254   0.10116897            2 
  836000    1.1029058   -2.3616566    995.90542  0.099272869   0.10115116            2 
  837000    1.1202824   -2.3436565    992.59831  0.098825001    0.1011339            1 
  838000    1.1206464   -2.3570267    997.29357  0.099173983   0.10111485            2 
  839000    1.1200584   -2.3644566    996.11716  0.098938932   0.10109597            3 
  840000    1.1238607   -2.3732524    994.00065  0.098611176    0.1010764            2 
  841000    1.1044726   -2.3350696    998.25982  0.098915955   0.10105779            1 
  842000    1.1244302   -2.3439685     994.4257  0.098419013   0.10103966            5 
  843000    1.1149645   -2.3548199    999.62791  0.098816519   0.10102017            3 
  844000     1.107332   -2.3509168    999.12991  0.098650268   0.10100088            1 
  845000    1.1346217   -2.3888736    1000.0334  0.098622621   0.10098315            2 
  846000    1.1247926   -2.3465786    998.08049  0.098313681   0.10096465            2 
  847000    1.1313984   -2.3592441    1002.9952  0.098681147   0.10094651            2 
  848000    1.1186381   -2.3626501    1008.0195  0.099058523   0.10092949            1 
  849000     1.106985   -2.3463906    1010.5702  0.099192209   0.10091257            1 
  850000    1.1099253   -2.3655372     1009.183  0.098939514   0.10089381            1 
  851000    1.1068857   -2.3365578    1007.4003  0.098648677   0.10087564            1 
  852000    1.1029385   -2.3588702    1008.8225  0.098671997   0.10085753            2 
  853000    1.1088901   -2.3543335    1016.4818  0.099304589   0.10083916            2 
  854000    1.1095799    -2.340671    1016.9711  0.099236058   0.10082159            2 
  855000    1.1182365   -2.3297575     1015.966  0.099022029   0.10080502            1 
  856000     1.114393   -2.3725322    1010.8794  0.098411158   0.10078752            3 
  857000    1.0890204    -2.355526     1018.424  0.099029949   0.10077006            1 
  858000    1.1019627   -2.3901703    1019.2188  0.098991727    0.1007537            3 
  859000    1.1274272   -2.3666877    1020.3889  0.098989996   0.10073705            1 
  860000    1.1165469   -2.3796117    1017.4227  0.098587474   0.10072054            2 
  861000    1.1027733   -2.3343777    1022.2124  0.098936549   0.10070442            2 
  862000     1.116669   -2.3739459    1019.6341  0.098572518   0.10068819            4 
  863000    1.1016895   -2.3591624    1028.0179  0.099267857   0.10067178            3 
  864000    1.1205975   -2.3544829    1025.8268  0.098941633   0.10065489            5 
  865000    1.1102896   -2.3527145    1028.4605  0.099080974   0.10063893            2 
  866000    1.1218212   -2.3571295     1024.518  0.098587179   0.10062304            1 
  867000    1.0863603   -2.3706664    1030.2687  0.099026211   0.10060591            2 
  868000     1.097377    -2.361142    1028.6919  0.098760748    0.1005882            1 
  869000    1.1107257   -2.3603917    1027.7752  0.098559189   0.10057217            5 
  870000     1.104221   -2.3601002    1031.1175   0.09876604   0.10055619            2 
  871000     1.100012   -2.3459912    1032.6107   0.09879551   0.10053981            1 
  872000    1.1332101   -2.3587831     1028.426  0.098282305   0.10052318            2 
  873000    1.0876747    -2.341896    1032.4666  0.098555423    0.1005063            2 
  874000    1.1300676   -2.3881891    1030.1376  0.098220595   0.10048975            2 
  875000    1.1236758   -2.3545859    1037.4325  0.098803096   0.10047225            3 
  876000    1.1262863   -2.3759428    1033.3014  0.098297317    0.1004552            1 
  877000    1.1272983   -2.3594816    1035.1273  0.098358737   0.10043896            1 
  878000    1.0963283   -2.3623885    1037.4625  0.098468343   0.10042234            3 
  879000    1.1189476    -2.350885    1041.4282  0.098732291   0.10040541            2 
  880000    1.1172215   -2.3642544    1042.6901  0.098739594   0.10038834            2 
  881000    1.1263161   -2.3520698    1041.0011  0.098467758   0.10037039            2 
  882000    1.0989731   -2.3631931    1040.6736  0.098325173   0.10035268            3 
  883000    1.0994596   -2.3790618    1040.3528  0.098183541   0.10033503            1 
  884000    1.1120908   -2.3756083      1040.28  0.098065607   0.10031659            1 
  885000    1.0908242   -2.3781804    1044.9443  0.098394006    0.1002994            3 
  886000    1.1219566    -2.372658    1046.2775  0.098408338   0.10028183            2 
  887000    1.1020362   -2.3458215    1042.8525   0.09797562   0.10026396            5 
  888000    1.1276526   -2.3562633    1046.3592  0.098194373   0.10024652            3 
  889000    1.0953324   -2.3702586    1051.9514  0.098608119   0.10022805            2 
  890000    1.1275677   -2.4058337    1050.1572  0.098329325   0.10020996            2 
  891000     1.096871   -2.3582924    1048.6327  0.098076388   0.10019083            2 
  892000    1.1221193   -2.3662619    1050.6656  0.098156356   0.10017216            2 
  893000    1.1065507   -2.3476159    1055.7177  0.098517885   0.10015422            3 
  894000    1.1043803   -2.3756412    1048.4934  0.097734285   0.10013511            1 
  895000     1.099648   -2.3370224    1052.7719  0.098023454   0.10011676            2 
  896000    1.1077712   -2.3610817    1049.3695   0.09759761    0.1000982            2 
  897000    1.0934728   -2.3743373    1058.4025  0.098327991   0.10008012            1 
  898000    1.1159808   -2.3760343    1054.4741  0.097853948   0.10006304            2 
  899000     1.115874   -2.3918668    1056.0484   0.09789103   0.10004487            2 
  900000    1.0895424   -2.3583113    1058.6417  0.098022379   0.10002663            1 
  901000    1.1065906   -2.3569868    1057.7543   0.09783151   0.10000886            3 
  902000    1.1393716   -2.3338204    1062.9406  0.098202203   0.09999136            1 
  903000    1.1174833   -2.3725895    1065.7025  0.098348328  0.099972977            1 
  904000    1.1067194    -2.373215    1064.3853  0.098118111  0.099954997            1 
  905000    1.0922408   -2.3591064    1065.5724  0.098119005  0.099936483            1 
  906000    1.1000627   -2.3592196    1066.9233  0.098134966  0.099917704            1 
  907000    1.1018592   -2.3863655    1066.3063  0.097970072  0.099898578            2 
  908000    1.1036449   -2.3741134    1065.7547  0.097811558  0.099879387            2 
  909000    1.0860047   -2.3921729     1067.147  0.097831593  0.099859856            2 
  910000    1.0978816   -2.3794349     1066.389  0.097654666  0.099841106            1 
  911000    1.1053852   -2.3921894    1067.6748  0.097665092  0.099822139            1 
  912000    1.1412567   -2.3503628    1065.3276  0.097343533  0.099802235            2 
  913000    1.0899337   -2.3825198    1072.8203  0.097920797  0.099783535            2 
  914000     1.088218   -2.3631195    1070.7415  0.097624133  0.099765312            1 
  915000    1.1016579   -2.3422954    1072.0029  0.097632321  0.099747326            1 
  916000    1.0819058   -2.3786143    1077.2179  0.098000169   0.09972888            2 
  917000    1.1261641   -2.3840909    1072.2118  0.097438369  0.099710192            2 
  918000    1.1219487   -2.3835345    1072.5737  0.097365074  0.099690977            2 
  919000    1.0926956   -2.3658691    1075.7573  0.097547812  0.099672488            3 
  920000    1.0849986   -2.3792476    1077.2744  0.097579205  0.099653599            1 
  921000    1.1145308   -2.3607026    1080.2881  0.097745935  0.099635898            2 
  922000    1.1119263   -2.3572556    1081.4304  0.097743164  0.099618596            1 
  923000     1.105553   -2.3587114    1075.7381  0.097123341   0.09960005            1 
  924000    1.0860214    -2.363724    1081.8039  0.097565287  0.099581744            4 
  925000    1.1174995   -2.3385078    1088.5455  0.098067162  0.099562521            2 
  926000    1.0963867   -2.3642187    1079.0383  0.097105674    0.0995437            1 
  927000    1.1009742   -2.3626899    1083.4723   0.09739952  0.099524311            2 
  928000    1.0792605   -2.3386057    1083.5928  0.097305385  0.099504784            3 
  929000    1.1008487   -2.3639601    1087.0231   0.09750835  0.099486186            1 
  930000    1.1102218   -2.3326732    1085.5766  0.097273891  0.099467679            3 
  931000    1.0926489   -2.3566009    1087.9049  0.097377813  0.099447962            2 
  932000    1.1131098   -2.3571722    1087.5205  0.097238959  0.099428742            2 
  933000    1.1097671   -2.3583607    1087.2623  0.097111671  0.099409185            2 
  934000    1.1001332   -2.3651946    1082.7799  0.096607767  0.099388568            1 
  935000    1.1086582   -2.3383494    1087.7767  0.096949798  0.099368428            1 
  936000    1.1056064   -2.3869212    1091.2034  0.097151301  0.099348179            2 
  937000    1.0997642   -2.3964597    1092.7152  0.097182072  0.099328194            2 
  938000    1.1041081   -2.3889841    1091.5083  0.096971242  0.099308121            1 
  939000    1.1285468   -2.3822934     1094.294  0.097115198  0.099287792            1 
  940000     1.100223   -2.3591689     1097.401  0.097287324  0.099268228            1 
  941000    1.1057027    -2.389468    1090.9142  0.096609473  0.099248667            2 
  942000    1.1221738   -2.3845658    1092.6304  0.096658736  0.099228192            1 
  943000    1.0935633    -2.383265    1099.0216  0.097121036  0.099208463            1 
  944000    1.1066021   -2.3682989    1101.4688  0.097234183  0.099188826            2 
  945000    1.0972002   -2.3896546    1096.9474  0.096732579  0.099168246            1 
  946000    1.0797627   -2.3706022     1101.091  0.096995334  0.099148012            2 
  947000    1.1062744   -2.3478189    1099.8354  0.096782417  0.099127473            1 
  948000      1.11814   -2.3860962     1099.493  0.096650228  0.099107355            2 
  949000    1.0898799   -2.3956701    1104.2276  0.096964134   0.09908733            2 
  950000    1.0981834   -2.3743404    1108.2654  0.097216259  0.099065931            4 
  951000    1.1010727   -2.3843807    1104.3826  0.096773803   0.09904539            2 
  952000    1.1076905   -2.3880887    1110.2199  0.097183112  0.099025325            2 
  953000    1.1143703   -2.3882577    1106.9477  0.096795007  0.099004773            1 
  954000    1.0821719   -2.3807161    1106.9288  0.096691896  0.098984054            2 
  955000    1.1072654   -2.3750846    1107.2879  0.096621981  0.098963133            2 
  956000     1.073162   -2.3789554    1107.8869  0.096573122   0.09894153            2 
  957000    1.1045463   -2.3772024    1108.9637  0.096565981  0.098919841            1 
  958000    1.1037548    -2.370473    1112.1565  0.096742911  0.098899741            2 
  959000     1.097923    -2.375713     1114.287  0.096827163  0.098879024            2 
  960000    1.1065265   -2.3583126      1117.25   0.09698351  0.098858795            2 
  961000    1.1021965    -2.398646    1109.9481  0.096249406  0.098838489            2 
  962000    1.1065677    -2.385055    1118.5543  0.096894863  0.098818597            3 
  963000       1.1025   -2.3872937    1112.1077  0.096236387  0.098797578            3 
  964000    1.0874929   -2.3825165    1119.7321  0.096795653  0.098777131            2 
  965000    1.1042095   -2.3975777    1117.7842   0.09652713  0.098757539            3 
  966000    1.0912247   -2.3773975     1122.954  0.096873186  0.098737273            3 
  967000    1.0887082   -2.3853804    1118.3201  0.096373677  0.098716211            2 
  968000    1.0960521   -2.4087821    1118.9689  0.096329964  0.098695045            1 
  969000    1.1082329   -2.3756957    1122.1897  0.096507545  0.098673779            2 
  970000    1.0970998   -2.3757516     1117.367  0.095993726  0.098651963            1 
  971000    1.0850814    -2.405722    1117.5483  0.095910426  0.098629747            2 
  972000    1.0912548   -2.3895002    1122.9131  0.096271696   0.09860667            3 
  973000    1.1000505   -2.3742658    1124.7253  0.096327961  0.098583666            1 
  974000    1.0767009   -2.3763745    1125.9981   0.09633796  0.098560455            1 
  975000    1.0797505   -2.3470553    1120.9694  0.095809351   0.09853828            4 
  976000    1.1224913   -2.3902366    1127.5816  0.096275748  0.098515262            3 
  977000    1.1104518   -2.3573517    1127.1719  0.096142267  0.098492596            2 
  978000     1.082445   -2.3631386    1124.7273  0.095835661  0.098468993            4 
  979000    1.0849902   -2.3649353    1127.3135  0.095957907  0.098444941            2 
  980000    1.1254174   -2.3765123    1122.7084  0.095468404  0.098421221            2 
  981000     1.069029   -2.3956555    1125.9977  0.095650498  0.098397454            3 
  982000    1.0732861   -2.4049314    1122.4525   0.09525225  0.098372947            4 
  983000    1.1202351   -2.3834061    1129.0115  0.095711388  0.098348829            2 
  984000    1.1002995   -2.3942456    1126.5824  0.095408402  0.098324781            1 
  985000    1.1192618   -2.3766504    1133.0188  0.095856075  0.098301553            2 
  986000    1.1082282   -2.3682419     1134.029  0.095844232   0.09827838            1 
  987000    1.1073891   -2.3797919    1132.0684  0.095581593   0.09825469            3 
  988000    1.1004258    -2.413992    1133.4932  0.095605026  0.098230766            1 
  989000    1.1018654   -2.3849082    1136.0251  0.095721701  0.098207692            3 
  990000    1.1121471    -2.383838    1140.1438  0.095971697  0.098184469            2 
  991000    1.1123072   -2.3932104    1141.4233  0.095982448   0.09816257            3 
  992000     1.103417   -2.3690076    1141.5256  0.095894288  0.098140362            2 
  993000     1.080952   -2.3832747    1135.5693  0.095297861  0.098118068            2 
  994000    1.0705063     -2.40219     1141.318  0.095683939  0.098095266            2 
  995000    1.0974066   -2.3946274    1144.4457  0.095849724  0.098073484            1 
  996000    1.0758859   -2.3883854    1140.7877  0.095447435  0.098050494            3 
  997000    1.0967659   -2.3941091    1143.4646  0.095575443  0.098028375            2 
  998000    1.0887667   -2.3990443    1142.2342  0.095376938  0.098005502            1 
  999000    1.1175519   -2.3858912    1143.3604  0.095375407  0.097982156            2 
 1000000    1.1077111   -2.3750859    1150.1512  0.095845937  0.097958611            2 
 1001000    1.1007339   -2.3956537    1141.3262    0.0950155  0.097936097            1 
 1002000    1.0720619   -2.3829284    1151.1559  0.095738183  0.097913824            1 
 1003000    1.0775784    -2.377032     1148.112   0.09538983  0.097891642            2 
 1004000    1.0588265   -2.3854006    1151.7581  0.095597455  0.097869115            1 
 1005000    1.0767199   -2.3894599    1156.1522  0.095866681  0.097846743            2 
 1006000     1.085867   -2.3826733    1153.0259  0.095512419  0.097824654            1 
 1007000    1.1097731   -2.3810191    1153.9504  0.095494078   0.09780189            7 
 1008000    1.0669095   -2.3764511    1157.2789  0.095674516  0.097779376            1 
 1009000    1.0761532   -2.3646715    1161.3289   0.09591418  0.097757231            1 
 1010000    1.0846625   -2.4078985    1157.5528  0.095507659  0.097735355            3 
 1011000    1.1006728   -2.3781403    1156.8909  0.095358627  0.097713775            4 
 1012000    1.0841842    -2.358406    1165.0279  0.095934441  0.097691434            3 
 1013000    1.0836696   -2.3657307    1161.1209  0.095518337   0.09766995            1 
 1014000    1.0658441   -2.4023874     1158.835  0.095236275  0.097648715            1 
 1015000    1.0822106   -2.4006115    1163.8052  0.095550506  0.097627177            3 
 1016000    1.0757301   -2.3802264    1163.5687  0.095437064   0.09760605            3 
 1017000    1.1066471    -2.386596    1166.5141  0.095584571  0.097585271            2 
 1018000    1.0727465   -2.3657553    1165.6664  0.095421281  0.097563935            1 
 1019000    1.0780787   -2.3894502    1167.3912  0.095468698  0.097543336            1 
 1020000    1.1181074    -2.381629    1168.9543    0.0955028   0.09752246            1 
 1021000    1.0854794   -2.3851194    1166.6954  0.095224896  0.097501821            1 
 1022000    1.0982424    -2.382291    1170.9672  0.095480036  0.097481589            2 
 1023000    1.0838035   -2.4013123    1172.1295  0.095481387  0.097461703            1 
 1024000     1.094748   -2.3583947    1171.5063  0.095337428  0.097440827            2 
 1025000    1.0972179   -2.3812649    1172.4855  0.095324022  0.097420434            1 
 1026000    1.1146429   -2.3774554    1174.5595  0.095399568  0.097400364            1 
 1027000    1.1014814   -2.4018537    1172.5858  0.095146529  0.097380331       -1e+20 
 1028000    1.1163879   -2.3871141    1173.7924   0.09515178  0.097359884            1 
 1029000    1.0820836   -2.3685737    1172.4207  0.094948226  0.097338485            1 
 1030000    1.0779941   -2.4111357    1179.2763  0.095410707  0.097318764            1 
 1031000    1.0966432   -2.4040792    1176.7151  0.095111149  0.097298551            3 
 1032000    1.0884585   -2.3912219    1184.0516  0.095611399   0.09727857            2 
 1033000     1.114789   -2.3900407     1186.115  0.095685301  0.097259523            1 
 1034000    1.1082169   -2.4070793    1186.4303  0.095618176   0.09724054            2 
 1035000    1.1213338   -2.4048634    1184.6501  0.095382455  0.097220733            2 
 1036000    1.0731075   -2.3789297    1183.3909  0.095189102  0.097200907            2 
 1037000    1.0752924   -2.3752177    1183.3922   0.09509741  0.097180393            5 
 1038000    1.0693327   -2.3939964    1186.2008  0.095231279  0.097160318            2 
 1039000    1.0691556   -2.4032882    1189.3763  0.095394311  0.097140011            1 
 1040000    1.0752808   -2.3893409    1185.3456  0.094979615  0.097119475            4 
 1041000    1.0857716   -2.3757151    1183.9564  0.094777166  0.097099187            2 
 1042000    1.1131166   -2.4153277    1186.7511  0.094909719  0.097078207            6 
 1043000    1.1065651   -2.3798105    1189.5797  0.095044717  0.097056817            2 
 1044000    1.0817969    -2.396477     1191.636  0.095117818  0.097036352            1 
 1045000    1.1024236   -2.3886532     1193.766   0.09519665  0.097015667            2 
 1046000     1.089339   -2.4146156    1192.9983  0.095044482  0.096995361            2 
 1047000    1.0841895   -2.3975818    1196.6988  0.095248233  0.096975146            2 
 1048000    1.0933664    -2.383248    1191.8081  0.094768453  0.096955386            1 
 1049000    1.0912329   -2.4212503    1199.3319  0.095275811  0.096934607            1 
 1050000    1.0748199   -2.3974826    1194.5045  0.094801946  0.096913584            1 
 1051000       1.0885   -2.3962038    1194.9397  0.094746251  0.096892631            2 
 1052000    1.0945402   -2.3928661    1203.6067  0.095342735  0.096871941            4 
 1053000    1.0783223   -2.4028709    1197.2714  0.094750822  0.096851513            1 
 1054000     1.067979   -2.3876465    1204.1089  0.095201529   0.09683078            1 
 1055000    1.0980779   -2.4290744    1199.5027  0.094747449  0.096810532            3 
 1056000    1.0993447   -2.3991654    1204.7167  0.095069184  0.096790161            2 
 1057000    1.0958659   -2.3945021    1203.6599  0.094895925  0.096770048            2 
 1058000     1.059177   -2.3979983    1199.7639  0.094499358  0.096749844            1 
 1059000    1.0883681   -2.3985612    1204.1576  0.094755867  0.096729726            1 
 1060000    1.0735441   -2.3979142     1205.957   0.09480794  0.096709016            3 
 1061000    1.0797096   -2.4039428    1203.4656  0.094522902  0.096687351            3 
 1062000    1.0672981   -2.4092236    1205.7862  0.094615993  0.096665494            1 
 1063000    1.1024604   -2.3924667    1202.7558  0.094289414  0.096644264            2 
 1064000    1.1076632   -2.3865011    1205.5991   0.09442349   0.09662296            1 
 1065000    1.0901193   -2.4246546     1204.165  0.094222616  0.096600308            1 
 1066000    1.0976093   -2.3581843    1206.3714  0.094306708  0.096578989            2 
 1067000    1.0851582   -2.3717916    1212.5449  0.094700476  0.096558338            2 
 1068000    1.1023821   -2.4281352    1205.4083  0.094054951  0.096537577            2 
 1069000    1.0470992   -2.4003077    1210.5679  0.094369183   0.09651655            2 
 1070000    1.0769053   -2.4126698    1213.2251  0.094487938  0.096495408            2 
 1071000    1.0946864   -2.3788719    1215.2591  0.094557974  0.096474102            1 
 1072000     1.077566   -2.4056883    1217.3875  0.094635219  0.096453076            2 
 1073000    1.0753981    -2.369203    1219.8686  0.094739715  0.096432396            2 
 1074000    1.0760902   -2.3715239    1216.4785   0.09438846   0.09641086            2 
 1075000    1.0837588   -2.3562599    1223.5524   0.09484902  0.096390435            1 
 1076000    1.0798306   -2.3843053     1221.007  0.094563739  0.096369524            1 
 1077000     1.094195   -2.4238516    1219.9784  0.094396346   0.09634957            2 
 1078000    1.1124074   -2.4142635    1221.6347   0.09443682  0.096329001            1 
 1079000    1.0916125   -2.3873857    1223.2632  0.094475069  0.096308211            1 
 1080000    1.0835205   -2.4190722    1222.8625  0.094356674  0.096287986            6 
 1081000    1.0692621    -2.385541     1227.942  0.094660959  0.096268027            2 
 1082000    1.1236391   -2.3909581    1227.1778  0.094514619  0.096248429            2 
 1083000    1.0891094   -2.4003115    1224.6737  0.094234664  0.096228817            2 
 1084000    1.0813989   -2.4123334    1226.8129  0.094312181  0.096208926            2 
 1085000    1.0724347   -2.4141952    1225.2831  0.094107769   0.09618903            2 
 1086000    1.0909318   -2.4239688    1228.9088  0.094299322  0.096168643            1 
 1087000    1.0838283    -2.375211    1226.3083   0.09401321  0.096148532            3 
 1088000    1.1046523    -2.421961    1226.5843  0.093947937  0.096127788            1 
 1089000    1.0918353   -2.4235135    1235.1787  0.094519337  0.096107417            1 
 1090000    1.0983494   -2.4153609    1231.3981  0.094143585  0.096086837            1 
 1091000    1.0841415   -2.4306053    1233.4065    0.0942107  0.096066464            1 
 1092000    1.1039067   -2.4153011    1230.5587  0.093907107  0.096046853            4 
 1093000    1.0774677    -2.386212    1240.0049  0.094541389  0.096026586            1 
 1094000    1.0597783   -2.4183898    1236.5401  0.094191047  0.096006533            1 
 1095000    1.0658629    -2.391273    1237.5433  0.094181376  0.095985667            1 
 1096000    1.0942883   -2.4271563    1238.7626  0.094188153  0.095965075            2 
 1097000    1.0714605   -2.3934974    1235.3107  0.093840074  0.095944698            1 
 1098000    1.0782049   -2.3889684    1239.1387  0.094045134  0.095924088            3 
 1099000    1.0820092   -2.4069308    1238.3776   0.09390185  0.095904348            2 
 1100000     1.077654   -2.4133319    1242.5677  0.094133919  0.095884106            3 
 1101000    1.0810044   -2.3996938    1245.7121  0.094286415  0.095864712            2 
 1102000    1.0709871   -2.3848335    1244.6242   0.09411859  0.095844471            2 
 1103000    1.0456783   -2.3585515    1249.9509    0.0944357  0.095824928            1 
 1104000    1.0671391   -2.4199233    1242.4608  0.093784781  0.095805346            2 
 1105000    1.1001647   -2.4057394    1248.3862  0.094146774  0.095786336            3 
 1106000    1.0689553   -2.3762282    1258.0167  0.094787277  0.095767836            2 
 1107000    1.0716555   -2.4246452    1249.5465  0.094064026  0.095748609            1 
 1108000    1.0672109   -2.4173716     1251.951  0.094159972  0.095729365            8 
 1109000    1.0750541   -2.3838307    1251.1555  0.094015291  0.095710819            3 
 1110000    1.0619147   -2.4222638    1253.8186  0.094130522  0.095691598            1 
 1111000    1.0832784   -2.4069566    1252.5374  0.093949701  0.095672907            2 
 1112000    1.0534811   -2.4189392    1254.3165  0.093998536  0.095654223            1 
 1113000    1.0576408    -2.419429    1255.6972  0.094017461   0.09563524            2 
 1114000    1.0415877   -2.4103296    1259.7554  0.094236643  0.095616398            1 
 1115000    1.0701141   -2.3839234    1264.6835  0.094520444  0.095597877            1 
 1116000    1.0900992   -2.3882785    1256.7724  0.093845009  0.095579361            2 
 1117000    1.0617606   -2.3840497     1262.099  0.094158385  0.095560185            1 
 1118000    1.0861309   -2.3887243    1258.8028  0.093828476  0.095541659            1 
 1119000     1.065686   -2.3958217    1261.6266  0.093954913  0.095522568            2 
 1120000     1.049909   -2.3885775    1264.6486  0.094095877  0.095503921            2 
 1121000    1.0720005   -2.4184119    1267.0001  0.094186746  0.095485394            5 
 1122000    1.0693893   -2.4171444    1262.8591  0.093795241  0.095466387            1 
 1123000    1.0538472   -2.4001943    1270.8419  0.094304088  0.095448266            5 
 1124000    1.0694847    -2.402187    1267.4244  0.093966812  0.095430085            3 
 1125000    1.0766623    -2.410814    1268.6508  0.093974136  0.095412231            2 
 1126000    1.0581929   -2.4193205    1270.7244  0.094044136  0.095394433            1 
 1127000    1.0739378   -2.4185522    1272.0656  0.094059862  0.095377027            2 
 1128000    1.0708924   -2.3897143    1273.8625  0.094109228  0.095359498            2 
 1129000    1.0688217    -2.401256    1278.0002  0.094331281  0.095343197            4 
 1130000    1.0534041    -2.388052    1276.6746  0.094150045  0.095326504            2 
 1131000    1.1089043   -2.4276445    1278.2531  0.094183108  0.095309694            2 
 1132000     1.071238   -2.4179628    1279.9374  0.094223897  0.095293085            1 
 1133000     1.071427   -2.3995478    1282.5097  0.094329928  0.095276393            1 
 1134000    1.0595808   -2.4180325    1281.2268  0.094152466  0.095259558            2 
 1135000    1.0901303   -2.3893891    1280.8544  0.094042172  0.095242019            2 
 1136000    1.0466198   -2.3929536    1285.5782  0.094305915  0.095225688            2 
 1137000    1.0889943   -2.4004705    1281.5079  0.093924648  0.095208591            3 
 1138000    1.0662869   -2.4228129     1288.565  0.094358887  0.095192308            1 
 1139000    1.0597414   -2.4158619    1284.0561   0.09394616  0.095176175            3 
 1140000    1.0820814   -2.3836708    1288.5986  0.094195806  0.095159663            2 
 1141000     1.061897   -2.3992575    1287.0989   0.09400372  0.095143238            2 
 1142000    1.0660161   -2.4225268    1293.8516  0.094414156  0.095127392            2 
 1143000    1.0664846    -2.402129    1286.6467  0.093806262  0.095111599            2 
 1144000    1.0777723   -2.4192411    1292.8055  0.094172892  0.095095709            1 
 1145000    1.0754642   -2.4349444    1293.1869  0.094118407  0.095079789            2 
 1146000    1.0855135   -2.4256337    1294.5745  0.094137183  0.095064232            1 
 1147000    1.0743032   -2.4337125     1295.452  0.094118862  0.095048754            2 
 1148000    1.0783752   -2.4330568    1289.5893  0.093611306  0.095032725            1 
 1149000     1.054064   -2.4239772    1291.5799  0.093674203  0.095016968            3 
 1150000    1.0831585   -2.4230896    1298.3741  0.094085077  0.095001508            1 
 1151000    1.0769094   -2.4059574    1298.5998   0.09401968  0.094985405            3 
 1152000    1.0691676   -2.4223608    1301.4522  0.094144403   0.09496982            3 
 1153000     1.078944   -2.4192127    1301.7376  0.094083376  0.094954245            3 
 1154000    1.0683524   -2.4236887    1302.0534  0.094024652  0.094938933            2 
 1155000    1.0817156   -2.4272338    1306.0811  0.094233847  0.094923308            1 
 1156000    1.0870064   -2.4189272    1308.9397  0.094358399  0.094907695            4 
 1157000    1.0685083   -2.3874403    1306.6617  0.094112772  0.094892072            1 
 1158000    1.0885776   -2.4467919    1303.3088  0.093790213  0.094875786            1 
 1159000    1.0883492   -2.4272395    1304.6235  0.093803817    0.0948598            1 
 1160000    1.0616464   -2.4157702    1310.1989  0.094123483   0.09484383            2 
 1161000    1.0635398   -2.4331493    1303.0672   0.09353052  0.094828435            3 
 1162000    1.0431394   -2.4138476    1312.2617  0.094109418  0.094812571            1 
 1163000    1.0542164   -2.3828148    1313.1404  0.094091462  0.094797055            2 
 1164000    1.0837961   -2.3908575    1307.8424  0.093631326  0.094781965            5 
 1165000    1.0731483   -2.4224738    1309.5209  0.093671022  0.094766203            2 
 1166000    1.0765781   -2.4107562    1310.0751  0.093630298  0.094750378            1 
 1167000    1.0720711   -2.3781887    1317.3678  0.094070823  0.094734382            1 
 1168000     1.068925      -2.4175     1309.885  0.093456407  0.094718689            2 
 1169000    1.0611002   -2.3929673    1317.4551  0.093916102  0.094703096            1 
 1170000    1.0560133   -2.3991786    1316.3453  0.093756785  0.094687305            2 
 1171000    1.0484092   -2.4176984    1312.4882  0.093402232  0.094671057            2 
 1172000    1.0526598   -2.4176786    1316.6834  0.093620831  0.094654536            2 
 1173000    1.0647559   -2.4329924    1316.8506  0.093552897  0.094637922            2 
 1174000    1.0879651   -2.3721961    1325.7598  0.094105604  0.094621521            1 
 1175000    1.0735038    -2.417999    1321.4001  0.093716322  0.094604958            4 
 1176000    1.0633488   -2.4189001      1320.63   0.09358206  0.094588298            3 
 1177000    1.0677946   -2.4005393    1317.1479  0.093256014  0.094571055            5 
 1178000    1.0627555    -2.389832    1326.4787  0.093836919  0.094554174            3 
 1179000    1.0257355   -2.4116368    1322.5688  0.093480973  0.094536831            4 
 1180000    1.0440794   -2.4105654    1321.2945  0.093311758  0.094519635            2 
 1181000    1.0667303   -2.4081928    1325.5909  0.093535912  0.094502265            1 
 1182000     1.054185   -2.4219713    1328.3061  0.093648203  0.094485353            2 
 1183000    1.0583759   -2.4277463    1324.2978  0.093286683  0.094468848            3 
 1184000     1.058224   -2.4158832    1326.9429  0.093394066  0.094451744            2 
 1185000    1.0671728   -2.3974277    1329.8469  0.093519472  0.094435097            1 
 1186000    1.0456972    -2.441155    1322.1649  0.092900851  0.094418663            2 
 1187000    1.0425636   -2.3856954    1328.2448  0.093249426  0.094402055            3 
 1188000    1.0516655   -2.4066667     1340.811  0.094052401  0.094386008            5 
 1189000    1.0740068   -2.4044978    1332.4856  0.093389796  0.094369985            1 
 1190000    1.0556113   -2.4062107    1333.9312  0.093412549  0.094352955            4 
 1191000    1.0580749   -2.4099749    1337.2262  0.093564667   0.09433701            2 
 1192000    1.0462873    -2.427055    1331.9348  0.093116246  0.094321262            1 
 1193000    1.0833977   -2.4309874    1333.3269  0.093135439  0.094305316            2 
 1194000    1.0530901   -2.4124383    1340.3396  0.093546872  0.094289837            4 
 1195000    1.0634903   -2.4238244    1338.6399   0.09335006  0.094275145            2 
 1196000    1.0469253    -2.433983    1336.9407  0.093153614  0.094260134            2 
 1197000    1.0293469   -2.4478456    1342.3026  0.093449084  0.094245224            2 
 1198000    1.0874426   -2.4448129    1345.7358  0.093609889  0.094229452            2 
 1199000    1.0525611   -2.4152797    1347.3651  0.093645061  0.094214738            1 
 1200000    1.0728243   -2.3890259    1343.1651  0.093275355  0.094199517            4 
 1201000    1.0386867   -2.4097564    1349.9114  0.093665789  0.094185067            4 
 1202000    1.0391272   -2.4190205    1345.1785  0.093259741  0.094169269            2 
 1203000    1.0636851   -2.4087584     1340.578  0.092863535   0.09415366            2 
 1204000    1.0518657   -2.4543188    1342.3021  0.092905736  0.094137883            2 
 1205000    1.0630225   -2.4227181    1348.2621   0.09324081   0.09412229            1 
 1206000    1.0461447   -2.4137615    1349.6788  0.093261388  0.094106633            1 
 1207000    1.0641823   -2.4097267     1353.161  0.093424539  0.094091562            1 
 1208000    1.0863855   -2.4377498     1346.014  0.092854166  0.094076287            3 
 1209000    1.0398664   -2.4417165    1358.6178  0.093646111  0.094060025            4 
 1210000    1.0599245   -2.4024361    1357.3958  0.093484562   0.09404533            1 
 1211000     1.077621   -2.4200364     1359.147  0.093527871  0.094030921            2 
 1212000    1.0412935   -2.4483794     1354.466  0.093128849  0.094016169            1 
 1213000    1.0483108   -2.4255159    1361.6598  0.093546287  0.094000998            1 
 1214000    1.0414732   -2.4049772    1361.1075  0.093431321  0.093986418            3 
 1215000    1.0400179   -2.4083628    1363.8529  0.093542724  0.093971496            1 
 1216000    1.0417092   -2.4056764    1357.6053  0.093037646  0.093957264            2 
 1217000     1.026414   -2.4106933    1363.7293  0.093380534  0.093942378            2 
 1218000    1.0706734   -2.4091618    1359.7444  0.093031228  0.093927613            3 
 1219000    1.0579076   -2.4392127    1362.0903  0.093115278  0.093912797            3 
 1220000    1.0826479   -2.4331239    1367.0032  0.093374534  0.093897642            2 
 1221000    1.0629521   -2.4343056    1368.8481  0.093423974  0.093882564            1 
 1222000    1.0491928   -2.4510878     1365.487  0.093118317  0.093866839            2 
 1223000    1.0663283   -2.4033561    1369.4064  0.093309242  0.093851217            2 
 1224000    1.0581355   -2.4223423    1368.2501   0.09315428  0.093836026            2 
 1225000    1.0629212   -2.4096977    1366.2834  0.092944451  0.093821069            1 
 1226000    1.0609079   -2.4150449    1369.9358    0.0931169  0.093805443            2 
 1227000    1.0532035   -2.4297002    1371.6329  0.093156268  0.093790125            1 
 1228000    1.0417143   -2.4215348    1365.0245  0.092631957  0.093774803            3 
 1229000    1.0571765   -2.4160224     1373.271  0.093115746  0.093759531            2 
 1230000    1.0506077   -2.4271668    1373.2223  0.093036738  0.093744068            1 
 1231000    1.0544387   -2.3759595    1378.6959    0.0933317  0.093729104            2 
 1232000    1.0471936   -2.4191024    1380.7448  0.093394536  0.093714519            3 
 1233000    1.0620036   -2.4075419    1383.7418  0.093521346  0.093699598            4 
 1234000    1.0585228   -2.4173119    1379.4469  0.093155514  0.093685013            1 
 1235000    1.0519061   -2.3994001    1378.5489  0.093019492  0.093670379            3 
 1236000    1.0569381   -2.4360503    1376.0158   0.09277345  0.093655389            1 
 1237000    1.0521184   -2.4100299    1377.3326  0.092787162  0.093641183            1 
 1238000    1.0227984   -2.4385096     1380.625  0.092933829  0.093626264            1 
 1239000    1.0686656   -2.4480299    1383.6315  0.093061035  0.093611418            1 
 1240000    1.0865008   -2.4230525    1381.2842  0.092828237  0.093596205            2 
 1241000    1.0254454   -2.4357688    1384.8121   0.09299034   0.09358206            3 
 1242000    1.0543411   -2.4209235    1384.2027  0.092874579  0.093567205            3 
 1243000    1.0631788   -2.4322506    1387.9097  0.093048387  0.093552732            2 
 1244000     1.029455    -2.410262    1385.8732  0.092837167  0.093538508            3 
 1245000    1.0709816   -2.4451298    1388.9052  0.092965542  0.093524117            1 
 1246000    1.0461203   -2.4015666    1394.3163  0.093252829  0.093510482            2 
 1247000     1.072074   -2.4275673    1389.5008  0.092856242  0.093495554            1 
 1248000    1.0417516   -2.4400791    1388.6712  0.092726445  0.093480622            2 
 1249000    1.0582987    -2.432065    1391.1286   0.09281616  0.093466632            2 
 1250000     1.067495   -2.4521766    1393.2279  0.092881861  0.093453002            2 
 1251000    1.0521946   -2.4454927     1387.291   0.09241214  0.093438768            1 
 1252000     1.044037   -2.4337218    1394.7605  0.092835494  0.093424058            1 
 1253000    1.0895411   -2.4361145     1395.712  0.092824688  0.093409822            4 
 1254000    1.0543741   -2.4068801     1401.645  0.093144935  0.093395554            1 
 1255000    1.0609822   -2.4147377    1394.3099  0.092583659   0.09338102            2 
 1256000    1.0371423   -2.4224051    1407.1492   0.09336181  0.093366267            1 
 1257000    1.0686882   -2.4196935    1393.9095  0.092409805  0.093351572            4 
 1258000    1.0429279   -2.4683174    1397.5037  0.092574437  0.093336133            3 
 1259000    1.0423343   -2.4250767    1404.6282  0.092972476  0.093321049            8 
 1260000    1.0527794   -2.4195495    1403.9384  0.092853066  0.093306629            2 
 1261000    1.0366074    -2.422178    1400.4211  0.092546994  0.093291763            2 
 1262000    1.0623509   -2.3944282    1396.8064   0.09223497  0.093277475            1 
 1263000    1.0448714   -2.4239521    1403.9798  0.092635246  0.093263314            1 
 1264000    1.0600298   -2.3894558    1405.4523  0.092659036  0.093249272            1 
 1265000    1.0499694    -2.437607    1404.2042  0.092503569  0.093234401            4 
 1266000    1.0366896   -2.4474555    1410.1446  0.092821524  0.093219443            2 
 1267000    1.0656444    -2.448804    1404.4867  0.092376132  0.093205014            2 
 1268000    1.0434373   -2.4397858    1415.6432  0.093036485  0.093190252            3 
 1269000    1.0572304   -2.4244091    1410.0119  0.092593375   0.09317541            2 
 1270000    1.0444855   -2.4155347    1413.8196  0.092770315  0.093161053            1 
 1271000    1.0408523   -2.4016662    1415.2466  0.092790884  0.093146762            3 
 1272000    1.0515878   -2.4481088    1415.2937  0.092721025  0.093132603            2 
 1273000    1.0599255   -2.4341181    1407.4233  0.092132972  0.093117348            4 
 1274000    1.0550901   -2.4188782    1413.6321  0.092466775  0.093102214            1 
 1275000    1.0165784   -2.4176966    1415.1201  0.092491507   0.09308698            2 
 1276000    1.0290141   -2.4303799    1414.3118  0.092366238  0.093071594            4 
 1277000    1.0632238   -2.4245591      1410.73  0.092060166  0.093056487            4 
 1278000    1.0575025   -2.4394195    1414.9346  0.092262298  0.093041331            2 
 1279000    1.0707653   -2.4581021    1412.3167  0.092019592  0.093026102            1 
 1280000    1.0358955   -2.4113584    1414.0721  0.092061984  0.093011068            3 
 1281000    1.0442502    -2.457303    1420.6506  0.092418073  0.092996049            3 
 1282000    1.0451224   -2.4375809    1418.9796   0.09223736   0.09298151            2 
 1283000    1.0557607   -2.4272694    1424.7974  0.092543351  0.092966486            2 
 1284000    1.0741821   -2.4480273     1423.863  0.092410633  0.092951911            2 
 1285000    1.0517304   -2.4490202    1421.0039  0.092153303  0.092937076            1 
 1286000    1.0639494   -2.4222274    1422.3352  0.092167912  0.092921612            2 
 1287000    1.0531248   -2.4339819    1423.5606  0.092175641   0.09290605            3 
 1288000    1.0232323    -2.450243    1424.1304  0.092140942  0.092890051            2 
 1289000    1.0359589   -2.4481782    1423.1248  0.092004448  0.092874684            4 
 1290000    1.0226685   -2.4384622    1429.9097  0.092371431  0.092859431            2 
 1291000    1.0518813   -2.4381125     1429.882  0.092298088  0.092843658            4 
 1292000    1.0378827   -2.4539581    1418.4101  0.091486717  0.092827517            2 
 1293000    1.0076521   -2.4120897    1430.5617  0.092199133  0.092811091            1 
 1294000    1.0312466   -2.4185047    1433.7114   0.09233072  0.092795172            3 
 1295000    1.0571318   -2.4120254    1432.2241  0.092163715  0.092779484            1 
 1296000    1.0444864   -2.4343455    1435.4526  0.092300196  0.092763959            3 
 1297000    1.0569692    -2.432737    1434.5903  0.092173626  0.092748334            2 
 1298000    1.0548894   -2.4195804    1433.6916  0.092044918  0.092732626            1 
 1299000    1.0351332   -2.4187653    1431.3946  0.091826701  0.092716891            2 
 1300000    1.0458646    -2.459913       1428.4    0.0915641  0.092701134            3 
 1301000     1.037868   -2.4050198     1435.587  0.091954075  0.092684905            2 
 1302000     1.040141    -2.423496    1437.9141  0.092032393  0.092668536            3 
 1303000    1.0443169   -2.4519926    1433.3573  0.091670332   0.09265284            3 
 1304000    1.0375654   -2.4602389    1435.6973  0.091749572  0.092636146            4 
 1305000    1.0549035   -2.4217214    1434.1499  0.091580452  0.092619423            3 
 1306000    1.0308595    -2.439898    1433.7067  0.091482051  0.092602267            3 
 1307000     1.035118   -2.4273449      1432.63   0.09134341  0.092584976            1 
 1308000    1.0416919   -2.4552124    1441.8022  0.091857936  0.092568324            2 
 1309000    1.0640026   -2.4609605    1432.1746  0.091174853   0.09255134            2 
 1310000    1.0506616    -2.431151    1445.2878  0.091939428  0.092534505            1 
 1311000    1.0219691   -2.4383657    1437.8881  0.091398939  0.092518621            3 
 1312000    1.0360671   -2.4331636    1443.6516  0.091695352  0.092501555            1 
 1313000    1.0683945   -2.4173707    1442.8799  0.091576539  0.092485035            6 
 1314000    1.0501415   -2.4441789    1438.1915  0.091209503  0.092468321            2 
 1315000    1.0266172   -2.4554379    1447.1436  0.091707451  0.092451122            2 
 1316000    1.0122601   -2.4463571    1442.6686  0.091354392  0.092433991            2 
 1317000    1.0552925   -2.4009846     1449.278  0.091703239  0.092417627            1 
 1318000    1.0339612   -2.4143769    1441.1992  0.091122862  0.092400971            1 
 1319000    1.0297506   -2.4378098    1449.2433  0.091561996  0.092384611            2 
 1320000    1.0385789    -2.404014    1443.8736  0.091153635  0.092368697            3 
 1321000    1.0077436   -2.4336352    1455.2267  0.091800828  0.092352608            2 
 1322000    1.0196255   -2.4470645    1447.3297  0.091233592  0.092336287            1 
 1323000    1.0523868   -2.4075124    1456.1539  0.091720452  0.092320009            2 
 1324000    1.0439744   -2.4512249    1447.0346  0.091077204  0.092303942            2 
 1325000     1.033167   -2.4112052    1454.8578  0.091500489  0.092287453            2 
 1326000    1.0515442   -2.4513729    1451.6474  0.091229728  0.092270836            2 
 1327000    1.0326497   -2.4399679    1455.0795  0.091376506  0.092253701            3 
 1328000    1.0425041   -2.4526498    1451.2422  0.091066908  0.092237223            2 
 1329000    1.0452995   -2.4372052    1456.4874  0.091327275  0.092220654            1 
 1330000    1.0319262   -2.4348225    1455.1683  0.091175957  0.092204005            2 
 1331000    1.0185293   -2.3851435     1452.363  0.090931818  0.092186983            2 
 1332000    1.0346612   -2.4452695    1458.8178  0.091267378   0.09217016            3 
 1333000    1.0246393   -2.4574632    1455.7233  0.091005459  0.092153412            3 
 1334000    1.0512882   -2.4165407    1459.7871  0.091191098    0.0921365            1 
 1335000    1.0511658   -2.4297084    1461.4077  0.091223954  0.092119227            4 
 1336000      1.03096   -2.4184135    1466.8589  0.091495687  0.092102848            2 
 1337000    1.0401028    -2.459761    1463.3536  0.091208775  0.092086333            2 
 1338000    1.0386005   -2.4273774    1460.7069  0.090975768  0.092069674            2 
 1339000    1.0507943   -2.4312255    1471.2065  0.091561273  0.092053432            2 
 1340000    1.0330203   -2.4524749    1460.0586  0.090799665  0.092037095            1 
 1341000    1.0535338   -2.4386744    1462.8576  0.090905894  0.092020354            1 
 1342000    1.0339214   -2.4225734     1463.956  0.090906358  0.092003187            2 
 1343000    1.0310461   -2.4498193    1463.4438   0.09080689  0.091986156            3 
 1344000     1.029834   -2.4374247    1464.7016  0.090817311     0.091969            1 
 1345000    1.0511527   -2.4642022     1470.175   0.09108891  0.091952411            1 
 1346000    1.0373479   -2.4524023    1471.9925   0.09113376  0.091935453            1 
 1347000    1.0566947   -2.4567244    1467.2882  0.090775066  0.091918374            3 
 1348000    1.0428702   -2.4348459    1468.1513  0.090761087   0.09190133            3 
 1349000    1.0384285   -2.4536258    1475.9004  0.091172501  0.091884994            5 
 1350000    1.0395829   -2.4174698    1478.6313  0.091273537   0.09186901            2 
 1351000    1.0238382   -2.4307492    1470.4729  0.090702742  0.091852838            2 
 1352000     1.053046   -2.4345421    1474.6743  0.090894618  0.091836631            5 
 1353000    1.0322492    -2.453719    1478.5989  0.091069161  0.091820095            1 
 1354000    1.0385137   -2.4521217    1474.4518  0.090746667   0.09180342            2 
 1355000    1.0410008   -2.4512791    1479.7144  0.091003344  0.091786925            2 
 1356000    1.0269663   -2.4529441    1478.2206  0.090844433   0.09177041            2 
 1357000    1.0611816   -2.4361732    1482.0989  0.091015653  0.091754085            3 
 1358000    1.0355353   -2.4424392    1476.2303  0.090588504  0.091737768            1 
 1359000    1.0462509   -2.4649066    1481.7355  0.090859423  0.091721394            2 
 1360000    1.0373147   -2.4369045    1481.8601  0.090800248  0.091705367            2 
 1361000    1.0334828   -2.4574917    1477.6884  0.090478101  0.091688912            1 
 1362000    1.0178827   -2.4295322    1486.7531  0.090966294  0.091672596            1 
 1363000    1.0380234   -2.4322669    1487.6947  0.090957122   0.09165659            2 
 1364000    1.0502895    -2.442185    1480.9587  0.090478906  0.091640345            2 
 1365000    1.0261272   -2.4434606    1489.6474  0.090943068  0.091624477            3 
 1366000    1.0340191   -2.4287903    1495.4632  0.091231283  0.091608756            1 
 1367000    1.0653664   -2.4465754    1485.2868  0.090544185  0.091592534            2 
 1368000    1.0371495   -2.4654586    1485.8706   0.09051356   0.09157593            2 
 1369000    1.0151763    -2.474147    1488.7858  0.090624897  0.091560201            6 
 1370000    1.0245543   -2.4442655    1493.4522  0.090842594    0.0915444            2 
 1371000    1.0365045   -2.4622605    1488.1624  0.090454805  0.091528047            2 
 1372000    1.0304066   -2.4319525    1490.9849  0.090560309  0.091511891            2 
 1373000    1.0349645   -2.4448043    1496.5016   0.09082918  0.091495866            2 
 1374000    1.0446526   -2.4467099    1492.5335  0.090522409  0.091479182            2 
 1375000    1.0337928   -2.4424368    1491.3167  0.090382828  0.091462295            2 
 1376000    1.0537753   -2.4505614    1492.9177  0.090414106  0.091445494            1 
 1377000    1.0106873   -2.4550922    1497.5035  0.090625967  0.091428625            4 
 1378000    1.0247378   -2.4566187    1495.9245  0.090464712  0.091412175            2 
 1379000    1.0311515   -2.4534269    1503.1815  0.090837657  0.091395443            2 
 1380000    1.0335454   -2.4157666    1502.0028  0.090700655  0.091379179            2 
 1381000    1.0430273   -2.4509547    1503.0527  0.090698329  0.091362097            2 
 1382000    1.0585631   -2.4644936    1491.5126  0.089936842  0.091345333            2 
 1383000    1.0273626   -2.4804958    1504.1847  0.090635375  0.091328239            4 
 1384000    1.0031562    -2.445297    1504.2827  0.090575788  0.091311671            2 
 1385000    1.0448082   -2.4367236    1499.7448  0.090237352  0.091294702            2 
 1386000    1.0228109   -2.4629887     1502.797   0.09035576   0.09127692            2 
 1387000    1.0474585   -2.4560541    1500.2321  0.090136513  0.091260162            5 
 1388000    1.0133286   -2.4454527    1505.8242  0.090407315  0.091243297            1 
 1389000    1.0244768   -2.4587809    1509.1058  0.090539108  0.091226344            2 
 1390000     1.020655   -2.4589749    1507.4597  0.090375285  0.091209614            2 
 1391000    1.0375849   -2.4600216    1503.2607  0.090058753  0.091192915            1 
 1392000    1.0327934   -2.4710066    1501.9444  0.089915256  0.091175975            2 
 1393000    1.0221021   -2.4643675    1512.3463  0.090472978  0.091159218            2 
 1394000     1.044295    -2.441126    1502.1856  0.089800668   0.09114258            3 
 1395000    1.0272082   -2.4649214    1507.5712  0.090058019  0.091125552            1 
 1396000    1.0317071   -2.4536765    1505.3261  0.089859486  0.091108394            2 
 1397000    1.0559759   -2.4431112    1507.9641  0.089952523  0.091090985            2 
 1398000    1.0150248   -2.4431958    1503.5687  0.089626173  0.091073501            2 
 1399000    1.0377177   -2.4458126    1514.9255   0.09023859  0.091056484            2 
 1400000    1.0319639   -2.4330842    1508.6079  0.089798087  0.091038933            2 
 1401000    1.0114538    -2.421407    1514.8953  0.090107978   0.09102179            2 
 1402000    1.0285134   -2.4420137    1511.3122  0.089830731  0.091004223            1 
 1403000    1.0429507   -2.4733901    1507.5952  0.089545926  0.090986726            2 
 1404000    1.0022365   -2.4357061    1518.8649  0.090151052  0.090968433            2 
 1405000      1.03974   -2.4610926    1512.1271  0.089687255  0.090950715            1 
 1406000    1.0198152   -2.4362482    1510.0005  0.089497424  0.090932402            2 
 1407000    1.0260647   -2.4728574    1509.0023  0.089374693  0.090914314            2 
 1408000    1.0198588   -2.4575154    1516.1113  0.089731969  0.090897239            4 
 1409000    1.0253563   -2.4543837    1520.7064   0.08994005  0.090879709            3 
 1410000     1.018424   -2.4487451    1518.0048  0.089716594  0.090862883            2 
 1411000    1.0350165   -2.4347916    1524.3429   0.09002734   0.09084558            3 
 1412000    1.0403021   -2.4256943    1518.6199   0.08962582  0.090828486            2 
 1413000    1.0472134   -2.4554955    1528.9666    0.0901726  0.090811819            2 
 1414000    1.0418328   -2.4645886    1526.5278  0.089965099   0.09079569            2 
 1415000    1.0391824   -2.4722193    1530.4066  0.090129951  0.090779583            2 
 1416000    1.0194073   -2.4699923    1524.9377   0.08974445  0.090763566            6 
 1417000    1.0187006   -2.4608173    1530.6255  0.090015617  0.090747099            2 
 1418000    1.0239334   -2.4601779     1526.271  0.089696228  0.090730484            2 
 1419000     1.023137   -2.4716254    1527.8523  0.089725882    0.0907139            2 
 1420000   0.99891739   -2.4507455    1535.2159  0.090094832  0.090697607            1 
 1421000    1.0381986    -2.441769    1532.7847  0.089888849  0.090681237            2 
 1422000    1.0264477   -2.4607991    1538.6674  0.090170382  0.090664761            2 
 1423000   0.99268522   -2.4744846    1531.9773  0.089715234  0.090648258            3 
 1424000    1.0241323    -2.455289    1542.1281  0.090246261  0.090631478            1 
 1425000    1.0314749   -2.4639138    1533.9985  0.089707514  0.090615502            2 
 1426000    1.0018767     -2.47382    1534.6662  0.089683623  0.090599189            1 
 1427000     1.031061   -2.4440092    1537.7665  0.089801827  0.090582452            2 
 1428000    1.0210483   -2.4723138    1529.3978  0.089250569  0.090565969            3 
 1429000    1.0074466   -2.4562243    1543.0192  0.089982459  0.090549609            2 
 1430000    1.0314278   -2.4578239    1535.2375  0.089466057  0.090533455            2 
 1431000    1.0385304   -2.4738734    1539.4463  0.089648633  0.090517145            2 
 1432000     1.013082   -2.4719979    1540.2121  0.089630594  0.090500227            2 
 1433000    1.0176433   -2.4730092     1538.085  0.089444349  0.090483363            2 
 1434000    1.0126756    -2.454553    1543.5275  0.089698249  0.090466851            1 
 1435000    1.0062949   -2.4500885    1538.2219  0.089327637  0.090450666            4 
 1436000    1.0167763   -2.4444265    1540.8335  0.089416988  0.090434409            2 
 1437000     1.031249   -2.4604097    1550.1272  0.089893717  0.090418304            2 
 1438000    1.0072352   -2.4642199    1544.9384  0.089530505  0.090402269            4 
 1439000    1.0210173   -2.4657248    1548.7079  0.089686581   0.09038585            1 
 1440000    1.0277358   -2.4577642     1548.226  0.089596413  0.090369558            2 
 1441000    1.0046124   -2.4530137    1547.6332  0.089499955  0.090353587            2 
 1442000    1.0219387   -2.4859998    1545.0334  0.089287646   0.09033778            2 
 1443000    1.0176205   -2.4472466    1549.7473  0.089497997  0.090322029            3 
 1444000     1.016322    -2.463411    1550.7264  0.089492523  0.090306558            1 
 1445000    1.0298529   -2.4565987    1555.2735  0.089692819   0.09029111            2 
 1446000    1.0370896    -2.482221    1557.0628  0.089733907  0.090275404            1 
 1447000    1.0031151   -2.4586033    1556.1054  0.089616756  0.090260034            1 
 1448000    1.0264459   -2.4644096    1555.7917  0.089536818  0.090244614            6 
 1449000    1.0159868   -2.4779995     1563.424  0.089913961  0.090229707            1 
 1450000    1.0092236   -2.4836826    1558.3808  0.089562114  0.090214628            3 
 1451000    1.0150816   -2.4441407    1562.9886  0.089765021  0.090199599            2 
 1452000    1.0039988   -2.4557022    1566.9055  0.089928003  0.090184471            1 
 1453000    1.0303049   -2.4478058    1565.5269  0.089787043  0.090169984            2 
 1454000    1.0080812   -2.4718006    1563.4975   0.08960898  0.090155607            2 
 1455000   0.99124322   -2.4810901    1568.0526  0.089808283  0.090141172            2 
 1456000    1.0372217   -2.4519154    1568.3847  0.089765608  0.090126908            3 
 1457000    1.0151957    -2.464333    1564.6502  0.089490402  0.090112446            1 
 1458000   0.99977743   -2.4483032    1571.7634  0.089835583  0.090098237            5 
 1459000    1.0136396   -2.4848963    1568.4889  0.089586985  0.090083677           15 
 1460000     1.029072   -2.4685967    1568.5188  0.089527327  0.090068972            2 
 1461000    1.0197357   -2.4361982    1565.3369  0.089284561  0.090054316            2 
 1462000    1.0166487   -2.4586315     1575.593  0.089808084   0.09003987            2 
 1463000     1.013907    -2.442406    1571.1971  0.089496303  0.090024785            2 
 1464000    0.9956621   -2.4958454     1571.992  0.089480419  0.090009985            2 
 1465000     1.010209   -2.4539682     1572.083  0.089424514   0.08999487            2 
 1466000    1.0073057   -2.4591645    1574.3492  0.089492339  0.089979948            3 
 1467000   0.98929951   -2.4843626    1570.0152   0.08918514  0.089964825            1 
 1468000    1.0162534   -2.4703284    1565.7858  0.088884296  0.089950084            2 
 1469000    1.0290953    -2.456022    1586.3374  0.089989644  0.089935257            3 
 1470000    1.0126849   -2.5003464    1575.2192  0.089298142  0.089920684            2 
 1471000    1.0206114    -2.435093    1582.4498  0.089647054  0.089906162            6 
 1472000    1.0084476   -2.4892482    1581.7481   0.08954643  0.089891329            2 
 1473000   0.99684125    -2.448744    1590.1597  0.089961512  0.089877136            1 
 1474000    1.0097789   -2.4635425    1581.4619  0.089408745  0.089863197            2 
 1475000    1.0133966   -2.4649497    1587.0131  0.089661756  0.089848978            2 
 1476000   0.99576369   -2.4707183    1590.5294  0.089799536  0.089835139            2 
 1477000    1.0028306   -2.4530854    1595.6944  0.090030149  0.089821709            3 
 1478000    1.0372792   -2.4555921    1588.1064  0.089541409  0.089808072            4 
 1479000    1.0015747   -2.4700371    1588.8978  0.089525459  0.089794241            3 
 1480000    1.0269724    -2.474842    1598.1739  0.089987271  0.089780506            2 
 1481000     1.011742   -2.4946143     1593.782  0.089679385   0.08976679            1 
 1482000    1.0320492   -2.4863829    1592.0711  0.089522668   0.08975298            2 
 1483000    1.0238519   -2.4803591    1596.1559  0.089691835   0.08973895            3 
 1484000   0.99628513   -2.4716395    1597.3735  0.089699772  0.089725337            2 
 1485000   0.99114156    -2.460761    1588.0661  0.089117063   0.08971189            1 
 1486000   0.99727845   -2.4799314    1598.6619  0.089651293  0.089698034            1 
 1487000    1.0137071   -2.4555171    1599.6604  0.089646961  0.089684042            2 
 1488000     1.027139   -2.4741079    1599.5952  0.089583062  0.089670015            2 
 1489000   0.99383195   -2.4775516    1599.2117  0.089501439  0.089655644            2 
 1490000    1.0183757   -2.4906134    1593.0128  0.089094677  0.089641384            2 
 1491000    1.0063113   -2.4616035    1600.2034   0.08943681  0.089627083            2 
 1492000    1.0006354    -2.474511    1606.8587  0.089748586   0.08961298            3 
 1493000    1.0333917   -2.4661552    1597.4338  0.089162413  0.089598957            2 
 1494000    1.0150851   -2.4554789    1604.9329   0.08952102  0.089585127            2 
 1495000    1.0026541   -2.4573806    1609.2949  0.089704287  0.089570704            1 
 1496000     1.017301   -2.4937593    1601.8697  0.089230709  0.089556639            2 
 1497000    1.0267388   -2.4643889    1597.8244  0.088945914  0.089542142            4 
 1498000    1.0124351   -2.4605038     1603.845   0.08922146  0.089527412            2 
 1499000    1.0164473   -2.4709786    1602.6348  0.089094661  0.089513251            2 
 1500000    1.0277206   -2.4410845    1605.6801   0.08920445  0.089498833            1 
 1501000   0.98001109   -2.4646698    1602.5712  0.088972419  0.089484277            1 
 1502000    1.0059264   -2.4802956    1602.4866  0.088908487  0.089470021            5 
 1503000    1.0037792   -2.4806344    1606.9745  0.089098165  0.089455247            1 
 1504000    1.0057618   -2.4779733    1608.8153  0.089140918  0.089440387            5 
 1505000    1.0134369   -2.4503857    1612.4092  0.089280685  0.089426285            1 
 1506000    1.0055447   -2.4936943    1611.3517  0.089162886  0.089411813            2 
 1507000    1.0203039    -2.472103    1605.4311  0.088776329  0.089397455            4 
 1508000    1.0233054   -2.4637117     1611.598  0.089058245  0.089383427            3 
 1509000    1.0148021   -2.4634458    1613.5729  0.089108287  0.089369427            1 
 1510000    1.0086742   -2.4659065    1613.5706  0.089049151  0.089354851            2 
 1511000   0.99556652   -2.4847666    1612.7652  0.088945795  0.089340396            3 
 1512000    1.0390218   -2.4982197     1612.378  0.088865628  0.089325863            1 
 1513000    1.0202806   -2.4666125      1616.77    0.0890488  0.089311702            4 
 1514000    1.0058094   -2.4624564    1614.9027  0.088887203   0.08929727            2 
 1515000    1.0045707   -2.4655185    1617.3843  0.088965034  0.089283156            3 
 1516000   0.99506212   -2.4712655     1610.401  0.088522483  0.089268651            2 
 1517000    1.0223228   -2.4988747     1612.998  0.088606788  0.089254473            2 
 1518000    1.0029194   -2.4573547    1619.7782  0.088920632  0.089239948            3 
 1519000    1.0075186   -2.4795975     1622.065  0.088987546  0.089225819            2 
 1520000    1.0173758   -2.4804551    1620.7865  0.088858908   0.08921127            1 
 1521000    1.0094209   -2.4909417     1621.003  0.088812347  0.089197304            2 
 1522000    1.0049124   -2.4771428    1619.0219  0.088645526  0.089183132            3 
 1523000    1.0086634   -2.4579285     1623.631  0.088839519  0.089169098            1 
 1524000    1.0054293   -2.4674313    1625.4154  0.088878794  0.089155339            2 
 1525000    1.0143256   -2.4863314    1625.0183  0.088798814  0.089141223            4 
 1526000    1.0071526   -2.4743039    1625.7005  0.088777878  0.089127079            2 
 1527000     0.998652   -2.4918288    1621.2662  0.088477744  0.089112827            2 
 1528000    1.0261828   -2.4847477    1630.6862  0.088933583  0.089098496            1 
 1529000   0.98613909   -2.4899202    1629.1481  0.088791592  0.089084195            2 
 1530000    1.0275128   -2.4570823    1635.5482  0.089082145  0.089070185            1 
 1531000    1.0093679   -2.4698119    1629.7726  0.088709593   0.08905584            3 
 1532000    1.0090271   -2.4903727    1635.7832  0.088978632  0.089041357            2 
 1533000    1.0012549   -2.4589911    1631.7315  0.088700343  0.089026932            2 
 1534000   0.99320595   -2.4883172    1627.9736  0.088438375  0.089012813            4 
 1535000   0.99607294   -2.4642171    1630.3428  0.088509384  0.088998663            1 
 1536000    1.0024974   -2.4685303    1638.7531  0.088908044  0.088984631            3 
 1537000   0.98912642   -2.4999656    1635.2209  0.088658691  0.088970517            2 
 1538000    1.0058337   -2.4405483    1646.6863  0.089222273  0.088956365            2 
 1539000      1.01692   -2.4686249    1642.9379  0.088961334  0.088943031            5 
 1540000   0.99243925   -2.4711267     1636.879  0.088575702  0.088929596            1 
 1541000   0.99303667   -2.4930972    1644.2296  0.088915727  0.088915805            3 
 1542000   0.99821979   -2.4898837    1638.3318   0.08853933  0.088902847            2 
 1543000    1.0036624   -2.5029192     1641.883  0.088673741  0.088889334            2 
 1544000   0.98471572   -2.4785255    1648.4277  0.088969544  0.088876093            2 
 1545000    1.0284369   -2.4813355    1649.1698  0.088951985    0.0888628            1 
 1546000   0.99818005   -2.4969684    1649.6171  0.088918557  0.088849321            4 
 1547000     1.011066   -2.4766992    1648.4275  0.088797002  0.088836186            2 
 1548000   0.99421342   -2.4721486    1651.3957  0.088899426  0.088823145            1 
 1549000    1.0028376   -2.4902714    1646.1833  0.088561616  0.088809843            2 
 1550000    1.0010066   -2.4850831      1651.15  0.088771508  0.088796555            2 
 1551000   0.99924561   -2.4807121    1647.2421  0.088504301   0.08878367            2 
 1552000   0.99469333   -2.4578263    1652.7277  0.088741823  0.088770507            2 
 1553000    1.0190857   -2.4900336    1658.0242   0.08896889  0.088758182            3 
 1554000    1.0135137   -2.4762019    1656.2551  0.088816767  0.088745303            1 
 1555000    0.9888891   -2.4798888    1662.7907  0.089109896  0.088732631            3 
 1556000    1.0165295   -2.4499307    1659.0907   0.08885447  0.088719816            1 
 1557000   0.99071656   -2.4734399     1651.258  0.088378183  0.088706838            2 
 1558000   0.98912885   -2.4805787     1659.697  0.088772841  0.088693567            1 
 1559000    1.0093086     -2.49425    1663.0738  0.088896398  0.088681119            1 
 1560000    1.0042036    -2.470538    1661.0035  0.088728821  0.088668177            6 
 1561000   0.99064904   -2.4813378    1660.6817    0.0886548  0.088655008            4 
 1562000    1.0157769   -2.4394986    1668.8792  0.089035381  0.088641759            1 
 1563000    1.0058132   -2.4703289    1666.3477  0.088843448  0.088629136            1 
 1564000   0.99622014   -2.4768957    1671.4737  0.089059764  0.088616604            2 
 1565000    1.0166052   -2.4818319    1669.1183   0.08887744  0.088603918            2 
 1566000    1.0145918   -2.4745833    1667.9257  0.088757219  0.088591706            2 
 1567000    1.0201389   -2.4889662    1669.6823  0.088793994  0.088579199            1 
 1568000    1.0082838   -2.4730942    1675.9292  0.089069366  0.088566305            1 
 1569000    1.0079778   -2.4814578    1666.2241   0.08849714  0.088553666            2 
 1570000   0.97181383   -2.5269627    1665.7491  0.088415557  0.088540657            2 
 1571000   0.99647307    -2.495106    1668.5989  0.088510443  0.088527595            1 
 1572000    0.9747038   -2.4863879    1667.3562  0.088388262  0.088514425            4 
 1573000    1.0176912   -2.4738335    1673.8404  0.088675591  0.088501837            2 
 1574000   0.99712585   -2.4863904    1677.6109  0.088818874  0.088489007            2 
 1575000    1.0013943   -2.4949187    1678.2775  0.088797749  0.088476289            3 
 1576000   0.98284077   -2.4879002    1674.8532  0.088560345  0.088463293            3 
 1577000    0.9961242    -2.494187    1676.9946  0.088617342  0.088450473            5 
 1578000   0.98831551   -2.4786117     1676.506  0.088535383  0.088437655            1 
 1579000    1.0109901   -2.4632666    1678.9502  0.088608308  0.088424741            2 
 1580000    1.0094639   -2.4774243    1681.4209  0.088682535  0.088411709            4 
 1581000   0.99575728   -2.5055346    1673.6091   0.08821469  0.088398711            4 
 1582000    1.0127564   -2.4896518    1686.9577   0.08886208  0.088385662            1 
 1583000   0.98315887   -2.4937154    1683.0841  0.088602027  0.088373141            4 
 1584000   0.99622836   -2.4610706    1677.4322  0.088248746   0.08836077            2 
 1585000    1.0057259    -2.490013    1683.6293  0.088518889  0.088348077            3 
 1586000    1.0037224   -2.4853091    1682.0106  0.088378027  0.088335585            4 
 1587000   0.98846644   -2.5047787    1682.7431    0.0883608  0.088323011            3 
 1588000   0.99287714    -2.480463    1685.4942  0.088449526  0.088310509            3 
 1589000    1.0041825   -2.4998483    1684.1728  0.088324567  0.088298111            4 
 1590000    1.0092699   -2.4966322     1688.625  0.088502359  0.088285114            4 
 1591000    1.0163466   -2.5132329    1679.8104  0.087985043  0.088272741            2 
 1592000   0.98435641   -2.4717112    1685.4224  0.088223534  0.088260113            3 
 1593000    1.0045751   -2.4838653    1690.4631  0.088431842  0.088247526            5 
 1594000    1.0079069   -2.5123668    1686.5806  0.088173391  0.088235249            2 
 1595000   0.98454186   -2.4841197    1697.6438  0.088696125  0.088223029            2 
 1596000   0.99123742   -2.4778317    1695.3504  0.088520803  0.088210444            2 
 1597000    1.0221078   -2.4921355    1698.4603   0.08862765   0.08819812            2 
 1598000   0.98959168   -2.4923588    1701.3737  0.088724117  0.088185668            3 
 1599000   0.99136576   -2.4882167    1690.8797  0.088121725  0.088173482            3 
 1600000      1.01323   -2.5134944    1692.2606  0.088138574  0.088161483            1 
 1601000   0.98448182   -2.4684734    1694.0245  0.088175334  0.088149057            2 
 1602000   0.99513567   -2.4871823    1700.0462  0.088433531  0.088136869            2 
 1603000   0.99388353   -2.4747991    1704.4933  0.088609551  0.088124626            3 
 1604000    1.0092267   -2.5122004    1702.0683   0.08842832  0.088112374            1 
 1605000   0.99985147   -2.5229938    1702.4416  0.088392609  0.088099977            1 
 1606000    1.0053333   -2.4819831    1705.1946  0.088480415  0.088088573            3 
 1607000   0.99194573   -2.5081826    1704.9284  0.088411556  0.088076789            3 
 1608000    1.0177784   -2.5037065    1701.3773  0.088172537   0.08806453            1 
 1609000    0.9986233   -2.4727502    1703.2638  0.088215443  0.088052512            1 
 1610000   0.97906957   -2.5113404     1699.868  0.087984888  0.088040524            2 
 1611000   0.99261845   -2.4825547    1710.8698  0.088499369  0.088028095            2 
 1612000   0.98691559   -2.4700694    1710.4079  0.088420591  0.088016239            3 
 1613000    1.0141372   -2.5058413    1705.3902   0.08810654  0.088004273            2 
 1614000   0.98794171   -2.4933458    1706.1555  0.088091463  0.087992339            2 
 1615000    1.0034241   -2.4959113    1712.2952  0.088353723  0.087980732            4 
 1616000    1.0098435   -2.4774513    1715.4182  0.088460097  0.087968902            2 
 1617000   0.99299517   -2.4847239    1716.9132  0.088482435  0.087957035            2 
 1618000    0.9970934   -2.4872213    1711.7082  0.088159675  0.087944598            2 
 1619000   0.98051751    -2.481861    1715.4755  0.088299131  0.087932458            2 
 1620000   0.99084013   -2.5131225    1715.8537  0.088264078  0.087920106            1 
 1621000   0.97646963   -2.4876429    1715.2343  0.088177786  0.087907531            2 
 1622000   0.97985865   -2.4946334    1720.4638  0.088392099  0.087895203            2 
 1623000    1.0110435   -2.4899194    1720.9627  0.088363251  0.087882849            2 
 1624000   0.99718218   -2.4945972    1709.4011  0.087715571  0.087870291            2 
 1625000   0.98650552   -2.4910713    1717.9397  0.088099471  0.087857854            2 
 1626000    1.0082755   -2.4831354    1712.0891  0.087745444  0.087845257            2 
 1627000    1.0264191   -2.4916545    1710.1331  0.087591328  0.087832279            6 
 1628000   0.99714053    -2.472433    1714.1688  0.087744101  0.087819667            2 
 1629000    1.0071724   -2.5220703    1719.9987  0.087988477  0.087806841            5 
 1630000    1.0135173   -2.5084501    1713.4235  0.087598339  0.087793677            1 
 1631000   0.99103276   -2.4784631    1719.6211  0.087861286   0.08778056            3 
 1632000    1.0041971    -2.497679    1718.2992  0.087739951  0.087767789            2 
 1633000   0.97558703   -2.4674546    1718.9598  0.087719933  0.087754439            2 
 1634000    1.0054433   -2.4837993    1721.1793  0.087779443  0.087741342            3 
 1635000   0.97526598   -2.4946829    1718.5566  0.087592078  0.087728245            2 
 1636000    1.0102449   -2.5053812    1723.1347  0.087771736  0.087715211            2 
 1637000    0.9837849   -2.4741139    1724.7427  0.087799976   0.08770193            2 
 1638000   0.98111255    -2.483299    1729.4624  0.087986487   0.08768917            3 
 1639000   0.98333632   -2.5031748    1725.4152  0.087727029   0.08767609            4 
 1640000   0.99245555   -2.5097432    1724.1199  0.087607718  0.087663137            1 
 1641000   0.96575822   -2.5223012    1724.8296  0.087590371  0.087650372            1 
 1642000   0.98353886   -2.5214812     1727.989  0.087697372  0.087637672            1 
 1643000   0.98682444   -2.4839644    1727.5579  0.087622127   0.08762492            1 
 1644000    1.0040526   -2.4977223    1730.7422  0.087730242  0.087612106            4 
 1645000   0.97969572   -2.4717795    1729.3859  0.087608204   0.08759889            3 
 1646000    1.0020583   -2.4859673    1734.0215  0.087789667  0.087585653            2 
 1647000   0.99770481   -2.4941834    1732.5342  0.087661111  0.087572407            4 
 1648000    0.9954608   -2.5086357    1730.7714   0.08751878  0.087559393            2 
 1649000    1.0044395   -2.5005151    1730.9925  0.087476879  0.087546833            2 
 1650000   0.99806051   -2.4715306    1731.3808  0.087443475  0.087533852            2 
 1651000   0.98389911   -2.5089288    1735.7722  0.087612162  0.087520733            3 
 1652000   0.97935008   -2.5070093    1740.0017  0.087772484  0.087507612            1 
 1653000     0.981069   -2.4679191    1737.0184  0.087568986   0.08749453            2 
 1654000   0.98429154   -2.5063944    1735.9337  0.087461391  0.087481585            7 
 1655000    1.0077509   -2.5181435    1740.1758  0.087622143  0.087468712            2 
 1656000   0.99332842   -2.5313996    1739.3328  0.087526809  0.087455432            1 
 1657000   0.99228822   -2.4907026    1737.6385  0.087388778  0.087441978            2 
 1658000   0.98395587   -2.4973346    1739.6331  0.087436325   0.08742919            4 
 1659000   0.97794223   -2.5102368    1736.8146  0.087242043  0.087416133            1 
 1660000   0.96836408   -2.4767686    1750.6234  0.087882702  0.087402892            3 
 1661000   0.99809203    -2.496139    1742.5014  0.087422307  0.087389716            4 
 1662000    0.9802814   -2.5212355    1746.2687    0.0875586   0.08737674            3 
 1663000   0.98077882   -2.5087104    1742.0967  0.087296891  0.087363695            2 
 1664000   0.97612717   -2.5060965    1740.1132  0.087145091  0.087350716            5 
 1665000   0.99608862   -2.4894609    1747.9245  0.087483711  0.087338346            2 
 1666000   0.98245038   -2.4787851    1745.4793  0.087308888  0.087325589            1 
 1667000   0.97668569    -2.496158    1741.3968   0.08705243  0.087312512            2 
 1668000    0.9738673   -2.4999458    1745.5033  0.087205401   0.08729965            1 
 1669000    1.0034589   -2.5046049    1753.2727  0.087541077  0.087287165            4 
 1670000    0.9908145   -2.5360726    1747.9603  0.087223567  0.087274265            2 
 1671000   0.99641993   -2.4835414    1752.2105  0.087383327  0.087261462            2 
 1672000   0.98336076   -2.5068214    1751.2819  0.087284786  0.087249094            1 
 1673000   0.97960217    -2.522231    1753.7585  0.087355974  0.087236402            1 
 1674000   0.99386569   -2.5181176    1757.1393  0.087472086  0.087223362            3 
 1675000   0.97076684   -2.5188623     1760.548  0.087589455  0.087211083            3 
 1676000   0.99425015   -2.4975044    1753.5639  0.087189929  0.087198441            2 
 1677000   0.98017156   -2.5105588    1755.2642  0.087222432  0.087185949            2 
 1678000   0.98353481   -2.5059062    1760.9173  0.087451198  0.087173379            2 
 1679000   0.98803209   -2.5117843    1755.5193  0.087131192  0.087160551            3 
 1680000   0.98664419   -2.4924684    1751.5076  0.086880338  0.087147869            5 
 1681000   0.99547793   -2.5158089    1761.6994  0.087333896  0.087134428            3 
 1682000   0.98139449   -2.5132667    1745.1848  0.086463775  0.087120959            3 
 1683000   0.96610387   -2.4932792    1760.5119  0.087171318  0.087107105            2 
 1684000   0.95996907   -2.4991469    1753.2137  0.086758399  0.087093304            2 
 1685000   0.99960124   -2.4943156    1757.3021  0.086909103  0.087079496            2 
 1686000   0.98744432   -2.5016702    1760.6379  0.087022433  0.087065691            2 
 1687000   0.99254128   -2.5172139    1758.2638  0.086853575   0.08705199            2 
 1688000   0.98775573   -2.5030863     1761.089    0.0869416  0.087037832            1 
 1689000   0.99211554   -2.5195482    1757.7253  0.086724162  0.087023914            4 
 1690000    0.9762493   -2.4940433    1771.0271  0.087328753  0.087010153            4 
 1691000     0.982869   -2.5061345    1755.7632  0.086524894  0.086996073            2 
 1692000   0.98064556   -2.4959314    1765.3405  0.086945455  0.086982016            2 
 1693000   0.97687222   -2.5093727    1765.3278  0.086893472  0.086968036            2 
 1694000   0.96389899    -2.507543    1750.9592  0.086135339  0.086953955            2 
 1695000   0.97950849    -2.501186    1767.1161  0.086878867  0.086939971            1 
 1696000    0.9863807   -2.4702799    1766.8024  0.086812227  0.086926322            1 
 1697000   0.97019856   -2.4772547    1767.7552  0.086807857  0.086912403            2 
 1698000   0.97854433   -2.5190806    1764.8322  0.086613279  0.086898269            5 
 1699000   0.99006787   -2.5227178    1759.3703  0.086294405  0.086884061            2 
 1700000   0.98296061   -2.5088443    1765.8152   0.08655957  0.086870221            2 
 1701000   0.97733288   -2.5097829    1766.7056    0.0865523  0.086855824            1 
 1702000    1.0010884   -2.5187986    1765.4416  0.086439562  0.086841475            3 
 1703000   0.97151385   -2.5258234    1764.3156  0.086333703  0.086827085            2 
 1704000   0.95696478   -2.5202279    1769.3343  0.086528478  0.086812606            2 
 1705000   0.96915648    -2.509813    1769.5089  0.086486261  0.086798328            3 
 1706000   0.96304894   -2.5114554    1768.1801  0.086370657  0.086784041            2 
 1707000    1.0019268   -2.5075634    1772.2396  0.086518238  0.086769592            2 
 1708000   0.99417048   -2.5048798    1768.0226  0.086261839  0.086755277            1 
 1709000   0.98466644   -2.5154382     1775.526  0.086577239  0.086740989            2 
 1710000   0.95002971   -2.5168997    1776.0645   0.08655285  0.086726749            3 
 1711000   0.99416972   -2.4991711    1774.0666  0.086404959  0.086712529            1 
 1712000    0.9761247   -2.4940269    1779.9325  0.086640019  0.086698112            2 
 1713000    0.9712687   -2.5178026    1773.9435  0.086298087  0.086683837            3 
 1714000   0.99744656   -2.5182598    1768.5797  0.085986954  0.086669531            3 
 1715000    0.9807851   -2.5091069    1780.7819  0.086529733  0.086655109            2 
 1716000   0.98677879   -2.5087673    1779.4375  0.086414022  0.086641054            4 
 1717000   0.97459266   -2.5053706    1778.3777  0.086312257  0.086627075            2 
 1718000   0.97468772   -2.5268733    1777.5781  0.086223229  0.086613185            3 
 1719000   0.98212544   -2.5102489    1775.7704  0.086085436  0.086598719            1 
 1720000   0.98692099   -2.5290603    1772.5606  0.085879875  0.086584234            3 
 1721000   0.99275665   -2.5165142    1776.3744  0.086014644  0.086569798            5 
 1722000   0.96543886   -2.5178201    1776.6393  0.085977512  0.086555355            2 
 1723000   0.96693801   -2.4873955    1781.5784  0.086166495  0.086540938            2 
 1724000   0.97323013     -2.52097    1785.1771  0.086290465  0.086526633            5 
 1725000   0.99502771   -2.4801461    1784.4948  0.086207479  0.086512241            2 
 1726000   0.98133991   -2.5015565    1786.3954  0.086249297  0.086498095            4 
 1727000   0.98638481   -2.5222109    1779.8056  0.085881375  0.086483893            4 
 1728000   0.99276105   -2.5497545    1785.0406  0.086084134  0.086469298            2 
 1729000   0.96450307   -2.4982593    1781.4041  0.085859075  0.086454615            2 
 1730000   0.97361797   -2.5012784    1787.7827  0.086116699  0.086440431            4 
 1731000   0.97356385    -2.535885    1792.2067  0.086279927  0.086425999            2 
 1732000   0.97105482   -2.5130927    1784.6826    0.0858681  0.086411688            2 
 1733000   0.98544564    -2.520084    1793.6003  0.086247371   0.08639692            3 
 1734000   0.97715072   -2.5028649    1794.5257  0.086242106  0.086382385            1 
 1735000   0.99993854   -2.5020478    1784.9859  0.085734194  0.086367746            1 
 1736000   0.98775825   -2.4920296    1789.5733  0.085905014  0.086352677            2 
 1737000   0.97056421   -2.5421593    1782.4935  0.085515905  0.086337336            5 
 1738000   0.98753564   -2.5102465    1791.4479  0.085896045  0.086322575            1 
 1739000   0.97712154   -2.5116232    1795.6267    0.0860469  0.086307559            3 
 1740000   0.97539097   -2.5198911    1786.6362  0.085566866  0.086292004            3 
 1741000   0.96590397   -2.5031059    1794.4002  0.085889344  0.086276962            2 
 1742000   0.95970952   -2.5026105    1791.3603   0.08569462  0.086262094            2 
 1743000   0.96062288   -2.5332061    1791.0892  0.085632492  0.086247229            1 
 1744000   0.97187596   -2.5293648     1792.016  0.085627676  0.086232489            1 
 1745000   0.99616716   -2.5130956    1793.6273  0.085655553  0.086217328            4 
 1746000    0.9614357   -2.5066655    1799.6117  0.085892122  0.086202429            2 
 1747000   0.99413605   -2.4938184    1794.9636  0.085621235   0.08618762            4 
 1748000   0.96665317   -2.5128614     1799.751  0.085800487  0.086172919            3 
 1749000   0.97577455   -2.5063922    1797.3378   0.08563645  0.086157981            3 
 1750000   0.96781786   -2.5231047    1799.0848  0.085670704  0.086143066            1 
 1751000   0.99137743   -2.5249351     1798.874  0.085611745  0.086128363            3 
 1752000   0.96917684   -2.5417763    1797.6043  0.085502487  0.086113787            1 
 1753000   0.97220048   -2.5103298    1809.2825  0.086008864  0.086099074            2 
 1754000   0.98005925     -2.48337    1801.6574  0.085597558   0.08608455            5 
 1755000   0.95951746   -2.4954411    1813.8246  0.086126522  0.086070367            2 
 1756000   0.97099277   -2.5182793    1806.9892  0.085753095  0.086056213            3 
 1757000   0.96615045   -2.5263135    1806.5861  0.085685167  0.086041289            2 
 1758000   0.98879402    -2.519979    1804.1526  0.085521074  0.086026996            3 
 1759000   0.96721793   -2.5275874    1799.8732  0.085269718   0.08601249            3 
 1760000   0.96624504   -2.5204847    1809.4135   0.08567299  0.085998304            5 
 1761000   0.97336583   -2.5078107    1809.4087   0.08562411  0.085983586            3 
 1762000    0.9695164   -2.4996087    1802.8744  0.085266479  0.085968836            4 
 1763000   0.96220395    -2.491001    1817.4536  0.085907244  0.085954268            1 
 1764000   0.98240839   -2.4929654    1810.7637  0.085542503  0.085940237            5 
 1765000   0.99006185   -2.5133961    1811.1775  0.085513572  0.085925986            3 
 1766000   0.97397665   -2.5240152     1809.311  0.085377078   0.08591164            1 
 1767000   0.96662662   -2.5263447    1816.4396  0.085664949  0.085896821            2 
 1768000   0.96290986    -2.516467    1810.9392  0.085357241  0.085882354            3 
 1769000    0.9602149   -2.5291969      1811.81  0.085350009   0.08586807            2 
 1770000   0.99078678   -2.5116927    1825.8275  0.085961748  0.085853452            1 
 1771000   0.97794518   -2.5058953    1817.8712  0.085538829  0.085839228            2 
 1772000   0.98898269   -2.5247151    1812.7803  0.085251141  0.085824433            2 
 1773000   0.95871978    -2.513262      1821.06  0.085592216  0.085810245            5 
 1774000   0.95412761   -2.5349618    1821.9961   0.08558794  0.085796318            1 
 1775000   0.96211459   -2.5278054    1818.8496  0.085391999  0.085781897            5 
 1776000   0.98477951    -2.555825    1821.4507  0.085465966  0.085767458            4 
 1777000   0.98526787   -2.5169831    1814.9996  0.085115345  0.085753195            4 
 1778000     0.984713   -2.5014057    1818.7641   0.08524391  0.085739157            5 
 1779000   0.94831737   -2.4931924    1822.8701   0.08538833  0.085725295            2 
 1780000   0.95082402   -2.5215276    1826.4279  0.085506924   0.08571118            2 
 1781000   0.96869973   -2.4995759    1823.6598  0.085329395  0.085697083            2 
 1782000   0.95823497    -2.523284    1832.2447  0.085682975  0.085683085            2 
 1783000   0.95286341   -2.4910085     1827.593   0.08541751  0.085669096            2 
 1784000   0.95793185   -2.5135844    1823.5779  0.085182078  0.085655231            1 
 1785000   0.96121116    -2.552652    1825.4442  0.085221482  0.085641189            3 
 1786000   0.97477534   -2.5029521    1838.8806  0.085800699  0.085627235            2 
 1787000   0.99061693   -2.4967541    1824.6754  0.085090252  0.085613562            2 
 1788000   0.97654444   -2.5177988    1830.6334  0.085320348  0.085599584            1 
 1789000   0.95281544   -2.5172832    1833.4584   0.08540425  0.085585683            2 
 1790000   0.97588477    -2.532403    1826.4476  0.085030147  0.085571652            1 
 1791000   0.97247407   -2.5218571    1829.7649  0.085137024  0.085557887            2 
 1792000   0.96118431    -2.513647    1835.8518  0.085372574  0.085543485            3 
 1793000   0.96779885   -2.5229419    1838.6407   0.08545458  0.085529206            1 
 1794000   0.96629329   -2.5384984     1836.082  0.085288088  0.085514752            2 
 1795000   0.96201183   -2.5355175    1834.0392  0.085145737  0.085500335            4 
 1796000   0.95225484   -2.5297193    1827.0337  0.084773277  0.085485544            4 
 1797000   0.95109354   -2.5195472    1834.1588  0.085056519  0.085470962            3 
 1798000   0.97703995   -2.5090789    1841.6014  0.085354162  0.085456489            3 
 1799000   0.97112916   -2.5321448    1838.4759  0.085161935  0.085442188            2 
 1800000   0.96991892    -2.513519    1841.4494  0.085252288  0.085427889            1 
 1801000   0.97586436    -2.530075    1837.7465  0.085033618  0.085413625            2 
 1802000   0.94952135   -2.5271253    1837.5992  0.084979613  0.085399644            2 
 1803000   0.95111945    -2.522905    1838.3031  0.084965019  0.085385069            3 
 1804000    0.9636469   -2.5291584     1845.032  0.085228751  0.085370663            3 
 1805000     0.987578   -2.5185268    1842.3356  0.085057046  0.085356425            2 
 1806000   0.97795173   -2.5446698    1847.1846  0.085233692  0.085342481            4 
 1807000   0.97127047   -2.5253056    1838.3707  0.084780054   0.08532868            3 
 1808000   0.96029201   -2.5198919    1849.2086  0.085232696  0.085314667            5 
 1809000   0.95469724   -2.5052912    1848.1859   0.08513847  0.085300931            3 
 1810000   0.95866458   -2.5325195    1856.4262   0.08547082  0.085287099            1 
 1811000   0.97902606   -2.5332678    1852.4914  0.085242564  0.085273259            2 
 1812000    0.9634209   -2.5285061     1847.229  0.084953504  0.085259787            2 
 1813000   0.96766015   -2.5470574    1850.4296  0.085053762  0.085246145            2 
 1814000   0.94349927   -2.5348401    1859.7421  0.085434681   0.08523329            2 
 1815000   0.93660624   -2.5317652    1855.9377  0.085212932  0.085219711            4 
 1816000   0.95566527   -2.5325043    1858.8629  0.085300242  0.085206275            2 
 1817000    0.9722637     -2.54437    1852.5469  0.084963625  0.085192798            2 
 1818000    0.9467064   -2.5256669    1857.8036  0.085157849  0.085179623            3 
 1819000   0.97033101   -2.5188745    1851.8847  0.084839871  0.085166229            2 
 1820000   0.95440124   -2.5214734    1864.0814  0.085351712  0.085152587            2 
 1821000   0.94039819    -2.514902    1856.8807  0.084975323  0.085138804            4 
 1822000   0.96266565   -2.5330479     1857.252  0.084945664  0.085125275            4 
 1823000   0.94913785   -2.5372281    1859.7577   0.08501361  0.085111502            3 
 1824000   0.96669194    -2.534017    1859.2552  0.084944042  0.085098355            4 
 1825000   0.93521057   -2.5150603     1857.622  0.084822924  0.085084864            2 
 1826000   0.94555346   -2.5224913     1862.801  0.085012823  0.085071203            1 
 1827000   0.93996389   -2.5276315    1863.6579  0.085005376  0.085057454            2 
 1828000   0.95024728   -2.5185627    1858.9368  0.084743656  0.085043553            4 
 1829000   0.96130281   -2.5526095     1866.044  0.085021139  0.085029776            1 
 1830000    0.9504815   -2.5264745    1863.1579  0.084843255  0.085016245            2 
 1831000   0.96231598    -2.509049    1872.8103  0.085236223  0.085002951            4 
 1832000   0.96885536   -2.5275292    1867.5333   0.08494966  0.084989299            2 
 1833000   0.96017332   -2.5501617    1867.6164  0.084907091  0.084975779            3 
 1834000   0.96940211   -2.5263535    1867.1276  0.084838588  0.084962023            3 
 1835000   0.97399939   -2.5345266    1868.1415  0.084838395  0.084948572            1 
 1836000    0.9609426   -2.5336419    1870.9566   0.08491996  0.084935094            2 
 1837000   0.96509351   -2.5150682    1876.7848  0.085138125   0.08492156            3 
 1838000   0.96105848   -2.5189097    1881.6661  0.085313116  0.084908447            3 
 1839000   0.95745318   -2.5446754    1875.9121  0.085005987   0.08489541            5 
 1840000     0.959871   -2.5467824    1872.8465  0.084820948  0.084882195            4 
 1841000    0.9398239   -2.5280202    1876.0553  0.084920121  0.084868978            6 
 1842000   0.97203607   -2.5342924    1882.6298  0.085171455  0.084856005            4 
 1843000   0.94992283   -2.5124432    1877.0308  0.084872076  0.084843183            4 
 1844000   0.94802086   -2.5256497    1880.9279  0.085002162  0.084829999            1 
 1845000   0.94421455   -2.5238635    1878.0042   0.08482404  0.084816409            2 
 1846000   0.95454985   -2.5363367    1882.3102   0.08497247  0.084803346            2 
 1847000   0.95701695   -2.5290381    1886.3246  0.085107588  0.084790488            4 
 1848000   0.97304208   -2.5476286    1879.7622   0.08476561  0.084777628            2 
 1849000   0.95685793   -2.5481527    1881.8645  0.084814516  0.084764511            5 
 1850000   0.96285187   -2.5399393    1884.8034  0.084901053   0.08475167            3 
 1851000   0.95429353   -2.5225569     1887.954  0.084997027  0.084739103            3 
 1852000    0.9417179   -2.5212891    1884.1957  0.084782024  0.084726415            2 
 1853000   0.95420036   -2.5709753    1889.7461  0.084985882  0.084713769            2 
 1854000   0.96086454   -2.5457172    1884.9613  0.084724977  0.084700878            3 
 1855000   0.97395237   -2.5218157    1892.0066  0.084995804  0.084688294            3 
 1856000   0.96465915    -2.536323    1890.6449  0.084888868  0.084675779            2 
 1857000   0.93786571   -2.5009588    1890.2382  0.084824905  0.084663366            1 
 1858000   0.94128772   -2.5312917    1896.3293  0.085052442  0.084650998            2 
 1859000   0.95001272   -2.5261563    1897.8419  0.085074496  0.084638877            2 
 1860000   0.95389953   -2.5517883    1895.6403   0.08493012  0.084626556            1 
 1861000   0.95306068   -2.5340441     1894.574  0.084836735  0.084613785            2 
 1862000   0.95641614    -2.537743    1895.9228  0.084851538  0.084601142            2 
 1863000   0.94423017   -2.5481963    1899.2084   0.08495296  0.084588277            2 
 1864000   0.96166305   -2.5199881    1895.4019   0.08473721   0.08457522            1 
 1865000   0.96587185   -2.5165392    1900.4782  0.084918598  0.084562811            2 
 1866000   0.96304106   -2.5443157    1887.8552  0.084309362  0.084549938            1 
 1867000   0.92539473   -2.5516909    1893.0119  0.084494373  0.084537417            2 
 1868000    0.9548794   -2.5452233    1897.6389  0.084655556  0.084524198            1 
 1869000   0.96621829   -2.4822746    1898.3031  0.084639873  0.084511576            2 
 1870000   0.98086359   -2.5499583    1895.7744  0.084481927  0.084498927            1 
 1871000   0.97538908   -2.5379995    1901.1145  0.084674615  0.084485784            2 
 1872000   0.96507318   -2.5413771    1900.2219   0.08458965  0.084473179            3 
 1873000   0.96491578   -2.5436149    1898.0127  0.084446197  0.084460276            2 
 1874000   0.94888183   -2.5293174    1898.2427  0.084411363  0.084447572            4 
 1875000   0.95625832   -2.5200944    1907.4583  0.084775926  0.084435032            1 
 1876000   0.96404853   -2.5338014    1909.8308  0.084836123   0.08442204            4 
 1877000   0.92881887   -2.5344853    1904.5509  0.084556514  0.084409652            3 
 1878000   0.94903855   -2.5331364    1906.5511  0.084600245     0.084397            1 
 1879000   0.95453164   -2.5566796    1911.5284  0.084775964  0.084384341            5 
 1880000   0.93464096   -2.5311437    1909.4644  0.084639381  0.084371894            2 
 1881000   0.95332982   -2.5466857    1907.0864   0.08448903   0.08435928            4 
 1882000   0.94130302    -2.524843    1916.4271  0.084857733  0.084346536            1 
 1883000   0.94416125   -2.5432897    1908.5492  0.084464031   0.08433396            1 
 1884000   0.94582196   -2.5517066    1912.5529  0.084596291  0.084321377            3 
 1885000   0.95436819   -2.5365075    1916.1299  0.084709547  0.084308953            6 
 1886000   0.94402141   -2.5166523    1911.4942    0.0844598  0.084296601            2 
 1887000   0.94448868   -2.5483864    1907.9641  0.084259145  0.084284431            3 
 1888000   0.92737106   -2.5431863    1920.4224  0.084764405   0.08427206            2 
 1889000   0.94917917   -2.5434239    1920.3617  0.084716858   0.08425973            3 
 1890000   0.95609347   -2.5453915    1908.5046  0.084149231  0.084247071            3 
 1891000   0.96108353   -2.5423841    1920.2711  0.084623265  0.084234347            3 
 1892000     0.944479    -2.546668    1925.7281   0.08481889  0.084222095            2 
 1893000   0.94700166   -2.5500707    1921.8366  0.084602771  0.084209798            3 
 1894000   0.94399474   -2.5508869    1929.4747  0.084894171  0.084197573            3 
 1895000   0.95086826   -2.5611786    1923.5162  0.084587345  0.084185341            2 
 1896000   0.94371331   -2.5321097     1917.206  0.084265384   0.08417302            2 
 1897000   0.95011656   -2.5395593     1920.255  0.084354902  0.084160908            2 
 1898000   0.94882747   -2.5424439     1923.448   0.08445065  0.084148259            1 
 1899000    0.9383325   -2.5419294    1919.9209  0.084251401  0.084135992            1 
 1900000   0.94393324   -2.5643479    1921.2309  0.084264515  0.084123308            2 
 1901000   0.96342009   -2.5071977    1934.2709  0.084791814  0.084110642            1 
 1902000   0.95735272   -2.5829157    1921.5323  0.084189113  0.084098447            3 
 1903000   0.94558046   -2.5562592    1931.0289  0.084560734  0.084086251            3 
 1904000    0.9600306   -2.5535835    1934.9817  0.084689327  0.084073932            3 
 1905000   0.95125481   -2.5551915    1932.1729     0.084522  0.084061756            5 
 1906000   0.93648473   -2.5683901    1931.7558  0.084459417  0.084049445            2 
 1907000    0.9512726   -2.5432746    1926.9449  0.084204897  0.084037432            2 
 1908000   0.94515817   -2.5288872    1936.4684  0.084576713  0.084025619            2 
 1909000   0.94963631   -2.5494096    1931.3915  0.084310787  0.084013935            1 
 1910000   0.95227828   -2.5588965    1941.9928  0.084729182  0.084002207            3 
 1911000   0.93400056   -2.5538478    1935.5328  0.084403138  0.083990361            6 
 1912000   0.94659769   -2.5566093    1935.9029  0.084375126  0.083978404            6 
 1913000   0.94066397   -2.5579158    1937.8972  0.084417893  0.083966551            5 
 1914000    0.9371548   -2.5410145    1942.4356  0.084571388  0.083954479            4 
 1915000   0.94828442   -2.5750824    1929.4113  0.083960458  0.083942402            4 
 1916000   0.92759461   -2.5303886    1940.8596  0.084414561  0.083930424            3 
 1917000   0.92672703   -2.5580397    1941.2472  0.084387378  0.083918062            4 
 1918000   0.94420449   -2.5142987    1941.3155  0.084346344  0.083905839            2 
 1919000    0.9419947   -2.5538463     1934.475  0.084005342  0.083893615            1 
 1920000   0.94159737   -2.5465741    1938.2413  0.084125056  0.083881235            2 
 1921000   0.95090585   -2.5648332    1936.0214  0.083984964  0.083868693            2 
 1922000   0.95101578   -2.5192332    1938.2752  0.084038987  0.083856484            2 
 1923000   0.95183379    -2.569784     1940.577  0.084095033  0.083844433            3 
 1924000   0.92371601   -2.5624818    1941.4325  0.084088378  0.083832323            2 
 1925000   0.95213976   -2.5758073    1944.8303  0.084191789  0.083820127            2 
 1926000   0.96525323   -2.5391067    1950.5836  0.084397006  0.083807982            1 
 1927000    0.9723642    -2.545006    1944.6568  0.084096905  0.083795721            2 
 1928000   0.94722382   -2.5558571    1943.5069  0.084003585  0.083783306            3 
 1929000   0.92299659   -2.5711396     1943.748  0.083970452  0.083770666            3 
 1930000   0.93621111   -2.5604983    1940.5992  0.083790985  0.083758014            3 
 1931000   0.94717731   -2.5514279    1946.5458  0.084004222  0.083745605            2 
 1932000   0.93198291   -2.5417292    1945.3362  0.083908564  0.083732964            5 
 1933000   0.94642832   -2.5465384    1939.5601  0.083616143  0.083720138            2 
 1934000   0.94197575   -2.5458401    1956.3323  0.084295602  0.083707494            1 
 1935000   0.94861589   -2.5539774    1948.8707  0.083930692  0.083694844            2 
 1936000   0.94955319   -2.5542145    1949.9074  0.083931964  0.083681831            6 
 1937000   0.94350256   -2.5502875     1948.423  0.083824774  0.083668982            4 
 1938000   0.91824644   -2.5382094    1959.2171   0.08424566    0.0836562            5 
 1939000   0.94111725   -2.5544176    1946.9132  0.083673421  0.083643491            1 
 1940000   0.94856968   -2.5323376    1950.4044  0.083780257  0.083630457            2 
 1941000   0.95607888   -2.5566322    1951.6841  0.083792034  0.083617243            2 
 1942000    0.9336958   -2.5487644    1947.8033  0.083582361  0.083604534            2 
 1943000   0.96196609   -2.5714293    1955.5526  0.083871703  0.083591829            3 
 1944000    0.9403439   -2.5629266    1958.6221  0.083960137  0.083578791            2 
 1945000   0.93804357   -2.5502968    1944.7065  0.083320757  0.083566026            2 
 1946000   0.92601837   -2.5530029    1953.5576   0.08365697  0.083553243            3 
 1947000   0.94620541   -2.5632437    1947.9402  0.083373574  0.083540428            2 
 1948000   0.94448446   -2.5607289    1958.3088  0.083774335  0.083527587            1 
 1949000   0.93067473   -2.5480893    1955.6215  0.083616447  0.083514959            2 
 1950000   0.95099988    -2.530661    1957.9742  0.083674111  0.083502216            2 
 1951000   0.92523064   -2.5342742    1958.2341  0.083642325  0.083489401            2 
 1952000    0.9605776   -2.5616792    1955.9993   0.08350407  0.083476391            1 
 1953000   0.92210551   -2.5419292    1958.6122  0.083572803  0.083463357            3 
 1954000   0.93617701   -2.5434386    1960.2083  0.083598101   0.08345043            2 
 1955000   0.95061582   -2.5307821    1959.5954  0.083529215  0.083437751            2 
 1956000   0.93551362   -2.5385601    1962.8271  0.083624195  0.083424791            5 
 1957000   0.94636151   -2.5813413    1965.7258  0.083704896  0.083412095            3 
 1958000   0.93384674   -2.5628765    1960.1682  0.083425614  0.083398795            8 
 1959000   0.92967167   -2.5262586    1965.4441  0.083607457  0.083385723            2 
 1960000   0.95698883   -2.5553695    1968.5301  0.083696007  0.083372921            2 
 1961000   0.94914535   -2.5606212    1972.2114  0.083809767  0.083360764            2 
 1962000   0.93362658   -2.5582174    1966.5652  0.083527232  0.083348296            4 
 1963000   0.93196804   -2.5368573    1976.3619  0.083900574  0.083335824            3 
 1964000   0.93914847   -2.5719977    1965.8502  0.083411838  0.083323364            3 
 1965000   0.94203906     -2.56287    1967.1135  0.083422966  0.083310583            4 
 1966000   0.93101911   -2.5555189    1974.5766  0.083696871  0.083297889            2 
 1967000   0.93698792   -2.5856328    1968.0932  0.083379647  0.083284954            1 
 1968000   0.92373726   -2.5560363     1975.553  0.083653158  0.083272135            5 
 1969000   0.94272464   -2.5522567    1973.7698  0.083535205  0.083259619            2 
 1970000   0.91800223   -2.5532103    1978.6595  0.083699641  0.083247173            4 
 1971000   0.96372093   -2.5732377    1978.5306  0.083651724  0.083234636            1 
 1972000    0.9404876   -2.5532386     1977.734  0.083575641  0.083222281            4 
 1973000   0.94554675   -2.5710829    1969.0881  0.083168105  0.083209585            3 
 1974000   0.91593164   -2.5463607    1981.6731  0.083657257  0.083197603            5 
 1975000   0.95328311   -2.6040276    1977.9312  0.083457014  0.083185478            5 
 1976000   0.91444015   -2.5734463    1981.4201  0.083561913   0.08317302            2 
 1977000    0.9285682   -2.5421709     1982.764  0.083576293  0.083161149            2 
 1978000   0.92914021   -2.5566262    1979.2509  0.083386034  0.083148781            2 
 1979000   0.93234862   -2.5679846     1981.877  0.083454482  0.083136315            2 
 1980000   0.94001682   -2.5472781    1975.0062  0.083123155  0.083124186            2 
 1981000   0.91580015   -2.5645081    1991.8879  0.083791346  0.083111987            2 
 1982000   0.91375931    -2.542949    1986.3821   0.08351758  0.083099492            4 
 1983000   0.91705949   -2.5767074    1980.0068  0.083207545  0.083087204            4 
 1984000   0.91453834   -2.5541207     1986.984   0.08345867  0.083074862            2 
 1985000   0.91426673   -2.5671236    1987.5076  0.083438607  0.083062405            2 
 1986000   0.92343306    -2.543145    1992.9992  0.083627024  0.083050135            2 
 1987000   0.93095541   -2.5600539    1992.9278  0.083581942  0.083037832            2 
 1988000   0.91465949   -2.5516966    1989.6492  0.083402463   0.08302544            5 
 1989000   0.93819356   -2.5384553    1996.5417  0.083649307  0.083013251            4 
 1990000   0.90359762   -2.5387804    1997.6751  0.083654737  0.083000822            5 
 1991000   0.93345728   -2.5548905    1991.6135   0.08335901   0.08298857            3 
 1992000   0.91575043   -2.5535843    1985.6751  0.083068737  0.082976196            3 
 1993000   0.94209591   -2.5466697    2001.4652  0.083687288  0.082963753            1 
 1994000   0.94992079   -2.5719512    1996.1809  0.083424478  0.082951531            2 
 1995000   0.94082893   -2.5696873    1991.5076  0.083187451  0.082939229            2 
 1996000   0.91764594   -2.5548679    1998.0785  0.083420112  0.082927023            4 
 1997000   0.92381062   -2.5563157    2000.8696  0.083494807  0.082915275            2 
 1998000   0.93344982   -2.5773172    1997.5224  0.083313413  0.082903154            3 
 1999000   0.91318813   -2.5576755    2000.1836  0.083382673  0.082891175            4 
 2000000   0.91834615   -2.5720886    1995.1131  0.083129714  0.082879282            1 
 2001000   0.91987345   -2.5588066    1999.8151  0.083283987  0.082867084            2 
 2002000   0.92501775   -2.5863612    1998.8091  0.083200513  0.082855346            2 
 2003000   0.93157586    -2.574124    2000.3706  0.083223939   0.08284377            2 
 2004000   0.93162926   -2.5826015    2008.1576  0.083506219  0.082831742            3 
 2005000   0.93269637   -2.5426275    2002.6036  0.083233731  0.082819759            3 
 2006000   0.94310057   -2.5591865    1995.2581  0.082887095  0.082807556            1 
 2007000   0.93048362   -2.5624193    2006.5697  0.083315469  0.082795212            4 
 2008000   0.92293299   -2.5755431    2001.4651   0.08306213  0.082782899            2 
 2009000   0.93388715   -2.5529761    2012.5468  0.083480453  0.082770675            3 
 2010000   0.91148538   -2.5373991    2005.2428  0.083136102  0.082758508            3 
 2011000   0.93610663   -2.5782392    1995.8817  0.082706849  0.082745963            2 
 2012000   0.95141158   -2.5614239    2005.2712   0.08305464   0.08273346            2 
 2013000   0.93402307   -2.5540166     2001.918  0.082874566  0.082720837            3 
 2014000   0.92015566   -2.5753676    2007.7895  0.083076362  0.082708408            2 
 2015000   0.92599871   -2.5563092      2002.19  0.082803558  0.082695807            2 
 2016000   0.92681493   -2.5505861    2006.7929  0.082952748  0.082683167            2 
 2017000   0.93175568   -2.5725583    2004.8568  0.082831632  0.082670587            3 
 2018000   0.94735515   -2.5617349    2004.9193  0.082793166  0.082658002            4 
 2019000   0.91702438   -2.5621809    2009.4475  0.082939057  0.082645344            4 
 2020000   0.92687078   -2.5688153     2006.522  0.082777312   0.08263282            2 
 2021000   0.92228261   -2.5468015     2003.182  0.082598633  0.082620311            3 
 2022000   0.93927072   -2.5785909    2011.0921   0.08288378  0.082607681            2 
 2023000   0.93596201   -2.5603929    2019.7095  0.083197787  0.082594916            4 
 2024000   0.93071951   -2.5721464    2016.6051  0.083028865  0.082582392            2 
 2025000   0.92761405   -2.5408656    2012.1431  0.082804241  0.082570133            2 
 2026000   0.93432388   -2.5890887    2009.0934  0.082637933   0.08255759            2 
 2027000   0.91584216   -2.5510861    2010.7268  0.082664315  0.082545111            2 
 2028000   0.93078326   -2.5522745    2022.8715  0.083122595  0.082532733            4 
 2029000   0.91123989   -2.5558877    2012.1475  0.082641181   0.08252011            3 
 2030000   0.94827019   -2.5637502    2013.1006  0.082639597  0.082507367            6 
 2031000   0.93701606   -2.5659435    2021.1056   0.08292736  0.082494701            3 
 2032000   0.91388982   -2.5826068     2019.969  0.082839936  0.082481828            2 
 2033000   0.94444088   -2.5739213    2013.5008  0.082534054  0.082469083            3 
 2034000   0.93301254   -2.5768434    2019.1996   0.08272696  0.082456433            1 
 2035000   0.93959794    -2.577978    2017.3027   0.08260863   0.08244378            2 
 2036000     0.928247   -2.5709525    2014.9758  0.082472815   0.08243132            4 
 2037000    0.9283229   -2.5658402    2013.5482  0.082373923  0.082418635            6 
 2038000   0.93379877   -2.5855015    2014.7724  0.082383561  0.082405676            4 
 2039000   0.89969245   -2.5539569     2023.839  0.082713706  0.082392699            2 
 2040000   0.94172942   -2.5656859    2010.2105  0.082116442  0.082379817            3 
 2041000   0.91137479   -2.5591959    2013.9715  0.082229769  0.082366878            3 
 2042000   0.93613681   -2.5459891    2019.8546  0.082429586  0.082353689            2 
 2043000   0.92018787   -2.5603641    2030.9704   0.08284265   0.08234055            3 
 2044000   0.93263442   -2.5931983    2016.6753  0.082219313  0.082327436            4 
 2045000   0.93812475   -2.5688775    2024.1141  0.082482239  0.082313937            4 
 2046000   0.94247099   -2.5733626    2022.4455  0.082373961  0.082300749            5 
 2047000   0.90926262   -2.5628831    2023.7989  0.082388819  0.082287674            3 
 2048000   0.93008378    -2.556149    2020.4948  0.082214143  0.082274465            2 
 2049000   0.92156438   -2.6095956    2020.4339  0.082171542  0.082261409            2 
 2050000   0.91023989   -2.5670468    2022.3016   0.08220738  0.082248533            2 
 2051000   0.92276445   -2.5631738     2030.998  0.082520638  0.082235671            1 
 2052000   0.92932655   -2.5574174    2024.8803  0.082231981  0.082222698            4 
 2053000   0.91190849   -2.5666009    2029.2973  0.082371216   0.08220971            3 
 2054000   0.91270076   -2.5635906     2032.296  0.082452774  0.082196691            4 
 2055000   0.90565465   -2.5691828     2026.519  0.082178388  0.082183516            3 
 2056000   0.91280644   -2.5751383     2032.982  0.082400375  0.082170519            5 
 2057000   0.94153132   -2.5329752    2046.6799  0.082915247  0.082157417            1 
 2058000   0.91496122   -2.5647563    2027.5396  0.082099917  0.082144573            5 
 2059000   0.91540447   -2.5622343    2036.0546  0.082404671  0.082131269            2 
 2060000   0.91094199   -2.5866094    2037.1811  0.082410239  0.082118237            2 
 2061000   0.92613865   -2.5647645    2028.8301  0.082032592  0.082104939            1 
 2062000   0.92043144   -2.6093975     2025.183  0.081845417   0.08209166            5 
 2063000   0.92020918   -2.5753923     2034.757   0.08219248  0.082078557            2 
 2064000   0.92196608    -2.560073    2032.1393  0.082046966  0.082065756            1 
 2065000   0.92980348   -2.6091249    2034.4601  0.082100891  0.082052817            2 
 2066000   0.94074296   -2.5446244    2036.9489  0.082161539  0.082039996            3 
 2067000   0.91301568   -2.5977745    2042.2139  0.082334054  0.082027094            1 
 2068000   0.92066341   -2.5937777    2039.0605  0.082167169  0.082014333            2 
 2069000   0.93072057   -2.5847165    2030.1246  0.081767544  0.082001424            2 
 2070000   0.92637944   -2.5839114    2047.0569  0.082409699  0.081988537            2 
 2071000   0.91440428   -2.5696839    2035.7432  0.081914661   0.08197556            4 
 2072000    0.9298773   -2.5872603    2042.8603  0.082161369  0.081962565            2 
 2073000    0.9447329   -2.5668729    2037.4052  0.081902443  0.081949576            2 
 2074000   0.90029665   -2.5827938    2041.1851  0.082014828  0.081936544            1 
 2075000   0.93888581   -2.5838498      2037.16  0.081813653  0.081923119            3 
 2076000    0.9086112   -2.5935991    2039.6999  0.081876202  0.081910157            3 
 2077000    0.9121619   -2.5772425    2046.5011  0.082109657  0.081897325            3 
 2078000   0.90583774   -2.5584432    2052.8296  0.082323932  0.081884668            5 
 2079000   0.91051553   -2.5501569    2051.3322  0.082224313  0.081871667            2 
 2080000   0.91106154   -2.5839012    2047.2992  0.082023204  0.081859393            1 
 2081000   0.91947196   -2.5736464    2048.4342  0.082029241  0.081846583            5 
 2082000   0.91505147     -2.55726    2047.4688  0.081951202  0.081833777            2 
 2083000   0.91202543    -2.569231    2052.7064  0.082121396  0.081821328            2 
 2084000   0.91069053   -2.5904828    2051.8711  0.082048588  0.081808525            2 
 2085000   0.92242831   -2.5842763    2043.8053  0.081686861  0.081795658            2 
 2086000   0.91154611   -2.5681177    2054.6157  0.082079567  0.081783021            6 
 2087000   0.91062315   -2.5903231    2051.9629  0.081934311  0.081770234            3 
 2088000   0.90753959   -2.5586811    2050.3897  0.081832284   0.08175739            2 
 2089000   0.92531018   -2.5606663    2057.8298  0.082089909  0.081744535            3 
 2090000   0.90249062   -2.5854208    2053.1739  0.081864989  0.081731562            4 
 2091000   0.91180385   -2.5832751    2050.2906  0.081710927  0.081718395            2 
 2092000   0.90660563   -2.6074544    2043.5616  0.081403824  0.081705095            5 
 2093000   0.89845133   -2.5913299    2042.6951  0.081330432  0.081691522            4 
 2094000   0.91725598   -2.5711174    2058.1134  0.081905183  0.081678348            1 
 2095000   0.94092483    -2.575159    2054.1147   0.08170703  0.081665352            3 
 2096000   0.92517853   -2.5826763    2045.7047  0.081333678  0.081652177            4 
 2097000   0.91911023   -2.5863338    2055.4189  0.081680929  0.081638918            3 
 2098000   0.91223008   -2.5733947    2061.1909  0.081871261  0.081625593            2 
 2099000   0.90886541   -2.5807038    2056.4049  0.081642247  0.081612379            5 
 2100000   0.93125218   -2.6115112    2050.3676  0.081363792  0.081599109            2 
 2101000    0.9230651   -2.5743866     2052.214  0.081398302  0.081585803            4 
 2102000   0.92060434   -2.5907779    2058.0073  0.081589253  0.081572407            3 
 2103000   0.94305434   -2.6106489    2056.0758  0.081473917  0.081559468            2 
 2104000   0.91286595    -2.585759    2057.4165  0.081488298  0.081546183            4 
 2105000   0.91439412   -2.6238129    2053.3638  0.081289144  0.081532834            3 
 2106000   0.93075863   -2.5756975    2053.1431  0.081241814    0.0815194            4 
 2107000   0.90640234   -2.6017259    2059.6883  0.081462121  0.081506087            2 
 2108000   0.91070466   -2.5759498    2060.4536  0.081453732  0.081492317            1 
 2109000   0.89475322   -2.5650348    2064.9066  0.081591064   0.08147898            2 
 2110000   0.92635115    -2.566914    2059.2593  0.081329355  0.081465772            2 
 2111000   0.91824174   -2.5764422    2057.1154  0.081206197   0.08145238            1 
 2112000   0.88982778   -2.5694859    2072.1971  0.081762826  0.081439094            2 
 2113000   0.92694745   -2.5901053    2065.6837  0.081467255  0.081425797            2 
 2114000   0.91309212   -2.5720887     2061.705  0.081271877  0.081412548            1 
 2115000   0.91942869   -2.5672148    2074.7201  0.081746262  0.081399506            1 
 2116000   0.92256868   -2.5823481    2067.5204  0.081424085  0.081386118            3 
 2117000   0.92350254   -2.6130992    2059.4115  0.081066425  0.081372699            2 
 2118000   0.90971971   -2.5832675    2060.6798  0.081078053  0.081359226            1 
 2119000   0.90142389   -2.5997499    2062.8537  0.081125281   0.08134556            7 
 2120000   0.92117491   -2.5841474    2069.0699  0.081331365  0.081331802            3 
 2121000   0.89969701   -2.6017227    2061.1799  0.080983022  0.081318221            6 
 2122000   0.90430844   -2.5884481    2062.6591  0.081002949  0.081304504            2 
 2123000   0.90336618   -2.5718688    2062.3796  0.080953822  0.081290655            3 
 2124000   0.90237386   -2.5774517     2067.374  0.081111661  0.081276934            3 
 2125000   0.93476573    -2.587875    2065.5555  0.081002176  0.081262856            3 
 2126000   0.91642431   -2.5798566    2067.7134  0.081048658  0.081249047            3 
 2127000   0.91935815   -2.6000268    2066.5733  0.080965887  0.081235455            4 
 2128000   0.89422273   -2.5998156    2067.8961  0.080979639  0.081221578            3 
 2129000   0.90982982   -2.5923394     2069.966  0.081022623  0.081207736            2 
 2130000   0.92366498   -2.5800347    2069.8076  0.080978389  0.081194132            4 
 2131000   0.92696113   -2.6023622     2081.174  0.081384875  0.081180183            2 
 2132000   0.90280539   -2.5864726     2086.685  0.081562111  0.081166341            2 
 2133000   0.89902527   -2.5660587     2069.914   0.08086865  0.081152722            4 
 2134000   0.93315667    -2.593968    2075.6859  0.081056152   0.08113896            2 
 2135000   0.91781082   -2.5957826    2070.7202  0.080824364  0.081125195            2 
 2136000   0.90383908   -2.5693449    2076.0894  0.080995997  0.081111352            2 
 2137000   0.89774105   -2.5907757    2075.1395  0.080921052  0.081097378            2 
 2138000   0.94221432   -2.5623437     2066.901  0.080562093  0.081083479            3 
 2139000   0.90968625   -2.5694505    2071.7792  0.080714478  0.081069377            4 
 2140000   0.88452227    -2.604291    2074.4963  0.080782566  0.081055195            2 
 2141000   0.90291193   -2.5701911    2071.5354   0.08062959  0.081040911            2 
 2142000   0.90561747    -2.618085    2068.9736   0.08049228  0.081026663            2 
 2143000   0.91547303   -2.5889703    2074.2828  0.080661175  0.081012197            2 
 2144000   0.90266604   -2.5780309    2070.2325  0.080466127  0.080998024            3 
 2145000   0.89230171   -2.5992761    2077.9853  0.080729811  0.080983619            2 
 2146000   0.91057282   -2.6006139    2069.0432  0.080344954  0.080969337            1 
 2147000   0.91337642   -2.6108569     2078.811  0.080686654  0.080955249            3 
 2148000   0.90803318   -2.5769191    2073.7144  0.080451365   0.08094128            5 
 2149000   0.92666893   -2.5857428    2076.0061  0.080502796  0.080927152            5 
 2150000   0.90615953   -2.5997739    2083.1303  0.080741484  0.080913066            1 
 2151000   0.89920492   -2.5891125    2079.5031  0.080563424  0.080899055            3 
 2152000   0.92487616   -2.5924745    2082.3551  0.080636429  0.080884736            2 
 2153000   0.90214212   -2.6033127    2078.0892   0.08043386  0.080870537            6 
 2154000   0.90451041   -2.6035553    2083.9166  0.080621966  0.080856384            4 
 2155000   0.89979854   -2.5946355    2080.3997  0.080448556  0.080841958            2 
 2156000   0.89431137   -2.5812006     2082.986   0.08051121  0.080827411            2 
 2157000      0.91588   -2.5736877    2081.2085   0.08040521  0.080813182            3 
 2158000   0.89564406   -2.5777605    2089.5172  0.080688802  0.080798609            2 
 2159000   0.91669115   -2.6006578    2078.5141  0.080226729  0.080784043            4 
 2160000   0.92262174   -2.6160693    2073.2883  0.079987975  0.080769386            3 
 2161000   0.89867074    -2.618535     2079.225  0.080179894  0.080754733            1 
 2162000   0.89896477   -2.5858113    2082.6813  0.080276031  0.080739959            2 
 2163000   0.91474031   -2.5946147    2084.6356  0.080314211  0.080725399            2 
 2164000   0.91342506   -2.5897903    2084.2249  0.080261277  0.080711202            4 
 2165000   0.89410872   -2.5800853     2086.409  0.080308274  0.080696728            2 
 2166000   0.91189563   -2.5885043    2084.1433  0.080184031  0.080682236            4 
 2167000   0.88461815   -2.6012941    2082.6227  0.080088553  0.080667874            2 
 2168000   0.90840404   -2.5778102    2088.6373  0.080282799  0.080653261            2 
 2169000   0.89778033   -2.6074762    2086.8309  0.080176384   0.08063881            3 
 2170000   0.92870093   -2.5920167    2082.5497  0.079975026  0.080624394            3 
 2171000    0.8922511   -2.5917672    2090.9846   0.08026196  0.080609865            2 
 2172000   0.91185192   -2.5813117    2092.7207  0.080291616  0.080595692            2 
 2173000   0.89552232   -2.6018261     2090.195  0.080157808  0.080581635            2 
 2174000   0.92545849   -2.5778034    2092.2241  0.080198718  0.080567354            1 
 2175000   0.88607935   -2.6032804    2086.0374  0.079924806  0.080552874            1 
 2176000   0.88439698   -2.6069674    2097.8071  0.080338815  0.080538668            1 
 2177000   0.90563184   -2.6029475    2090.6776  0.080029001  0.080524593            4 
 2178000   0.92791214   -2.6020107    2094.1849  0.080126449  0.080510557            3 
 2179000   0.90061215   -2.6005002    2095.3285  0.080133412  0.080496291            3 
 2180000    0.9120277   -2.5909251    2105.0016  0.080466422  0.080482156            5 
 2181000   0.91782851   -2.6012709    2103.5696  0.080374812  0.080468129            3 
 2182000   0.90472353   -2.6051799    2103.3486  0.080329538  0.080454118            2 
 2183000   0.90433699   -2.5770189    2100.8056  0.080195663  0.080440155            3 
 2184000   0.90101072   -2.5899048    2100.4289  0.080144571  0.080426492            2 
 2185000   0.89222596   -2.6279998     2103.048  0.080207781  0.080412511            2 
 2186000   0.91178989   -2.5669881    2112.0308  0.080513524  0.080398725            2 
 2187000   0.89790382    -2.581476    2111.7025    0.0804642  0.080384998            3 
 2188000   0.91905341   -2.6014432    2104.4814  0.080152398   0.08037116            2 
 2189000   0.90087535   -2.5736258    2108.3603  0.080263449  0.080357095            3 
 2190000   0.88054761   -2.6179092    2099.0465  0.079872395    0.0803433            3 
 2191000   0.89437164   -2.5647973    2115.7246  0.080470281   0.08032954            1 
 2192000   0.89986615   -2.6143105    2111.8775  0.080287314  0.080315787            2 
 2193000   0.89346915    -2.596389    2101.9665  0.079874086  0.080301896            6 
 2194000   0.91804637   -2.5829089    2107.7234  0.080056345  0.080288041            2 
 2195000   0.90018924   -2.5862831    2110.2046  0.080114068  0.080274394            4 
 2196000   0.87739705   -2.6188267    2113.6496  0.080208319  0.080260327            4 
 2197000   0.89113958   -2.6274519    2097.5897  0.079562652  0.080246171            4 
 2198000   0.91137524   -2.6353628    2103.8474  0.079763704  0.080232287            3 
 2199000   0.90678833   -2.6034135     2110.948  0.079996514  0.080218384            4 
 2200000   0.90005326   -2.6137112    2115.2756  0.080124075  0.080204548            2 
 2201000   0.92088047   -2.5768711    2116.9623  0.080151532  0.080190859            2 
 2202000   0.87579253   -2.6176027     2108.926  0.079811006  0.080176966            1 
 2203000      0.90172   -2.6288557    2114.1169  0.079971134  0.080163305            6 
 2204000   0.90078978   -2.6149137     2117.557  0.080064922  0.080149564            2 
 2205000   0.89364145   -2.6170934    2114.9777  0.079931128  0.080135495            3 
 2206000   0.89321157   -2.5784866    2118.3449  0.080022095  0.080121734            3 
 2207000   0.90331408   -2.6163953    2113.9601  0.079820272  0.080107896            2 
 2208000     0.901363   -2.5985441    2115.1947  0.079830719  0.080093503            5 
 2209000   0.90893171   -2.6014492    2111.6005  0.079658991  0.080079928            7 
 2210000   0.90628256    -2.604802    2114.1035  0.079717327  0.080065929            2 
 2211000   0.90778969   -2.5961797    2118.9576  0.079864225  0.080052108            2 
 2212000      0.91442   -2.5995341    2123.0611   0.07998271   0.08003855            5 
 2213000   0.88411568   -2.6225019    2111.6209  0.079515774  0.080024608            2 
 2214000   0.89222581   -2.6098217    2113.3027  0.079543161  0.080010527            1 
 2215000   0.89317476   -2.5928184    2119.1522  0.079727322  0.079996592            2 
 2216000   0.89501455   -2.6036269    2118.1043  0.079651937  0.079982574            4 
 2217000   0.89652245   -2.5849421    2122.1144  0.079766742  0.079968689            3 
 2218000   0.87892602   -2.6330798    2117.4473  0.079555428  0.079954451            5 
 2219000   0.88783794   -2.5859574    2122.7373  0.079718241  0.079940344            3 
 2220000    0.8861555    -2.617216    2113.6819  0.079342413  0.079926264            1 
 2221000   0.88404689    -2.604832    2128.4195  0.079859653  0.079912142            2 
 2222000   0.87688654    -2.592005    2124.9495  0.079693576  0.079898259            2 
 2223000   0.88773403   -2.6177271    2120.2888   0.07948301  0.079884331            3 
 2224000   0.89600802   -2.6049175    2126.6218  0.079684569  0.079870094            3 
 2225000   0.89385946   -2.6016299    2115.9974  0.079250838  0.079856076            3 
 2226000   0.89200784   -2.5558725    2128.1577  0.079670474  0.079841918            1 
 2227000   0.91535118    -2.605254    2128.7562  0.079657093   0.07982776            3 
 2228000   0.87846522   -2.6257768    2119.7249  0.079283547  0.079813491            3 
 2229000   0.89358165   -2.5959179    2132.0469  0.079708647  0.079799294            3 
 2230000   0.90747662   -2.5938584    2124.6476  0.079396398  0.079785353            2 
 2231000   0.89362408   -2.6248465    2132.1195  0.079639902  0.079771104            5 
 2232000   0.89377778   -2.6036754    2130.9827  0.079561779  0.079756689            3 
 2233000   0.89116654   -2.6134793    2127.4387  0.079393893  0.079742527            3 
 2234000   0.88095415   -2.5921133    2123.1595  0.079198729  0.079728463            1 
 2235000   0.91190428    -2.598327    2130.2021   0.07942588  0.079714254            2 
 2236000   0.88628838    -2.601999    2131.2144  0.079428087  0.079699672            2 
 2237000   0.90832353   -2.5794829    2126.1307  0.079203201   0.07968547            4 
 2238000   0.87408725   -2.6333687     2127.925  0.079234622  0.079670851            4 
 2239000    0.9008895   -2.6128511    2126.3752  0.079141552  0.079656334            2 
 2240000   0.90371041   -2.6071146    2132.6316  0.079338975  0.079641947            7 
 2241000    0.8892431   -2.5777443    2132.9556  0.079315617  0.079627463            2 
 2242000   0.89143749   -2.6227642    2125.2765  0.078994813  0.079613188            3 
 2243000   0.89631407   -2.6081971    2133.7939  0.079276041  0.079598902            4 
 2244000   0.88783409   -2.5914616    2137.7227  0.079386614  0.079584621            3 
 2245000   0.88406049   -2.5897997    2136.7253  0.079314229  0.079570741            4 
 2246000   0.88283784   -2.5789509    2151.4724  0.079826074  0.079556732            2 
 2247000   0.89116344   -2.5985356    2139.3111   0.07933953  0.079542643            3 
 2248000   0.88609811   -2.5939194    2139.2364  0.079301468  0.079528503            1 
 2249000   0.89472244   -2.6195128    2140.4551  0.079311366  0.079514487            5 
 2250000   0.89499617   -2.6317242    2141.9516  0.079331541  0.079500534            3 
 2251000   0.88743713   -2.6087175    2141.1591  0.079266959  0.079486654            2 
 2252000   0.88567681   -2.6174385    2142.3751  0.079276757  0.079472652            1 
 2253000   0.89435574   -2.6167178    2140.4645  0.079170903  0.079458804            2 
 2254000   0.92135107   -2.6218463    2141.8344  0.079186424  0.079444796            6 
 2255000   0.89754807   -2.6137673    2146.0339  0.079306499  0.079430892            3 
 2256000   0.90474994   -2.6118314    2137.6573  0.078961927  0.079416988            1 
 2257000   0.89679926   -2.6076652    2141.0115  0.079050787  0.079403008            5 
 2258000    0.8812212   -2.6192392    2149.6454  0.079334419  0.079389098            2 
 2259000   0.90642597   -2.6166556    2151.1705  0.079355558  0.079375285            5 
 2260000   0.89940641   -2.6088092     2146.046  0.079131491  0.079361894            6 
 2261000   0.87955978   -2.6235366    2154.0486  0.079391441  0.079348187            4 
 2262000   0.90744984   -2.6214741     2151.063  0.079246354  0.079334608            2 
 2263000   0.90233136   -2.6136164    2154.7767   0.07934809  0.079321142            5 
 2264000   0.89928295   -2.6245667    2145.8382  0.078984034  0.079307374            4 
 2265000   0.88941221   -2.6265285    2151.9519  0.079174095   0.07929359            3 
 2266000   0.88001781   -2.6190715    2156.4447   0.07930438  0.079279857            3 
 2267000   0.89998491   -2.5993279     2151.229  0.079077673  0.079266157            2 
 2268000   0.87697234   -2.5911061    2159.7315  0.079355215  0.079252487            2 
 2269000   0.89415986    -2.623692     2154.901  0.079142831  0.079238981            4 
 2270000   0.89125318   -2.6363576    2151.3953  0.078979271  0.079225799            3 
 2271000   0.88233395   -2.6404029    2154.4828  0.079057787  0.079212211            3 
 2272000   0.89277518   -2.6212342    2151.2572  0.078904681  0.079198598            3 
 2273000     0.912194     -2.62326    2169.7156  0.079546692  0.079185126            2 
 2274000    0.9045008   -2.6260486    2156.0065  0.079009326  0.079171563            3 
 2275000   0.89538822    -2.619846    2152.8224  0.078857962  0.079157994            1 
 2276000   0.88758593   -2.6219509    2159.2592  0.079058993  0.079144385            2 
 2277000   0.89157368   -2.6198608    2157.1231  0.078946096  0.079130755            3 
 2278000   0.86860785   -2.6185454    2152.8914  0.078756637  0.079117347            4 
 2279000   0.88645297   -2.6029384    2158.2683  0.078918687  0.079103795            4 
 2280000   0.89008901   -2.6185729    2161.6453  0.079007504  0.079090313            2 
 2281000   0.88916756   -2.6122898    2162.8646  0.079017413  0.079076889            4 
 2282000   0.88242829   -2.6436457    2162.8888  0.078983669  0.079063225            4 
 2283000   0.89167086   -2.6090542    2168.4209  0.079151005  0.079049877            1 
 2284000    0.8900866   -2.6310259    2168.3019  0.079112009  0.079036088            3 
 2285000   0.87631536   -2.6218269    2166.7927  0.079022345  0.079022783            4 
 2286000   0.89656962   -2.6254989    2159.4225  0.078719107  0.079008895            2 
 2287000   0.86893954   -2.6147338    2170.2951  0.079080859  0.078995493            2 
 2288000   0.88078571   -2.6171771    2164.7113  0.078842925  0.078981853            3 
 2289000   0.88365911   -2.6154792    2165.7544  0.078846454  0.078968341            3 
 2290000   0.86684967    -2.613421    2159.2698  0.078576049  0.078954729            3 
 2291000   0.88029989   -2.6314889    2172.7802  0.079033181  0.078941402            2 
 2292000   0.88324505   -2.5897742    2169.7223  0.078887518  0.078927859            3 
 2293000   0.87391223   -2.6071271    2166.6527  0.078741556   0.07891447            3 
 2294000   0.88928353   -2.5997405    2172.1898  0.078908377  0.078900945            3 
 2295000   0.87118941   -2.6129032    2176.5848  0.079033579  0.078887315            5 
 2296000   0.89106798   -2.6318003    2171.6452  0.078819875  0.078873662            2 
 2297000   0.89564889    -2.619957    2163.8891  0.078504174  0.078860394            3 
 2298000   0.87721846   -2.6216673     2175.287  0.078883342  0.078846863            6 
 2299000   0.89042537   -2.6074555    2173.8372  0.078796477  0.078833347            3 
 2300000   0.88743194   -2.6230801    2172.7285  0.078722047  0.078819875            4 
 2301000   0.89678309   -2.6254277    2172.9815  0.078696999  0.078806203            3 
 2302000   0.92391483    -2.618558    2170.9515  0.078589326  0.078792869            1 
 2303000   0.87826142    -2.632881    2178.1899  0.078817119  0.078779458            3 
 2304000   0.89081382   -2.6334172    2185.9689  0.079064268  0.078766057            2 
 2305000   0.88323998   -2.6466921    2179.9235  0.078811408  0.078752736            3 
 2306000   0.87150939   -2.6078732    2187.9314  0.079066616  0.078739674            1 
 2307000   0.90411141   -2.6117559    2188.1103  0.079038807  0.078726433            5 
 2308000   0.88421857   -2.6330515    2182.1472  0.078789256  0.078713315            3 
 2309000   0.89218317   -2.6372998    2177.0135  0.078569855  0.078700163            2 
 2310000   0.87568217    -2.645913      2181.11  0.078683621  0.078686826            2 
 2311000    0.8936146   -2.5983242     2182.049  0.078683433  0.078673638            2 
 2312000   0.86900464   -2.6353565    2183.0147  0.078684209  0.078660352            3 
 2313000   0.87525564   -2.6300962    2183.7256  0.078675803  0.078647289            1 
 2314000   0.87637169   -2.6014279    2179.8687  0.078502908  0.078633816            3 
 2315000   0.89470873   -2.6417537    2184.3965  0.078631983  0.078620587            3 
 2316000   0.88878374    -2.619344    2186.7544  0.078682873  0.078607305            5 
 2317000   0.87862492   -2.6369072    2178.2436  0.078342814  0.078593972            2 
 2318000   0.88886944   -2.6201892    2188.2203  0.078667683  0.078580442            4 
 2319000   0.86434448   -2.6270585    2190.8349  0.078727717  0.078566855            2 
 2320000   0.88879783   -2.6353528    2183.5612  0.078432516  0.078553144            2 
 2321000   0.88287919   -2.6036674    2185.7273  0.078476494  0.078539587            3 
 2322000   0.88662932   -2.6055059    2191.4924    0.0786496  0.078526205            1 
 2323000   0.88407039   -2.5980295     2184.442   0.07836282  0.078512671            4 
 2324000   0.89041196   -2.6446874    2177.6999  0.078087345  0.078498919            5 
 2325000   0.87576592   -2.6269735    2178.6773  0.078088792  0.078485235            5 
 2326000   0.88802478   -2.6298659    2192.4302  0.078547944   0.07847153            4 
 2327000   0.88355057   -2.6379656    2187.4607  0.078336223  0.078457682            3 
 2328000     0.863628   -2.6136843    2190.9946  0.078429072  0.078444152            3 
 2329000   0.87331996   -2.6050473    2190.2544  0.078368915  0.078430406            3 
 2330000   0.87150933   -2.6203834    2194.5312  0.078488241  0.078417054            4 
 2331000   0.88678494    -2.611358    2188.0932   0.07822441  0.078403625            2 
 2332000   0.85783991    -2.650763    2195.1489  0.078443001  0.078390008            1 
 2333000   0.86972194   -2.6302172    2190.5665  0.078245695  0.078376315            4 
 2334000   0.85965056   -2.6046991    2190.2992  0.078202627  0.078362985            2 
 2335000   0.88732546   -2.6286326    2188.4689  0.078103816  0.078349283            1 
 2336000   0.88449792   -2.6474331    2189.3011  0.078100069  0.078335843            4 
 2337000   0.87619357   -2.6230787    2201.1829  0.078490333  0.078322255            4 
 2338000   0.86547799   -2.6167876    2196.7288  0.078298003  0.078308571            4 
 2339000   0.86461807   -2.6372531    2185.9152  0.077879265  0.078294716            5 
 2340000   0.86958906   -2.6347863     2195.926  0.078202492  0.078280684            6 
 2341000    0.8977871   -2.6278907     2189.273  0.077932258  0.078266819            2 
 2342000   0.87457257   -2.6204733    2190.1773  0.077931159  0.078253194            4 
 2343000   0.86102755   -2.6396674    2187.1834  0.077791415  0.078239199            2 
 2344000   0.87525297   -2.6191778    2196.6745  0.078095653  0.078225241            3 
 2345000   0.85458059   -2.6435811    2189.7309  0.077815595  0.078211338            1 
 2346000   0.89421597    -2.622732    2195.0205  0.077970322  0.078197435            1 
 2347000   0.87543029   -2.6050806    2209.0554  0.078435428  0.078183928            1 
 2348000    0.8949735   -2.6269057    2194.5764  0.077888146   0.07817002            1 
 2349000   0.86325105   -2.6372788    2193.6044  0.077820504  0.078156064            3 
 2350000   0.88545575   -2.6421779    2205.7944  0.078219661  0.078142222            4 
 2351000   0.85942547   -2.6218058    2203.4854  0.078104542  0.078128308            3 
 2352000   0.87574827   -2.6247155    2200.8428  0.077977708   0.07811449            3 
 2353000   0.87948151   -2.6255536    2199.8621  0.077909834  0.078100421            3 
 2354000    0.8689283   -2.6411915    2202.5604   0.07797226  0.078086573            2 
 2355000   0.88241426   -2.6387264    2202.1724   0.07792542   0.07807256            2 
 2356000   0.87349028   -2.6353974    2206.2561  0.078036791  0.078058688            5 
 2357000   0.88782301   -2.6322031    2203.5158  0.077906797  0.078045015            4 
 2358000   0.87190953   -2.6317269     2199.658  0.077737418  0.078031192            1 
 2359000   0.87818063   -2.6583274    2189.5618   0.07734781  0.078017294            4 
 2360000   0.87928286   -2.6413193     2214.912  0.078210169   0.07800336           10 
 2361000   0.87124273   -2.6443739    2198.5552  0.077599719  0.077989413            4 
 2362000   0.87847369   -2.5940236    2209.0033   0.07793548  0.077975465            1 
 2363000   0.86711548   -2.6253914    2207.4431  0.077847477  0.077961349            4 
 2364000   0.86107218   -2.6205453    2204.0972  0.077696603  0.077947566            2 
 2365000   0.87702817    -2.647919    2202.7192  0.077615195  0.077933602            4 
 2366000   0.88322894    -2.645387    2203.1575  0.077597827  0.077919819            3 
 2367000   0.88969903   -2.6258435    2206.7278  0.077690742  0.077905914            1 
 2368000   0.87912458   -2.6531606     2205.059  0.077599205  0.077891979            2 
 2369000   0.86645255   -2.6330239    2219.7213   0.07808222  0.077878286            2 
 2370000   0.87330947   -2.6338405    2199.9248  0.077353192  0.077864497            2 
 2371000   0.87707874   -2.6362957    2214.7212  0.077840614  0.077850603            3 
 2372000   0.86014812   -2.6240938    2211.0209    0.0776778  0.077836911            2 
 2373000   0.85455787   -2.6357369    2209.6334  0.077596341  0.077823385            8 
 2374000   0.85779463   -2.6398355     2209.208  0.077548721  0.077809501            5 
 2375000   0.86486887   -2.6372725    2212.3024  0.077624646  0.077795399            2 
 2376000    0.8872524   -2.6225205    2213.9102  0.077648365  0.077781405            2 
 2377000   0.85789199   -2.6236529    2206.8668  0.077368771  0.077767455            4 
 2378000   0.86602222   -2.6339355     2217.021  0.077692072  0.077753637            1 
 2379000   0.88196267   -2.6446062    2206.7428  0.077299382  0.077739339            2 
 2380000   0.85985989   -2.6265866    2217.1547  0.077631468  0.077725304            2 
 2381000   0.85404927   -2.6538972    2220.1876  0.077705013  0.077711344            5 
 2382000   0.90203106   -2.6212349    2222.7991  0.077763753  0.077697428            3 
 2383000    0.8699711   -2.6590702    2211.5728  0.077338537  0.077683597            4 
 2384000   0.85309208   -2.6370343    2221.0919   0.07763884  0.077669794            2 
 2385000   0.88530296   -2.6369556    2213.3108   0.07733441  0.077655924            3 
 2386000   0.87262527   -2.6391915    2217.8618  0.077460946  0.077641876            2 
 2387000   0.86596116   -2.6187114    2220.2401  0.077511524  0.077628074            4 
 2388000   0.86995837   -2.6273538    2219.1225  0.077440063  0.077614259            3 
 2389000   0.89928653   -2.6424169    2211.0983  0.077127748  0.077600218            3 
 2390000   0.84919903    -2.648164    2223.3132  0.077521381  0.077586464            3 
 2391000   0.85482851    -2.614071    2222.6226  0.077464889  0.077572432            3 
 2392000   0.86286363   -2.6298943     2224.441  0.077495855  0.077558457            1 
 2393000   0.87628656   -2.6258229    2230.6704    0.0776804  0.077544709            3 
 2394000    0.8617356   -2.6682607    2222.0952  0.077349458   0.07753085            2 
 2395000   0.86285896   -2.6318181    2234.2392  0.077739709  0.077516767            4 
 2396000   0.88223169   -2.6555307    2225.7282  0.077411246  0.077502949            6 
 2397000   0.87326224   -2.6300259    2229.1439  0.077497702  0.077489064            2 
 2398000   0.86940941   -2.6410048    2217.3565  0.077055758  0.077475059            7 
 2399000    0.8717467   -2.6485414    2224.2473  0.077263002  0.077460968            4 
 2400000   0.87537144   -2.6273259    2224.4962  0.077239452  0.077447025            2 
 2401000   0.86561933   -2.6283099    2219.4267  0.077031329  0.077432868            5 
 2402000   0.86329759   -2.6388923    2225.4001  0.077206499  0.077418562            2 
 2403000   0.86049213   -2.6391437    2226.4204  0.077209753  0.077404467            2 
 2404000   0.86560027   -2.6285647    2221.1401  0.076994597  0.077390375            2 
 2405000   0.86267931   -2.6259579    2228.8816  0.077230825  0.077376113            2 
 2406000   0.86697824   -2.6420413    2224.7361  0.077055143   0.07736181            3 
 2407000   0.86094268   -2.6463852    2220.5736  0.076879019  0.077347505            7 
 2408000   0.88942995   -2.6058662    2229.3795  0.077151838  0.077333174            1 
 2409000   0.85597146   -2.6542399    2227.7109  0.077062091   0.07731896            1 
 2410000   0.86218416     -2.65317    2227.3459  0.077017492  0.077304472            3 
 2411000   0.85160425   -2.6270137    2221.5737  0.076786041  0.077290018            4 
 2412000   0.85569886   -2.6348017    2230.9931  0.077079641   0.07727556            5 
 2413000   0.86357904   -2.6299252    2223.3406  0.076783417  0.077261335            2 
 2414000   0.85897457   -2.6688733    2229.3215  0.076958075  0.077247106            2 
 2415000    0.8735355   -2.6286227    2224.6935   0.07676651  0.077232821            2 
 2416000   0.85143762   -2.6342898    2233.8511  0.077050604  0.077218393            4 
 2417000   0.85528073    -2.650304    2225.0993  0.076716979  0.077204096            6 
 2418000   0.88012081   -2.6410391    2237.0671  0.077097709  0.077189827            1 
 2419000   0.85300347   -2.6489762    2236.3753  0.077042004  0.077175545            3 
 2420000   0.86961243   -2.6429193    2220.0456   0.07644785  0.077161012            3 
 2421000   0.85894233   -2.6429819    2233.7069  0.076886509  0.077146563            1 
 2422000   0.87967318   -2.6552491    2230.8841  0.076757641  0.077132051            3 
 2423000   0.83588387    -2.645997    2233.4682  0.076814838  0.077117674            4 
 2424000   0.86460897   -2.6393432    2224.4324   0.07647251  0.077103265            3 
 2425000   0.84083732   -2.6368377    2240.1724  0.076981868  0.077088838            2 
 2426000   0.85898118   -2.6333467    2235.0905  0.076775575  0.077074673            3 
 2427000   0.86696527   -2.6664487    2233.9928  0.076706249  0.077060391            3 
 2428000   0.87274072   -2.6339952    2242.7521  0.076975291  0.077046227            3 
 2429000   0.85023294   -2.6074074    2241.2288   0.07689134   0.07703201            2 
 2430000   0.87002697   -2.6611286    2234.3543  0.076623948  0.077017957            5 
 2431000   0.86207979   -2.6064756    2237.2563  0.076691907  0.077003792            2 
 2432000   0.85899692   -2.6292594      2239.33  0.076731429  0.076989661            2 
 2433000   0.88313747   -2.6675274    2236.5435  0.076604451   0.07697513            2 
 2434000   0.84672013   -2.6286089    2245.1354  0.076867138  0.076960841            5 
 2435000   0.86630382   -2.6488545    2242.4047  0.076742117  0.076946571            1 
 2436000   0.85720227   -2.6473064    2241.9924  0.076696511  0.076932342            2 
 2437000   0.86648728    -2.662573    2248.5575  0.076889534  0.076918048            6 
 2438000   0.88380708    -2.652458    2238.7067  0.076521283  0.076903722            6 
 2439000   0.87265638    -2.659616    2238.5725  0.076485327  0.076889548            4 
 2440000   0.85693351   -2.6638285    2235.6498  0.076354158  0.076875375            3 
 2441000   0.84463307   -2.6409547    2239.3754  0.076450069  0.076861015            3 
 2442000   0.86633155    -2.630276    2240.1881  0.076446496  0.076846932            5 
 2443000   0.83904048   -2.6451686     2245.872  0.076609089  0.076832967            6 
 2444000   0.84771257   -2.6546908    2246.9948  0.076616026  0.076819096            2 
 2445000   0.85562743   -2.6520443    2243.3996  0.076462153  0.076805327            3 
 2446000   0.86136378   -2.6681944    2243.7775  0.076443768  0.076791328            5 
 2447000   0.87940257   -2.6389342    2249.4183  0.076604629  0.076777399            2 
 2448000   0.85698481   -2.6553432    2246.5386  0.076475308  0.076763409            4 
 2449000   0.85151722   -2.6619025    2251.3002  0.076606106  0.076749411            5 
 2450000    0.8795526   -2.6365596    2254.0969  0.076669963  0.076735618            2 
 2451000   0.87417838   -2.6310533    2253.4582  0.076616967  0.076721853            5 
 2452000   0.84912833   -2.6569937    2248.1349  0.076404801  0.076707946            1 
 2453000   0.85819353   -2.6496727    2244.3739  0.076245887  0.076694044            1 
 2454000   0.85524069   -2.6595047     2251.054  0.076441661  0.076680104            8 
 2455000   0.89622859   -2.6471888     2251.314  0.076419349  0.076666266            2 
 2456000   0.84950649   -2.6465898    2254.3606  0.076491606  0.076652469            3 
 2457000   0.84000479   -2.6383433    2257.0559   0.07655189  0.076638712            3 
 2458000   0.85999347   -2.6554578    2251.1776  0.076321455  0.076624775            3 
 2459000   0.84760943   -2.6513081    2256.8647  0.076483148  0.076610958            2 
 2460000   0.84947225    -2.651504    2251.4862  0.076269859   0.07659702            2 
 2461000   0.84550538   -2.6486547    2252.8883  0.076286343  0.076583148            5 
 2462000   0.84466831   -2.6399379    2254.2633    0.0763019   0.07656938            3 
 2463000   0.85527532   -2.6526871    2254.4366  0.076276783  0.076555646            3 
 2464000   0.86020116   -2.6596982    2268.2766    0.0767139  0.076542037            2 
 2465000   0.86177903   -2.6636095    2258.7566  0.076360939  0.076528267            3 
 2466000   0.86640014   -2.6692786    2257.9376  0.076302299  0.076514553            2 
 2467000   0.84396914   -2.6511802    2256.9423  0.076237749  0.076500911            3 
 2468000   0.86130207   -2.6559178    2259.6091  0.076296902  0.076487382            4 
 2469000   0.87141948   -2.6633616    2262.7366  0.076371561  0.076473529            9 
 2470000   0.85325703   -2.6725729    2268.3779  0.076530967  0.076459829            2 
 2471000   0.86640506    -2.674279     2262.735  0.076309691  0.076446276            2 
 2472000   0.84752748    -2.664112    2261.5216   0.07623792  0.076432513            2 
 2473000   0.86273594   -2.6539983    2263.4427  0.076271825   0.07641872            3 
 2474000   0.85084917   -2.6324053    2263.6315  0.076247355  0.076405219            3 
 2475000   0.86094298    -2.654913    2265.4902  0.076279131  0.076391749            2 
 2476000   0.85674618   -2.6552426    2264.4706  0.076214007  0.076378157            2 
 2477000   0.83378674   -2.6558017    2272.0177  0.076437147  0.076364571            4 
 2478000   0.87325382   -2.6514157    2268.2486  0.076279547  0.076350844            3 
 2479000   0.87064937   -2.6682447       2265.3  0.076149658   0.07633712            2 
 2480000   0.84635478     -2.66015    2267.7512  0.076201317   0.07632337            5 
 2481000   0.84727241   -2.6322759    2268.3295  0.076190028  0.076309597            3 
 2482000   0.84461785   -2.6568183    2268.4035  0.076161817  0.076295843            6 
 2483000   0.84195063    -2.676457    2258.3264  0.075792937  0.076282191            3 
 2484000   0.84963068   -2.6488033    2266.9036  0.076050174  0.076268288            3 
 2485000   0.84034962   -2.6521102    2271.5814  0.076176439  0.076254745            3 
 2486000   0.85773298   -2.6519246    2280.3664   0.07644028  0.076241338            2 
 2487000   0.85869798   -2.6399513    2266.0792  0.075930814  0.076227666            2 
 2488000   0.86304638   -2.6644511     2276.429  0.076246953  0.076213891            2 
 2489000   0.85450695   -2.6866278    2266.0008  0.075867176  0.076200452            4 
 2490000   0.84734478   -2.6565317    2273.4115  0.076084721  0.076186517            4 
 2491000   0.85102513   -2.6605246    2279.2541  0.076249635  0.076172917            6 
 2492000   0.85086071   -2.6155146    2269.9692  0.075908548  0.076159523            1 
 2493000   0.83711133   -2.6579312    2281.8116  0.076273954  0.076145924            2 
 2494000   0.85555883   -2.6511817    2278.1913  0.076122404  0.076132406            2 
 2495000   0.84268695   -2.6695811    2277.9144  0.076082645  0.076118756            3 
 2496000    0.8301904   -2.6565884     2276.672  0.076010682  0.076105046            6 
 2497000   0.84237142   -2.6561171    2270.9731  0.075790052  0.076091226            6 
 2498000   0.84863866   -2.6519877    2281.8669  0.076123128  0.076077611            2 
 2499000   0.86114798   -2.6940241    2270.4128   0.07571071   0.07606374            3 
 2500000   0.85547002   -2.6797526     2272.885  0.075762834  0.076049866            6 
 2501000   0.84411838   -2.6793121    2280.5203  0.075986949  0.076036223            5 
 2502000   0.86838462   -2.6430981    2284.5686  0.076091415  0.076022429            2 
 2503000   0.84120381   -2.6436552    2278.8754  0.075871468  0.076008768            4 
 2504000   0.85287766   -2.6632845    2285.3131  0.076055415  0.075995056            3 
 2505000   0.85883811   -2.6485399     2275.846  0.075710113  0.075981303            1 
 2506000   0.85463791   -2.6478013    2277.0851  0.075721104  0.075967633            2 
 2507000   0.85220949   -2.6749879    2280.7096  0.075811381  0.075953807            5 
 2508000   0.87465095   -2.6537993    2285.9605  0.075955625  0.075940265            2 
 2509000   0.83042747    -2.659214    2283.2615  0.075835708  0.075926529            4 
 2510000    0.8497853    -2.656509     2287.856  0.075958034  0.075912734            2 
 2511000    0.8340116   -2.6776008    2288.2267  0.075940088  0.075898793            2 
 2512000   0.85843091   -2.6719218    2283.1957  0.075742958  0.075885058            3 
 2513000   0.86936794   -2.6765523    2282.8812  0.075702389   0.07587138            2 
 2514000     0.850936   -2.6629376    2281.0685  0.075612187  0.075857617            2 
 2515000   0.82836798   -2.6542044    2287.3013  0.075788646  0.075843753            2 
 2516000   0.84118551   -2.6632341    2291.7773  0.075906774  0.075829792            2 
 2517000   0.84232386   -2.6647662    2279.2509   0.07546189  0.075815595            5 
 2518000   0.84573359   -2.6593309    2293.6291  0.075907766  0.075801687            4 
 2519000    0.8608491   -2.6504661    2300.9147  0.076118654  0.075787889            5 
 2520000   0.85299687   -2.6478566    2286.7141  0.075618853  0.075774148            4 
 2521000   0.84971453   -2.6627017    2283.9154  0.075496344  0.075760084            3 
 2522000   0.83008147   -2.6700858    2298.2267   0.07593929  0.075746219            2 
 2523000   0.88046951   -2.6686743    2290.3575  0.075649277  0.075732473            3 
 2524000    0.8399221   -2.6488753    2285.6719  0.075464603  0.075718682            2 
 2525000   0.85140931     -2.64784    2286.2656  0.075454311  0.075704685            5 
 2526000    0.8430213   -2.6552267     2295.947  0.075743831  0.075690571            4 
 2527000   0.87984762   -2.6849788    2287.3145  0.075429181  0.075676834            4 
 2528000   0.86057733    -2.652199    2291.3195  0.075531367  0.075663144            4 
 2529000   0.85054452   -2.6551974    2294.7674  0.075615111  0.075649624            1 
 2530000   0.84099056   -2.6513676    2295.1444   0.07559764  0.075635807            5 
 2531000   0.84341528   -2.6458179     2293.516  0.075514157  0.075622278            2 
 2532000   0.83355817   -2.6673266    2301.1597  0.075735902  0.075608528            1 
 2533000   0.84127961   -2.6328693    2300.0527  0.075669584  0.075594874            2 
 2534000   0.83567123   -2.6819665    2290.8328  0.075336516  0.075581282            2 
 2535000   0.85537226   -2.6717516      2285.15  0.075119986  0.075567576            3 
 2536000   0.84427541   -2.6660486    2307.2855  0.075817742  0.075554013            3 
 2537000   0.85829571   -2.6620331     2295.925  0.075414695  0.075540262            5 
 2538000   0.84486642   -2.6619199    2299.2752  0.075494984  0.075526569            2 
 2539000   0.86544613   -2.6620626    2289.9068  0.075157766  0.075512854            2 
 2540000   0.84258935   -2.6383524    2304.6533  0.075611985  0.075499393            3 
 2541000   0.85234715   -2.6859491    2294.8611  0.075261089  0.075485735            2 
 2542000   0.83239693   -2.6551137    2301.3641  0.075444665  0.075472213            2 
 2543000   0.84588018    -2.684659    2305.9238   0.07556442  0.075458579            3 
 2544000   0.82847161   -2.6479653    2302.2536  0.075414491  0.075445059            2 
 2545000   0.83924014   -2.6624374    2302.6208  0.075396884  0.075431537            4 
 2546000   0.83865832   -2.6606159     2298.966  0.075247642  0.075417988            3 
 2547000   0.87441223   -2.6827965    2301.0241  0.075285436  0.075404475            2 
 2548000   0.83394084   -2.6688216    2300.3668  0.075234395  0.075391098            5 
 2549000    0.8373171    -2.647259    2312.8365  0.075612544  0.075377883            4 
 2550000   0.85304235   -2.6599123    2311.9688  0.075554535  0.075364485            3 
 2551000   0.84662647   -2.6607672    2310.5928  0.075479969   0.07535123            2 
 2552000   0.83004968   -2.6810343    2316.3681  0.075638979   0.07533812            2 
 2553000   0.83686249   -2.6620129    2316.5751  0.075616108  0.075324887            5 
 2554000   0.84145278   -2.6592481    2313.3557  0.075481456   0.07531166            2 
 2555000   0.84077356   -2.6711708    2319.0806  0.075638637  0.075298268            3 
 2556000   0.83356893    -2.671154    2312.3889  0.075390873  0.075285036            2 
 2557000   0.83908293   -2.7050387    2306.1524  0.075158141  0.075271772            7 
 2558000   0.85612619    -2.656827    2314.6421  0.075405334  0.075258496            2 
 2559000   0.82494132   -2.6725241    2314.7834  0.075380466  0.075245371            5 
 2560000    0.8611047    -2.697026     2311.257   0.07523623  0.075232269            4 
 2561000   0.84042164   -2.6606573    2318.3994  0.075439263  0.075219064            7 
 2562000   0.83466236   -2.6523528    2317.8083  0.075390589  0.075205976            2 
 2563000   0.84560085   -2.6725236    2322.8905  0.075526418  0.075192991            4 
 2564000   0.85152969    -2.671767    2313.8041   0.07520164  0.075179797            3 
 2565000   0.82437438   -2.6939521    2321.3492  0.075417454   0.07516669            3 
 2566000   0.83753262   -2.6662306    2316.4902  0.075230262  0.075153522            4 
 2567000   0.84618103   -2.6748632     2321.361  0.075359078  0.075140347            5 
 2568000   0.84154438   -2.6801567    2319.6398  0.075273878   0.07512707            5 
 2569000   0.85105391   -2.6736395    2317.7357  0.075182811  0.075114048            6 
 2570000   0.82895128   -2.6720256    2320.2143  0.075233928  0.075100906            2 
 2571000    0.8481284   -2.6509631     2331.396  0.075567095  0.075087774            4 
 2572000   0.84019585   -2.6870117    2318.1436  0.075108334  0.075074612            2 
 2573000   0.85313687   -2.6567938    2327.5953  0.075385259   0.07506139            3 
 2574000   0.85449991   -2.6644461    2325.9035  0.075301201  0.075048285            2 
 2575000   0.83039508    -2.693381    2325.6671  0.075264308  0.075035047            4 
 2576000   0.83732875   -2.6895146    2320.0734  0.075054134  0.075021744            2 
 2577000   0.83338512    -2.663944    2321.0363  0.075056146  0.075008436            3 
 2578000   0.84249394   -2.6735429    2322.0546   0.07505995  0.074995229            3 
 2579000   0.83390179   -2.6950032    2323.4164  0.075074849   0.07498208            2 
 2580000   0.83961614   -2.6736586    2331.3422  0.075301749  0.074968926            2 
 2581000   0.83713089   -2.6730217    2315.9774  0.074776488  0.074955724            4 
 2582000   0.84107052   -2.6707744       2329.4  0.075180739  0.074942711            5 
 2583000    0.8255506   -2.6838887    2321.4752  0.074895962  0.074929416            3 
 2584000   0.83852826   -2.6594538    2330.2609  0.075150312  0.074915988            2 
 2585000   0.84810409   -2.6798836    2323.8358  0.074914113  0.074902631            2 
 2586000   0.81884239   -2.6713826     2324.082  0.074893077  0.074889291            3 
 2587000   0.83530422   -2.6821326    2319.2987  0.074710047  0.074876052            7 
 2588000   0.82058444   -2.6580276    2329.3179  0.075003796  0.074862654            4 
 2589000   0.82859008   -2.6575911    2324.6875  0.074825784  0.074849295            3 
 2590000   0.84900501   -2.6985098    2328.3591   0.07491503  0.074835899            2 
 2591000   0.83458132   -2.6869321    2329.0456  0.074908197  0.074822534            2 
 2592000    0.8336237   -2.6637565    2331.5071  0.074958433  0.074809258            2 
 2593000   0.85064153   -2.6936919    2325.8073  0.074746346  0.074795835            3 
 2594000   0.82190236   -2.6975003    2329.3695  0.074831968   0.07478259            6 
 2595000   0.84207226   -2.6976631    2329.5224  0.074808042  0.074769349            3 
 2596000   0.83568422    -2.666411    2338.8599  0.075078964   0.07475637            3 
 2597000   0.82718795   -2.6756368    2326.9043   0.07466642  0.074743054            2 
 2598000   0.84440243   -2.6779233    2331.1365  0.074773432  0.074729865            2 
 2599000   0.84635991   -2.6726081    2336.0405  0.074901901  0.074716517            3 
 2600000    0.8277421   -2.6853301    2330.3806  0.074691687  0.074703214            2 
 2601000   0.81170976   -2.6951139    2326.0942  0.074525637  0.074689676            3 
 2602000   0.84114509    -2.679679    2331.7334  0.074677601  0.074676368            1 
 2603000     0.825454   -2.6580169    2339.0571  0.074883376   0.07466293            3 
 2604000    0.8466644   -2.6617046    2335.1412  0.074729301  0.074649689            2 
 2605000   0.82637889   -2.6755511    2336.7356  0.074751618  0.074636475            3 
 2606000   0.83561844   -2.6909146    2327.8731  0.074439535  0.074622925            3 
 2607000   0.82175574    -2.681633    2337.4035   0.07471562  0.074609562            5 
 2608000   0.84763135   -2.6816441    2332.0331  0.074515373  0.074596156            6 
 2609000   0.82828985   -2.6900655    2331.1867  0.074459777  0.074582735            2 
 2610000   0.83446036   -2.6850663    2342.5847   0.07479517  0.074569401            4 
 2611000   0.83233079   -2.6795083    2340.5877  0.074702785  0.074556234            3 
 2612000   0.83053598   -2.6789276    2338.8457  0.074618611  0.074543094            1 
 2613000   0.81636589   -2.6737191    2335.7863  0.074492483  0.074529758            2 
 2614000    0.8259706   -2.6865466    2346.9282  0.074819185  0.074516407            4 
 2615000   0.83019312   -2.6666754    2347.9189  0.074822143   0.07450302            2 
 2616000   0.84256757   -2.6895145    2339.9726  0.074540411  0.074489743            4 
 2617000   0.81486461   -2.6965202     2337.977  0.074448384  0.074476444            2 
 2618000   0.83212923   -2.6967691    2348.1395  0.074743427  0.074463049            2 
 2619000   0.81067773   -2.6682076    2341.2247  0.074494868  0.074450112            5 
 2620000   0.84922914   -2.6907317    2349.3758  0.074725695  0.074436967            4 
 2621000   0.82354369   -2.6868789    2345.1983  0.074564361  0.074423812           10 
 2622000   0.83267893   -2.7015861    2352.7485  0.074775887  0.074410835            3 
 2623000    0.8278155   -2.6965189     2340.203  0.074348805   0.07439753            3 
 2624000   0.84093733   -2.7003671    2337.9884  0.074250139  0.074384336            5 
 2625000   0.84828333   -2.6855915    2345.5606  0.074462241  0.074371126            4 
 2626000   0.81521128   -2.7102562    2341.1916  0.074295239  0.074357994            3 
 2627000    0.8443746   -2.6786368    2349.9942  0.074546194  0.074344974            2 
 2628000    0.8402587   -2.6813369    2351.5686  0.074567752    0.0743321            4 
 2629000   0.82260345   -2.7026929    2350.2062  0.074496202  0.074318991            2 
 2630000   0.84008965   -2.6632957    2346.6873  0.074356377  0.074305971            2 
 2631000   0.84295908   -2.6776154    2360.5814  0.074768192  0.074293006            7 
 2632000   0.82622517   -2.6993789    2339.8672  0.074083941   0.07427999            2 
 2633000    0.8371591   -2.6630602    2348.6857  0.074334905  0.074266925            2 
 2634000   0.83479138     -2.66978    2355.0495  0.074508021  0.074253945            4 
 2635000   0.83070613   -2.6928156    2353.5124  0.074431132   0.07424089            2 
 2636000   0.82714823   -2.6968218    2352.2671  0.074363526  0.074227831            4 
 2637000   0.84192994    -2.686955    2355.6624  0.074442623  0.074214845            4 
 2638000   0.84287485   -2.6831813    2353.4792  0.074345438  0.074201747            3 
 2639000   0.82758336   -2.6880123    2357.7954  0.074453562  0.074188581            2 
 2640000   0.83328836   -2.6881774    2353.2648  0.074282348  0.074175669            3 
 2641000   0.82504569   -2.6576437    2357.9624  0.074402447   0.07416269            2 
 2642000   0.81723856   -2.6637522    2350.2935  0.074132397  0.074149794            3 
 2643000   0.83723303   -2.6835393    2361.2631  0.074450217  0.074136669            5 
 2644000   0.83367052   -2.6888964    2356.5144  0.074272389  0.074123468            3 
 2645000   0.83608428   -2.6821187    2354.0131  0.074165505  0.074110315            2 
 2646000   0.82029628   -2.6927193    2360.2255  0.074333127  0.074097203            3 
 2647000   0.81390859   -2.6749477    2354.1215  0.074112879  0.074084128            2 
 2648000   0.82373427   -2.6963955    2366.1144  0.074462312  0.074071243            2 
 2649000   0.83080647   -2.7013081    2360.0591  0.074243711  0.074058283            2 
 2650000    0.8346513   -2.6663818    2362.2816  0.074285585  0.074045201            4 
 2651000   0.82186798   -2.6927086    2359.1368  0.074158708  0.074032186            4 
 2652000   0.81317535   -2.6996265    2360.7851  0.074182537   0.07401895            2 
 2653000   0.80709545    -2.672773    2364.9433   0.07428519  0.074005791            3 
 2654000   0.83610175   -2.6951086    2362.0228    0.0741655  0.073992614            8 
 2655000   0.84196072    -2.690577    2364.3147  0.074209501  0.073979651            3 
 2656000   0.81405976   -2.7050267    2364.6157  0.074191006  0.073966621            5 
 2657000   0.82065215   -2.6846359    2361.0277  0.074050549  0.073953428            4 
 2658000    0.8248071   -2.6993373    2364.9781  0.074146541  0.073940381            4 
 2659000   0.85027456   -2.6831524    2372.6055    0.0743577  0.073927327            5 
 2660000   0.82009228    -2.692368    2364.8226   0.07408592  0.073914558            7 
 2661000   0.80276465   -2.7100603    2357.8074  0.073838386  0.073901401            4 
 2662000   0.83735277   -2.6976039     2360.124  0.073883171  0.073888183            6 
 2663000   0.83815436   -2.6982866     2373.868  0.074285518  0.073875247            3 
 2664000   0.83238376   -2.6896865    2369.9907  0.074136346   0.07386241            3 
 2665000   0.82021261   -2.7174389    2366.2645  0.073992011  0.073849539            7 
 2666000   0.81223366   -2.6947631    2366.4205  0.073969133    0.0738366            5 
 2667000   0.83366289   -2.7053775    2377.2528  0.074279864  0.073823605            4 
 2668000   0.82530081   -2.6792487    2374.0866   0.07415313  0.073810695            3 
 2669000   0.84388041   -2.7259911    2378.8208   0.07427316  0.073797811            2 
 2670000    0.8175835   -2.6822977    2371.3984  0.074013683  0.073784891            6 
 2671000   0.81861449   -2.6756949    2369.6049  0.073930018  0.073771902            4 
 2672000   0.84340662   -2.6720207    2381.9675  0.074287908  0.073759186            3 
 2673000   0.83662099   -2.6989417    2374.5823  0.074029874  0.073746269            3 
 2674000   0.81232261   -2.7102229    2364.3055  0.073681923  0.073733089            3 
 2675000   0.83006726   -2.7168865    2372.8208  0.073919651   0.07371995            2 
 2676000   0.82770149   -2.7240882    2378.2481  0.074061038  0.073706818            4 
 2677000   0.82605256   -2.7043233    2370.6655  0.073797334   0.07369356            3 
 2678000   0.82348668   -2.7048705    2372.5732   0.07382914  0.073680406            2 
 2679000   0.82717115   -2.6967031    2371.0201  0.073753269  0.073667381            3 
 2680000   0.81430392   -2.7130773    2370.3782  0.073705788  0.073654454            4 
 2681000   0.82302145   -2.7145992    2371.0311   0.07369859  0.073641256            2 
 2682000   0.81663179   -2.6928663    2374.6024  0.073782077  0.073628062            3 
 2683000   0.80856195   -2.6911524    2371.5831  0.073660799  0.073615004            4 
 2684000   0.83301886   -2.6794557    2372.1798   0.07365188  0.073602067            3 
 2685000   0.81652573    -2.693703    2377.8944  0.073801812  0.073588842            3 
 2686000    0.8268034   -2.7049789     2385.186  0.074000558  0.073575871            4 
 2687000   0.82477569   -2.6840242    2376.4246  0.073701296  0.073562944            7 
 2688000   0.81820654   -2.6975915    2383.6748  0.073898648  0.073550171            3 
 2689000   0.82394524    -2.708771    2374.9923   0.07360209  0.073537341            6 
 2690000   0.81510639   -2.6844203    2382.4154   0.07380469    0.0735245            2 
 2691000   0.81896447   -2.6986892    2384.3555  0.073837344  0.073511692            3 
 2692000   0.81728192   -2.7019469    2386.1474  0.073865384  0.073498978            4 
 2693000   0.82191632   -2.6900173    2387.7654  0.073888024  0.073486164            4 
 2694000   0.83534216   -2.6919512    2383.6925   0.07373461  0.073473488            3 
 2695000     0.818055   -2.7167152    2394.4972  0.074041347  0.073460761            3 
 2696000   0.82244931   -2.7046241    2382.5934  0.073645939  0.073448016            2 
 2697000   0.82556905    -2.713427    2388.0019  0.073785746  0.073435232            3 
 2698000   0.81769242   -2.6916637    2385.7239  0.073688037  0.073422429            2 
 2699000   0.83571536   -2.6672762    2382.6123  0.073564662  0.073409597            3 
 2700000   0.80773908   -2.7069777    2386.4235  0.073655046  0.073396954            4 
 2701000   0.81731487   -2.6873151    2392.7672  0.073823499  0.073384198            3 
 2702000   0.82725538   -2.6927445    2389.3157  0.073689726  0.073371493            3 
 2703000   0.79425225   -2.7184082    2393.1369  0.073780272   0.07335871            7 
 2704000   0.82173507   -2.6830902    2402.6724  0.074046857  0.073346103            3 
 2705000   0.80669064   -2.7029174    2393.1023  0.073724654   0.07333358            3 
 2706000   0.81883455   -2.7153497    2388.2088  0.073546712  0.073320768            4 
 2707000   0.80333613   -2.6907222    2393.4055  0.073679519  0.073308294            2 
 2708000   0.82594754   -2.6960146    2395.7006  0.073722938  0.073295636            4 
 2709000   0.83581402   -2.7102043    2394.7196  0.073665548  0.073283042            2 
 2710000   0.82877209   -2.7080959     2402.807  0.073887053   0.07327057            9 
 2711000   0.82026102   -2.7392325    2396.7579  0.073673858  0.073257922            4 
 2712000   0.83465059    -2.691729    2401.1582    0.0737819  0.073245432            4 
 2713000   0.82045593   -2.7231112    2402.0024  0.073780638  0.073232902            4 
 2714000   0.82097054   -2.7027438     2392.508  0.073461925   0.07322049            8 
 2715000   0.81660513   -2.7002997    2400.9386  0.073693634  0.073207904            3 
 2716000   0.83647809   -2.6890353     2404.767  0.073783965  0.073195331            3 
 2717000   0.82378138   -2.6904774     2391.386    0.0733464  0.073182687            3 
 2718000   0.83256289   -2.7089652    2405.5393  0.073753352  0.073170026            9 
 2719000   0.80660511   -2.6994323    2399.8083   0.07355058  0.073157428            7 
 2720000   0.82513762   -2.6863343    2406.2436  0.073720699  0.073144983            4 
 2721000   0.82108929   -2.7079795     2397.384  0.073422272  0.073132491            3 
 2722000   0.81647941   -2.7117583    2397.2399  0.073390885  0.073120175            2 
 2723000   0.80939845   -2.7054026     2399.938  0.073446505  0.073107621            6 
 2724000   0.81516689   -2.7048407    2398.8259  0.073385521  0.073095153            6 
 2725000   0.80782237   -2.7315967    2402.9677   0.07348525  0.073082319            4 
 2726000    0.8120821   -2.7033647    2404.2137  0.073496383  0.073069832            3 
 2727000   0.80964479   -2.7091733    2401.0912  0.073374012  0.073057373            2 
 2728000   0.80566715   -2.7021176    2401.2968  0.073353398  0.073044869            8 
 2729000   0.83515178   -2.7019366    2406.5173  0.073485933  0.073032297            3 
 2730000   0.81294155   -2.6978526    2403.7997  0.073376059  0.073019741            4 
 2731000   0.80728962    -2.708349       2400.6  0.073251558  0.073007121            4 
 2732000   0.80629816    -2.689704    2399.8402  0.073201568   0.07299439           13 
 2733000   0.81124569   -2.7031021    2411.7697  0.073538531  0.072981699            2 
 2734000   0.81629994   -2.7001001    2402.0044  0.073213983  0.072969063            7 
 2735000   0.82230214   -2.7070121    2409.8574  0.073426491  0.072956286            3 
 2736000   0.81806928   -2.7005161    2404.1467  0.073225717  0.072943676            4 
 2737000   0.82649142   -2.7235169    2403.5609  0.073181126  0.072930984            3 
 2738000   0.80624324   -2.7188361    2402.9727  0.073136497  0.072918237            7 
 2739000   0.81939175   -2.7036254    2406.1123  0.073205316  0.072905448            4 
 2740000   0.82331677   -2.6977995    2412.1615  0.073362575  0.072892857            2 
 2741000   0.80327401   -2.7065741    2410.5413  0.073286554  0.072880317            3 
 2742000    0.8305806   -2.7199358    2414.2807   0.07337347  0.072867794            7 
 2743000   0.79932267   -2.7155118    2404.8261  0.073059487  0.072855206            3 
 2744000   0.81118604   -2.7053631    2410.0189  0.073190563  0.072842493            5 
 2745000   0.82884644    -2.718476    2415.1229  0.073318851  0.072830158            6 
 2746000   0.82209859   -2.6906018    2425.9347  0.073620256  0.072817812            4 
 2747000   0.80084181   -2.7036687    2419.1483  0.073387583  0.072805291            4 
 2748000   0.82310162   -2.7221621    2415.9618  0.073264245  0.072792713            3 
 2749000    0.8115768   -2.7105897    2412.3022  0.073126658  0.072780436            9 
 2750000   0.80494821   -2.7215888    2411.5665  0.073077772  0.072768063            3 
 2751000   0.81106831   -2.7156412    2421.4341  0.073350117  0.072755586            3 
 2752000   0.81748341   -2.6881551    2421.5109   0.07332579  0.072743139            3 
 2753000   0.81571551     -2.73793    2422.4746  0.073328326  0.072730763            2 
 2754000   0.81290952   -2.7075966    2428.4718  0.073483169  0.072718196            5 
 2755000   0.80321437   -2.7049531    2416.0599  0.073081063  0.072705777            3 
 2756000   0.81912742   -2.7316036    2413.2024  0.072968142  0.072693504            6 
 2757000   0.81271139   -2.6953513    2421.7227  0.073199211  0.072681163            2 
 2758000   0.80927851   -2.6830198    2431.8932  0.073479974  0.072669155            3 
 2759000   0.81988502   -2.7157514    2416.4919  0.072988156  0.072656971            2 
 2760000    0.8311965   -2.7125571    2425.6621  0.073238591  0.072644497            3 
 2761000   0.80974817   -2.6897843    2430.6269  0.073361913   0.07263236            6 
 2762000   0.82981456    -2.728588     2420.879  0.073041243  0.072620119            7 
 2763000   0.79985461   -2.7173344    2423.7892  0.073102581   0.07260805            3 
 2764000    0.8127986   -2.7074996    2425.6378  0.073131867  0.072595723            3 
 2765000   0.81445827   -2.7262826    2426.3382  0.073126527  0.072583476            8 
 2766000   0.80171104   -2.7296585    2419.4383  0.072892211  0.072571124           16 
 2767000   0.82087487   -2.7226478    2429.6257  0.073172681  0.072558806            3 
 2768000   0.81718754    -2.700169    2432.6772  0.073238115  0.072546587            4 
 2769000   0.81959356    -2.738241    2431.3755  0.073172491  0.072534397            5 
 2770000   0.79218783   -2.7227437    2426.1307  0.072988289  0.072521953            4 
 2771000   0.81961469    -2.726543    2422.8386  0.072862943   0.07250953            4 
 2772000    0.8062169   -2.7427573    2430.8833  0.073078502  0.072497106            5 
 2773000   0.81569301   -2.7059632    2432.7765  0.073109042  0.072484654            3 
 2774000   0.82506282   -2.6997544    2434.7041  0.073140595  0.072472232            3 
 2775000   0.79759734   -2.7287156    2420.2075  0.072678905  0.072459735            3 
 2776000    0.7958106   -2.7191764    2434.3193  0.073076349  0.072447142            3 
 2777000   0.80377224   -2.7035856    2425.1103  0.072773687  0.072434672            3 
 2778000   0.81716673   -2.7215261    2428.8262  0.072858958  0.072422056            5 
 2779000   0.81728507   -2.7184167    2423.4036  0.072670133  0.072409466            2 
 2780000   0.80756198   -2.7274647    2420.4322  0.072554921  0.072396855            3 
 2781000   0.79879561   -2.7129905     2431.878  0.072871808  0.072384388            3 
 2782000   0.81427679    -2.722368    2430.7696  0.072812414  0.072371887            1 
 2783000    0.8178438   -2.7208649    2433.6267  0.072871803  0.072359418            5 
 2784000    0.8384616   -2.7363125    2427.4702  0.072661345  0.072346986            3 
 2785000   0.80345048   -2.6968406    2436.7524  0.072912999  0.072334535            4 
 2786000   0.82957902   -2.7424646    2437.3636  0.072905107  0.072322075            5 
 2787000   0.81408097   -2.7119971    2434.8676  0.072804319  0.072309447            3 
 2788000   0.80477428   -2.7127763    2440.5171  0.072947068  0.072297005            4 
 2789000   0.79489871   -2.7016737    2431.0576   0.07263827  0.072284426            2 
 2790000   0.79637298    -2.739149    2422.5903  0.072359327  0.072271808            3 
 2791000   0.80053796   -2.7110215    2425.3709  0.072416423  0.072259206            5 
 2792000   0.80330779   -2.7045263    2434.6884  0.072668588  0.072246515            4 
 2793000   0.78479273   -2.7257145    2433.6461  0.072611473  0.072233727            3 
 2794000   0.81935671   -2.7300606    2429.4818   0.07246128  0.072220958            6 
 2795000   0.80805478   -2.7154317    2434.3208  0.072579631  0.072208327            6 
 2796000   0.79587591   -2.6928198    2437.2375  0.072640602  0.072195648            6 
 2797000   0.79983158   -2.7110121    2441.7406  0.072748795   0.07218314            2 
 2798000   0.80082392   -2.7370442     2434.478  0.072506494  0.072170448            4 
 2799000    0.8184943   -2.6988354    2439.3153  0.072624606  0.072157826            3 
 2800000   0.79601834   -2.7221411    2436.0277  0.072500823  0.072145187            5 
 2801000   0.82203592   -2.7324141     2434.873  0.072440585   0.07213257            3 
 2802000   0.78858245   -2.7315044     2431.257  0.072307191  0.072119832            2 
 2803000   0.81340987   -2.7400622    2437.9662  0.072480859  0.072106993            6 
 2804000   0.79705181   -2.7317439    2433.7968  0.072331097  0.072094164            4 
 2805000   0.80587283    -2.709433    2436.5968  0.072388495  0.072081434            2 
 2806000   0.80626387   -2.7490022    2431.6167  0.072214799  0.072068746            4 
 2807000    0.8069458    -2.736254    2441.0123  0.072468004  0.072056017            5 
 2808000   0.80884205   -2.7259375    2438.5824  0.072370086  0.072043171            3 
 2809000   0.80715595   -2.7394454    2437.1633  0.072302222  0.072030533            7 
 2810000   0.80009736   -2.7461651    2431.6572  0.072113203  0.072017768            3 
 2811000   0.81225859    -2.702616    2441.0388   0.07236567  0.072004973            5 
 2812000   0.78892952   -2.7025817    2443.4203  0.072410513    0.0719923            6 
 2813000   0.80148355   -2.6996956    2443.3391  0.072382364  0.071979833            4 
 2814000   0.81226325   -2.7422145    2441.6754  0.072307374  0.071967137            4 
 2815000   0.81137491   -2.7100518    2439.1517  0.072206976  0.071954365            3 
 2816000   0.79998554   -2.6998114    2450.7995  0.072526027  0.071941726            4 
 2817000   0.78830184   -2.7350561      2448.58  0.072434622  0.071929102            2 
 2818000   0.82113416   -2.7354043    2450.1389  0.072455017  0.071916529            7 
 2819000   0.78698302   -2.7171876    2445.4431  0.072290502  0.071903727            3 
 2820000   0.80670998   -2.7145795    2437.7368   0.07203714  0.071891154            3 
 2821000   0.78364249   -2.7422056    2440.8646  0.072103999  0.071878464            2 
 2822000   0.77643287   -2.7214614    2443.1336  0.072145452  0.071865901            7 
 2823000   0.82239824    -2.708509    2437.9427  0.071966663  0.071853353            4 
 2824000   0.79217097   -2.7257703    2448.2376  0.072244973  0.071840921            2 
 2825000   0.80791028    -2.735121    2443.2256  0.072071551  0.071828348            4 
 2826000   0.81349364   -2.7251628    2449.7375  0.072238071  0.071815745            4 
 2827000   0.79905158   -2.7007437     2456.917  0.072424153  0.071803137            2 
 2828000   0.80141924   -2.7299126    2446.4518  0.072090163   0.07179054            3 
 2829000   0.80260893   -2.7590618    2452.4668  0.072241863  0.071777962            3 
 2830000   0.80881482   -2.7116854    2452.9616  0.072230906  0.071765314            5 
 2831000   0.80436074   -2.7238148    2455.7035  0.072286104  0.071752551            4 
 2832000   0.78984484   -2.6933186    2455.5701  0.072256652  0.071740042            3 
 2833000   0.80732945   -2.7318811     2453.501  0.072170285  0.071727512            5 
 2834000   0.79297455    -2.726674    2452.6258  0.072119083  0.071715055            3 
 2835000   0.79976688   -2.7230662    2447.9961  0.071957557  0.071702716            1 
 2836000   0.79697032   -2.7288306    2460.3719  0.072295837  0.071690151            6 
 2837000   0.80352277   -2.7132911    2443.9346  0.071787529  0.071677566            2 
 2838000   0.80394416   -2.7321026    2454.7397  0.072079507  0.071665077            3 
 2839000   0.78310874   -2.7238978    2458.7619  0.072172181  0.071652519            8 
 2840000   0.79933686   -2.7354625    2455.9698  0.072064842  0.071640025            2 
 2841000   0.80541204   -2.7089945    2467.0464  0.072364378  0.071627409            2 
 2842000   0.80405343   -2.7232393    2447.7264  0.071772413   0.07161482            5 
 2843000    0.7982463   -2.7281652    2453.1263  0.071905449  0.071602255            9 
 2844000   0.79984696   -2.7309676    2446.5179  0.071686529  0.071589545            5 
 2845000   0.79732792   -2.7320398    2452.9974  0.071851125  0.071576938            2 
 2846000   0.79305556   -2.7116252    2461.6188  0.072078319  0.071564379            3 
 2847000   0.80316343   -2.7408327    2457.7774  0.071940564  0.071551608            3 
 2848000   0.78749618   -2.7410397    2458.6742  0.071941545  0.071538814            1 
 2849000   0.78238287   -2.7291944    2453.5411  0.071766149  0.071525944            6 
 2850000   0.82188206   -2.7401174    2456.1732  0.071817931   0.07151313            3 
 2851000    0.7945618   -2.7505145    2454.0077  0.071729444  0.071500359            5 
 2852000   0.78418169   -2.7267737    2456.9536   0.07179037  0.071487524            4 
 2853000   0.80614096   -2.6965743    2458.2273  0.071802411  0.071474932            4 
 2854000   0.78795133   -2.7332528    2458.3643  0.071781252  0.071462125            6 
 2855000   0.80048743   -2.7570349    2453.9146  0.071626228  0.071449202            4 
 2856000   0.78829197   -2.7143368    2465.5604  0.071940956  0.071436485            3 
 2857000   0.78769058   -2.7313708    2456.1442  0.071641121  0.071423751            3 
 2858000   0.78489525   -2.7447287    2457.7049  0.071661561  0.071410894            7 
 2859000   0.78018123   -2.7338323    2459.0464  0.071675599  0.071397957            4 
 2860000   0.79914842   -2.7393911    2463.6034  0.071783317  0.071385169            4 
 2861000   0.80311233   -2.7231393     2461.235  0.071689242  0.071372399            3 
 2862000   0.79488689   -2.7349767    2459.8327  0.071623361  0.071359651            3 
 2863000   0.79901251   -2.7269909    2475.5606  0.072056135  0.071347023            1 
 2864000   0.78557373   -2.7365625    2466.1324  0.071756644  0.071334435            2 
 2865000   0.78520267   -2.7177972    2468.9078  0.071812328  0.071321678            4 
 2866000   0.78411652   -2.7460408    2460.9991  0.071557312  0.071308812            4 
 2867000   0.80278185   -2.7394221    2461.7456  0.071554053   0.07129583            3 
 2868000   0.80303817   -2.7697122    2462.5115  0.071551358  0.071283058            3 
 2869000   0.79159704   -2.7439358    2455.9403   0.07133555  0.071269889            2 
 2870000   0.77777757   -2.7519298    2456.2812  0.071320591  0.071256945            5 
 2871000   0.80295677   -2.7380814    2452.3017  0.071180243  0.071243931            8 
 2872000   0.78874951   -2.7643368    2462.4095  0.071448744   0.07123108            4 
 2873000   0.79759683   -2.7395833    2465.1014  0.071501954  0.071218086            7 
 2874000    0.8019626   -2.7286428    2466.6248  0.071521249  0.071205243            6 
 2875000   0.77937245   -2.7327836    2469.3686  0.071575901  0.071192373            4 
 2876000   0.79159343   -2.7213848     2462.557  0.071353644  0.071179404            5 
 2877000   0.77308875   -2.7469932    2466.1722   0.07143356   0.07116637            4 
 2878000     0.812746   -2.7248927     2464.204  0.071351749  0.071153472            6 
 2879000   0.81487228   -2.7400276    2461.9664  0.071262197  0.071140686            3 
 2880000   0.79425827   -2.7629919    2469.4807  0.071454881  0.071127684            2 
 2881000   0.78360433   -2.7159377    2475.5549  0.071605776  0.071114721            4 
 2882000   0.80352722   -2.7441263    2464.9953  0.071275598  0.071101709            2 
 2883000   0.78614214   -2.7090875    2474.7332   0.07153235   0.07108875            3 
 2884000   0.79447871   -2.7381903    2460.2986  0.071090458  0.071075887            1 
 2885000   0.79363504   -2.7437983    2475.5711  0.071506966  0.071063008            2 
 2886000    0.7894129   -2.7458485    2468.0543  0.071265139  0.071050294            8 
 2887000    0.7785425   -2.7376924     2473.695  0.071403274  0.071037587            4 
 2888000    0.7917157   -2.7425879     2456.722  0.070888794  0.071024799            5 
 2889000   0.78673438   -2.7327726     2464.285   0.07108241  0.071011921            3 
 2890000   0.80058142   -2.7483979    2466.0513  0.071108745  0.070998985            3 
 2891000   0.79901693   -2.7364549    2462.2604  0.070974876  0.070986085            2 
 2892000   0.79113354   -2.7583637     2473.116   0.07126314  0.070973211            4 
 2893000   0.79098751   -2.7403955    2478.3167  0.071388312  0.070960374            4 
 2894000   0.80026101   -2.7594954    2475.8433  0.071292423  0.070947652            5 
 2895000   0.79298213   -2.7333503    2471.8837  0.071153821  0.070934761            7 
 2896000    0.7951109   -2.7432812    2475.1791  0.071224075  0.070921961            6 
 2897000   0.79025027    -2.753974    2471.0349  0.071080282   0.07090901            4 
 2898000   0.79953642   -2.7353342    2472.8012  0.071106543  0.070896126            2 
 2899000   0.79726667   -2.7605634    2484.1994  0.071409663  0.070883281            7 
 2900000   0.80607283   -2.7454346    2474.4042  0.071103569  0.070870672            3 
 2901000   0.78780776   -2.7545367    2478.0396  0.071183489  0.070857931            2 
 2902000   0.79031413   -2.7346845    2469.6454  0.070917913  0.070844898           13 
 2903000   0.79065464   -2.7360206    2475.1131  0.071050441  0.070831968            4 
 2904000   0.78678407   -2.7359793    2475.9054  0.071048709  0.070819154            5 
 2905000   0.78380912   -2.7423076    2475.3502  0.071008326  0.070806198            4 
 2906000   0.78359737   -2.7465369    2477.8093  0.071054406   0.07079341            4 
 2907000   0.79035823   -2.7421247    2473.8664  0.070916936  0.070780457            3 
 2908000   0.77534598   -2.7329855     2475.873  0.070950053  0.070767834            4 
 2909000   0.76936804   -2.7302411    2475.4057  0.070912276  0.070754976            6 
 2910000   0.78513408   -2.7547461    2484.2442  0.071141014  0.070742139            4 
 2911000   0.78659255    -2.733696    2476.3488  0.070890552   0.07072942            3 
 2912000   0.78866322   -2.7542241    2485.9207  0.071140129  0.070716567            2 
 2913000   0.79114389   -2.7222607    2486.7686  0.071139966  0.070703917            7 
 2914000   0.80744457   -2.7450241    2479.3142  0.070902374  0.070691207            4 
 2915000   0.80016671   -2.7384547    2482.9771  0.070982766  0.070678533            3 
 2916000   0.79681724   -2.7584077    2483.1662  0.070963826  0.070665798            9 
 2917000   0.77966869   -2.7548462    2480.2441   0.07085602  0.070653207            2 
 2918000   0.79071388   -2.7198879    2493.3048   0.07120473  0.070640553            5 
 2919000    0.8028373   -2.7363973    2484.9455  0.070941689   0.07062814            3 
 2920000   0.78428277   -2.7596206    2496.5981  0.071249945  0.070615521            5 
 2921000   0.78548436   -2.7675952    2478.6684  0.070714036  0.070602699            3 
 2922000   0.78424736   -2.7491132    2488.2308  0.070962548  0.070589912            3 
 2923000   0.79838283   -2.7582455     2493.387  0.071085273  0.070577347            2 
 2924000   0.79096386    -2.741941    2495.8172  0.071130222  0.070564786            4 
 2925000   0.77902244    -2.741716    2488.3928  0.070894381  0.070552182            5 
 2926000    0.7878774    -2.742275    2497.9369   0.07114197  0.070539564            2 
 2927000   0.78571191   -2.7303717    2489.3802  0.070874051  0.070526911            2 
 2928000   0.77984548    -2.737774    2488.3191  0.070819646  0.070514243            4 
 2929000   0.77942315   -2.7589164    2488.3349  0.070795917  0.070501521            4 
 2930000    0.7890383   -2.7366777    2488.5474  0.070777799  0.070488893            3 
 2931000   0.75965854   -2.7459506    2489.7607  0.070788148  0.070476153            3 
 2932000   0.75864059   -2.7213548     2489.151  0.070746676  0.070463487            2 
 2933000   0.76886573   -2.7457031    2486.5046  0.070647363    0.0704508            6 
 2934000   0.77114934   -2.7555818     2493.344  0.070817541  0.070438267            3 
 2935000   0.77675056   -2.7290247    2497.1537  0.070901582  0.070425801            3 
 2936000   0.80573785   -2.7220441    2497.9617  0.070900365  0.070413187            3 
 2937000   0.77485469    -2.748283    2497.8441  0.070872889  0.070400728            3 
 2938000   0.79220234   -2.7349832    2487.2411  0.070548022  0.070388185            3 
 2939000   0.80108738   -2.7325658    2501.2241  0.070920499  0.070375658            4 
 2940000   0.78260966   -2.7412946    2491.4823  0.070620248  0.070363111            4 
 2941000   0.79554789   -2.7430715    2497.3367  0.070762118  0.070350289            3 
 2942000   0.76577721    -2.746498    2498.2593  0.070764199   0.07033773            2 
 2943000   0.79596342   -2.7642709    2499.1656  0.070765817  0.070325204            6 
 2944000   0.78920658    -2.746298    2503.5662  0.070866344  0.070312609            2 
 2945000   0.78497567   -2.7586878    2495.6845  0.070619256  0.070300093            3 
 2946000   0.77701589   -2.7613667    2500.5163   0.07073196  0.070287386            2 
 2947000   0.78500906     -2.76842     2494.776  0.070545638  0.070274693            3 
 2948000   0.77327559   -2.7691114    2497.3361  0.070594077  0.070262051            4 
 2949000   0.77491462   -2.7582117    2493.7429  0.070468602  0.070249344            6 
 2950000   0.78426152   -2.7548768    2497.6616  0.070555413  0.070236822            4 
 2951000   0.79061197   -2.7528912    2513.3451  0.070974391  0.070224323            4 
 2952000   0.78001152   -2.7626484    2503.1782  0.070663341   0.07021171            5 
 2953000   0.77388575   -2.7552682    2497.5985  0.070481954  0.070199103            3 
 2954000   0.78378191   -2.7411887    2500.1038  0.070528768  0.070186487            5 
 2955000   0.77226555   -2.7570629    2496.5227  0.070403912  0.070173917            5 
 2956000   0.78549289   -2.7655027    2501.9322  0.070532594  0.070161317            4 
 2957000   0.79980361   -2.7447971    2504.4121   0.07057863  0.070148716            3 
 2958000   0.77667058   -2.7451837     2497.874  0.070370576  0.070136065            7 
 2959000   0.75891562   -2.7390258    2506.2137  0.070581665  0.070123534            3 
 2960000    0.7775689   -2.7382766    2503.3269  0.070476546  0.070110927            6 
 2961000   0.76825167   -2.7472104    2510.3135  0.070649372  0.070098323            4 
 2962000   0.78736219   -2.7643757    2499.3709  0.070317661   0.07008568            2 
 2963000   0.77200075   -2.7509031    2502.3448  0.070377567  0.070073008            3 
 2964000   0.77878667   -2.7609527    2502.9153  0.070369863  0.070060506            6 
 2965000   0.77588774   -2.7452238    2507.9088  0.070486477  0.070047716            3 
 2966000   0.76931202   -2.7539538    2501.1259  0.070272137  0.070035043            3 
 2967000   0.77110294   -2.7679811    2497.0338  0.070133519  0.070022432            5 
 2968000    0.7773158    -2.771115    2503.4746  0.070290727  0.070009601            4 
 2969000   0.76348705   -2.7551324    2505.3048  0.070318425  0.069996907            7 
 2970000   0.77491058   -2.7442935    2500.6276  0.070163514  0.069984242            4 
 2971000   0.78203496   -2.7429433    2496.5547  0.070025655  0.069971629            5 
 2972000   0.79337055   -2.7418706    2508.4314  0.070335112  0.069958962            4 
 2973000    0.7558479   -2.7540035    2510.2804  0.070363282  0.069946233            3 
 2974000   0.76466246   -2.7408237    2504.2905  0.070171781  0.069933475            4 
 2975000    0.7669104   -2.7405127    2506.4845  0.070209651  0.069920673            7 
 2976000   0.79158785   -2.7403985    2508.7706  0.070250072  0.069907982            4 
 2977000   0.77157937   -2.7695389    2509.8908  0.070257833  0.069895186            5 
 2978000    0.7797539   -2.7607591    2510.7199  0.070257442  0.069882413            5 
 2979000   0.77901174   -2.7588744     2496.262  0.069829416  0.069869599            4 
 2980000   0.77121931   -2.7636482    2502.2848  0.069974407  0.069856771            5 
 2981000   0.79913967    -2.750575    2507.4408  0.070095069  0.069844054            3 
 2982000   0.77364406   -2.7744558    2513.8331  0.070250199  0.069831385            5 
 2983000   0.78404733   -2.7456037    2509.7103  0.070111472  0.069818686            6 
 2984000   0.75902438   -2.7523153    2513.3366  0.070189248  0.069805871            4 
 2985000   0.76662136    -2.733229    2516.5854  0.070256433  0.069793276            2 
 2986000   0.78372061   -2.7845984    2507.5965  0.069982041  0.069780459            5 
 2987000   0.76937331   -2.7461732    2510.1173  0.070028938  0.069767648            3 
 2988000    0.7818529   -2.7495096    2522.1536  0.070341187  0.069754938            5 
 2989000   0.76624633   -2.7694155    2502.9245  0.069781545  0.069741998            4 
 2990000   0.77246852   -2.7583361    2506.2502  0.069850899  0.069729128            3 
 2991000   0.77447548   -2.7600884    2512.2839  0.069995652  0.069716246            3 
 2992000   0.76713756   -2.7438948    2509.7232  0.069900936  0.069703432            3 
 2993000   0.77104283   -2.7606943     2508.745  0.069850346  0.069690543            5 
 2994000   0.77425785    -2.790938    2503.6106  0.069684107  0.069677745            3 
 2995000   0.76222908   -2.7632182    2524.5994  0.070244836  0.069665029            3 
 2996000   0.78621023   -2.7909973    2505.1041   0.06967913  0.069652159            3 
 2997000   0.79546835    -2.767179    2514.9505  0.069929666  0.069639369            3 
 2998000   0.77287421   -2.7478462    2521.6903  0.070093681  0.069626647            5 
 2999000   0.75607706   -2.7584789      2509.88  0.069742137  0.069613832            3 
 3000000   0.77237158   -2.7661562    2516.6276  0.069906323  0.069600892            3 
 3001000   0.76220865   -2.7670564    2524.7653     0.070109   0.06958817            4 
 3002000   0.75958448   -2.7616439    2510.0921   0.06967833  0.069575315            4 
 3003000   0.77492904   -2.7338925    2517.1186  0.069850112  0.069562644            2 
 3004000   0.78972303   -2.7435867    2521.0983  0.069937258  0.069550003            4 
 3005000   0.75913235   -2.7567997    2517.6292  0.069817781  0.069537233            4 
 3006000    0.7925749    -2.760994    2518.5377   0.06981974   0.06952441            4 
 3007000   0.76204847   -2.7589595    2522.2621  0.069899737  0.069511576            5 
 3008000    0.7688607   -2.7589009     2520.932  0.069839651  0.069498719            6 
 3009000   0.74936179   -2.7594128    2514.1457  0.069628494  0.069485917            3 
 3010000   0.76642096   -2.7703214    2515.4647  0.069641879  0.069473158            3 
 3011000   0.78759159   -2.7754608    2519.7351   0.06973694  0.069460491            5 
 3012000   0.76605012   -2.7745995     2529.845  0.069993499  0.069447576            3 
 3013000   0.75851828   -2.7571957    2518.1749  0.069647497  0.069434921            4 
 3014000    0.7653461   -2.7670715    2530.0335  0.069952263  0.069422247            2 
 3015000   0.78528123   -2.7613876    2524.0301  0.069763131  0.069409682            5 
 3016000   0.77532716   -2.7727066    2528.1133  0.069852821   0.06939726            6 
 3017000   0.76999164   -2.7638989    2531.0867  0.069911797  0.069384667            5 
 3018000   0.75716123   -2.7627046    2520.4953  0.069596181  0.069372041            6 
 3019000     0.763174   -2.7620284    2527.3102  0.069761239  0.069359496            8 
 3020000   0.75934284   -2.7870013    2523.8767  0.069643396  0.069346863            3 
 3021000   0.76329887   -2.7480058    2529.8353   0.06978471  0.069334263            3 
 3022000   0.78450774    -2.753321    2526.2598  0.069663022  0.069321714            7 
 3023000   0.77554904   -2.7620621    2531.0914  0.069773166  0.069309203            2 
 3024000   0.77494219    -2.757048    2527.6031  0.069653964  0.069296715            4 
 3025000   0.76489987   -2.7562133    2523.3267  0.069513133  0.069284082            3 
 3026000   0.75515262   -2.7716542    2525.8949  0.069560887  0.069271493            6 
 3027000    0.7757414   -2.7650024    2532.5887  0.069722188  0.069258972            4 
 3028000   0.77131034   -2.7600848    2531.6222  0.069672562  0.069246318            3 
 3029000   0.79483237   -2.7580206     2533.366  0.069697535  0.069233867            3 
 3030000   0.76668306   -2.7693601    2536.1594   0.06975136  0.069221378            8 
 3031000   0.77264959   -2.7756574     2533.711   0.06966103  0.069208879            4 
 3032000   0.76865826   -2.7753963    2537.0882  0.069730877  0.069196295            2 
 3033000   0.77014915   -2.7669898    2531.3504  0.069550236  0.069183687            2 
 3034000   0.76141692   -2.7797686    2536.8874  0.069679394  0.069171205            2 
 3035000   0.77193897   -2.7455215    2542.2039  0.069802415  0.069158653            2 
 3036000   0.76470977   -2.7579067    2537.2347  0.069643024  0.069146242            3 
 3037000    0.7721059   -2.7800461     2529.255  0.069401137  0.069133624            2 
 3038000   0.78034609    -2.777604    2535.0363  0.069536875  0.069121089            3 
 3039000   0.76150389   -2.7444707    2538.1309  0.069598851  0.069108606            2 
 3040000   0.76174996   -2.7789282    2530.2812  0.069360779  0.069096081            6 
 3041000    0.7741613   -2.7547484    2532.4693  0.069397931  0.069083555            3 
 3042000   0.74861907   -2.7858588    2540.2005  0.069586909  0.069070852            2 
 3043000   0.77746457   -2.7734227    2538.3638  0.069513741   0.06905811            3 
 3044000   0.77942079   -2.7706612    2531.8925  0.069313745  0.069045509            5 
 3045000   0.77689024   -2.7793223    2539.3133   0.06949407  0.069032857            3 
 3046000   0.76321109   -2.7740666    2530.0412  0.069217585  0.069020253            3 
 3047000   0.76291516   -2.7565642    2529.3691  0.069176489  0.069007666            3 
 3048000   0.76305022   -2.7707647    2537.5397  0.069377178  0.068995103            3 
 3049000   0.75798104   -2.7772283    2534.0286  0.069258462  0.068982552            4 
 3050000   0.77384938    -2.800715    2538.1541  0.069348473   0.06896976            4 
 3051000   0.76740111   -2.7480547     2538.228  0.069327762  0.068957027            2 
 3052000   0.74966362   -2.7392885    2532.8418  0.069157979  0.068944526            4 
 3053000   0.75394076   -2.7791077    2542.9572  0.069411432  0.068932002            4 
 3054000   0.78062914    -2.769325    2538.3871  0.069264002  0.068919542            2 
 3055000   0.76774585   -2.7649363    2546.5867  0.069464994  0.068907012            3 
 3056000   0.76381406     -2.76933    2538.1556  0.069212357  0.068894394            3 
 3057000   0.73787969   -2.7845282    2535.2385  0.069110199  0.068881938            3 
 3058000    0.7642452    -2.762094    2549.3794   0.06947295  0.068869439            5 
 3059000   0.76571828    -2.756738    2546.1155  0.069361326  0.068856841            8 
 3060000   0.77368723   -2.7456178    2548.5245  0.069404261  0.068844391            9 
 3061000   0.75170629   -2.7838136    2541.5103  0.069190631  0.068831783            6 
 3062000    0.7779355   -2.7719521     2545.287  0.069270819  0.068819271            6 
 3063000   0.76076175   -2.7628078    2540.5704  0.069119882    0.0688068            3 
 3064000   0.76288243   -2.7717542    2542.8558  0.069159482  0.068794074            5 
 3065000   0.75541865   -2.7910293    2544.6276  0.069185089  0.068781458            4 
 3066000   0.75440638   -2.7743456    2541.0473  0.069065212  0.068768686            2 
 3067000   0.76142962   -2.7568306    2539.2858  0.068994832  0.068756023            2 
 3068000   0.75340459   -2.7692694     2547.492   0.06919524  0.068743271           14 
 3069000    0.7566895    -2.778066     2546.957  0.069158167  0.068730654            5 
 3070000   0.76705077   -2.7737124    2548.5072  0.069177721  0.068717855            5 
 3071000   0.74973265   -2.7770578    2539.9335   0.06892254  0.068705206           10 
 3072000   0.77115761   -2.7700093    2536.1605  0.068797757  0.068692571            2 
 3073000   0.77476284   -2.7760822    2555.4599  0.069298729  0.068679895            4 
 3074000   0.76803363   -2.7822304    2548.0664  0.069075752  0.068667365            8 
 3075000   0.76428174   -2.7608051    2553.6504  0.069204619  0.068654786            2 
 3076000   0.75437763   -2.7656206    2548.5561  0.069044108  0.068642196            4 
 3077000   0.78859012    -2.779548    2548.5935   0.06902268  0.068629689            3 
 3078000   0.76038192   -2.7717259    2560.9565  0.069334971  0.068617171            2 
 3079000   0.76877405   -2.7667708    2543.7943  0.068847958  0.068604667            3 
 3080000    0.7689762   -2.7789171     2559.233  0.069243317  0.068592142            5 
 3081000   0.75444633   -2.7766745    2545.1645  0.068840325  0.068579585            4 
 3082000   0.74244129   -2.7791702      2557.96  0.069163963  0.068567005            6 
 3083000   0.75980164   -2.7744205    2550.5389  0.068940936  0.068554553            9 
 3084000     0.749631   -2.7933004    2544.8374   0.06876452  0.068541902            4 
 3085000   0.75316907   -2.7751055    2556.6144  0.069060356  0.068529306            3 
 3086000    0.7664856   -2.7548624    2558.5226  0.069089506  0.068516869            6 
 3087000   0.77274079   -2.7654648    2559.2425  0.069086558  0.068504341            8 
 3088000     0.757452    -2.781511    2550.3035  0.068822958  0.068491915            4 
 3089000   0.75473371   -2.7906538    2547.9808  0.068738017  0.068479521            4 
 3090000   0.74890381    -2.796606     2561.243  0.069073437    0.0684669            4 
 3091000   0.74779163   -2.7929606    2549.9352  0.068746231   0.06845448            4 
 3092000   0.75238709    -2.767812    2558.0304  0.068942174  0.068442157            4 
 3093000   0.76949157    -2.771616    2562.4226  0.069038221  0.068429803            2 
 3094000   0.75433812   -2.8035052      2559.03  0.068924531  0.068417415            4 
 3095000   0.77000432   -2.7711747     2552.167  0.068717473  0.068404994            9 
 3096000   0.76442399   -2.7893193     2566.172  0.069072244  0.068392551            4 
 3097000    0.7832344   -2.8022756    2544.9419  0.068478688  0.068380125            6 
 3098000    0.7515527   -2.7876308     2551.572  0.068634927   0.06836746            7 
 3099000   0.72997772   -2.7849291    2558.4761  0.068798433  0.068355017            7 
 3100000   0.76197197   -2.7921565    2559.0255  0.068791007  0.068342621            7 
 3101000   0.77262081   -2.7987822    2565.9992  0.068956229  0.068330123            4 
 3102000   0.75834693    -2.794217    2553.3868  0.068595174  0.068317798            7 
 3103000   0.75861181   -2.7740647      2566.16  0.068916104  0.068305486            3 
 3104000   0.74047722   -2.7819181      2552.72  0.068533075  0.068293013            5 
 3105000   0.75893743   -2.7769677    2561.9251  0.068758056  0.068280649           10 
 3106000    0.7473136   -2.7797193    2560.7511   0.06870442  0.068268311            5 
 3107000   0.76928406   -2.7723086    2568.6595  0.068894418  0.068255961            3 
 3108000   0.74559282   -2.7988582    2562.1707   0.06869827  0.068243661            2 
 3109000   0.78384985   -2.7865326    2555.2641   0.06849105  0.068231178            5 
 3110000   0.76777119    -2.808589    2564.3104  0.068711424  0.068218727            5 
 3111000     0.749328   -2.7909596    2570.4927  0.068854943  0.068206379            4 
 3112000   0.76862759   -2.7755063    2569.6322  0.068809775  0.068194117            3 
 3113000   0.74725502   -2.7660244    2565.0456  0.068664888  0.068181878            6 
 3114000   0.75452046   -2.8010395     2562.991  0.068587855   0.06816958            3 
 3115000   0.75293422   -2.7941007    2566.9025  0.068670478  0.068157251            7 
 3116000   0.74765789   -2.7518632    2566.3974  0.068634933  0.068145066            3 
 3117000   0.76328984   -2.7686154    2572.1589  0.068766946  0.068132798            6 
 3118000   0.75548456   -2.7698033    2578.6257  0.068917727  0.068120542            5 
 3119000    0.7439347   -2.8037729    2575.3995  0.068809434  0.068108402            3 
 3120000   0.77402406   -2.7592567    2574.9266  0.068774748   0.06809621            4 
 3121000   0.73864198   -2.8080948    2575.4949  0.068767888  0.068084031            3 
 3122000   0.75150373   -2.7754221     2579.323  0.068848042  0.068071892            4 
 3123000   0.76885538   -2.7756695    2567.3453  0.068506386  0.068059693            9 
 3124000   0.75869002    -2.772511    2574.6592  0.068679555  0.068047467            6 
 3125000   0.75049177   -2.7796926    2573.4347  0.068624926   0.06803524            4 
 3126000   0.74976701   -2.7918057    2582.0465  0.068832548  0.068023054            4 
 3127000   0.76727902   -2.7757346    2566.0971  0.068385489  0.068010826            2 
 3128000   0.72728646   -2.7863863    2571.7084  0.068513118  0.067998619            4 
 3129000   0.75058852   -2.7928336    2573.7614  0.068545899  0.067986469            7 
 3130000    0.7583671   -2.7926585    2572.0853  0.068479375  0.067974224            3 
 3131000   0.74547311   -2.8051789     2572.872  0.068478441  0.067962023            8 
 3132000   0.75337937   -2.8136738    2567.1915  0.068305435  0.067949703            6 
 3133000   0.74263203   -2.7843095    2582.3718  0.068687409  0.067937577            6 
 3134000   0.75473441   -2.7899365    2568.9617  0.068308915  0.067925249            2 
 3135000   0.75102939   -2.7753248     2575.871  0.068470786  0.067912933            4 
 3136000   0.77004892   -2.8131489    2569.3943  0.068276846  0.067900726            4 
 3137000   0.74860388   -2.7845442    2579.8302  0.068532308  0.067888349            2 
 3138000   0.76656705   -2.7853529    2573.2339  0.068335295  0.067876051            5 
 3139000   0.74181807   -2.7731837    2577.4774  0.068426182  0.067863856            3 
 3140000   0.75709015   -2.7844308    2574.2492  0.068318715  0.067851544            5 
 3141000   0.75446754   -2.8160797     2578.086  0.068398758   0.06783921            3 
 3142000   0.75377922   -2.7982261    2569.0904  0.068138405   0.06782681            4 
 3143000   0.74512794   -2.8032949    2578.9721  0.068378729  0.067814426            4 
 3144000   0.74158015   -2.7570969    2585.4069  0.068527537  0.067802256            3 
 3145000   0.74559069   -2.7896552    2579.5082  0.068349449  0.067789993            6 
 3146000   0.74998479   -2.7913571    2588.4923  0.068565699  0.067777659            4 
 3147000   0.75640346   -2.7760659    2583.3152   0.06840682  0.067765462            5 
 3148000    0.7461059   -2.7824174    2585.6132  0.068445924  0.067753252            5 
 3149000   0.72517554   -2.8025908    2574.1161  0.068119935  0.067741039            9 
 3150000   0.74460374   -2.7993001    2580.5846  0.068269435  0.067728817            5 
 3151000   0.74316933   -2.7987454    2584.0397  0.068339144  0.067716794            6 
 3152000   0.75298121   -2.8134668    2588.3008   0.06843012  0.067704576            4 
 3153000   0.74417565   -2.7955663     2573.212  0.068009621  0.067692276            4 
 3154000   0.75353206   -2.8064622    2583.7888  0.068267512  0.067680097            2 
 3155000   0.73824543   -2.8044142    2588.3333  0.068365909  0.067667981            3 
 3156000   0.75439096   -2.7998935     2582.346  0.068186153  0.067655802            6 
 3157000   0.73867047   -2.7868642    2585.7962  0.068255629  0.067643624            4 
 3158000   0.74789467   -2.8079232     2581.335  0.068116292   0.06763132            2 
 3159000   0.73675039   -2.8024682    2577.3491  0.067989583  0.067619079            6 
 3160000   0.75054387   -2.8134157    2579.8827  0.068034882   0.06760677            2 
 3161000   0.74719992   -2.8039326    2583.3565  0.068104937   0.06759447            3 
 3162000   0.74232416    -2.804304    2594.1058  0.068366694  0.067582344            2 
 3163000   0.73618613   -2.7934753    2582.6548  0.068043386  0.067570211            4 
 3164000   0.73987217   -2.8049666    2587.5898  0.068151859  0.067558159            3 
 3165000    0.7332803   -2.8009012    2588.5648  0.068155999  0.067546013            4 
 3166000   0.73963335   -2.8181709    2591.1157  0.068201612   0.06753397            3 
 3167000   0.73716821   -2.8145234    2588.3424  0.068107105  0.067521608            4 
 3168000   0.74451325    -2.808883    2587.2956  0.068058071  0.067509511            4 
 3169000   0.74515324   -2.8021226     2591.761  0.068154017  0.067497201            5 
 3170000   0.75081963   -2.7971999     2590.354   0.06809553  0.067485001            2 
 3171000   0.74971962   -2.7908465    2591.4739  0.068103488  0.067472851            5 
 3172000   0.73895032   -2.8116009    2593.4596  0.068134184  0.067460756            2 
 3173000   0.74737222   -2.7882774    2608.0999  0.068497214  0.067448564            5 
 3174000   0.75603096   -2.7809035    2593.5636  0.068093981  0.067436567            4 
 3175000   0.73528874   -2.8062951    2592.6177  0.068047709  0.067424496            3 
 3176000   0.74353017    -2.807488    2583.5531  0.067788443  0.067412301            4 
 3177000   0.71906585   -2.7975348     2597.995  0.068145918  0.067400082            3 
 3178000   0.73621876   -2.8053936    2584.6544  0.067774659   0.06738804            5 
 3179000   0.74661481   -2.8062115    2595.8256  0.068046177  0.067375747            4 
 3180000    0.7330936   -2.8139833     2594.293  0.067984617  0.067363603            5 
 3181000   0.73294137   -2.8099408    2591.1187  0.067880089  0.067351512            4 
 3182000   0.73849049    -2.823243    2596.6069  0.068002485  0.067339323            4 
 3183000   0.74677081   -2.7767575    2590.0903  0.067810511  0.067327049            6 
 3184000   0.74181181   -2.7885105    2597.6835  0.067987949  0.067315007            3 
 3185000   0.73879213   -2.8027502    2595.6782  0.067914134  0.067302874            3 
 3186000   0.73402328   -2.8061949    2599.9029  0.068003319  0.067290782            3 
 3187000   0.72604082   -2.8022972    2594.8651  0.067850253  0.067278721            2 
 3188000   0.75112248    -2.836944    2591.6133   0.06774397    0.0672665            5 
 3189000   0.74883824   -2.8082882    2597.2724  0.067870607  0.067254327            7 
 3190000   0.73355287   -2.8244856    2603.8925  0.068022269   0.06724236            6 
 3191000   0.73761362    -2.813218    2587.4841  0.067572446  0.067230305            6 
 3192000   0.73679064   -2.8025693    2602.3476  0.067939318  0.067218167            6 
 3193000   0.73650305   -2.8057138    2599.4715  0.067842977  0.067206013            4 
 3194000   0.73150047    -2.788406    2596.7193  0.067749928  0.067193866            7 
 3195000   0.75283463   -2.8362426    2594.8246  0.067679306  0.067181763            5 
 3196000   0.74385895   -2.8289842    2591.9387  0.067582883  0.067169547            4 
 3197000   0.74430042    -2.796572    2593.4328  0.067600689    0.0671573            3 
 3198000   0.73822388    -2.810808     2608.687  0.067977042  0.067145174            6 
 3199000   0.74458188   -2.8074821    2600.4012  0.067739949  0.067133001            3 
 3200000   0.74111199   -2.8148178    2596.1414   0.06760785  0.067120768            6 
 3201000   0.73103277   -2.8099424    2601.9108  0.067736926  0.067108605            4 
 3202000   0.72513867   -2.7957173    2597.8634  0.067610435  0.067096388            9 
 3203000   0.74822021    -2.814103    2598.2635  0.067599737  0.067084289            4 
 3204000   0.74822359   -2.8210995    2596.8038  0.067540672  0.067072035            5 
 3205000   0.74941745   -2.8129343    2595.7098  0.067491153  0.067059747            3 
 3206000   0.73572823   -2.7978978    2600.5837   0.06759679   0.06704759            4 
 3207000    0.7471426   -2.7949505    2594.0279   0.06740536  0.067035445            3 
 3208000   0.73262607   -2.8069516    2606.5367  0.067709286  0.067023213            8 
 3209000   0.75946445   -2.8123909    2590.5924  0.067274134   0.06701084            3 
 3210000   0.74000395      -2.8017    2601.3091   0.06753139   0.06699849            4 
 3211000   0.73023992   -2.8229279    2599.2583  0.067457133  0.066986138            8 
 3212000   0.72771134   -2.7923803    2606.1449  0.067614801  0.066973986            5 
 3213000   0.75393751   -2.8316065    2599.2124  0.067413953  0.066961698            7 
 3214000   0.73380263   -2.8152497    2606.3092  0.067576985  0.066949399            5 
 3215000    0.7533771   -2.8169797    2600.2424  0.067398714   0.06693721            3 
 3216000   0.72013735    -2.807348    2604.1335  0.067478585  0.066924938            5 
 3217000   0.72419887     -2.81124    2592.5878  0.067158528  0.066912573            2 
 3218000   0.74725774   -2.8134314    2600.6982  0.067347684  0.066900147            4 
 3219000   0.73713876   -2.8195018    2612.0767   0.06762133  0.066887834            2 
 3220000   0.74358737   -2.7943397    2603.9355  0.067389634  0.066875453            3 
 3221000   0.73972748   -2.7852229    2607.2807   0.06745526  0.066863163            3 
 3222000   0.71478546   -2.8216848     2598.682   0.06721193  0.066850785            4 
 3223000   0.74280758    -2.805625    2598.9876  0.067198975  0.066838528           10 
 3224000   0.73721846   -2.7872669    2611.5222  0.067502124  0.066826216            4 
 3225000   0.74321839   -2.8263025    2602.1409  0.067238783  0.066813978            4 
 3226000   0.74377903   -2.8254361    2607.0942  0.067345892  0.066801611            3 
 3227000   0.72790841   -2.8266604      2605.64   0.06728747  0.066789406            3 
 3228000    0.7371949   -2.8238584    2597.0741  0.067045489  0.066777107            6 
 3229000   0.73855561   -2.8080664    2604.6482  0.067220196   0.06676487            7 
 3230000   0.75426487   -2.8217353    2610.8268  0.067358792  0.066752652            3 
 3231000   0.71299589   -2.8033722    2609.9362  0.067314976  0.066740312            2 
 3232000   0.74497631   -2.8063379    2608.1998  0.067249376  0.066728051            8 
 3233000   0.74391776   -2.8052588    2609.3512  0.067258253  0.066715737            8 
 3234000   0.71876585   -2.8263902    2608.5796  0.067217573  0.066703511            4 
 3235000     0.742337   -2.8297709    2609.2461  0.067213965  0.066691144            3 
 3236000   0.74741757   -2.7970733     2610.975  0.067237715  0.066678925            5 
 3237000   0.71699039   -2.8223828    2607.3453  0.067123501  0.066666692            6 
 3238000   0.72031302   -2.8099337    2608.5503  0.067133783   0.06665432            4 
 3239000   0.71940896   -2.7895126    2617.8698  0.067352829  0.066642106            5 
 3240000   0.73147094   -2.8168668    2608.7138  0.067096549  0.066629963            6 
 3241000   0.71923688   -2.8110086    2612.9014  0.067183519  0.066617679            2 
 3242000   0.72491103   -2.8175855    2611.7263  0.067132592  0.066605581            8 
 3243000    0.7470702   -2.8115358    2614.4205   0.06718112  0.066593407            4 
 3244000   0.71993729   -2.8316769    2613.6757  0.067141278  0.066581202            2 
 3245000   0.75640506   -2.8364744    2606.5379  0.066937285  0.066568966            3 
 3246000   0.71433503   -2.8260407    2608.7712  0.066973999  0.066556673           11 
 3247000   0.73274556   -2.8414116    2610.7578  0.067004357  0.066544395            3 
 3248000   0.73291007      -2.8146    2617.4314  0.067154952  0.066532089            6 
 3249000    0.7478082   -2.8029676    2614.9245  0.067069982  0.066519796            3 
 3250000   0.72881813   -2.8172927     2613.414  0.067010615  0.066507602            4 
 3251000   0.71947247   -2.8200788    2608.1514  0.066855105   0.06649541            7 
 3252000    0.7403067   -2.8031581      2627.51  0.067330618  0.066483207            3 
 3253000   0.73081864   -2.8371515    2617.5844   0.06705565  0.066470935            3 
 3254000   0.75802621   -2.8384411    2610.3861    0.0668507  0.066458665            7 
 3255000   0.74581257   -2.8095983    2621.4488  0.067113384  0.066446509            3 
 3256000   0.73063527   -2.7957278    2630.0625  0.067313231  0.066434477            6 
 3257000   0.73732618    -2.837015    2611.3595  0.066814029  0.066422297            7 
 3258000   0.72821045   -2.8223378     2619.146  0.066992684  0.066410133            5 
 3259000   0.73809755   -2.8055466    2617.4538  0.066928859   0.06639802            6 
 3260000   0.73000703   -2.8479952    2619.8846  0.066970464   0.06638578            6 
 3261000   0.72554963   -2.8246179    2620.6542  0.066969596  0.066373516            7 
 3262000   0.74768377   -2.8329845    2618.1211  0.066884352  0.066361327            5 
 3263000    0.7296569   -2.8269874    2620.8556   0.06693369  0.066349039           11 
 3264000   0.73075818   -2.8228354    2618.2112   0.06684567  0.066336774            5 
 3265000   0.73415842   -2.8030164     2613.074   0.06669408  0.066324582            4 
 3266000   0.72065362   -2.8465781     2614.441  0.066708536  0.066312295            6 
 3267000   0.72188105   -2.8090402    2615.3931  0.066712404  0.066300089            5 
 3268000   0.73251511   -2.8396481    2611.4423  0.066591246  0.066287858            4 
 3269000   0.71477463   -2.8062697    2622.5622  0.066854343  0.066275616           13 
 3270000   0.73350225   -2.8210093    2624.6921  0.066888179  0.066263501            2 
 3271000   0.72792969   -2.8161963    2624.0435  0.066851206  0.066251218            7 
 3272000   0.74082138   -2.8114065    2627.4482  0.066917485  0.066239009            4 
 3273000   0.72387226   -2.8104082    2629.9025  0.066959531  0.066226846            3 
 3274000   0.73340803   -2.8097621    2623.5454  0.066777271  0.066214687            6 
 3275000   0.72636366   -2.8280145    2619.1868  0.066645976   0.06620234            2 
 3276000   0.71376532   -2.8330693    2621.9681  0.066696379  0.066189987            6 
 3277000   0.71154818   -2.8171909    2629.3228  0.066863055  0.066177705            4 
 3278000   0.73450536   -2.8348177    2617.8899  0.066552011  0.066165367            6 
 3279000   0.71261389   -2.8355282    2617.4895  0.066521538  0.066152989            6 
 3280000   0.72724437   -2.8308765    2619.7888  0.066559675  0.066140681            3 
 3281000   0.72891738   -2.8156037    2621.2138  0.066575583  0.066128457            2 
 3282000   0.72603179   -2.8101799    2626.0065  0.066676987   0.06611618            5 
 3283000   0.71208246   -2.8198222    2629.4157  0.066743214  0.066104027            3 
 3284000   0.70928035   -2.8119161    2625.7834   0.06663072  0.066091768            3 
 3285000   0.72635079    -2.814897     2618.053  0.066414333  0.066079446            7 
 3286000   0.71173547   -2.8243857    2618.7296   0.06641128  0.066067175            4 
 3287000    0.7310471   -2.8234073    2623.1001  0.066501878  0.066054884            7 
 3288000   0.72939221     -2.80555    2622.3285  0.066462098  0.066042534            5 
 3289000    0.7151934   -2.8427889    2620.6735  0.066399958  0.066030137            3 
 3290000   0.73225636   -2.8315292    2621.1857  0.066392748  0.066017867            3 
 3291000   0.72473934     -2.81873    2627.1511  0.066523628  0.066005571            3 
 3292000   0.72387156   -2.8169939    2625.6723  0.066465986  0.065993292            5 
 3293000   0.72673157   -2.8278091    2629.2847  0.066537217  0.065981075            5 
 3294000   0.73511405   -2.8293531     2629.934  0.066533444  0.065968807            2 
 3295000   0.73446207   -2.8344154    2625.2839  0.066395648  0.065956415            2 
 3296000   0.71487927   -2.8315837    2632.1433   0.06654893  0.065944117            4 
 3297000   0.72778824   -2.8484358    2627.8841  0.066421092  0.065931834            5 
 3298000   0.72670791   -2.8303704     2628.061  0.066405422  0.065919573            3 
 3299000   0.71679216   -2.8299692    2633.4758  0.066522072   0.06590734            4 
 3300000   0.74704211   -2.8434507    2619.9689  0.066160832  0.065895058            9 
 3301000   0.71081101   -2.8157005    2635.8717  0.066542252  0.065882707            3 
 3302000    0.7319659   -2.8378023    2626.5282  0.066286295  0.065870431            4 
 3303000   0.72262375   -2.8259177     2630.606  0.066369108  0.065858118            3 
 3304000   0.72149359   -2.8250448    2635.2165  0.066465308  0.065845782            4 
 3305000   0.71996458   -2.8232957    2626.2929  0.066220195  0.065833555            2 
 3306000   0.70918128   -2.8346973    2631.7533  0.066337802  0.065821305            7 
 3307000   0.72520476   -2.8203274    2634.4668  0.066386119  0.065809121            6 
 3308000   0.70977058   -2.8348006    2628.2117  0.066208476  0.065796922            5 
 3309000   0.73736207    -2.831944    2630.1547    0.0662374  0.065784696            5 
 3310000   0.72657049   -2.8372807    2632.7596  0.066282972   0.06577244            5 
 3311000   0.71549425   -2.8178213    2640.9852  0.066469978  0.065760176            3 
 3312000   0.72940928   -2.8211403    2637.2564  0.066356089  0.065747927            6 
 3313000   0.72617803    -2.816181    2638.4297  0.066365573  0.065735679            2 
 3314000   0.73633194   -2.8320884    2632.6918  0.066201262   0.06572335           15 
 3315000   0.72701847   -2.8435414     2626.893  0.066035521  0.065711032            8 
 3316000   0.73522368   -2.8234761    2635.9782  0.066243923  0.065698555            7 
 3317000    0.7076342   -2.8315898    2637.3111  0.066257439  0.065686221            3 
 3318000   0.70799542   -2.8224218    2628.8268  0.066024382  0.065673874            6 
 3319000   0.74188092   -2.8359819    2623.2255  0.065863852  0.065661494            5 
 3320000   0.71812134   -2.8244787    2636.5585  0.066178676  0.065649013            6 
 3321000   0.72095682   -2.8297712    2631.6613  0.066035866  0.065636667            4 
 3322000   0.70877457    -2.803234    2642.3446  0.066283981  0.065624468            3 
 3323000   0.72715139   -2.8553044    2640.2973  0.066212691   0.06561227            4 
 3324000   0.72118883   -2.8352269    2632.3922   0.06599459  0.065599887            4 
 3325000   0.71363991   -2.8183481    2633.4885  0.066002217   0.06558758            7 
 3326000   0.72662828   -2.8519985    2626.6463  0.065810943  0.065575142            4 
 3327000   0.71374109   -2.8445404    2631.2537  0.065906565  0.065562696            6 
 3328000   0.71849703   -2.8387131    2641.9613  0.066154881  0.065550225            4 
 3329000   0.70350731   -2.8513976    2627.4245  0.065771115  0.065537778            6 
 3330000   0.72206135   -2.8327686    2642.5575  0.066130068  0.065525291            4 
 3331000   0.71577147   -2.8498457    2626.4352  0.065706875  0.065512787            5 
 3332000   0.71240756   -2.8568782    2634.8413  0.065897391  0.065500294            7 
 3333000   0.72677715   -2.8323395    2639.3018  0.065989143   0.06548785            5 
 3334000   0.72693884   -2.8240615    2635.5683  0.065876032   0.06547538            6 
 3335000   0.70837194   -2.8298478    2639.8597  0.065963511  0.065463017            5 
 3336000    0.7135552   -2.8420152    2631.6213  0.065737942  0.065450512            4 
 3337000   0.72848737    -2.840152    2635.4718    0.0658144   0.06543792            5 
 3338000   0.71243462   -2.8457581    2635.1365  0.065786313  0.065425354            5 
 3339000   0.72054205   -2.8287672    2630.6694  0.065655121  0.065412775            5 
 3340000   0.71406866   -2.8494843    2628.4806  0.065580853  0.065400268            7 
 3341000   0.70996295   -2.8537949    2634.9177  0.065721783  0.065387696            9 
 3342000   0.72787204   -2.8372705    2622.7397  0.065398456  0.065375222            3 
 3343000   0.72189347   -2.8381159    2637.9364  0.065757713   0.06536258            3 
 3344000    0.7345341   -2.8512731    2632.8296  0.065610785  0.065349957            6 
 3345000   0.71945832   -2.8097822     2628.661   0.06548732  0.065337478            3 
 3346000   0.71091027   -2.8298562    2642.9411  0.065823399  0.065324955            8 
 3347000   0.70756362   -2.8489401    2638.9286  0.065703828  0.065312387            7 
 3348000   0.71905267   -2.8265388     2638.407  0.065671222  0.065299861            8 
 3349000   0.73037663   -2.8488363    2635.1466  0.065570483  0.065287223            8 
 3350000   0.71468851   -2.8465589     2629.768  0.065417115  0.065274626            6 
 3351000   0.71051883   -2.8498568    2643.8249  0.065747163  0.065262062            8 
 3352000    0.7073496   -2.8488321    2637.0128  0.065558194  0.065249393            4 
 3353000   0.72488064   -2.8479948    2626.6186  0.065280312  0.065236806            4 
 3354000   0.72045937   -2.8512251    2636.5894  0.065508582   0.06522411            6 
 3355000   0.70813133   -2.8481603    2638.8213  0.065544493  0.065211466            9 
 3356000   0.70633861   -2.8504307    2640.5557  0.065568031  0.065198903            6 
 3357000   0.72022224   -2.8485338    2641.3456  0.065568107  0.065186302            5 
 3358000   0.69336274    -2.852773    2636.1938  0.065420733  0.065173694            4 
 3359000   0.71341871   -2.8503475    2635.1843  0.065376211  0.065161091            4 
 3360000    0.7099445   -2.8446485    2640.8831  0.065498093  0.065148493            6 
 3361000   0.72821778    -2.848435      2629.45   0.06519513  0.065135875            3 
 3362000   0.70634817   -2.8492646    2646.0688  0.065587667  0.065123162            5 
 3363000   0.72315215   -2.8320883     2643.722  0.065510011  0.065110633            4 
 3364000   0.74215438   -2.8538752     2641.734  0.065441291  0.065098101           10 
 3365000   0.70688662   -2.8297046    2638.8253  0.065349808  0.065085542            8 
 3366000   0.70425164   -2.8378939     2644.279  0.065465415  0.065072953            3 
 3367000    0.7240818   -2.8529642    2637.7625  0.065284686  0.065060263            3 
 3368000   0.70429394   -2.8423993    2637.3378  0.065254794  0.065047502            3 
 3369000   0.72863963   -2.8556086     2635.532  0.065190759  0.065034793            4 
 3370000   0.71740342   -2.8071448    2634.6369  0.065149281  0.065022144            4 
 3371000   0.71101035   -2.8332501    2639.2566  0.065244156  0.065009462            4 
 3372000    0.6963941   -2.8410892    2638.0251  0.065194374  0.064996856            4 
 3373000   0.71151121   -2.8607151    2642.4697  0.065284852  0.064984309           13 
 3374000   0.70735582   -2.8552594    2636.6082  0.065120732   0.06497164            8 
 3375000   0.70132141    -2.855747    2642.7588  0.065253303  0.064958951            7 
 3376000   0.71390075    -2.849556    2642.1893  0.065219918  0.064946344            4 
 3377000   0.70897233    -2.854677    2644.8597    0.0652665  0.064933727            4 
 3378000   0.72119904   -2.8674677    2640.7146  0.065144924  0.064921051            4 
 3379000   0.69481807   -2.8195663    2642.3644  0.065166331  0.064908441            7 
 3380000   0.71767754   -2.8456724     2647.819  0.065281533  0.064895824            8 
 3381000   0.71060713   -2.8399949    2647.7815  0.065261301  0.064883171            6 
 3382000   0.72419967    -2.814248    2650.9076  0.065319033  0.064870603            5 
 3383000   0.71311197   -2.8393231    2656.2409    0.0654311  0.064857877            4 
 3384000   0.72302419   -2.8612429    2639.7688  0.065006127  0.064845197            6 
 3385000   0.70859433   -2.8524802    2633.0413  0.064821302  0.064832443            5 
 3386000   0.72705602   -2.8342678    2647.6296  0.065161192  0.064819692            8 
 3387000   0.70233192   -2.8425055    2638.2537  0.064911272  0.064806952            4 
 3388000   0.71828843   -2.8391725    2639.3505  0.064919089  0.064794226            2 
 3389000   0.71632938   -2.8601233    2643.9444  0.065012896  0.064781523            4 
 3390000   0.71174486   -2.8559391     2643.906  0.064992774  0.064768802            4 
 3391000   0.69489397   -2.8510186    2647.0446  0.065050736  0.064756066            4 
 3392000   0.72757229   -2.8515037    2645.4782  0.064993076  0.064743326            4 
 3393000   0.69907982   -2.8578533    2647.2997  0.065018658  0.064730572            3 
 3394000   0.70968987    -2.848627    2649.4355  0.065051942   0.06471789            6 
 3395000   0.71601487   -2.8497718    2643.3631  0.064883728  0.064705252            7 
 3396000   0.71709853   -2.8467884    2650.2076  0.065032578  0.064692513            6 
 3397000   0.70826108   -2.8495634    2648.0197   0.06495976  0.064680044            4 
 3398000   0.70117034   -2.8368779    2653.5164  0.065075446  0.064667366            7 
 3399000   0.71725159    -2.840862     2645.442  0.064858341  0.064654792            9 
 3400000    0.7078292   -2.8467444    2661.0334  0.065221407  0.064642271            2 
 3401000   0.69680681    -2.846196    2655.2639  0.065060861  0.064629767            7 
 3402000     0.692619   -2.8496475    2646.0661  0.064816433  0.064617222            3 
 3403000   0.70676679   -2.8475854    2655.0232   0.06501673  0.064604746            7 
 3404000   0.72402609   -2.8553492     2650.116  0.064877497  0.064592148            4 
 3405000   0.71003105   -2.8500188    2662.7208   0.06516693   0.06457972            4 
 3406000   0.70112658   -2.8472734    2655.9167  0.064981324  0.064567249            2 
 3407000   0.71071679   -2.8618301    2652.6063  0.064881282  0.064554743            4 
 3408000   0.71186378   -2.8381984    2646.1869  0.064705273  0.064542054            8 
 3409000   0.69870615   -2.8296903    2652.5139  0.064840957  0.064529481            5 
 3410000   0.70135082   -2.8514842    2659.5186  0.064993122  0.064516868           15 
 3411000   0.70260062   -2.8312309    2650.6804  0.064758146  0.064504197            6 
 3412000   0.70777996   -2.8320665    2662.2843  0.065022574  0.064491675            4 
 3413000   0.71468928    -2.834259    2656.8726   0.06487139  0.064479095            7 
 3414000    0.7114563   -2.8482936    2652.7039  0.064750631  0.064466646            4 
 3415000    0.6948379   -2.8440765    2653.1208  0.064741846   0.06445398           11 
 3416000   0.69133047   -2.8702762    2659.8611  0.064887321  0.064441355            9 
 3417000   0.70257076   -2.8516321    2656.4677  0.064785576  0.064428704            7 
 3418000    0.7172412   -2.8721491    2660.3109  0.064860321  0.064416014            8 
 3419000   0.70394333    -2.833994    2650.9815  0.064613958  0.064403327            8 
 3420000   0.70309119   -2.8454911    2647.6234  0.064513242  0.064390739            4 
 3421000   0.68912815   -2.8464326    2654.3605  0.064658495  0.064378118            6 
 3422000   0.68459082   -2.8393377    2652.0638   0.06458367  0.064365537            6 
 3423000   0.69705493   -2.8699438    2655.4622  0.064647537  0.064352856            4 
 3424000   0.70819172   -2.8624293     2663.015  0.064812477  0.064340249            4 
 3425000   0.70384788   -2.8619278    2660.3344  0.064728331  0.064327688            3 
 3426000   0.68961496   -2.8704902    2651.2148  0.064487614  0.064314966            3 
 3427000   0.69296685   -2.8841878    2646.7091  0.064359233  0.064302343            9 
 3428000   0.71115149   -2.8676405    2660.0106  0.064663812  0.064289664            6 
 3429000   0.70706773   -2.8609494    2669.5616  0.064877068  0.064277055            9 
 3430000   0.71804234   -2.8499258    2660.2078  0.064630898  0.064264467            6 
 3431000   0.69775042   -2.8552339    2657.7724   0.06455291  0.064251768            6 
 3432000   0.71112892    -2.836914    2655.8925  0.064488454    0.0642392            4 
 3433000   0.70606284   -2.8626896    2657.8497  0.064517179  0.064226598            4 
 3434000   0.70478304    -2.863845    2666.6369   0.06471163  0.064213873            3 
 3435000    0.7059756   -2.8657234    2653.9403  0.064384773  0.064201278            8 
 3436000   0.70493581   -2.8835595    2656.0291  0.064416693  0.064188592            8 
 3437000   0.69841953   -2.8846453    2646.0292  0.064155493  0.064175849            9 
 3438000   0.71304616   -2.8424999    2665.8904  0.064618247  0.064163151            4 
 3439000   0.71183494   -2.8585271    2653.9956  0.064311224  0.064150594            6 
 3440000   0.69571843   -2.8627825    2656.6705  0.064357327  0.064137949            8 
 3441000   0.71794418   -2.8798569    2658.5394  0.064383885  0.064125321            9 
 3442000   0.70035846   -2.8560784    2666.8897  0.064567347  0.064112685            6 
 3443000   0.69900881   -2.8647893    2667.5199  0.064563846  0.064100125            6 
 3444000   0.69888304   -2.8488505    2657.7216  0.064308013  0.064087582            3 
 3445000   0.69825882   -2.8564992    2658.8992  0.064317833  0.064074993            2 
 3446000   0.69878457   -2.8870013    2659.4682  0.064312929  0.064062429            8 
 3447000   0.69273498   -2.8585875     2661.514  0.064343729  0.064049713            8 
 3448000   0.68467867   -2.8699336    2660.7826  0.064307391   0.06403716            6 
 3449000   0.70327888    -2.885545    2662.8138  0.064337822  0.064024654            2 
 3450000   0.69086594     -2.85033    2667.7886  0.064439338  0.064012035            3 
 3451000   0.69607577   -2.8442799    2674.2663  0.064577086  0.063999452            5 
 3452000   0.68461561   -2.8736619    2664.7572  0.064328824  0.063986869            6 
 3453000    0.6912973   -2.8514748    2664.6508  0.064307627  0.063974309            9 
 3454000   0.71911623   -2.8469068    2671.3279  0.064450103  0.063961719            3 
 3455000    0.6902155    -2.881219    2666.9522   0.06432591  0.063949159            6 
 3456000   0.69561035   -2.8572445    2659.7207  0.064132927  0.063936673            6 
 3457000   0.70467671   -2.8629003    2670.0302  0.064362892  0.063924107            5 
 3458000    0.6993955   -2.8767684    2666.0307  0.064247896  0.063911605            6 
 3459000   0.69316087   -2.8718376    2681.6227  0.064604959  0.063899145            4 
 3460000   0.69741233    -2.879952    2671.5684  0.064344134  0.063886624            7 
 3461000   0.71215722   -2.8800383    2663.4293   0.06412957  0.063874038            6 
 3462000   0.70281997    -2.854673    2674.0101  0.064365735  0.063861651            3 
 3463000   0.69697153   -2.8831796    2668.2649  0.064208896  0.063849179            4 
 3464000   0.69515943   -2.8627656    2667.9576  0.064182969  0.063836704            4 
 3465000   0.70641635   -2.8707795    2665.6804  0.064109677  0.063824242            7 
 3466000   0.70475052   -2.8591562    2671.6285  0.064234191  0.063811767            4 
 3467000   0.67822851   -2.8897877    2674.9138  0.064294629  0.063799254            7 
 3468000   0.69185293   -2.8644758    2665.9572   0.06406087  0.063786762            5 
 3469000   0.69762377   -2.8715386    2677.5327  0.064320475  0.063774281            5 
 3470000   0.68610313   -2.8620331    2666.5947  0.064039257  0.063761747            6 
 3471000   0.70624489   -2.8772393    2666.6556   0.06402227  0.063749211            6 
 3472000   0.69602953   -2.8594925    2669.3309  0.064068042  0.063736667            7 
 3473000   0.68960177   -2.8665148    2675.5402  0.064198584  0.063724038            7 
 3474000   0.68938981     -2.84458    2671.8168  0.064090788   0.06371151           10 
 3475000   0.69298593   -2.8825274    2668.0105  0.063981068  0.063698964            6 
 3476000   0.70631438    -2.861272     2678.605  0.064216651  0.063686463            6 
 3477000   0.68773375   -2.8428871    2681.9576  0.064278535  0.063673985           13 
 3478000   0.68702216   -2.8654238    2675.6715  0.064109437  0.063661554            5 
 3479000   0.69189339   -2.8899214    2679.0501  0.064171939  0.063649015            2 
 3480000   0.69175898   -2.8686849    2675.8189  0.064076123  0.063636546            3 
 3481000   0.67938075   -2.8221778    2680.4139  0.064167718  0.063624118            8 
 3482000   0.69478493   -2.8740708    2666.4598  0.063815331  0.063611705            2 
 3483000   0.69543181   -2.8795512    2680.1977    0.0641257  0.063599378            2 
 3484000   0.68820422   -2.8794461    2679.7906  0.064097555  0.063587041            3 
 3485000   0.69051462   -2.8465504    2678.8901  0.064057631  0.063574656            5 
 3486000   0.69287074   -2.8790056    2677.3568    0.0640026  0.063562167            4 
 3487000   0.69496691   -2.9038377    2675.5409  0.063940849  0.063549617           11 
 3488000    0.7014566   -2.8822256    2675.8823  0.063930675  0.063537148            4 
 3489000   0.67934372   -2.8677748    2679.5898  0.064000904  0.063524721            5 
 3490000   0.70122947   -2.8460419    2678.1123  0.063947285  0.063512369           12 
 3491000     0.684804   -2.8839448    2678.2429  0.063932084   0.06349987            8 
 3492000   0.68776885   -2.8877031    2671.5327  0.063753645  0.063487376            7 
 3493000   0.70257265   -2.8914189    2673.9604   0.06379331   0.06347499            6 
 3494000   0.69398573   -2.8446426    2689.2722  0.064140244  0.063462733            4 
 3495000    0.7061514   -2.8709526    2677.3728  0.063838169  0.063450443            3 
 3496000    0.7048978   -2.8720788    2672.6244  0.063706721  0.063438061            4 
 3497000   0.69487119    -2.888796    2674.1749  0.063725452  0.063425665            6 
 3498000   0.69955531   -2.8695333    2677.0269  0.063775179  0.063413362            6 
 3499000   0.68570377   -2.8651699    2674.8572  0.063705277  0.063401011            6 
 3500000   0.69523776   -2.8774159    2686.6499  0.063967855  0.063388685            3 
 3501000   0.68770065   -2.8858077    2688.6089  0.063996212  0.063376316           12 
 3502000   0.69904277    -2.883852    2685.0653  0.063893617   0.06336405            3 
 3503000   0.68727424    -2.870468     2685.346  0.063882054   0.06335174           10 
 3504000   0.70210671   -2.8839295    2676.2275  0.063646963  0.063339401            8 
 3505000    0.6746827   -2.8778408    2684.3041   0.06382083  0.063327079            5 
 3506000    0.7051612   -2.8934095    2685.5659  0.063832618  0.063314655            3 
 3507000   0.69984214   -2.8809196    2690.2509  0.063925742  0.063302435            5 
 3508000    0.6791775   -2.8707632    2681.2638  0.063694028  0.063290185            7 
 3509000   0.69079143   -2.8645692    2675.2333   0.06353266  0.063277857            6 
 3510000   0.69031719   -2.8905173     2684.043  0.063723718  0.063265536            9 
 3511000   0.68611322   -2.8868412    2688.0967  0.063801783  0.063253127            3 
 3512000    0.6845942   -2.8987915    2684.7663  0.063704591  0.063240834            6 
 3513000   0.68116211    -2.888555     2674.677  0.063447124  0.063228515            3 
 3514000   0.67680721   -2.8851328    2680.3637  0.063563928  0.063216176            4 
 3515000   0.68203622   -2.8628327    2681.4265   0.06357104  0.063203877            3 
 3516000   0.69796987   -2.8843997    2688.1589  0.063712525  0.063191503            4 
 3517000   0.68825244   -2.8705869     2681.769  0.063543006  0.063179246            9 
 3518000   0.68806813   -2.8917945    2684.0116  0.063578066  0.063166882            3 
 3519000   0.69346418   -2.8838987    2674.4349  0.063333213   0.06315461            5 
 3520000   0.69648792   -2.8683852    2684.4039  0.063551228  0.063142223            2 
 3521000   0.69672339   -2.8881195    2694.2351  0.063765861  0.063129862            4 
 3522000   0.69112885   -2.8833466    2686.0496   0.06355408  0.063117485            5 
 3523000     0.694519   -2.8789583    2682.3665  0.063448919  0.063105124            6 
 3524000    0.6828373   -2.8899421    2691.3459  0.063643253  0.063092846            3 
 3525000   0.69388033   -2.8652178    2689.9899  0.063593141  0.063080661            5 
 3526000   0.68366976   -2.8792684    2691.6826  0.063615111  0.063068448            8 
 3527000   0.69906463   -2.8775924    2690.3386   0.06356532  0.063056136            8 
 3528000   0.69344513   -2.8850583    2689.7615  0.063533671  0.063043842            9 
 3529000   0.68611114   -2.8802302    2691.8687  0.063565426  0.063031598            3 
 3530000   0.67625191   -2.8696548    2696.1677  0.063648908  0.063019415            3 
 3531000   0.68279652   -2.8859113    2682.7767  0.063314848   0.06300724            7 
 3532000   0.69822582   -2.8945932    2695.9574  0.063607904  0.062994984            4 
 3533000   0.67571878   -2.8881787     2680.253  0.063219479  0.062982831            6 
 3534000   0.67926681   -2.9053678    2694.7778  0.063544092  0.062970572            5 
 3535000   0.67885415   -2.8989705    2700.0209  0.063649715  0.062958358            4 
 3536000   0.68918182   -2.8769304    2695.8479  0.063533368  0.062946168           10 
 3537000   0.67537727    -2.891558    2689.7964  0.063372829  0.062933886            5 
 3538000   0.69718364   -2.8620607    2693.6872   0.06344656  0.062921633            5 
 3539000   0.66535544   -2.8916474    2699.2607  0.063559874  0.062909479            4 
 3540000   0.69126753   -2.8798477    2686.6498  0.063245051  0.062897349            4 
 3541000   0.68681786   -2.8991351    2696.1901   0.06345171  0.062885092            2 
 3542000   0.67737103   -2.8993077     2693.896  0.063379823  0.062872785            2 
 3543000   0.66774199   -2.8822164    2704.3332  0.063607424  0.062860668            4 
 3544000   0.70430851   -2.8804778    2706.2157   0.06363374  0.062848649            4 
 3545000   0.68828947   -2.8922738    2688.7598  0.063205449  0.062836578            4 
 3546000   0.67780271   -2.8673368    2697.3654  0.063389861  0.062824419            4 
 3547000   0.69039681   -2.8814236    2708.7522  0.063639511   0.06281235            5 
 3548000   0.68660908   -2.8909936    2693.6067  0.063265846  0.062800203           13 
 3549000   0.69292676   -2.8595434    2692.3595  0.063218736  0.062788075            2 
 3550000   0.69102705    -2.882155    2695.4494   0.06327346  0.062775913            5 
 3551000   0.68615738   -2.8741061    2696.1999  0.063273253  0.062763738            6 
 3552000   0.68298428   -2.8991671    2697.4651  0.063285123  0.062751416            9 
 3553000   0.68934922   -2.8719082     2701.769  0.063368257  0.062739272            4 
 3554000   0.69856237   -2.8785833    2699.5305   0.06329794  0.062727134            4 
 3555000   0.70734705   -2.8810344    2702.0545  0.063339298  0.062714958            5 
 3556000   0.67135026    -2.867367    2702.7801  0.063338492  0.062702846            9 
 3557000   0.67417435   -2.8906065    2710.3886  0.063498936  0.062690755            3 
 3558000   0.69002358   -2.8696225    2702.8377  0.063304236  0.062678677            4 
 3559000     0.682775   -2.8889141     2711.212  0.063482531  0.062666594            9 
 3560000   0.68670581   -2.8933427    2702.3832  0.063258034  0.062654671           11 
 3561000   0.67781687   -2.8840008    2699.3412  0.063169082  0.062642681            3 
 3562000   0.68676127   -2.8831316    2696.0153  0.063073539  0.062630599            6 
 3563000   0.67766039   -2.8955817    2698.8235  0.063121516  0.062618511            4 
 3564000   0.67738467   -2.8690146    2712.9377  0.063433821  0.062606426            5 
 3565000   0.69898476   -2.8708253    2700.9132  0.063134952  0.062594405            2 
 3566000   0.68271244   -2.8919958    2708.4228  0.063292737  0.062582502            7 
 3567000   0.68512061   -2.8874447    2700.5083  0.063090091  0.062570368           12 
 3568000   0.67154454    -2.872824    2703.9499   0.06315279  0.062558304            4 
 3569000   0.67894217   -2.8880289    2707.1925  0.063210808  0.062546225            4 
 3570000   0.68782543   -2.8803733    2710.1359  0.063261808  0.062534175            4 
 3571000   0.68527289   -2.8945465    2697.1579  0.062941237   0.06252207            2 
 3572000   0.67751529   -2.8920892    2699.4314  0.062976656  0.062509991            4 
 3573000   0.67682622   -2.8956523    2699.3664  0.062957516  0.062497867            8 
 3574000   0.66307569   -2.8901384    2706.0288  0.063095243  0.062485808            9 
 3575000   0.67537985   -2.8747143    2708.9808  0.063146405  0.062473814            5 
 3576000   0.68850676   -2.8920272    2703.2226  0.062994562  0.062461857            3 
 3577000   0.67798625   -2.8863818    2713.3971  0.063213985  0.062449762            5 
 3578000   0.69249497   -2.8904706    2709.9083  0.063115063  0.062437739            8 
 3579000   0.67727781   -2.8854595    2703.9534  0.062958774  0.062425793            5 
 3580000   0.66829948   -2.8962026    2710.3649  0.063090431    0.0624137            4 
 3581000   0.67589551   -2.8578623    2713.8385  0.063153647   0.06240166            5 
 3582000   0.69193291   -2.8806115    2704.3698  0.062915731  0.062389614           11 
 3583000   0.68156326   -2.8856928    2703.0143  0.062866645  0.062377538            4 
 3584000    0.6765265   -2.8607663    2714.5012  0.063116193  0.062365574            4 
 3585000    0.6849678   -2.9217652    2706.7101  0.062917482  0.062353627            4 
 3586000   0.67299394   -2.8892587    2710.1097  0.062978938  0.062341511            5 
 3587000   0.68006778   -2.8743272     2720.807  0.063209901  0.062329498            5 
 3588000   0.67923015   -2.9009596    2712.6905  0.063003774  0.062317424            4 
 3589000    0.6913956   -2.9021123    2707.4608   0.06286479  0.062305397            7 
 3590000   0.67818963   -2.8958818    2707.3029  0.062843613  0.062293254            4 
 3591000   0.67774249   -2.8915574    2714.5362   0.06299397  0.062281154            6 
 3592000   0.67787139   -2.8820564    2708.2112  0.062829695   0.06226911            3 
 3593000   0.67363863   -2.8782184    2707.6542  0.062799289     0.062257            9 
 3594000   0.67812201   -2.8904799    2713.1299   0.06290878  0.062244936            9 
 3595000   0.68155998   -2.8968801    2705.6301  0.062717434  0.062232855            4 
 3596000   0.66619191   -2.8926294    2712.6169  0.062861903  0.062220876            4 
 3597000   0.68739273   -2.8811682    2713.3825  0.062862166   0.06220898            2 
 3598000   0.69945234   -2.8937208    2709.1938  0.062747679  0.062196994            4 
 3599000   0.67287601   -2.9061929    2709.5339   0.06273812   0.06218492            9 
 3600000   0.67248083   -2.8852918    2714.6559  0.062839257  0.062172996            3 
 3601000   0.67414477   -2.8944669    2712.3388  0.062768185  0.062160989            2 
 3602000   0.66260951   -2.8881994    2716.1764  0.062839544  0.062149039            6 
 3603000   0.67997567    -2.898421    2714.4759  0.062782771  0.062136996            7 
 3604000   0.69459798   -2.8928989    2717.4488  0.062834091  0.062124942            7 
 3605000    0.6734478   -2.8754231    2715.5166  0.062771998  0.062112967            5 
 3606000   0.67544424     -2.90044    2716.4347  0.062775807  0.062100966            6 
 3607000   0.67731145   -2.8931967    2712.2091  0.062660778  0.062088897            8 
 3608000   0.67314998   -2.9173378    2720.7459  0.062840583  0.062076816            8 
 3609000   0.67833369   -2.9132584    2710.4725  0.062585955  0.062064754            3 
 3610000   0.67716281   -2.8994625    2716.9783  0.062718797  0.062052655            4 
 3611000   0.68439337   -2.8876915    2718.4034  0.062734317  0.062040542            5 
 3612000   0.68900491   -2.8894099    2710.3876  0.062532013  0.062028416           14 
 3613000   0.68077083   -2.9062996    2717.9498  0.062689127  0.062016425            3 
 3614000   0.67391143   -2.9054031    2711.6127  0.062525657  0.062004368            4 
 3615000   0.69051983   -2.9034872    2719.5428  0.062691166  0.061992361            9 
 3616000   0.67933572   -2.8794661    2723.2028  0.062758176  0.061980424            3 
 3617000   0.68338109   -2.8984921    2715.1447  0.062555172  0.061968401            4 
 3618000   0.67452008   -2.8994334    2718.2603  0.062609643  0.061956385            7 
 3619000   0.67308602   -2.9119972    2717.6392  0.062578041  0.061944244            4 
 3620000   0.68709098   -2.9251524    2706.6657  0.062308143  0.061932107            5 
 3621000   0.67498578   -2.8905647    2718.3299  0.062559375  0.061920028            4 
 3622000   0.66080807   -2.9057109    2716.9418  0.062510164  0.061907871           12 
 3623000   0.66919275   -2.9048684    2716.3645  0.062479633  0.061895759            6 
 3624000   0.66378466    -2.902048    2720.1738  0.062549986  0.061883659            3 
 3625000     0.662629   -2.9250164    2709.5669  0.062288893  0.061871594            4 
 3626000   0.66318599   -2.9045263    2727.0638  0.062673833  0.061859534            5 
 3627000   0.65492977   -2.9009168    2719.6381  0.062485941  0.061847382            4 
 3628000   0.67664914   -2.9280663    2718.3727  0.062439651  0.061835267            8 
 3629000   0.67225903   -2.9102792    2712.1924  0.062280527  0.061823064            4 
 3630000   0.66848059   -2.9106125    2716.6356  0.062365373  0.061810854            5 
 3631000     0.684565   -2.9073761    2718.7215  0.062396069   0.06179873            3 
 3632000   0.66575604   -2.8965626     2723.249   0.06248277  0.061786706            4 
 3633000   0.68432569   -2.8999529    2713.7547  0.062247791  0.061774574            6 
 3634000   0.67766503   -2.9105191    2717.8252  0.062324005  0.061762404            5 
 3635000   0.67430245   -2.8926173    2719.0946   0.06233596  0.061750255            3 
 3636000   0.66684141   -2.9228432    2716.1622  0.062251608  0.061738131           10 
 3637000   0.66520287    -2.909311    2720.4187  0.062332021  0.061726002           10 
 3638000   0.67314358   -2.8994664    2718.2079  0.062264245  0.061713783            9 
 3639000   0.66463501   -2.9140234    2720.8759  0.062308234  0.061701646            8 
 3640000   0.68306325   -2.8809552    2718.5908  0.062238801  0.061689645            3 
 3641000   0.67050548   -2.9027605    2725.4996  0.062379832   0.06167757            6 
 3642000   0.67916003   -2.8962176    2722.5433  0.062295061   0.06166544            6 
 3643000   0.64770535   -2.9096191    2727.1512  0.062383365  0.061653296            6 
 3644000   0.66580727   -2.9058927    2729.2713  0.062414729  0.061641219            7 
 3645000   0.66646706   -2.9204763    2715.5211  0.062083243   0.06162902            7 
 3646000   0.67690938   -2.9167857    2712.7384  0.062002614  0.061616903            6 
 3647000   0.68204006   -2.8960673    2726.2626  0.062294639  0.061604808            4 
 3648000   0.67413566   -2.9165356    2716.1315  0.062046133  0.061592725            4 
 3649000   0.66303946   -2.9120266      2720.41  0.062126839  0.061580568            5 
 3650000   0.67685036   -2.9000464    2726.3631  0.062245732  0.061568428            4 
 3651000   0.66317231   -2.8970735    2717.6372  0.062029518  0.061556366            9 
 3652000   0.66505407   -2.9199681    2720.1406  0.062069656  0.061544155           10 
 3653000    0.6760075   -2.8854506    2724.6449  0.062155417  0.061531995            5 
 3654000   0.67149984   -2.9150512    2719.1101   0.06201218  0.061519891            4 
 3655000   0.67187973   -2.9093733    2716.6909  0.061940057  0.061507786            3 
 3656000   0.66515183   -2.9218992    2730.0331  0.062227232  0.061495702            4 
 3657000    0.6458883   -2.9083755    2730.2825  0.062215899  0.061483653            6 
 3658000   0.66255391   -2.8954274    2716.3487  0.061881463  0.061471504            4 
 3659000   0.65789343   -2.9137289    2725.1573  0.062065165  0.061459435            6 
 3660000   0.66164571    -2.912534    2717.2202  0.061867492  0.061447272           12 
 3661000   0.66302192   -2.8872209    2718.0993  0.061870603   0.06143519            6 
 3662000   0.66112545   -2.9185472    2723.3576  0.061973367  0.061423009            4 
 3663000   0.67608403   -2.9094113    2726.6088  0.062030413  0.061410824            4 
 3664000   0.66000617   -2.9165758    2721.3233  0.061893269  0.061398741            5 
 3665000   0.66043554   -2.9136342    2721.2949  0.061875737  0.061386625           20 
 3666000   0.66199628   -2.9050333    2718.7559  0.061801142  0.061374477            8 
 3667000   0.67590002   -2.9384541    2721.3254  0.061842682  0.061362231            3 
 3668000   0.68122299   -2.8934925    2724.9493  0.061908155  0.061350117            9 
 3669000   0.66152961   -2.9115239    2731.3084  0.062035714  0.061338053            6 
 3670000   0.66977393   -2.9140729    2721.7994  0.061802893  0.061326029            5 
 3671000   0.65684447   -2.9057061     2720.435  0.061755085  0.061314006            6 
 3672000   0.65557708   -2.9162529    2739.9047  0.062180117  0.061301828            7 
 3673000   0.66479612   -2.9101627    2728.9998  0.061915777  0.061289758            5 
 3674000   0.65650018   -2.9251551    2729.1869  0.061903169  0.061277714            7 
 3675000   0.67583785   -2.9148551    2730.0802   0.06190658  0.061265648            2 
 3676000   0.66137988   -2.9326509    2729.8604  0.061884757  0.061253548            6 
 3677000   0.66270552   -2.9043185    2726.9063  0.061800977  0.061241481            3 
 3678000    0.6546771   -2.9060157    2732.5351  0.061911707  0.061229421            4 
 3679000   0.65720874   -2.9171736    2725.7933   0.06174217  0.061217428            4 
 3680000    0.6497824   -2.9150891    2731.9334  0.061864435  0.061205521            8 
 3681000    0.6582459   -2.9320071    2726.9141  0.061733996  0.061193616            6 
 3682000   0.66880573   -2.9053795    2727.2282   0.06172434  0.061181602            4 
 3683000   0.65262477    -2.908026    2740.9178  0.062017328  0.061169585            3 
 3684000   0.66354211   -2.9165985    2729.3688   0.06173925  0.061157591            6 
 3685000   0.65317378   -2.9123196    2731.5996  0.061772943  0.061145516            7 
 3686000   0.67065425   -2.9083095    2735.8487  0.061852249    0.0611336            7 
 3687000   0.65513928   -2.9056545    2728.9926  0.061680513  0.061121632           11 
 3688000    0.6610476   -2.9109738    2732.0847  0.061733656  0.061109607            5 
 3689000   0.65847847    -2.915129     2737.215  0.061832813  0.061097532            7 
 3690000   0.66124239   -2.9261713    2727.3972  0.061594335  0.061085439            3 
 3691000    0.6509052   -2.9319935    2736.6251  0.061785992  0.061073343           12 
 3692000   0.65997021   -2.9264106    2738.8577  0.061819648  0.061061387            7 
 3693000   0.66183884   -2.9083777    2732.5193   0.06165988  0.061049397            3 
 3694000   0.66897539   -2.9283239    2734.3881  0.061685348  0.061037433            4 
 3695000   0.65886021   -2.9266851    2737.5016  0.061738873  0.061025461            8 
 3696000   0.65953059   -2.9208329    2738.5059  0.061744813  0.061013472            2 
 3697000   0.66546516   -2.9196798    2732.2143  0.061586292  0.061001454            6 
 3698000   0.65467557    -2.925589    2739.6867  0.061738027  0.060989463            6 
 3699000   0.66338368   -2.9190276    2729.9898   0.06150288  0.060977421            6 
 3700000   0.65601148   -2.9378893    2735.4521  0.061609282  0.060965376            2 
 3701000   0.66181049   -2.9147742    2744.3844  0.061793757  0.060953421            3 
 3702000   0.67158038   -2.9082476    2740.3315  0.061685834  0.060941458            5 
 3703000   0.65733827   -2.9132153    2736.3161  0.061578811  0.060929535            3 
 3704000   0.66572099   -2.9205557    2736.5134  0.061566626  0.060917568            5 
 3705000   0.64862808    -2.932836    2742.2681  0.061679445  0.060905684           10 
 3706000   0.66646901   -2.9105655    2736.7274  0.061538212  0.060893819            3 
 3707000   0.66346385   -2.9305163    2741.5644  0.061630347  0.060881844            6 
 3708000   0.66312405   -2.9386504    2737.9131  0.061531668  0.060869881            6 
 3709000   0.66858448   -2.9101744    2733.7999  0.061422664  0.060857899            8 
 3710000   0.65445473   -2.9419556    2733.6221  0.061402114  0.060845906            5 
 3711000   0.66105062   -2.9297697    2737.7726  0.061478771  0.060833912            4 
 3712000   0.65878237   -2.9373144      2749.19  0.061718526  0.060822001            4 
 3713000   0.65510863   -2.9179181     2738.662  0.061465617  0.060810095            4 
 3714000   0.66194734   -2.9278835    2741.1213  0.061504247  0.060798178            6 
 3715000   0.66171886   -2.9252584    2740.7102  0.061478469  0.060786243           11 
 3716000   0.65734457   -2.9316085    2743.5509  0.061525631  0.060774391            4 
 3717000   0.65265082   -2.9383107    2738.0441  0.061385618  0.060762455           11 
 3718000   0.65786221   -2.9395477     2743.971  0.061501949  0.060750603            8 
 3719000   0.66334982   -2.9140797    2734.8804  0.061281716  0.060738697           12 
 3720000    0.6579176   -2.9289897     2746.257  0.061520094  0.060726802            5 
 3721000   0.65506206   -2.9304423    2743.5113   0.06144207  0.060715023            4 
 3722000   0.64890228   -2.9075632    2744.0964  0.061438663  0.060703284            6 
 3723000   0.65477813   -2.9270825     2745.662  0.061457204  0.060691485           13 
 3724000   0.67928708   -2.9292323    2744.1456  0.061406767  0.060679641            5 
 3725000   0.65809275   -2.9194119    2749.7503  0.061515666  0.060667886           10 
 3726000   0.64810834   -2.9235214    2743.7163  0.061364205  0.060655957           12 
 3727000   0.66414685   -2.9185405    2740.3028  0.061271416  0.060644112            6 
 3728000   0.65769003   -2.9280147    2747.3452  0.061412401  0.060632179           11 
 3729000   0.65364536   -2.9335057    2742.8772  0.061296084   0.06062023            6 
 3730000   0.67373806   -2.9118238    2743.4018  0.061291371  0.060608328            8 
 3731000   0.64873633   -2.9263279    2744.9177  0.061308801  0.060596435            2 
 3732000   0.64917788   -2.9387118    2740.3085  0.061189454  0.060584409            6 
 3733000   0.64655998   -2.9453166    2743.8523  0.061252172  0.060572438            7 
 3734000   0.64871975     -2.92589    2742.6772  0.061209542  0.060560533            7 
 3735000   0.65673715   -2.9333331    2752.2003  0.061405628  0.060548646            8 
 3736000   0.65077608   -2.9223361    2744.5596  0.061218763  0.060536787            5 
 3737000   0.66780699   -2.9542958    2741.5312   0.06113485  0.060524793            7 
 3738000   0.63996423   -2.9308915    2744.9481  0.061194671  0.060512685            3 
 3739000   0.64692352   -2.9203595     2740.024  0.061068557  0.060500753            5 
 3740000   0.65742537   -2.9636745    2739.6194  0.061043213  0.060488751            3 
 3741000   0.63325789    -2.936514      2742.32  0.061087053  0.060476825            5 
 3742000   0.63739185   -2.9383657    2747.9214   0.06119547  0.060464798           14 
 3743000    0.6493556   -2.9256025    2745.8309  0.061132578   0.06045283            5 
 3744000   0.65427884     -2.92432    2736.0575  0.060898715  0.060440873            7 
 3745000   0.66869138   -2.9238929    2751.9335  0.061235725  0.060428852           11 
 3746000   0.65077358    -2.941133    2745.5507  0.061077388  0.060416952            7 
 3747000   0.64266738   -2.9455174    2741.3488  0.060967637   0.06040503            4 
 3748000    0.6530603   -2.9141326    2755.0284  0.061255524  0.060393003            5 
 3749000   0.65433219    -2.917877    2749.3456  0.061112866  0.060381092            5 
 3750000   0.64821093    -2.934971    2752.2356  0.061160791  0.060369053            5 
 3751000   0.65372386   -2.9335021    2739.9771  0.060872148  0.060357097           11 
 3752000   0.65161737    -2.915109    2751.5395  0.061112729    0.0603451            4 
 3753000   0.65292406   -2.9416936    2746.4189  0.060982746  0.060333146            4 
 3754000   0.65198091   -2.9457392    2739.4859  0.060812597  0.060321199            4 
 3755000   0.64969358   -2.9431467    2750.8301  0.061048159   0.06030918            6 
 3756000   0.66083862   -2.9158341     2746.071  0.060926317    0.0602972           10 
 3757000    0.6452777   -2.9184963    2753.5976  0.061077046   0.06028534            5 
 3758000   0.66137119   -2.9325787    2757.4223  0.061145606  0.060273543            4 
 3759000   0.65434203   -2.9370055     2746.168  0.060879843  0.060261575            6 
 3760000   0.63698156   -2.9339269    2743.0955  0.060795557  0.060249571            9 
 3761000   0.64773367   -2.9487046    2741.1115  0.060735432  0.060237562           14 
 3762000   0.66014911   -2.9417446     2753.187  0.060986775   0.06022561            6 
 3763000   0.63427348    -2.939794    2749.3697  0.060886033  0.060213633            8 
 3764000   0.64942992    -2.926162    2750.9159   0.06090409  0.060201613           11 
 3765000   0.62969727   -2.9409025    2753.1413  0.060937169  0.060189639            8 
 3766000   0.64696158   -2.9414563    2747.6144   0.06079869  0.060177672            7 
 3767000    0.6492782   -2.9241842    2755.0377  0.060946768  0.060165733            5 
 3768000   0.65448109   -2.9367131    2749.0068  0.060797214   0.06015379            4 
 3769000   0.65938868   -2.9309709     2747.051   0.06073784  0.060141767            5 
 3770000   0.64615242    -2.928275    2745.3224   0.06068352   0.06012972           10 
 3771000   0.65366958   -2.9453846    2751.3564  0.060800769  0.060117669            5 
 3772000   0.63057527   -2.9160033     2753.967  0.060842324   0.06010567            5 
 3773000   0.64762299   -2.9346408    2745.0938  0.060630219  0.060093756            8 
 3774000   0.64550914   -2.9371808    2755.3935   0.06084158  0.060081887            4 
 3775000   0.65556479   -2.9518333    2749.5065  0.060695508  0.060069957            6 
 3776000   0.65710327   -2.9456977    2749.2217  0.060673147   0.06005804            5 
 3777000   0.64733774   -2.9475513    2750.0585  0.060675547   0.06004599            5 
 3778000   0.66655628   -2.9285724    2758.6881  0.060849835  0.060034043            9 
 3779000   0.64887134   -2.9388224    2753.5622  0.060720699  0.060022179            5 
 3780000   0.64835392   -2.9422704    2752.2799  0.060676365  0.060010219            5 
 3781000   0.65432303   -2.9549495     2748.385  0.060574473  0.059998306            8 
 3782000   0.64630455    -2.949954    2754.3651  0.060690223  0.059986407            9 
 3783000   0.64130641   -2.9394021    2747.5813  0.060524743  0.059974476            6 
 3784000   0.63825746   -2.9340381    2749.1465   0.06054322  0.059962459            6 
 3785000   0.65479982   -2.9407746    2758.7252  0.060738116  0.059950476            5 
 3786000   0.62938814   -2.9564115    2753.3383  0.060603502  0.059938591            8 
 3787000   0.65394504   -2.9524432    2745.3613  0.060411965  0.059926587            4 
 3788000   0.64140847   -2.9351185     2749.832  0.060494367   0.05991463            7 
 3789000   0.65153711   -2.9297191    2749.3005  0.060466714  0.059902615            4 
 3790000   0.65494023   -2.9655179    2748.6673  0.060436836  0.059890617           15 
 3791000     0.653985   -2.9391398    2755.9295  0.060580531  0.059878612            6 
 3792000   0.63386697   -2.9447593    2750.9158  0.060454372  0.059866682            7 
 3793000   0.64332832   -2.9435273    2746.6915  0.060345626  0.059854741            6 
 3794000   0.64137143   -2.9452869    2751.2636  0.060430144  0.059842696            5 
 3795000   0.64786491   -2.9495118    2758.3273  0.060569331  0.059830756            5 
 3796000    0.6414477   -2.9493814    2757.3114  0.060531073  0.059818738            5 
 3797000   0.63935836   -2.9396908    2764.5981  0.060675053  0.059806775            5 
 3798000    0.6365973   -2.9313092    2748.3122  0.060301742  0.059794757            3 
 3799000   0.64220938   -2.9442873    2756.8905   0.06047404  0.059782651           11 
 3800000   0.65065806   -2.9535777    2754.0252  0.060395289  0.059770672            3 
 3801000    0.6457171   -2.9282458    2755.4472  0.060410575  0.059758702            6 
 3802000   0.65440195   -2.9454891    2752.2502  0.060324615  0.059746807            7 
 3803000    0.6275425   -2.9485243    2759.5879  0.060469538  0.059734822           10 
 3804000   0.63183122   -2.9546119     2751.469  0.060275783  0.059722744            7 
 3805000   0.63687503   -2.9345025    2756.2594  0.060364857  0.059710689            4 
 3806000   0.64154102   -2.9529319    2761.1532  0.060456149  0.059698661            6 
 3807000    0.6399005    -2.962398    2762.5133   0.06047004  0.059686726            5 
 3808000   0.64701878   -2.9366371    2751.8171  0.060220087  0.059674738            9 
 3809000   0.63836365   -2.9458917    2745.6871  0.060070164  0.059662703            7 
 3810000   0.64111522    -2.952823      2745.82  0.060057306  0.059650708            9 
 3811000   0.63379275   -2.9512211    2758.1431  0.060311011  0.059638711            7 
 3812000   0.63671452   -2.9497169    2760.1412  0.060338869  0.059626795            5 
 3813000   0.63297061   -2.9555312    2759.3672  0.060306127  0.059614872            3 
 3814000   0.64292268   -2.9477516    2749.4748  0.060074173  0.059602993            4 
 3815000   0.62607264   -2.9327513    2761.8894  0.060329608  0.059591126            7 
 3816000   0.63564452   -2.9400368    2763.7323  0.060354042  0.059579288            7 
 3817000   0.64935903   -2.9699322    2761.3352  0.060285896   0.05956744            5 
 3818000   0.63853378   -2.9697052    2767.4956  0.060404565  0.059555629            5 
 3819000   0.63949762   -2.9534854    2760.7345  0.060241217  0.059543815            7 
 3820000   0.63828312   -2.9330125    2763.6481  0.060289007  0.059531914            3 
 3821000   0.62893263    -2.941577    2765.0461  0.060303719  0.059520123            6 
 3822000   0.62968055   -2.9285809    2770.8733  0.060414994  0.059508299            8 
 3823000   0.65015795   -2.9474417    2765.5508  0.060283172  0.059496521            7 
 3824000   0.63743793   -2.9433223    2766.3146  0.060284052  0.059484677            7 
 3825000   0.64406086   -2.9389274    2759.6748  0.060123633  0.059472916           14 
 3826000   0.64025748    -2.947716    2762.2364  0.060163714  0.059461102            6 
 3827000   0.64591223   -2.9419779    2761.2838  0.060127249  0.059449263            5 
 3828000   0.64659936   -2.9426932    2761.4253  0.060114622  0.059437457            7 
 3829000   0.64095798   -2.9696122    2765.1141  0.060179205  0.059425695            5 
 3830000   0.64191936   -2.9375231    2767.5938  0.060217446  0.059413865            5 
 3831000   0.64181992   -2.9495414    2767.5248  0.060200226  0.059402098            5 
 3832000   0.64577681   -2.9509054    2763.2468  0.060091485  0.059390352            5 
 3833000   0.65184264   -2.9449592    2774.6826  0.060324433  0.059378535            9 
 3834000   0.62537989   -2.9449706     2768.525   0.06017486  0.059366789            6 
 3835000   0.64204956   -2.9684965    2754.6566  0.059857814  0.059354924            5 
 3836000   0.63943235   -2.9415144    2760.4383  0.059967811  0.059343062            4 
 3837000   0.64502253   -2.9473011    2771.0516  0.060182687  0.059331259            9 
 3838000   0.64194492   -2.9403047    2768.5715  0.060113155  0.059319383           10 
 3839000   0.63731697   -2.9767967    2761.0085  0.059933328  0.059307452            7 
 3840000   0.64724294   -2.9447652    2761.9905   0.05993903  0.059295519            6 
 3841000   0.62541184   -2.9598909    2768.6476  0.060067855  0.059283661            4 
 3842000   0.64592566   -2.9582145     2757.789  0.059816698  0.059271843            8 
 3843000   0.64282726   -2.9566273    2767.0586  0.060002138  0.059259992            4 
 3844000   0.64917585   -2.9530634    2763.4502  0.059908303  0.059248066            9 
 3845000   0.63361276   -2.9672887    2760.0017  0.059817981  0.059236143            6 
 3846000   0.63463198    -2.962039    2765.7639  0.059927282  0.059224208            5 
 3847000   0.62046132   -2.9593157    2762.7495  0.059846406  0.059212305            9 
 3848000   0.63999605    -2.977848    2773.1888  0.060056931  0.059200391            9 
 3849000   0.63890574   -2.9575405    2759.7013  0.059749314  0.059188406            5 
 3850000   0.64948542   -2.9621136    2759.4187  0.059727678   0.05917653            8 
 3851000    0.6222303   -2.9704761    2763.2665  0.059795431  0.059164663            7 
 3852000   0.64968603   -2.9482817    2769.5824  0.059916545  0.059152824            4 
 3853000   0.63295671   -2.9735016     2761.568  0.059727658  0.059140957            7 
 3854000    0.6386147   -2.9399142     2772.244  0.059943002  0.059129094           15 
 3855000   0.64385041   -2.9573113    2757.6278  0.059611497  0.059117179            3 
 3856000   0.62117598   -2.9522232    2769.0098  0.059842017    0.0591053            4 
 3857000   0.64840232    -2.921945    2772.3671  0.059899039  0.059093398            3 
 3858000   0.64334492   -2.9541075    2773.2547  0.059902686  0.059081518           12 
 3859000   0.64265094   -2.9460852    2769.5984  0.059808206   0.05906963            5 
 3860000   0.63334321   -2.9564598    2769.1336  0.059782677   0.05905774            5 
 3861000     0.635952   -2.9619966    2773.1555  0.059853999  0.059045842            6 
 3862000   0.62965901   -2.9597069    2766.6156  0.059697385  0.059033964            8 
 3863000    0.6395966   -2.9414137    2766.0569  0.059669879   0.05902204            5 
 3864000   0.62987351   -2.9529205     2765.318  0.059638502  0.059010173            3 
 3865000   0.63475436   -2.9569508    2763.5387  0.059584708  0.058998245            6 
 3866000   0.63959346   -2.9677909    2763.7338    0.0595735  0.058986343            8 
 3867000   0.62428889   -2.9368346    2771.8881  0.059733819  0.058974464            4 
 3868000    0.6291209   -2.9626153    2759.0145  0.059441023   0.05896251            6 
 3869000   0.63171391   -2.9503537    2769.7914  0.059657779  0.058950614            8 
 3870000    0.6181417   -2.9511839    2767.7729  0.059598901  0.058938739            4 
 3871000   0.63263567    -2.944639    2763.8373   0.05949878  0.058926897            6 
 3872000   0.64256437   -2.9695323     2769.618  0.059607826  0.058915017            5 
 3873000   0.65164759   -2.9342308    2775.7991  0.059725431  0.058903103            6 
 3874000   0.62778146   -2.9657073     2773.269  0.059655588  0.058891198            7 
 3875000   0.62827474   -2.9669975    2772.4167  0.059621864  0.058879282            5 
 3876000   0.63975057   -2.9700568     2771.397  0.059584559  0.058867397            6 
 3877000   0.63033044   -2.9406859    2766.6894  0.059468004  0.058855478            4 
 3878000   0.63258624   -2.9539369    2766.1276  0.059440596  0.058843605            8 
 3879000   0.62654429   -2.9746274     2778.511  0.059691308  0.058831749            9 
 3880000   0.62456116   -2.9761381    2773.7197  0.059573019  0.058819848            5 
 3881000   0.64756882    -2.956398     2776.713   0.05962194  0.058807993           17 
 3882000   0.61900885   -2.9539658    2771.4216  0.059492994  0.058796199            8 
 3883000   0.61859173   -2.9732806    2770.5594  0.059459169  0.058784361            5 
 3884000   0.64175913   -2.9700926    2780.6275  0.059659876  0.058772516            9 
 3885000   0.63050976   -2.9692509    2771.1922  0.059442131  0.058760594           12 
 3886000    0.6225822   -2.9660433    2772.8613  0.059462629  0.058748644           13 
 3887000    0.6353163   -2.9730839    2776.0559   0.05951582  0.058736707            9 
 3888000   0.62278402   -2.9563621    2767.7665  0.059322842  0.058724817            3 
 3889000   0.63370036    -2.963045    2774.9163  0.059460793  0.058712966            6 
 3890000   0.63457687   -2.9548086    2763.2519  0.059195628  0.058701159            6 
 3891000   0.63147711   -2.9574406    2782.8962  0.059601134  0.058689327           10 
 3892000   0.61816152   -2.9464645    2774.3151  0.059402088  0.058677481            6 
 3893000   0.63290488   -2.9703832    2775.7967  0.059418544  0.058665705            3 
 3894000   0.62738576    -2.982009    2769.9906  0.059279031  0.058653856            5 
 3895000   0.63360175   -2.9563762    2774.8645   0.05936809  0.058641869            5 
 3896000   0.63614956   -2.9737022    2764.7872  0.059137304  0.058629982            9 
 3897000    0.6169054    -2.986407    2770.5855  0.059246118  0.058618058            6 
 3898000   0.62594371   -2.9808131    2776.9388  0.059366744  0.058606145           16 
 3899000   0.64064175   -2.9811924    2773.2107  0.059271837  0.058594194            6 
 3900000   0.62900849   -2.9837807    2769.4261  0.059175772  0.058582189           15 
 3901000    0.6082641   -2.9533976    2780.4527  0.059396152  0.058570348            5 
 3902000    0.6329305   -2.9847932    2773.8406  0.059239718  0.058558474            6 
 3903000   0.62909979   -2.9750835    2778.9578    0.0593338  0.058546654            9 
 3904000   0.61523416   -2.9628851    2781.2167  0.059366818  0.058534793            6 
 3905000   0.63677208   -2.9650712    2777.7082  0.059276743  0.058522903            5 
 3906000   0.62268429   -2.9851379     2761.778  0.058921701  0.058510966           13 
 3907000   0.63545705   -2.9691576    2779.7045  0.059288979  0.058499045            8 
 3908000   0.61752919   -2.9819676    2763.6337  0.058931118  0.058487147            6 
 3909000   0.62882435   -2.9717842    2775.1971  0.059162553  0.058475254            7 
 3910000   0.62493978   -2.9730761    2782.8231  0.059309955  0.058463434           19 
 3911000   0.62193325   -2.9605166    2779.3527  0.059220844  0.058451584            4 
 3912000   0.62689489    -2.985777    2773.1387  0.059073336  0.058439732           10 
 3913000   0.61711389   -2.9655799    2774.7948  0.059093509  0.058427767            6 
 3914000   0.62704519   -2.9668101    2776.8428  0.059122015  0.058415921            7 
 3915000   0.61474304   -2.9724817    2781.3875  0.059203651  0.058404099           13 
 3916000   0.61169013   -2.9766712    2769.9214  0.058944531  0.058392194            6 
 3917000   0.63188371   -2.9804263    2774.1616  0.059019692  0.058380252            5 
 3918000   0.62838745   -2.9783631    2786.7177  0.059271687  0.058368393            9 
 3919000   0.61247425   -2.9957918    2779.0026  0.059092511   0.05835661            9 
 3920000   0.60666827   -2.9802521    2773.3771  0.058957846  0.058344798            7 
 3921000   0.63932136   -2.9946657    2779.9978   0.05908352  0.058332943            7 
 3922000   0.62133729   -2.9965698    2777.8119  0.059022011  0.058321164            6 
 3923000   0.62990433   -2.9729068    2777.8709  0.059008219  0.058309338            2 
 3924000   0.62317368   -2.9732686    2785.1458  0.059147676  0.058297548            7 
 3925000   0.62846366   -2.9882527     2775.554   0.05892896   0.05828578            5 
 3926000   0.62056813   -2.9719108    2775.9957  0.058923326  0.058273964            7 
 3927000   0.63437125   -2.9722807    2773.6178   0.05885786  0.058262196            8 
 3928000   0.61867901   -2.9711615    2775.5129   0.05888308  0.058250388            7 
 3929000   0.62473834   -2.9684272    2784.9372  0.059067981  0.058238542            5 
 3930000   0.63546381   -3.0075581    2778.6515  0.058919667  0.058226701            6 
 3931000   0.62182182   -2.9816403    2785.0826  0.059041011  0.058214856            7 
 3932000   0.61485433   -3.0028306    2782.9407  0.058980601   0.05820305            5 
 3933000   0.62634803   -2.9741541    2784.8341  0.059005722  0.058191251            8 
 3934000   0.63230942   -2.9849133    2776.0144  0.058803899  0.058179437            4 
 3935000   0.62438896   -2.9830117    2785.6655   0.05899334  0.058167595            9 
 3936000   0.61597279   -2.9684651    2773.3076  0.058716708  0.058155829            8 
 3937000   0.63529247   -2.9923349    2779.7681  0.058838542  0.058144022           10 
 3938000   0.61009119   -2.9904676    2786.3632  0.058963163  0.058132289           12 
 3939000   0.63241242   -3.0062091    2781.0654  0.058836113  0.058120456            8 
 3940000   0.62037038   -2.9800156    2789.2209  0.058993674  0.058108699            8 
 3941000   0.63205265   -2.9878317    2786.9731  0.058931175  0.058096903            6 
 3942000   0.62689188   -2.9949623    2790.1681  0.058983766  0.058085144            5 
 3943000   0.62695819   -2.9996308    2784.3512  0.058845871  0.058073313           15 
 3944000   0.62205377   -2.9923681    2779.2538  0.058723247  0.058061494            7 
 3945000   0.61772429   -2.9718747    2785.1162  0.058832197  0.058049697            7 
 3946000   0.63043801   -2.9765027    2787.9465  0.058877059  0.058037964            6 
 3947000   0.61980489   -2.9730182    2788.1363  0.058866149  0.058026202            9 
 3948000   0.60897814   -2.9711506    2784.8899  0.058782716  0.058014512            7 
 3949000   0.61031873   -2.9651313    2787.9766  0.058832967  0.058002768            5 
 3950000   0.62676791   -2.9740517    2782.3284  0.058698912  0.057991078            9 
 3951000    0.6147069   -2.9794387     2791.709  0.058881908  0.057979352            6 
 3952000   0.61930332   -2.9706078     2777.229  0.058561677  0.057967667            5 
 3953000   0.61545561   -2.9754678    2787.8673   0.05877113  0.057955983            9 
 3954000   0.61011818   -2.9819021     2790.925  0.058820708  0.057944342           10 
 3955000   0.62598176   -2.9840068     2787.779  0.058739549  0.057932644            5 
 3956000   0.60771886   -2.9732985    2793.9568  0.058854837  0.057920973            5 
 3957000   0.62916748    -2.975493    2784.8761  0.058648726  0.057909339            7 
 3958000   0.61099829   -2.9846632    2791.9047  0.058781892  0.057897754            3 
 3959000   0.61560978   -2.9818863    2782.7794  0.058574964  0.057886065            5 
 3960000   0.62284157   -2.9838246    2789.6669  0.058705112  0.057874396            7 
 3961000   0.61193739   -3.0109155    2793.7626  0.058776458  0.057862707            8 
 3962000   0.63387026   -2.9990634    2787.8371   0.05863699  0.057850907            5 
 3963000   0.62142596   -2.9935784    2790.2976  0.058673933  0.057839123            9 
 3964000   0.60406411   -2.9905885    2778.7764  0.058416928  0.057827381            6 
 3965000   0.61986306   -2.9989463    2789.2199  0.058621687  0.057815741            5 
 3966000   0.60308074   -2.9894993    2789.7451  0.058617943  0.057804123           14 
 3967000   0.61056604   -2.9794383    2783.2034  0.058465746  0.057792406            5 
 3968000   0.59958258   -2.9993562    2784.2801  0.058473624  0.057780585            9 
 3969000   0.62277832   -2.9883391    2791.3704   0.05860776  0.057768899           11 
 3970000   0.62414101   -2.9900572    2786.5043  0.058490854  0.057757195            5 
 3971000    0.6219585   -2.9916546    2792.6529  0.058605156  0.057745522            4 
 3972000   0.62185716   -2.9882954    2787.1136  0.058474185   0.05773382            8 
 3973000   0.61420472   -2.9775587    2794.6229  0.058616975  0.057722202            6 
 3974000   0.61941753   -2.9786533    2786.5457  0.058432848  0.057710428            5 
 3975000   0.60898696    -2.985533    2791.8075  0.058528459  0.057698729           13 
 3976000   0.61743202   -2.9939759    2784.1372  0.058352977  0.057686911           15 
 3977000     0.621966   -2.9733977    2792.7277  0.058518307  0.057675183            8 
 3978000   0.60872078   -2.9786718    2796.9543  0.058592139  0.057663532           25 
 3979000   0.60537598   -2.9964503    2788.9285  0.058409325  0.057651845            7 
 3980000   0.62641656   -2.9863829    2794.8148  0.058517898  0.057640162            8 
 3981000   0.62522289   -2.9888284    2786.9325    0.0583382  0.057628432            2 
 3982000   0.61938586   -2.9829502    2796.2663  0.058518883  0.057616821            8 
 3983000    0.6138486   -2.9987917    2789.8463  0.058369869  0.057605268           13 
 3984000    0.6019363   -3.0087418    2799.2705  0.058552346  0.057593625           13 
 3985000   0.62355597   -3.0078041    2798.3883  0.058519202  0.057582071           10 
 3986000   0.60153504   -2.9811428    2792.7593  0.058386838  0.057570434            5 
 3987000   0.61506431   -3.0026522    2792.6932  0.058370814  0.057558901           19 
 3988000   0.61710322   -2.9882231    2807.1828  0.058658953  0.057547276           10 
 3989000   0.61483378   -3.0120436    2793.4832  0.058358051  0.057535618            7 
 3990000   0.60932959   -3.0036764    2797.6932  0.058431354  0.057523997            4 
 3991000   0.62906012    -3.013451    2783.7238  0.058125027  0.057512294            4 
 3992000   0.60326099   -3.0016508     2790.887  0.058259998  0.057500623            5 
 3993000   0.60829806   -2.9962089    2792.1044  0.058270815  0.057488997            4 
 3994000   0.59379045   -2.9982848     2803.106  0.058485771  0.057477413           16 
 3995000   0.62247285   -2.9956947    2797.2407  0.058348784  0.057465789           12 
 3996000   0.59988715   -2.9920426    2794.5771  0.058278636  0.057454083            8 
 3997000   0.61134922   -3.0003084    2797.9186  0.058333722  0.057442419           11 
 3998000   0.60998192   -2.9910584    2804.3986  0.058454197  0.057430799            8 
 3999000   0.61299577    -2.996158    2789.5156  0.058129441  0.057419082            5 
 4000000    0.6104339   -2.9951813    2797.7404  0.058286258   0.05740744           16 
 4001000   0.60032256   -2.9864915    2790.4351  0.058119536  0.057395815           15 
 4002000   0.61829459   -2.9964261    2790.9625  0.058115994   0.05738417            8 
 4003000    0.6183316   -2.9948545    2787.3308  0.058025871  0.057372522           10 
 4004000   0.61208954   -3.0230416    2791.7666    0.0581037   0.05736083            7 
 4005000   0.61966063   -2.9911462    2801.6287  0.058294396  0.057349208            5 
 4006000   0.62777072   -2.9889529    2795.1078  0.058144195  0.057337613           14 
 4007000   0.60150599   -3.0003901    2798.0158  0.058190163  0.057326013            8 
 4008000   0.60505333   -2.9731062    2806.5606  0.058353306  0.057314482            5 
 4009000   0.61274107   -2.9898083    2796.9575  0.058139135  0.057302905            2 
 4010000    0.6126024   -3.0010172    2803.2563  0.058255534   0.05729134            8 
 4011000   0.60077398   -2.9906079    2798.1738  0.058135415  0.057279723            4 
 4012000   0.60809891   -2.9953323    2796.6478  0.058089229  0.057268095            8 
 4013000   0.61402706   -2.9937114    2800.8256  0.058161509  0.057256478            7 
 4014000   0.60710104   -3.0079713    2794.9699  0.058025451  0.057244865            9 
 4015000   0.60320235   -2.9843112    2801.5338  0.058147235  0.057233277           10 
 4016000   0.61163851   -2.9988977    2807.9827  0.058266572  0.057221755            4 
 4017000   0.62945245   -3.0000822    2796.4355  0.058012519  0.057210169           12 
 4018000   0.59757978   -3.0011076    2799.1662  0.058054715  0.057198623            6 
 4019000   0.61741819   -3.0091759    2788.9674  0.057828802  0.057187041            8 
 4020000   0.60657068   -2.9984747    2800.5118  0.058053728   0.05717542            3 
 4021000   0.61507743   -2.9870397    2793.0682  0.057885024  0.057163867           12 
 4022000   0.61317243   -3.0024703    2804.2674  0.058102672  0.057152305           14 
 4023000    0.6170042   -3.0029167    2797.2741  0.057943369  0.057140748           12 
 4024000   0.60319644   -3.0082893    2798.0567  0.057945177  0.057129185            3 
 4025000   0.61863923   -2.9934575     2812.081  0.058221139  0.057117686            5 
 4026000   0.60611993   -3.0170521    2797.2242   0.05789916  0.057106122           12 
 4027000   0.60986253   -2.9989141    2809.7115   0.05814319  0.057094447           16 
 4028000   0.59990505   -2.9809074    2799.6946  0.057921519  0.057082858            7 
 4029000   0.60754356   -2.9844414    2796.5216  0.057841516   0.05707129            5 
 4030000   0.61550504   -3.0006859    2795.1457  0.057798711  0.057059626            6 
 4031000   0.60776627   -3.0101904    2796.3516  0.057809303  0.057048051            8 
 4032000    0.6152396   -2.9872153    2801.3784   0.05789886  0.057036489            6 
 4033000   0.59416784   -3.0003206    2806.3501  0.057987232  0.057024884           10 
 4034000   0.61442195   -3.0009824    2797.2634  0.057785148  0.057013317            8 
 4035000   0.60047477   -3.0126478    2800.2137  0.057831757  0.057001705            8 
 4036000   0.60090178   -3.0022683    2800.9303  0.057832224  0.056990246            8 
 4037000    0.6054718    -2.997022    2808.1335   0.05796659  0.056978745            7 
 4038000   0.59932674   -3.0120137    2811.4668  0.058021026  0.056967254            7 
 4039000   0.60235168   -2.9940821    2812.5093  0.058028169  0.056955739            9 
 4040000   0.59790646   -3.0129571    2798.0274  0.057715087  0.056944182            6 
 4041000    0.5902236   -2.9780301    2797.3109  0.057686029  0.056932629            4 
 4042000   0.62603469   -3.0214469    2806.9277  0.057870025  0.056921118            6 
 4043000   0.61574974   -3.0007028    2798.0579   0.05767289  0.056909604            2 
 4044000    0.5942448   -3.0044218    2810.6798  0.057918724  0.056898128            5 
 4045000   0.60013786   -3.0136259    2799.8701  0.057681707  0.056886608            8 
 4046000   0.60963965   -3.0012678    2797.3405  0.057615351    0.0568751            6 
 4047000   0.60892369   -3.0049129    2809.9484  0.057860728   0.05686363            9 
 4048000   0.60322772   -3.0015058    2812.4161  0.057897234  0.056852129            8 
 4049000   0.61636756   -3.0117891    2806.9238  0.057769897  0.056840688            4 
 4050000   0.60033839   -3.0041069    2809.8476  0.057815795  0.056829239            7 
 4051000   0.60233689   -3.0044059    2805.7257   0.05771673  0.056817817            9 
 4052000   0.60419332   -3.0075952    2806.6459  0.057721412  0.056806297           15 
 4053000   0.60393764   -3.0062284    2812.1171  0.057819663   0.05679477           12 
 4054000   0.60529109   -3.0042886    2799.5716  0.057547517  0.056783216            8 
 4055000   0.60131915   -3.0107298    2806.9534  0.057685027  0.056771729           11 
 4056000   0.59960154   -2.9952277    2804.0224  0.057610586  0.056760191            4 
 4057000   0.60652229   -2.9903304    2815.3988  0.057830064  0.056748741            8 
 4058000   0.59484855   -3.0265273    2806.5263   0.05763361  0.056737175            8 
 4059000    0.5997166    -3.028154     2802.951  0.057546009   0.05672561            8 
 4060000   0.60405083   -3.0182698    2814.1273  0.057761233  0.056714096            5 
 4061000   0.61199728   -3.0201104    2804.2556  0.057544438  0.056702643           19 
 4062000   0.59601684   -3.0101987    2804.2608  0.057530378  0.056691128            6 
 4063000   0.59687994   -3.0091798    2812.6309  0.057687892  0.056679642            6 
 4064000   0.61007021    -3.010856    2805.1452  0.057520201  0.056668094           12 
 4065000   0.59960557   -3.0158533    2805.9432  0.057522411  0.056656585           20 
 4066000   0.59441574   -3.0186247    2806.5576  0.057520856  0.056645093            8 
 4067000   0.59646548   -3.0056639    2806.2379  0.057500161  0.056633499            4 
 4068000    0.5994875   -2.9964936    2811.1521  0.057586694  0.056621955           11 
 4069000   0.59937022   -3.0028183    2812.5972  0.057602138  0.056610503            7 
 4070000    0.6028228   -3.0102253    2807.4547  0.057482692  0.056599019           12 
 4071000   0.59139059    -3.024431    2814.0436  0.057603446  0.056587508            8 
 4072000   0.60265179   -3.0166057    2816.2133  0.057633704  0.056576112            7 
 4073000   0.61135142   -3.0228814    2800.3776  0.057295556  0.056564626           15 
 4074000   0.59912402    -3.020959    2810.8467  0.057495636  0.056553104           10 
 4075000      0.61151   -3.0117542    2812.9419  0.057524374  0.056541591            6 
 4076000   0.60839081   -2.9955306    2813.3281  0.057518158  0.056530122            7 
 4077000   0.60353914   -2.9986615    2815.6253  0.057551004  0.056518675            5 
 4078000   0.60633065   -3.0121101    2812.2613  0.057468148  0.056507219           10 
 4079000   0.59930052   -3.0246226    2807.7501  0.057361896  0.056495689            8 
 4080000   0.60010838   -3.0229436    2811.8418   0.05743141  0.056484177            7 
 4081000    0.5874768    -2.999428     2807.388  0.057326391  0.056472666            5 
 4082000   0.60256676   -3.0270526    2803.7336  0.057237743  0.056461141            4 
 4083000   0.59982738   -3.0132972    2813.0398  0.057413663  0.056449591           11 
 4084000   0.59366641   -2.9978818    2813.0047  0.057398889  0.056438124           16 
 4085000   0.59663997   -3.0009829    2809.9716  0.057322962  0.056426718            5 
 4086000   0.59431767   -3.0173636    2808.2377  0.057273571  0.056415259            6 
 4087000   0.59234384   -3.0071166    2812.9084  0.057354791  0.056403887           10 
 4088000   0.59118242   -3.0208395    2813.4787  0.057352388    0.0563924            7 
 4089000   0.60616121   -3.0035315       2808.9  0.057245047  0.056380988           12 
 4090000   0.58726882   -3.0049798    2809.7877  0.057249137  0.056369522            5 
 4091000   0.58777716   -3.0195775    2805.6581  0.057151024  0.056358067            9 
 4092000   0.61023226   -3.0333618    2808.8788  0.057202647  0.056346526            6 
 4093000   0.59988918    -3.027578    2808.5701  0.057182386  0.056334946            9 
 4094000   0.60649338   -2.9948946    2817.5802  0.057351819   0.05632352            8 
 4095000    0.6052977   -3.0268896    2808.1173  0.057145243  0.056311965           10 
 4096000   0.58491415   -3.0258511    2817.7371  0.057327007  0.056300435            7 
 4097000   0.59149952   -3.0211354     2809.466  0.057144781   0.05628892            4 
 4098000   0.59878414   -3.0256326    2813.6672  0.057216268  0.056277344            7 
 4099000   0.60337345   -3.0046421    2809.6135  0.057119897  0.056265862            8 
 4100000   0.60859413   -3.0299637    2814.5084  0.057205456  0.056254363            6 
 4101000   0.58967097   -3.0332441    2807.8307  0.057055814  0.056242782            6 
 4102000   0.57617355   -3.0084719    2808.6714  0.057058984  0.056231268            9 
 4103000   0.59744676   -3.0101779    2811.0905  0.057094209  0.056219754            5 
 4104000   0.60411362   -3.0255217    2801.6763  0.056889138  0.056208202            5 
 4105000     0.599959   -3.0240649    2815.1581  0.057148967  0.056196646           10 
 4106000   0.58929592   -3.0180505    2814.2127  0.057115861  0.056185128            7 
 4107000   0.59169889   -3.0132681    2806.1466  0.056938288  0.056173614           13 
 4108000   0.60469313   -3.0210038    2811.7866  0.057038839  0.056162067            9 
 4109000    0.5846932   -3.0256991    2815.7782  0.057105909   0.05615056           13 
 4110000   0.59383951   -3.0249966    2810.6502  0.056988042  0.056138993            6 
 4111000   0.60166128   -3.0151546    2815.8555  0.057079694  0.056127515            6 
 4112000   0.61473522   -3.0254054    2804.7507  0.056840764   0.05611601           14 
 4113000   0.59232542   -3.0222195    2810.7946    0.0569494  0.056104534           10 
 4114000    0.5839229   -3.0155983    2817.3681  0.057068711  0.056093046            6 
 4115000   0.59904763   -3.0354597    2811.6935  0.056939925  0.056081527           12 
 4116000     0.590061   -3.0442327    2812.2958  0.056938285  0.056069981            4 
 4117000   0.58089214   -3.0110434    2804.7748   0.05677222  0.056058416            8 
 4118000    0.5880631   -3.0207355    2812.5369  0.056915511  0.056046927            7 
 4119000   0.59715537   -3.0097807    2807.7469  0.056804785  0.056035452           11 
 4120000   0.58640754   -3.0117382    2815.9757  0.056957438  0.056023941           10 
 4121000    0.5874153   -3.0280745    2818.1168  0.056986912   0.05601245            9 
 4122000   0.59695788   -3.0376399    2811.6093  0.056841527  0.056000941            5 
 4123000   0.58544217   -3.0328845    2802.3181  0.056639948  0.055989341            7 
 4124000   0.59288527   -3.0298281    2817.8712  0.056940495  0.055977773            9 
 4125000   0.59145326   -3.0073244    2810.9312  0.056786488  0.055966281            8 
 4126000   0.58238934   -3.0053163    2813.9245  0.056833181  0.055954745            6 
 4127000    0.5999161   -3.0230631    2812.0108  0.056780769   0.05594321            7 
 4128000   0.60438533    -3.012468     2812.464  0.056776164  0.055931659            9 
 4129000   0.60135747   -3.0385375    2821.4445   0.05694366  0.055920052            3 
 4130000   0.58587902   -3.0282307    2815.4019  0.056807948  0.055908492            7 
 4131000   0.58975937   -3.0172978    2806.5404  0.056615436  0.055896958            6 
 4132000   0.59138134   -3.0349465    2809.8969  0.056669428  0.055885362            7 
 4133000    0.6078853   -3.0413884     2809.368  0.056645052  0.055873709            6 
 4134000   0.58750083   -3.0501124    2815.2588  0.056750096  0.055862154            7 
 4135000   0.59701796   -3.0243685    2818.8421  0.056808586  0.055850579            6 
 4136000   0.59576544   -3.0071924    2819.3965  0.056806023  0.055839057            8 
 4137000   0.59212465   -3.0197228    2815.3905  0.056711597   0.05582763            7 
 4138000   0.58183583   -3.0198838    2811.2849  0.056615211  0.055816187            5 
 4139000   0.60154482   -3.0255526      2820.18  0.056780624  0.055804738            6 
 4140000   0.58327677   -3.0262358    2821.0413  0.056784246  0.055793279            4 
 4141000   0.59892063   -3.0379452    2814.5828  0.056640561  0.055781854            9 
 4142000   0.58920032   -3.0197556    2818.0895   0.05669744  0.055770457            5 
 4143000   0.58227112   -3.0433846    2819.8032  0.056718223  0.055758949           14 
 4144000   0.61775975     -3.02772    2821.8416  0.056745528  0.055747513            6 
 4145000   0.58554602    -3.032947    2820.7742  0.056710378  0.055736017           13 
 4146000   0.59372159   -3.0483666    2808.7331  0.056454677   0.05572447            8 
 4147000   0.58670301   -3.0220665    2821.4464  0.056696535  0.055713045            6 
 4148000   0.59616263    -3.026847    2817.6895  0.056607391  0.055701632            6 
 4149000   0.57709939   -3.0144448    2816.2051  0.056563934  0.055690181            6 
 4150000   0.60108741   -3.0096111    2816.1328  0.056548852  0.055678711           10 
 4151000   0.59072127   -3.0243673    2818.1163  0.056575048  0.055667245            4 
 4152000   0.57353302   -3.0340609    2820.3636  0.056606528  0.055655766            9 
 4153000   0.58305395   -3.0330965    2819.2657  0.056570867  0.055644244            8 
 4154000   0.59488364   -3.0390417    2821.9334  0.056610764  0.055632765            6 
 4155000   0.58652227   -3.0470796    2817.6337  0.056510905  0.055621307            8 
 4156000   0.57827739   -3.0305642    2814.5541  0.056435557  0.055609786            7 
 4157000   0.59641727   -3.0244303    2815.8039  0.056447035  0.055598281           12 
 4158000   0.58031452   -3.0315672    2822.1575  0.056560797  0.055586801            4 
 4159000   0.58127749   -3.0237807    2814.8945  0.056401668  0.055575294            5 
 4160000   0.59020244   -3.0401688    2814.0772  0.056371739  0.055563744           13 
 4161000   0.57076938   -3.0476552    2819.1482  0.056459748  0.055552247            5 
 4162000   0.57314876    -3.022876     2823.617   0.05653566  0.055540827           12 
 4163000   0.58099908   -3.0321848    2827.6299  0.056602409   0.05552943           15 
 4164000   0.58995978   -3.0452707    2817.1048  0.056378178  0.055517994           15 
 4165000   0.57776698   -3.0355572    2821.8398  0.056459379  0.055506586           12 
 4166000   0.59211455   -3.0295508    2819.5405  0.056399834  0.055495185            6 
 4167000   0.57851816   -3.0398811    2818.8338  0.056372165  0.055483781            4 
 4168000   0.58385331   -3.0341815    2823.8309  0.056458552   0.05547234            8 
 4169000    0.5896668   -3.0452493    2818.2483  0.056333419  0.055460926            9 
 4170000    0.5902533     -3.05385     2824.718  0.056449201  0.055449417            6 
 4171000   0.59091694   -3.0226957    2821.4091  0.056369558  0.055438017            8 
 4172000   0.57636692   -3.0167723    2821.1264  0.056350399  0.055426612           10 
 4173000   0.58301881   -3.0268492    2822.7309  0.056368936  0.055415169           12 
 4174000    0.5921924   -3.0184291    2823.5453  0.056371692  0.055403741            5 
 4175000   0.58563302   -3.0344895    2821.1704  0.056310786  0.055392288           14 
 4176000   0.57685795   -3.0610491    2819.6657  0.056267276  0.055380897            9 
 4177000   0.58723723   -3.0459296    2819.7363  0.056255213  0.055369401            7 
 4178000   0.58125579   -3.0431312    2824.5694  0.056338148   0.05535797            6 
 4179000   0.58594006   -3.0197354    2821.5092  0.056263644  0.055346628            8 
 4180000   0.58254008   -3.0311727    2820.8654  0.056237349   0.05533516           15 
 4181000   0.59916715   -3.0371012    2815.3901  0.056114768  0.055323682            5 
 4182000   0.58511814   -3.0509589    2829.3519  0.056379562  0.055312199           10 
 4183000   0.59511972   -3.0418872    2819.3873   0.05616757   0.05530078            8 
 4184000   0.57222314   -3.0521151    2814.8137  0.056063052  0.055289214            4 
 4185000   0.58242368   -3.0382033    2820.1256  0.056155428  0.055277676           12 
 4186000   0.57933249   -3.0484695    2820.5925  0.056151307  0.055266076           10 
 4187000   0.57229854   -3.0374007       2816.2  0.056050473  0.055254542            5 
 4188000   0.58490854    -3.043985    2822.7411  0.056167246  0.055243042            9 
 4189000   0.58378508   -3.0466742    2817.1511  0.056042633  0.055231546            6 
 4190000   0.56812302   -3.0392843    2815.6922  0.056000243  0.055220006            7 
 4191000   0.58028124    -3.039935    2818.0709  0.056034178  0.055208465           12 
 4192000   0.57104149   -3.0464256    2814.4559  0.055948948  0.055196904           13 
 4193000   0.57404682   -3.0331456     2819.992  0.056045631  0.055185433            5 
 4194000   0.58742326   -3.0355894    2818.8466  0.056009509  0.055173944            5 
 4195000    0.5747263   -3.0440615    2828.1366  0.056180703  0.055162431           12 
 4196000   0.59523679   -3.0495014    2817.6852  0.055959747  0.055150931            6 
 4197000   0.58284027   -3.0319336    2816.9225  0.055931271  0.055139447            8 
 4198000    0.5751032   -3.0464312    2825.9431  0.056097013  0.055127934            6 
 4199000    0.5836418   -3.0436518    2822.9809  0.056024866  0.055116414            4 
 4200000    0.5919888   -3.0390686    2821.5081  0.055982304  0.055104956           11 
 4201000    0.5871539   -3.0310529     2829.335  0.056124236   0.05509352            6 
 4202000   0.58363936   -3.0217202    2822.3782  0.055972913  0.055082065           13 
 4203000   0.57558337   -3.0448434    2821.1976  0.055936187  0.055070598            9 
 4204000   0.58751357   -3.0540042     2819.321  0.055885685  0.055059094           13 
 4205000    0.5758701   -3.0457866    2817.7491  0.055841243  0.055047565            9 
 4206000   0.57754878   -3.0437343    2822.5397  0.055922883  0.055036061           12 
 4207000   0.58676433   -3.0346026    2822.6379  0.055911534  0.055024631           14 
 4208000   0.56963797    -3.042231    2821.8384  0.055882414  0.055013154            6 
 4209000   0.57789684   -3.0603083    2817.0422  0.055774179  0.055001655            8 
 4210000   0.58147798   -3.0444098    2831.1623  0.056040425  0.054990087           12 
 4211000   0.57859036   -3.0409319    2821.5508  0.055836911  0.054978602           13 
 4212000   0.58197795   -3.0447637    2821.2736   0.05581817  0.054967037            7 
 4213000   0.57876053   -3.0524287    2810.1419  0.055584735  0.054955421            8 
 4214000   0.56947353    -3.050604    2824.8427   0.05586226  0.054943836            4 
 4215000   0.57236297    -3.044271    2820.0732  0.055754709  0.054932307            4 
 4216000   0.56929226   -3.0334316    2816.6077  0.055672987  0.054920762            3 
 4217000   0.57858048   -3.0547606    2821.9366   0.05576509  0.054909204           10 
 4218000   0.57149716   -3.0466309    2825.5484  0.055823226  0.054897649            4 
 4219000   0.58527627   -3.0672647    2817.8564  0.055658063  0.054886149            4 
 4220000   0.56820643   -3.0647415    2823.8431  0.055763094  0.054874562            6 
 4221000   0.58679147   -3.0497796    2820.8401  0.055690596  0.054863054           15 
 4222000   0.57066051   -3.0593753    2819.0301  0.055641681  0.054851526            7 
 4223000   0.56785768   -3.0418923    2831.8002  0.055880499  0.054839998            9 
 4224000   0.58173207   -3.0605335    2824.7276  0.055727738  0.054828475           12 
 4225000   0.57505421   -3.0515516    2826.6918   0.05575329  0.054816978            9 
 4226000   0.57894934   -3.0522829    2825.8578  0.055723651  0.054805509            9 
 4227000   0.59252908   -3.0597573    2823.3034  0.055660111  0.054794073            4 
 4228000   0.57629401   -3.0627441    2825.1245  0.055682839  0.054782496            6 
 4229000   0.56430463   -3.0820172    2823.7363  0.055642317  0.054770965            9 
 4230000   0.57685296   -3.0697425    2822.6684  0.055608125  0.054759419           14 
 4231000   0.58539609   -3.0528674    2829.7306  0.055734078  0.054747971           19 
 4232000   0.57290774   -3.0577759    2829.6047  0.055718429   0.05473657           11 
 4233000   0.56487995   -3.0492974    2825.4226  0.055622936   0.05472514           13 
 4234000   0.56797286   -3.0557511    2825.8221  0.055617661  0.054713729           15 
 4235000   0.57423907    -3.075716    2817.9822  0.055450259  0.054702235            8 
 4236000   0.56276653   -3.0379369    2831.3216  0.055699591   0.05469078            6 
 4237000   0.57978324   -3.0541539    2822.8885  0.055520583  0.054679396           14 
 4238000   0.57004383   -3.0462865    2826.4038  0.055576605  0.054668039           16 
 4239000    0.5800091   -3.0406378    2828.4325  0.055603376  0.054656658            8 
 4240000   0.56954148   -3.0583414    2823.1295  0.055486036   0.05464512           13 
 4241000   0.55612404    -3.059639    2825.7678  0.055524794  0.054633593           11 
 4242000   0.57197296   -3.0775825     2829.699  0.055588931  0.054622111            7 
 4243000   0.56436619   -3.0620193    2825.6348  0.055496008  0.054610649           11 
 4244000   0.56632451   -3.0576816    2821.1988  0.055395829  0.054599187           25 
 4245000    0.5592962   -3.0485425    2820.0557   0.05536034  0.054587678            5 
 4246000   0.58462765   -3.0462624    2826.0775  0.055465488  0.054576199            4 
 4247000   0.57051832   -3.0629186    2827.3385   0.05547717  0.054564739            8 
 4248000   0.57791078   -3.0546253    2828.8282  0.055493334  0.054553219           21 
 4249000   0.57119704   -3.0559427    2826.1323    0.0554274  0.054541754            8 
 4250000   0.57603945   -3.0702545    2825.4261  0.055400511  0.054530218           13 
 4251000   0.58285942   -3.0674976    2825.2146  0.055383334  0.054518708            5 
 4252000   0.57659751   -3.0570242    2837.1221  0.055603679  0.054507277            7 
 4253000   0.56825705   -3.0587381    2825.3046  0.055359053   0.05449582            9 
 4254000   0.57308933   -3.0475323    2833.1381  0.055499493  0.054484331           12 
 4255000   0.57571598   -3.0507499    2827.4547  0.055375142  0.054472917            7 
 4256000   0.56359579   -3.0723364    2827.2015  0.055357173  0.054461443            8 
 4257000   0.57354196    -3.074904    2833.8029  0.055473394    0.0544499            7 
 4258000   0.57692062   -3.0514076    2828.0322  0.055347429  0.054438442            9 
 4259000   0.56269526   -3.0529021    2829.5086   0.05536332  0.054426954           16 
 4260000   0.56950505    -3.047485    2823.9807   0.05524219  0.054415502            7 
 4261000   0.57019429   -3.0742625    2829.6338  0.055339784  0.054404023            5 
 4262000   0.56716095   -3.0563475    2828.1633  0.055298047  0.054392549           13 
 4263000   0.56168109   -3.0644752     2832.835  0.055376398  0.054381122           10 
 4264000   0.56013872   -3.0644922    2834.0975  0.055388085  0.054369638            6 
 4265000   0.56934039   -3.0607954    2824.3702  0.055185037  0.054358181            6 
 4266000   0.56979933   -3.0650939    2827.0109  0.055223685  0.054346813            6 
 4267000   0.56469972   -3.0475277    2835.1173   0.05536906  0.054335417            6 
 4268000   0.57012422    -3.083518    2828.5873  0.055228587  0.054323967            9 
 4269000   0.56331471   -3.0533685     2827.081  0.055186247  0.054312498            8 
 4270000   0.56692057    -3.053854    2826.4835  0.055161661  0.054301044            8 
 4271000   0.55762896   -3.0690652    2827.7693  0.055173833  0.054289562           18 
 4272000   0.56857958   -3.0723679    2826.9518  0.055144971  0.054278128            4 
 4273000   0.57151549   -3.0680241    2829.9752   0.05519103  0.054266744           16 
 4274000   0.57280254   -3.0745913    2825.4696  0.055090267  0.054255329           16 
 4275000   0.57932692    -3.073945    2820.9727  0.054989722  0.054243876            7 
 4276000   0.55562251   -3.0620415    2828.2967  0.055119596  0.054232459            7 
 4277000   0.57274129   -3.0536262    2825.3713   0.05504971  0.054220997           10 
 4278000   0.57531279   -3.0706077    2826.7234   0.05506318  0.054209555            5 
 4279000    0.5586321   -3.0569267    2826.1597  0.055039334  0.054198073           13 
 4280000   0.57298254   -3.0741931    2835.6783  0.055211805  0.054186659            6 
 4281000    0.5834658   -3.0505609    2826.4776  0.055019809  0.054175209            9 
 4282000   0.55322889   -3.0736331    2834.8377  0.055169658  0.054163783           14 
 4283000   0.57595746   -3.0527575    2838.1078  0.055220403  0.054152413           17 
 4284000   0.56632944   -3.0397852    2839.4766  0.055234139  0.054141026            7 
 4285000    0.5643116   -3.0602751    2829.5119  0.055027458   0.05412969            5 
 4286000   0.55720657    -3.079776    2834.6573  0.055114663  0.054118318            5 
 4287000   0.55912483   -3.0762448    2827.3539  0.054959837  0.054106888           18 
 4288000   0.56411351   -3.0422334     2832.467  0.055046389  0.054095474           12 
 4289000   0.56358782   -3.0753459      2829.48  0.054975518  0.054084028           19 
 4290000   0.56239519   -3.0648076    2833.2881  0.055036676  0.054072712           11 
 4291000   0.56910208   -3.0491668    2835.8103  0.055072833   0.05406134           10 
 4292000   0.56533236   -3.0622205    2839.3059  0.055127871  0.054050038            7 
 4293000   0.55662913   -3.0649465    2832.4154  0.054981275  0.054038651            5 
 4294000   0.56247923   -3.0541016    2834.8784  0.055016271  0.054027331           10 
 4295000   0.57339511   -3.0484524    2828.3149  0.054876113  0.054015984           10 
 4296000   0.56391976   -3.0528734    2839.0204  0.055071004  0.054004662            7 
 4297000   0.57559196   -3.0649782    2832.6625  0.054934886  0.053993279            8 
 4298000   0.57908612   -3.0827716    2831.1757  0.054893278  0.053981927           17 
 4299000   0.56919463   -3.0620917    2833.4031  0.054923686  0.053970634            6 
 4300000   0.57096621   -3.0645219    2828.7435  0.054820611  0.053959305            9 
 4301000   0.56062231   -3.0676268    2826.4078   0.05476261  0.053947985           24 
 4302000   0.56286551   -3.0859985    2841.9505  0.055050955  0.053936655            6 
 4303000   0.56545431   -3.0594361    2832.4211  0.054853612  0.053925369           15 
 4304000   0.55940552   -3.0695053    2832.7152  0.054846562     0.053914            5 
 4305000    0.5555724   -3.0780005     2839.393  0.054963085  0.053902682            6 
 4306000    0.5635801   -3.0654074    2829.9825  0.054768201  0.053891326            8 
 4307000   0.55934695   -3.0812293     2842.374  0.054995241   0.05387997           13 
 4308000   0.56050359    -3.056566    2832.7522  0.054796351   0.05386861           10 
 4309000   0.55767921   -3.0771669    2839.7838  0.054919621  0.053857259           11 
 4310000     0.554594   -3.0674017    2829.8839  0.054715465  0.053845876           16 
 4311000   0.55797806   -3.0643904    2827.1276  0.054649494  0.053834504           11 
 4312000   0.57048896   -3.0634899    2838.4609  0.054855845  0.053823191            3 
 4313000   0.56698422   -3.0621734    2837.0503  0.054815872  0.053811874            8 
 4314000   0.55499686   -3.0832775    2831.6277  0.054698419  0.053800498            5 
 4315000   0.56912845   -3.0674852    2834.6634  0.054744369  0.053789128            5 
 4316000   0.55779635   -3.0679625     2832.074  0.054681687  0.053777794           16 
 4317000   0.54892362   -3.0852423    2834.8589  0.054722781  0.053766399            6 
 4318000   0.55740976    -3.079682     2837.037  0.054752143     0.053755            8 
 4319000    0.5651781   -3.0712353    2824.8768  0.054504839   0.05374363            4 
 4320000   0.55676196   -3.0703205    2837.1169  0.054728334  0.053732327            5 
 4321000   0.56435001   -3.0769435    2835.4089  0.054682729  0.053721022            9 
 4322000     0.572929   -3.0670445    2833.5547  0.054634326   0.05370966           11 
 4323000   0.57109218   -3.0837158    2834.7634  0.054644988  0.053698344            4 
 4324000   0.55825975   -3.0634308    2829.3359  0.054527751  0.053686934            7 
 4325000   0.56816931   -3.0778638    2839.5204  0.054711376  0.053675567            9 
 4326000   0.55007526   -3.0720703    2839.9265  0.054706551   0.05366426            4 
 4327000   0.55646501    -3.075647    2840.1071  0.054697387  0.053652924            8 
 4328000    0.5761841   -3.0837017    2834.6012  0.054578736  0.053641608           13 
 4329000   0.56257969   -3.0811676    2839.6398   0.05466312  0.053630247           11 
 4330000   0.56002998   -3.0724536    2837.6711  0.054612607  0.053618833            4 
 4331000   0.55174091   -3.0559181    2840.5669  0.054655716  0.053607506            5 
 4332000   0.56256288   -3.0763993    2839.1889  0.054616591   0.05359618           10 
 4333000   0.56298099   -3.0671769    2837.5998  0.054573424  0.053584845           12 
 4334000    0.5721094   -3.0879961    2833.3322  0.054478777   0.05357356            4 
 4335000   0.56400085   -3.0885193    2838.8727  0.054572717   0.05356221            5 
 4336000   0.55253037   -3.0843306    2842.6238  0.054632222  0.053550893           15 
 4337000   0.55953602   -3.0957732    2828.8868  0.054355676  0.053539528           21 
 4338000   0.55146174   -3.0941134    2832.2133  0.054407048  0.053528161            7 
 4339000   0.56985031   -3.0895956    2837.0296   0.05448701  0.053516756            7 
 4340000   0.56185738   -3.0921436    2832.6008  0.054389417  0.053505487            7 
 4341000   0.54904322   -3.0700862    2834.7182  0.054417534   0.05349422            6 
 4342000   0.56805748   -3.0752628    2841.4021  0.054533282  0.053482979            9 
 4343000   0.54843004   -3.0753726    2844.8723  0.054587311  0.053471734            6 
 4344000   0.55998731   -3.0704322    2835.6207  0.054397266  0.053460504           10 
 4345000   0.56212091   -3.0691304     2840.328  0.054475029  0.053449269            6 
 4346000   0.55906387   -3.0986378    2838.3174  0.054423942  0.053437904            9 
 4347000   0.55288199   -3.1036996    2834.5172   0.05433857  0.053426543           16 
 4348000   0.56280696   -3.0932387    2840.4021  0.054438863  0.053415278            6 
 4349000   0.54561965   -3.0711325    2840.6799  0.054431668  0.053404031            8 
 4350000   0.55441019   -3.0936914    2844.8112  0.054498298  0.053392728            7 
 4351000   0.56729545    -3.067479    2838.7443  0.054369575  0.053381472           20 
 4352000   0.56392481    -3.085377    2843.0039  0.054438646  0.053370256           13 
 4353000   0.54262316   -3.0764236    2844.8337   0.05446117  0.053359008            8 
 4354000   0.56978099   -3.0796391    2836.7859  0.054294631  0.053347797            5 
 4355000   0.55798453   -3.0743992    2842.7012  0.054395354  0.053336613            8 
 4356000   0.54065414    -3.068803    2841.8598   0.05436677  0.053325367            9 
 4357000   0.56427104    -3.083025    2839.6391  0.054311818  0.053314076            6 
 4358000   0.55570164    -3.099019    2844.1929  0.054386433  0.053302799           15 
 4359000   0.56080342   -3.0890748    2838.4167  0.054263529  0.053291446            4 
 4360000   0.54611214   -3.0941481    2841.3317  0.054306798  0.053280164            5 
 4361000   0.54978235   -3.0704266    2841.6958  0.054301302  0.053268909            6 
 4362000   0.56737722   -3.0758268    2846.1959  0.054374825  0.053257656           16 
 4363000   0.54808032   -3.0937359    2840.7771  0.054258864   0.05324641            5 
 4364000   0.54049815   -3.0765365     2843.843  0.054304976  0.053235072           10 
 4365000   0.55410362   -3.0968506     2846.361  0.054340606  0.053223786            9 
 4366000    0.5546147   -3.0955717     2848.159  0.054362479  0.053212529            6 
 4367000   0.55655158   -3.0828923    2840.0755  0.054195778   0.05320129            7 
 4368000   0.53772899    -3.085542    2841.5549  0.054211594  0.053190009           19 
 4369000   0.54995097   -3.0863321    2840.0506  0.054170494  0.053178766           14 
 4370000   0.55750775   -3.0884154    2838.6097  0.054130619  0.053167459           10 
 4371000   0.54258972   -3.0860248    2843.3665  0.054208923  0.053156225            8 
 4372000   0.54291644   -3.0805104    2841.7773  0.054166234  0.053144918           15 
 4373000   0.55508916   -3.0828045    2842.1677  0.054161287  0.053133684            7 
 4374000   0.55380697   -3.1037782    2842.5097   0.05415542  0.053122369           10 
 4375000   0.55756263   -3.0840992    2847.1668  0.054231749  0.053111051            6 
 4376000   0.55438181   -3.0854232    2837.5176  0.054035604  0.053099768            6 
 4377000   0.55436748   -3.1176255    2836.6795  0.054007301  0.053088506           11 
 4378000   0.53512855   -3.0929257    2836.3827  0.053989316  0.053077159           10 
 4379000   0.55839998   -3.0733042    2841.4834  0.054074053  0.053065872           10 
 4380000   0.54280558   -3.0754958    2833.2289  0.053904659  0.053054596           14 
 4381000   0.54154489   -3.0829813    2843.3834   0.05408551  0.053043362            8 
 4382000   0.55243163   -3.1021587    2845.6308  0.054115905  0.053032059           16 
 4383000    0.5649038   -3.0816856    2834.2399  0.053886986  0.053020754            8 
 4384000   0.54346278   -3.0891151    2845.5166  0.054089047  0.053009512            7 
 4385000   0.55331097   -3.0885135    2841.4228  0.053998914  0.052998239            9 
 4386000   0.55358756     -3.10371    2840.0438  0.053960401  0.052987029           10 
 4387000   0.55405631   -3.1036608    2845.6262   0.05405414  0.052975781           12 
 4388000   0.54532892   -3.1036041    2848.5543   0.05409743   0.05296444           11 
 4389000   0.55033175    -3.094478    2839.1856  0.053907223  0.052953116            9 
 4390000   0.54889853   -3.0960032    2837.9706   0.05387188  0.052941813            8 
 4391000   0.55121335   -3.1032545    2842.2743  0.053941287  0.052930596           15 
 4392000   0.55440971   -3.1054909    2845.1779  0.053984098  0.052919303           10 
 4393000   0.55004027   -3.0978978    2836.7429  0.053811801  0.052908039           16 
 4394000   0.55307428   -3.0850024    2844.2698  0.053942303   0.05289678            5 
 4395000   0.56121649   -3.0828802    2850.5618  0.054049333  0.052885556           11 
 4396000   0.54713544    -3.071697    2839.0027  0.053817916  0.052874328            8 
 4397000   0.53938041   -3.1008783    2842.0916  0.053864218  0.052863064            8 
 4398000   0.55691307   -3.0859302    2842.0976  0.053852085  0.052851781           16 
 4399000   0.55159996   -3.0932941    2845.3966  0.053902337  0.052840522           15 
 4400000   0.55869292   -3.0970143    2841.7845  0.053821677  0.052829215            9 
 4401000   0.54337181   -3.0985421    2853.6643  0.054034392  0.052817976           12 
 4402000   0.53845442    -3.114078    2842.8768    0.0538179  0.052806771           29 
 4403000   0.54179115   -3.0976878    2834.5876  0.053648792  0.052795517           11 
 4404000   0.54709553    -3.113739    2841.0868  0.053759589  0.052784237            7 
 4405000   0.54748463   -3.1067676    2841.1977  0.053749483  0.052772922           12 
 4406000   0.54114945    -3.094155    2842.4056   0.05376013  0.052761712            5 
 4407000    0.5447066   -3.0899346    2849.5991  0.053883956  0.052750447           10 
 4408000   0.55303336   -3.0995991    2847.4612  0.053831315  0.052739199           11 
 4409000   0.54063009   -3.1099127     2848.008  0.053829439  0.052727913           10 
 4410000   0.55496552   -3.1086996    2838.0841  0.053629708  0.052716723            9 
 4411000     0.558217   -3.1063108    2846.5331   0.05377717    0.0527055           32 
 4412000   0.54451415   -3.0968549    2840.1053  0.053643573   0.05269434           17 
 4413000   0.54836941   -3.1007505    2841.9901  0.053667009   0.05268306            8 
 4414000   0.54676946   -3.1036145     2846.335  0.053736878  0.052671868           26 
 4415000   0.53708663   -3.1138212    2845.5946  0.053710732  0.052660658           10 
 4416000   0.55314309   -3.1214419    2846.0158  0.053706518  0.052649419           19 
 4417000   0.54165789   -3.0966065    2848.8209  0.053747282  0.052638217            7 
 4418000    0.5392127    -3.094605    2849.4846  0.053747635  0.052627031            9 
 4419000    0.5398013   -3.1110661    2851.9294  0.053781576  0.052615853            7 
 4420000   0.53653534   -3.0836815    2848.0954  0.053697124  0.052604677           22 
 4421000   0.54703037   -3.1068244    2848.5592   0.05369372  0.052593538            8 
 4422000   0.54892028   -3.0901428    2850.9482  0.053726598  0.052582408           10 
 4423000   0.54371092   -3.1028105    2846.7824  0.053635964  0.052571258            6 
 4424000   0.54283418   -3.0916201    2852.9797  0.053740576  0.052560103            5 
 4425000   0.53100531   -3.1029091     2848.986   0.05365322  0.052548962           17 
 4426000   0.54286669   -3.0908124    2846.9959  0.053603629  0.052537777            6 
 4427000   0.54445209   -3.1125621    2844.3925  0.053542514  0.052526523            7 
 4428000   0.53272436   -3.1037078    2849.5628  0.053627725  0.052515342           11 
 4429000   0.54676065   -3.1048859    2839.7459  0.053430909  0.052504136            7 
 4430000   0.55214126   -3.1085036    2839.9487  0.053422661  0.052492911           12 
 4431000   0.54098589   -3.1066362    2850.5615    0.0536102  0.052481686           16 
 4432000   0.55056107   -3.1049507    2851.9613  0.053624423  0.052470546            9 
 4433000   0.54111195   -3.1074276    2846.2182  0.053504365  0.052459382           10 
 4434000   0.55260774   -3.0984919    2843.5234  0.053441652  0.052448181            5 
 4435000    0.5421019   -3.0958691    2844.1449  0.053441279  0.052437003            5 
 4436000   0.53809982   -3.1052057    2853.8021  0.053610649  0.052425893           10 
 4437000   0.55038736   -3.1129179    2842.3471  0.053383425  0.052414719           12 
 4438000   0.52855208   -3.1100892    2845.6065  0.053432599  0.052403514            6 
 4439000   0.53575092   -3.1125073    2850.2544  0.053507816  0.052392352            7 
 4440000   0.54918549   -3.1002981    2844.9852  0.053396869  0.052381164           12 
 4441000    0.5386107   -3.0880021    2853.0195  0.053535606  0.052369962            5 
 4442000   0.54111679   -3.1070783    2845.0847  0.053374695  0.052358774            7 
 4443000   0.53340608   -3.1034042    2842.2979  0.053310411  0.052347525            8 
 4444000   0.54837013   -3.0973265    2840.8819  0.053271863  0.052336357            8 
 4445000   0.53471323   -3.1186351    2849.6009  0.053423339   0.05232513           14 
 4446000   0.54610348     -3.11643    2848.5439  0.053391511   0.05231388           11 
 4447000    0.5310216   -3.1034688    2849.8191  0.053403401  0.052302693            4 
 4448000    0.5409667   -3.1082864    2851.2786   0.05341874  0.052291532            9 
 4449000   0.53588765   -3.1127389    2846.1107  0.053309933  0.052280367            5 
 4450000   0.55044348   -3.1032988     2847.632  0.053326442  0.052269127           15 
 4451000   0.54864635   -3.1190235    2841.0198  0.053190666  0.052257902            7 
 4452000   0.52229379   -3.1269815    2842.0002  0.053197069  0.052246657           11 
 4453000   0.53650049    -3.114483    2839.3729  0.053135956  0.052235429           20 
 4454000   0.52750274   -3.0965711    2847.3876  0.053273978  0.052224233           11 
 4455000   0.53904659   -3.0903149    2846.5665  0.053246661  0.052213038            9 
 4456000   0.54446836    -3.108641    2852.4473  0.053344691  0.052201863           10 
 4457000   0.55591725   -3.1197854    2837.6564  0.053056174  0.052190629           14 
 4458000   0.53855695   -3.0964803    2855.3162  0.053374387  0.052179407           12 
 4459000    0.5442752   -3.0845244    2852.7297  0.053314079  0.052168254            5 
 4460000   0.53439682   -3.1032224    2840.7012  0.053077376  0.052157019           10 
 4461000    0.5304394   -3.0923174    2850.9964  0.053257797  0.052145771            4 
 4462000   0.54218241   -3.0990053    2847.0171  0.053171544  0.052134567            9 
 4463000   0.53277624   -3.0925636    2852.3904  0.053259959   0.05212338            7 
 4464000   0.53944734   -3.1091332    2849.5749   0.05319547  0.052112197           11 
 4465000   0.53861709   -3.1117111     2844.854  0.053095446  0.052100994           20 
 4466000   0.52921146   -3.1063557    2845.0027  0.053086331  0.052089786           15 
 4467000    0.5344687    -3.121226    2849.4608  0.053157616  0.052078578           11 
 4468000   0.54621896   -3.1071327    2846.9124  0.053098187   0.05206731            8 
 4469000   0.53250254   -3.1148514    2860.0053  0.053330448  0.052056137            8 
 4470000   0.53637829   -3.1267111    2845.2866   0.05304412  0.052044944            3 
 4471000   0.53873994   -3.1132107    2840.6703  0.052946214  0.052033746           12 
 4472000   0.52879868   -3.1040986    2850.0418  0.053109009  0.052022557           21 
 4473000   0.54010102    -3.116554    2840.9715  0.052928153  0.052011368            9 
 4474000   0.52206713   -3.1138995    2845.6284  0.053003063  0.052000182            9 
 4475000   0.53467032   -3.1132458    2853.9946  0.053147013  0.051989025            9 
 4476000   0.54571605   -3.1177281    2851.8673  0.053095533  0.051977844           10 
 4477000   0.53444938   -3.1104872    2851.3618  0.053074264  0.051966669           10 
 4478000   0.54538775   -3.1142854    2846.7453  0.052976503  0.051955471           15 
 4479000   0.53731922   -3.1234092    2845.7757  0.052946634   0.05194424           11 
 4480000   0.54560515   -3.1140936    2853.5077   0.05307864  0.051933079            9 
 4481000   0.52601705   -3.1132368    2855.6651  0.053106916   0.05192198            9 
 4482000   0.54062282    -3.130401    2847.2429  0.052938474  0.051910884            9 
 4483000   0.52853678   -3.1101465    2852.9231  0.053032254  0.051899783           12 
 4484000   0.53240262   -3.1207009    2846.1308  0.052894194    0.0518887           11 
 4485000   0.53473029   -3.1001803      2848.01  0.052917317  0.051877578            6 
 4486000   0.52838587   -3.1116426    2849.3168  0.052929797  0.051866406           15 
 4487000   0.54324838   -3.1264559    2847.8308  0.052890402  0.051855215           25 
 4488000   0.53548255   -3.1156639    2847.1874   0.05286667  0.051844022           11 
 4489000   0.54611985   -3.1265442    2846.2138   0.05283682  0.051832841           11 
 4490000    0.5283392   -3.1229506    2843.3416  0.052771745  0.051821673           12 
 4491000   0.53726131   -3.1214885    2854.6604  0.052970022  0.051810476            7 
 4492000   0.54368224   -3.1086166    2854.2241  0.052950136  0.051799283           15 
 4493000   0.54028775   -3.1251495    2843.3515  0.052736692   0.05178806            8 
 4494000   0.52386903   -3.1185177     2849.199  0.052833389  0.051776859           10 
 4495000   0.53976248   -3.1145775    2855.7731  0.052943513  0.051765666           13 
 4496000   0.52674194   -3.1181232    2855.7254  0.052930853  0.051754495            6 
 4497000   0.52915304   -3.1127654    2852.6552   0.05286219  0.051743309            5 
 4498000   0.53031976   -3.1313089    2848.2114  0.052768108   0.05173216           10 
 4499000   0.53308446   -3.1229918    2855.5215  0.052891781   0.05172099            6 
 4500000    0.5382011   -3.1218915    2853.9531  0.052850984  0.051709855           10 
 4501000   0.54112775   -3.1272432     2856.248   0.05288173  0.051698727           11 
 4502000   0.53345029   -3.1157384     2847.961  0.052716589  0.051687575           10 
 4503000   0.53908279    -3.124643    2848.8622  0.052721559  0.051676356           10 
 4504000   0.54245315   -3.1266146    2850.1399  0.052733495  0.051665182           13 
 4505000   0.52533643   -3.1210836     2845.534  0.052636588  0.051653973            5 
 4506000   0.52979924   -3.1096334    2848.3192  0.052676417  0.051642777            8 
 4507000   0.52306968   -3.1416796    2849.9008  0.052693973  0.051631576           14 
 4508000   0.53903035   -3.1137703     2849.521  0.052675263  0.051620415            6 
 4509000   0.53210566   -3.1414946    2844.6115  0.052572845  0.051609218           15 
 4510000   0.52083473    -3.122704    2841.0128  0.052494693  0.051598025            9 
 4511000   0.53480313   -3.1224205    2847.7063  0.052606707  0.051586837           10 
 4512000   0.52976245   -3.1338869    2849.6273  0.052630527  0.051575622            5 
 4513000   0.52313501   -3.1156798    2851.0865  0.052645811  0.051564485            7 
 4514000   0.53413519   -3.1187485    2849.2391  0.052600043  0.051553366           10 
 4515000   0.52508294   -3.1145639    2858.2729   0.05275513  0.051542224            9 
 4516000   0.53384485   -3.1291132    2854.5798  0.052675299  0.051531105           27 
 4517000   0.52423352   -3.1237648     2853.789  0.052649047   0.05151998            7 
 4518000   0.52157156   -3.1353161    2852.6847  0.052617026  0.051508832            8 
 4519000   0.53166097   -3.1155825    2855.1766  0.052651334  0.051497725           17 
 4520000   0.54668713   -3.1089364    2855.3659  0.052643176  0.051486645            9 
 4521000   0.53396684    -3.136395    2849.1336  0.052516656  0.051475523           12 
 4522000   0.53425565   -3.1251155    2851.7115  0.052552548  0.051464363           26 
 4523000   0.52185028   -3.1247823    2852.3618  0.052552912  0.051453293           13 
 4524000   0.54121812   -3.1258019    2848.5353  0.052470809  0.051442138           13 
 4525000   0.53498215   -3.1207353    2854.9645  0.052577616  0.051431001           11 
 4526000   0.52221547   -3.1260696    2860.9137  0.052675535  0.051419911           15 
 4527000   0.52252637    -3.098699    2856.7607  0.052587451  0.051408891            5 
 4528000   0.52203015   -3.1101849    2853.1633  0.052509631  0.051397829            8 
 4529000   0.53741048   -3.1380864    2850.1887  0.052443305  0.051386709           11 
 4530000   0.52259402   -3.1240571    2856.0492  0.052539537  0.051375592            9 
 4531000   0.51528173   -3.1245795    2855.8839  0.052524901  0.051364537            9 
 4532000   0.52222131    -3.131145    2858.7598  0.052566192  0.051353483           13 
 4533000   0.53309853   -3.1227844    2857.3321   0.05252835  0.051342377            9 
 4534000   0.53148557   -3.1180313    2852.6114      0.05243  0.051331325           13 
 4535000   0.53208788   -3.1387283    2853.0029  0.052425632   0.05132024           15 
 4536000   0.52131524   -3.1326248    2851.2638  0.052382124  0.051309147            4 
 4537000   0.53532262   -3.1344307    2845.8811  0.052271713  0.051298051           20 
 4538000   0.52814046   -3.1160455    2856.9665  0.052463759  0.051286929           11 
 4539000   0.53519737   -3.1168368    2856.1326  0.052436892  0.051275877            5 
 4540000   0.53879689   -3.1362179    2845.0749  0.052222374  0.051264828            9 
 4541000    0.5239193   -3.1300753    2850.9019  0.052317806  0.051253745            9 
 4542000   0.51938021   -3.1474839    2853.1301  0.052347169   0.05124267           14 
 4543000   0.52742097   -3.1399355    2857.3183  0.052412472   0.05123155           17 
 4544000   0.52373848   -3.1213506    2851.5933  0.052295945  0.051220523            8 
 4545000   0.52873363   -3.1310479    2859.7649  0.052434266  0.051209477            8 
 4546000   0.52516471   -3.1429006    2848.3686  0.052213825  0.051198375           10 
 4547000   0.51812594   -3.1444826      2857.14  0.052363097   0.05118732           22 
 4548000   0.51922513    -3.131225    2855.0537  0.052313357  0.051176292            8 
 4549000   0.53483264   -3.1162307    2853.8355  0.052279539  0.051165264            7 
 4550000   0.52378563   -3.1404993    2863.6544  0.052447882  0.051154237            7 
 4551000   0.52747648    -3.129597     2856.127  0.052298524  0.051143218           17 
 4552000   0.52095144    -3.103262    2854.1811  0.052251411  0.051132215            6 
 4553000   0.53510654   -3.1379041    2855.6235  0.052266335  0.051121208           16 
 4554000   0.52494955    -3.137802    2860.2044  0.052338684   0.05111017            4 
 4555000   0.52965323   -3.1245797    2856.5463  0.052260269  0.051099103           20 
 4556000   0.50944606   -3.1392602    2858.9845  0.052293396   0.05108805            9 
 4557000   0.53293041   -3.1256929    2853.6129   0.05218369  0.051076979           10 
 4558000   0.52454208   -3.1468031    2856.3903  0.052223019  0.051065915           18 
 4559000   0.52286542   -3.1459452    2858.7412  0.052254538  0.051054877           19 
 4560000   0.51834245   -3.1464352     2847.552  0.052038596  0.051043827           14 
 4561000   0.52195782   -3.1297225    2851.2627  0.052094984  0.051032717           20 
 4562000   0.53814658   -3.1320124    2850.7949  0.052075021  0.051021606           16 
 4563000    0.5284331   -3.1327813    2857.9088  0.052193528  0.051010571           12 
 4564000   0.52519738    -3.134326    2858.2201  0.052187776  0.050999492            6 
 4565000    0.5259672    -3.128065    2856.2645  0.052140645  0.050988456           12 
 4566000    0.5182831   -3.1343115    2854.2953  0.052093285  0.050977379            8 
 4567000   0.52663799    -3.140264    2853.6601  0.052070289   0.05096635           10 
 4568000   0.54031918    -3.145534    2857.3978  0.052127076  0.050955325           18 
 4569000   0.52729898   -3.1452377    2861.2274  0.052185514  0.050944223           18 
 4570000    0.5363138   -3.1348113    2857.4139  0.052104557  0.050933192           11 
 4571000    0.5118596   -3.1397099    2853.4052  0.052020075  0.050922174            7 
 4572000   0.53189059   -3.1433454    2853.7247  0.052014521  0.050911077           11 
 4573000    0.5159408   -3.1386899    2851.6379   0.05196512  0.050899983           35 
 4574000    0.5200691    -3.145949    2862.9667  0.052160158  0.050888973           15 
 4575000   0.51613124   -3.1478173     2848.643   0.05188785   0.05087795           28 
 4576000   0.53188373   -3.1303016    2859.3891  0.052072208  0.050866864           11 
 4577000   0.52567055   -3.1151152    2851.6013  0.051919039  0.050855826            8 
 4578000   0.52315571   -3.1398134    2858.4649  0.052032635   0.05084474           11 
 4579000   0.52618694   -3.1486799    2851.8892  0.051901601  0.050833657           15 
 4580000   0.51527466   -3.1453302    2859.5092  0.052028916  0.050822638            8 
 4581000   0.51178869   -3.1492073    2857.5905  0.051982655  0.050811584           10 
 4582000   0.51092644   -3.1452916    2856.4323  0.051950246  0.050800523            7 
 4583000   0.51964652   -3.1593186    2855.0209  0.051913246  0.050789462           19 
 4584000   0.52444801   -3.1594893    2850.0004  0.051810653  0.050778331           11 
 4585000   0.51612707   -3.1259389      2857.89  0.051942748  0.050767264            6 
 4586000   0.51828415   -3.1445869    2855.9417  0.051896019  0.050756253           11 
 4587000   0.50565498   -3.1391777    2853.3488  0.051837599  0.050745236            6 
 4588000   0.51085511   -3.1648498    2856.9396  0.051891521   0.05073421           22 
 4589000   0.52751279   -3.1487264    2852.5063  0.051799707  0.050723199           21 
 4590000   0.52412575   -3.1631804    2855.2704  0.051838605  0.050712141            8 
 4591000   0.51347391   -3.1509402    2854.3667   0.05181091  0.050701103           17 
 4592000   0.53044895    -3.158658     2848.492  0.051693017  0.050690057           17 
 4593000   0.51420361   -3.1307729    2857.1037  0.051838009  0.050679014            8 
 4594000   0.51036757   -3.1528459    2859.5242  0.051870631  0.050668077            9 
 4595000   0.51884745   -3.1447001    2851.8434  0.051720047  0.050657071            9 
 4596000    0.5127246   -3.1517929    2862.5246  0.051902462  0.050646025           12 
 4597000   0.51412442   -3.1462215    2855.8099   0.05176945  0.050635036           13 
 4598000   0.50754215   -3.1336983    2860.9225  0.051850851  0.050624053            6 
 4599000   0.50879666   -3.1368444    2860.1469  0.051825522  0.050613058           32 
 4600000   0.50981696   -3.1538969    2850.5914  0.051641149  0.050601983           13 
 4601000   0.51831898   -3.1436922    2853.5093  0.051682774  0.050590956           13 
 4602000   0.50244587   -3.1358597    2855.7434  0.051711999  0.050579955           11 
 4603000   0.51024243   -3.1567487    2862.0559  0.051815046  0.050568936           15 
 4604000   0.51835207   -3.1410987    2860.1013  0.051768413  0.050557917            8 
 4605000   0.51567873   -3.1436916    2855.2006  0.051668487  0.050546943           11 
 4606000   0.50970718    -3.125263    2855.2543  0.051658241  0.050535874           22 
 4607000   0.52587716   -3.1408317    2859.6431  0.051726415  0.050524884            9 
 4608000   0.51844602   -3.1397722    2855.2382  0.051635529  0.050513895           30 
 4609000   0.51000478   -3.1476662     2853.733  0.051597111  0.050502914           14 
 4610000   0.51916857   -3.1465744    2852.9532  0.051571822  0.050491907           21 
 4611000   0.51187919   -3.1472119    2853.7034  0.051574196  0.050480895           18 
 4612000    0.5277782   -3.1562632    2852.3978  0.051539423  0.050469835            9 
 4613000   0.51749123   -3.1446766    2854.8958  0.051573377  0.050458834           24 
 4614000   0.51513636   -3.1533337    2852.8933  0.051526031  0.050447803            8 
 4615000   0.50070077   -3.1405916    2857.8085   0.05160362  0.050436773           10 
 4616000   0.52246299   -3.1695853    2856.2588  0.051564464  0.050425785           15 
 4617000    0.5273235   -3.1405474    2855.8034  0.051545077  0.050414706           18 
 4618000   0.51917713   -3.1538193    2855.8362  0.051534506  0.050403644           13 
 4619000   0.51249158   -3.1492024    2859.1113  0.051582437  0.050392587           13 
 4620000   0.51329505   -3.1497229    2855.7871  0.051511311  0.050381585           24 
 4621000    0.5061833   -3.1421294    2857.5596  0.051532128  0.050370499           20 
 4622000   0.51413615   -3.1478194    2856.4108  0.051500268  0.050359513           11 
 4623000   0.51062055   -3.1516465     2856.134  0.051484137  0.050348536           30 
 4624000   0.50139735   -3.1650915    2858.9163  0.051523145  0.050337533           14 
 4625000   0.51490522   -3.1553484    2865.4472   0.05162968  0.050326538           10 
 4626000   0.52328688   -3.1577083    2860.6643  0.051532358  0.050315556            6 
 4627000   0.52134713   -3.1516952    2852.2745  0.051370119  0.050304616           36 
 4628000   0.51173122   -3.1685777    2849.6595  0.051311933  0.050293628           13 
 4629000    0.5122162   -3.1550131    2859.4393  0.051476908  0.050282646           11 
 4630000   0.51446337   -3.1455469    2856.6029  0.051414738  0.050271646           13 
 4631000   0.51833573   -3.1547684     2853.225  0.051342852  0.050260638           12 
 4632000   0.51367006    -3.154064    2857.0356  0.051400325   0.05024968           13 
 4633000   0.51581467   -3.1561392    2855.3622  0.051359129  0.050238713           14 
 4634000    0.5163001   -3.1491453    2864.4261  0.051511044  0.050227713           10 
 4635000   0.51288566   -3.1575645     2859.041  0.051403111  0.050216751           14 
 4636000   0.50677836   -3.1706853    2860.0121  0.051409478  0.050205798           24 
 4637000   0.50075463   -3.1423385    2859.6115  0.051391192  0.050194795           16 
 4638000   0.52128853   -3.1602159    2853.5922   0.05127196   0.05018386           18 
 4639000   0.50601109   -3.1559094    2852.8936  0.051248357  0.050172854           16 
 4640000   0.51379417   -3.1596075    2859.2484  0.051351444  0.050161858            9 
 4641000   0.49784503   -3.1714145    2858.3237  0.051323776  0.050150855            9 
 4642000   0.50722828    -3.161919     2858.347  0.051313137  0.050139807            9 
 4643000   0.52161783   -3.1453685    2852.1604  0.051191047  0.050128855           22 
 4644000   0.51121149   -3.1576677     2856.998  0.051266831  0.050117864           11 
 4645000   0.49554826   -3.1639182    2854.8173  0.051216672  0.050106843           12 
 4646000   0.51893967   -3.1450158    2854.9929  0.051208799  0.050095841           10 
 4647000   0.50039297   -3.1602903    2856.8869  0.051231743  0.050084783           22 
 4648000   0.50591444   -3.1492768    2853.8747  0.051166716  0.050073805            9 
 4649000   0.50570474    -3.170811    2862.6987   0.05131388  0.050062825           12 
 4650000    0.5105275   -3.1638999    2854.6876  0.051159276  0.050051829            7 
 4651000   0.51349934   -3.1783067    2861.3261   0.05126722  0.050040859            5 
 4652000   0.50768784   -3.1797564     2859.155  0.051217308  0.050029875           23 
 4653000   0.50181151   -3.1487652    2863.0388  0.051275858  0.050018875            9 
 4654000   0.51604399   -3.1708768    2859.4962  0.051201408  0.050007828            9 
 4655000   0.50385327   -3.1506429    2858.4691   0.05117202  0.049996869           14 
 4656000    0.5029754   -3.1755182    2858.0106  0.051152825  0.049985824           12 
 4657000   0.50471411   -3.1631087    2847.2591  0.050949451  0.049974826           12 
 4658000   0.50887413   -3.1658191    2861.7423  0.051197623   0.04996379           18 
 4659000   0.50442115   -3.1460337    2854.8419  0.051063208  0.049952799           10 
 4660000   0.50526832   -3.1591947    2859.3122  0.051132192  0.049941808           45 
 4661000   0.50550616   -3.1569919    2859.1551  0.051118414  0.049930791           27 
 4662000   0.50381132   -3.1514835    2861.0171  0.051140732  0.049919758           34 
 4663000    0.5089694   -3.1642344    2851.7525  0.050964195  0.049908733           14 
 4664000   0.50449492   -3.1675225    2860.0661   0.05110181  0.049897712           11 
 4665000   0.50519126   -3.1665338    2858.3196  0.051059658  0.049886676           12 
 4666000   0.51606329   -3.1845927    2856.0242  0.051007719  0.049875659           23 
 4667000   0.50725921   -3.1566183    2855.7226  0.050991404  0.049864615           15 
 4668000   0.50899953   -3.1609572    2858.3873  0.051028052   0.04985359           12 
 4669000   0.50137302    -3.162109    2855.9997  0.050974508  0.049842572           17 
 4670000   0.51362488   -3.1599848     2856.246  0.050967988  0.049831568           15 
 4671000   0.51186675   -3.1688729    2861.1293  0.051044197  0.049820556           25 
 4672000    0.5003909   -3.1701985    2851.7552  0.050866067  0.049809538           11 
 4673000   0.51343811   -3.1728396    2864.9121  0.051089808  0.049798503            8 
 4674000   0.50577749   -3.1691691    2853.8293  0.050881281  0.049787477            7 
 4675000   0.50824906   -3.1581699    2856.1663  0.050912055  0.049776469           23 
 4676000   0.49620453   -3.1630939    2857.1865  0.050919348  0.049765458           25 
 4677000   0.49491309   -3.1712749    2861.7584  0.050989922  0.049754459           10 
 4678000   0.50473017   -3.1778642    2859.7622  0.050943463  0.049743457           12 
 4679000   0.50647696   -3.1631938    2861.4764  0.050963105  0.049732474           23 
 4680000   0.51355654   -3.1679384    2853.4519  0.050809329   0.04972147            6 
 4681000    0.4944395    -3.187979    2853.5895  0.050800925   0.04971044           20 
 4682000   0.49861695   -3.1628308    2849.8858  0.050724153  0.049699391           11 
 4683000   0.50974613   -3.1722468     2852.675  0.050762954  0.049688347            7 
 4684000   0.49842904   -3.1816311    2861.4998  0.050909119  0.049677326           23 
 4685000   0.49872715   -3.1602192    2858.2258  0.050840017   0.04966635           10 
 4686000    0.5059684   -3.1629856    2852.7605  0.050731976  0.049655369           12 
 4687000   0.49584337   -3.1626891    2855.5474  0.050770702  0.049644396            8 
 4688000   0.50956572   -3.1635911    2857.1555  0.050788458  0.049633423           10 
 4689000   0.51333569   -3.1746128    2866.0029  0.050934863  0.049622477           13 
 4690000   0.50365302   -3.1712648    2855.8291  0.050743232  0.049611489           19 
 4691000   0.50536628   -3.1542833    2857.6089  0.050764032  0.049600487           13 
 4692000    0.5017782   -3.1677119    2853.6907  0.050683623  0.049589516           24 
 4693000    0.5048924   -3.1759682    2854.9867  0.050695836  0.049578502           15 
 4694000   0.50086744   -3.1638056    2860.7656   0.05078763  0.049567519           11 
 4695000   0.50326798   -3.1544855    2856.7718  0.050705925  0.049556547           13 
 4696000   0.50509666   -3.1721536    2863.1181  0.050807745  0.049545563           17 
 4697000   0.49878068   -3.1746899    2860.9688  0.050758796  0.049534571           13 
 4698000   0.50832198   -3.1702786    2855.3391  0.050648133  0.049523581           22 
 4699000   0.49714369   -3.1837118    2857.6762    0.0506788  0.049512555            8 
 4700000   0.49681892   -3.1933542    2857.4906  0.050664728  0.049501552           14 
 4701000   0.50440929   -3.1673342    2854.6085   0.05060286  0.049490554           10 
 4702000   0.49450529     -3.17832    2860.5352  0.050697136  0.049479555           14 
 4703000   0.49783691   -3.1656991    2852.9911   0.05055268  0.049468606            7 
 4704000   0.48957364   -3.1817613    2861.3075  0.050689262  0.049457584            8 
 4705000   0.50724663   -3.1761444    2853.9827  0.050548754  0.049446617           17 
 4706000   0.50291188   -3.1886833    2852.9133  0.050519077  0.049435643           13 
 4707000   0.50158585   -3.1850886    2854.7782   0.05054136  0.049424599           32 
 4708000   0.49733164   -3.1653699    2857.4389  0.050577721  0.049413578           10 
 4709000   0.49790648   -3.1798777    2856.3819  0.050548275  0.049402521           18 
 4710000   0.50165347     -3.17276    2858.2781  0.050571091  0.049391531           16 
 4711000   0.50616921   -3.1754178     2858.703  0.050567874  0.049380541           11 
 4712000   0.50654915   -3.1903276    2856.1457  0.050511915  0.049369566           14 
 4713000   0.49485959   -3.1793069     2857.789  0.050530254  0.049358554           25 
 4714000   0.50092569   -3.1739003    2857.5077  0.050514561  0.049347577           16 
 4715000    0.4838624   -3.1804259    2858.9668  0.050529636  0.049336609           15 
 4716000    0.4973433   -3.1671272    2857.1381  0.050486608  0.049325641           19 
 4717000   0.49566916   -3.1764244    2849.8784   0.05034765  0.049314699           10 
 4718000    0.4901054   -3.1834713    2859.3852  0.050504897  0.049303706           14 
 4719000   0.50841709   -3.1763552    2862.7572  0.050553739  0.049292736           37 
 4720000    0.4877216    -3.204263    2851.9419  0.050352082  0.049281732           13 
 4721000   0.50170932   -3.1959254     2862.129  0.050521235  0.049270683           31 
 4722000   0.48760948   -3.1590295    2858.7524  0.050450945  0.049259735           16 
 4723000   0.50324929   -3.1705219    2855.6585  0.050385675  0.049248794           12 
 4724000   0.49310938   -3.1776529    2853.1517  0.050330789  0.049237754           10 
 4725000   0.50664682   -3.1905776    2851.3608   0.05028855   0.04922671           17 
 4726000   0.49079041   -3.1871692    2851.9209  0.050287785   0.04921566           15 
 4727000   0.50709437   -3.1833243    2860.4817  0.050428067  0.049204626           21 
 4728000   0.50205066   -3.1863517    2854.2496  0.050307558  0.049193633           13 
 4729000   0.49669958   -3.1839792     2855.608  0.050320856  0.049182621           14 
 4730000   0.48582238   -3.1678356    2857.9644  0.050351733  0.049171683           24 
 4731000   0.49326118   -3.1838182    2851.5089  0.050227381   0.04916065           10 
 4732000   0.49621617    -3.192247    2852.6649  0.050237124  0.049149596            8 
 4733000   0.49146294   -3.1970633    2856.0068   0.05028535  0.049138551            8 
 4734000   0.50931697   -3.1705014    2861.2808  0.050367568  0.049127555           15 
 4735000   0.48688813   -3.1718156    2859.5334  0.050326178  0.049116657           10 
 4736000   0.49232804   -3.1833626    2857.9311  0.050287358  0.049105719            9 
 4737000   0.49625959   -3.1892996    2864.3109  0.050388974  0.049094793            7 
 4738000   0.49936445    -3.173191    2857.0248  0.050250191  0.049083794           14 
 4739000   0.50678651   -3.1861182    2858.3134  0.050262245  0.049072859            7 
 4740000   0.49019419   -3.1949723    2859.5228  0.050272904  0.049061903           13 
 4741000   0.48065068   -3.2073124    2860.4273  0.050278199  0.049050955           14 
 4742000   0.48571549   -3.1694955    2863.5014  0.050321618  0.049040005           22 
 4743000   0.49001125   -3.1796476    2857.9528  0.050213521  0.049029091           30 
 4744000   0.49114862   -3.1672415    2854.9635  0.050150427  0.049018207           10 
 4745000   0.49441702   -3.1971923    2862.8157  0.050277762  0.049007251           10 
 4746000   0.48604284   -3.1894198    2852.8494  0.050092173  0.048996308            9 
 4747000   0.48190024   -3.1905615    2858.3246  0.050177737  0.048985347            8 
 4748000   0.48519554   -3.1719816     2862.371  0.050238188  0.048974397            7 
 4749000   0.49695928   -3.1759655    2861.3211  0.050209186    0.0489635            8 
 4750000   0.49054291   -3.1969839    2859.1345  0.050160254  0.048952622           12 
 4751000   0.48895824   -3.1798077    2856.3949  0.050101643  0.048941667           15 
 4752000   0.48349679    -3.207631    2852.6108   0.05002474  0.048930703           27 
 4753000   0.51118735   -3.1902702    2853.6766  0.050032902  0.048919725            9 
 4754000   0.48631003   -3.1942134    2854.1711  0.050031045  0.048908826           22 
 4755000   0.48178477   -3.1879052    2858.3003   0.05009289  0.048897874           14 
 4756000   0.49623177   -3.1877826    2859.9085  0.050110536  0.048886941           13 
 4757000   0.48652182   -3.1960929    2864.8478  0.050186528  0.048875997           10 
 4758000   0.48983249   -3.1796439    2855.4646  0.050011639  0.048865046            9 
 4759000   0.48776565    -3.180839    2855.5297  0.050002271  0.048854116           19 
 4760000   0.48884562   -3.1848372    2853.8903  0.049963066    0.0488432           15 
 4761000   0.49584446   -3.1894807    2857.6313  0.050018051   0.04883231           22 
 4762000   0.48623101   -3.1904845    2859.4338  0.050039091   0.04882144           15 
 4763000   0.49254026   -3.1950767    2859.1855  0.050024241  0.048810514           25 
 4764000   0.49011956   -3.1940711    2860.5461  0.050037541  0.048799595           10 
 4765000   0.50385023   -3.1932706    2858.4193  0.049989845  0.048788692           20 
 4766000   0.48416526   -3.1914433    2856.4922  0.049945661  0.048777749            9 
 4767000   0.49399056   -3.1821098    2863.3659  0.050055344   0.04876687           20 
 4768000   0.49347648    -3.197575     2857.672  0.049945331  0.048755964           21 
 4769000   0.49166831   -3.1752296    2857.6056  0.049933697  0.048745061            9 
 4770000   0.48498974    -3.178069    2859.0004  0.049947596  0.048734178           15 
 4771000   0.49779053   -3.1955619    2858.3867  0.049926407  0.048723265           19 
 4772000   0.48325572   -3.1887453    2856.8937  0.049889873  0.048712335           26 
 4773000   0.47641061   -3.1878381    2857.9393  0.049897675  0.048701402           19 
 4774000   0.49277301   -3.1832008    2862.7993  0.049972059  0.048690521           19 
 4775000   0.48980875   -3.1812488    2859.7437  0.049908267  0.048679615           33 
 4776000   0.49514431   -3.1863338    2855.9091  0.049830909  0.048668694           17 
 4777000   0.49279156   -3.1782315    2853.2562    0.0497742   0.04865777           24 
 4778000   0.48633294   -3.1775074    2855.9604  0.049810945  0.048646853           16 
 4779000   0.48590386   -3.2016095    2857.6479  0.049829949  0.048635954           35 
 4780000   0.49653895   -3.1990623    2851.2761   0.04970844  0.048625005           20 
 4781000   0.49248726   -3.2109358    2861.1627  0.049870366  0.048614035           14 
 4782000   0.48661872   -3.1942771    2857.9398  0.049803774  0.048603077           17 
 4783000   0.50159561   -3.2221917     2855.376  0.049748693  0.048592141           13 
 4784000    0.4892189   -3.2129777    2862.2127  0.049857384  0.048581229           14 
 4785000   0.49193516   -3.1979714    2859.0552  0.049791975  0.048570335           17 
 4786000    0.4773063   -3.1891254    2858.7932  0.049777009  0.048559466            9 
 4787000   0.48363051   -3.2125505    2867.1411  0.049911933  0.048548572           14 
 4788000   0.49024765   -3.1973048    2858.4796  0.049750759  0.048537642           34 
 4789000   0.48910337     -3.20295    2857.1463   0.04971717  0.048526715           16 
 4790000   0.48877894   -3.2072983    2856.0863  0.049688348  0.048515721           27 
 4791000   0.48994003   -3.1790422    2854.3697   0.04964812  0.048504783           10 
 4792000   0.49141394   -3.1952805    2856.7251   0.04967872  0.048493889           26 
 4793000   0.48975138   -3.1990386      2855.66  0.049649837  0.048482981           16 
 4794000    0.4877138   -3.1996045    2861.3629  0.049738612  0.048472043           12 
 4795000   0.49023925   -3.1820681    2854.0911  0.049601862   0.04846113           12 
 4796000   0.47463896   -3.2223871    2853.4492  0.049580365  0.048450201           17 
 4797000    0.4778994   -3.1909625    2855.2888  0.049601987  0.048439306           22 
 4798000   0.48705483   -3.2073933    2856.1437  0.049606498  0.048428396            8 
 4799000   0.47582015   -3.2184672    2860.7919  0.049676876  0.048417485           18 
 4800000   0.48609643   -3.2267882    2861.2616   0.04967468  0.048406556           50 
 4801000   0.47843417   -3.1983535     2858.899  0.049623326  0.048395621           41 
 4802000   0.49117574   -3.1846055    2862.5488  0.049676329  0.048384732           28 
 4803000   0.48342891   -3.1880209    2856.9953  0.049569631  0.048373881           22 
 4804000   0.48671647   -3.1998569    2852.9866  0.049489775  0.048363018            7 
 4805000   0.48168592   -3.1926215    2858.6657  0.049577969  0.048352089           45 
 4806000   0.48527767   -3.2058447    2858.1917  0.049559435  0.048341191           24 
 4807000   0.48567729   -3.2054479    2856.8523  0.049525905  0.048330282           25 
 4808000   0.48483115   -3.1915685    2855.1059  0.049485335  0.048319422           20 
 4809000    0.4915998   -3.2027057    2863.7102  0.049624147  0.048308555           14 
 4810000   0.48737094   -3.1944855    2856.5761   0.04949023  0.048297724            6 
 4811000   0.48444997   -3.2044559    2857.8132  0.049501372  0.048286879           14 
 4812000   0.47775131   -3.1948656    2856.3597  0.049465913  0.048276038           12 
 4813000   0.47089203   -3.2110363    2850.8909  0.049360948  0.048265131           12 
 4814000   0.47894314   -3.1974347    2856.6641  0.049450632  0.048254216           21 
 4815000   0.47745596   -3.2052436    2858.0959  0.049465142  0.048243323           14 
 4816000   0.48268028   -3.1853662     2859.822  0.049484738  0.048232472           13 
 4817000   0.47983549   -3.2010284    2860.4809  0.049485865  0.048221639           25 
 4818000   0.48841282   -3.2024419     2861.993  0.049501747  0.048210741           13 
 4819000   0.47958549    -3.204152    2848.6589  0.049260893  0.048199883           12 
 4820000   0.48925614   -3.2079431    2859.0999  0.049431188  0.048189013           12 
 4821000   0.49141826   -3.2081219    2859.0992  0.049420923  0.048178132           20 
 4822000   0.48461296   -3.2122944     2847.783  0.049215108  0.048167259           10 
 4823000   0.47767507   -3.2117396    2864.3388   0.04949096  0.048156394           44 
 4824000   0.47126509   -3.2017207    2858.4217  0.049378484  0.048145543           14 
 4825000   0.48628488   -3.2196988    2854.4658  0.049299927  0.048134682           47 
 4826000   0.48176445   -3.2208187    2859.6308  0.049378899  0.048123796           12 
 4827000   0.47843065   -3.2227727    2859.1792  0.049360873  0.048112895           14 
 4828000   0.47378162   -3.2110185    2858.8361  0.049344728  0.048101989           48 
 4829000   0.47288646   -3.2238132    2852.7549  0.049229567  0.048091081           34 
 4830000   0.48521773   -3.1999824    2855.8534  0.049272832  0.048080161           14 
 4831000   0.48060604   -3.2139635    2860.4934  0.049342672  0.048069317           20 
 4832000   0.48592167   -3.2241564    2857.6958  0.049284213  0.048058412           15 
 4833000   0.48320772   -3.2179306     2852.103  0.049177581  0.048047525           28 
 4834000    0.4732178   -3.2240255    2856.8075  0.049248508  0.048036608           22 
 4835000   0.49330459   -3.2102852    2860.0925  0.049294942  0.048025708           11 
 4836000   0.48572702   -3.2340531    2854.5782  0.049189726  0.048014829           10 
 4837000   0.47180276   -3.2065805    2860.3932  0.049279739  0.048003938           25 
 4838000   0.46987732   -3.2147618    2854.7354  0.049172099  0.047993048           26 
 4839000   0.49178492   -3.2189459    2855.1899  0.049169764  0.047982169            8 
 4840000   0.47748467   -3.2124085    2856.2697  0.049178197  0.047971276           15 
 4841000   0.48411433   -3.2183964    2862.2785  0.049271475  0.047960402           10 
 4842000   0.47237658   -3.2175248    2857.9014  0.049185966  0.047949544            8 
 4843000   0.47996713   -3.2079064     2858.472  0.049185629  0.047938694           11 
 4844000   0.47118959   -3.2171802    2854.1647  0.049101375  0.047927785           10 
 4845000   0.48604587   -3.2152642    2859.5692  0.049184198  0.047916889           10 
 4846000   0.48281981   -3.2103742    2849.3549  0.048998399  0.047906009           16 
 4847000   0.47516181   -3.2076172     2855.808  0.049099237   0.04789513           23 
 4848000   0.47100254   -3.2299797    2855.5398  0.049084499  0.047884236           19 
 4849000   0.47996926    -3.211809    2849.6079  0.048972432  0.047873359           30 
 4850000   0.47486085   -3.2139137    2860.0564  0.049141863  0.047862495           24 
 4851000   0.46966009   -3.2146423    2860.6559   0.04914203  0.047851631           20 
 4852000   0.47639704   -3.2207089    2860.0159   0.04912091  0.047840755           19 
 4853000    0.4786585   -3.2081291    2862.6829  0.049156586  0.047829883           13 
 4854000   0.47611088   -3.2171314    2859.2353   0.04908727  0.047819046           12 
 4855000   0.49594601   -3.2143244    2853.0584  0.048971136  0.047808175           23 
 4856000   0.47490554   -3.2228339    2854.5797  0.048987158   0.04779728           10 
 4857000   0.47490363   -3.2023737    2853.7936  0.048963586  0.047786389           15 
 4858000   0.47380497   -3.2234149    2857.6819  0.049020205  0.047775489           12 
 4859000   0.47606156   -3.2145068    2857.3021  0.049003604  0.047764631           12 
 4860000   0.47702759   -3.2301236    2846.6267  0.048810471   0.04775376            9 
 4861000   0.47244183   -3.2062778    2852.3145  0.048897937  0.047742859            8 
 4862000   0.47191588   -3.2066018    2856.8227   0.04896515  0.047731996           31 
 4863000   0.47132507    -3.212799     2857.232  0.048962095  0.047721162           28 
 4864000   0.47038893   -3.2184137    2861.0354  0.049017191  0.047710332           35 
 4865000   0.47633856   -3.2249657    2856.7555  0.048933804  0.047699507           13 
 4866000   0.47176484   -3.2245082    2861.4147   0.04900354  0.047688689           21 
 4867000   0.48168471   -3.2075157    2860.2075  0.048972802  0.047677888           12 
 4868000   0.47828804   -3.2094585    2857.8458  0.048922312  0.047667055           14 
 4869000   0.46926955   -3.2306735    2860.3166  0.048954552  0.047656197           24 
 4870000   0.46771266   -3.2176103     2854.978  0.048853148  0.047645332           29 
 4871000   0.48111424   -3.2234301    2857.8764  0.048892705  0.047634465           20 
 4872000   0.46597866   -3.2245189    2853.9572  0.048815633  0.047623615           26 
 4873000   0.47265085   -3.1979039    2861.1576   0.04892875  0.047612808            8 
 4874000   0.47907261   -3.2242498    2855.7567  0.048826369  0.047602028            7 
 4875000   0.47345222   -3.2343062    2854.6303  0.048797099  0.047591219           22 
 4876000   0.46943899   -3.2337158    2853.0563  0.048760191  0.047580377           25 
 4877000   0.45955642   -3.2168259    2860.8803  0.048883881  0.047569518           14 
 4878000   0.47422495   -3.2071196    2855.7266  0.048785818  0.047558717           29 
 4879000    0.4713479   -3.2142424    2856.7048  0.048792526  0.047547887           26 
 4880000   0.47590888   -3.2208587    2859.7121  0.048833882  0.047537069           45 
 4881000   0.47500211   -3.2206805    2862.4994  0.048871465  0.047526276           15 
 4882000   0.47314753    -3.214316    2856.0419  0.048751228  0.047515473           21 
 4883000   0.46803457   -3.2220324     2853.926  0.048705133  0.047504659           47 
 4884000   0.47577786   -3.2396936    2850.2248  0.048632009  0.047493788           28 
 4885000   0.46996781    -3.207174    2857.4559  0.048745409  0.047482933           26 
 4886000   0.47752058   -3.1982381    2862.1499  0.048815492  0.047472147           11 
 4887000    0.4661747   -3.2115997    2854.1968  0.048669886  0.047461399           12 
 4888000   0.46476674   -3.2170426    2857.4407  0.048715233  0.047450634           14 
 4889000    0.4786462   -3.2379828    2865.6005  0.048844353  0.047439821           14 
 4890000   0.47289007   -3.2236211    2852.5067  0.048611225  0.047429009           19 
 4891000    0.4567797   -3.2248881    2856.2105  0.048664391  0.047418217           30 
 4892000   0.46932437   -3.2111392    2856.6212   0.04866144  0.047407444           14 
 4893000   0.45445959   -3.2231547    2858.9383  0.048690958  0.047396677           13 
 4894000   0.47124077   -3.2051044    2858.3321  0.048670687  0.047385893            8 
 4895000   0.48054203   -3.2349895    2856.1138   0.04862298  0.047375118           11 
 4896000   0.47986652   -3.2325579     2853.082  0.048561445   0.04736429           34 
 4897000   0.46760175   -3.2366986     2854.991  0.048584014  0.047353426           46 
 4898000   0.45691911   -3.2146753    2854.7399  0.048569822  0.047342614           43 
 4899000   0.46956686   -3.2178544    2860.0544  0.048650309  0.047331801           40 
 4900000   0.46873424   -3.2335411    2848.9603  0.048451706  0.047321005           14 
 4901000   0.45858469   -3.2499435    2855.3551  0.048550553  0.047310112           19 
 4902000   0.46574996    -3.238696    2851.7532  0.048479417  0.047299243           15 
 4903000   0.48412571   -3.2169349    2856.6658  0.048553025   0.04728842           27 
 4904000   0.46837238   -3.2214499    2850.7113   0.04844194   0.04727761           24 
 4905000   0.46482191   -3.2222267    2860.8284  0.048603948  0.047266795           27 
 4906000   0.46276064   -3.2432022    2859.7159  0.048575144  0.047255993           49 
 4907000   0.46195181   -3.2371381    2852.0228  0.048434596  0.047245161           13 
 4908000   0.46052016   -3.2352519    2855.7132  0.048487388  0.047234311           35 
 4909000   0.46746374   -3.2380588     2861.263  0.048571723  0.047223476           12 
 4910000   0.46368081   -3.2275492    2854.7991  0.048452123  0.047212657           12 
 4911000   0.46270664   -3.2365358    2853.4439  0.048419262  0.047201837           10 
 4912000   0.46377952    -3.222268    2857.6958  0.048481539  0.047190996           21 
 4913000   0.47429011   -3.2227929    2854.2928  0.048413949  0.047180161           19 
 4914000   0.46647541   -3.2157659    2857.5068  0.048458601  0.047169379           27 
 4915000   0.45861729   -3.2319855    2856.5412  0.048432371  0.047158577           21 
 4916000   0.46431874   -3.2220059    2859.6921  0.048475931  0.047147751           18 
 4917000   0.45827861   -3.2352573    2852.2061  0.048339198  0.047136944           11 
 4918000   0.46434872   -3.2430845    2853.5221   0.04835167   0.04712612           20 
 4919000   0.45786297   -3.2252873    2856.9233  0.048399459  0.047115334           12 
 4920000   0.46410256    -3.228998    2855.6413  0.048367908  0.047104587           12 
 4921000   0.47010332   -3.2341061    2855.2888   0.04835211  0.047093769           16 
 4922000   0.47867028   -3.2432685    2858.7182   0.04840035  0.047082948           20 
 4923000    0.4717654   -3.2353282    2855.3624  0.048333713  0.047072134           23 
 4924000   0.46213624   -3.2267224    2861.0727  0.048420537  0.047061351           52 
 4925000   0.47220208   -3.2440348    2852.0145  0.048257436   0.04705056           15 
 4926000   0.46504526   -3.2472094    2859.5907  0.048375807  0.047039719           23 
 4927000   0.46853115   -3.2301783    2858.9258  0.048354742  0.047028942           30 
 4928000   0.45229982   -3.2558993    2852.3565  0.048233843  0.047018136           23 
 4929000   0.46259398   -3.2309346    2852.4085  0.048224935  0.047007336           12 
 4930000   0.46397546    -3.226788     2859.852  0.048340974  0.046996549           36 
 4931000   0.45831407   -3.2390273    2855.6027  0.048259357  0.046985726           21 
 4932000   0.45913238   -3.2402308    2850.3414  0.048160675  0.046974874           24 
 4933000   0.46119399   -3.2448719    2851.5696  0.048171661  0.046964034           29 
 4934000   0.46094103   -3.2390002     2850.868  0.048150047   0.04695316           26 
 4935000   0.47540913   -3.2542664    2844.2835  0.048029104  0.046942255           34 
 4936000   0.45200481   -3.2563975    2847.4801   0.04807334  0.046931377           67 
 4937000   0.45887457   -3.2274522    2857.7193  0.048236434  0.046920542           54 
 4938000   0.45601345   -3.2334146    2851.2688  0.048117807  0.046909711           58 
 4939000   0.45916599   -3.2564754    2854.0629  0.048155208  0.046898904           30 
 4940000   0.46579544   -3.2487161    2854.4331  0.048151705  0.046888043           28 
 4941000   0.47072898   -3.2516767    2851.4244  0.048091217  0.046877211           46 
 4942000   0.45536716    -3.238055    2846.3178  0.047995376  0.046866364           21 
 4943000   0.46449218   -3.2314467     2848.847  0.048028307  0.046855571           23 
 4944000   0.47347992   -3.2370592    2849.7993  0.048034643  0.046844783           60 
 4945000   0.45753693   -3.2421369     2850.256  0.048032625  0.046833965           15 
 4946000   0.44202652   -3.2550922    2849.8585  0.048016216  0.046823112           39 
 4947000   0.46065094   -3.2521387    2851.8554  0.048040149  0.046812232           38 
 4948000   0.45769407   -3.2468573    2849.7198  0.047994472   0.04680135           21 
 4949000   0.45680444    -3.233997    2846.6351  0.047932833  0.046790479           20 
 4950000   0.45916712   -3.2450959    2854.2361  0.048051112  0.046779645           32 
 4951000   0.45403025   -3.2397216    2846.1893  0.047905968  0.046768834           22 
 4952000   0.46075979   -3.2453686    2852.2631  0.047998504  0.046758003           22 
 4953000    0.4596229   -3.2460725    2852.4801  0.047992464  0.046747191           44 
 4954000   0.45912809   -3.2413446     2847.747  0.047903159  0.046736352           15 
 4955000   0.45646507   -3.2463908    2853.7669  0.047994735  0.046725543           14 
 4956000   0.45489726   -3.2451629    2855.5485  0.048015007  0.046714774           26 
 4957000    0.4665159   -3.2450121     2851.439  0.047936234  0.046703972           19 
 4958000   0.46033315   -3.2486255    2851.2406  0.047923231  0.046693162           25 
 4959000   0.46196288   -3.2542798    2855.6307  0.047987342  0.046682363           12 
 4960000   0.46037414   -3.2467941    2859.5338  0.048043243  0.046671557           12 
 4961000   0.45779879   -3.2457838    2855.1242  0.047959487  0.046660785           15 
 4962000   0.45271721   -3.2347894    2854.3604  0.047936995  0.046649993            8 
 4963000   0.45446214   -3.2505169    2849.8247  0.047851177  0.046639217           27 
 4964000   0.44800841    -3.266328     2850.609  0.047854704   0.04662842           35 
 4965000   0.45412702   -3.2432301    2847.9683  0.047800744  0.046617588           31 
 4966000   0.44782095   -3.2696274    2851.3285  0.047847505  0.046606755           43 
 4967000   0.45965056   -3.2565661    2850.8532  0.047829898  0.046595948           17 
 4968000   0.44868376   -3.2419532    2846.7171  0.047750892  0.046585136           14 
 4969000   0.45501364   -3.2646834    2847.9745  0.047762369  0.046574324           20 
 4970000   0.45515849   -3.2509183    2849.0396  0.047770617  0.046563507           39 
 4971000   0.46251801   -3.2555006    2847.9969  0.047743527  0.046552699           21 
 4972000   0.44738782   -3.2520146    2852.3356  0.047806644  0.046541882           21 
 4973000   0.44072499   -3.2654329    2844.2259  0.047661135  0.046531031           33 
 4974000   0.45975353   -3.2555892    2848.8381  0.047728824  0.046520198           23 
 4975000   0.45352781   -3.2463319    2848.6073  0.047715365   0.04650939           12 
 4976000   0.45284179   -3.2387041     2851.446  0.047753316  0.046498617           18 
 4977000   0.46181068   -3.2504255    2847.5705   0.04767883  0.046487849           22 
 4978000    0.4578235   -3.2352985    2854.6037  0.047786991  0.046477098           28 
 4979000    0.4517237   -3.2590093    2844.3525   0.04760582  0.046466357           25 
 4980000   0.45367756    -3.257277    2852.8022  0.047737654  0.046455551           20 
 4981000   0.45277614   -3.2674256    2856.7593  0.047794273  0.046444746           25 
 4982000   0.45578583   -3.2392572    2852.4555  0.047712691  0.046433982           17 
 4983000   0.45032127   -3.2469971    2847.1777  0.047614853  0.046423229           48 
 4984000   0.46148262   -3.2555208     2847.577  0.047611975  0.046412473           30 
 4985000   0.45032029   -3.2626044    2849.1175  0.047628176   0.04640167           47 
 4986000   0.45536635    -3.251225    2845.2768  0.047554432   0.04639089           17 
 4987000    0.4512844   -3.2594702    2849.6183  0.047617443  0.046380114           27 
 4988000   0.45188888   -3.2667057    2850.1603  0.047616953  0.046369294           50 
 4989000   0.44114264   -3.2537087    2849.9083  0.047603199  0.046358501           29 
 4990000   0.44906422   -3.2529278    2846.7059  0.047540179  0.046347697           56 
 4991000   0.44573995    -3.245608    2848.8484  0.047566426   0.04633692           26 
 4992000   0.44008601   -3.2542192    2853.6838  0.047637617  0.046326143            9 
 4993000   0.47112299   -3.2431947    2855.1116  0.047651905  0.046315374           32 
 4994000   0.46746663   -3.2501106    2854.6017  0.047633856  0.046304667           13 
 4995000   0.44898928   -3.2566265    2848.6904  0.047525699  0.046293927           36 
 4996000   0.44861402   -3.2546812    2853.9901  0.047604585  0.046283148           12 
 4997000   0.45495274   -3.2680662    2852.9626  0.047577923  0.046272364           34 
 4998000   0.46248252   -3.2516234    2853.6063  0.047579137   0.04626158           14 
 4999000   0.45015305    -3.259624    2849.0713   0.04749402  0.046250787           17 
 5000000   0.44562715   -3.2318137    2851.5895  0.047526491  0.046240006           17 
 5001000   0.45461876   -3.2541531    2850.7689  0.047503314  0.046229246           17 
 5002000   0.45263618   -3.2537997    2850.7622  0.047493706  0.046218501           12 
 5003000   0.44432636   -3.2384393    2858.3564  0.047610707  0.046207754           21 
 5004000   0.46204932   -3.2365822    2854.1728  0.047531522  0.046197029           39 
 5005000   0.46117214   -3.2505322    2848.8919  0.047434097  0.046186306           20 
 5006000   0.45765229   -3.2618562    2846.3124  0.047381681  0.046175529           44 
 5007000   0.45761752   -3.2545014     2852.282  0.047471574  0.046164761           35 
 5008000   0.45567387   -3.2565742    2844.8812  0.047338945  0.046153976           12 
 5009000   0.45388063   -3.2516783    2851.0159  0.047431555  0.046143156           33 
 5010000   0.44604542   -3.2449311    2853.8705  0.047469569  0.046132364           30 
 5011000   0.44726343   -3.2569477    2854.0059  0.047462348   0.04612161           33 
 5012000   0.44924127   -3.2488721     2847.067  0.047337507  0.046110812           35 
Loop time of 12072.2 on 48 procs for 5000000 steps with 4000 atoms

Performance: 71569.554 tau/day, 414.176 timesteps/s
99.4% CPU use with 48 MPI tasks x no OpenMP threads

MPI task timing breakdown:
Section |  min time  |  avg time  |  max time  |%varavg| %total
---------------------------------------------------------------
Pair    | 780.55     | 843.22     | 908.08     | 102.9 |  6.98
Neigh   | 80.373     | 83.506     | 86.489     |  18.3 |  0.69
Comm    | 764.14     | 832.41     | 899.62     | 108.9 |  6.90
Output  | 14.362     | 14.366     | 14.444     |   0.3 |  0.12
Modify  | 10182      | 10194      | 10207      |   6.4 | 84.44
Other   |            | 105        |            |       |  0.87

Nlocal:        83.3333 ave          91 max          77 min
Histogram: 3 2 8 5 6 12 9 2 0 1
Nghost:        2158.90 ave        2176 max        2148 min
Histogram: 6 2 11 8 6 7 2 4 0 2
Neighs:        14227.0 ave       15405 max       12757 min
Histogram: 3 2 3 3 6 9 8 8 3 3
FullNghs:      28453.0 ave       31186 max       26173 min
Histogram: 3 3 4 8 9 11 7 2 0 1

Total # of neighbors = 1365746
Ave neighs/atom = 341.43650
Neighbor list builds = 271707
Dangerous builds = 3

#clear
#
#next RN
#
#jump SELF
Total wall time: 3:21:15
