
units lj                  # Use reduced LJ style units
atom_style atomic         # Uncharged point particles
atom_modify map hash      # Needed for indexing of clusters etc
                          # Used to be able to find where atoms are in relation to each other.

lattice fcc 1.0 spacing 1 1 1
Lattice spacing in x,y,z = 1.5874011 1.5874011 1.5874011
region box block 0 10 0 10 0 10 units lattice
create_box 2 box
Created orthogonal box = (0.0000000 0.0000000 0.0000000) to (15.874011 15.874011 15.874011)
  3 by 4 by 4 MPI processor grid
create_atoms 1 box
Created 4000 atoms
  using lattice units in orthogonal box = (0.0000000 0.0000000 0.0000000) to (15.874011 15.874011 15.874011)
  create_atoms CPU = 0.020 seconds
set type 1 type/fraction 2 0.78 78393
Setting atom values ...
  3107 settings made for type/fraction
mass 1 1.0
mass 2 1.0
pair_style lj/cut  3.5
pair_modify tail  yes
pair_coeff 1  1  1.0  1.0   # Intearaction between 1 and 1 set with epsilon = 1 and sigma = 1
pair_coeff 1  2  1.5  0.8
pair_coeff 2  2  0.5  0.88

write_data data.0
System init for write_data ...
Neighbor list info ...
  update every 1 steps, delay 10 steps, check yes
  max neighbors/atom: 2000, page size: 100000
  master list distance cutoff = 3.8
  ghost atom cutoff = 3.8
  binsize = 1.9, bins = 9 9 9
  1 neighbor lists, perpetual/occasional/extra = 1 0 0
  (1) pair lj/cut, perpetual
      attributes: half, newton on
      pair build: half/bin/atomonly/newton
      stencil: half/bin/3d
      bin: standard
WARNING: Not all mixed pair coeffs generated from mixing. Use write_data with 'pair ij' option to store all pair coeffs. (../write_data.cpp:312)


#############################
#   M E L T   S Y S T E M   #
#############################

velocity all create 2.4 2750902 mom yes dist gaussian # Assign velocities
                                                    # Temperature 2.4, random number seed, zero linear momentum
                                                                                # Gaussian distribution

timestep 0.002   # simulation timestep
thermo 1000       # output thermodynamic data every 1000 steps bf 100

# Define a fix  in this case with index 1 applied to all
# particles in the simulation. This fix is for simulations
# in the anisotropic NPT ensemble. Note that we use the MTK
# correction.
fix 1 all npt temp 2.4 2.4 0.1 iso 5.68 5.68 0.5 mtk yes tchain 5 pchain 5 # Use NPT ensemble
                                                                         # Set temperature and pressure and damping
                                                                         # Numbers of thermostats in chain and in barostat
run 10000          # run for 10000 steps
Per MPI rank memory allocation (min/avg/max) = 3.642 | 3.644 | 3.648 Mbytes
Step Temp E_pair E_mol TotEng Press Volume 
       0          2.4   -3.8018078            0  -0.20270782   -3.3841895         4000 
    1000    2.4555699   -3.1979995            0   0.48443444    5.9901754    3744.7573 
    2000    2.3881346   -3.2136915            0   0.36761484    5.9331672    3719.5473 
    3000    2.4001206   -3.2284566            0   0.37082425    5.7143486    3754.9535 
    4000    2.4832408   -3.2870508            0   0.43687917      5.31684    3771.5533 
    5000    2.3817371   -3.1966004            0   0.37511216    5.5788489    3795.3402 
    6000    2.3726916   -3.1833332            0   0.37481451    5.6754336    3779.8873 
    7000    2.3809518   -3.2303543            0   0.34018048    5.9021133     3731.853 
    8000     2.478096   -3.2380162            0   0.47819849    6.0728554    3719.6801 
    9000    2.4296235   -3.1653267            0   0.47819741    6.0088813    3767.5224 
   10000     2.436519   -3.2392408            0   0.41462409    5.8922607    3727.7104 
Loop time of 2.58112 on 48 procs for 10000 steps with 4000 atoms

Performance: 669476.133 tau/day, 3874.283 timesteps/s
99.6% CPU use with 48 MPI tasks x no OpenMP threads

MPI task timing breakdown:
Section |  min time  |  avg time  |  max time  |%varavg| %total
---------------------------------------------------------------
Pair    | 1.1391     | 1.2247     | 1.3347     |   3.0 | 47.45
Neigh   | 0.21406    | 0.2201     | 0.24438    |   1.0 |  8.53
Comm    | 0.77656    | 0.87541    | 0.95288    |   3.6 | 33.92
Output  | 0.00024446 | 0.00025076 | 0.00031508 |   0.0 |  0.01
Modify  | 0.20798    | 0.24522    | 0.27228    |   3.4 |  9.50
Other   |            | 0.01546    |            |       |  0.60

Nlocal:        83.3333 ave          93 max          73 min
Histogram: 3 0 3 5 7 11 7 7 4 1
Nghost:        1720.88 ave        1752 max        1687 min
Histogram: 2 1 4 7 2 15 8 5 2 2
Neighs:        10243.7 ave       11791 max        9064 min
Histogram: 6 1 2 13 6 9 6 4 0 1

Total # of neighbors = 491699
Ave neighs/atom = 122.92475
Neighbor list builds = 904
Dangerous builds = 191

# Equilibrate just above the melting temperature to avoid step fn in T

fix 1 all npt temp 1.25 1.25 0.1 iso 5.68 5.68 0.5 mtk yes tchain 5 pchain 5
run 2000
Per MPI rank memory allocation (min/avg/max) = 3.644 | 3.646 | 3.649 Mbytes
Step Temp E_pair E_mol TotEng Press Volume 
   10000     2.436519   -3.2392408            0   0.41462409    5.8922607    3727.7104 
   11000    1.2611518   -4.7621994            0   -2.8709447    5.6712464    2882.2146 
   12000     1.239189   -4.7382529            0    -2.879934    5.4790918    2895.1529 
Loop time of 0.631516 on 48 procs for 2000 steps with 4000 atoms

Performance: 547254.635 tau/day, 3166.983 timesteps/s
99.6% CPU use with 48 MPI tasks x no OpenMP threads

MPI task timing breakdown:
Section |  min time  |  avg time  |  max time  |%varavg| %total
---------------------------------------------------------------
Pair    | 0.29169    | 0.31222    | 0.33664    |   1.9 | 49.44
Neigh   | 0.041861   | 0.043569   | 0.045562   |   0.4 |  6.90
Comm    | 0.20089    | 0.22754    | 0.25103    |   2.5 | 36.03
Output  | 5.0602e-05 | 5.2425e-05 | 6.883e-05  |   0.0 |  0.01
Modify  | 0.039633   | 0.04341    | 0.046438   |   1.0 |  6.87
Other   |            | 0.004727   |            |       |  0.75

Nlocal:        83.3333 ave          89 max          76 min
Histogram: 1 2 2 10 3 8 8 6 4 4
Nghost:        2035.77 ave        2066 max        2008 min
Histogram: 1 2 8 4 12 9 6 3 1 2
Neighs:        13181.8 ave       14545 max       11732 min
Histogram: 3 3 3 7 4 11 8 3 3 3

Total # of neighbors = 632726
Ave neighs/atom = 158.18150
Neighbor list builds = 145
Dangerous builds = 13

#############################
# L I N E A R  Q U E N C H  #
#############################

# Define solid atoms. This closely follows ten Wolde  Ruiz-Montero and Frenkel  Faraday Discuss  1996  104  93-110
# Compute components of the per-atom q6 vector
compute q6 all orientorder/atom degrees 1 6 components 6 nnn NULL cutoff 1.3 # compute the Q6 parameter.
                                                                             # Use all neighbours within 1.3 unit cell.

# get number of connections
compute coord_number all coord/atom orientorder q6 0.5

# An atom is solid if it has 8 or more connections (of a possible 14)
variable is_solid atom c_coord_number>=8
group solid dynamic all var is_solid    # Must be dynamic to update
dynamic group solid defined

# do clustering
compute cluster solid cluster/atom 1.3 # Create a cluster where all atoms within are solid and max 1.3 units from another member

# define chunks one chunk per cluster
compute clus_chunks solid chunk/atom c_cluster nchunk every compress yes  # Says which atoms are in which chunk

# count the size of each chunk
compute size_chunks solid property/chunk clus_chunks count


# Find the maximum entry in the vector of chunk sizes
variable max_n equal max(c_size_chunks)


# Thermo style which includes this variable
# thermo_style custom step temp pe vol v_max_n

thermo ${N}  # Print the thermo information every 100 steps
thermo 1000  

# Reset the npt fix at a lower temperature (below freezing)
fix 1  all npt temp  ${temp} ${temp}  0.1  iso  5.68  5.68  0.5  mtk yes tchain  5  pchain  5
fix 1  all npt temp  0.45 ${temp}  0.1  iso  5.68  5.68  0.5  mtk yes tchain  5  pchain  5
fix 1  all npt temp  0.45 0.45  0.1  iso  5.68  5.68  0.5  mtk yes tchain  5  pchain  5

dump dmp2 all dcd ${N} traj.dcd
dump dmp2 all dcd 1000 traj.dcd


compute msd all msd com yes
variable twopoint equal c_msd[4]/6/(step*dt+1.0e-6)
fix 9 all vector 10 c_msd[4]
variable fit equal slope(f_9)/6/(10*dt)
thermo_style custom step temp pe c_msd[4] v_twopoint v_fit v_max_n

fix 1 all npt temp 1.25 ${temp} 0.1 iso 5.68 5.68 0.5 mtk yes tchain 5 pchain 5
fix 1 all npt temp 1.25 0.45 0.1 iso 5.68 5.68 0.5 mtk yes tchain 5 pchain 5
run 500000 # 5000000  # Run for this many steps
Neighbor list info ...
  update every 1 steps, delay 10 steps, check yes
  max neighbors/atom: 2000, page size: 100000
  master list distance cutoff = 3.8
  ghost atom cutoff = 3.8
  binsize = 1.9, bins = 8 8 8
  4 neighbor lists, perpetual/occasional/extra = 1 3 0
  (1) pair lj/cut, perpetual
      attributes: half, newton on
      pair build: half/bin/atomonly/newton
      stencil: half/bin/3d
      bin: standard
  (2) compute orientorder/atom, occasional
      attributes: full, newton on
      pair build: full/bin/atomonly
      stencil: full/bin/3d
      bin: standard
  (3) compute coord/atom, occasional
      attributes: full, newton on
      pair build: full/bin/atomonly
      stencil: full/bin/3d
      bin: standard
  (4) compute cluster/atom, occasional
      attributes: full, newton on
      pair build: full/bin/atomonly
      stencil: full/bin/3d
      bin: standard
Per MPI rank memory allocation (min/avg/max) = 9.836 | 9.841 | 9.846 Mbytes
Step Temp PotEng c_msd[4] v_twopoint v_fit v_max_n 
   12000     1.239189   -4.7382529 3.153077e-30 2.1896367e-32 8.3333333e+20            2 
   13000     1.214685   -4.7673125   0.78086133 0.0050055212  0.066207363            2 
   14000    1.2642773   -4.7913382     1.557409 0.0092702914  0.065485126            2 
   15000     1.264587   -4.8021771    2.3305644   0.01294758  0.064911245            2 
   16000    1.2291632   -4.8268195    3.0988963  0.016140085  0.064631351            2 
   17000     1.262565   -4.8410396    3.9511055  0.019368164  0.065471771            1 
   18000    1.2537983   -4.8044401    4.6982008  0.021750929  0.065569537            2 
   19000    1.2447523   -4.7850316     5.505013  0.024144793  0.065709253            3 
   20000    1.2474899   -4.7977907    6.1750392  0.025729329  0.065293582            3 
   21000    1.2663438   -4.8309469    6.9508221  0.027582627  0.064618178            3 
   22000    1.2042015   -4.8355108    7.7093714  0.029202164  0.064291803            3 
   23000    1.2258996   -4.7762159    8.4740671  0.030703141  0.064074409            2 
   24000    1.2295315   -4.8038069    9.0809628   0.03153112  0.063649229            7 
   25000    1.2452676    -4.851765    9.7956878  0.032652292  0.063257753            2 
   26000    1.1998097    -4.844965    10.663161  0.034176796  0.063036042            1 
   27000    1.2494682   -4.8359298    11.456362  0.035359141  0.063071897            1 
   28000    1.2102798   -4.7996701     12.26413  0.036500387  0.063189964            3 
   29000    1.2272814   -4.9122476    12.881352  0.037015379  0.063156595            2 
   30000     1.194075   -4.8356126     13.78895  0.038302639  0.063201587            3 
   31000    1.2384283   -4.8536276    14.451267  0.038847492  0.063250435            1 
   32000    1.2172786    -4.850584    15.080038  0.039270931  0.063137903            2 
   33000    1.2139711   -4.8440413    15.852215  0.040030846  0.062960177            5 
   34000    1.1986871   -4.8908948    16.554895  0.040575724  0.062795687            1 
   35000    1.2046808   -4.8448305    17.240125  0.041047916  0.062645273            3 
   36000    1.2023739   -4.8701097    17.857626  0.041337097  0.062442517            2 
   37000    1.2034875   -4.8583252    18.531558  0.041737742  0.062230797            4 
   38000    1.2021091   -4.8938831    19.188943  0.042081014  0.061992613            1 
   39000    1.2347195   -4.8688878    19.890687  0.042501467  0.061763058            3 
   40000    1.2343004   -4.8771459    20.553466   0.04281972  0.061567978            2 
   41000    1.1870213   -4.8912778    21.419238  0.043535035  0.061418411            2 
   42000    1.2161624    -4.841939    22.012025  0.043674651  0.061291415            2 
   43000    1.2299206    -4.892104    22.662124  0.043918844  0.061094011            2 
   44000    1.2127328   -4.8962525    23.376253  0.044273207  0.060901562            3 
   45000    1.2206785   -4.8696135    24.121265   0.04466901   0.06077057            3 
   46000    1.1962798   -4.8926406    24.498656  0.044381622  0.060588708            2 
   47000    1.1865182   -4.9106088    25.010812  0.044345411   0.06034301            4 
   48000    1.1979937   -4.8792334    25.661183  0.044550665   0.06008399            2 
   49000    1.1870753   -4.8893134    26.287633  0.044706858  0.059795994            4 
   50000    1.1970766   -4.8902914    27.195797  0.045326329  0.059601768            1 
   51000    1.1986884   -4.9255485    27.875549  0.045548282  0.059434682            1 
   52000    1.1941321   -4.8493032    28.681033  0.045963193  0.059311073            2 
   53000    1.1908958   -4.8963776    29.264294   0.04601304  0.059214471            8 
   54000    1.1620211    -4.889548    30.047482  0.046369571   0.05910568            2 
   55000    1.1664738   -4.8800389    30.750828  0.046592163  0.059005013            4 
   56000    1.1903494   -4.8963625    31.341871  0.046639688  0.058916598            1 
   57000    1.1646211    -4.905199    32.077071  0.046896303  0.058860118            2 
   58000    1.1578099   -4.9156926     32.97015  0.047370904  0.058788945            3 
   59000    1.1882391    -4.893737     33.54348  0.047377796  0.058735229            1 
   60000    1.1614896   -4.9344949    34.091287   0.04734901  0.058665681            2 
   61000    1.1534093   -4.8984324    34.708967  0.047416621  0.058569334            4 
   62000     1.165055   -4.9251622    35.504566  0.047721191  0.058486618            3 
   63000    1.1712403   -4.9167981    35.866518  0.047442484  0.058391388            3 
   64000    1.1779301   -4.9305055    36.312826  0.047282326  0.058248313            2 
   65000      1.16197    -4.928297    37.023698  0.047466279  0.058118609            3 
   66000    1.1741892   -4.9519063    37.577247  0.047446018  0.057999673            3 
   67000    1.1613963   -4.9327428    38.331273  0.047675712  0.057883175            3 
   68000    1.1627844   -4.9661231     38.92228  0.047698873  0.057769709            4 
   69000    1.1595784   -4.9606026    39.596904  0.047822347   0.05765778            4 
   70000    1.1616507     -4.94767    40.621527  0.048358961  0.057586438            2 
   71000    1.1637758   -4.9655546    41.182874  0.048336707   0.05752489            2 
   72000    1.1386619   -4.9549836    42.087001  0.048711807  0.057479441            6 
   73000    1.1608184   -4.9903729    42.846607  0.048911651  0.057452284            2 
   74000    1.1599202   -4.9745911    43.298979  0.048760112  0.057416729            2 
   75000    1.1577261   -4.9392478    43.939277  0.048821419  0.057366221            1 
   76000    1.1578805   -5.0053496    44.615262  0.048920244  0.057309522            2 
   77000    1.1383706   -4.9492706    45.122889  0.048834296  0.057256928            4 
   78000    1.1533648    -4.963363    45.877356  0.049014269  0.057193605            3 
   79000    1.1409085   -4.9179303    46.343476  0.048885523   0.05713112            3 
   80000     1.130487   -4.9679312    46.771591  0.048720407  0.057051704            3 
   81000    1.1274846   -4.9831816    47.306578  0.048669319   0.05696321            2 
   82000    1.1378996   -5.0364725    47.713234  0.048489059  0.056862916            3 
   83000    1.1469989    -5.021538    48.447599  0.048642168  0.056764649            3 
   84000     1.146652   -5.0004394    49.032459  0.048643312  0.056650231            3 
   85000    1.1155636   -4.9802666     49.23121  0.048265892    0.0565273            2 
   86000    1.1612469   -4.9942022     50.02137  0.048470319  0.056410213            3 
   87000    1.1371279   -4.9930003    50.669398  0.048533906  0.056292421            3 
   88000    1.1261818   -4.9784925    50.922595  0.048222154  0.056162518            3 
   89000    1.1192837   -5.0231365    51.510286  0.048230605  0.056033854            4 
   90000    1.1441446   -5.0005342    52.034019  0.048179647  0.055899573            2 
   91000    1.1302868   -5.0175045    52.762761  0.048317547   0.05578398            3 
   92000    1.1203593   -5.0048577    53.342322   0.04831732  0.055670094            3 
   93000    1.1268193   -5.0270228    53.875144  0.048275219  0.055557865            4 
   94000     1.112748   -5.0085273    54.453608  0.048274475  0.055449551            3 
   95000    1.1446895    -5.035408    55.104818  0.048337559   0.05533254            2 
   96000    1.0752174   -5.0280063    55.442809  0.048127438  0.055210817            4 
   97000    1.1292055   -4.9996436    56.242131  0.048317982  0.055095192            4 
   98000    1.0833785   -5.0568873    56.531394  0.048070913  0.054974213            5 
   99000    1.1093246   -5.0642392     57.34556  0.048270673  0.054846316            6 
  100000    1.1112338   -5.0184537    57.869923  0.048224935  0.054730342            3 
  101000    1.1226674   -5.0409264    58.424684  0.048205185  0.054619924            2 
  102000    1.1064294   -5.0490941    58.817067  0.048053159  0.054520591            2 
  103000    1.0870648   -5.0612004    59.728062  0.048323674  0.054423047            2 
  104000    1.0938106   -5.0685943    59.946017  0.048033667  0.054318754            2 
  105000    1.1094145   -5.0838655    60.391729  0.047929944  0.054198438            1 
  106000    1.1017071   -5.0535012    60.566358  0.047615061  0.054079654            4 
  107000    1.0924451    -5.031459     61.55178  0.047937523  0.053959468            5 
  108000    1.0981908    -5.059703    62.073245  0.047896022  0.053840785            4 
  109000    1.1004584   -5.0336976    62.586132  0.047848725  0.053722989            2 
  110000    1.0776659   -5.1057906    62.868543  0.047627684  0.053606123            2 
  111000    1.0964945   -5.0568092    63.167869  0.047423325  0.053482632            3 
  112000    1.1126283   -5.1203854     63.52155  0.047263058  0.053356855            2 
  113000    1.0544716   -5.0727074     64.38697  0.047483016  0.053234068            7 
  114000    1.1142546   -5.0847947    64.718158  0.047308595  0.053115475            3 
  115000    1.1042619   -5.0699309    65.283974  0.047307227  0.052994659            2 
  116000     1.089399   -5.0534304    65.870909  0.047321055  0.052869432            4 
  117000    1.1039276   -5.0865023    66.505453  0.047368556  0.052748632            2 
  118000    1.1065443   -5.1016893    66.864538  0.047220719  0.052631368            9 
  119000    1.0648168   -5.1145834    67.662822  0.047382929  0.052519374            3 
  120000     1.099549   -5.1012976     68.25975  0.047402604  0.052414603            4 
  121000    1.0931187   -5.0874531    68.538005  0.047202482  0.052311289            2 
  122000    1.0800666   -5.1125085    68.796317   0.04699202  0.052193393            2 
  123000     1.055499   -5.1089263    69.420051  0.047032555  0.052077323            2 
  124000    1.0715058   -5.0751763    69.971792  0.047024054  0.051960192            4 
  125000    1.0586854   -5.1049902    70.214228  0.046809485  0.051841063            2 
  126000    1.0706006   -5.1280007    70.831388  0.046846156  0.051721747            2 
  127000     1.053341   -5.1604572    71.049574  0.046620455  0.051604397            2 
  128000    1.0640025   -5.1249598    71.766887  0.046723233   0.05149016            2 
  129000    1.0518126    -5.099694    72.363449  0.046746414  0.051378498            4 
  130000    1.0979934   -5.1334489    72.508929  0.046480083  0.051272762            3 
  131000     1.047466   -5.1471317    73.063076  0.046477784  0.051160183            2 
  132000    1.0624594    -5.147872    73.210933  0.046219023  0.051041406            2 
  133000    1.0897461   -5.0971775     74.00492  0.046368997  0.050920063            3 
  134000    1.0449568   -5.1225182    74.415036  0.046278007  0.050804773            1 
  135000    1.0588764   -5.1671999    74.496757  0.045985652  0.050685515            2 
  136000    1.0620027   -5.1748584    74.621427  0.045723914  0.050564551            3 
  137000    1.0528849   -5.1713708    75.424254    0.0458785  0.050443904            3 
  138000    1.0631627   -5.1567627    75.961468  0.045870451   0.05032085            4 
  139000    1.0645645    -5.141191    76.398172  0.045802261  0.050201972            6 
  140000    1.0275913   -5.1696921     76.98463  0.045824184  0.050081531            2 
  141000    1.0462015   -5.1466601    77.078495  0.045554666  0.049960458            4 
  142000    1.0469476   -5.1853302    77.587358  0.045532487  0.049841889            2 
  143000    1.0610638   -5.2119786    78.016564  0.045464198  0.049724068            1 
  144000    1.0423527   -5.1867901    78.211537  0.045261306  0.049604945            5 
  145000    1.0460036   -5.1787012    78.904761  0.045347564  0.049485126            6 
  146000     1.043455   -5.1948536     79.42171  0.045332026  0.049370987            5 
  147000    1.0203284   -5.1370909     79.77057  0.045221412  0.049256987            2 
  148000    1.0268763   -5.1685563     80.05855  0.045078012  0.049142013            2 
  149000    1.0408707   -5.2271627    80.705017  0.045137034   0.04902545            3 
  150000     1.024271    -5.203126    81.166896   0.04509272  0.048917746            4 
  151000    1.0196838   -5.2167872    81.413808  0.044930358  0.048802504            2 
  152000    1.0500863   -5.2243799     81.75931  0.044824183  0.048690315            6 
  153000     1.030789   -5.2147677    82.514719  0.044942657  0.048581911            2 
  154000     1.004006   -5.2035834    83.096671  0.044965731  0.048473512            5 
  155000    1.0275501   -5.2069188    83.543298  0.044915752  0.048369298            4 
  156000    1.0179923   -5.2611968    83.591005  0.044653315  0.048262253            2 
  157000    1.0164591   -5.2464069    84.205623  0.044695129  0.048157093            2 
  158000    1.0404122   -5.2411591     84.61734  0.044629399  0.048059504            3 
  159000    1.0231514   -5.2615032    84.981332  0.044539482  0.047962316            6 
  160000    1.0126555   -5.2267559    85.502015    0.0445323  0.047860968            2 
  161000    1.0064591   -5.2325593    85.523771  0.044266962  0.047752506            3 
  162000    1.0368539   -5.2119965    86.594339  0.044544413  0.047653821            3 
  163000    1.0162326   -5.2655382    86.798705  0.044375616   0.04755952            4 
  164000    1.0199655   -5.2438792    87.607716  0.044516116  0.047466597            4 
  165000   0.98468761   -5.2527917    87.809327  0.044348145  0.047370846            7 
  166000    1.0033363   -5.2667206    88.396112  0.044375558  0.047281307            4 
  167000    1.0324561   -5.2407472    88.972768  0.044397589  0.047191459            2 
  168000    1.0189809   -5.2794571    88.936234  0.044115195  0.047095568            3 
  169000    1.0094872   -5.2639112    88.952131  0.043861997  0.046996105            2 
  170000   0.99860305   -5.2417039    89.521753  0.043883212  0.046892884            4 
  171000   0.99512472   -5.2585017    90.005351  0.043862257  0.046795588            4 
  172000   0.98832023   -5.2823676    90.150806  0.043677716   0.04669473            4 
  173000     1.009657   -5.2645956    90.539192  0.043612327   0.04659252            1 
  174000   0.96750233   -5.2868147     90.95432  0.043560498  0.046491644            3 
  175000    1.0031009   -5.2858721    91.426795  0.043536569  0.046394073            2 
  176000   0.99810121   -5.3113962    91.354269  0.043254862   0.04629502            3 
  177000    1.0040895   -5.2780449     91.88962  0.043262533  0.046192623            2 
  178000   0.97779574   -5.2794912    92.634652  0.043368282  0.046092894            4 
  179000   0.99363359   -5.3048648    93.281625  0.043427199  0.045995581            3 
  180000   0.97146089   -5.3198221    93.129476  0.043115498  0.045896102            7 
  181000   0.96600113   -5.3062839    93.703856  0.043141738  0.045797008            4 
  182000   0.96761486   -5.3118765     94.05858  0.043067115  0.045701689            8 
  183000   0.97750652   -5.2516711    94.469592   0.04301894   0.04560537            3 
  184000   0.97222781   -5.3278555    94.109615  0.042622108  0.045507172            4 
  185000   0.99556502   -5.3204895    95.045209  0.042813157  0.045408414            6 
  186000   0.98175507   -5.3615397    95.022437  0.042572776  0.045308543            7 
  187000    0.9634899   -5.3249207    95.602257  0.042603501  0.045211885            3 
  188000   0.96561753   -5.3258477    96.117551  0.042605297  0.045113845            4 
  189000   0.94682914   -5.2672374    96.804218  0.042682636  0.045017193            5 
  190000    0.9706028   -5.3533022    96.673015  0.042400445  0.044919465            3 
  191000   0.97625548    -5.357934    96.767842  0.042219826  0.044824017            2 
  192000   0.97575672   -5.3717708    97.251792  0.042209979  0.044727015            8 
  193000   0.95529878     -5.31443     97.89772  0.042270173  0.044632833            5 
  194000   0.96377775   -5.3872203    98.073981  0.042127999  0.044535193            2 
  195000   0.94252768   -5.3248926      98.5621  0.042120555  0.044439561            4 
  196000   0.93101873   -5.3452228    98.986012   0.04208589  0.044344886            4 
  197000   0.94964619   -5.3616067    99.104503  0.041922379   0.04425452            3 
  198000   0.95355613     -5.36251    99.675727  0.041951063  0.044163366            3 
  199000   0.94917168   -5.3375188    100.34332  0.042019815  0.044073697            5 
  200000   0.93561434   -5.3786987    100.48208  0.041867534  0.043986959            6 
  201000   0.94663114    -5.375392    100.76482  0.041776458  0.043897102            3 
  202000   0.94826434   -5.3994177    100.84863   0.04160422  0.043803949            3 
  203000   0.93794463   -5.3775838     101.4063  0.041628204  0.043710681            2 
  204000   0.93176985   -5.3759878    101.55891  0.041486482  0.043618879            3 
  205000   0.91835421   -5.4024211    102.06958  0.041491698  0.043528421            3 
  206000   0.92781343   -5.4112257     102.0799  0.041294459  0.043439414            3 
  207000   0.92041515   -5.4225782    102.86861  0.041412483  0.043348647            4 
  208000   0.94233037   -5.4082831    102.75546  0.041168053  0.043255214            5 
  209000   0.91469186   -5.4037214    103.06844  0.041095869   0.04316045            4 
  210000   0.91637043   -5.4103154     103.1818  0.040945159  0.043066913            4 
  211000   0.93685232   -5.4036426    103.52729  0.040887555  0.042972942            5 
  212000   0.93688016   -5.3631977    103.95809  0.040864029  0.042880597            3 
  213000   0.93745103   -5.4195657    104.01843  0.040695788  0.042788271            3 
  214000    0.9129481   -5.4105203    104.39156  0.040650919  0.042693641            4 
  215000    0.9257341   -5.4351998    104.56038  0.040527279  0.042601564            6 
  216000   0.91662455   -5.4075998    104.91593  0.040476826   0.04250867            5 
  217000   0.92453237   -5.4048563    105.37022  0.040464754  0.042415497            7 
  218000    0.9129408   -5.4259446     105.6465  0.040384747  0.042320108            9 
  219000   0.91239153   -5.4394816    106.07421  0.040363092  0.042226685            3 
  220000   0.91335734   -5.4198613    105.75621  0.040059169  0.042131241            6 
  221000   0.93092432   -5.4727962    105.56318  0.039805122  0.042034356            4 
  222000   0.92176085    -5.426211    106.79327  0.040087565  0.041938824            6 
  223000   0.93636039   -5.4102418    107.04077  0.040000287    0.0418452            8 
  224000   0.90954919   -5.4483757    106.94794   0.03978718  0.041749421            6 
  225000   0.90052449   -5.4511365     107.4792  0.039807111  0.041652693            6 
  226000   0.90046165   -5.4561007    107.43261  0.039613795   0.04155676            2 
  227000   0.90674131   -5.4396521    107.66851  0.039525884  0.041462909            2 
  228000   0.90809075    -5.465035    108.07377  0.039500648  0.041368693            4 
  229000    0.9050019   -5.4471569    108.56223  0.039505906  0.041273929            7 
  230000   0.89769005   -5.4379705    108.69952  0.039383882  0.041180417            4 
  231000   0.88541247   -5.4736812    108.98334  0.039315778  0.041084562            5 
  232000   0.88302503   -5.4914581    108.90595  0.039118516   0.04098899            5 
  233000   0.87499378   -5.4764209    109.49166  0.039160108  0.040894644            3 
  234000   0.87605434   -5.4953671    109.32337  0.038932823  0.040800628            3 
  235000   0.91848514   -5.4490336    110.27242  0.039103696  0.040706859            7 
  236000   0.91130073   -5.4837673    110.28954  0.038944047  0.040614248            5 
  237000   0.88686253   -5.4656793    110.51026  0.038857333  0.040522175            2 
  238000   0.88325427   -5.4785142    110.47385   0.03868132   0.04042858            3 
  239000    0.8767694   -5.5089062     110.4664  0.038516874  0.040333647            4 
  240000   0.88395767   -5.5347348    110.44109  0.038347601   0.04023756            4 
  241000   0.89699631   -5.5266983    110.84906  0.038329552  0.040141695            5 
  242000   0.87483222   -5.4945687    111.57604  0.038421501  0.040045852            5 
  243000   0.87928194   -5.5282861    111.28136  0.038162332  0.039949904            8 
  244000   0.87291591   -5.5255371    111.32225  0.038019893  0.039852217            4 
  245000    0.8835575   -5.5127404    111.87647  0.038053221  0.039754432            2 
  246000   0.89942532   -5.4996123    112.04769  0.037956534  0.039656044            8 
  247000   0.88078829   -5.5669763    111.66455  0.037673598  0.039555016            3 
  248000   0.87585591    -5.530443    111.97818  0.037627078  0.039454952            7 
  249000   0.87024885   -5.5257064    112.72172  0.037724804  0.039356851            4 
  250000   0.87448819   -5.5105534    112.91155  0.037637182  0.039261149            8 
  251000   0.86107077   -5.5345019    113.03078   0.03752682  0.039166001            5 
  252000    0.8824322   -5.5492597     113.0451  0.037382638  0.039070231            6 
  253000   0.85574135   -5.5539263    113.47176  0.037375414   0.03897337            4 
  254000   0.86276922   -5.5800864    113.58561   0.03726562  0.038877509            9 
  255000   0.85273706   -5.5643974    113.52859  0.037100848   0.03878148            3 
  256000   0.84945119   -5.5773803    114.08577  0.037137296  0.038684253            8 
  257000   0.87363124   -5.5595284     114.0348  0.036976266  0.038587139            6 
  258000   0.84885215   -5.5653206    114.25723  0.036904791  0.038488989            4 
  259000   0.88017621   -5.5432033    114.54257  0.036854109  0.038391563            9 
  260000   0.85712596    -5.586048    114.38297  0.036661208  0.038296157            5 
  261000   0.84679621   -5.5968478    115.00611  0.036719704  0.038200475            8 
  262000   0.84433613   -5.5857321    115.30756  0.036675431  0.038104875            3 
  263000   0.84317498   -5.5868786    115.29886  0.036533224  0.038010532            9 
  264000   0.86292226   -5.6030277    115.66489  0.036510383  0.037915928            4 
  265000   0.85293752   -5.5882742    115.57822  0.036345353   0.03782243            4 
  266000   0.84194055   -5.6041477    115.70505   0.03624845  0.037728633            9 
  267000   0.86271673   -5.5856061    116.16782  0.036257123  0.037634695            4 
  268000   0.84938626    -5.606888    116.22445  0.036139443  0.037541347            4 
  269000   0.84102086   -5.5833596    116.65007  0.036136948  0.037447551            5 
  270000     0.849122   -5.6345256    116.12273   0.03584035  0.037354692            5 
  271000   0.84521875   -5.6204759    116.90755  0.035949431  0.037261735            8 
  272000   0.85754708   -5.6471541    116.88886  0.035811539  0.037167682            6 
  273000   0.82295266   -5.5996576    117.87308  0.035980792  0.037075153           10 
  274000   0.84150206   -5.6526731    117.36977  0.035696402  0.036982269            7 
  275000   0.81393063   -5.6185179    117.90033  0.035727373  0.036891449            8 
  276000   0.82554033   -5.6352317    117.54497   0.03549063  0.036801059            4 
  277000   0.80218942   -5.6347877    118.27014  0.035580667  0.036710469            4 
  278000   0.84432721   -5.6501004    118.25724  0.035448813  0.036620132            3 
  279000   0.82898297   -5.6190841    118.71083  0.035457237  0.036531754            7 
  280000   0.82504119   -5.6058504    119.45868   0.03555318  0.036444177            7 
  281000   0.83011911   -5.6505325    118.89054  0.035258168  0.036355703           10 
  282000   0.82232101   -5.6476641    119.12956   0.03520377  0.036266565            4 
  283000   0.81964125   -5.6475793    119.08005  0.035064797  0.036177855            5 
  284000   0.82400908   -5.6874386    119.57443  0.035086395  0.036089388            6 
  285000   0.79882401   -5.6490593    119.96885   0.03507861  0.036001565            7 
  286000   0.79732265   -5.6724495    120.00155  0.034965487   0.03591559           11 
  287000   0.79892907   -5.6863772    120.19513  0.034899865   0.03582886           25 
  288000   0.81419829   -5.6734324    120.41096  0.034841135  0.035742757           12 
  289000   0.81242638   -5.6903589    120.42272  0.034723967  0.035656521           10 
  290000   0.81082878   -5.6742811    120.40751  0.034599858  0.035569755            7 
  291000    0.7972756   -5.6834564    121.17226  0.034699961  0.035482957            4 
  292000   0.78340376   -5.6767117    120.80251  0.034475601  0.035397149            3 
  293000   0.81254475   -5.6897591    121.15131  0.034457143  0.035311334            5 
  294000    0.7966452    -5.712476    121.33019  0.034390643  0.035225003            8 
  295000   0.79079373   -5.7090381    121.48719  0.034318415  0.035138642            5 
  296000   0.79014304   -5.7071225    121.35754  0.034165975  0.035052502            6 
  297000    0.8065127   -5.7127126    121.45535  0.034078382   0.03496689            8 
  298000   0.78571726   -5.7062364    121.82448  0.034067249  0.034879794            4 
  299000   0.79137738   -5.7245861    121.84187  0.033958159  0.034792756            7 
  300000   0.78487701   -5.7334452     121.7291  0.033813639  0.034705775           10 
  301000   0.77839563   -5.6908132    122.05563  0.033791702  0.034619013            8 
  302000   0.79269618   -5.6759202    122.29511   0.03374589  0.034532679           13 
  303000   0.79237569   -5.7345851     122.3461  0.033648543  0.034445964           11 
  304000   0.78520065   -5.7578193    122.31414  0.033529094  0.034358925            7 
  305000   0.78698237    -5.745681    122.22055  0.033393593  0.034271345            7 
  306000   0.78561753   -5.7371157     122.2073  0.033280855  0.034184426            3 
  307000   0.77963528    -5.773176    122.52951  0.033259911  0.034096862           15 
  308000   0.78488579   -5.7574779    122.51609  0.033148292  0.034008788            5 
  309000   0.76517203   -5.7584903    122.77266  0.033110212   0.03392061            5 
  310000   0.76677951   -5.7635377    122.93455  0.033046921  0.033834451           10 
  311000   0.77338083    -5.826759    122.91276  0.032934824  0.033747227           11 
  312000   0.76334729   -5.7803447    123.04114  0.032863551  0.033659813            6 
  313000   0.78321082   -5.7704974     123.2503  0.032814245   0.03357353           11 
  314000   0.75472649   -5.7642287    123.82404  0.032862005  0.033487597            7 
  315000   0.76481927   -5.7749882     123.7819  0.032746534  0.033402148            7 
  316000   0.77386199   -5.7989948    123.91013  0.032676721  0.033316133           11 
  317000   0.77505174   -5.7821272    123.72095   0.03252391  0.033230808            7 
  318000   0.77181196   -5.7823836    124.03036  0.032502716  0.033144591            6 
  319000   0.74063536   -5.7863926    124.04245  0.032403985   0.03305884           12 
  320000   0.75700077   -5.7659011    124.46976  0.032413999  0.032974949           10 
  321000   0.77219451   -5.8237416    124.09109  0.032214718  0.032890057            9 
  322000     0.757303   -5.8017764    124.32403  0.032174955  0.032804346            6 
  323000   0.73778647   -5.8250955    124.40461  0.032096132  0.032718872            6 
  324000   0.77016366   -5.8177247    124.55422  0.032035551  0.032634017           10 
  325000   0.74560428   -5.8248985    124.26618  0.031863122  0.032548768            9 
  326000   0.73193978   -5.8356727    124.19089  0.031746136  0.032462984           13 
  327000    0.7397559   -5.8302819    124.46431  0.031718734  0.032377031            7 
  328000    0.7473412   -5.8247539    124.55484  0.031645029  0.032291274           19 
  329000   0.72892671   -5.8496356     124.3995    0.0315095  0.032205527           17 
  330000   0.72788223   -5.8151536    124.78301  0.031510862  0.032119556            9 
  331000   0.74243515   -5.8542522    124.58583   0.03136602  0.032033675            5 
  332000   0.73346511   -5.8481803    124.80676  0.031326998  0.031947671            8 
  333000   0.74905201    -5.816932    125.23843  0.031340948  0.031862295            6 
  334000    0.7318266   -5.8540831    125.04212  0.031198133  0.031776871            7 
  335000   0.74370634   -5.8619308    125.27137  0.031162032  0.031691264            7 
  336000   0.73749478   -5.8698261    124.98513  0.030998295  0.031605975           10 
  337000   0.73534602   -5.8523064    125.17001  0.030952031   0.03152043            7 
  338000   0.73371479   -5.8875678    125.48323  0.030937679  0.031435467            7 
  339000   0.70991891   -5.8535528    125.29818   0.03080093  0.031351002            6 
  340000   0.73080408   -5.8961124    125.29196  0.030708814  0.031265917           10 
  341000   0.71956837   -5.8874172    125.28343  0.030616674  0.031180778            6 
  342000   0.73282346   -5.8752249    125.66427  0.030619948  0.031095806           10 
  343000   0.70947881   -5.8895524    125.50857  0.030492851  0.031011401           10 
  344000   0.70265026    -5.854205    125.52735  0.030408756   0.03092682            6 
  345000   0.70153922   -5.8778994     125.7936  0.030384928  0.030842111            6 
  346000   0.72354377   -5.8726505     125.7159  0.030278396  0.030757294           13 
  347000   0.72982317    -5.905917    125.62293  0.030168811  0.030672407           10 
  348000   0.72522721   -5.9016959     125.6901  0.030098204  0.030587743            9 
  349000   0.69345139   -5.9269747    125.44058  0.029952382  0.030502676            9 
  350000     0.704084   -5.9206639    125.34933  0.029845078  0.030417424            6 
  351000   0.70589653    -5.926734    125.83047  0.029874281  0.030333017            7 
  352000    0.7040196   -5.9281075    125.96518  0.029821302  0.030248065            8 
  353000   0.71043199   -5.9229616    125.93327   0.02972929  0.030163094            8 
  354000   0.71092594   -5.9105592     126.2699  0.029724553  0.030078747           12 
  355000   0.68902648   -5.9253867    125.98004   0.02957278  0.029995035            7 
  356000   0.71944631   -5.9217919    125.80446  0.029448608  0.029911004           19 
  357000   0.68398801   -5.9353231    126.16707  0.029450762  0.029826953           11 
  358000   0.69524356   -5.9639938    125.80354  0.029283877  0.029743197           21 
  359000   0.67641022   -5.9365333    126.37573  0.029335129  0.029660019            8 
  360000   0.70107322   -5.9397147    126.64955  0.029317025  0.029577192            7 
  361000   0.70050203   -5.9589513      126.324  0.029160665   0.02949477            9 
  362000   0.68792358   -5.9537611     126.3067  0.029076127  0.029412335           17 
  363000   0.68895756    -5.965458    126.41381  0.029020618  0.029329809           13 
  364000   0.68364159   -5.9610318    126.78357  0.029025543  0.029247371           18 
  365000   0.69904622   -5.9612081    126.75937  0.028940496  0.029164962           14 
  366000   0.67487814   -5.9284618    127.02189  0.028921195   0.02908343           23 
  367000   0.69107174   -5.9601534    126.67118  0.028762757  0.029001903           15 
  368000   0.67837992   -5.9786555    126.89629  0.028735572  0.028920368           16 
  369000   0.67913615   -5.9790057    126.76626  0.028628333  0.028838569           13 
  370000   0.67745873   -5.9972103    127.02949  0.028610246  0.028757125            8 
  371000   0.67346258   -5.9711318    126.98735  0.028523663  0.028675979            6 
  372000    0.6667851   -5.9859491    126.78699  0.028402104   0.02859549           13 
  373000   0.65015319   -5.9870949    127.19632  0.028417409  0.028515067           16 
  374000   0.66095463   -6.0108021    127.16514  0.028334479  0.028435119           15 
  375000   0.68044791   -6.0164752    126.96629  0.028214731  0.028354932           11 
  376000   0.66506173   -6.0170982    127.01679  0.028150884  0.028274457           14 
  377000   0.65102941   -5.9953114    127.18319  0.028112996  0.028194204           27 
  378000   0.66996462   -6.0117377    127.02747  0.028004293  0.028114237            9 
  379000   0.65175237   -6.0347198    126.88182  0.027898377  0.028034604            7 
  380000   0.67383385   -6.0170993    126.89781  0.027828468  0.027955176           10 
  381000   0.67449988   -6.0348775    126.98506  0.027774511  0.027875253           12 
  382000   0.66480096   -6.0247587    127.02387  0.027710268   0.02779522           21 
  383000   0.66154482   -6.0232377    126.97004  0.027626206  0.027716031           28 
  384000   0.64880695   -6.0284994    127.35232  0.027637222  0.027637337           20 
  385000   0.64783501   -6.0435899    127.54053  0.027606175  0.027558979            8 
  386000   0.65296746    -6.051037    127.33463  0.027490206  0.027480904           26 
  387000   0.65003393   -6.0420309    127.30773  0.027413378  0.027402513           22 
  388000   0.67324213   -6.0471922     127.3983  0.027362178  0.027324317           30 
  389000   0.64187788   -6.0508021    127.47356   0.02730796   0.02724657           31 
  390000   0.64231064   -6.0839815    127.51262  0.027246286  0.027169092           22 
  391000    0.6376144   -6.0909731    127.46702  0.027166883   0.02709168           24 
  392000   0.63555305   -6.0745918    127.69776  0.027146632  0.027014562           17 
  393000    0.6350443   -6.0846996    127.48222  0.027031852  0.026937658           19 
  394000   0.62684803   -6.0958856    127.43288  0.026952809  0.026860456           10 
  395000   0.63507541   -6.0767675     127.5824  0.026916117  0.026783471           16 
  396000   0.63537325   -6.0698613    127.76238  0.026886023  0.026706703           10 
  397000    0.6309687   -6.0963241    127.48151  0.026759343  0.026629932           24 
  398000   0.62607967   -6.0785269    127.88666  0.026776939  0.026553549           15 
  399000   0.63752972   -6.1007023    127.81329  0.026694506  0.026477603           41 
  400000   0.63019906   -6.1055101    127.73972  0.026612441  0.026401871           16 
  401000   0.61996951    -6.089134    127.91483  0.026582467  0.026326778           28 
  402000    0.6220509   -6.1006526    128.14359  0.026563762  0.026251946           14 
  403000   0.63082801   -6.1227839    128.15685  0.026500589  0.026177214           28 
  404000    0.6256138   -6.1106076    127.94058  0.026390384  0.026103009           25 
  405000   0.62316304    -6.115862    128.22235    0.0263832  0.026029145           17 
  406000   0.59495136   -6.1403781     128.0857  0.026290169  0.025955493           27 
  407000   0.61828131   -6.1300229     127.9176  0.026191156  0.025881586           18 
  408000   0.61289284   -6.1400441    128.08857  0.026161881  0.025807846           11 
  409000    0.6068453   -6.1245218    128.36757  0.026154762  0.025734563           21 
  410000   0.61588526   -6.1464515    128.29744  0.026076716  0.025661812           18 
  411000   0.61846705   -6.1370478    128.47507  0.026049284  0.025589168           16 
  412000   0.62061581    -6.142427    128.40743  0.025972376  0.025516589           27 
  413000    0.6002032   -6.1446159     128.1228  0.025852059  0.025444151           25 
  414000   0.61050653   -6.1401821    128.48671  0.025862864  0.025371559           22 
  415000   0.60022466   -6.1520536    128.16893  0.025736732  0.025299271           25 
  416000   0.60628799   -6.1680232    128.23945  0.025688992  0.025227134           15 
  417000   0.60126528   -6.1698587    128.30958  0.025641404  0.025154835           32 
  418000   0.60087011   -6.1667964    127.93555  0.025505493  0.025082684           13 
  419000   0.60093105   -6.1669012    127.98051  0.025453562  0.025010305           12 
  420000   0.58468822   -6.1788966    128.13286  0.025423185  0.024938221           16 
  421000   0.58298763    -6.179621    127.78447  0.025293838  0.024865959           24 
  422000   0.58917597   -6.1860184     127.9896  0.025274407   0.02479379           10 
  423000   0.58429384   -6.1681435    127.97328  0.025211442   0.02472166           25 
  424000   0.57913611   -6.1888607    128.09107  0.025175131  0.024649991           29 
  425000   0.59489718   -6.2109987    127.68947   0.02503715  0.024578419           56 
  426000    0.5958256   -6.2077304    127.93495  0.025026399  0.024506935           23 
  427000   0.59443247   -6.2190606     128.0847  0.024997015  0.024435791           11 
  428000   0.58608972   -6.2289431    127.80923  0.024884974  0.024364795           30 
  429000   0.56643444    -6.224463    128.02986  0.024869825  0.024293889           32 
  430000   0.58160535    -6.224257    127.87219  0.024781433  0.024223074           30 
  431000   0.59069655   -6.2301648    127.86427  0.024722403  0.024152155           44 
  432000   0.57284849   -6.2312561    127.98716   0.02468888  0.024081905           51 
  433000   0.58569328   -6.2407665    127.85432  0.024606297  0.024011949           17 
  434000   0.56448488   -6.2210588     127.8339  0.024545679  0.023942298           15 
  435000   0.58292418   -6.2180124    128.06491  0.024533508  0.023872889           28 
  436000   0.56008465   -6.2470613    127.78206  0.024423176  0.023803385           30 
  437000   0.56057191   -6.2545034    127.69831  0.024351318  0.023734004           80 
  438000    0.5523479   -6.2461877    128.24546  0.024399822  0.023664917           40 
  439000   0.57188798   -6.2580207    127.92682  0.024283754  0.023596117           65 
  440000   0.56832447   -6.2423099    128.24367  0.024288574  0.023527789          122 
  441000   0.56115652   -6.2634482    127.76917  0.024143833  0.023459583           53 
  442000   0.55733737   -6.2766617    127.75265  0.024086096  0.023391441           53 
  443000   0.55461152   -6.2560896    127.72038  0.024025654  0.023323369           56 
  444000   0.56011164   -6.2904439    127.79813  0.023986135  0.023255281           82 
  445000   0.55915301    -6.298398    127.75875   0.02392486  0.023187409          112 
  446000   0.55801629   -6.2659164     127.9942   0.02391521  0.023119569           63 
  447000     0.561295   -6.2931555    127.71103  0.023808917  0.023051905           60 
  448000   0.55708168   -6.2939055    127.83837  0.023779459  0.022984235           86 
  449000    0.5475148   -6.3138353     127.7984   0.02371908  0.022916803          101 
  450000   0.54402477   -6.3026335    127.86213  0.023678173  0.022849459           37 
  451000   0.55156272   -6.3258881    127.79629  0.023613506  0.022782387          103 
  452000   0.53762073   -6.3272816    127.96209   0.02359183  0.022715555           70 
  453000   0.55243569   -6.3250713    127.69132  0.023489941  0.022648772           95 
  454000   0.54562828   -6.3286152    127.76525  0.023451772  0.022582116          106 
  455000    0.5346609   -6.3378705     127.9135   0.02342738  0.022515642          114 
  456000   0.54428187   -6.3435149     127.5515  0.023309851  0.022449337          195 
  457000   0.54415507    -6.315125    127.35529  0.023223066  0.022383263          113 
  458000   0.53193873   -6.3284379    127.60097  0.023217062  0.022317285           91 
  459000   0.53315809   -6.3442766    127.78436  0.023199774  0.022251595           74 
  460000   0.54113938   -6.3471997    127.78008  0.023148566   0.02218604           86 
  461000   0.52443324   -6.3540442     127.4374  0.023036406  0.022120879           85 
  462000   0.53661279   -6.3330305    127.71835  0.023037221  0.022055883           66 
  463000   0.53859228   -6.3386924    127.57237   0.02296119  0.021991131           66 
  464000   0.51216969   -6.3532083    127.60585  0.022917717  0.021926578          140 
  465000   0.52177041   -6.3693741    127.69375  0.022884185  0.021862152           97 
  466000   0.51435715   -6.3572848    127.76009  0.022846941  0.021798011           53 
  467000    0.5325326   -6.3941208    127.44916  0.022742535  0.021733811          102 
  468000   0.52746523   -6.3643371    127.61177  0.022722893  0.021669694           77 
  469000   0.52588273   -6.3755633    127.43405  0.022642866  0.021605778          104 
  470000   0.51750101   -6.3643644    127.62289  0.022628172  0.021542005           94 
  471000    0.5142065    -6.386177    127.61312  0.022578401  0.021478578           60 
  472000   0.51557002   -6.3784978    127.56652  0.022522338  0.021415139          131 
  473000   0.51524978   -6.3785672     127.4614  0.022456202  0.021351907          141 
  474000   0.51302538   -6.3904013    127.06385  0.022338933  0.021288701          172 
  475000   0.51590184   -6.3870932    127.43895   0.02235771  0.021225765          199 
  476000   0.51038927   -6.4092581    127.43274  0.022309654  0.021163169          203 
  477000   0.51355368   -6.3870033    127.47982  0.022271108  0.021100809          128 
  478000   0.50870847   -6.3944236    127.23363  0.022181595  0.021038712          109 
  479000   0.50907009   -6.4126977    127.41241   0.02216639  0.020976971          116 
  480000   0.50514423   -6.4188152    127.35408  0.022110083  0.020915254          113 
  481000   0.49804505   -6.4139968    127.48986   0.02208764  0.020853704          200 
  482000    0.4993291    -6.414995    127.28631  0.022006624  0.020792123          146 
  483000    0.4916441   -6.4152464    127.35132  0.021972277    0.0207308           85 
  484000   0.49883991   -6.4251159    127.46327  0.021946154  0.020669802           34 
  485000   0.49116149   -6.4226681    127.17249  0.021850943   0.02060893           81 
  486000   0.49941334   -6.4521777    127.10388  0.021794218  0.020548102           70 
  487000   0.48612693   -6.4396969     127.2276  0.021770636  0.020487438          103 
  488000   0.48124016   -6.4396406    127.40077  0.021755596  0.020427077          122 
  489000   0.49261197    -6.442388    127.15624  0.021669434  0.020366868           67 
  490000   0.48089109   -6.4345119    127.17917   0.02162911  0.020306896           89 
  491000   0.47792061   -6.4437032      127.367  0.021616938  0.020247206           45 
  492000   0.48004712   -6.4522996    127.28142  0.021558506  0.020187766          142 
  493000   0.48109916   -6.4379365    127.24092   0.02150793  0.020128534          118 
  494000   0.47874379   -6.4451431    127.29498  0.021473513  0.020069437           70 
  495000   0.47708207   -6.4524779    126.99842  0.021380206  0.020010568          131 
  496000   0.48329574   -6.4608422    127.03459  0.021343177  0.019951665          130 
  497000   0.46845625   -6.4481587    127.22357   0.02133192  0.019892992          108 
  498000   0.47092458   -6.4569178    127.23875  0.021291625   0.01983445          156 
  499000   0.47192913   -6.4809383    127.08725  0.021223655  0.019776069          142 
  500000   0.46941293   -6.4691894    126.73411  0.021122351   0.01971781          161 
  501000   0.46922522   -6.4652006    126.92601   0.02111211  0.019659643          171 
  502000   0.46584766    -6.471123    126.77775  0.021045444  0.019601696           90 
  503000   0.46310802   -6.4791453    126.83971  0.021013868  0.019543987          256 
  504000   0.45483494   -6.4734033    126.53519  0.020921823  0.019486468          119 
  505000   0.46379588   -6.4995043    126.85326  0.020932881  0.019429023          190 
  506000   0.46755873   -6.4880293    126.91992   0.02090249  0.019371863          156 
  507000   0.45958758   -6.4995945    126.87408  0.020853728   0.01931478          128 
  508000   0.45786427   -6.5078299    127.03632  0.020839291  0.019257914          110 
  509000    0.4630472   -6.4909715    126.92084  0.020779443  0.019201281           98 
  510000    0.4533402   -6.4916023    126.89814   0.02073499  0.019144789          178 
  511000   0.45452475   -6.5190115    126.86973   0.02068978  0.019088461          179 
  512000   0.45580927   -6.5001229    126.72939  0.020626528  0.019032288          237 
Loop time of 1287.45 on 48 procs for 500000 steps with 4000 atoms

Performance: 67109.313 tau/day, 388.364 timesteps/s
99.4% CPU use with 48 MPI tasks x no OpenMP threads

MPI task timing breakdown:
Section |  min time  |  avg time  |  max time  |%varavg| %total
---------------------------------------------------------------
Pair    | 89.904     | 96.856     | 101.99     |  27.8 |  7.52
Neigh   | 8.81       | 9.1061     | 9.454      |   4.8 |  0.71
Comm    | 84.126     | 90.514     | 98.972     |  33.4 |  7.03
Output  | 0.88543    | 0.88664    | 0.91423    |   0.4 |  0.07
Modify  | 1071.8     | 1077.5     | 1081.7     |   7.0 | 83.69
Other   |            | 12.59      |            |       |  0.98

Nlocal:        83.3333 ave          92 max          74 min
Histogram: 1 3 4 6 5 6 13 9 0 1
Nghost:        2372.90 ave        2406 max        2356 min
Histogram: 2 9 15 8 3 5 3 0 2 1
Neighs:        16317.2 ave       19419 max       14310 min
Histogram: 9 3 6 9 6 4 5 3 2 1
FullNghs:      32636.2 ave       36027 max       28950 min
Histogram: 1 3 4 6 6 9 8 8 2 1

Total # of neighbors = 1566539
Ave neighs/atom = 391.63475
Neighbor list builds = 26860
Dangerous builds = 0

#clear
#
#next RN
#
#jump SELF
Total wall time: 0:21:31
