
units lj                  # Use reduced LJ style units
atom_style atomic         # Uncharged point particles
atom_modify map hash      # Needed for indexing of clusters etc
                          # Used to be able to find where atoms are in relation to each other.

lattice fcc 1.0 spacing 1 1 1
Lattice spacing in x,y,z = 1.5874011 1.5874011 1.5874011
region box block 0 10 0 10 0 10 units lattice
create_box 2 box
Created orthogonal box = (0.0000000 0.0000000 0.0000000) to (15.874011 15.874011 15.874011)
  3 by 4 by 4 MPI processor grid
create_atoms 1 box
Created 4000 atoms
  using lattice units in orthogonal box = (0.0000000 0.0000000 0.0000000) to (15.874011 15.874011 15.874011)
  create_atoms CPU = 0.002 seconds
set type 1 type/fraction 2 0.05 78393
Setting atom values ...
  207 settings made for type/fraction
mass 1 1.0
mass 2 1.0
pair_style lj/cut  3.5
pair_modify tail  yes
pair_coeff 1  1  1.0  1.0   # Intearaction between 1 and 1 set with epsilon = 1 and sigma = 1
pair_coeff 1  2  1.5  0.8
pair_coeff 2  2  0.5  0.88

write_data data.0
System init for write_data ...
Neighbor list info ...
  update every 1 steps, delay 10 steps, check yes
  max neighbors/atom: 2000, page size: 100000
  master list distance cutoff = 3.8
  ghost atom cutoff = 3.8
  binsize = 1.9, bins = 9 9 9
  1 neighbor lists, perpetual/occasional/extra = 1 0 0
  (1) pair lj/cut, perpetual
      attributes: half, newton on
      pair build: half/bin/atomonly/newton
      stencil: half/bin/3d
      bin: standard
WARNING: Not all mixed pair coeffs generated from mixing. Use write_data with 'pair ij' option to store all pair coeffs. (../write_data.cpp:312)


#############################
#   M E L T   S Y S T E M   #
#############################

velocity all create 2.4 8172548 mom yes dist gaussian # Assign velocities
                                                    # Temperature 2.4, random number seed, zero linear momentum
                                                                                # Gaussian distribution

timestep 0.002   # simulation timestep
thermo 1000       # output thermodynamic data every 1000 steps bf 100

# Define a fix  in this case with index 1 applied to all
# particles in the simulation. This fix is for simulations
# in the anisotropic NPT ensemble. Note that we use the MTK
# correction.
fix 1 all npt temp 2.4 2.4 0.1 iso 5.68 5.68 0.5 mtk yes tchain 5 pchain 5 # Use NPT ensemble
                                                                         # Set temperature and pressure and damping
                                                                         # Numbers of thermostats in chain and in barostat
run 10000          # run for 10000 steps
Per MPI rank memory allocation (min/avg/max) = 3.642 | 3.644 | 3.648 Mbytes
Step Temp E_pair E_mol TotEng Press Volume 
       0          2.4   -8.0440018            0   -4.4449018    -2.648783         4000 
    1000    2.4407846   -4.5262349            0  -0.86597325    5.6230691     5023.748 
    2000    2.4102555   -4.5159332            0  -0.90145383    5.4397256    5049.4061 
    3000    2.3580389   -4.4820033            0  -0.94582931    5.4939642    5057.9627 
    4000    2.3666234   -4.5292446            0  -0.98019694    5.6959779    5015.9448 
    5000    2.4720395   -4.4941844            0   -0.7870522    5.7402663    5028.7276 
    6000    2.3540442   -4.5248729            0  -0.99468932    5.4409786    5032.5141 
    7000    2.4210205    -4.515543            0  -0.88492009    5.6803982    5024.4331 
    8000    2.4716748   -4.5044764            0  -0.79789107       5.9055    5000.4392 
    9000    2.3929524   -4.4874652            0  -0.89893392     5.322765    5081.0642 
   10000    2.4389631   -4.5013552            0  -0.84382509     5.560707    5042.9337 
Loop time of 2.06634 on 48 procs for 10000 steps with 4000 atoms

Performance: 836259.594 tau/day, 4839.465 timesteps/s
99.7% CPU use with 48 MPI tasks x no OpenMP threads

MPI task timing breakdown:
Section |  min time  |  avg time  |  max time  |%varavg| %total
---------------------------------------------------------------
Pair    | 0.86405    | 0.92624    | 1.0758     |   3.7 | 44.82
Neigh   | 0.16582    | 0.17499    | 0.20166    |   1.3 |  8.47
Comm    | 0.55216    | 0.72477    | 0.82136    |   5.4 | 35.07
Output  | 0.00023822 | 0.00024567 | 0.00031198 |   0.0 |  0.01
Modify  | 0.19617    | 0.22557    | 0.26186    |   3.8 | 10.92
Other   |            | 0.01453    |            |       |  0.70

Nlocal:        83.3333 ave          93 max          75 min
Histogram: 2 4 10 6 5 6 7 3 3 2
Nghost:        1413.33 ave        1434 max        1394 min
Histogram: 3 5 5 6 6 5 6 6 3 3
Neighs:        7556.62 ave        8900 max        6266 min
Histogram: 1 1 8 7 10 7 6 3 3 2

Total # of neighbors = 362718
Ave neighs/atom = 90.679500
Neighbor list builds = 903
Dangerous builds = 188

# Equilibrate just above the melting temperature to avoid step fn in T

fix 1 all npt temp 1.25 1.25 0.1 iso 5.68 5.68 0.5 mtk yes tchain 5 pchain 5
run 2000
Per MPI rank memory allocation (min/avg/max) = 3.643 | 3.645 | 3.649 Mbytes
Step Temp E_pair E_mol TotEng Press Volume 
   10000    2.4389631   -4.5013552            0  -0.84382509     5.560707    5042.9337 
   11000    1.2287686   -5.9852888            0   -4.1425967    5.8880825     4162.793 
   12000    1.2565992   -6.0388706            0    -4.154443    5.8701219    4145.4003 
Loop time of 0.462089 on 48 procs for 2000 steps with 4000 atoms

Performance: 747908.146 tau/day, 4328.172 timesteps/s
99.6% CPU use with 48 MPI tasks x no OpenMP threads

MPI task timing breakdown:
Section |  min time  |  avg time  |  max time  |%varavg| %total
---------------------------------------------------------------
Pair    | 0.19659    | 0.21306    | 0.23312    |   1.5 | 46.11
Neigh   | 0.030755   | 0.03224    | 0.034657   |   0.4 |  6.98
Comm    | 0.14678    | 0.16108    | 0.17814    |   2.1 | 34.86
Output  | 5.0104e-05 | 5.1489e-05 | 6.5313e-05 |   0.0 |  0.01
Modify  | 0.042769   | 0.051319   | 0.062032   |   2.1 | 11.11
Other   |            | 0.004336   |            |       |  0.94

Nlocal:        83.3333 ave          92 max          75 min
Histogram: 1 2 3 7 11 13 7 2 1 1
Nghost:        1606.48 ave        1629 max        1588 min
Histogram: 3 3 8 9 8 2 3 8 1 3
Neighs:        9168.06 ave       10323 max        8261 min
Histogram: 1 2 6 14 6 12 5 0 1 1

Total # of neighbors = 440067
Ave neighs/atom = 110.01675
Neighbor list builds = 142
Dangerous builds = 7

#############################
# L I N E A R  Q U E N C H  #
#############################

# Define solid atoms. This closely follows ten Wolde  Ruiz-Montero and Frenkel  Faraday Discuss  1996  104  93-110
# Compute components of the per-atom q6 vector
compute q6 all orientorder/atom degrees 1 6 components 6 nnn NULL cutoff 1.3 # compute the Q6 parameter.
                                                                             # Use all neighbours within 1.3 unit cell.

# get number of connections
compute coord_number all coord/atom orientorder q6 0.5

# An atom is solid if it has 8 or more connections (of a possible 14)
variable is_solid atom c_coord_number>=8
group solid dynamic all var is_solid    # Must be dynamic to update
dynamic group solid defined

# do clustering
compute cluster solid cluster/atom 1.3 # Create a cluster where all atoms within are solid and max 1.3 units from another member

# define chunks one chunk per cluster
compute clus_chunks solid chunk/atom c_cluster nchunk every compress yes  # Says which atoms are in which chunk

# count the size of each chunk
compute size_chunks solid property/chunk clus_chunks count


# Find the maximum entry in the vector of chunk sizes
variable max_n equal max(c_size_chunks)


# Thermo style which includes this variable
# thermo_style custom step temp pe vol v_max_n

thermo ${N}  # Print the thermo information every 100 steps
thermo 1000  

# Reset the npt fix at a lower temperature (below freezing)
fix 1  all npt temp  ${temp} ${temp}  0.1  iso  5.68  5.68  0.5  mtk yes tchain  5  pchain  5
fix 1  all npt temp  0.45 ${temp}  0.1  iso  5.68  5.68  0.5  mtk yes tchain  5  pchain  5
fix 1  all npt temp  0.45 0.45  0.1  iso  5.68  5.68  0.5  mtk yes tchain  5  pchain  5

dump dmp2 all dcd ${N} traj.dcd
dump dmp2 all dcd 1000 traj.dcd


compute msd all msd com yes
variable twopoint equal c_msd[4]/6/(step*dt+1.0e-6)
fix 9 all vector 10 c_msd[4]
variable fit equal slope(f_9)/6/(10*dt)
thermo_style custom step temp pe c_msd[4] v_twopoint v_fit v_max_n

fix 1 all npt temp 1.25 ${temp} 0.1 iso 5.68 5.68 0.5 mtk yes tchain 5 pchain 5
fix 1 all npt temp 1.25 0.45 0.1 iso 5.68 5.68 0.5 mtk yes tchain 5 pchain 5
run 5000000 # 5000000  # Run for this many steps
Neighbor list info ...
  update every 1 steps, delay 10 steps, check yes
  max neighbors/atom: 2000, page size: 100000
  master list distance cutoff = 3.8
  ghost atom cutoff = 3.8
  binsize = 1.9, bins = 9 9 9
  4 neighbor lists, perpetual/occasional/extra = 1 3 0
  (1) pair lj/cut, perpetual
      attributes: half, newton on
      pair build: half/bin/atomonly/newton
      stencil: half/bin/3d
      bin: standard
  (2) compute orientorder/atom, occasional
      attributes: full, newton on
      pair build: full/bin/atomonly
      stencil: full/bin/3d
      bin: standard
  (3) compute coord/atom, occasional
      attributes: full, newton on
      pair build: full/bin/atomonly
      stencil: full/bin/3d
      bin: standard
  (4) compute cluster/atom, occasional
      attributes: full, newton on
      pair build: full/bin/atomonly
      stencil: full/bin/3d
      bin: standard
Per MPI rank memory allocation (min/avg/max) = 9.741 | 9.745 | 9.752 Mbytes
Step Temp PotEng c_msd[4] v_twopoint v_fit v_max_n 
   12000    1.2565992   -6.0388706 8.3362876e-31 5.7890884e-33 8.3333333e+20            5 
   13000    1.2410382   -6.0240464   0.55249908 0.0035416606  0.044828816            3 
   14000     1.244259   -6.0023035    1.0865388 0.0064674928  0.044597575            5 
   15000    1.2819271   -6.0461586    1.6295206 0.0090528922  0.044358845            3 
   16000    1.2731995   -6.0021932    2.2155442  0.011539293  0.045655165            2 
   17000    1.2412835   -6.0024991    2.7552601  0.013506177  0.045978802            4 
   18000    1.2700623    -6.038546    3.2935789   0.01524805  0.045783373            2 
   19000    1.2407798   -6.0197909    3.8768736  0.017003831  0.045943271            1 
   20000    1.2460983   -6.0086357    4.5310305  0.018879293  0.046386706            2 
   21000    1.2799256   -5.9914456    5.1144645  0.020295494  0.046948569            3 
   22000    1.2243753   -6.0385223      5.56937  0.021096098  0.047009362            2 
   23000    1.2286437    -6.020481    6.1544258  0.022298644  0.046967102            2 
   24000    1.2540872   -6.0102876    6.7359865  0.023388842  0.046936895            1 
   25000    1.2645394   -6.0639689    7.2877498  0.024292499  0.046929477            2 
   26000     1.208504   -6.0276047    7.8639488  0.025204963   0.04697746            2 
   27000     1.264193   -6.0148893    8.4473065  0.026071933  0.047039852            1 
   28000     1.250347   -5.9886369    8.9526212  0.026644705  0.047053026            4 
   29000    1.2541712   -6.0160622    9.4983248  0.027294036  0.046995627            2 
   30000    1.2406491   -6.0394968    10.164832  0.028235643   0.04701108            2 
   31000    1.2579989   -6.0171602    10.773161  0.028960109  0.047095203            3 
   32000    1.2537323   -6.0494049    11.242536  0.029277436  0.047141607            2 
   33000    1.2722803   -6.0347652    11.758617  0.029693476  0.047090956            2 
   34000    1.2204731   -6.0434355    12.340046   0.03024521  0.047041284            3 
   35000    1.2626184   -6.0129871    12.967506  0.030875013  0.047024667            4 
   36000    1.2337246   -6.0362299    13.472381  0.031186066  0.046971988            3 
   37000    1.2466891   -5.9829406    13.998379  0.031527879  0.046941475            3 
   38000    1.2452379   -5.9685125    14.536255  0.031877751  0.046872508            2 
   39000     1.233043   -6.0476747    15.052359   0.03216316  0.046822586            3 
   40000    1.2357081   -6.0034153    15.618431  0.032538397  0.046773056            4 
   41000    1.2681815    -6.064434    16.203678  0.032934305  0.046714135            6 
   42000     1.247448   -6.0368985    16.652068  0.033039816  0.046655262            4 
   43000    1.2621699   -6.0779569    17.282022   0.03349229   0.04660319            2 
   44000    1.2176607   -6.0186436    17.796657  0.033705789  0.046567921            3 
   45000    1.2267888   -6.0076448    18.561748  0.034373607  0.046566273            2 
   46000    1.2442642    -6.036537    19.124605  0.034646023   0.04661319            2 
   47000       1.2347   -5.9884615    19.587226  0.034729123  0.046629279            2 
   48000    1.2474543   -6.0334971    20.072445  0.034847995  0.046629693            2 
   49000    1.2392846   -6.0047597    20.663764  0.035142455  0.046616226            4 
   50000    1.2235852   -6.0080585    21.183251  0.035305417  0.046589094            4 
   51000    1.2476851   -6.0827132    21.804832   0.03562881  0.046586378            2 
   52000    1.2671248   -6.0344807    22.316133  0.035763033  0.046575313            3 
   53000    1.2328668    -6.043697    22.813275  0.035869929  0.046552455            4 
   54000     1.239791   -6.0576795    23.240559   0.03586506  0.046525387            4 
   55000    1.2169221   -6.0405596    23.827219  0.036101847  0.046472527            1 
   56000    1.2560858   -6.0352247    24.378857  0.036278061  0.046425404            6 
   57000    1.2523383   -5.9893223    25.145413  0.036762299  0.046399067            3 
   58000    1.2618708   -6.0518328    25.557771  0.036720935  0.046395377            4 
   59000    1.2519134   -6.0227242    25.915449  0.036603742  0.046351005            1 
   60000    1.2421469   -6.0048378    26.378359   0.03663661  0.046285442            3 
   61000    1.2679285   -5.9839941    26.827452  0.036649525  0.046197197            2 
   62000     1.241079   -6.0490891    27.450698  0.036896099  0.046120692            2 
   63000     1.245279   -6.0529026    27.828829   0.03681062  0.046056058            3 
   64000    1.2507423   -5.9814228    28.336607  0.036896623  0.045980333            1 
   65000     1.268111   -6.0145387    28.740473  0.036846759  0.045887478            6 
   66000    1.2283064   -6.0355691    29.273731  0.036961781  0.045782667            3 
   67000    1.2262359   -6.0337333     29.89816  0.037186766  0.045691399            2 
   68000    1.2388187   -6.0508393    30.524099  0.037406984  0.045624622            4 
   69000    1.2317104   -6.0291733    31.090726  0.037549185  0.045575639            4 
   70000      1.25599    -6.071395    31.812434  0.037871945  0.045541122            3 
   71000    1.2530786   -6.0273935    32.382448  0.038007568  0.045510869            3 
   72000    1.2319641   -6.0458824    32.693417  0.037839603  0.045481616            1 
   73000    1.2603944   -6.0530724    33.075507  0.037757428  0.045434358            2 
   74000      1.24584   -6.0456263    33.414415  0.037628845  0.045365304            2 
   75000    1.2489235   -5.9862765    34.026038  0.037806709    0.0452995            2 
   76000    1.2388114   -6.0139242    34.536269  0.037868716  0.045243224            4 
   77000    1.2467576   -6.0216204    35.036705  0.037918512  0.045184984            5 
   78000    1.2512788   -6.0078334    35.657441  0.038095556  0.045134337            1 
   79000    1.2805501     -6.01637    36.492378  0.038494069  0.045103319            1 
   80000    1.2498085   -6.0245303    37.078327  0.038623257  0.045091568            2 
   81000    1.2318899   -6.0598004     37.58352  0.038666173  0.045072699            2 
   82000    1.2431955   -6.0592624    38.117749   0.03873755  0.045061506            2 
   83000    1.2221695   -6.0391805    38.416785   0.03857107  0.045040645            2 
   84000    1.2365403    -6.020074    39.137695  0.038827078  0.045021252            2 
   85000    1.2333472   -6.0485065    39.585509  0.038809322   0.04499914            2 
   86000    1.2162404   -6.0164911    40.192781  0.038946493  0.044979811            2 
   87000    1.2766839   -6.0406655    40.654774  0.038941354  0.044974159            3 
   88000    1.2415524   -6.0739416    41.170308  0.038987033   0.04495782            6 
   89000    1.2302262   -6.0181232    41.584404  0.038936707  0.044934449            4 
   90000    1.2359909   -6.0575657    42.136858  0.039015609  0.044908279            3 
   91000    1.2728193   -6.0646694    42.404511   0.03883197  0.044877001            5 
   92000    1.2405357   -6.0742514    42.971089  0.038923088  0.044839473            2 
   93000    1.2184634   -6.0620942    43.501021   0.03897941  0.044802002            6 
   94000    1.2545373   -6.0401287    43.937181  0.038951401  0.044771119            5 
   95000    1.2433335   -6.0216998    44.570661   0.03909707  0.044731668            6 
   96000    1.2383897   -6.0589292    44.975621  0.039041337  0.044693806            3 
   97000    1.2525667    -6.030708    45.508864  0.039096962  0.044654313            2 
   98000    1.2307355   -6.0174189     46.03492   0.03914534  0.044621995            2 
   99000    1.2410821   -6.0623166    46.700313  0.039310028  0.044590358            4 
  100000    1.2740016   -6.0274656    47.032374  0.039193644   0.04456449            3 
  101000    1.2089315    -6.009661    47.593763  0.039268781  0.044537619            5 
  102000    1.2278636   -6.0393452    48.076905  0.039278517  0.044506475            5 
  103000    1.2241792   -6.0284802    48.724299  0.039420953  0.044482505            3 
  104000    1.2219968   -6.0190115    49.260312  0.039471403  0.044463383            3 
  105000     1.236472   -6.0855492    49.395092  0.039202454  0.044436046            2 
  106000    1.2084679   -6.0388045    50.213727    0.0394762  0.044404229            3 
  107000    1.2397904   -6.0269089      50.4526  0.039293302  0.044370265            1 
  108000    1.2438845   -6.0497815    50.948424  0.039312055  0.044330427            1 
  109000    1.2421872   -6.0428252    51.773224  0.039581975    0.0442976            5 
  110000    1.2434953   -6.0436571      51.9984  0.039392727  0.044266772            5 
  111000    1.2433154   -6.0632414      52.6887  0.039556081  0.044241015            2 
  112000    1.2349362   -6.0533626    53.393998  0.039727677  0.044219699            3 
  113000    1.2175097   -6.0745956    53.637326   0.03955555   0.04419374            2 
  114000    1.2140103    -6.028319     53.85708   0.03936921  0.044160172            5 
  115000    1.2283229   -6.0374179    54.346226  0.039381323  0.044119568            4 
  116000    1.2347864   -6.0464556    55.047913  0.039545914  0.044083617            2 
  117000    1.2199818   -6.0847633    55.513892  0.039539809  0.044055533            2 
  118000    1.2599258   -6.0711323    55.767005  0.039383478  0.044018942            5 
  119000    1.2482964   -6.0111952    56.416728  0.039507512  0.043977652            2 
  120000    1.2126198   -6.0805169    56.670008  0.039354172  0.043937377            2 
  121000    1.2316315   -6.0485599    57.031516  0.039277903    0.0438947            2 
  122000    1.2676452   -6.0457473    57.538158  0.039302021  0.043851862            3 
  123000    1.2224586    -6.064401      58.2736  0.039480758  0.043811998            3 
  124000    1.2268746     -6.06642    58.922496  0.039598451  0.043780841            9 
  125000    1.2626582   -6.0815951    59.592312  0.039728208  0.043754396            2 
  126000    1.2242868   -6.0308419    60.051594  0.039716662  0.043732965            4 
  127000    1.2297346   -6.0503004    60.852458  0.039929434  0.043712071            1 
  128000    1.2304415   -6.0619631    61.308935  0.039914671  0.043697233            5 
  129000    1.2134462    -6.071579    61.889882  0.039980544  0.043684889            2 
  130000    1.2330668   -6.0837076    62.473262  0.040046962  0.043678528            3 
  131000    1.1998475   -6.0692471    63.258132  0.040240542  0.043672461            3 
  132000    1.2082942   -6.0750445    63.799921  0.040277728  0.043675463            4 
  133000    1.2493695   -6.0576301    64.371437  0.040332981   0.04368143            6 
  134000    1.2466461   -6.0683968    65.428582  0.040689417  0.043696885            3 
  135000    1.2564412   -6.0424782    65.945925  0.040707361  0.043718523            3 
  136000    1.2324022   -6.0199275    66.130304  0.040521019  0.043732472            5 
  137000    1.2796487   -6.0237226    67.036562  0.040776497  0.043742588            3 
  138000    1.2440813   -6.0640122    67.478997  0.040748187  0.043757363            2 
  139000    1.2344409    -6.037627    68.016684  0.040777388  0.043771615            3 
  140000    1.2214393   -6.0139792    68.436623  0.040736085   0.04378549            3 
  141000    1.2215531   -5.9950859    68.970102  0.040762472  0.043797003            3 
  142000    1.2110253   -6.0777102    69.405875  0.040731147  0.043807701            4 
  143000    1.2056288   -6.0483556    69.905684  0.040737578  0.043814912            3 
  144000    1.2505988   -6.0356146    70.285434  0.040674441  0.043819958            1 
  145000    1.2403716   -6.0780157    70.947278  0.040774298   0.04382828            2 
  146000    1.2167309   -6.0559803    71.466297  0.040791265  0.043833524            3 
  147000     1.247886   -6.0865452    72.066075  0.040853784  0.043843457            4 
  148000    1.2205885   -6.0686582    72.631623  0.040896184  0.043854735            2 
  149000    1.2567746    -6.062132    73.399835  0.041051362  0.043865478            3 
  150000    1.2159834   -6.0268952     73.64666  0.040914811  0.043878662            2 
  151000    1.2298415   -6.0524181    74.061344  0.040872707  0.043889393            1 
  152000    1.2315972   -6.0583561    74.600761   0.04089954  0.043891879            2 
  153000     1.219664   -6.0539338    75.144523  0.040928389  0.043895702            5 
  154000    1.2272374   -6.0470232    75.536917  0.040874955  0.043898395            1 
  155000    1.2219977   -6.0683806    76.446134  0.041100072   0.04390567            2 
  156000    1.2439849   -6.0882797    76.817316  0.041034891  0.043910265            3 
  157000    1.2365445   -6.0969385    77.014067  0.040877955  0.043910962            4 
  158000    1.2479496   -6.0483607    77.792128  0.041029603  0.043911454            3 
  159000    1.2110018   -6.0345254    78.087956  0.040926601  0.043914788            3 
  160000    1.2460965   -6.0661343    79.088076  0.041191706   0.04391749            3 
  161000    1.2422724   -6.0921392    79.576679  0.041188757  0.043923187            3 
  162000     1.216729     -6.03969    80.444864  0.041381103  0.043930868            4 
  163000    1.2283376   -6.0533597    80.802921  0.041310286  0.043942133            3 
  164000    1.2285228   -6.0399403    81.370705  0.041346903  0.043953716            2 
  165000    1.2423107   -6.0660929    81.887234  0.041357189  0.043966889            5 
  166000    1.2350902   -6.1200509    82.612143  0.041471959  0.043978492            2 
  167000    1.2140684    -6.084811    83.061935  0.041448071  0.043989559            5 
  168000    1.2463811   -6.1172043    83.360629  0.041349518    0.0440024            2 
  169000    1.2141388   -6.0502074    84.604815   0.04171835  0.044017599            1 
  170000    1.2240268   -6.0242346    85.286122  0.041806922  0.044038239            8 
  171000    1.2133867   -6.0479727    85.531709  0.041682119  0.044059313            3 
  172000    1.2291121   -6.0615102    86.098183  0.041714236  0.044073365            6 
  173000    1.2174108    -6.051821    86.570623  0.041700685  0.044088826            3 
  174000    1.2277622   -6.0307426    87.242724  0.041782914  0.044106067            2 
  175000    1.2013429   -6.0820234    87.383306  0.041611098  0.044121374            2 
  176000    1.2331804   -6.0913408    87.934687  0.041635742   0.04412842            1 
  177000    1.2486301   -6.0709401    88.355179  0.041598484  0.044133899            4 
  178000    1.2628764   -6.0534942    89.094906  0.041711098  0.044143822            4 
  179000    1.2290114   -6.0622948    89.489167  0.041661623  0.044152925            1 
  180000    1.2010831   -6.0109914    90.214694  0.041766062  0.044160675            3 
  181000    1.2060072   -6.0897358     90.46435  0.041650253  0.044165807            2 
  182000    1.2309084   -6.0523367    90.882814   0.04161301  0.044169723            2 
  183000     1.259819   -6.0637814    91.401453  0.041621791  0.044172428            3 
  184000    1.2060004   -6.0291418    91.736952  0.041547532  0.044173422            2 
  185000    1.1671084   -6.0483996    92.198055  0.041530655  0.044172069            5 
  186000     1.214803   -6.0903199    92.278554  0.041343438  0.044165306            4 
  187000    1.2044781   -6.0702091    92.919251  0.041407866  0.044157465            3 
  188000    1.2020156   -6.1039706     93.24304  0.041331135  0.044148669            2 
  189000    1.2165473   -6.0770344    93.764602  0.041342417  0.044140672            2 
  190000    1.2358638   -6.0601696    94.410714  0.041408208  0.044132267            4 
  191000    1.1997984   -6.0604839     95.04673  0.041468905  0.044124784            3 
  192000    1.2049672   -6.0720152    95.452748  0.041429144  0.044118135            4 
  193000    1.2121026   -6.0985125    95.839396  0.041381432  0.044112834            4 
  194000     1.208921   -6.0733572    96.451399  0.041431013  0.044105738            2 
  195000    1.2234462   -6.0853221    97.254896  0.041561921  0.044098823            2 
  196000    1.2624938   -6.0177875    97.889627  0.041619739    0.0440951            3 
  197000    1.2115292   -6.0977096    98.144371  0.041516231  0.044092911            5 
  198000    1.2026622   -6.0484781    98.694728  0.041538185  0.044089052            5 
  199000    1.2279252   -6.0722942    99.225037  0.041551523  0.044084447            2 
  200000     1.222014   -6.0954355    99.870708  0.041612795  0.044079124            5 
  201000    1.2274573    -6.073696     99.93051   0.04143056  0.044074023            3 
  202000    1.2022637   -6.0661268    100.89092  0.041621666  0.044069886            4 
  203000    1.2164109   -6.0897397    101.16224  0.041528013  0.044062622            4 
  204000    1.2119944   -6.0808181    101.68723  0.041538901  0.044057799            2 
  205000    1.2601102   -6.0880459    102.81321  0.041793988  0.044054242            2 
  206000    1.2169123   -6.0719587    102.97427  0.041656259  0.044051505            2 
  207000    1.2210001     -6.07212    103.30218  0.041587029  0.044049689            5 
  208000     1.211937    -6.097713    104.27611  0.041777287  0.044046021            2 
  209000    1.2549973   -6.0400162    104.76342  0.041771699  0.044044479            3 
  210000    1.2169095   -6.0266994    105.32678  0.041796341  0.044043775            2 
  211000    1.2249539   -6.0559559    105.69898  0.041745252  0.044043576            2 
  212000     1.239969   -6.0537262    106.01703  0.041673361  0.044042535            5 
  213000    1.2303996   -6.0830942    106.93453  0.041836671   0.04404381            3 
  214000    1.2209995   -6.1016505    107.24386  0.041761628  0.044042641            2 
  215000    1.2164528   -6.0682818    107.61644  0.041711799   0.04403854            5 
  216000    1.2001958   -6.0486684    107.78455  0.041583544  0.044033138            4 
  217000    1.2167362   -6.1106448    108.56055  0.041689921  0.044026066            3 
  218000     1.232908   -6.0973765    108.81774  0.041596995  0.044016966            2 
  219000    1.2335388   -6.0993523    109.30443  0.041592247  0.044007773            4 
  220000     1.230149   -6.0810951    109.61855  0.041522179  0.043999351            3 
  221000    1.2236841   -6.0675814    110.08415   0.04150986  0.043990617            2 
  222000    1.2397804   -6.0745252    110.96479  0.041653451  0.043979992            4 
  223000    1.1970512   -6.1013238    110.98987  0.041476034  0.043970798            2 
  224000    1.2214579   -6.0438011    112.33299  0.041790545  0.043962485            2 
  225000    1.2214912   -6.0463604    112.48876  0.041662504  0.043953927            2 
  226000    1.2390515   -6.0542086    113.34364  0.041793379  0.043947926            2 
  227000    1.2109801   -6.0739444    113.71944  0.041747224  0.043944202            3 
  228000    1.2336388   -6.0777439    114.23389  0.041752154  0.043938079            2 
  229000    1.1761054   -6.1035305    114.29766  0.041593035  0.043930291            5 
  230000    1.2132068   -6.0488725    114.58572  0.041516564   0.04392284            5 
  231000     1.213725   -6.0719263    115.63915  0.041716864  0.043916563            2 
  232000    1.1962309   -6.0865371    115.38931  0.041447309  0.043908248            3 
  233000    1.2299717   -6.0896999    116.57274  0.041692682  0.043901206            4 
  234000    1.1827617   -6.1020393    117.09444  0.041700299  0.043896035            4 
  235000    1.2116287   -6.1202885    117.27127  0.041585557  0.043888844            3 
  236000    1.2189399   -6.0857219    117.87268  0.041621709  0.043879396            2 
  237000     1.175589   -6.1023664    118.34106   0.04161078  0.043869531            2 
  238000    1.2051192   -6.0503498    118.80913  0.041599834  0.043858594            2 
  239000    1.1915145   -6.0589131    119.07492  0.041518453  0.043847629            1 
  240000    1.2143173   -6.0940389    119.48107  0.041486483  0.043834045            2 
  241000     1.217215   -6.0786668    119.92521  0.041467914  0.043820069            2 
  242000     1.225729    -6.088914      120.448  0.041476583  0.043806092            4 
  243000    1.2080288    -6.075836    121.05802  0.041515095  0.043791557            1 
  244000    1.2272859   -6.0591326    121.33268  0.041438758  0.043779536            4 
  245000    1.2222157   -6.1304032    121.23607  0.041236758  0.043766397            4 
  246000     1.204649   -6.1036063    122.35996   0.04144985  0.043753594            1 
  247000     1.209257   -6.0630032    122.68086  0.041390304  0.043740525            3 
  248000    1.2243878   -6.1222869    122.96092  0.041317512   0.04372572            2 
  249000    1.2412759   -6.0681619     123.5113  0.041335776  0.043709077            2 
  250000    1.2054803    -6.057596    124.47416  0.041491388  0.043694763            5 
  251000    1.2251869   -6.0682566    124.67525  0.041392846  0.043678579            2 
  252000    1.2012717   -6.1081649    124.72649  0.041245533  0.043660897            4 
  253000    1.2013466   -6.0729375     125.6324  0.041380896  0.043643202            5 
  254000    1.2301446   -6.0856165    126.63416  0.041546641  0.043627766            1 
  255000    1.2173801   -6.1277231    125.96886  0.041166293  0.043613151            2 
  256000    1.2263653   -6.0980307    127.03353  0.041352061  0.043599219            5 
  257000     1.184036   -6.1164736    127.55965  0.041361755  0.043583534            5 
  258000     1.196646   -6.0730924    127.86167   0.04129899  0.043567731            2 
  259000    1.2320182   -6.1275213    128.14422  0.041230444  0.043550888            3 
  260000    1.2153378   -6.0753066    128.67331  0.041241446  0.043534554            4 
  261000    1.2211296   -6.0657973    129.32033  0.041290016  0.043518548            3 
  262000    1.2086893   -6.1254415    129.80549  0.041286735  0.043503931            4 
  263000    1.1875542   -6.1304626    129.42702  0.041009828  0.043484303            2 
  264000    1.2291266   -6.0873812    130.05828   0.04105375  0.043463281            6 
  265000    1.1919104   -6.0570681    130.82683  0.041140514  0.043441846            7 
  266000    1.2268962   -6.0585551    131.03149  0.041049965  0.043422579            2 
  267000     1.229301   -6.0919279    131.51461  0.041047006  0.043401473            4 
  268000    1.2049573   -6.0824133    131.97973  0.041038472  0.043382333            2 
  269000    1.1982663   -6.0844957    131.70245  0.040800014  0.043363485            2 
  270000    1.1929519   -6.0822602    132.55178  0.040911043  0.043342641            2 
  271000    1.2136848   -6.0845538    132.63917  0.040786953  0.043319219            2 
  272000    1.1791835   -6.1037018    133.87524    0.0410157  0.043297966            4 
  273000    1.2175801   -6.0677224    134.00222  0.040904218   0.04327612            2 
  274000    1.2245567   -6.0776559     134.9498  0.041043125  0.043257368            2 
  275000    1.2126595    -6.092279    135.09638  0.040938298  0.043236713            4 
  276000    1.2231828   -6.1190602    135.68168  0.040966692  0.043215215            2 
  277000    1.1846128   -6.0626367    135.93044  0.040893635  0.043194072            4 
  278000    1.2106579   -6.0578266    136.41533  0.040891885  0.043174782            4 
  279000    1.2069736   -6.0956862    136.84752  0.040874409  0.043156011            2 
  280000    1.1717575   -6.0909926    137.65946  0.040970077  0.043135837            3 
  281000    1.1929095   -6.1262238    138.04385   0.04093827   0.04311659            2 
  282000    1.2012833   -6.0824746    139.15151  0.041120421  0.043099777            4 
  283000    1.2002181   -6.1227062     139.2101  0.040992373  0.043083182            3 
  284000    1.1905767   -6.0926465    139.88215  0.041045233  0.043068756            3 
  285000     1.223383   -6.1065187    140.85611  0.041185997   0.04305606            3 
  286000    1.2182976   -6.0804394    141.67319  0.041280067  0.043044243            2 
  287000    1.2130428   -6.1366812    141.59686  0.041114071   0.04303129            3 
  288000    1.1798921   -6.0944754    142.08794  0.041113408  0.043018676            3 
  289000     1.226993   -6.0812044    142.67395  0.041140125  0.043005246            4 
  290000    1.2152403   -6.1224743    143.18201  0.041144255  0.042992113            1 
  291000    1.2140146   -6.0932675    143.59635   0.04112152  0.042978268            4 
  292000    1.2203723    -6.092008    143.48504  0.040948927  0.042963183            3 
  293000    1.2004532   -6.0908794    144.72007  0.041160429  0.042948916            4 
  294000    1.2356122   -6.0948972     144.9224  0.041077776  0.042935261            3 
  295000    1.2072351   -6.0720679    145.54411  0.041114156  0.042922295            8 
  296000    1.1801372   -6.0638346    146.29369  0.041186285  0.042910369            1 
  297000    1.2038026   -6.0947204    146.94441  0.041230192   0.04289868            2 
  298000    1.1816716   -6.0997929    147.32509  0.041198291  0.042888073            4 
  299000    1.2141202   -6.0892159    147.68128  0.041159778  0.042875811            4 
  300000    1.2102634   -6.0984091    148.20561  0.041168225  0.042862858            5 
  301000    1.1956553   -6.1305983    148.41919  0.041090585  0.042851441            4 
  302000    1.2097001   -6.1168831    148.82163  0.041065572  0.042840368            4 
  303000    1.1857874   -6.1076689    149.72295   0.04117793  0.042829313            3 
  304000    1.1680025   -6.0712823    150.05698   0.04113404   0.04282079            2 
  305000    1.1878628   -6.0793403    150.93233   0.04123834  0.042812711            3 
  306000    1.1906397   -6.0993852    151.17565   0.04116984  0.042803868            3 
  307000    1.1923306   -6.1029951    151.96459  0.041249888  0.042793372            1 
  308000    1.1946397   -6.1268367    151.97839  0.041119695  0.042783039            2 
  309000    1.2145098   -6.1005803    152.52174  0.041133156  0.042772057            4 
  310000    1.2040718   -6.1157817    153.18635  0.041179127   0.04276229            3 
  311000    1.2076225   -6.0707776    153.59179  0.041155357  0.042753092            3 
  312000    1.2141159    -6.056689    154.38024  0.041234038  0.042744508            4 
  313000    1.2029429   -6.0821438    154.94535  0.041252757  0.042736421            1 
  314000     1.211685   -6.0752189    155.59498  0.041293783  0.042728697            2 
  315000      1.19147   -6.0939524    156.27011  0.041341299  0.042720727            3 
  316000    1.1795907   -6.0910634    157.04984  0.041416097   0.04271397            3 
  317000    1.1934646   -6.1218991    157.32942  0.041358943  0.042708016            3 
  318000    1.2116035   -6.1177603    157.40202   0.04124791  0.042701519            4 
  319000    1.2082349   -6.1023882    157.68196  0.041191733  0.042695081            2 
  320000    1.1865643   -6.0933139    158.49818  0.041275567  0.042687447            2 
  321000    1.2334235   -6.0949946    159.24088  0.041339792  0.042680927            3 
  322000    1.1438619   -6.0866516    159.82098  0.041361537  0.042674342            2 
  323000    1.2009366   -6.1140998    159.86863  0.041245776  0.042666885            3 
  324000    1.2119664   -6.1133507    160.07585  0.041171773  0.042658731            4 
  325000     1.195523   -6.1114066    160.11443  0.041054981   0.04265005            3 
  326000    1.1818071   -6.0762275    160.90646  0.041131507  0.042640969            2 
  327000     1.164787   -6.0951364    161.24187    0.0410912  0.042631396            1 
  328000    1.2109728   -6.1316631    162.46915   0.04127773  0.042623059            5 
  329000    1.2031424   -6.1300425     162.3239  0.041115476  0.042613805            5 
  330000    1.1747244   -6.1556132    162.66655  0.041077411   0.04260357            5 
  331000     1.194355   -6.0963458    163.32951  0.041120219  0.042594578            2 
  332000    1.1914252   -6.1745726    163.48333  0.041034973  0.042584053            2 
  333000    1.1936956   -6.0760114    164.14538  0.041077422  0.042574366            3 
  334000    1.1881204   -6.1002625    164.60316  0.041068653  0.042564602            4 
  335000    1.1823161   -6.1014098    165.02367  0.041050665   0.04255424            5 
  336000     1.216911   -6.0980712    165.31728  0.041001309  0.042543037            3 
  337000    1.1872196   -6.1268289    166.33919  0.041132342  0.042533363            3 
  338000    1.1967643    -6.088229    166.85043  0.041136693  0.042524435            5 
  339000    1.1908476   -6.1298823    167.18343  0.041097206  0.042514652            2 
  340000    1.1839453   -6.1310553    166.93888  0.040916393  0.042504667            2 
  341000    1.2011751   -6.1156233     167.6765  0.040976661  0.042494148            4 
  342000    1.1983671   -6.1210462    168.35558  0.041022314  0.042483363            3 
  343000    1.1858244     -6.08177     168.4441  0.040924222  0.042471898            3 
  344000    1.2132777   -6.1007892    169.39234  0.041034966  0.042460559            1 
  345000    1.1825034   -6.1226762    169.57699  0.040960626  0.042451029            6 
  346000    1.1908404   -6.1019034    169.51602  0.040827557  0.042439082            3 
  347000    1.2021961   -6.0676158      170.927  0.041048752  0.042427666            3 
  348000    1.1725313   -6.1128136    171.36299  0.041035199  0.042418055            1 
  349000    1.1791041   -6.1300081    171.45156  0.040938769  0.042408248            3 
  350000    1.1928263   -6.1208945    172.48038  0.041066758  0.042398981            3 
  351000    1.1898176    -6.091575    173.51564  0.041195546   0.04239059           12 
  352000    1.2122584   -6.1070062    173.62029  0.041103288  0.042382929            3 
  353000    1.1954323   -6.0968844    174.47135   0.04118776   0.04237528            4 
  354000    1.1968629   -6.1301824     174.4279  0.041061182  0.042367192            2 
  355000    1.1919346   -6.0775178    175.63826  0.041229639  0.042360286            4 
  356000    1.2063767   -6.1221674    174.80608  0.040919027  0.042351517            5 
  357000    1.2172713   -6.1012465    175.44054  0.040952506  0.042342669            3 
  358000    1.1990354   -6.0970148    175.87021   0.04093813   0.04233493            3 
  359000    1.1764796   -6.1071441    177.21456  0.041136155  0.042326934            1 
  360000    1.2118006   -6.1123371    176.91542  0.040952643  0.042318226            2 
  361000    1.2187912   -6.0884784    177.70673  0.041021868  0.042308917            3 
  362000    1.1874727   -6.1113493    177.46709  0.040853382  0.042298847            3 
  363000    1.1690687   -6.1423609    178.66161  0.041015063  0.042289203            5 
  364000    1.1628096   -6.1406315    178.68866  0.040908575  0.042279471            2 
  365000    1.1848962   -6.1190009    179.49045  0.040979555  0.042269222            2 
  366000    1.1966334    -6.108951    179.39244  0.040845273  0.042258816            2 
  367000    1.1851059   -6.1122151     179.6097  0.040783311  0.042247617           11 
  368000    1.1746017   -6.1495877    180.00123  0.040761149  0.042236568            3 
  369000    1.1939691    -6.131008    180.66903  0.040801497  0.042226106            4 
  370000    1.1772549   -6.1361872    181.45076  0.040867289  0.042215598            5 
  371000    1.1870502   -6.1353147    182.52168  0.040997681  0.042205042            5 
  372000    1.2179039   -6.1364365    181.86379  0.040740096  0.042194326            2 
  373000    1.1869407    -6.103339    182.96299   0.04087645  0.042183761            2 
  374000    1.1693698   -6.0964964    183.13923  0.040806424  0.042173525            3 
  375000    1.2083794   -6.0938113     184.6368    0.0410304  0.042163545            7 
  376000    1.1942363   -6.1571941    184.18557  0.040821271  0.042154114            2 
  377000    1.1747996   -6.1227686    185.26054  0.040950606  0.042144515            1 
  378000    1.1884336   -6.1146844    184.92717  0.040768775  0.042135199            5 
  379000     1.190084   -6.1139164    186.36526   0.04097741  0.042126893            3 
  380000    1.2010585   -6.1600912    186.49325  0.040897641  0.042118208            2 
  381000    1.1794843   -6.1324911    187.66659  0.041046936   0.04211029            2 
  382000    1.1824949   -6.1461322    186.86997  0.040765701  0.042103216            2 
  383000    1.1855762   -6.1101042    187.97616  0.040899948  0.042096747            2 
  384000    1.1859731   -6.1271802    189.48585   0.04112106  0.042090379            2 
  385000      1.19826    -6.164456    188.94211  0.040896561  0.042084085            4 
  386000     1.189659   -6.1081768    189.65388  0.040944273  0.042077198            3 
  387000    1.1856887   -6.0975455    190.39787   0.04099868  0.042069293            2 
  388000    1.1793581   -6.1015377    190.65196  0.040947585  0.042060982            3 
  389000    1.1953409   -6.1467096    190.66887  0.040845945  0.042052854            6 
  390000    1.1740657   -6.1364376    191.02603  0.040817527  0.042045857            2 
  391000    1.1754319   -6.1245289    192.84355  0.041100502  0.042039786            4 
  392000    1.1679579   -6.1009632    194.04906  0.041251925  0.042035101            2 
  393000    1.1892089   -6.1285504     193.8354  0.041101655  0.042031107            3 
  394000    1.1732694   -6.1049567    193.87262  0.041005207  0.042025313            5 
  395000    1.2025314     -6.11564    194.69592  0.041075089  0.042020199            3 
  396000    1.2173895   -6.1417274    195.03433  0.041042577  0.042015154            4 
  397000    1.1952498   -6.1042259    196.21685  0.041187415  0.042009657            3 
  398000    1.2054745   -6.1440198    196.06454  0.041052039  0.042004946            4 
  399000    1.2003147   -6.1542916    196.84691  0.041112555  0.042000315            4 
  400000    1.2066245   -6.1222137    197.39158  0.041123247  0.041996341            5 
  401000    1.1996735   -6.1412157    198.21132  0.041191047  0.041991414            2 
  402000    1.2021554   -6.1119883    198.71009  0.041191975  0.041987908            2 
  403000    1.1782697   -6.0964387    199.38913  0.041230176  0.041984742            1 
  404000    1.1768061   -6.1270424    199.60481   0.04117261  0.041982005            3 
  405000    1.1924018   -6.1205787    200.63602  0.041283132  0.041979481            5 
  406000    1.1820809   -6.1214323    201.29351  0.041316402  0.041977191            4 
  407000    1.1995252   -6.1366275    201.48455  0.041254003  0.041976768            4 
  408000    1.1959348   -6.0945049    202.23967  0.041307123  0.041975907            6 
  409000    1.1674366   -6.1332412    202.73954  0.041307975  0.041974612            6 
  410000    1.1613914    -6.132461    202.64103  0.041187201  0.041972246            2 
  411000    1.1665919   -6.1419504    202.79172  0.041117542   0.04196906            2 
  412000    1.1653571    -6.140636    203.04843  0.041069667  0.041966085            7 
  413000     1.165283   -6.1528777    203.84628   0.04113121  0.041963182            3 
  414000    1.2086814   -6.0940989    204.99295   0.04126267  0.041960858            5 
  415000    1.1719727   -6.1390975    204.53855  0.041071998  0.041957698            2 
  416000    1.1869299    -6.140429    205.68512  0.041202948  0.041954219            7 
  417000    1.1799983   -6.1330046    206.63208  0.041293382  0.041951906            5 
  418000    1.1983683   -6.1506963    206.73509  0.041215129  0.041950678            5 
  419000    1.1816503   -6.1481444    207.30344  0.041229801  0.041948756            4 
  420000    1.1992775   -6.1255385    208.91405  0.041451201  0.041948602            2 
  421000     1.186776   -6.1501542    209.36493   0.04144199  0.041949649            3 
  422000    1.2009709   -6.1204468    208.74017  0.041220412  0.041950042            3 
  423000    1.1510388   -6.1552924    210.28329  0.041426969   0.04195145            3 
  424000    1.2072904    -6.135889    211.31207  0.041531459  0.041953304            1 
  425000    1.1962604   -6.1037734    211.52981  0.041476433  0.041953818            2 
  426000    1.1586792   -6.1766283     212.2276   0.04151557  0.041954992            6 
  427000    1.1705741   -6.1533637    212.06367  0.041386353   0.04195518            1 
  428000    1.1726336   -6.1096869    213.04567  0.041480854  0.041955633            6 
  429000    1.1755621   -6.1338935    212.97007  0.041369478  0.041955933            1 
  430000    1.1783512   -6.0924176    214.30831  0.041532618   0.04195637            5 
  431000    1.1964029   -6.1068449    214.17505  0.041410488  0.041957279            2 
  432000    1.1917504   -6.1268178    214.48692  0.041374792  0.041956994            4 
  433000    1.1839712    -6.165947    215.48745  0.041471796   0.04195671            2 
  434000    1.1964131   -6.1361593    215.14776  0.041311014  0.041956846            3 
  435000    1.1836283   -6.1355126    216.62805  0.041499626  0.041957275            4 
  436000    1.1764244   -6.1525685    216.66747  0.041411978  0.041957971            4 
  437000    1.1775058   -6.1340383    217.08662  0.041397143  0.041958631            2 
  438000    1.2008808   -6.1132841     217.7271  0.041424486  0.041959421            2 
  439000    1.1619481   -6.1355304    218.46929  0.041471011  0.041959408            3 
  440000    1.1852032   -6.0965238    219.27341  0.041529055  0.041959225            6 
  441000    1.1549331   -6.1437506    219.23897  0.041428376   0.04195922            3 
  442000     1.171548   -6.1192315    219.10872  0.041310091  0.041958542            5 
  443000    1.1949624   -6.1360956    219.70184  0.041328413  0.041957925            3 
  444000    1.1739794   -6.1867218    220.16217  0.041321728  0.041957323            1 
  445000    1.1855112   -6.1302633    220.77725  0.041344055  0.041955427            2 
  446000    1.2063679   -6.1632091    220.49372  0.041198378  0.041953546            3 
  447000    1.1537892   -6.1629742    221.10176  0.041219567   0.04195249            3 
  448000    1.1696782   -6.1148251    221.90107   0.04127624  0.041950285            7 
  449000    1.1949566   -6.1193464    222.58488  0.041311226  0.041948991            5 
  450000     1.193253    -6.121303    223.58003  0.041403708  0.041949005            6 
  451000    1.1678244   -6.1251287    223.05335  0.041214588  0.041947751            3 
  452000    1.1815747   -6.1283754    223.85171  0.041270596  0.041946171            5 
  453000    1.2087948   -6.1266306    224.10155  0.041225451  0.041944338            4 
  454000    1.1922235   -6.1230683    225.18655  0.041333802  0.041943094            3 
  455000    1.1760656   -6.1415733     225.0439  0.041216831   0.04194235            3 
  456000    1.1683405   -6.1230996    226.15441  0.041329388  0.041941412            5 
  457000    1.1806499   -6.1141759    226.56546  0.041313905  0.041940842            3 
  458000    1.1916914    -6.177046    227.82577  0.041453015  0.041940953            4 
  459000    1.1629248   -6.1888112    227.41231  0.041287638  0.041940342            6 
  460000    1.1811929   -6.1501113    228.04494  0.041312489  0.041939475            5 
  461000    1.2101365   -6.1400631    228.18112   0.04124749  0.041938998            3 
  462000    1.1965945   -6.1551806    229.09717  0.041323442  0.041938138            3 
  463000     1.163687   -6.1500391    229.86801  0.041372933  0.041937169            4 
  464000    1.1842257   -6.1318366    229.65654  0.041245787  0.041936401            4 
  465000    1.2104464   -6.1611501    230.32412  0.041276724  0.041935507            4 
  466000    1.1850055   -6.1469702    230.91306  0.041293466  0.041934245            7 
  467000    1.1620864   -6.1409385    231.35699   0.04128426  0.041932787            3 
  468000    1.1722792     -6.19474    231.59883  0.041239109  0.041930305            1 
  469000    1.1670189   -6.1473752    232.13358  0.041246194  0.041928482            3 
  470000    1.1595868   -6.2087829    232.67601  0.041254611  0.041926142            3 
  471000     1.170643   -6.1298175    233.71978  0.041351695  0.041924142            2 
  472000    1.1763886   -6.1781387    233.65808  0.041253192  0.041922823            7 
  473000    1.1921885   -6.1353426    234.48353  0.041311404  0.041921895            3 
  474000    1.1909916   -6.1385007    235.01956  0.041318488  0.041920946            4 
  475000    1.1677886   -6.1477299    236.48406  0.041488432  0.041920848            1 
  476000    1.1877085   -6.1229521    237.03008  0.041496863    0.0419212            5 
  477000    1.1785102   -6.1586239     237.4715  0.041486984  0.041921092            2 
  478000    1.1632869   -6.1273218    237.68773  0.041437888  0.041921139            2 
  479000    1.1659203   -6.1851013    237.63787  0.041342706  0.041920859            3 
  480000    1.2064161   -6.1277758    238.90796  0.041477076  0.041920579            4 
  481000    1.1519518   -6.1652692     239.4603  0.041486538  0.041920319            3 
  482000    1.1570406   -6.1552601    239.62889  0.041429614  0.041920413            4 
  483000    1.1513596    -6.106684    240.87798  0.041559348  0.041920339            5 
  484000    1.1468258   -6.1425368     240.8388  0.041466736   0.04192003            4 
  485000    1.1648848   -6.1830924    240.56433  0.041334076  0.041919438            1 
  486000    1.1607311   -6.1510247    241.54686  0.041417499  0.041918956            5 
  487000    1.1678882   -6.1438706     242.0799  0.041423664  0.041918028            4 
  488000    1.1590789   -6.1679973    242.15877  0.041352248  0.041917154            5 
  489000     1.190233   -6.1380285    242.51682  0.041328701  0.041916327            2 
  490000     1.181754    -6.197826    241.99201  0.041155104  0.041915188            2 
  491000    1.1716098    -6.133361    244.23455  0.041451892  0.041913668            3 
  492000    1.1921942   -6.1639428    243.66874  0.041271806  0.041912757            2 
  493000    1.1811537   -6.1456173    244.43766  0.041318062  0.041911908            4 
  494000    1.1614829   -6.1759292    244.40195    0.0412284   0.04191102            2 
  495000    1.1573229   -6.1825653    245.30815  0.041297668   0.04190981            3 
  496000    1.1687208    -6.151064    246.86719  0.041476342  0.041909178            6 
  497000    1.1538384   -6.1663203    246.91835  0.041401468  0.041909193            4 
  498000    1.1685847   -6.1885224    247.38776  0.041396881  0.041909044            2 
  499000    1.1767603   -6.1561121    247.59861  0.041349133  0.041908487            3 
  500000    1.1530582   -6.1635069    247.51239  0.041252066  0.041907755            3 
  501000    1.1658699   -6.1612915    249.03133  0.041422376     0.041907            6 
  502000    1.1796474   -6.1628226    249.46974   0.04141264  0.041906066            2 
  503000     1.173384    -6.141675    250.38522  0.041481979  0.041905031            3 
  504000    1.1406038   -6.1509525    250.34009  0.041392211  0.041905023            8 
  505000    1.1754658   -6.1550071    250.37949  0.041316747  0.041904239            3 
  506000    1.1521902   -6.1764027    250.61609  0.041274059   0.04190314            5 
  507000    1.1347907    -6.150146    251.45317  0.041330238  0.041901737            4 
  508000    1.1972518   -6.1551496    251.23164   0.04121254  0.041900002            2 
  509000    1.1681299   -6.1725603    253.22302  0.041457599  0.041898492            1 
  510000    1.1348593   -6.1441972    253.39487   0.04140439  0.041897884            3 
  511000     1.188911    -6.166893    253.43923  0.041330598  0.041896532            4 
  512000    1.1402366   -6.1320289    254.24375  0.041380819  0.041895522            7 
  513000     1.162475   -6.1632251    254.10979  0.041278393  0.041894536            3 
  514000    1.1500701   -6.1801465    255.02669   0.04134674  0.041893585            5 
  515000    1.1726097    -6.174727    255.59715  0.041358763  0.041892985            4 
  516000     1.171163   -6.1571644    255.95372  0.041336195  0.041892352            4 
  517000    1.1630362   -6.1585047    256.46456  0.041338581  0.041891931            2 
  518000    1.2140888   -6.1916643     256.3914  0.041247008  0.041890169            5 
  519000    1.1537765   -6.1558105    256.15841  0.041130123  0.041888314            2 
  520000    1.1612228   -6.1779627    257.22003  0.041221158   0.04188569            4 
  521000    1.1595439   -6.1444671    258.12829  0.041287314  0.041882966            4 
  522000    1.1460045   -6.1680135    257.53849  0.041114063  0.041880331            3 
  523000    1.1751788   -6.1678587    258.86016  0.041246041  0.041877238            1 
  524000    1.1557254   -6.1730097    258.93271  0.041178866  0.041874216            4 
  525000    1.1631583   -6.1661515    259.43237  0.041179742  0.041870774            3 
  526000    1.1444827   -6.1703005    259.93791  0.041181544  0.041867737            4 
  527000    1.1581698   -6.1849752    260.30953  0.041162165  0.041864274            1 
  528000    1.1720879   -6.1460487     260.4882  0.041112405  0.041860769            8 
  529000    1.1618391   -6.1442616    260.82111  0.041087132  0.041856733            8 
  530000    1.1859429   -6.1610786    261.18395  0.041066659  0.041852481            5 
  531000    1.1586407   -6.1416217    262.50435   0.04119654  0.041847908            2 
  532000    1.1707711   -6.1875476    261.82125    0.0410121  0.041843452            2 
  533000    1.1753581   -6.1393928     263.0753  0.041131223  0.041839174            3 
  534000    1.1697453   -6.1475383    263.55212  0.041128608  0.041835543            6 
  535000    1.1602072   -6.1263418    263.91856   0.04110881   0.04183169            6 
  536000    1.1740748    -6.174622    264.42644  0.041111076  0.041827481            4 
  537000    1.1495867   -6.2130201    264.45475  0.041038912  0.041822607            1 
  538000    1.1561038   -6.1461228    265.03802  0.041052977  0.041818414            4 
  539000    1.1579973     -6.17682    264.45264  0.040886307  0.041814079            5 
  540000    1.1815082   -6.1604109    266.25336  0.041088481  0.041808705            6 
  541000    1.1755986    -6.173541    265.70666  0.040928322  0.041803916            2 
  542000    1.1621336   -6.1999065    265.98079  0.040894956  0.041799019            4 
  543000    1.1692278   -6.1871004    267.02844  0.040980423  0.041794254            3 
  544000    1.1751152    -6.144522    268.88783  0.041189925  0.041789628            2 
  545000    1.1701097   -6.1770661    267.77351  0.040943962  0.041785414            5 
  546000    1.1714736   -6.1703664    267.73869  0.040863658   0.04177991            2 
  547000    1.1866417   -6.1417531    268.23539  0.040864624  0.041774479            3 
  548000    1.1684099    -6.169857    269.43834  0.040972983  0.041768811            4 
  549000    1.1826028   -6.1498601    269.91322  0.040970434  0.041763522            6 
  550000    1.1545752   -6.2037776    269.56547  0.040843253  0.041758028            5 
  551000    1.1767139   -6.1685983    270.24389  0.040871732  0.041752707            2 
  552000    1.1473622   -6.1636851     271.0755  0.040923233  0.041747367            2 
  553000    1.1565194   -6.1731762     271.3881  0.040896338  0.041741691            3 
  554000    1.1425811   -6.1523266    272.04709  0.040921644  0.041735186            7 
  555000    1.1590241   -6.2205459    271.86884  0.040821147  0.041729282            5 
  556000    1.1628646   -6.1889348    271.72195  0.040725713  0.041722929            2 
  557000    1.1833365   -6.1913597    271.98388  0.040691784  0.041716259            3 
  558000    1.1904721   -6.2037559    272.48695  0.040693989  0.041709017            6 
  559000    1.1497992   -6.1718225    273.35738  0.040750951  0.041701874            3 
  560000    1.1471689   -6.1647026     273.9716  0.040769583   0.04169515            5 
  561000    1.1597391   -6.1438357    274.80686  0.040820983  0.041688789            3 
  562000    1.1467882   -6.1563885    275.35035  0.040828936   0.04168205            5 
  563000    1.1684579   -6.1496204    275.49854  0.040778352  0.041674992            5 
  564000     1.161907   -6.1536174    276.77439  0.040894562  0.041667797            7 
  565000    1.1533579   -6.1741761    276.11647  0.040725143  0.041661184            3 
  566000    1.1753197   -6.1928617    275.92785  0.040625419  0.041654233            3 
  567000     1.159645   -6.1789063    277.56816   0.04079485  0.041646556            3 
  568000    1.1685208   -6.1462027    278.26682  0.040825531  0.041639639            5 
  569000    1.1909741   -6.1840202    276.36951   0.04047591  0.041632362            3 
  570000    1.1866839    -6.209581    277.57847  0.040581648  0.041625016            3 
  571000     1.145036   -6.1713925    278.26681  0.040611035  0.041617549            3 
  572000    1.1823258   -6.1825411    278.84625  0.040624453  0.041610954            4 
  573000     1.161273   -6.1771356    279.30434  0.040620178  0.041604002            4 
  574000    1.1285249   -6.2036767    278.92008  0.040493624  0.041596647            3 
  575000    1.1752017   -6.1755713    280.48141  0.040649479  0.041589099            3 
  576000    1.1622968   -6.1874342    280.44631  0.040573829  0.041581752            3 
  577000    1.1417067   -6.1791152    281.53344   0.04066052  0.041574967            2 
  578000    1.1840001   -6.1737351    282.51901  0.040732269  0.041568435            5 
  579000     1.171536   -6.2013846    281.54707  0.040522031  0.041561403            3 
  580000    1.1818071   -6.1618849    283.29496  0.040703298   0.04155473            8 
  581000    1.1620077   -6.2203278    283.28894  0.040632379  0.041548523            2 
  582000    1.1648077    -6.201501    283.01014  0.040522643  0.041542177            5 
  583000    1.1552131   -6.1708061    283.57167  0.040533401  0.041535103            3 
  584000    1.1483089    -6.197435    284.17797   0.04055051  0.041527749            2 
  585000    1.1412516   -6.2144296    284.33326  0.040503313  0.041520488            3 
  586000    1.1758451   -6.2054079    285.77099   0.04063865  0.041513549            4 
  587000    1.1555485   -6.1875486    285.73785  0.040564714  0.041506844            4 
  588000    1.1286425   -6.1808787    286.50848  0.040604944  0.041500524            2 
  589000    1.1619787   -6.1923402    287.05987  0.040614016  0.041494029            5 
  590000     1.177641   -6.1999628    289.06768  0.040828768  0.041488169            2 
  591000    1.1390236   -6.1543962    287.93349  0.040599758  0.041482984            2 
  592000    1.1548759   -6.1839641    289.21004  0.040710872  0.041477449            2 
  593000    1.1527918   -6.2024244    288.89462  0.040597894  0.041471791            6 
  594000    1.1563074   -6.1754409    289.49974  0.040614442  0.041466378            4 
  595000    1.1705711   -6.1479268    290.20108  0.040644409  0.041461158            2 
  596000     1.185411    -6.189921    290.35023  0.040597068  0.041456104            4 
  597000    1.1435883   -6.1805892    292.53659  0.040834253  0.041451112            1 
  598000    1.1663402   -6.1286263    292.42644  0.040750619  0.041446246            4 
  599000    1.1846168   -6.1606627    292.76837  0.040730157  0.041441443            4 
  600000    1.1542352   -6.1964158    293.52028  0.040766705  0.041436704            2 
  601000    1.1683133   -6.1932194    294.01592  0.040767598  0.041432001            2 
  602000    1.1599185   -6.2270761    293.96521  0.040692859  0.041427179            1 
  603000    1.1607535   -6.1804902    295.42049  0.040826491  0.041422329            3 
  604000    1.1450274   -6.2100654    294.58229  0.040643252  0.041417552            4 
  605000    1.1557973   -6.1459797    296.34511  0.040818886  0.041413177            2 
  606000    1.1877803   -6.1801286    296.07122  0.040713864  0.041408621            8 
  607000    1.1623002   -6.1740331     296.8141  0.040748778  0.041404184            3 
  608000    1.1615411   -6.1989917    296.97793  0.040704212  0.041399817            4 
  609000    1.1643861   -6.1602405    297.08291  0.040651739  0.041395117            6 
  610000    1.1670132   -6.1876462    297.36751  0.040623977  0.041390627            3 
  611000    1.1304094   -6.1885418    298.78468  0.040750775  0.041385201            2 
  612000    1.1124429   -6.1782224    298.80167  0.040686503   0.04138019            5 
  613000    1.1480488   -6.1832125    299.44963  0.040708215  0.041375035            4 
  614000    1.1550942   -6.1730382    299.15698  0.040602196  0.041369994            4 
  615000    1.1574414   -6.1927734    299.62213  0.040599205  0.041365151            3 
  616000    1.1684112   -6.1797986    300.28441  0.040622891  0.041360222            3 
  617000    1.1409375   -6.2406311    300.09953  0.040532081  0.041355111            6 
  618000    1.1336495   -6.1894453    302.93099  0.040848299   0.04135046            3 
  619000    1.1642163   -6.2082254    302.71099  0.040752691  0.041346445            2 
  620000    1.1314027   -6.1848263    303.09106  0.040738045  0.041342628            7 
  621000    1.1567663   -6.1592024    303.63594  0.040745564   0.04133829            5 
  622000    1.1492947   -6.1911851    303.28514  0.040633057  0.041333724            4 
  623000    1.1470082   -6.2005465    303.93592  0.040654885  0.041329236            8 
  624000    1.1248942   -6.2227428    303.18763  0.040489801  0.041324209            2 
  625000    1.1586076   -6.2194779    304.64831  0.040619775  0.041319187            3 
  626000    1.1502507   -6.2019614    305.58034  0.040678959  0.041314395            2 
  627000    1.1607764   -6.1549957    305.46851  0.040599218  0.041309368            7 
  628000     1.165199   -6.1737734     305.9469  0.040598049  0.041304119            6 
  629000    1.1509228   -6.2014154    305.94479  0.040533226  0.041298438            5 
  630000    1.1479904   -6.1762254    305.85762  0.040457357  0.041292283            5 
  631000    1.1728675   -6.1807271    307.50686  0.040611048  0.041286768            5 
  632000    1.1437932   -6.2136161    307.25877  0.040514079  0.041280967            5 
  633000    1.1406208   -6.2114174    308.09081  0.040559612  0.041275632            3 
  634000    1.1404633   -6.2088179    307.43563   0.04040952  0.041270189            2 
  635000    1.1756911   -6.1873366    308.55672  0.040493008  0.041264348            3 
  636000    1.1479816    -6.200459    308.58494  0.040433037  0.041258845            4 
  637000    1.1336914   -6.2087812    309.30194  0.040463362  0.041252843            3 
  638000    1.1299809   -6.2057318    309.60718  0.040439809  0.041246714            4 
  639000     1.140185    -6.202762    310.03276  0.040432023  0.041240206            8 
  640000      1.15655   -6.1895131    310.76053   0.04046361  0.041234372            3 
  641000    1.1384077   -6.2003362    312.05811  0.040569177  0.041229174            2 
  642000    1.1571566   -6.2111653    311.83993  0.040477665  0.041224275            2 
  643000    1.1494926   -6.2057616     311.9798  0.040432841  0.041218602            2 
  644000    1.1566388   -6.2248364    312.87285  0.040485617  0.041213168            5 
  645000    1.1442272   -6.1711803    312.62776  0.040391183   0.04120705            4 
  646000    1.1544522   -6.1640684    314.01313  0.040507369   0.04120096            4 
  647000    1.1530554   -6.1798081    314.36557  0.040490156  0.041195223            3 
  648000    1.1541766   -6.1908847    314.68052  0.040468174  0.041189897            3 
  649000    1.1534266   -6.2215033    314.95779  0.040441422  0.041184507            3 
  650000    1.1137644   -6.1868864    316.41811  0.040566424  0.041178911            3 
  651000    1.1828127    -6.215876    316.25779  0.040483588  0.041173945            5 
  652000    1.1682228   -6.1657891    317.43837  0.040572389  0.041169212            5 
  653000    1.1637418   -6.1837794     316.4807  0.040388042  0.041164404            5 
  654000    1.1560919   -6.1773653    317.37498  0.040440237  0.041159387            3 
  655000    1.1718997   -6.2041073     317.6224  0.040409974  0.041153979            5 
  656000    1.1578986    -6.173162    318.92459  0.040513794  0.041148989            5 
  657000    1.1480426   -6.2316955    319.12279  0.040477269  0.041143297            4 
  658000    1.1431271   -6.1712896    319.44943  0.040457121  0.041137407            4 
  659000    1.1497234   -6.2218294    319.26233   0.04037207  0.041131482            4 
  660000    1.1651689   -6.1862832    320.33526  0.040446371  0.041125184            3 
  661000    1.1362681   -6.1958843    320.32759  0.040384215   0.04111941            2 
  662000     1.148654   -6.1725676    320.67779  0.040367294  0.041113632            2 
  663000    1.1489773   -6.2066694    320.70217  0.040309473  0.041107839            2 
  664000    1.1284687   -6.1852982    321.98386  0.040409621  0.041102184            4 
  665000    1.1376494   -6.1689353    322.21423  0.040377723  0.041097074            3 
  666000    1.1311248   -6.1971527    323.25054  0.040446764  0.041091835            3 
  667000    1.1580023    -6.195069    323.45437  0.040411591  0.041086332            2 
  668000    1.1286171   -6.2161274    324.19389  0.040443349  0.041080616            4 
  669000    1.1719238   -6.1884759    324.44041  0.040413603  0.041074931            2 
  670000    1.1452445   -6.1859847     324.5628  0.040368507  0.041069552            4 
  671000    1.1301841   -6.2086756    325.63681   0.04044173  0.041064078            5 
  672000    1.1050076   -6.2104306    324.63265  0.040257025  0.041058295            2 
  673000    1.1382687   -6.2036921    325.33924    0.0402847  0.041052877            3 
  674000    1.1349256   -6.1943706    324.98747  0.040181437  0.041047243            7 
  675000    1.1388023   -6.1913193    326.19184  0.040270597  0.041041787            5 
  676000    1.1442667   -6.1999533    326.88215  0.040296123  0.041036071            2 
  677000    1.1217352   -6.2530662    327.05665   0.04025808  0.041029899            5 
  678000    1.1442219    -6.190517    328.68248  0.040398535  0.041023846            8 
  679000    1.1380189   -6.2187064    327.38598   0.04017992  0.041017604            5 
  680000     1.151485   -6.2337298    328.29862  0.040232674  0.041011427            4 
  681000    1.1468683   -6.2204881    328.20016  0.040161547  0.041005125            4 
  682000    1.1532267   -6.1930428    330.78814  0.040418883  0.040998766            2 
  683000    1.1474912    -6.197101    330.01521    0.0402654  0.040992424            4 
  684000     1.130718   -6.1856483    330.66817  0.040286083  0.040985733            2 
  685000    1.1326898   -6.1904896    330.09897  0.040158025  0.040978982            5 
  686000    1.1358122   -6.1992575    329.58402  0.040036931  0.040971771            6 
  687000    1.1379763    -6.175597     331.0536  0.040156914  0.040964388            2 
  688000    1.1502678   -6.1819129    331.11508  0.040105993  0.040957218            5 
  689000    1.1396853    -6.212419    331.88248    0.0401406  0.040950006            1 
  690000    1.1421513    -6.217565    332.66426  0.040176843  0.040942924            5 
  691000    1.1203217   -6.2017166     332.3441  0.040080089  0.040936168            6 
  692000    1.1563407   -6.1806222    333.16687  0.040121251   0.04092901            5 
  693000    1.1474757   -6.2239562    333.31461  0.040081122  0.040921346            2 
  694000    1.1452177   -6.2050629    334.34751  0.040147395  0.040914156           10 
  695000    1.1411702   -6.2066154    334.58204   0.04011775    0.0409076            3 
  696000    1.1481165   -6.2116585    335.44772   0.04016376  0.040901157            3 
  697000    1.1438543   -6.1951876    335.56845   0.04012057  0.040894164            5 
  698000    1.1195862    -6.161851    336.00592   0.04011532  0.040887746            1 
  699000    1.1450329   -6.2268396    335.90388  0.040045766  0.040880871            3 
  700000    1.1553417   -6.2359066    336.70846  0.040084341   0.04087392            3 
  701000    1.1390384   -6.2166771    336.67512  0.040023196    0.0408669            5 
  702000    1.1313422   -6.2139973    337.50824  0.040065081  0.040860039            4 
  703000    1.1413198   -6.1934074    338.28745  0.040100456  0.040853605            4 
  704000    1.1291667   -6.2208285    338.48713  0.040067132  0.040846716            7 
  705000    1.1073882   -6.1916265    339.18833  0.040093184  0.040839969            1 
  706000    1.1286039   -6.2359793    338.56827  0.039963204  0.040832882            2 
  707000    1.1498396   -6.2243538    338.79257  0.039933117  0.040825723            4 
  708000    1.1351947   -6.2258049    339.46765  0.039956174  0.040818587            2 
  709000     1.161524   -6.1859762    339.55523  0.039910112  0.040811402           10 
  710000    1.1074354   -6.2381095    339.75257  0.039877062  0.040803567            5 
  711000    1.1610754   -6.1960285    340.94574  0.039960822  0.040795952            1 
  712000    1.1370642   -6.2141738    342.06472  0.040035665  0.040788566            6 
  713000    1.1534577   -6.2382747    341.56981  0.039921671  0.040781445            4 
  714000    1.1430805    -6.224312    342.10206  0.039927878  0.040773958            4 
  715000    1.1309421   -6.2262712    342.87139    0.0399617    0.0407664            3 
  716000    1.1394613   -6.2111257    342.41598  0.039852884  0.040758936            5 
  717000    1.1361785   -6.2532443     343.1205  0.039879184  0.040751246            3 
  718000    1.1504004   -6.2234188    343.02623  0.039812701  0.040743801            4 
  719000    1.1279676   -6.1829796    345.32307  0.040023536  0.040736876            2 
  720000    1.1330777   -6.2188513    344.21449   0.03983964  0.040729696            3 
  721000    1.1373779   -6.2295696    346.03063  0.039994294  0.040722295            4 
  722000    1.1522058   -6.2335161    345.38743  0.039864662  0.040715085            6 
  723000    1.1414877   -6.2234302    346.19367  0.039902451  0.040707948            5 
  724000    1.1510411   -6.2314052    345.97309  0.039821948  0.040700341            5 
  725000    1.1480718   -6.2037341    347.45849  0.039937757  0.040693367           11 
  726000    1.1295007   -6.1917835    347.62783  0.039902184   0.04068573            4 
  727000    1.1439833   -6.2215697    346.62292  0.039732109  0.040678018            4 
  728000    1.1274051   -6.2119895    346.81438  0.039699449  0.040669795            5 
  729000      1.12478   -6.2199219    348.70879  0.039861544  0.040661599            4 
  730000    1.1352633   -6.2179742    347.91142  0.039715915  0.040653815            4 
  731000    1.1306516   -6.1814182    348.65046  0.039745834  0.040645534            4 
  732000    1.1461366   -6.1697773    349.01236  0.039732737  0.040637177            5 
  733000    1.1287809   -6.2648222    348.93659  0.039669917    0.0406292            4 
  734000    1.1155498   -6.2377939    349.88466  0.039723508  0.040620968            3 
  735000    1.1412895   -6.2076661    350.27285  0.039713475  0.040612604            2 
  736000    1.1150894    -6.235833    350.67943  0.039705552  0.040604615            3 
  737000    1.1252187   -6.1795221    352.04966   0.03980661  0.040596514            3 
  738000      1.14796   -6.2320976    352.00276  0.039747375  0.040588731            5 
  739000    1.1272898   -6.2319225    352.61487  0.039762615  0.040581099            5 
  740000    1.1461732   -6.2091858    352.28195  0.039671391  0.040573347            3 
  741000    1.1194994   -6.2177926    352.11648  0.039599244  0.040565339            8 
  742000    1.1312785   -6.2306474    352.38207  0.039575704  0.040557063            3 
  743000    1.1227516   -6.2276419    353.37935  0.039634293  0.040549037            5 
  744000      1.16242   -6.2290093    352.89845  0.039527156  0.040540898            9 
  745000    1.1222555   -6.2168636    354.50363   0.03965365  0.040532625            3 
  746000    1.1521274   -6.2495405     354.7177  0.039624408  0.040524546           10 
  747000    1.1465879   -6.2377506    354.89993  0.039591693  0.040516685            4 
  748000     1.144764   -6.2341073    355.28698  0.039581883  0.040508534            4 
  749000    1.1415842   -6.2439037    354.68016  0.039461522  0.040499636            6 
  750000    1.1094008   -6.2007338    357.33588  0.039703987  0.040490832            4 
  751000    1.1359623   -6.2235075     356.4431  0.039552053  0.040482545            3 
  752000    1.1261507   -6.2182377    357.67062  0.039635485  0.040473959            4 
  753000     1.137046   -6.2396934    357.37901  0.039550577  0.040465274            3 
  754000    1.1249142   -6.2000701    356.96128  0.039451954  0.040456477            5 
  755000    1.1341697   -6.2410613    357.64334  0.039474982  0.040448047            3 
  756000    1.1394604   -6.2179425    359.99135  0.039681586   0.04043947            3 
  757000    1.1205782   -6.2307908    360.41682  0.039676004  0.040431392            5 
  758000    1.1316549   -6.2509203    360.98932    0.0396866  0.040423448            3 
  759000     1.127856   -6.2242271    360.00316  0.039526039   0.04041575            2 
  760000    1.1384555   -6.2555141    361.41738  0.039629099  0.040407914            3 
  761000     1.124128   -6.2215025     361.8833  0.039628044  0.040400655            4 
  762000    1.1178929   -6.2252877    362.26288   0.03961755  0.040393376            6 
  763000    1.1177923   -6.2303332    361.45034  0.039476883  0.040386031            2 
  764000    1.1530899   -6.2004824    362.92254  0.039585792  0.040377979            6 
  765000    1.1230736   -6.2239796    363.53395  0.039600648  0.040370591            2 
  766000    1.1315293   -6.1953303    362.45312  0.039431366  0.040362629            3 
  767000    1.1509897   -6.1969309    363.23093  0.039464464  0.040354588            5 
  768000    1.1196896   -6.2452595     364.7727  0.039580371    0.0403468            2 
  769000    1.1380265    -6.228144    365.56372   0.03961462  0.040339083            8 
  770000    1.1331383   -6.2616449    365.73702  0.039581929  0.040330659            9 
  771000    1.1481173   -6.2391399    364.58959   0.03940657  0.040322452            3 
  772000    1.1362375   -6.2617314    366.00502  0.039508314  0.040314153            8 
  773000    1.1268854   -6.2055412    365.71056  0.039425459  0.040305719            5 
  774000     1.128086    -6.228334    365.78769  0.039382827  0.040297297            5 
  775000    1.1335281   -6.2549692    366.94581  0.039456538  0.040288796            2 
  776000    1.1237009   -6.2317631    365.25977  0.039224631  0.040280349            4 
  777000    1.1328357    -6.220596    367.69746  0.039435592  0.040272055            5 
  778000    1.1410797   -6.2361013    368.26613  0.039445815  0.040263821            4 
  779000    1.1090235   -6.2212904    369.00008  0.039473692  0.040255769            3 
  780000    1.1107469   -6.2319649    369.96601  0.039526283  0.040247833            3 
  781000    1.1312474   -6.2310555    370.66719   0.03955049  0.040240083            4 
  782000     1.107675   -6.2106355    372.31022  0.039675002  0.040232534            7 
  783000    1.1236884   -6.2230897    370.96107  0.039480744  0.040225128            3 
  784000    1.1076906   -6.2162041    371.11535  0.039446784  0.040217974            2 
  785000    1.1252992   -6.2219429    371.92719  0.039482716   0.04021055            3 
  786000    1.1422613   -6.2046273    372.50156   0.03949338  0.040202918            3 
  787000    1.1310922   -6.2558625     371.6828  0.039356501  0.040195115            2 
  788000    1.1056389   -6.2644261    372.12029  0.039352822  0.040187003            3 
  789000    1.1372808   -6.2444905    373.06568  0.039402797  0.040179163            5 
  790000     1.090534    -6.210503    373.13533  0.039360267  0.040171497            3 
  791000    1.1127791   -6.2570495    372.85189  0.039280646  0.040163911            4 
  792000     1.118976   -6.2254888     373.7826  0.039328977  0.040156014            5 
  793000    1.1224145   -6.2357447    374.28171  0.039331832  0.040148222            2 
  794000    1.1271809   -6.2437363    374.16599   0.03927015  0.040140326            3 
  795000    1.1201811   -6.2454587    374.56853  0.039262949   0.04013192            5 
  796000    1.1087503   -6.2385873    374.52126  0.039208674  0.040123529            7 
  797000     1.158138   -6.2405524    375.07982  0.039217881  0.040115273            6 
  798000    1.1112308   -6.2037558    376.25604  0.039291566   0.04010685            3 
  799000     1.089677   -6.2399147    376.44188  0.039261773  0.040098455            3 
  800000    1.1072303   -6.2284851    377.04343  0.039275357  0.040090519            3 
  801000    1.1132074   -6.2617257    376.55294  0.039175295  0.040082528            3 
  802000    1.1109186   -6.2647299    378.14153  0.039291514  0.040074328            4 
  803000    1.1053019   -6.2305065    377.56789  0.039183052  0.040066042            2 
  804000    1.1120414   -6.2366597    378.64142  0.039245587  0.040057899            5 
  805000    1.1177526   -6.2335131    378.53208  0.039185516  0.040049704            5 
  806000    1.1297057   -6.2627246    380.47204  0.039337473  0.040042018            6 
  807000     1.129686   -6.2208622    380.72129  0.039314466  0.040034088            3 
  808000    1.1264837   -6.2289986    378.98803  0.039087049  0.040026113            6 
  809000    1.1252997   -6.2192615     381.0769  0.039253904  0.040017928            5 
  810000     1.098227   -6.2689422    379.62758  0.039056335  0.040009585            4 
  811000    1.1148232   -6.2072804    380.89475  0.039138383  0.040000788            3 
  812000    1.1249766   -6.2411758    380.13633  0.039012349   0.03999174            4 
  813000    1.1371569   -6.2156044    380.65079  0.039017096  0.039982715            4 
  814000    1.1062186   -6.2326729    381.85612  0.039092559  0.039973372            5 
  815000    1.1251175   -6.2608773    381.37684  0.038995586  0.039963923            6 
  816000    1.1262561   -6.2177464    381.32086  0.038942081   0.03995453            4 
  817000    1.0911398   -6.2361242    381.31233  0.038893546  0.039944519            5 
  818000    1.1461733   -6.2622783    381.55221  0.038870437  0.039934504            2 
  819000      1.11508    -6.232695    382.10305  0.038879024  0.039924429            6 
  820000     1.139931   -6.2236332    383.77312  0.039001333  0.039915039            4 
  821000    1.1196465   -6.2757291    382.87735  0.038862906  0.039905568            3 
  822000     1.153386   -6.2283284    383.42437  0.038871084  0.039895795            3 
  823000    1.1361496   -6.2448664    383.31393   0.03881267  0.039885793            5 
  824000    1.1258483   -6.2401361    383.15613  0.038749609  0.039875238            3 
  825000    1.1464486   -6.2125996    383.09445  0.038696409  0.039864823            5 
  826000    1.1243474   -6.2338659    383.12724  0.038652869  0.039854162            2 
  827000     1.118048   -6.2454872    383.57997   0.03865175  0.039843276            3 
  828000    1.1275262   -6.2090581    385.18262  0.038766367  0.039832456            2 
  829000    1.1155384   -6.2429459    386.47889  0.038849909  0.039821845            4 
  830000    1.1258335    -6.229437    385.13392  0.038668064  0.039810951            7 
  831000    1.1343317    -6.255311     384.7066  0.038578681  0.039799824            4 
  832000    1.1213871   -6.2291431    384.42101  0.038503707  0.039788491            6 
  833000    1.0699538   -6.2593677    385.55563  0.038570991  0.039776714            5 
  834000    1.1163949   -6.2537431     386.4671  0.038615817  0.039765161            5 
  835000    1.1219153   -6.2281095    385.16805  0.038439925  0.039753691            3 
  836000    1.1199002   -6.2411502    386.60739  0.038537419  0.039742121            7 
  837000    1.1342925    -6.290682    384.98108  0.038329459   0.03972999            4 
  838000    1.1259834    -6.285281    386.38199   0.03842303  0.039717735            5 
  839000    1.1144533   -6.2457506    387.09981   0.03844853  0.039705612            3 
  840000    1.1075526   -6.2704655    387.05115  0.038397932  0.039693248            4 
  841000    1.1382692   -6.2622749     386.7229  0.038319748  0.039680947            4 
  842000    1.1168211   -6.2580283    385.54752   0.03815791  0.039668798            7 
  843000    1.1155925   -6.2709233    387.83818  0.038339085   0.03965606            3 
  844000    1.1205161   -6.2698887    388.19911  0.038329296  0.039643517            3 
  845000    1.0890515   -6.2841417      388.002  0.038264497   0.03963107            3 
  846000    1.1046828   -6.2656508    389.22757  0.038339989  0.039618514           11 
  847000    1.1188806   -6.2502574    389.31042  0.038302875  0.039606085            5 
  848000    1.1099993   -6.2233677    388.92293  0.038219628  0.039593594            3 
  849000    1.1099201   -6.1997904    390.36391   0.03831605  0.039581117            6 
  850000    1.1111398   -6.2251022    389.43952  0.038180345  0.039568372            4 
  851000    1.0992667   -6.2546035    390.32055  0.038221754  0.039555962            3 
  852000    1.1087592   -6.2733891    389.60592  0.038106996  0.039543034            9 
  853000    1.1057056   -6.2310115    390.68342  0.038167587  0.039530356            4 
  854000     1.110602   -6.2267229     391.7594  0.038227888  0.039517934            3 
  855000    1.1157357   -6.2544779    390.74981  0.038084777  0.039505267            4 
  856000    1.1074934   -6.2226807    391.99402  0.038161412  0.039492762            3 
  857000    1.0831424   -6.2717943    392.92541  0.038207449  0.039480426            5 
  858000    1.0970961   -6.2768278     392.8686  0.038157401  0.039468049            5 
  859000    1.1163735   -6.2290472    393.13932  0.038139243  0.039455973            4 
  860000     1.121874   -6.2602674    394.26324  0.038203802  0.039443886            4 
  861000    1.1126431   -6.2231567    395.57213  0.038286114  0.039431839            4 
  862000     1.124126   -6.2215825    394.93455  0.038180061  0.039419969            1 
  863000    1.1177758   -6.2630357    396.31825  0.038269433  0.039408382            3 
  864000    1.1053472   -6.2687739    395.63717   0.03815945  0.039396817            4 
  865000     1.104395   -6.2498492    397.14456  0.038260555  0.039385789            2 
  866000    1.1228324   -6.2261201    398.02363  0.038300965   0.03937513            7 
  867000    1.1316947   -6.2629111      397.513  0.038207708  0.039364247            4 
  868000      1.08882    -6.245592    399.30738  0.038335962  0.039353599            4 
  869000    1.1325117   -6.2604451    399.13345  0.038275168   0.03934285            2 
  870000    1.1114603   -6.2478304    400.72895  0.038383999  0.039332499            4 
  871000    1.1175191   -6.2674535    399.83646  0.038254541  0.039321837            7 
  872000     1.106414   -6.2743186    400.37999  0.038262613  0.039311036            4 
  873000    1.0985367   -6.2689202    401.29531  0.038306158  0.039300531            5 
  874000    1.1340747   -6.2341046    401.68204  0.038299203  0.039289917            5 
  875000    1.1145468   -6.2734612    400.94297  0.038185044  0.039279137            4 
  876000    1.1288408   -6.2473426     402.2738  0.038268056  0.039268269            4 
  877000    1.0896076   -6.2701627    401.95923   0.03819453  0.039257111            4 
  878000    1.1172709     -6.28735    401.32773  0.038091091  0.039245625            5 
  879000    1.1068557   -6.2764902    403.08243   0.03821411  0.039234453            1 
  880000     1.101795   -6.2440628    403.15506  0.038177562  0.039223697            3 
  881000    1.1153831   -6.2745338    401.33115  0.037961705  0.039212484            5 
  882000    1.0954325   -6.2928568    402.68289   0.03804638  0.039201192            5 
  883000    1.0966162   -6.3019298    404.50917  0.038175648  0.039190008            4 
  884000    1.1251065   -6.2684284     403.4906  0.038036444  0.039178897            6 
  885000    1.1357218   -6.2757827    405.26838  0.038160864  0.039167749            5 
  886000    1.1257197   -6.2894827      403.535  0.037954759  0.039156622            3 
  887000    1.0826399   -6.2863054    404.15618  0.037970329  0.039145304            5 
  888000    1.0974306   -6.2515833    405.34934   0.03803954  0.039134155            4 
  889000    1.1067341   -6.2187844    405.22512  0.037985107   0.03912307            3 
  890000    1.1082708   -6.2976622    404.90374  0.037912336   0.03911198            3 
  891000     1.104733   -6.2344943    407.69846  0.038131169  0.039100774            3 
  892000     1.109988   -6.1988757    408.33577   0.03814796  0.039089837            3 
  893000    1.0947371   -6.2484749    406.61454  0.037944619  0.039078425            6 
  894000    1.1093089   -6.2617301     406.7563   0.03791539  0.039066841            6 
  895000    1.1047905   -6.3076993    407.92791  0.037982114  0.039055193            4 
  896000    1.0973717   -6.2755556    408.37502  0.037981307  0.039043693            6 
  897000    1.0989594   -6.3309159    408.43023  0.037944094  0.039032726           10 
  898000    1.1047638     -6.27236     408.6418  0.037921474   0.03902177            5 
  899000    1.1287227   -6.2256148    411.02951  0.038100622  0.039011069            4 
  900000    1.1131885   -6.2303861    410.77521  0.038034742  0.039000344            3 
  901000    1.1248105   -6.2351905    411.54512  0.038063736  0.038989472            5 
  902000    1.0754762   -6.2863739    409.93777  0.037873039   0.03897856            2 
  903000    1.1041081   -6.2728646    410.84452  0.037914777  0.038967504            5 
  904000    1.1082276   -6.2385608    411.13322  0.037899449  0.038956479            4 
  905000    1.0689396   -6.3175061    411.38432  0.037880692  0.038945197            4 
  906000     1.103249   -6.2640653    411.74773  0.037872307   0.03893386            4 
  907000    1.1246248   -6.2652969    411.77434  0.037832997  0.038922647            3 
  908000     1.121529   -6.2917373     412.1388   0.03782478  0.038911265            5 
  909000    1.0921139    -6.262159    412.99481  0.037861643  0.038900081            4 
  910000    1.1080213   -6.2451354    412.53581  0.037778005  0.038889079            9 
  911000    1.1115751   -6.2930482    412.41897  0.037725848  0.038877785            3 
  912000    1.1005455   -6.2602721    414.11738  0.037839673  0.038866505            5 
  913000    1.1098623   -6.2514822    413.28922  0.037722638  0.038855296            2 
  914000    1.0807793   -6.2773571    412.90816  0.037646623  0.038843932            3 
  915000    1.1254886   -6.2650482    414.85115  0.037782436  0.038832922            2 
  916000    1.1136747   -6.2533431    415.09721  0.037763574  0.038821645            3 
  917000    1.1002362   -6.2646938    414.47283  0.037665652  0.038810235            6 
  918000     1.108485   -6.3005702    415.84121  0.037748839  0.038798678            6 
  919000    1.1072478   -6.2856194    415.73346  0.037697992  0.038787154            3 
  920000    1.0939665   -6.2958918    415.24385  0.037612667  0.038775551            5 
  921000    1.0845591   -6.2893279    417.45513  0.037771909  0.038764332            5 
  922000    1.0965088   -6.2653868    417.10933  0.037699686    0.0387529            2 
  923000    1.1145149   -6.2288358    417.25859  0.037672317  0.038741556            9 
  924000    1.1274702   -6.2571573    417.72268  0.037673402  0.038730455            8 
  925000    1.1148511   -6.2427404     419.4303  0.037786514  0.038719552            4 
  926000      1.10478   -6.2623557    420.25831  0.037820223  0.038708755            6 
  927000    1.1078982   -6.2792263    418.67185  0.037636808  0.038697934            4 
  928000    1.0784006   -6.2609503    418.91923  0.037618465  0.038686735            2 
  929000    1.1025781   -6.2781785    420.47793  0.037717791  0.038675684            5 
  930000    1.1027439   -6.3142479    419.77819  0.037614533  0.038664562            2 
  931000    1.1191941   -6.2970026    419.46268   0.03754589   0.03865318            2 
  932000    1.0970809   -6.2810795    420.48304  0.037596839  0.038641798            5 
  933000    1.1220014   -6.2747352    421.25309   0.03762532  0.038630775            7 
  934000    1.0965501   -6.2912327    421.82308  0.037635892  0.038619519            8 
  935000    1.1233551   -6.2661476    421.75945  0.037589969  0.038608411            4 
  936000    1.0979446   -6.2531512    423.03406  0.037663289  0.038597092            3 
  937000    1.1035113    -6.279433    422.54672  0.037579751  0.038585936            3 
  938000    1.0678648   -6.2753251    422.28794  0.037516697  0.038574604            4 
  939000    1.1139333   -6.3178874    421.71683  0.037426058  0.038563103            3 
  940000    1.0839168   -6.2648474    422.56546  0.037461477   0.03855177           12 
  941000    1.0768258   -6.2730631     423.3673  0.037492676  0.038540392            3 
  942000    1.1050865   -6.2815249    423.98578  0.037507588  0.038529188            9 
  943000    1.0667098   -6.2863574    423.86763  0.037457373  0.038517664            7 
  944000    1.0927306   -6.2774095    424.33076  0.037458577  0.038506362            6 
  945000    1.0872579    -6.302446     423.8576  0.037377213  0.038495028            3 
  946000    1.0982341    -6.291135    424.83672  0.037423953  0.038483674           12 
  947000    1.0736479   -6.2696817    426.35886  0.037518379  0.038472359            5 
  948000    1.0784295    -6.274464    425.33064  0.037388417  0.038461059            6 
  949000    1.0953427   -6.2674416    425.88204  0.037397439  0.038449826            4 
  950000    1.0917011   -6.2660416    425.93137  0.037362401  0.038438299            4 
  951000    1.0875784   -6.2942172    425.53256  0.037288167  0.038426752            6 
  952000    1.1036398   -6.2531824    427.53977    0.0374247  0.038415329            3 
  953000     1.108377   -6.2569051    428.41708  0.037462144  0.038404208            4 
  954000    1.0997463   -6.2844324    429.33478  0.037503038  0.038393071            7 
  955000     1.115586   -6.3097935    428.07604   0.03735393  0.038381787            8 
  956000    1.1200672   -6.3271742      428.431  0.037345799  0.038370664            4 
  957000    1.1106983   -6.2826312    429.17827  0.037371845  0.038359618            3 
  958000    1.0933962   -6.2713808    430.33372  0.037433344  0.038348766            4 
  959000    1.0695489   -6.2498827    430.75457   0.03743088  0.038337815            2 
  960000    1.1076855   -6.2663931    431.13713  0.037425098   0.03832712            2 
  961000    1.0960491   -6.2892435    431.82843    0.0374461  0.038316513            9 
  962000    1.0789101   -6.3128529    431.52759  0.037381115  0.038305707            4 
  963000    1.0954854   -6.2779302    431.88357  0.037373102  0.038294729            4 
  964000    1.1142128   -6.2706472    432.89498  0.037421765  0.038284061            3 
  965000    1.0911294   -6.2848026    431.81442  0.037289673  0.038273402            8 
  966000    1.0971853   -6.3051534    433.15477  0.037366698  0.038262663           11 
  967000     1.109245    -6.257257    433.56948  0.037363795   0.03825223            2 
  968000    1.0861111   -6.2775578    434.71343  0.037423677  0.038241969            3 
  969000    1.1154238   -6.2637319    433.36934  0.037269465  0.038231424            3 
  970000    1.1139736   -6.3150842    434.14058    0.0372973  0.038220948            3 
  971000    1.0902331   -6.2482117    434.72182  0.037308773  0.038210525            5 
  972000    1.0936323   -6.2981345    434.34854  0.037238387  0.038200131            3 
  973000    1.1001731   -6.3340574    435.38436  0.037288829  0.038189784            2 
  974000    1.0759792   -6.2834203    437.02913  0.037391267  0.038179657            2 
  975000    1.1137129   -6.2584266    437.95332  0.037431908  0.038169682            6 
  976000    1.1255897   -6.2603297    438.15377   0.03741067  0.038159782           12 
  977000    1.1284255   -6.2829226     438.5512  0.037406278  0.038149735            6 
  978000    1.0812666   -6.2613472    438.04204  0.037324646   0.03813983            2 
  979000    1.0909531   -6.3142854    439.57173  0.037416729  0.038129737            6 
  980000    1.1071311   -6.2689225      439.699  0.037389371  0.038119981            4 
  981000    1.0966258    -6.287205    440.15297  0.037389821  0.038110258            3 
  982000    1.1174677   -6.2930583    441.91061  0.037500901  0.038100838            4 
  983000    1.0951748   -6.2899883     440.8129  0.037369693  0.038091594            6 
  984000    1.0805365   -6.2696412    440.88626  0.037337929  0.038081776            3 
  985000    1.0968989   -6.2960911    441.61076  0.037361317  0.038072293            7 
  986000    1.0953392   -6.2638387    443.30918  0.037466969  0.038062785            4 
  987000    1.0808129   -6.2954312    443.10528  0.037411793  0.038053268           12 
  988000     1.085303   -6.2717383    442.70431  0.037340107  0.038043795            7 
  989000    1.0728331   -6.3085151    442.99644  0.037326967  0.038033994            3 
  990000    1.0922176   -6.2778509    444.68313   0.03743124  0.038024389            4 
  991000    1.0816475   -6.2923478    443.79157  0.037318497  0.038014922            2 
  992000    1.0809176   -6.2786864     443.2314  0.037233821  0.038005529            5 
  993000    1.0838122   -6.3004136    444.29742  0.037285786  0.037995915            3 
  994000    1.0850991   -6.2629203    444.50529  0.037265702  0.037986487            4 
  995000    1.1033681   -6.3103862    445.20882  0.037287171  0.037977211            6 
  996000     1.100793   -6.2985838    444.87384  0.037221707  0.037967892            3 
  997000    1.0887827   -6.2765304    445.74491   0.03725718  0.037958441            3 
  998000    1.0915501   -6.2761651    447.41106  0.037358973  0.037949113            2 
  999000     1.097052    -6.314994    447.82253    0.0373559  0.037939996            3 
 1000000    1.0669039   -6.2703686    448.68115  0.037390096  0.037931139            8 
 1001000    1.1059445   -6.3154054    447.51043   0.03725528   0.03792228            5 
 1002000    1.1029782   -6.3085157    447.61509  0.037226803  0.037913012            6 
 1003000    1.1008451   -6.2895882    448.79289  0.037287545   0.03790418            3 
 1004000    1.0808021   -6.2627692    450.16224  0.037364064  0.037895152            4 
 1005000    1.0849702   -6.2705069     450.6051  0.037363607  0.037886093            2 
 1006000    1.0799748   -6.2991474    449.38622  0.037225498  0.037876997            4 
 1007000    1.0879772   -6.3177694     449.2426  0.037176647  0.037867835            3 
 1008000    1.0638959   -6.2720156    450.54781  0.037247669   0.03785882            7 
 1009000    1.0958882   -6.2823072    451.53507  0.037292292  0.037849953            4 
 1010000    1.0798659   -6.3042551    449.64986  0.037099823  0.037840822            4 
 1011000    1.0725323   -6.3270866    449.79909  0.037075427  0.037831351            2 
 1012000    1.0856563   -6.3183692    452.16262  0.037233417  0.037822367            7 
 1013000    1.0824115   -6.3034139    453.30724  0.037290822  0.037813364            7 
 1014000    1.0873239   -6.2660228    452.94258  0.037224078  0.037804432            2 
 1015000     1.089924   -6.2787604    452.17313  0.037124231  0.037795316            3 
 1016000    1.0965835   -6.3417477    451.84676  0.037060922  0.037785951           10 
 1017000    1.0813643   -6.2749003    453.76961  0.037182039  0.037776458            5 
 1018000    1.0759113   -6.2970409    453.73651  0.037142805   0.03776695            2 
 1019000    1.1063425    -6.261512    453.66221  0.037100278  0.037757688            4 
 1020000    1.0974676   -6.3077284    453.84648   0.03707896  0.037748153            5 
 1021000    1.0718961   -6.3048797    453.75996  0.037035583  0.037738608            6 
 1022000    1.0962178   -6.2910241    454.97679  0.037098564  0.037729053            4 
 1023000    1.0911414   -6.2622102    454.58073  0.037030037  0.037719476            4 
 1024000    1.0822594   -6.3066233    454.61225  0.036996439  0.037709745            6 
 1025000     1.096135     -6.29519    455.76551  0.037054106  0.037700395            7 
 1026000    1.0964648   -6.3216588    456.42695  0.037071715  0.037690801            4 
 1027000      1.08497   -6.3171529    455.04098  0.036923157  0.037681152            5 
 1028000    1.0613544   -6.3146607    456.21545  0.036982446  0.037671331            3 
 1029000    1.0952653   -6.2810752    457.43787  0.037045503  0.037661567            4 
 1030000    1.0885931   -6.2752685    456.08184  0.036899825  0.037652079            3 
 1031000    1.0813815    -6.306985    456.70419  0.036914338  0.037642007            6 
 1032000    1.1119904   -6.3250159    457.46789  0.036940237   0.03763207            6 
 1033000     1.084488   -6.3223509    456.62296  0.036836315  0.037622088            3 
 1034000    1.0949572   -6.3034531    457.77417   0.03689347  0.037612089            7 
 1035000    1.0800234   -6.2957596    457.84274  0.036863345  0.037602239            4 
 1036000    1.0955623    -6.317652    456.84666   0.03674764  0.037592425            2 
 1037000    1.0998635   -6.3053544    458.64158  0.036856443  0.037582611           10 
 1038000    1.0847467   -6.3211933    457.36972  0.036718828  0.037572525            4 
 1039000    1.0852268   -6.3070459    458.82522  0.036800226  0.037562207            4 
 1040000    1.0970102    -6.285811    458.94456  0.036774404  0.037552199            4 
 1041000    1.0994259   -6.2780739     460.8833  0.036894276  0.037542438            4 
 1042000    1.0858343   -6.2995047    461.51247  0.036909187   0.03753267            7 
 1043000    1.1041928   -6.3226712    460.46848  0.036790387   0.03752287            5 
 1044000    1.0822377   -6.2666467    461.03769  0.036800582  0.037513214            3 
 1045000    1.0970161   -6.2918101    462.53633  0.036884875  0.037503683            2 
 1046000    1.1028195   -6.3458615    460.10032  0.036655539  0.037493857            5 
 1047000    1.0887004   -6.2967565    463.06611  0.036856583  0.037484357            5 
 1048000    1.0681094   -6.3106317    462.52867  0.036778679  0.037474836            4 
 1049000     1.066285   -6.3119957    462.68017  0.036755653  0.037465679            3 
 1050000     1.077263   -6.3170249    465.51228  0.036945419  0.037456422            4 
 1051000    1.0749207   -6.3275844    464.23492  0.036808985  0.037447181            7 
 1052000    1.0912807    -6.342393    466.28744  0.036936584  0.037438139            5 
 1053000    1.0589857   -6.3237508     467.0489  0.036961768  0.037429256            5 
 1054000    1.0939811    -6.310183    467.51235  0.036963342  0.037420579            6 
 1055000     1.102045   -6.3021897    467.18886  0.036902754  0.037411903            4 
 1056000    1.0612329   -6.3192217    467.66031  0.036905012  0.037403142            4 
 1057000    1.1039916   -6.3205562    467.26521  0.036838948  0.037394552            4 
 1058000    1.0706094   -6.3452858    467.81852   0.03684771  0.037385952            2 
 1059000    1.0919417   -6.2722694    469.00465  0.036906252  0.037377191            5 
 1060000    1.0941558   -6.2713417    469.57044  0.036915915  0.037368541            3 
 1061000    1.0820244    -6.341264    467.24589  0.036698546  0.037359838            2 
 1062000    1.0529909   -6.2966912    469.26374  0.036822327  0.037351007            4 
 1063000    1.0921644    -6.302075    470.65669  0.036896887  0.037342282            5 
 1064000    1.1011052   -6.3208007    470.53827  0.036852935  0.037333761            3 
 1065000    1.0690612   -6.3053783    471.78687  0.036916031  0.037325195            1 
 1066000    1.0955026   -6.3157925    472.16893  0.036911267  0.037316755            3 
 1067000    1.0612978   -6.3247896    471.07881  0.036791535  0.037308176            7 
 1068000     1.108309   -6.3354687    471.93291  0.036823729  0.037299504            3 
 1069000    1.0730924   -6.3155801    471.64717  0.036767008  0.037290714            3 
 1070000    1.0670358   -6.3061574    473.02472  0.036839932  0.037282025            5 
 1071000    1.0920941   -6.2764735    472.83988  0.036791151  0.037273547            4 
 1072000    1.0856088   -6.3141104    472.39386  0.036722159   0.03726468            4 
 1073000    1.0582728   -6.3246704    472.85422  0.036723689  0.037256047            3 
 1074000    1.0797351   -6.2809443    473.88123  0.036769183  0.037247225            2 
 1075000    1.0800519   -6.3303408    473.50436  0.036705765  0.037238224            4 
 1076000    1.0964613   -6.2793012    474.51515  0.036749934  0.037229331            8 
 1077000    1.0943792   -6.3353893    474.05594   0.03668028  0.037220435            3 
 1078000    1.0827889   -6.3270074    473.55329  0.036607397  0.037211737            4 
 1079000    1.0626372    -6.309439    474.15728  0.036620117  0.037202832            6 
 1080000    1.0753776   -6.3124273    475.35868   0.03667891  0.037193979            5 
 1081000    1.0802687   -6.2866227    476.82132  0.036757733  0.037185269            7 
 1082000    1.0588774   -6.3396104    476.04108  0.036663669  0.037176738            3 
 1083000    1.0974655   -6.3376766    474.97779  0.036547999  0.037167791            6 
 1084000    1.0502142   -6.3187133    476.04703  0.036596482  0.037158816            4 
 1085000    1.0814302   -6.3078824    476.66948  0.036610559  0.037150123            3 
 1086000    1.0798598   -6.3269452    477.28574  0.036624136  0.037141217            4 
 1087000    1.0775837   -6.3283256    477.72541  0.036624149  0.037132578            5 
 1088000    1.0781307   -6.3402693    476.91197  0.036528184  0.037123928            5 
 1089000    1.0873624   -6.3516453    479.04861  0.036658143  0.037115359            6 
 1090000     1.088608   -6.3631082    479.46772  0.036656554  0.037106728            2 
 1091000    1.0570842   -6.3054055    480.78447  0.036723531  0.037098312            4 
 1092000    1.0604861   -6.3423934    480.40417   0.03666088  0.037089874            5 
 1093000    1.0814321   -6.3319412    481.64783  0.036722158  0.037081695            2 
 1094000    1.0860438   -6.2989691    483.91553  0.036861329  0.037073802            3 
 1095000    1.0797537   -6.3280062    483.16771  0.036770754  0.037066035            6 
 1096000    1.0752284   -6.2920724    482.41534  0.036679999  0.037058143            3 
 1097000    1.0564712   -6.2925605    484.43932  0.036800313  0.037050309            3 
 1098000     1.080063   -6.3530438    482.07271  0.036587182  0.037042403            8 
 1099000    1.0789041   -6.3096434    484.67576  0.036751271  0.037034324           10 
 1100000    1.0685964   -6.2941155    486.04099  0.036821287   0.03702656            2 
 1101000    1.0857847   -6.3489256    483.87592  0.036623972  0.037018821            7 
 1102000    1.0739162   -6.3406833    484.82716  0.036662671  0.037010986            8 
 1103000    1.0855128   -6.3105839    484.71867  0.036621235  0.037003193            4 
 1104000    1.0837858   -6.3002283    485.50494  0.036647414   0.03699563            5 
 1105000    1.0725927   -6.2906044    486.27128  0.036672042  0.036987995            7 
 1106000    1.0667327   -6.3620747    486.50504  0.036656498  0.036980369            2 
 1107000     1.109033   -6.3229166    487.43695  0.036693537  0.036972722            4 
 1108000    1.0854114   -6.2923513    488.20201  0.036717961  0.036965051            3 
 1109000    1.0763038   -6.3011439    487.34804  0.036620682  0.036957634            4 
 1110000    1.0911028   -6.3088725    489.76931  0.036769467  0.036950226            2 
 1111000    1.0661433   -6.3285597    489.93714   0.03674896  0.036942912            3 
 1112000    1.0782539   -6.3705962    491.53235  0.036835458   0.03693595            2 
 1113000    1.0536341   -6.2875203    491.15383  0.036774021  0.036928692            4 
 1114000    1.0658397    -6.327969    490.93001  0.036724268  0.036921629            2 
 1115000    1.0527761   -6.3133597    491.69926  0.036748824  0.036914613            6 
 1116000    1.0736419   -6.3661467    490.71107  0.036642105  0.036907526            2 
 1117000    1.0687487   -6.3407697    490.89799  0.036623246  0.036900382            5 
 1118000    1.0935714   -6.3314043    490.97441  0.036596184  0.036893213            4 
 1119000    1.0690631   -6.3349948    493.54233  0.036754716  0.036886227            2 
 1120000    1.0696229   -6.3251099    492.46777  0.036641947  0.036879077            3 
 1121000    1.0728461   -6.3845117    492.34021  0.036599778  0.036871808            5 
 1122000    1.0734947   -6.3331296     493.2134  0.036632011  0.036864542            3 
 1123000    1.0722121   -6.3280818    493.48184  0.036619311   0.03685728            5 
 1124000    1.0921724   -6.3233367    494.56902  0.036667335  0.036850091            2 
 1125000    1.0531843   -6.3303481     493.0971  0.036525711  0.036842886            4 
 1126000    1.0747833   -6.3128746    494.95417  0.036630711  0.036835667            6 
 1127000    1.0745021   -6.3063673      494.928  0.036596274  0.036828358            4 
 1128000    1.0645157   -6.3105709    495.33288  0.036593741   0.03682103            6 
 1129000    1.0777344   -6.3761053    496.11544  0.036619091  0.036813758            4 
 1130000    1.0644358   -6.3525492    495.45486  0.036537969  0.036806479            3 
 1131000    1.0789196   -6.3544022    494.45906  0.036432292  0.036799012            8 
 1132000    1.0744102   -6.3205412     497.1563  0.036598668  0.036791404            5 
 1133000    1.0643109   -6.3092498    495.96336  0.036478623  0.036783868            3 
 1134000    1.0684594   -6.3334041    495.50059  0.036412448  0.036776049            4 
 1135000    1.0739944   -6.3574729     495.0141  0.036344648  0.036768129           11 
 1136000    1.0592604   -6.2899486    497.96068  0.036528806  0.036760175            4 
 1137000    1.0719701   -6.3418524    496.78064   0.03641019  0.036752446            5 
 1138000    1.0614627   -6.3139569    496.52147  0.036359217  0.036744584            4 
 1139000    1.0842589   -6.3270656    499.66051  0.036556958  0.036736939            6 
 1140000    1.0577045   -6.3399756    498.65916  0.036451693  0.036729349            7 
 1141000    1.0812029   -6.2996399    500.86292  0.036580698  0.036721852            5 
 1142000    1.0834188   -6.2979053    499.23595  0.036429943  0.036714529            8 
 1143000    1.0489356   -6.3480967    499.90387  0.036446768  0.036706962            5 
 1144000    1.0838478   -6.3225338    501.32827  0.036518667  0.036699336            6 
 1145000    1.0803483   -6.3464902    499.40635  0.036346896  0.036691758            8 
 1146000    1.0652544    -6.347553     501.2284  0.036447673  0.036684363            4 
 1147000     1.078607    -6.330653    500.81153  0.036385609  0.036676878            4 
 1148000    1.0863232   -6.3499503    500.94192   0.03636338  0.036669185            4 
 1149000    1.0691572   -6.3512851    500.81339   0.03632241  0.036661603            5 
 1150000    1.0644213   -6.3786011    500.07714  0.036237474  0.036653976            5 
 1151000    1.0935185   -6.3085096    501.73676  0.036326148  0.036646231            7 
 1152000    1.0738749   -6.3473929    502.63458  0.036359562  0.036638775            3 
 1153000    1.0596924    -6.339533    503.33992  0.036379006  0.036631398            3 
 1154000    1.0805995   -6.3214304    504.49906  0.036431186  0.036624232            7 
 1155000    1.0697124   -6.3385915    503.58746  0.036333871  0.036616746            4 
 1156000    1.0756559   -6.3251868    504.39789  0.036360863  0.036609327            4 
 1157000    1.0518384    -6.363932    505.55247  0.036412595   0.03660194            4 
 1158000    1.0635948   -6.3177178     506.2454  0.036431016  0.036594814            4 
 1159000    1.0496749   -6.3642317    504.83584  0.036298234   0.03658765            5 
 1160000    1.0884895   -6.3584136    506.07483  0.036355951  0.036580314            9 
 1161000    1.0574788   -6.3391958    506.01852  0.036320594   0.03657298            3 
 1162000    1.0257505   -6.3348234    506.55472  0.036327791    0.0365655            4 
 1163000    1.0725661   -6.3568888    506.65271  0.036303576   0.03655806            4 
 1164000    1.0635253   -6.3467148    507.14223  0.036307433  0.036550517            5 
 1165000    1.0491763    -6.348511    507.03964   0.03626893   0.03654277            5 
 1166000      1.03801   -6.3762677    507.28088  0.036255066   0.03653508            7 
 1167000    1.0809422   -6.3360891    506.80012  0.036189668  0.036527332            6 
 1168000    1.0736242   -6.3940676    507.40264  0.036201672  0.036519647            8 
 1169000    1.0627162   -6.3340468    509.45384  0.036316926  0.036511936            3 
 1170000    1.0764944   -6.3483983    508.37988  0.036209393  0.036504035            5 
 1171000    1.0719745    -6.349739    508.86047  0.036212672  0.036496117            2 
 1172000    1.0889996   -6.3118246    507.82114  0.036107874   0.03648832            9 
 1173000    1.0708481   -6.3299552    509.22822  0.036177055  0.036480531            3 
 1174000    1.0619864   -6.3576662    508.93804  0.036125642  0.036472659            5 
 1175000    1.0708374   -6.3390508    510.53163  0.036207917  0.036464974            3 
 1176000    1.0713805   -6.3564126    510.32534   0.03616251  0.036457271            6 
 1177000    1.0546545   -6.3537727    510.86541  0.036170023   0.03644942            3 
 1178000     1.070406   -6.3627158    511.84326  0.036208493  0.036441664            6 
 1179000    1.0594234   -6.3803461    509.90942  0.036041095  0.036433736            3 
 1180000    1.0671993   -6.3596859    510.48221  0.036051004  0.036425726            7 
 1181000    1.0435403   -6.2990739    512.91996   0.03619249  0.036417994            4 
 1182000    1.0695033   -6.3372301    513.03134  0.036169722  0.036410217            3 
 1183000    1.0648113   -6.3943648    511.57203  0.036036351  0.036402296            4 
 1184000    1.0831779   -6.3473904    511.74388   0.03601801  0.036394381            3 
 1185000    1.0423156   -6.3455577    513.58729  0.036117249  0.036386458            3 
 1186000    1.0579757   -6.3411614    513.02141  0.036047035  0.036378603            4 
 1187000    1.0585591    -6.335659     513.8707  0.036076292  0.036370427            5 
 1188000    1.0675686   -6.3668817    514.17888  0.036067542  0.036362435            3 
 1189000    1.0528886   -6.3782668    512.94345   0.03595062  0.036354296            5 
 1190000    1.0607861   -6.3536315    514.29916  0.036015348  0.036346395            3 
 1191000    1.0413982   -6.3451161    514.79887  0.036020072  0.036338497            6 
 1192000    1.0653396   -6.3516151    514.95215   0.03600057  0.036330466            3 
 1193000    1.0526923   -6.3646034    515.17613  0.035986039  0.036322465            5 
 1194000    1.0641132    -6.353278    516.01388  0.036014369  0.036314532            2 
 1195000    1.0372683   -6.3834174    516.15242  0.035993892  0.036306758            2 
 1196000    1.0469804   -6.3843587    517.11936  0.036031171  0.036298946            3 
 1197000    1.0611624   -6.3441965    515.75756  0.035906263  0.036290992            4 
 1198000    1.0465704   -6.3406671    518.81603  0.036089039  0.036283298            5 
 1199000    1.0715868   -6.3719434     516.8289   0.03592083  0.036275597            3 
 1200000    1.0712566   -6.3684838    517.09755  0.035909552  0.036267937            6 
 1201000    1.0440589   -6.3747493    519.09559   0.03601829  0.036260384            3 
 1202000    1.0510099    -6.340081    518.77519  0.035966111  0.036252775            5 
 1203000     1.060186   -6.3391143    520.37911   0.03604732  0.036245133            2 
 1204000    1.0589835   -6.3509612    519.17468  0.035934017  0.036237445            3 
 1205000    1.0536268   -6.3716081    517.60604  0.035795715  0.036229585            4 
 1206000    1.0687076   -6.3485421    519.87593   0.03592288  0.036221609            6 
 1207000    1.0719231   -6.3452418    519.88746  0.035893915  0.036213575            2 
 1208000    1.0684179   -6.3764217    521.29972  0.035961625   0.03620574            3 
 1209000    1.0506186    -6.325137    522.21727  0.035995125  0.036198149            4 
 1210000    1.0763826   -6.3959534    520.73062   0.03586299  0.036190576            7 
 1211000    1.0508424   -6.3616465    520.92051  0.035846443  0.036183151            7 
 1212000    1.0538335   -6.3628816     521.5971  0.035863387  0.036175503            9 
 1213000    1.0692813   -6.3691524    521.45726  0.035824214  0.036167851            3 
 1214000    1.0871271   -6.3574167      522.254  0.035849396  0.036160014            6 
 1215000     1.044552   -6.3278738    523.36623  0.035896175  0.036152381            5 
 1216000    1.0665139   -6.3469368    521.60916  0.035746242  0.036144588            3 
 1217000    1.0532384   -6.3486292     524.8353  0.035937777  0.036136734            5 
 1218000    1.0352652   -6.3566921    523.00594   0.03578311  0.036129039            6 
 1219000    1.0527553   -6.3784491     525.3762  0.035915792  0.036121375            5 
 1220000    1.0398137   -6.3426065    526.44693   0.03595949  0.036113944            6 
 1221000    1.0651514   -6.3805752    524.98465  0.035830238  0.036106374            4 
 1222000      1.03906    -6.342077    525.84126  0.035859333  0.036098861            2 
 1223000     1.072952   -6.3799889     524.5853  0.035744433  0.036091325            2 
 1224000    1.0534121    -6.375812    526.39379  0.035838357   0.03608382            7 
 1225000    1.0316074   -6.3916967    526.61886  0.035824412  0.036076383            3 
 1226000    1.0588632   -6.4000353    527.02579  0.035822851  0.036068819           14 
 1227000    1.0512262   -6.3863101    526.99615  0.035791643  0.036061259            5 
 1228000    1.0623404   -6.3629375    528.39418  0.035857368  0.036054019            3 
 1229000    1.0655047   -6.3667501    529.25284  0.035886415   0.03604668            5 
 1230000    1.0292755   -6.3600185    529.80572  0.035894696  0.036039428            5 
 1231000    1.0427047   -6.3701994    529.66758  0.035856186  0.036032406            5 
 1232000    1.0458932   -6.3379048    529.52279  0.035817288  0.036025094            4 
 1233000    1.0497499   -6.3520167    531.15872  0.035898805  0.036017981            5 
 1234000     1.062173   -6.3657234    530.84929  0.035848818  0.036011009            4 
 1235000     1.050264   -6.3882787     531.9995  0.035897402  0.036003922            4 
 1236000    1.0472146    -6.354243    532.19213  0.035881347  0.035996931            4 
 1237000    1.0545989   -6.3923876    531.49047  0.035805071  0.035989814            7 
 1238000    1.0344487   -6.4004574    533.22574  0.035892955  0.035982681            4 
 1239000    1.0588714   -6.3618744    533.58155  0.035887917  0.035975639            7 
 1240000    1.0556651   -6.3691783    533.86992  0.035878355  0.035968683            6 
 1241000    1.0434101   -6.3460536    534.36905   0.03588296  0.035961734            5 
 1242000    1.0632458   -6.3433042    534.07405  0.035834276  0.035954872            4 
 1243000    1.0565273   -6.3586731    535.57742  0.035906236  0.035947884            4 
 1244000    1.0445228   -6.3905491    535.51196  0.035872988  0.035940858            6 
 1245000    1.0639189   -6.3651811    535.52893   0.03584531  0.035933875            6 
 1246000    1.0531581   -6.3747408    535.12902  0.035789795   0.03592669            3 
 1247000    1.0507416   -6.3540608    536.22939  0.035834629  0.035919521            3 
 1248000    1.0876352   -6.3777405    534.72028  0.035705147  0.035912221            3 
 1249000    1.0455574   -6.3362992    535.22447  0.035710199  0.035905055            4 
 1250000    1.0469902   -6.3449132    537.26627  0.035817751  0.035897871            3 
 1251000    1.0736346   -6.3654973    535.17985  0.035650137  0.035890637            9 
 1252000    1.0618376   -6.3856481    537.62215  0.035784222  0.035883409            4 
 1253000    1.0590566   -6.3750622    535.37785  0.035606401  0.035875949            5 
 1254000    1.0435472   -6.3640086    535.80539  0.035606419  0.035868668            3 
 1255000    1.0628975   -6.3627574    538.75404  0.035773841  0.035861584            2 
 1256000    1.0449848   -6.3280717    539.03398  0.035763932  0.035854588            7 
 1257000    1.0680257   -6.3448794    540.65947  0.035843243  0.035847719            5 
 1258000     1.050114     -6.33391    539.53113  0.035740006  0.035840966            3 
 1259000    1.0368621    -6.388086    540.22563  0.035757587  0.035833988            7 
 1260000    1.0409897   -6.3787732    540.74122  0.035763308  0.035827102            4 
 1261000    1.0517472    -6.360212     542.9143  0.035878555  0.035820301            2 
 1262000    1.0624924   -6.3484559    540.59751  0.035697141  0.035813686            4 
 1263000    1.0446963   -6.3700473    540.23278  0.035644812  0.035807035            3 
 1264000    1.0510701   -6.3758945    542.93266  0.035794611  0.035800398            3 
 1265000    1.0499262   -6.3621489    543.40368  0.035797344  0.035793664            5 
 1266000    1.0275189    -6.352552    541.41361  0.035638073  0.035786784            3 
 1267000     1.075652   -6.3815188    542.73693  0.035696983  0.035780015            6 
 1268000    1.0321118   -6.3630625    541.68719  0.035599841  0.035773302            2 
 1269000    1.0281766   -6.3655369    543.61605  0.035698454  0.035766588            7 
 1270000     1.046892   -6.3544227    542.65254  0.035607122  0.035759676            5 
 1271000    1.0315232   -6.4030876    544.10229   0.03567416  0.035752951            6 
 1272000    1.0575773   -6.3454657    545.31386  0.035725489  0.035746001           13 
 1273000    1.0644154   -6.3711296    544.54925  0.035647371  0.035739279            2 
 1274000    1.0617328   -6.3923207    543.85381  0.035573902  0.035732621            2 
 1275000    1.0329282   -6.4013323    544.22183  0.035570054  0.035725761           10 
 1276000    1.0518914   -6.3799939    546.96051  0.035721036  0.035718954            4 
 1277000    1.0442856   -6.3809473    546.69281  0.035675594    0.0357123            4 
 1278000    1.0379585   -6.3296423     547.7318  0.035715428  0.035705573            4 
 1279000    1.0453872    -6.370126    546.00529  0.035575013  0.035699072            5 
 1280000    1.0382797   -6.3813933    547.25549  0.035628613  0.035692592            4 
 1281000    1.0490121   -6.3846698    547.19703  0.035596996  0.035686098            7 
 1282000    1.0421054   -6.3846782    548.31791   0.03564209  0.035679635            5 
 1283000    1.0523035   -6.3989304    550.33697  0.035745452  0.035673262            2 
 1284000    1.0365551   -6.4039894    550.51633  0.035729253  0.035667257            3 
 1285000    1.0501844   -6.3783525    550.45068  0.035697191  0.035661053            5 
 1286000    1.0242423   -6.3887539    551.32552  0.035726122  0.035655077            3 
 1287000    1.0374475   -6.3908097    549.68602  0.035592205  0.035648943            5 
 1288000    1.0424389   -6.3909833    549.64142  0.035561686  0.035642445            2 
 1289000    1.0175659    -6.401291    551.13791  0.035630845  0.035636037            7 
 1290000    1.0418495    -6.418043    551.71219  0.035640322  0.035629646            3 
 1291000    1.0531134   -6.3898135     553.6192  0.035735812  0.035623285            4 
 1292000     1.037357   -6.3785866    552.34846  0.035626191  0.035616863            7 
 1293000    1.0509912   -6.3840503    552.51591  0.035609429  0.035610392            4 
 1294000    1.0463249   -6.3560139    553.32182  0.035633811  0.035604074            6 
 1295000     1.042978   -6.3914513    553.97393  0.035648258  0.035597484            6 
 1296000    1.0420935   -6.4002652    551.87901  0.035486048   0.03559095            7 
 1297000    1.0272513   -6.3886876    555.21866  0.035673262  0.035584405            7 
 1298000    1.0545517   -6.3941124    553.65155  0.035545169  0.035577996            8 
 1299000     1.040049    -6.355841    554.63896  0.035581149  0.035571684            6 
 1300000     1.059588   -6.4118653    556.08882  0.035646719  0.035565208            3 
 1301000    1.0296205    -6.360067    553.78565  0.035471794  0.035558758            3 
 1302000    1.0435408   -6.4174878    555.43845  0.035550336  0.035552201            9 
 1303000    1.0355882   -6.3942022    555.91261  0.035553377  0.035545621            3 
 1304000    1.0438941   -6.3469413    554.52199  0.035437244  0.035538999            4 
 1305000    1.0505001   -6.3741975    555.02635  0.035442295  0.035532441            5 
 1306000    1.0374483   -6.3900875     556.5637  0.035513253  0.035525835            5 
 1307000    1.0844822   -6.3529655    558.29587  0.035596523  0.035519382            5 
 1308000    1.0323932   -6.3785055    556.46339  0.035452561  0.035512969            4 
 1309000    1.0502756   -6.3914246    557.60382  0.035498079  0.035506535            3 
 1310000    1.0444177   -6.4217339    556.18775    0.0353809  0.035500002            3 
 1311000    1.0364715   -6.3947551    558.14592  0.035478383  0.035493522            6 
 1312000    1.0322543   -6.3481667    559.06868  0.035509952   0.03548686            7 
 1313000    1.0290005   -6.3805132    560.65589  0.035583644  0.035480614            3 
 1314000    1.0382967   -6.3767608    560.89638  0.035571815  0.035474469            4 
 1315000    1.0245503   -6.3688533    559.73768  0.035471336  0.035468412            6 
 1316000    1.0114224   -6.4007991    560.04356  0.035463751  0.035462372            4 
 1317000    1.0050849   -6.4022178    561.52613  0.035530633    0.0354563            7 
 1318000    1.0255196   -6.3889404    561.52172  0.035503396  0.035450247            6 
 1319000    1.0224067   -6.4529616    560.89335   0.03543678  0.035444115            5 
 1320000    1.0675638   -6.3569179     562.9194  0.035537841  0.035438052            7 
 1321000    1.0446625   -6.4089554    563.50414  0.035547826  0.035432082            6 
 1322000    1.0326358   -6.3667148    563.49719  0.035520498  0.035426245            5 
 1323000    1.0184657   -6.3708948    565.38509  0.035612566  0.035420414            7 
 1324000    1.0455281    -6.409747    565.49615  0.035592658  0.035414782            5 
 1325000    1.0467432    -6.401807    565.04976  0.035537721   0.03540913            3 
 1326000    1.0424186   -6.4278354    563.49009  0.035412902  0.035403214            6 
 1327000    1.0335044   -6.3776356    566.35606  0.035566193  0.035397538            6 
 1328000    1.0504342   -6.4111808    565.46142  0.035483272  0.035391846            5 
 1329000    1.0263059   -6.3546762    566.06014  0.035494115  0.035385991            2 
 1330000    1.0328697   -6.3845462    566.03836  0.035466063  0.035380147            4 
 1331000    1.0352858   -6.4003848    567.72844  0.035545232  0.035374271            3 
 1332000    1.0417191   -6.3799895    567.86637  0.035527175  0.035368315            4 
 1333000    1.0251107    -6.407737    566.99574  0.035446095  0.035362455            5 
 1334000    1.0184591    -6.370275    568.52284   0.03551492  0.035356658            2 
 1335000    1.0349248   -6.3735764    569.25784  0.035534197  0.035350954            4 
 1336000    1.0324237   -6.4358226    567.67354  0.035408779  0.035345011            6 
 1337000    1.0274575   -6.3588974    569.83549  0.035517046  0.035339121           14 
 1338000    1.0499738   -6.3899999    569.54126  0.035472176  0.035333317            5 
 1339000    1.0262867   -6.4146557    568.48595  0.035380007  0.035327282            6 
 1340000    1.0280583   -6.3771334    570.92429  0.035505242   0.03532139            2 
 1341000    1.0220689    -6.415881    570.43364  0.035448275   0.03531545            8 
 1342000    1.0206804   -6.4034501    570.06248  0.035398813   0.03530924            4 
 1343000    1.0534739   -6.3882224    569.26647  0.035323062  0.035303157            4 
 1344000    1.0206768   -6.4074492    571.22779   0.03541839  0.035296906            5 
 1345000    1.0593778   -6.4215848    569.92639  0.035311424  0.035290634            7 
 1346000    1.0147354   -6.3896072    570.68362  0.035332072  0.035284491            3 
 1347000    1.0474239    -6.380059    570.82828  0.035314791  0.035278406            3 
 1348000     1.048414    -6.361865    572.15481  0.035370599  0.035272237            5 
 1349000    1.0399615    -6.408271    571.08378  0.035278217  0.035266135            5 
 1350000    1.0277836   -6.3953956    573.11564  0.035377509  0.035259881           10 
 1351000    1.0541544   -6.3792219    573.71138  0.035388069  0.035253731            4 
 1352000     1.019998   -6.4241146    573.68837  0.035360476  0.035247432            7 
 1353000     1.024211   -6.4036232    573.35077  0.035313548  0.035241249            6 
 1354000    1.0427516   -6.4135604    572.96462  0.035263701  0.035234888            4 
 1355000    1.0348995   -6.3738961    574.20136  0.035313737  0.035228533            3 
 1356000     1.040576   -6.3876759    573.69251  0.035256423  0.035222096            3 
 1357000    1.0329779   -6.3999092    572.01323  0.035127317  0.035215722            4 
 1358000    1.0233189   -6.3943703    572.15063  0.035109881   0.03520928            6 
 1359000    1.0249714    -6.412444    575.26479  0.035275005  0.035202823            5 
 1360000    1.0343926   -6.3782224    573.84723  0.035162208  0.035196214            4 
 1361000    1.0399324   -6.3814929    573.69411  0.035126997  0.035189658            5 
 1362000    1.0431548   -6.3531172    575.10024  0.035187239  0.035183112            2 
 1363000    1.0321031    -6.385607    574.11492  0.035101181   0.03517659            9 
 1364000    1.0300336   -6.4333751    573.40942  0.035032345  0.035170074            4 
 1365000      1.03569   -6.4104764    574.89976  0.035097665  0.035163286            8 
 1366000    1.0546904   -6.3718649    575.45545  0.035105872  0.035156519            4 
 1367000      1.03493   -6.4097322    575.62102  0.035090284  0.035149774            4 
 1368000    1.0286948   -6.4071998    574.99068  0.035026236  0.035142997            4 
 1369000    1.0458238   -6.3993467     576.9108  0.035117531   0.03513612            6 
 1370000     1.055268   -6.3866727    576.76583   0.03508308  0.035129508            6 
 1371000    1.0242195   -6.4198056    576.73488  0.035055609   0.03512296            1 
 1372000    1.0300978   -6.4099817    577.91324   0.03510163  0.035116214            7 
 1373000     1.013444   -6.4014064    576.78006  0.035007287  0.035109419            6 
 1374000    1.0310295   -6.4067398    577.88521  0.035048836   0.03510279            4 
 1375000    1.0493757   -6.4137772    577.44422   0.03499662  0.035095994            4 
 1376000    1.0396726   -6.4528947     576.5158  0.034914959  0.035089328            5 
 1377000    1.0084859    -6.392821    579.39937  0.035064111  0.035082491            5 
 1378000    1.0263477   -6.4330415    577.71307  0.034936688  0.035075697            5 
 1379000    1.0209072   -6.3876071    580.28532  0.035066795  0.035068947            3 
 1380000    1.0404442   -6.3939345    577.93317  0.034899346  0.035062232            4 
 1381000    1.0440705   -6.4028194    580.47673   0.03502756  0.035055326            7 
 1382000    1.0351173   -6.4042512    581.36664  0.035055876  0.035048643            5 
 1383000     1.022997   -6.3796054    579.29371  0.034905622  0.035042038            5 
 1384000     1.035845     -6.41123    580.98123  0.034982011  0.035035135            2 
 1385000    1.0149557   -6.3783381    580.31836  0.034916869  0.035028238            7 
 1386000    1.0316358   -6.3974951    581.88317  0.034985761  0.035021428            3 
 1387000    1.0426293   -6.4282761    580.15639  0.034856789  0.035014493            5 
 1388000    1.0521312   -6.3908603    583.06977   0.03500659   0.03500765            6 
 1389000     1.017607   -6.4174626    581.88821    0.0349105  0.035000874            5 
 1390000    1.0364379   -6.4091396    583.50502  0.034982315   0.03499415            3 
 1391000    1.0280594   -6.3968508    583.27802  0.034943567  0.034987436            4 
 1392000    1.0374873   -6.4104305    581.42544  0.034807557  0.034980538            3 
 1393000    1.0212616    -6.402855    583.61824  0.034913749  0.034973673            8 
 1394000    1.0582564   -6.3863145    584.32531  0.034930972  0.034966852            3 
 1395000    1.0623713   -6.4083763     582.9584  0.034824277  0.034959944            3 
 1396000     1.015894   -6.4046628    583.13891  0.034810107  0.034953111            7 
 1397000    1.0408247   -6.4284157    584.02432  0.034838005  0.034946134            5 
 1398000    1.0243351   -6.3905242    583.47115  0.034780111  0.034939275            3 
 1399000    1.0275229   -6.3754648    584.40471   0.03481086  0.034932527            5 
 1400000    1.0391352   -6.4282538    584.87534  0.034814008  0.034925681            8 
 1401000    1.0096377   -6.3839079    583.50925  0.034707902  0.034918793            5 
 1402000     1.045028   -6.4603132    584.65838  0.034751449  0.034911798            3 
 1403000    1.0106285   -6.4025369    586.25692  0.034821627  0.034904801           10 
 1404000    1.0136151   -6.4138922    584.12734  0.034670426   0.03489782            3 
 1405000    1.0267328   -6.4197208    585.86571  0.034748856  0.034890839            4 
 1406000    1.0329043   -6.3741896    585.84919  0.034723162  0.034883812            4 
 1407000    1.0194796   -6.4294205     587.7447   0.03481075  0.034876972            5 
 1408000   0.99609539   -6.3994089    587.78624  0.034788485  0.034870196            5 
 1409000   0.99708325   -6.4258798    587.08305  0.034722205  0.034863367            4 
 1410000    1.0336996    -6.426014    587.61633  0.034729098  0.034856509            4 
 1411000     1.033739   -6.3624439     591.0489  0.034907211  0.034849659            6 
 1412000    1.0365072   -6.4293125    590.59198  0.034855523  0.034842912            2 
 1413000    1.0468775   -6.4228718    589.22725  0.034750369  0.034835932            3 
 1414000    1.0313415   -6.4229743    588.19681  0.034665064  0.034828923            3 
 1415000    1.0400022   -6.3961075    587.75599  0.034614605  0.034821895           11 
 1416000    1.0057926   -6.3997357    589.99623     0.034722  0.034814831            6 
 1417000    1.0080414   -6.4127229    588.71124  0.034621927  0.034807791            4 
 1418000    1.0430609   -6.4249112    589.49485  0.034643562  0.034800687            5 
 1419000    1.0305997   -6.4087809    590.22568  0.034662067  0.034793647            4 
 1420000     1.023019   -6.4249163     588.2878  0.034523932  0.034786498            7 
 1421000    1.0053972   -6.4165435    590.77415  0.034645447  0.034779416            3 
 1422000    1.0404244   -6.4146511    591.89612  0.034686833  0.034772267            7 
 1423000    1.0055709   -6.4014165    591.41522  0.034634295  0.034765166            5 
 1424000    1.0310043   -6.4520319    592.48906  0.034672815  0.034757954            5 
 1425000    1.0411493   -6.4420904    590.40217  0.034526443  0.034750792            5 
 1426000    1.0373404   -6.4277956    592.47896  0.034623595  0.034743701            5 
 1427000    1.0577747   -6.4323632    592.82025  0.034619262  0.034736659            8 
 1428000    1.0407346   -6.3972164    594.19902   0.03467548  0.034729833            5 
 1429000     1.015714   -6.4252898    593.28636  0.034597991  0.034722839            4 
 1430000    1.0229791   -6.4195591    594.58164   0.03464928  0.034715836            4 
 1431000    1.0377362   -6.4374651    592.98483  0.034532077  0.034708938            3 
 1432000     1.034425   -6.3970673    594.47404  0.034594625  0.034701879            3 
 1433000    1.0257228   -6.4287548    592.59553  0.034461243  0.034694847            5 
 1434000    1.0102935   -6.4087285    595.99124  0.034634545  0.034687726            3 
 1435000    1.0148362   -6.4082265    594.37738  0.034516689  0.034680645            7 
 1436000    1.0597013   -6.4078729    595.63525  0.034565648  0.034673594            5 
 1437000    1.0317272   -6.4327377    596.58682  0.034596777  0.034666539            3 
 1438000    1.0301489   -6.3988377    597.11051  0.034603066  0.034659775            5 
 1439000    1.0484569   -6.4197451    596.69166  0.034554764  0.034652919            5 
 1440000    1.0089981   -6.4412443    596.74982  0.034534133  0.034646072            7 
 1441000     1.007555   -6.4075171    596.54983  0.034498602  0.034639056            3 
 1442000    1.0177958   -6.4169878    597.07317  0.034504922  0.034631976            5 
 1443000    1.0131576   -6.4548372    595.90045  0.034413286  0.034625008            4 
 1444000    1.0191149   -6.4174172    597.87461  0.034503383  0.034618039            3 
 1445000    1.0420504   -6.4229705    597.29138   0.03444587  0.034611062            9 
 1446000    1.0127986   -6.4554587    597.61364   0.03444062   0.03460405            4 
 1447000    1.0222318   -6.4450814    596.98465  0.034380595  0.034596931            6 
 1448000    1.0263223   -6.4108922    598.86628   0.03446514  0.034589809            5 
 1449000    1.0248216   -6.4315751    599.17761   0.03445926  0.034582626           10 
 1450000     1.022778   -6.4206832    599.73609  0.034467591  0.034575179            5 
 1451000    1.0178351   -6.4607531    597.78987  0.034332062  0.034567829            5 
 1452000    1.0073791   -6.4177304    599.18486  0.034388479   0.03456047            4 
 1453000    1.0188799   -6.4015774    599.87011  0.034404112  0.034553308            5 
 1454000    1.0243194   -6.4360683     600.1905  0.034398814  0.034546139            7 
 1455000    1.0157995   -6.4403427    599.57701  0.034340035  0.034538861            4 
 1456000   0.99705922     -6.44051    600.71899   0.03438181  0.034531577            3 
 1457000    1.0133451   -6.4295013    601.08172  0.034378959  0.034524351            4 
 1458000    1.0097827   -6.4236214    600.84383  0.034341782  0.034517161            3 
 1459000    1.0055474   -6.4284154    601.17073  0.034336916   0.03450984            5 
 1460000    1.0358213   -6.4295325    599.64639  0.034226392  0.034502562            5 
 1461000    1.0094434   -6.4888969    599.90108  0.034217492  0.034494967            4 
 1462000    1.0379831   -6.4659268     600.8784  0.034249795  0.034487311            6 
 1463000    1.0137292   -6.4415612    600.45059  0.034202016   0.03447972            2 
 1464000    1.0118015   -6.4492077    601.34186  0.034229387   0.03447225            7 
 1465000    1.0093632   -6.4573146    600.24906   0.03414386  0.034464731            7 
 1466000    1.0200616   -6.4353788    602.40474  0.034243107  0.034457252            8 
 1467000    1.0137176   -6.4623455    603.18157  0.034263893  0.034449832            5 
 1468000     1.037783   -6.4398855    602.49342  0.034201488  0.034442582            7 
 1469000    1.0300581   -6.4307097    603.11215  0.034213305  0.034435161            4 
 1470000    1.0208188   -6.4127181     603.9852  0.034239524  0.034427899            4 
 1471000    1.0249949   -6.4203884     605.3551  0.034293853  0.034420831            6 
 1472000    1.0225761   -6.4489951    604.33777  0.034212962  0.034413713            7 
 1473000   0.99238364   -6.4536365    603.90691   0.03416536  0.034406501            3 
 1474000    1.0161514   -6.4132768     604.8631   0.03419624  0.034399245           11 
 1475000    1.0062227   -6.4298906    606.67431  0.034275385  0.034392071            3 
 1476000   0.99622158   -6.4104769        606.1  0.034219738  0.034384966            6 
 1477000    1.0163513   -6.4302717    606.27518  0.034206453  0.034377781            5 
 1478000   0.99895304   -6.4659826    605.36739  0.034132126  0.034370562            6 
 1479000    1.0310416   -6.4314727    606.96578  0.034199109  0.034363501            7 
 1480000    1.0259956    -6.405253    609.09813  0.034296066  0.034356472            2 
 1481000   0.99096039   -6.4499007    608.61797  0.034245891  0.034349354            4 
 1482000    1.0360518   -6.4219035    608.74906  0.034230154  0.034342239           11 
 1483000    1.0179352   -6.4651398    607.48254  0.034135904   0.03433509            6 
 1484000    0.9946465   -6.4447366    608.81854  0.034187923  0.034327788            5 
 1485000     1.028332   -6.4320041     609.0485  0.034177806   0.03432043            5 
 1486000   0.99726702    -6.415474     609.0605  0.034155479  0.034313226            3 
 1487000    1.0196085   -6.4842399    609.72272  0.034169621   0.03430589            7 
 1488000    1.0270351   -6.4145965    610.79588  0.034206758  0.034298506            2 
 1489000    1.0052588   -6.4590994    609.29837  0.034099976  0.034291146            9 
 1490000    1.0126559   -6.4620234    609.17976  0.034070456  0.034283741            3 
 1491000    1.0311371   -6.4746492    609.34027  0.034056577   0.03427632            2 
 1492000    1.0191964   -6.4110035    609.69868  0.034053769  0.034268982            9 
 1493000    1.0145817   -6.4328404     611.2374  0.034116845  0.034261612            2 
 1494000   0.99931278    -6.431584    609.98077  0.034023916  0.034254263            5 
 1495000    1.0061477   -6.4416261     609.9805  0.034001143  0.034246791            5 
 1496000    1.0182078   -6.4752742     610.8084  0.034024532  0.034239319            5 
 1497000     0.999077    -6.431911     611.1821  0.034022606  0.034231827            4 
 1498000    1.0135181   -6.4493066    610.89349  0.033983839  0.034224318            7 
 1499000     1.024252   -6.4572066    611.13047  0.033974342  0.034216824            6 
 1500000    1.0247936   -6.3947737    612.97309  0.034054061  0.034209355            4 
 1501000   0.99863331   -6.4866215    610.92954  0.033917918  0.034201853            6 
 1502000   0.99930832   -6.4319947    612.10535  0.033960572  0.034194194            4 
 1503000    1.0030887   -6.4416416    612.24257  0.033945585  0.034186607            3 
 1504000    1.0046357   -6.4684963     612.7318  0.033950122  0.034179018            5 
 1505000    1.0077778   -6.4381255    611.70463  0.033870688  0.034171461            4 
 1506000    1.0162199   -6.4589519     614.3298   0.03399346  0.034163864            8 
 1507000    1.0123746   -6.4726569     612.1449  0.033850083  0.034156286            3 
 1508000   0.98741283   -6.4508446    613.02339  0.033876182  0.034148733            9 
 1509000    1.0225291   -6.4528795    614.89826  0.033957271  0.034141161            7 
 1510000    1.0218168   -6.4276236    614.04611  0.033887754  0.034133811            3 
 1511000   0.98821437   -6.4442084    613.92769  0.033858796  0.034126419            2 
 1512000    1.0010313   -6.4248813    614.47611  0.033866628  0.034118874            3 
 1513000    1.0177137   -6.4345872    613.56835  0.033794247  0.034111246            4 
 1514000   0.99393837   -6.4525201    615.01256  0.033851418  0.034103689            7 
 1515000   0.97621882   -6.3994847    616.06261  0.033886832   0.03409616            3 
 1516000    1.0020314   -6.4292088    614.64325  0.033786458  0.034088448            3 
 1517000    1.0069862   -6.4749343    614.93762  0.033780357  0.034080594            5 
 1518000    1.0230981   -6.4189797    614.54648  0.033736632  0.034072792            5 
 1519000    1.0057262   -6.4392464    616.42371  0.033817408  0.034065097            2 
 1520000   0.98242082   -6.4635368    617.88845  0.033875463  0.034057445            3 
 1521000   0.99340423   -6.4381904    615.79069  0.033738258  0.034049742            3 
 1522000   0.97245991   -6.4771272    614.38334  0.033639035   0.03404191            7 
 1523000    1.0262459   -6.4258769    617.84932  0.033806594  0.034034172            6 
 1524000    1.0258274   -6.4673009    618.58437  0.033824604  0.034026485            4 
 1525000     1.005694   -6.4361211    618.47536  0.033796468  0.034018725            6 
 1526000   0.99939382   -6.4185469    618.61117  0.033781737  0.034011005            9 
 1527000   0.98172517   -6.4546787    616.83306  0.033662577  0.034003353            4 
 1528000     1.003327   -6.4683896    617.18473  0.033659726  0.033995537            5 
 1529000   0.99029915   -6.4649265    618.80857  0.033726214  0.033987695            8 
 1530000    1.0038424   -6.4360967    619.12714  0.033721522  0.033979815            4 
 1531000   0.99450221   -6.4708126    618.10445   0.03364383  0.033971856            6 
 1532000     1.013424   -6.4538674     617.1034  0.033567417  0.033963836            7 
 1533000   0.97919282   -6.4853118    619.83094  0.033693789  0.033955812            4 
 1534000    1.0182518   -6.4554914    618.91449  0.033622039  0.033947906            4 
 1535000     1.014613   -6.4588792    618.69678  0.033588316  0.033940138           12 
 1536000    1.0075787   -6.4742811    619.11623  0.033589205  0.033932274           14 
 1537000    1.0274301   -6.4147053     619.4848  0.033587334  0.033924453            3 
 1538000    1.0074104   -6.4451366    618.85554  0.033531401  0.033916566            4 
 1539000    1.0149938    -6.414271    619.97106  0.033570016  0.033908659            7 
 1540000    1.0244136   -6.4491127    619.50292  0.033522885  0.033900653            9 
 1541000    1.0049113   -6.4717275    619.82306  0.033518444  0.033892642            7 
 1542000    1.0158237   -6.4266048    619.70212  0.033490171  0.033884518            5 
 1543000    1.0181712   -6.4369199    622.12833    0.0335995  0.033876539            8 
 1544000   0.98848718   -6.4382189    618.41026  0.033377065   0.03386836            7 
 1545000    1.0223879   -6.4505474    621.19028  0.033505409   0.03386031            5 
 1546000    1.0047129   -6.4469271    621.54531  0.033502873  0.033852404            6 
 1547000    0.9948681   -6.4681594    621.66418   0.03348762  0.033844341            3 
 1548000   0.99887677   -6.4144674     623.4726   0.03356334  0.033836278            8 
 1549000    1.0041453   -6.4579273     620.0296  0.033356445  0.033828186            6 
 1550000    1.0057351    -6.476801    621.21602  0.033398711  0.033820081            3 
 1551000    1.0115637   -6.4427982    621.34863  0.033384302  0.033811876           11 
 1552000    1.0131273   -6.4590161    622.52365  0.033425883  0.033803762            6 
 1553000    1.0013893   -6.5096378     621.8194   0.03336657  0.033795626            5 
 1554000   0.99090912   -6.4665855    622.32897  0.033372424  0.033787385           13 
 1555000   0.98190587   -6.4417989    625.96009  0.033545557   0.03377925            9 
 1556000   0.99287818   -6.4628934    623.47825   0.03339108  0.033771176           11 
 1557000   0.99726886   -6.4661017    623.84344   0.03338918  0.033763028            8 
 1558000    0.9924677   -6.4799416    626.58985  0.033514648  0.033754974            8 
 1559000   0.99993239    -6.443229    622.93478  0.033297775  0.033747002            5 
 1560000   0.99726788   -6.4689104    624.90921  0.033381902  0.033738858            7 
 1561000    1.0098591   -6.4854998    624.62218  0.033345195  0.033730759            6 
 1562000   0.97012815   -6.4463463    626.61768  0.033430308  0.033722675            6 
 1563000   0.99544715   -6.4734528    625.30836  0.033339111  0.033714648           11 
 1564000    1.0055043   -6.4603781    627.21532  0.033419401  0.033706709            6 
 1565000    1.0113736   -6.4889462    627.86103   0.03343243  0.033698886            4 
 1566000    1.0044392   -6.4648772    627.23527  0.033377781  0.033690941            5 
 1567000   0.99137769   -6.4745577    627.99556  0.033396914  0.033683045            3 
 1568000    1.0027974   -6.4777569    627.53864  0.033351331  0.033675191            7 
 1569000    1.0005618   -6.4732012    626.89543  0.033295912  0.033667351            5 
 1570000   0.99685345    -6.479688    628.09922    0.0333386  0.033659415            4 
 1571000    1.0050614   -6.4789228    627.47876  0.033284466   0.03365154            3 
 1572000   0.99684803   -6.4620397    628.22685   0.03330295  0.033643596           12 
 1573000    1.0056132   -6.4578899    629.04379  0.033325058  0.033635582            5 
 1574000   0.99934116   -6.4608861    628.23601  0.033261119  0.033627512            6 
 1575000    1.0072572   -6.4636106    629.20284  0.033291156  0.033619426            9 
 1576000    1.0057793   -6.4706647    629.29579  0.033274947  0.033611356            6 
 1577000   0.99257825    -6.492527    629.27407  0.033252699  0.033603217            4 
 1578000   0.99397768   -6.4895312    627.69745  0.033148365   0.03359499            7 
 1579000    1.0075922   -6.5025501    628.07537  0.033147317  0.033586754            5 
 1580000   0.99866009   -6.4581367    632.74002  0.033372364  0.033578605            6 
 1581000   0.99565586   -6.4724762    629.18337  0.033163787  0.033570502            6 
 1582000   0.99293111   -6.4459531     631.2432  0.033251328   0.03356249            5 
 1583000   0.99436202   -6.4558313    630.46401  0.033189303  0.033554461            4 
 1584000   0.99480617   -6.4667913     632.6699  0.033284401  0.033546307            3 
 1585000    1.0020235   -6.4579971    632.00214  0.033228293  0.033538358            7 
 1586000   0.99966378   -6.4928187    630.96417  0.033152804  0.033530298            5 
 1587000   0.99415193   -6.4598453    631.74696  0.033173018  0.033522241            6 
 1588000    0.9891058   -6.4444695    633.64004  0.033251471  0.033514274            7 
 1589000    1.0033603   -6.4820961    633.05336  0.033199778  0.033506313            4 
 1590000   0.99303578   -6.4362718    632.77129  0.033164114  0.033498319            7 
 1591000   0.98663465   -6.4629654    631.32766  0.033067655  0.033490208            6 
 1592000   0.99310166   -6.4445489     631.3155  0.033046247  0.033482018            5 
 1593000    1.0106013   -6.4280198    631.79998  0.033050847   0.03347379            5 
 1594000    1.0230675    -6.462248    633.83057   0.03313627  0.033465668            7 
 1595000     1.006826   -6.5078416    630.86043  0.032960315  0.033457409            8 
 1596000   0.99704738   -6.4900661    633.73824  0.033089925  0.033449076            6 
 1597000   0.98859575   -6.4614586      634.856  0.033127531  0.033440736            6 
 1598000   0.99421866   -6.5124055    634.02907  0.033063677  0.033432437            5 
 1599000    1.0018079   -6.4645351    634.41194  0.033062953  0.033424026            8 
 1600000   0.98178039   -6.5152835     634.6004  0.033052104  0.033415651            5 
 1601000    1.0277659   -6.4580218    634.24564  0.033012994  0.033407428           11 
 1602000   0.99969519   -6.4791368    633.64592   0.03296119    0.0333991            7 
 1603000   0.97524425   -6.4600039    635.34991  0.033029211  0.033390873            4 
 1604000   0.98118813   -6.4736361    634.35905  0.032957141  0.033382582            4 
 1605000   0.99037966   -6.4810902    637.11125  0.033079504  0.033374365            9 
 1606000   0.98418735   -6.4691854    634.88686  0.032943486  0.033366199            4 
 1607000    0.9804532   -6.4658774    636.52433    0.0330079  0.033358057            7 
 1608000    1.0173321   -6.4821149     637.4323  0.033034427  0.033349966            5 
 1609000   0.98583386    -6.473652    636.00363  0.032939902   0.03334173            6 
 1610000    0.9921895   -6.4799266    638.13586  0.033029807  0.033333587            6 
 1611000    1.0087509   -6.4387801    637.87828   0.03299598   0.03332549            4 
 1612000    1.0084591   -6.4919988    637.22869   0.03294193  0.033317409            7 
 1613000   0.98755396   -6.4893638    636.63796  0.032890988  0.033309291            3 
 1614000   0.99992519   -6.5059612    638.27026  0.032954887  0.033301259            2 
 1615000   0.99115812   -6.4631781    639.79904  0.033013366  0.033293507            4 
 1616000   0.97720836   -6.4642537    639.69845   0.03298775    0.0332856            5 
 1617000    1.0034791   -6.4826143    640.96066  0.033032399  0.033277675            3 
 1618000    1.0028388   -6.4698118    641.92644  0.033061724  0.033269837            6 
 1619000   0.99789333   -6.4617857    638.77841  0.032879268  0.033261859            6 
 1620000    0.9789081   -6.4510462    640.04352  0.032924049  0.033253778            8 
 1621000   0.98928838   -6.5069496    640.29388  0.032916609  0.033245761            6 
 1622000    1.0082151   -6.4633466    642.52133  0.033010755  0.033237863            8 
 1623000   0.97358965   -6.4683455    640.28441   0.03287556  0.033229956            4 
 1624000   0.99997597   -6.4944671    642.08835  0.032947883  0.033222154           10 
 1625000   0.98107014   -6.4623829    642.38678  0.032942912  0.033214253            5 
 1626000   0.97600243   -6.4914377    642.39588  0.032923118  0.033206223            8 
 1627000    1.0023466   -6.4725683    642.44038  0.032905162  0.033198341            5 
 1628000   0.99030225   -6.4634709    644.50305  0.032990533  0.033190459            9 
 1629000   0.99635529   -6.4941428     641.6645  0.032825072  0.033182561           11 
 1630000   0.99516753   -6.4745847    645.14563  0.032982905  0.033174816            5 
 1631000   0.97533212   -6.4698349    644.80051  0.032945049  0.033167105           14 
 1632000   0.97174559   -6.4758167    644.89142  0.032929505  0.033159505            7 
 1633000   0.95287949   -6.4919687    644.77262  0.032903277   0.03315188            5 
 1634000   0.97107585   -6.4621652    646.20009  0.032955941  0.033144222           16 
 1635000   0.99476414   -6.4735397    646.32874  0.032942341  0.033136468            7 
 1636000   0.99543198   -6.4710752    644.75203  0.032841892  0.033128791            4 
 1637000   0.98925088   -6.5045841     647.1663  0.032944731  0.033121139            5 
 1638000   0.99080199   -6.4927666    645.97981  0.032864256  0.033113469            9 
 1639000   0.97234263   -6.4848228    646.84321  0.032888103    0.0331057            7 
 1640000   0.97999596   -6.5113105    645.26014  0.032787609  0.033097984            6 
 1641000   0.99409087   -6.4999205    648.75569   0.03294514  0.033090345            4 
 1642000   0.98732376   -6.5009504    647.24663  0.032848489   0.03308267           10 
 1643000    1.0080882    -6.443327    648.75752  0.032905129  0.033075028            4 
 1644000   0.97438641   -6.4825888    647.66585  0.032829778  0.033067473            4 
 1645000    1.0012331   -6.4704373    649.60305  0.032907956  0.033059938            2 
 1646000   0.97756523   -6.5209159    648.99047   0.03285695  0.033052314            9 
 1647000    1.0006255   -6.4868519    647.88752  0.032781194  0.033044591            3 
 1648000   0.98617946    -6.511106    649.40797  0.032838186   0.03303695            5 
 1649000   0.97730987   -6.4528174    650.27516  0.032862096  0.033029337           10 
 1650000   0.97360952   -6.5070102    649.43161  0.032799576  0.033021808            7 
 1651000    1.0022717   -6.5110185    648.48733  0.032732048   0.03301428            6 
 1652000   0.98166552   -6.4894774    648.96504  0.032736332  0.033006758            3 
 1653000    1.0120866   -6.4776736    649.39063  0.032737983   0.03299914            5 
 1654000   0.99257549   -6.4830132    650.95581  0.032797048  0.032991659            4 
 1655000   0.99280141   -6.4946033    652.17454  0.032838597  0.032984138            4 
 1656000   0.99074199   -6.4976282    651.28576  0.032774042  0.032976665            4 
 1657000   0.98664479   -6.4928753    651.61986  0.032771065  0.032969249            6 
 1658000   0.98630394   -6.5157768    652.51083  0.032796081  0.032961889            7 
 1659000   0.97191029   -6.4823563     650.8993  0.032695364   0.03295433            4 
 1660000   0.99522863   -6.5066092     652.0101  0.032731431  0.032946777            5 
 1661000   0.98879808   -6.4872325    651.66019   0.03269417  0.032939202            5 
 1662000   0.97921159   -6.5249958    651.61635    0.0326723  0.032931622            4 
 1663000   0.98005176   -6.5226668    652.60134  0.032702012  0.032924062            2 
 1664000   0.98130158   -6.5075627    654.17143  0.032760989  0.032916457           12 
 1665000   0.98631859    -6.521164    653.02226  0.032683797  0.032908867            5 
 1666000   0.99437939   -6.5166045    653.14935  0.032670536  0.032901311            5 
 1667000   0.97913737   -6.4917865    652.79618  0.032633282  0.032893659            5 
 1668000   0.97833567    -6.525842    652.10878  0.032579375   0.03288585            7 
 1669000   0.99273548   -6.5132961    653.40218  0.032624435  0.032878019            4 
 1670000   0.99716459   -6.4927265    653.54379  0.032611966  0.032870286            5 
 1671000     1.001869   -6.4776339    654.92385  0.032661273  0.032862618            3 
 1672000   0.98630181   -6.4754517    653.36299  0.032563945  0.032854897            4 
 1673000   0.99867295    -6.500045     652.2997  0.032491517  0.032847238            7 
 1674000   0.99031994   -6.4874593    656.07824  0.032660207  0.032839552            6 
 1675000   0.98566748   -6.4699931     655.7863  0.032626184  0.032831804            3 
 1676000   0.99294311    -6.519085    654.63397  0.032549422  0.032824016            6 
 1677000   0.96628149   -6.4960714    655.42713  0.032569426  0.032816307            7 
 1678000     0.976615   -6.5117858    655.44511  0.032550909  0.032808641            9 
 1679000   0.95617311    -6.514408    655.61138  0.032539775  0.032800965            6 
 1680000   0.97487033   -6.5404987    654.27417  0.032454076  0.032793213            6 
 1681000   0.96636545   -6.4822605    656.56478  0.032548324  0.032785492            7 
 1682000   0.99525089   -6.4788867    656.98586  0.032549834  0.032777776            5 
 1683000   0.96799997   -6.4553785    657.08065  0.032535188  0.032769966            6 
 1684000   0.98036338   -6.4873793    657.32524  0.032527971   0.03276224            4 
 1685000   0.97577412   -6.4735317    657.36776  0.032510769  0.032754522           11 
 1686000    0.9908568   -6.5139701    659.34214  0.032589074  0.032746807            6 
 1687000   0.97725724    -6.487019    658.96653  0.032551202  0.032739108            8 
 1688000   0.98440256   -6.4900211    659.50608  0.032558555  0.032731481            4 
 1689000   0.99042128   -6.4827555    659.16401    0.0325224  0.032723916            5 
 1690000   0.98218839   -6.4921171    659.68026  0.032528612  0.032716311            7 
 1691000   0.96896909   -6.5157271    661.78969   0.03261333  0.032708747            8 
 1692000   0.99454204   -6.4843434    661.76111  0.032592647  0.032701282            4 
 1693000   0.96588681   -6.5271341    658.65901  0.032420704  0.032693755           11 
 1694000   0.99396107   -6.4829679       661.67  0.032549685  0.032686238            4 
 1695000     1.001484   -6.5055533    660.93865  0.032494526  0.032678837            6 
 1696000   0.96163234   -6.5007874      661.189  0.032487667  0.032671375            8 
 1697000   0.98009366   -6.4907652    660.85791  0.032452264  0.032663902            9 
 1698000   0.98483419   -6.5071866     662.4278  0.032510198  0.032656392            9 
 1699000   0.98438773    -6.499723    660.99233  0.032420656  0.032648857            6 
 1700000    0.9802422    -6.540139    663.07604  0.032503727   0.03264129            5 
 1701000   0.97272246   -6.5145993    661.86647  0.032425361  0.032633771            8 
 1702000   0.96673224   -6.4987838      662.401  0.032432482  0.032626135            4 
 1703000   0.95693489   -6.4875292    662.10435  0.032398921  0.032618609            6 
 1704000   0.99631872    -6.514456    663.02625  0.032424993  0.032611207           12 
 1705000   0.98218829   -6.4953516    662.55372   0.03238288  0.032603647            6 
 1706000   0.99326685     -6.49511    661.86163  0.032330091  0.032595973            7 
 1707000   0.98319625   -6.4956838    662.04858  0.032320278  0.032588338            9 
 1708000   0.97059778   -6.5287154    661.97783  0.032297904  0.032580568           15 
 1709000   0.97924819   -6.4949887    663.96522  0.032375913  0.032573003            7 
 1710000   0.96405067   -6.5118819    662.74191  0.032297364  0.032565382            5 
 1711000   0.97084412   -6.5289334    664.50779  0.032364494   0.03255775            5 
 1712000   0.96270416   -6.4890429    663.16586   0.03228027  0.032550069            6 
 1713000   0.95769753   -6.4792196    666.42384  0.032419918  0.032542563            7 
 1714000   0.99046089   -6.4929768    666.30368  0.032395161  0.032535125            8 
 1715000   0.99822145   -6.5112328    666.10697  0.032366714  0.032527623            5 
 1716000   0.98988366   -6.5405105    665.63217  0.032324795  0.032520069            4 
 1717000    0.9705092   -6.4972252    664.91215  0.032271023  0.032512471            3 
 1718000   0.97811299   -6.5032678    667.24798   0.03236554   0.03250499            4 
 1719000   0.96315711   -6.5054192    667.06905  0.032338038  0.032497427            6 
 1720000   0.97841464   -6.4872941    667.08738  0.032320125  0.032489884            5 
 1721000   0.98426262   -6.5259559    666.94262  0.032294335  0.032482211            5 
 1722000   0.98539761   -6.5183101     667.1517    0.0322857   0.03247466            4 
 1723000   0.96821029   -6.5070847    665.30218  0.032177509  0.032467147            6 
 1724000   0.97938501   -6.4732426    669.55251  0.032364294  0.032459632            4 
 1725000   0.97060174   -6.5088011    667.79445  0.032260602  0.032451974            8 
 1726000   0.96246447    -6.533635    669.52845   0.03232563  0.032444483            5 
 1727000   0.96107832   -6.5096175    667.48685  0.032208399  0.032437044            2 
 1728000    0.9857687   -6.5026967    668.54922  0.032240992  0.032429563            6 
 1729000    0.9685425   -6.4989667    669.98182  0.032291393  0.032422152            4 
 1730000   0.95400703   -6.5331988    669.64286    0.0322564  0.032414683            8 
 1731000   0.98992872   -6.5326207    668.28055  0.032172181  0.032407131            6 
 1732000   0.96968665   -6.5353862    669.67506  0.032220702  0.032399558            7 
 1733000   0.96754124     -6.49063    669.71429  0.032203995  0.032392115            7 
 1734000   0.98253258   -6.5314626    669.16625  0.032159085  0.032384756            9 
 1735000   0.97372649   -6.5008363    671.61135   0.03225799  0.032377282            4 
 1736000   0.98631156   -6.5131256    672.09182  0.032262472  0.032369904            2 
 1737000   0.97001371    -6.512078    672.61943  0.032269211  0.032362505            9 
 1738000   0.97647527   -6.5302783    672.27556  0.032234156  0.032355143            3 
 1739000   0.98135624   -6.5155409    672.60591  0.032231451  0.032347836            9 
 1740000   0.95134965   -6.5179699    670.52143  0.032113095  0.032340393            4 
 1741000   0.95570739   -6.5343671    671.17887  0.032126118  0.032333017           11 
 1742000   0.96164575   -6.5518079    672.10137  0.032151807   0.03232562            7 
 1743000   0.96358973   -6.5273708    674.13766  0.032230716  0.032318146            6 
 1744000    0.9704213   -6.5182727     673.2634  0.032170461  0.032310629            4 
 1745000    0.9604576   -6.5051546    672.38154  0.032109911  0.032303161            7 
 1746000   0.97574471   -6.5378474    672.83933   0.03211337  0.032295701            3 
 1747000   0.96617703   -6.5392554    674.32756  0.032165978  0.032288173            9 
 1748000   0.98670014   -6.5058728     674.1144  0.032137414  0.032280708            9 
 1749000   0.95249714   -6.5338256    672.49555  0.032041907  0.032273204            6 
 1750000   0.96003138   -6.5294578    673.81216  0.032086293  0.032265775           11 
 1751000   0.97332206   -6.5248149    674.18784  0.032085848  0.032258377            4 
 1752000   0.97348649   -6.5061839    676.84761  0.032194045   0.03225108            3 
 1753000   0.96449504   -6.5174279    675.93288  0.032132196  0.032243748            8 
 1754000   0.97231855    -6.532384    674.23379  0.032033153  0.032236309            3 
 1755000   0.96565704   -6.5276007     677.0966  0.032150836   0.03222894            4 
 1756000   0.97073483   -6.4686973    677.04579  0.032130115  0.032221608            5 
 1757000   0.96853907    -6.482523    678.42129  0.032177067  0.032214415           17 
 1758000   0.95921377    -6.504648    675.95977  0.032042082  0.032207042            3 
 1759000   0.95626102   -6.5046047    674.93483  0.031975309  0.032199667            5 
 1760000   0.94818765   -6.5080718    677.64286  0.032085363  0.032192322            5 
 1761000   0.96369257   -6.4878038    676.83122  0.032028735  0.032184864            5 
 1762000   0.96325162   -6.5518142     675.3891  0.031942352  0.032177412            4 
 1763000   0.96834257   -6.4893884    677.93102  0.032044386  0.032169996            5 
 1764000   0.95412157   -6.4995881    679.65132  0.032107489  0.032162654            3 
 1765000   0.96641608   -6.5048721    678.30844  0.032025894  0.032155433            5 
 1766000   0.98002021   -6.5121362    679.15491  0.032047702  0.032148049            4 
 1767000   0.96187068    -6.525204    679.23879  0.032033521  0.032140845            6 
 1768000   0.96511138   -6.5036486    680.14167   0.03205796  0.032133597            6 
 1769000   0.96007062   -6.4893553    681.57285  0.032107257  0.032126426            7 
 1770000   0.97558739   -6.4814467    680.59268   0.03204297  0.032119248            8 
 1771000   0.97697557   -6.5058506    682.31321  0.032105835  0.032112169            4 
 1772000     0.972231   -6.5311042    680.60658  0.032007458  0.032105064            8 
 1773000   0.98333509   -6.4843474     683.4357  0.032122377  0.032097891            3 
 1774000   0.96903309   -6.5145003    682.77316  0.032073148  0.032090757            7 
 1775000   0.98049482    -6.544782    681.20242  0.031981334  0.032083655           10 
 1776000   0.96725677    -6.521342    683.77759  0.032084159  0.032076571            4 
 1777000   0.96080365   -6.5103568    683.55881  0.032055844  0.032069598           10 
 1778000   0.99484085   -6.5293028    682.73683  0.031999289  0.032062639            9 
 1779000   0.96407567   -6.5311603    685.12173  0.032093017  0.032055668           12 
 1780000   0.97396736   -6.5207628    687.36642  0.032180076  0.032048835            6 
 1781000   0.99081355   -6.5142302     686.1676  0.032105914  0.032041935            8 
 1782000   0.95398353   -6.5174841    685.70324  0.032066182  0.032034932            7 
 1783000   0.98036884   -6.5442184    684.56464  0.031994982  0.032027826            5 
 1784000    0.9724052   -6.5273025    685.88334  0.032038646  0.032020762            4 
 1785000   0.98186461   -6.5344672    685.63294  0.032009008  0.032013631           14 
 1786000   0.97768956   -6.5317238    685.63722  0.031991285  0.032006487            7 
 1787000   0.96582106   -6.5245368    683.67102  0.031881693  0.031999412           14 
 1788000   0.97705337   -6.5127705    684.81107  0.031916996  0.031992332            5 
 1789000   0.96436525   -6.5325015    685.27199  0.031920626  0.031985227            6 
 1790000   0.98535905   -6.5484186    684.12758  0.031849515  0.031978051            5 
 1791000   0.97375734   -6.5396119    687.14808  0.031972273   0.03197091            5 
 1792000   0.94977157   -6.5367891    685.14665  0.031861358  0.031963707            4 
 1793000   0.95729844   -6.5246319    686.12842  0.031889218   0.03195649            5 
 1794000   0.96334738   -6.5273282     687.7772  0.031948031  0.031949227            5 
 1795000   0.95274267   -6.5242007    687.16521  0.031901821  0.031942041            4 
 1796000   0.99402672   -6.5466762    689.57244  0.031995752  0.031934918            4 
 1797000   0.97880517   -6.5244001    685.58045  0.031792824  0.031927712            6 
 1798000    0.9711009   -6.5526944    686.62741  0.031823666  0.031920484            8 
 1799000   0.96752258   -6.5412881    687.09665  0.031827712  0.031913254           10 
 1800000   0.97384382   -6.5638915    684.93947   0.03171016  0.031906047            5 
 1801000   0.96594539   -6.5556295    687.10189   0.03179261  0.031898799            5 
 1802000   0.93865445   -6.5486458    687.51042   0.03179386  0.031891494            6 
 1803000   0.94029938   -6.5130488    688.22735  0.031809362  0.031884159            3 
 1804000   0.96332096   -6.5438398     687.3519  0.031751289  0.031876824           14 
 1805000   0.94603175   -6.5480691    689.38964  0.031827776  0.031869514            4 
 1806000   0.96837699   -6.5312028    687.07215  0.031703219  0.031862239            5 
 1807000   0.96235078   -6.5516178    688.65185  0.031758525  0.031854876            4 
 1808000   0.96835381   -6.5211038    689.59092  0.031784242   0.03184748            6 
 1809000   0.96634815   -6.5402043    685.35984  0.031571763  0.031840033           10 
 1810000   0.97245203   -6.5081166    687.39501  0.031648021  0.031832555            3 
 1811000   0.95587375   -6.5246743    689.20851  0.031713993  0.031825004            3 
 1812000   0.95664486   -6.5079993    687.98541  0.031640242  0.031817393            5 
 1813000   0.93654113    -6.516865    689.01051  0.031669908  0.031809852            6 
 1814000   0.96026703   -6.5374296    687.23456  0.031570864  0.031802189            8 
 1815000    0.9494879   -6.5548227     686.4295  0.031516506  0.031794495            6 
 1816000   0.95590015   -6.5296343    690.51891  0.031686807  0.031786857           17 
 1817000   0.94641897   -6.5473695    688.70835   0.03158633  0.031779349            9 
 1818000   0.94691845   -6.5457811    688.95581  0.031580299  0.031771746           14 
 1819000   0.96299337   -6.5200859    687.54158  0.031498148  0.031764132            6 
 1820000   0.94541101   -6.5309795     690.2689  0.031605719  0.031756607            6 
 1821000    0.9540986   -6.5111267    689.64705  0.031559905  0.031748928            6 
 1822000   0.95917096   -6.4969765    690.85302  0.031597741  0.031741305            6 
 1823000   0.95454015   -6.5323477    688.35795  0.031466354  0.031733646           18 
 1824000   0.96648065   -6.5313833    689.92647  0.031520763  0.031726038            4 
 1825000   0.96189093   -6.5258283    691.75753  0.031587102  0.031718456            8 
 1826000    0.9623619   -6.5322363    691.00843  0.031535617  0.031710895            6 
 1827000   0.97780344   -6.5642267    690.35943  0.031488753  0.031703372            6 
 1828000   0.94589461   -6.5193002    693.75743  0.031626433  0.031695841            5 
 1829000   0.96100927    -6.533311    691.73308  0.031516907   0.03168829           15 
 1830000   0.96033508   -6.5270688    692.34443  0.031527524  0.031680728            5 
 1831000   0.96676431   -6.5265114    692.83479  0.031532623  0.031673259            4 
 1832000   0.96008444   -6.5504231    691.88738  0.031472315  0.031665833            7 
 1833000   0.95927822   -6.5379792    692.39805  0.031478362  0.031658396           10 
 1834000   0.94885674   -6.5369297    694.27628  0.031546541  0.031650969            6 
 1835000    0.9375597   -6.5603395    693.45949  0.031492256  0.031643471            5 
 1836000   0.93988214   -6.5297259    695.55405  0.031570173   0.03163609            7 
 1837000   0.96829951   -6.5270972    693.25479  0.031448684  0.031628676           10 
 1838000   0.95865895   -6.5351938    694.83603  0.031503266   0.03162132            3 
 1839000    0.9622892   -6.5336456    693.24841  0.031414193   0.03161396            4 
 1840000   0.96863718   -6.5465544    694.90392  0.031472098  0.031606593           10 
 1841000   0.93144301   -6.5349458    696.51163  0.031527776  0.031599206            6 
 1842000   0.94941881   -6.5268963    697.90999  0.031573923  0.031591873            5 
 1843000    0.9645959   -6.5520792    693.58154  0.031361075  0.031584548            5 
 1844000   0.96000906   -6.5304829    694.96544  0.031406609  0.031577137            4 
 1845000   0.95039018   -6.5495914    697.11237  0.031486557  0.031569724           11 
 1846000   0.94674375   -6.5083148     697.1695  0.031472079  0.031562405            5 
 1847000   0.94296462    -6.538623    696.17659  0.031410241  0.031555067            8 
 1848000   0.96101529   -6.5424736     698.9213  0.031517014  0.031547768            5 
 1849000   0.96861305   -6.5554485    695.82894  0.031360597  0.031540394           13 
 1850000   0.95299511   -6.5394167    695.45711  0.031326897  0.031532942            5 
 1851000   0.94216108   -6.5713336    696.59652   0.03136127  0.031525465            3 
 1852000   0.95648396   -6.5764088    697.18971  0.031371027  0.031518107            6 
 1853000   0.95370655   -6.5189944    697.54833  0.031370225  0.031510809            7 
 1854000   0.96197837   -6.5198185    700.66907  0.031493575  0.031503487            5 
 1855000   0.97307163   -6.5346084    699.74302  0.031434997  0.031496191            5 
 1856000   0.97204744   -6.5570945    698.91585   0.03138092  0.031488924            7 
 1857000   0.93143891    -6.554015    699.39128  0.031385356  0.031481517            5 
 1858000   0.97089373   -6.5467539    699.94178  0.031393155  0.031474213            3 
 1859000   0.94224355   -6.5591749    699.84263  0.031371823  0.031466895            5 
 1860000   0.94642979   -6.5399098    700.08943  0.031366014  0.031459468            6 
 1861000   0.96357146   -6.5545969    698.03923  0.031257354  0.031452022            7 
 1862000   0.94227945   -6.5630136      701.122  0.031378536  0.031444505            5 
 1863000    0.9732399   -6.5581061    699.68395  0.031297368  0.031436998            6 
 1864000   0.95608408   -6.5021171    699.70562  0.031281546  0.031429502            9 
 1865000   0.96007884   -6.5749783    701.48826  0.031344426   0.03142208            6 
 1866000   0.93981594   -6.5440883    700.09422  0.031265373  0.031414504            8 
 1867000   0.95813861   -6.5776665    700.72231  0.031276661  0.031406995            7 
 1868000   0.95932289   -6.5661815    699.67523  0.031213206  0.031399438           14 
 1869000    0.9327487   -6.5492533    700.81867  0.031247489  0.031391949            8 
 1870000   0.95874263   -6.5663563    699.96483  0.031192729  0.031384485            6 
 1871000   0.94907526   -6.5490521    702.91325  0.031307378  0.031376997           10 
 1872000   0.95064078   -6.5695032    700.82741  0.031197801  0.031369584            6 
 1873000   0.95451511   -6.5828934    701.57961  0.031214612  0.031362203            8 
 1874000   0.94768918   -6.5739849    702.78344  0.031251487  0.031354762            2 
 1875000    0.9480191   -6.5204999    704.42993  0.031307997  0.031347333           11 
 1876000    0.9529786   -6.5653185    701.24014  0.031149615  0.031339906            7 
 1877000   0.96085579   -6.5398017    701.58074  0.031148142  0.031332391            3 
 1878000   0.93995162     -6.56584    702.83656  0.031187281  0.031324848           10 
 1879000   0.96007691     -6.56701    702.73991  0.031166396  0.031317379            6 
 1880000   0.96007633   -6.5662821    703.61673  0.031188685  0.031310105            9 
 1881000   0.93131767   -6.5077469    704.66552  0.031218568  0.031302808            6 
 1882000   0.94393173    -6.567181    703.68875   0.03115873  0.031295396            3 
 1883000   0.93305351   -6.5692587    704.27103  0.031167951    0.0312879            7 
 1884000   0.93611403   -6.5826933    702.70477  0.031082129  0.031280462            7 
 1885000   0.94194548   -6.5435097    702.41123  0.031052663  0.031272954            6 
 1886000   0.96484263   -6.5704795    702.55477   0.03104254  0.031265422            5 
 1887000   0.94542061    -6.554654    704.27272  0.031101957   0.03125794            8 
 1888000   0.95487782   -6.5925349    703.99984  0.031073439  0.031250416            3 
 1889000   0.95126966   -6.5541865    703.84962  0.031050363  0.031242846            8 
 1890000   0.95126418   -6.5940893    704.70603  0.031071694   0.03123513           14 
 1891000   0.94694715   -6.5516885    705.89002   0.03110744  0.031227625            7 
 1892000   0.97082177   -6.5329368    704.84137   0.03104481  0.031220016           11 
 1893000   0.92863881   -6.5471136    705.37126  0.031051737  0.031212534            5 
 1894000   0.93721374    -6.551698     705.9346  0.031060129  0.031205013            4 
 1895000   0.94663808   -6.5445778    706.57242  0.031071786  0.031197547            7 
 1896000   0.96667907   -6.5612781    705.68133  0.031016233  0.031190001            5 
 1897000   0.95819143   -6.5718473    704.58451    0.0309517  0.031182438            5 
 1898000   0.94987853   -6.5563179    707.32051  0.031055519  0.031174975            6 
 1899000     0.950739   -6.5621861    706.78605  0.031015712  0.031167534            8 
 1900000   0.95910565   -6.5204078     705.6542  0.030949746   0.03116006            7 
 1901000   0.93463712   -6.5725315    706.68054  0.030978456  0.031152539            4 
 1902000   0.94222751   -6.5607052    707.45453   0.03099608  0.031145077            3 
 1903000   0.98305326   -6.5335255    708.37961  0.031020302  0.031137555            5 
 1904000   0.94749081   -6.5713723    706.65567  0.030928557  0.031130115            7 
 1905000     0.932352   -6.5095924    708.19965  0.030979862  0.031122586            5 
 1906000   0.92894671     -6.54074    707.99606  0.030954707  0.031115125            3 
 1907000   0.93803434   -6.5826423    708.87279  0.030976787  0.031107543            5 
 1908000   0.95878186   -6.5673651    707.95695  0.030920552  0.031099954           11 
 1909000   0.96071391   -6.5537416     708.2883  0.030918819  0.031092296            6 
 1910000      0.94859   -6.5478446     707.6551  0.030875004  0.031084801            6 
 1911000   0.93780856   -6.5838832     708.6695  0.030903083  0.031077223            3 
 1912000    0.9379623   -6.5855458    709.14924  0.030907829  0.031069651            6 
 1913000   0.93475466   -6.5703867    708.45928  0.030861617  0.031062111            7 
 1914000   0.94416062   -6.6186261    707.43612  0.030800946  0.031054512           12 
 1915000   0.94454031   -6.5747954    710.04945  0.030898583   0.03104689            4 
 1916000   0.94754228   -6.5667104    710.46491  0.030900527  0.031039386           11 
 1917000   0.94291526   -6.5620133    708.82475  0.030813109  0.031031811            7 
 1918000   0.94870415   -6.5792642    708.60765  0.030787611   0.03102434            7 
 1919000   0.94506172   -6.5683175     711.3557  0.030890903  0.031016839            3 
 1920000   0.95980204   -6.5628742    711.69282  0.030889445   0.03100949            4 
 1921000    0.9380401   -6.5659611    711.83654    0.0308796   0.03100203            9 
 1922000   0.94036259   -6.5480362    711.35376  0.030842602  0.030994589            6 
 1923000   0.95616025   -6.5678631    711.49525  0.030832694  0.030987122            9 
 1924000   0.94458194   -6.5429252    711.51043  0.030817326  0.030979637            6 
 1925000   0.94395019   -6.5644918    712.60191  0.030848568  0.030972199            4 
 1926000   0.94287834   -6.5467387    715.56714  0.030960849  0.030964803            6 
 1927000   0.95681923   -6.5864294    712.98389  0.030833069  0.030957402            2 
 1928000   0.93625676   -6.5372071    714.55103  0.030884813    0.0309499            9 
 1929000   0.94184452   -6.5498882    713.19768  0.030810337  0.030942486            4 
 1930000   0.94187924   -6.6094507    711.60302  0.030725519  0.030935035            5 
 1931000   0.92589071   -6.5798831    713.42618  0.030788287  0.030927409            8 
 1932000   0.93037687   -6.5756803    712.08291  0.030714411  0.030919838            8 
 1933000   0.95332671   -6.5548648    712.41222  0.030712718  0.030912229            4 
 1934000    0.9711745   -6.5764679    714.58851  0.030790611  0.030904693            4 
 1935000   0.93784878    -6.594305    715.45197  0.030811885  0.030897146            4 
 1936000   0.96655431   -6.5935157    712.32306  0.030661289  0.030889595            5 
 1937000   0.93341549   -6.5546853    713.39526  0.030691587  0.030882039            7 
 1938000   0.93813113   -6.5791419    714.06962  0.030704748  0.030874537            8 
 1939000   0.94113253   -6.5828554     714.0491  0.030688031  0.030866963            7 
 1940000   0.94083875   -6.5811804    714.06485  0.030672889  0.030859387            7 
 1941000   0.95446241   -6.6082155    711.74085  0.030557309  0.030851747            5 
 1942000   0.93058184   -6.5612612    715.87677  0.030719051  0.030844261            6 
 1943000    0.9470283   -6.5827476    714.92878  0.030662583  0.030836854            5 
 1944000   0.93656638   -6.5569498    716.51145  0.030714654  0.030829389            7 
 1945000   0.91935754   -6.6028444    717.04129  0.030721563  0.030821949            3 
 1946000   0.96374748   -6.5680871     717.0859  0.030707687  0.030814559           10 
 1947000   0.91821124    -6.554442    715.25494  0.030613548   0.03080713            4 
 1948000    0.9370902   -6.5667327    716.13492  0.030635477  0.030799673            7 
 1949000   0.94528286   -6.6004328    715.73989  0.030602869  0.030792231            7 
 1950000   0.93777799   -6.6134769    716.74951  0.030630321  0.030784669            6 
 1951000   0.93536135   -6.5536107     718.4383  0.030686755   0.03077719            5 
 1952000   0.96700866   -6.5547236    717.42884  0.030627939  0.030769723            6 
 1953000   0.93673516    -6.570799    717.46173   0.03061366  0.030762227            5 
 1954000   0.93172564   -6.5989917    717.70436   0.03060834  0.030754721           10 
 1955000   0.94203097   -6.5446202    718.23546  0.030615322  0.030747216            7 
 1956000   0.94942667   -6.5757852    717.82031  0.030581983  0.030739708           12 
 1957000   0.93430366   -6.5676782    719.59858  0.030642079  0.030732299            4 
 1958000   0.92893094   -6.5886758    717.73753  0.030547222  0.030724842            5 
 1959000   0.96131518   -6.5906351    716.47371  0.030477868  0.030717327            6 
 1960000    0.9498976   -6.5744398    717.08145  0.030488157  0.030709861            6 
 1961000   0.95646487   -6.5897415    721.81043  0.030673569  0.030702439            6 
 1962000   0.93124338   -6.5413097    720.18797  0.030589024  0.030695048            8 
 1963000   0.95487762     -6.57974    719.20201  0.030531585  0.030687655            5 
 1964000   0.95381264   -6.5995071    719.21969  0.030516789  0.030680203            9 
 1965000   0.92236617   -6.5801927    719.87648  0.030529113  0.030672764            2 
 1966000   0.93429283    -6.583744    721.52433  0.030583432  0.030665309            5 
 1967000   0.94044006   -6.6165476    719.62243  0.030487309  0.030657843            6 
 1968000   0.94290158   -6.6074337    721.59775   0.03055546  0.030650303            4 
 1969000   0.91030545   -6.5728217    720.23942  0.030482454  0.030642776            3 
 1970000   0.93866305   -6.5946461    720.75123  0.030488631  0.030635282            5 
 1971000   0.94468493   -6.5943259    721.44713  0.030502584  0.030627826           13 
 1972000   0.92650424   -6.5749389    722.00671  0.030510764  0.030620336            9 
 1973000   0.93952113   -6.5844712    721.47796  0.030472967  0.030612918            7 
 1974000   0.93981099   -6.5871647    722.97532  0.030520741  0.030605479           17 
 1975000   0.93193238   -6.5613785    722.99271  0.030506022  0.030598157            7 
 1976000   0.94752283   -6.5727632     722.4966  0.030469661  0.030590815            7 
 1977000   0.94806066   -6.5529431    723.35515  0.030490438  0.030583392            7 
 1978000    0.9186622   -6.6170685    724.48314  0.030522546  0.030576021            5 
 1979000   0.97462213   -6.5799848    724.07173  0.030489798  0.030568611            4 
 1980000   0.94149174   -6.6033462    724.15325   0.03047783  0.030561142            8 
 1981000   0.93213336   -6.5846297    723.00968   0.03041434  0.030553661           17 
 1982000   0.93844676   -6.5560816    725.02143  0.030483579  0.030546177           10 
 1983000   0.94480062   -6.5967018     724.0459  0.030427211  0.030538733            6 
 1984000   0.92018751   -6.5603747    724.89785  0.030447658  0.030531209            7 
 1985000   0.94384094   -6.5928066    723.25099  0.030363182   0.03052375           13 
 1986000   0.92398112   -6.5905116    723.33481   0.03035141  0.030516238            4 
 1987000    0.9487066   -6.5721331    723.47804  0.030342142  0.030508683            9 
 1988000   0.93046133   -6.5597999    723.65995  0.030334505  0.030501191            4 
 1989000   0.91578715   -6.5726896    723.25393  0.030302243  0.030493647            3 
 1990000   0.93888891   -6.5937248    725.73271  0.030390817  0.030486219            6 
 1991000   0.92333378   -6.5771737    723.47403  0.030281016  0.030478706            5 
 1992000   0.92451609   -6.5946416    724.35995  0.030302876  0.030471141            5 
 1993000   0.93320423   -6.5828535    724.47941  0.030292666   0.03046358            3 
 1994000   0.93709549   -6.6384215    722.86316  0.030209928  0.030456015            6 
 1995000   0.93763302   -6.6183342    723.94591  0.030240013   0.03044841            5 
 1996000   0.93075657   -6.5934532    725.85951  0.030304756  0.030440878            3 
 1997000   0.95403462   -6.6220505    724.22679  0.030221449  0.030433328            6 
 1998000   0.92609793   -6.5764906    725.35718  0.030253469  0.030425766            7 
 1999000    0.9500162   -6.6021323    725.48692  0.030243744   0.03041824           10 
 2000000   0.93774553   -6.6049713    724.20671   0.03017528  0.030410639            3 
 2001000   0.92731464   -6.6260972    724.35536   0.03016639  0.030403028           12 
 2002000   0.92047037   -6.6143395    724.59066  0.030161116  0.030395356            6 
 2003000    0.9545251   -6.6023496    726.31155  0.030217655  0.030387685           10 
 2004000   0.94274523   -6.5955232    726.58492  0.030213944  0.030380075            5 
 2005000   0.93078158   -6.5807059     724.3309  0.030105191  0.030372385            6 
 2006000    0.9404277   -6.5854193    725.69455  0.030146833    0.0303647            5 
 2007000   0.94192255   -6.6190988    725.14171  0.030108857   0.03035701            5 
 2008000   0.93199557   -6.5878118    727.60564  0.030196117  0.030349435            4 
 2009000   0.92073659     -6.57537    727.24617  0.030166176  0.030341797            7 
 2010000   0.92382183   -6.5929605    727.11483  0.030145723  0.030334129            5 
 2011000   0.92681969   -6.6052064    727.71818  0.030155734  0.030326527            8 
 2012000   0.92946885   -6.5789509     727.6687  0.030138697  0.030318819           13 
 2013000   0.92019027   -6.6184809    726.05942  0.030057105  0.030311142            7 
 2014000   0.93394294   -6.6002154    727.57276  0.030104798  0.030303469           12 
 2015000   0.92652696   -6.5786681    728.77303  0.030139497  0.030295766           17 
 2016000    0.9349727   -6.5973915     726.1746  0.030017138  0.030288095            8 
 2017000   0.93046358   -6.5953891    726.72905  0.030025163  0.030280394            7 
 2018000   0.92601924   -6.6229144    727.58261  0.030045532  0.030272681            6 
 2019000   0.92456006   -6.5787323    728.16817   0.03005482  0.030264905            5 
 2020000   0.91166203   -6.5893769    730.25783  0.030126148  0.030257266            3 
 2021000   0.93414036   -6.6192302    729.64683  0.030086048   0.03024966            6 
 2022000   0.90578173   -6.5918614    730.21869  0.030094736  0.030242063            6 
 2023000   0.94325224   -6.5859487    730.06462  0.030073514  0.030234387           17 
 2024000   0.92101205   -6.5836263    731.39694   0.03011351  0.030226794           16 
 2025000   0.93728882   -6.6120268    728.61896  0.029984319  0.030219165           13 
 2026000   0.92512252    -6.611959    730.13057  0.030031695  0.030211535            5 
 2027000   0.91596998   -6.5923689    730.46797   0.03003075  0.030203866            4 
 2028000   0.92804663   -6.5951064     729.8637  0.029991112  0.030196221            4 
 2029000    0.9181715   -6.6216432    731.25997  0.030033677  0.030188632            4 
 2030000    0.9500682   -6.6113076     729.9561  0.029965357  0.030180981            6 
 2031000   0.90224364   -6.5643914    731.15054  0.029999612  0.030173353           12 
 2032000    0.9308967   -6.5855998    731.77166  0.030010321   0.03016576            8 
 2033000   0.93092622   -6.5881374    732.27362  0.030016135  0.030158118            8 
 2034000   0.93682817    -6.558181     731.4314  0.029966872  0.030150609            5 
 2035000   0.92605066    -6.564661    732.28728  0.029987194  0.030143064            4 
 2036000   0.92883924   -6.6170966    731.65971  0.029946779  0.030135468            3 
 2037000   0.92324972   -6.5907935    733.16276  0.029993567  0.030127887           15 
 2038000   0.91959546   -6.5947457    731.16266  0.029897067   0.03012034            6 
 2039000   0.94037673   -6.5802355      733.565  0.029980587  0.030112907            4 
 2040000    0.9316757   -6.6125769    732.49332  0.029922113  0.030105383           10 
 2041000   0.92440605   -6.6323827     732.3625  0.029902111  0.030097742           10 
 2042000   0.91425158   -6.6174335       732.44   0.02989063  0.030090049            6 
 2043000   0.91549148   -6.6296664    733.19839  0.029906934  0.030082451           11 
 2044000   0.96384771   -6.6085649    732.14224  0.029849243  0.030074703            5 
 2045000    0.9479747   -6.6103892    734.09099  0.029914058  0.030067022            7 
 2046000   0.93441704   -6.6110892    733.29228  0.029866906   0.03005927           11 
 2047000    0.9267003   -6.5955926    734.63601  0.029907019  0.030051533            3 
 2048000   0.93815413   -6.5932606    733.57341  0.029849178  0.030043889           12 
 2049000    0.9162754   -6.5885431    733.18573  0.029818844  0.030036233            8 
 2050000   0.93470669   -6.6335505    732.62317   0.02978143  0.030028492           17 
 2051000   0.92515088   -6.6422812    734.16241  0.029829449  0.030020744           13 
 2052000   0.91023934   -6.6055384    733.94621  0.029806133  0.030013044            6 
 2053000   0.94150232   -6.5853057    735.29881  0.029846518  0.030005444            7 
 2054000   0.92171725   -6.5955542    735.93019  0.029857603  0.029997809            5 
 2055000   0.92357729   -6.6235264    733.97789  0.029763905  0.029990079            4 
 2056000   0.94183354   -6.6105046    735.36323  0.029805578  0.029982384            6 
 2057000   0.91534123   -6.5972591    736.81064  0.029849726  0.029974734            6 
 2058000   0.91751494   -6.6138194    733.25919  0.029691415  0.029967131           17 
 2059000   0.91044239   -6.6176454    734.91119  0.029743856  0.029959507            8 
 2060000   0.90786036   -6.6075333    735.74308   0.02976307  0.029951853           12 
 2061000   0.89080209   -6.5889975     736.2447  0.029768911  0.029944155            7 
 2062000   0.92352005   -6.6163785    735.21577  0.029712891  0.029936403           17 
 2063000   0.93786844   -6.5941933    733.87029  0.029644138  0.029928707            6 
 2064000   0.93146397    -6.604675    735.41977  0.029692335   0.02992094           14 
 2065000   0.92796835   -6.6243185     735.5882  0.029684754  0.029913227            7 
 2066000   0.93559086   -6.6230195    734.67684  0.029633626  0.029905466            8 
 2067000   0.90833628   -6.6022344    735.62343  0.029657451   0.02989772           11 
 2068000   0.91967489   -6.6341355    735.51803  0.029638863  0.029889961           10 
 2069000   0.91859184    -6.625234    735.32241  0.029616659   0.02988212            9 
 2070000   0.92045953   -6.6355192    735.97014  0.029628428  0.029874196            9 
 2071000   0.92695059   -6.6158266    734.54387  0.029556731  0.029866335            6 
 2072000   0.92937407   -6.6408402    736.86376  0.029635769  0.029858357            9 
 2073000    0.9133252   -6.6051673    734.93215  0.029543823  0.029850348            8 
 2074000   0.91973548   -6.6045521    736.29359  0.029584281  0.029842368            4 
 2075000   0.90562953   -6.5856827    736.28524  0.029569688  0.029834383            4 
 2076000   0.92951973   -6.5847856    737.81453  0.029616832  0.029826407            8 
 2077000   0.89249409   -6.6408589    735.52259  0.029510616  0.029818408            7 
 2078000   0.90117958   -6.5974133    735.10326  0.029479598  0.029810369            9 
 2079000   0.92004012   -6.6432785    735.65412  0.029487499  0.029802314            5 
 2080000   0.91489846   -6.6193821    734.28424  0.029418439  0.029794363            6 
 2081000   0.90593256   -6.6196333    735.72896  0.029462156  0.029786419            9 
 2082000   0.92126693   -6.5881245    738.72001  0.029567724  0.029778478            4 
 2083000   0.94292359   -6.6304866    735.77829  0.029435841  0.029770511            6 
 2084000   0.91618331   -6.6369149    737.23066  0.029479793  0.029762585            4 
 2085000   0.92281861   -6.6510005    736.72434  0.029445417  0.029754585           11 
 2086000   0.93105981   -6.6029335    738.66141  0.029508685  0.029746645            4 
 2087000   0.91676428   -6.6145451     738.5732  0.029491024  0.029738833            7 
 2088000   0.91822737   -6.6356976    737.99205  0.029453706  0.029730887           10 
 2089000   0.91925973   -6.6291546    737.27156  0.029410865  0.029722944            7 
 2090000    0.9081513   -6.5967471    740.18266  0.029512865  0.029715121            3 
 2091000   0.91785845   -6.6362317    739.39434  0.029467334  0.029707291            9 
 2092000    0.8979761   -6.6116661     740.2049  0.029485536  0.029699379            9 
 2093000   0.93726866   -6.6462869     737.5293  0.029364919  0.029691489            5 
 2094000   0.89465634   -6.6122355    741.07206  0.029491884  0.029683546            5 
 2095000   0.91446911   -6.6438099    740.58184  0.029458307  0.029675716            5 
 2096000   0.91495256   -6.6297914    739.89294  0.029416863   0.02966785            5 
 2097000   0.91436857   -6.6326612    739.64294    0.0293929  0.029660007           16 
 2098000   0.89991184   -6.6084648    739.44058  0.029370852  0.029652202           16 
 2099000   0.91799122   -6.6239374    737.79486  0.029291522   0.02964434            7 
 2100000   0.93484179   -6.5834169     741.7348  0.029433921  0.029636432            6 
 2101000   0.93567858   -6.6506745    740.19374  0.029358787  0.029628532            9 
 2102000    0.9132968    -6.643204    740.64797  0.029362828  0.029620622           12 
 2103000   0.89528408   -6.5916923      740.174  0.029330084  0.029612739            6 
 2104000   0.94090039   -6.6236944    741.97428  0.029387448   0.02960484            7 
 2105000    0.9142522   -6.6529344    739.73932  0.029285009   0.02959699           13 
 2106000   0.90711778   -6.6090922    740.89119  0.029316682  0.029589133           10 
 2107000   0.92269464   -6.5876896    742.45155  0.029364481  0.029581173           10 
 2108000   0.92343156   -6.6261737    740.32739  0.029266579  0.029573282            5 
 2109000   0.93358668   -6.6605442    741.10369  0.029283376  0.029565251           10 
 2110000   0.90056932   -6.6271433     740.4447  0.029243471  0.029557314            8 
 2111000   0.89309332   -6.6051718    741.85238  0.029285188  0.029549354            3 
 2112000   0.89963675   -6.6408298    741.73723  0.029266778  0.029541433            8 
 2113000   0.89228038    -6.629894    740.31974  0.029197024  0.029533489           13 
 2114000   0.92245897   -6.6259634    742.39148   0.02926488   0.02952554            8 
 2115000    0.9244321   -6.6253295    741.25902  0.029206423  0.029517577            5 
 2116000   0.90404527   -6.6437097    742.07993   0.02922495  0.029509608           19 
 2117000   0.89642869   -6.6238934    742.96574  0.029246014  0.029501675            7 
 2118000   0.92216798   -6.6409776    740.95909  0.029153254  0.029493647            7 
 2119000   0.90854717   -6.6572839    743.02152  0.029220604  0.029485644            9 
 2120000   0.90263774   -6.6357204     742.9272  0.029203113  0.029477685            9 
 2121000   0.91380246   -6.6454228    743.22325  0.029200976  0.029469698            8 
 2122000   0.93340258   -6.6233887    743.21979  0.029187079  0.029461778            9 
 2123000   0.90368204   -6.6389288    742.20161  0.029133365  0.029453789            8 
 2124000   0.91355203   -6.6325995    747.66985   0.02933419   0.02944591            8 
 2125000   0.90656402   -6.6290076    742.35892  0.029112115  0.029437989            5 
 2126000   0.89412599   -6.6218306    743.14271  0.029129144  0.029429971            4 
 2127000   0.91547578    -6.605522    744.50992  0.029169014  0.029422031            5 
 2128000   0.91016414   -6.6289237    744.24128  0.029144787  0.029414042            6 
 2129000   0.91443129   -6.6594291     745.7014  0.029188249  0.029406138           10 
 2130000   0.91917894   -6.6119717    743.81079  0.029100579  0.029398194            6 
 2131000   0.90409271   -6.6427549     743.3298  0.029068113  0.029390302            7 
 2132000   0.91493848   -6.6375374    744.34088  0.029093999  0.029382296           11 
 2133000   0.88974983   -6.6425129    742.73251  0.029017523  0.029374253            6 
 2134000   0.90680955   -6.6089622    746.53005   0.02915222  0.029366245            6 
 2135000   0.89851458   -6.6733575    743.18124  0.029007855  0.029358238           10 
 2136000   0.90091642   -6.6379765    744.61071  0.029050043  0.029350223            5 
 2137000   0.91933947    -6.629456    744.70356   0.02904007  0.029342184            7 
 2138000    0.9022399   -6.6424005    744.07241  0.029001887  0.029334186            6 
 2139000   0.89872899   -6.6169416    745.36063  0.029038516  0.029326113            4 
 2140000   0.91779402   -6.6366818    745.25862  0.029020974  0.029318065            5 
 2141000   0.91946669   -6.6448748    744.90271  0.028993566  0.029310049            8 
 2142000   0.90188961   -6.6405964    744.30897  0.028956932  0.029302039            5 
 2143000   0.90808666   -6.6585266    745.18061  0.028977314  0.029294058            5 
 2144000   0.91563407    -6.649804    745.10009  0.028960669  0.029286051            5 
 2145000   0.89180713   -6.6703537    744.59425  0.028927516  0.029277997            6 
 2146000   0.91050703   -6.6198495    745.96774  0.028967371  0.029269961           11 
 2147000   0.90192486   -6.6183349     744.4324  0.028894287   0.02926194            9 
 2148000   0.86948663   -6.6011115    746.04513  0.028943402  0.029253873            6 
 2149000    0.8987585   -6.6397363    745.42858  0.028906025  0.029245792            6 
 2150000   0.91211092   -6.6583835    744.69374  0.028864098  0.029237643            4 
 2151000   0.89851397   -6.6654375    745.45126  0.028880027  0.029229538           12 
 2152000   0.91210343   -6.6547893    747.68558  0.028953128  0.029221446           13 
 2153000   0.92306995   -6.6410227    746.67754  0.028900663  0.029213362            8 
 2154000   0.90730669   -6.6163065    746.97751  0.028898852  0.029205309            7 
 2155000   0.89120452   -6.6147013    748.04147  0.028926584  0.029197304            3 
 2156000   0.88768113   -6.5925417    749.72857  0.028978377  0.029189327            5 
 2157000   0.91082781   -6.6369891    747.81826   0.02889114   0.02918136            9 
 2158000    0.9120086   -6.6754001    746.66784  0.028833327  0.029173327            5 
 2159000   0.91376837    -6.683317    746.84653  0.028826869  0.029165253            6 
 2160000   0.89420615   -6.6267129    746.06029   0.02878319  0.029157134            7 
 2161000    0.9051729   -6.6394908    749.56025  0.028904838  0.029149099            6 
 2162000    0.9227127   -6.6271733    749.87621  0.028903647  0.029141104            5 
 2163000   0.89478952   -6.6205292    752.45363  0.028989583   0.02913317            6 
 2164000   0.89953756   -6.6276972    748.86997  0.028838184  0.029125284           10 
 2165000   0.90001406   -6.6353249     750.9702  0.028905704  0.029117361           10 
 2166000    0.9355922   -6.6474736    750.90685  0.028889922  0.029109474            6 
 2167000   0.91759569   -6.6350427    750.50104  0.028860984  0.029101664           10 
 2168000   0.90776009    -6.633081    750.82804  0.028860241  0.029093757            6 
 2169000   0.89430119   -6.6434114    750.30945  0.028827011  0.029085822            8 
 2170000   0.91216983    -6.632874    749.83019  0.028795322  0.029077868            8 
 2171000   0.90123666   -6.6639975     750.9298  0.028824267  0.029069976           14 
 2172000   0.89417381   -6.6586989    750.11498  0.028779734  0.029062056            8 
 2173000   0.91705782   -6.6682204    750.25117  0.028771712  0.029054076            2 
 2174000   0.91005252    -6.662794    752.27737  0.028836146  0.029046087            6 
 2175000   0.90501057   -6.6523107    751.67442  0.028799786  0.029038215            4 
 2176000   0.89850763   -6.6566397    752.33915  0.028812008  0.029030342            6 
 2177000   0.92050044   -6.6922856    752.45709  0.028803288  0.029022422            4 
 2178000   0.90716767   -6.6559318    751.82849  0.028766012  0.029014547            6 
 2179000   0.91675519   -6.6241932    753.04535  0.028799348  0.029006718            5 
 2180000    0.9123415   -6.6678323    752.09169  0.028749683  0.028998833            6 
 2181000   0.88142665   -6.6866696     750.4247  0.028672807  0.028990894           13 
 2182000   0.91593077   -6.6452371    752.45049  0.028737034  0.028982942           10 
 2183000   0.89377439   -6.6382961    752.74237  0.028735012  0.028975057           11 
 2184000   0.90128934   -6.6411174    750.25312  0.028626874   0.02896712            6 
 2185000    0.9191835    -6.665595     751.4912  0.028660992  0.028959224            7 
 2186000   0.90548245   -6.6536629    753.38662  0.028720137  0.028951345           15 
 2187000   0.90512029   -6.6781567    753.11971  0.028696834  0.028943453           13 
 2188000   0.90113918   -6.6276005     751.3297  0.028615543   0.02893551           19 
 2189000   0.89397039   -6.6602103    752.10841  0.028632116  0.028927661            5 
 2190000   0.90537771   -6.6263818    754.00851  0.028691344  0.028919792            7 
 2191000   0.90464356   -6.6669996    753.33077  0.028652471  0.028911804            9 
 2192000   0.88563254   -6.6294209    753.31394   0.02863876  0.028903865            7 
 2193000   0.90387471    -6.669634    753.92156   0.02864879   0.02889587           16 
 2194000   0.89245644   -6.7021751    752.38646  0.028577426  0.028887875           12 
 2195000   0.89739813    -6.661947    753.39582  0.028602727  0.028879858           10 
 2196000   0.90030849   -6.6479269    755.28151  0.028661259   0.02887194            7 
 2197000   0.90120663   -6.6471792    754.46503  0.028617244  0.028864036            6 
 2198000   0.89159556   -6.6647361    752.59497  0.028533324  0.028856056            7 
 2199000   0.89696353   -6.6489017    753.08901  0.028539071  0.028848053           21 
 2200000   0.91188463   -6.6582538    753.33758  0.028535514  0.028840062            7 
 2201000    0.8918526   -6.6285757     754.8045   0.02857809  0.028832058            5 
 2202000   0.91221813   -6.6444447    753.50264  0.028515843  0.028824062            4 
 2203000    0.9129355   -6.6545982    752.97164  0.028482813  0.028816045            8 
 2204000    0.8988441   -6.6720463    753.98184  0.028508085  0.028807977           12 
 2205000   0.90416441   -6.6954974    754.65778  0.028520702  0.028799939            6 
 2206000   0.90198177    -6.671653    752.66417  0.028432464  0.028791905           10 
 2207000   0.90173878   -6.6700101     755.1362  0.028512921  0.028783918            5 
 2208000   0.89990778   -6.6860691    754.87898    0.0284903  0.028775917            5 
 2209000   0.88146331   -6.6408928    754.33857  0.028457016  0.028767906           10 
 2210000   0.90271932   -6.6770909    756.60505  0.028529602  0.028759838            8 
 2211000   0.88000742   -6.6445242    754.86051  0.028450946  0.028751832            5 
 2212000   0.90580232   -6.6357492    756.84041  0.028512674  0.028743872            6 
 2213000   0.89229309   -6.6869983    758.49322  0.028562028  0.028735958            6 
 2214000   0.90908719   -6.6575547    756.28471  0.028466001  0.028728008           19 
 2215000   0.90157802   -6.6245233    759.44074  0.028571886  0.028720125           10 
 2216000   0.90176047   -6.6685258    757.12991  0.028472093  0.028712198           10 
 2217000   0.89462739    -6.664436    757.44748  0.028471188  0.028704342            4 
 2218000    0.8987965   -6.6493126    756.69963  0.028430253  0.028696498            5 
 2219000    0.9028876   -6.6716651    757.57499  0.028450315  0.028688653            6 
 2220000   0.90767854   -6.6716891      757.776  0.028445045  0.028680752            3 
 2221000   0.89792892   -6.6731638    757.48453  0.028421301  0.028672763           14 
 2222000   0.88556834   -6.6616341    756.02026  0.028353595  0.028664798            7 
 2223000   0.90777849   -6.6786872    757.16908  0.028383906  0.028656855            4 
 2224000   0.91197233    -6.644242     758.6498  0.028426626  0.028648891            4 
 2225000   0.90349151   -6.6887988    755.66857  0.028302194  0.028640926            6 
 2226000   0.88995172   -6.6923641    757.86825  0.028371827  0.028632913            5 
 2227000   0.90526073   -6.6634345    757.97155  0.028362953  0.028624919           11 
 2228000   0.87956397   -6.6488941    758.68708  0.028376985   0.02861695           10 
 2229000    0.8803555   -6.6587013    759.61343  0.028398887  0.028609039            8 
 2230000   0.89875605   -6.6533048    756.09614  0.028254714  0.028601152           10 
 2231000   0.89664833   -6.6496229    760.45907  0.028405015  0.028593218            5 
 2232000   0.89724975   -6.6879579    758.05078  0.028302374  0.028585228           14 
 2233000   0.90366225   -6.6442629    760.16536  0.028368613  0.028577272           10 
 2234000   0.88052424   -6.6482633    758.93001  0.028309833  0.028569363           13 
 2235000     0.890435   -6.6490311    760.06081  0.028339329  0.028561488            8 
 2236000   0.89769371   -6.6685837    758.80517  0.028279859  0.028553587            6 
 2237000   0.89111178   -6.6919925    759.01563  0.028275057  0.028545662            7 
 2238000   0.89447331   -6.6916524    760.65943  0.028323631  0.028537748           10 
 2239000   0.89580317   -6.6760795    760.80929  0.028316559  0.028529875            8 
 2240000   0.91121891   -6.6678364    760.18537  0.028280706  0.028521979           10 
 2241000   0.89743262   -6.6684213      759.648  0.028248103  0.028514002           13 
 2242000   0.89905601   -6.6919621    758.83006  0.028205102  0.028506048            4 
 2243000    0.8914437   -6.6902023    760.29506  0.028246956  0.028498062            5 
 2244000   0.90112987   -6.6794171    761.02613  0.028261517  0.028490096           15 
 2245000   0.88305187    -6.676812    759.88979  0.028206748   0.02848211            9 
 2246000   0.88965882   -6.6778953    761.38268   0.02824958  0.028474109           10 
 2247000   0.89852667   -6.6742674    757.98339   0.02811094  0.028466036            7 
 2248000   0.88915976   -6.6577304    761.66082  0.028234757  0.028457951            9 
 2249000   0.88188816   -6.6567628    758.91214  0.028120355  0.028449923            7 
 2250000   0.88545305   -6.6735568    760.33306  0.028160484  0.028441925            8 
 2251000   0.89910128   -6.6639195    760.30508  0.028146938  0.028433888            6 
 2252000    0.8997401   -6.6679157    759.80246   0.02811584  0.028425882            8 
 2253000   0.91214166   -6.6800729    761.17183  0.028154011  0.028417863            5 
 2254000   0.89515908   -6.6730158    760.10507   0.02810208  0.028409912            6 
 2255000   0.89573888   -6.6637809    761.11732  0.028127026  0.028401987            7 
 2256000   0.90025519   -6.6780637    759.54202  0.028056369  0.028394018           14 
 2257000   0.90391078   -6.6692035    761.01936  0.028098485  0.028386026           18 
 2258000   0.89869207   -6.6836239    760.58276  0.028069928   0.02837801            5 
 2259000   0.91011465   -6.6732017    762.62879  0.028132979  0.028370057           13 
 2260000   0.89332249   -6.6646681    763.04631  0.028135926  0.028362136            9 
 2261000   0.89871082   -6.6665553    764.75397  0.028186421  0.028354157            5 
 2262000   0.90673611   -6.6984718    762.50688  0.028091176  0.028346227            8 
 2263000   0.87519898   -6.6598498    763.44336  0.028113248    0.0283383           13 
 2264000   0.88099582   -6.6671624      764.661  0.028145649  0.028330409            8 
 2265000   0.89593804   -6.6597514    763.48196  0.028089844  0.028322482            5 
 2266000   0.89910717   -6.6374804    765.15696  0.028139047  0.028314595           18 
 2267000   0.87382938   -6.6965936    763.42518  0.028062975  0.028306669           12 
 2268000   0.90622858   -6.6949829    761.82537   0.02799182  0.028298767            9 
 2269000   0.88834832   -6.6792585    764.63172  0.028082552  0.028290896           12 
 2270000   0.88257122   -6.6878547    763.74095   0.02803748  0.028282998           13 
 2271000   0.87347261   -6.6760538    762.98214   0.02799729  0.028275093            8 
 2272000   0.89752019   -6.6680364    765.84217  0.028089868  0.028267109            5 
 2273000   0.88520163    -6.679281    763.66949  0.027997855  0.028259156            4 
 2274000    0.8925711   -6.6790747    762.78956  0.027953297  0.028251189           12 
 2275000   0.89342648   -6.6761069    763.59603  0.027970551  0.028243243            9 
 2276000   0.88242609   -6.6895806    762.42832  0.027915507  0.028235287           10 
 2277000   0.90142113   -6.6768436    763.27084  0.027934082  0.028227344           17 
 2278000    0.8970615   -6.6522611    764.29601  0.027959321  0.028219394           12 
 2279000   0.89843595    -6.665413    764.24315   0.02794512   0.02821143            7 
 2280000   0.88680034    -6.650193     766.7062  0.028022888  0.028203489            6 
 2281000   0.89615529   -6.6531423    766.41231  0.027999865  0.028195558            6 
 2282000   0.88738338   -6.7017765    764.54558  0.027919427  0.028187615            8 
 2283000   0.89511309   -6.6709255    763.38256  0.027864745  0.028179599            9 
 2284000   0.87471763   -6.6809245    765.14197  0.027916739  0.028171614           10 
 2285000   0.86003025   -6.7080327    764.71806  0.027889061  0.028163605            8 
 2286000   0.90413769   -6.6900086    764.72081  0.027876962  0.028155685           14 
 2287000   0.87339347   -6.6678631    764.40358  0.027853213   0.02814771            8 
 2288000   0.89005729   -6.6728233    765.72694  0.027889239  0.028139719           15 
 2289000    0.8694075    -6.727846    766.46955   0.02790409  0.028131762            7 
 2290000   0.89191874   -6.6618668    765.74675  0.027865602  0.028123805            6 
 2291000   0.88312104   -6.6818612    767.39537  0.027913406  0.028115954           16 
 2292000   0.89974709   -6.6636451    766.12136  0.027854907  0.028108031           10 
 2293000   0.88771335   -6.6760944    766.10539  0.027842179  0.028100141           12 
 2294000   0.88100763   -6.6333424     767.7402  0.027889429  0.028092307            4 
 2295000   0.86068033   -6.6224565    768.53823  0.027906254  0.028084501           12 
 2296000   0.86833903   -6.6881334    767.31216  0.027849599  0.028076625           13 
 2297000   0.87090022   -6.7157386    768.02717  0.027863415  0.028068722           20 
 2298000   0.88819392   -6.6947231    767.59966  0.027835787  0.028060776           19 
 2299000   0.87243522   -6.6836675    769.08158  0.027877395  0.028052809           13 
 2300000   0.87601582   -6.7082003    766.63149  0.027776503  0.028044828           18 
 2301000   0.88009095   -6.6723391    769.75511  0.027877557  0.028036903            9 
 2302000   0.87859921    -6.706453    768.89643  0.027834362  0.028029034            6 
 2303000   0.88407958   -6.6571789    768.41643  0.027804908  0.028021198            7 
 2304000   0.87718673   -6.6966546    768.43018  0.027793337  0.028013326            6 
 2305000   0.90926297   -6.7019421    768.86968  0.027797168  0.028005442           10 
 2306000   0.88983959    -6.712495    771.32125  0.027873708  0.027997593            8 
 2307000   0.87158578   -6.6492636     769.2635  0.027787296  0.027989813           11 
 2308000   0.88058511   -6.6836076    769.35137  0.027778429  0.027982023            4 
 2309000    0.8892019    -6.672891     771.8205  0.027855511  0.027974269            6 
 2310000   0.88392143   -6.6982619    770.71873  0.027803706  0.027966505            7 
 2311000     0.872714   -6.6933194    768.08515  0.027696709  0.027958732            7 
 2312000   0.86884393    -6.682723    772.50071  0.027843884  0.027950967           17 
 2313000   0.87476188   -6.6910101    770.15892  0.027747475  0.027943221           10 
 2314000   0.90839919   -6.7073424    770.09808  0.027733293  0.027935424            6 
 2315000   0.87396531   -6.7046698    772.07622  0.027792521  0.027927619            7 
 2316000   0.89923561   -6.6865785    771.04792   0.02774352  0.027919801            6 
 2317000   0.87008863   -6.6868669    771.07943   0.02773268  0.027912024            8 
 2318000   0.87212835   -6.6983489    772.88079  0.027785476   0.02790424            9 
 2319000   0.87478975   -6.6760918    772.63132  0.027764529  0.027896404            5 
 2320000   0.89415092   -6.6902268     770.7645  0.027685507  0.027888668            7 
 2321000     0.896048   -6.6761821    771.51515  0.027700529  0.027880937            8 
 2322000    0.8803932   -6.6934457     772.1905  0.027712837  0.027873195            6 
 2323000   0.89810936   -6.6387936    772.89978  0.027726352  0.027865587            6 
 2324000   0.86006703   -6.6768393    772.52598  0.027701018  0.027857991            9 
 2325000   0.87403185    -6.679016    773.48749  0.027723566  0.027850367           12 
 2326000   0.87448584   -6.6917838    774.25657  0.027739201  0.027842744           13 
 2327000   0.85997011   -6.6723947     772.8056  0.027675319   0.02783508            9 
 2328000   0.86920224   -6.7372635    772.95718  0.027668857  0.027827371            9 
 2329000   0.86493256   -6.7128777    772.84285  0.027652886   0.02781961           11 
 2330000   0.87478108    -6.697312    773.70413  0.027671822  0.027811962            9 
 2331000   0.88763252    -6.687733    775.55234  0.027726024  0.027804363            7 
 2332000   0.89042949   -6.7039704    773.94522  0.027656705  0.027796666            4 
 2333000   0.85338353   -6.7048327    775.59824  0.027703895  0.027788984           13 
 2334000    0.8665044   -6.7077202    771.42818  0.027543137  0.027781279            5 
 2335000   0.87770065   -6.7061907      773.494  0.027605068  0.027773519            6 
 2336000   0.89057077   -6.6994031    774.81342  0.027640319  0.027765833            6 
 2337000    0.8712799   -6.7160215     773.9001  0.027595924  0.027758137            8 
 2338000   0.87121411   -6.6899085     773.7133  0.027577463  0.027750378            7 
 2339000   0.89186195   -6.7080292    773.23712  0.027548708   0.02774273            8 
 2340000   0.88168755   -6.6767552    777.52935  0.027689792  0.027735143            4 
 2341000   0.87582884   -6.7227018    774.89926  0.027584339  0.027727611            9 
 2342000   0.91283642   -6.6937379    776.77224  0.027639206   0.02772005            7 
 2343000   0.87569027   -6.7157409     775.7306  0.027590361  0.027712477           12 
 2344000   0.87075124   -6.6796621    776.54935  0.027607699  0.027704951            8 
 2345000   0.86130626   -6.7303792    777.82529  0.027641268  0.027697452            8 
 2346000    0.8857305   -6.7012953    777.12851  0.027604735  0.027689956            9 
 2347000   0.88063187   -6.6957481    777.79587  0.027616669  0.027682421           13 
 2348000   0.87805757   -6.7018981    776.62662  0.027563409  0.027674901            4 
 2349000   0.87961104    -6.669693    778.01344  0.027600874  0.027667429            8 
 2350000   0.87034708   -6.6820271     778.4978  0.027606305   0.02765995            8 
 2351000   0.88077777   -6.7026334    779.65853  0.027635706  0.027652485            8 
 2352000   0.87120954   -6.7257057    777.52658  0.027548419  0.027644928            5 
 2353000   0.87145625   -6.7317572    778.03897  0.027554858  0.027637365           11 
 2354000   0.86136692   -6.6835314    778.53965  0.027560877  0.027629849            7 
 2355000   0.86962134   -6.7004264    778.50989  0.027548121  0.027622349            8 
 2356000    0.8807687   -6.7068735    777.23971  0.027491501  0.027614815           12 
 2357000    0.8870218   -6.6991761     777.9367   0.02750448  0.027607248            6 
 2358000   0.87438815    -6.712654    778.04083  0.027496495  0.027599664            7 
 2359000   0.88922401   -6.7246388    778.02331   0.02748422  0.027592103            8 
 2360000   0.87370834   -6.7025804     777.0213  0.027437193  0.027584508           11 
 2361000   0.89265379    -6.684563    779.66017  0.027518713  0.027576983           14 
 2362000   0.88621303   -6.7143581    779.95231  0.027517369  0.027569464            9 
 2363000   0.88328947   -6.7359929    780.07335  0.027509993  0.027561957            9 
 2364000   0.89081563   -6.6892078    780.93146  0.027528605  0.027554394            5 
 2365000   0.86002014   -6.6853359    780.97644   0.02751855  0.027546935            7 
 2366000   0.88053259   -6.6829952     780.8822    0.0275036  0.027539427            7 
 2367000   0.90000486   -6.7414609    779.44999  0.027441557  0.027531879           15 
 2368000   0.86931608    -6.693659    778.91875  0.027411274  0.027524338            9 
 2369000   0.88739636   -6.7007774    779.61206  0.027424091  0.027516804            6 
 2370000   0.86930588   -6.6964458    779.28772  0.027401115   0.02750926           11 
 2371000   0.86445474   -6.7358418     779.3794  0.027392781  0.027501661           10 
 2372000   0.85901116   -6.6908197    780.30883  0.027413885  0.027493983            9 
 2373000    0.8788814   -6.7208443    780.18143  0.027397859  0.027486387            6 
 2374000   0.86547813   -6.7437401    780.27906  0.027389745  0.027478849            4 
 2375000   0.87854543   -6.7096705    781.43633  0.027418819  0.027471356           12 
 2376000   0.85292279   -6.7261819    781.20476  0.027399157  0.027463877            7 
 2377000   0.87885926   -6.7199869    780.04317  0.027346907  0.027456356            7 
 2378000   0.88439235   -6.7050696     780.9751  0.027368065  0.027448776            8 
 2379000     0.899403   -6.7414114    780.29237  0.027332646  0.027441204           14 
 2380000   0.85466286   -6.7235051      779.568  0.027295798  0.027433618            5 
 2381000   0.86168707   -6.6933627    782.31167  0.027380361  0.027426017            8 
 2382000   0.87081012   -6.6895393    780.35296  0.027300341  0.027418414           21 
 2383000   0.87812106   -6.7057128    780.01156  0.027276947  0.027410856           14 
 2384000   0.86768256   -6.7344502    781.63736  0.027322335  0.027403256           11 
 2385000   0.85598992   -6.7219027    780.95542  0.027287052  0.027395638            5 
 2386000   0.88459936   -6.6918124    782.20425  0.027319232  0.027388087            9 
 2387000   0.88592042   -6.7286227    782.14828  0.027305833  0.027380566           15 
 2388000   0.87644449   -6.7045029    782.08041   0.02729203  0.027373066            6 
 2389000   0.87575905   -6.7209247    782.83649   0.02730698  0.027365506            7 
 2390000   0.86558466   -6.7033441    781.84292  0.027260911  0.027357927            5 
 2391000   0.87811532   -6.7205277    780.89421  0.027216444   0.02735033           26 
 2392000   0.87092273   -6.6821097    781.29519  0.027219035  0.027342651            5 
 2393000   0.85319433   -6.7477487    782.43664  0.027247411   0.02733501            9 
 2394000   0.87192596   -6.7341431      780.712  0.027175995  0.027327305            6 
 2395000   0.83930548   -6.7222165    782.16336  0.027215148  0.027319556            8 
 2396000   0.87277636   -6.6938828     782.9548  0.027231316  0.027311856            6 
 2397000   0.88372027   -6.7458707    782.61829  0.027208256  0.027304132           10 
 2398000   0.88943725   -6.7250896    781.52849  0.027159039  0.027296478           14 
 2399000    0.8529244   -6.7349562     782.9424  0.027196832  0.027288805           18 
 2400000   0.87079817   -6.7364992    780.48077  0.027100027  0.027281102            5 
 2401000   0.89275416   -6.7276217    782.10466  0.027145101  0.027273451            5 
 2402000   0.86047314   -6.7189699    782.41793  0.027144669  0.027265719            6 
 2403000   0.88213234   -6.7153389    781.73423  0.027109663  0.027258035            5 
 2404000   0.86502012   -6.7302414    780.54375  0.027057118   0.02725039            7 
 2405000   0.84101842   -6.7070772    782.42092  0.027110912  0.027242722           12 
 2406000   0.86293323   -6.7073822    783.01388  0.027120182  0.027235055           15 
 2407000   0.86101801   -6.7111035    783.93532  0.027140816  0.027227411            8 
 2408000   0.84583469    -6.714655    785.89798  0.027197466  0.027219793            9 
 2409000   0.85900185   -6.7311913    782.76582  0.027077827  0.027212122            8 
 2410000   0.86545146   -6.6929274    783.50966  0.027092312  0.027204454           11 
 2411000   0.88848887   -6.7207714     782.5104  0.027046537  0.027196829           12 
 2412000   0.85573642   -6.7089282    783.73414  0.027077603  0.027189148            4 
 2413000   0.87895515   -6.7049047    784.27473  0.027085051  0.027181431           17 
 2414000   0.86521757   -6.7173333    782.19138  0.027001912  0.027173721           15 
 2415000   0.87403894   -6.6964904     784.1494  0.027058295  0.027166094            4 
 2416000   0.87383957    -6.732657    783.51545  0.027025229  0.027158465           11 
 2417000   0.89109678    -6.729571    784.20385  0.027037783  0.027150762           12 
 2418000   0.86895058   -6.7377597    785.40821  0.027068108  0.027143091            7 
 2419000   0.85714655    -6.715602    784.11856   0.02701249  0.027135424            9 
 2420000   0.85782293   -6.7262174    783.64722  0.026985097  0.027127724            5 
 2421000   0.85577917    -6.712301     783.7417  0.026977203  0.027120059           10 
 2422000   0.87037125   -6.7148823    782.58543  0.026926281  0.027112417            9 
 2423000    0.8698839   -6.7203922    784.16478  0.026969486  0.027104789           10 
 2424000    0.8494804   -6.7217042    785.31427  0.026997878  0.027097139           11 
 2425000   0.87866716   -6.7326457    786.52035  0.027028191  0.027089487            8 
 2426000   0.86420426    -6.760285    784.41991  0.026944899  0.027081809           19 
 2427000   0.87866559   -6.7190623    784.54245  0.026938005  0.027074123            6 
 2428000   0.87201367   -6.7341209     785.0296   0.02694363  0.027066456            9 
 2429000   0.86462346    -6.705471    787.39167  0.027013575  0.027058807            5 
 2430000   0.85092546    -6.725884    785.12774   0.02692482  0.027051128            8 
 2431000     0.852972    -6.704003    786.15629  0.026949002  0.027043497            7 
 2432000   0.84920527   -6.7136793    786.25749  0.026941389    0.0270359            9 
 2433000   0.86998043   -6.6954935    787.39678  0.026969338  0.027028332            8 
 2434000    0.8794007   -6.7067257    786.38835  0.026923731  0.027020719            5 
 2435000   0.87947781   -6.7394663    786.70983  0.026923677  0.027013069            5 
 2436000    0.8634768   -6.7466944    784.35496  0.026832066  0.027005376            8 
 2437000   0.85941592   -6.7103173    787.54301  0.026930072   0.02699771            6 
 2438000    0.8631019   -6.7298763    785.94343   0.02686435  0.026990001            5 
 2439000   0.83783498   -6.7074283    787.10195  0.026892919  0.026982361            9 
 2440000   0.86472394    -6.754928    787.84549  0.026907291  0.026974729            7 
 2441000   0.86817727   -6.7154644    787.47357  0.026883571  0.026967107           10 
 2442000   0.87334537   -6.7340896    787.35011  0.026868349  0.026959496           10 
 2443000   0.85776923   -6.7586767    786.12591  0.026815593  0.026951834            8 
 2444000   0.85085489   -6.7700922    785.31737  0.026777051  0.026944156            7 
 2445000   0.87270481   -6.7543863    786.30266  0.026799682  0.026936556           12 
 2446000   0.85551388   -6.7109283    787.22086  0.026820008  0.026928924           11 
 2447000   0.86550479   -6.7679513    787.16254  0.026807061  0.026921261            6 
 2448000   0.85300976   -6.6908545    788.39422  0.026838038  0.026913602           10 
 2449000   0.86606841   -6.7265111    787.97511  0.026812818  0.026906025            5 
 2450000   0.87462597   -6.7194646    787.86154  0.026798012  0.026898367           10 
 2451000   0.85024878   -6.7156954    788.59379  0.026811974  0.026890761            6 
 2452000   0.85627578   -6.7413951     788.3666  0.026793318  0.026883161            9 
 2453000   0.84745829   -6.7426843    787.66774  0.026758654  0.026875525            6 
 2454000   0.85385954    -6.747525    789.29832  0.026803121  0.026867931           25 
 2455000   0.84566367   -6.7222491    788.01573  0.026748667  0.026860314            7 
 2456000   0.85552295    -6.752112    789.55074   0.02678986   0.02685267            7 
 2457000   0.85172902   -6.7396762    786.44974   0.02667378  0.026845026            9 
 2458000   0.85353085   -6.7486332    790.79613  0.026810284  0.026837363            9 
 2459000   0.86268813   -6.7366475     789.3828  0.026751484  0.026829785           19 
 2460000   0.85485941   -6.7269959    791.32813  0.026806509  0.026822259           10 
 2461000   0.85029597   -6.7295195    789.72817  0.026741439  0.026814675           13 
 2462000   0.87620128   -6.7580788     789.2775  0.026715323   0.02680708           15 
 2463000   0.85663123   -6.7526433    789.45297  0.026710413  0.026799466            6 
 2464000   0.87788249   -6.7389339    789.84629  0.026712875  0.026791866            8 
 2465000   0.84784689    -6.715129    790.35705  0.026719305  0.026784375            5 
 2466000   0.84335997   -6.7184682    790.68444  0.026719534  0.026776865            7 
 2467000   0.83184657   -6.7616011     790.1608  0.026691015  0.026769339           13 
 2468000   0.86566565   -6.7313091    790.97175  0.026707582  0.026761783           14 
 2469000   0.84981462   -6.7695283    789.73808  0.026655126   0.02675425           10 
 2470000   0.84569004   -6.7271529    789.91618  0.026650343  0.026746705           12 
 2471000   0.83785526   -6.7385082    790.15962  0.026647768  0.026739123            6 
 2472000   0.87702563   -6.7541324    790.60382  0.026651963  0.026731531           10 
 2473000   0.84603498   -6.7493889    790.11881  0.026624842  0.026723955           17 
 2474000   0.86783029   -6.7262699    788.59265  0.026562673  0.026716384            7 
 2475000   0.87356927   -6.7396769    791.42411  0.026647276    0.0267089            7 
 2476000   0.85226388    -6.733619    792.27053  0.026665002  0.026701385            8 
 2477000   0.85441738   -6.7622534    790.29701  0.026587842  0.026693834            7 
 2478000   0.84932224   -6.7627136    788.72019  0.026524085  0.026686279            7 
 2479000   0.86255293   -6.7592258    789.95457   0.02655488  0.026678734           10 
 2480000   0.83539407   -6.7421585    789.68984  0.026535277  0.026671114           19 
 2481000   0.84438419   -6.7223597    792.15203  0.026607283  0.026663581            7 
 2482000   0.85100337   -6.7207645    793.41008  0.026638802   0.02665609           12 
 2483000   0.86667115   -6.7670985    793.06983  0.026616654  0.026648557            7 
 2484000   0.85686783   -6.7261429    792.05657  0.026571946  0.026641092            9 
 2485000     0.851509   -6.7428385    792.34893  0.026571058  0.026633584            7 
 2486000   0.85929253   -6.7787087    792.39771  0.026562004  0.026626049           10 
 2487000   0.86164186   -6.7496049    792.17244  0.026543776  0.026618519           10 
 2488000   0.84620141   -6.7492777    793.63252  0.026582011   0.02661099            6 
 2489000   0.84753788     -6.73638     791.4261  0.026497459  0.026603511           12 
 2490000   0.85262818    -6.748327    793.42776  0.026553807  0.026596009            8 
 2491000   0.86085535   -6.7407861    792.59703  0.026515356  0.026588541            4 
 2492000   0.86868142   -6.7237022    793.90771  0.026548546  0.026581026           10 
 2493000   0.86532194   -6.7503735    792.57915  0.026493487  0.026573551           32 
 2494000   0.85620223   -6.7379399    792.23177  0.026471257  0.026566058           14 
 2495000   0.85517556   -6.7358083    796.53284  0.026604303  0.026558603            4 
 2496000   0.86002381   -6.7461596    793.29318  0.026485483  0.026551151           11 
 2497000   0.83544586    -6.774123    794.51937  0.026515798  0.026543637           10 
 2498000   0.84608474    -6.750097    792.89931  0.026451138   0.02653616            5 
 2499000   0.85673153   -6.7526323    795.02537   0.02651145  0.026528728            6 
 2500000   0.84204936   -6.7435083    795.58951   0.02651965  0.026521332           10 
 2501000    0.8575899   -6.7629942    795.98049  0.026522074  0.026513917           11 
 2502000   0.84519811   -6.7755039     792.9229  0.026409636  0.026506498            7 
 2503000   0.84567361   -6.7672555    794.94237  0.026466319  0.026499054            7 
 2504000   0.86156898    -6.756382    793.47616  0.026406954  0.026491607           17 
 2505000   0.86046031   -6.7428488     795.8544  0.026475529  0.026484209            7 
 2506000   0.83717545   -6.7282032    796.03004  0.026470805  0.026476842           20 
 2507000   0.84505209   -6.7729253    796.30234  0.026469297  0.026469405           17 
 2508000    0.8327168   -6.7816039    796.00909     0.026449  0.026462002           11 
 2509000   0.85044724   -6.7550024    796.24315  0.026446232  0.026454597           19 
 2510000   0.83729551   -6.7518745    796.40248  0.026440985  0.026447203           34 
 2511000   0.86015452   -6.7390848     795.6288  0.026404779  0.026439759            5 
 2512000   0.84895583   -6.7536045    796.26854   0.02641549  0.026432377           18 
 2513000   0.84415737   -6.7437034    795.48742  0.026379076  0.026425034            7 
 2514000   0.83833016   -6.7209436    798.70365  0.026475194  0.026417685           25 
 2515000   0.83116121   -6.7529995    797.46924  0.026423765  0.026410379           13 
 2516000   0.83640291   -6.7616334    796.79321  0.026390872   0.02640302           20 
 2517000   0.84971571   -6.7621001    795.63119  0.026341915  0.026395646           10 
 2518000   0.84766373   -6.7467298    797.40509  0.026390161  0.026388261            4 
 2519000   0.84014679   -6.7602585    798.02993  0.026400355  0.026380884            9 
 2520000    0.8454832   -6.7712036    795.37731   0.02630216  0.026373468            6 
 2521000   0.82829795   -6.7597891    798.80031  0.026404876  0.026366084           11 
 2522000   0.84118545    -6.738744     797.4094  0.026348447  0.026358718           14 
 2523000   0.84020326   -6.7380063     797.7915  0.026350624  0.026351365            8 
 2524000   0.85332075   -6.7457993    799.75892  0.026405141  0.026344057           16 
 2525000   0.84497586   -6.7470052    798.57778  0.026355702  0.026336777           23 
 2526000   0.85341976   -6.7719863    798.94159  0.026357271   0.02632942           13 
 2527000   0.84669968   -6.7709717     798.7953  0.026342016  0.026322014            7 
 2528000   0.85720343   -6.7794834    798.90099   0.02633508  0.026314666           10 
 2529000   0.85556028   -6.7893225    799.17575   0.02633372  0.026307331           11 
 2530000    0.8639735   -6.7593962    799.60585  0.026337479  0.026300065           27 
 2531000    0.8565958   -6.7370168    798.76617  0.026299426    0.0262928           15 
 2532000   0.83420884    -6.755397    800.06465  0.026331775  0.026285576            9 
 2533000   0.85892727   -6.7857817     801.8121  0.026378869  0.026278411            7 
 2534000   0.85216713   -6.7949455    800.01002  0.026309196  0.026271248            9 
 2535000   0.84194094   -6.7862035    802.19638   0.02637069  0.026264086            7 
 2536000   0.85971264   -6.7540461    801.60624  0.026340899  0.026256959            7 
 2537000   0.84643891   -6.7617152    801.11927  0.026314521  0.026249775            9 
 2538000   0.84583015   -6.7362238    800.68428   0.02628987  0.026242614           13 
 2539000   0.84879654    -6.737686    803.13272  0.026359877  0.026235432            8 
 2540000   0.84998964   -6.7791603    802.54865  0.026330336  0.026228238            8 
 2541000    0.8401204    -6.757773    803.84191  0.026362387  0.026221112            9 
 2542000   0.85180242   -6.7811542    801.52879  0.026276186   0.02621396           16 
 2543000   0.84657946    -6.777231     801.3329  0.026259435  0.026206774           10 
 2544000   0.83553098   -6.7824439    802.74049   0.02629522  0.026199563           12 
 2545000   0.84023324   -6.7652854    802.98629  0.026292937  0.026192365            8 
 2546000   0.83551109     -6.77137    801.09822  0.026220811  0.026185177           18 
 2547000   0.83803197   -6.7819242     804.7749  0.026330811  0.026178004            9 
 2548000   0.82866272   -6.7695095    805.66121  0.026349464  0.026170829            5 
 2549000   0.82197656   -6.7478688    803.62939  0.026272701  0.026163714            5 
 2550000   0.85391326    -6.775712    803.37061  0.026253941  0.026156597           12 
 2551000   0.84503314   -6.7723826     805.9421  0.026327653  0.026149525            8 
 2552000   0.83458645   -6.7790541    805.00639  0.026286781  0.026142381            7 
 2553000   0.86116237    -6.781227    802.37633  0.026190636  0.026135232           38 
 2554000    0.8371328   -6.7880036     804.8398  0.026260761  0.026128049           16 
 2555000   0.84737167     -6.75829    804.10745  0.026226596  0.026120902           14 
 2556000   0.84944338   -6.7931832    801.62006  0.026135239  0.026113744           19 
 2557000   0.83290542   -6.7577754    801.85201  0.026132577  0.026106605           12 
 2558000   0.85047367   -6.7432244    805.91431  0.026254701  0.026099423            8 
 2559000   0.83518157   -6.7486809    802.53207    0.0261343  0.026092292            6 
 2560000    0.8394511   -6.7584307    805.89564  0.026233582  0.026085139           10 
 2561000     0.861483   -6.7827489    803.88008  0.026157753  0.026077982            9 
 2562000   0.85203065   -6.7708525    803.55364  0.026136926  0.026070824            5 
 2563000   0.83846072   -6.7872828    802.41518  0.026089712  0.026063623            8 
 2564000   0.84450784   -6.7565481    803.80492  0.026124705  0.026056456            9 
 2565000    0.8574915   -6.7586704    807.07424  0.026220736  0.026049325           11 
 2566000    0.8562169   -6.7840059    805.21733  0.026150212  0.026042182            6 
 2567000   0.84356544   -6.7722679     805.2942   0.02614252  0.026035031            9 
 2568000   0.84743175   -6.7625066    804.66661  0.026111975  0.026027912            5 
 2569000   0.85563343   -6.7752176    802.98689  0.026047324  0.026020737           14 
 2570000   0.83769378   -6.7891927    802.94746   0.02603591  0.026013529           25 
 2571000   0.85193027    -6.753772    807.22175  0.026164325  0.026006322           13 
 2572000     0.853666      -6.7648    805.57358  0.026100751  0.025999198            5 
 2573000   0.81727155   -6.7698373    805.94193  0.026102537  0.025992071            8 
 2574000   0.83948807   -6.7373539    806.60578  0.026113888  0.025984976           10 
 2575000   0.84830783   -6.7622991    805.85699  0.026079514  0.025977837           10 
 2576000   0.83904264   -6.7938609    804.45129  0.026023916   0.02597068           13 
 2577000    0.8388497   -6.7847454    805.75179  0.026055872  0.025963552           16 
 2578000   0.84234827   -6.7646181    806.02035  0.026054446  0.025956379           12 
 2579000   0.81966761   -6.7867198    805.99703   0.02604359  0.025949248           13 
 2580000   0.83576572   -6.8153182    807.51069  0.026082387  0.025942089            5 
 2581000   0.84014313   -6.7842133    807.35151  0.026067142  0.025934975            6 
 2582000    0.8325825   -6.7888495    805.95305  0.026011911   0.02592783           13 
 2583000   0.83820083   -6.7869205    804.76168  0.025963404  0.025920676           10 
 2584000   0.83011133   -6.7836523    807.12583    0.0260296  0.025913541           24 
 2585000   0.81563061   -6.7664455    808.08204  0.026050356  0.025906462           12 
 2586000   0.83420824   -6.7628797    804.98076  0.025940344  0.025899385           10 
 2587000   0.83940965   -6.7612008    808.60278  0.026046991  0.025892276           11 
 2588000    0.8409745   -6.7813639     807.0821  0.025987961   0.02588516           12 
 2589000   0.84173627   -6.7951012     806.8216  0.025969538  0.025878024            8 
 2590000   0.84355283   -6.7903841    807.62305  0.025985298  0.025870912           19 
 2591000   0.84145977   -6.7823535    806.23837  0.025930734  0.025863824            7 
 2592000   0.83003814   -6.7876374    808.19342  0.025983585  0.025856759           17 
 2593000   0.85234057    -6.783373    809.84058    0.0260265  0.025849676            5 
 2594000   0.83540553   -6.7578667     808.7209  0.025980497  0.025842628            8 
 2595000    0.8466098    -6.741812    809.30968  0.025989393   0.02583561            3 
 2596000   0.83904424   -6.7661466    808.18863  0.025943395  0.025828582            6 
 2597000   0.83845625   -6.7577477    808.71623  0.025950335  0.025821465           14 
 2598000   0.82695831   -6.7802036    809.55203  0.025967155  0.025814358           10 
 2599000    0.8394902   -6.7797572    807.45478  0.025889919  0.025807245            6 
 2600000   0.84001055   -6.7704544    808.56765   0.02591563  0.025800179           11 
 2601000   0.82307929   -6.7391496    807.78923  0.025880726  0.025793067           13 
 2602000   0.83366387   -6.7657826    807.57606  0.025863953   0.02578601            9 
 2603000    0.8333409   -6.7683894    808.52677  0.025884453   0.02577891            7 
 2604000   0.84301952   -6.7703974    809.96422  0.025920514  0.025771851           10 
 2605000   0.84935056   -6.7685706    810.45148  0.025926151  0.025764786            7 
 2606000   0.84491108   -6.8083381    807.92988  0.025835568  0.025757711            6 
 2607000   0.82870702   -6.7808254    810.12106  0.025895699  0.025750605            7 
 2608000   0.84841826   -6.7712486      810.285  0.025891008  0.025743574           13 
 2609000   0.81759009   -6.7988971    810.18915  0.025878023  0.025736494            7 
 2610000   0.82679589   -6.7780646    811.75582  0.025918129    0.0257295            3 
 2611000   0.83804097   -6.7704446    811.75549  0.025908193   0.02572245            9 
 2612000   0.83915084   -6.7667261    811.19156  0.025880282  0.025715409            8 
 2613000   0.83268659   -6.7999912    808.93127  0.025798293  0.025708359           10 
 2614000    0.8349045   -6.7847728     808.0734  0.025761075  0.025701328           12 
 2615000   0.84513604   -6.8128709    810.38877  0.025825009  0.025694239           20 
 2616000   0.82154368   -6.8200478    810.31979  0.025812939  0.025687083            9 
 2617000   0.84972988   -6.7844156     812.1947  0.025862779  0.025679989           13 
 2618000     0.830666   -6.7813161    810.19048  0.025789104  0.025672902            6 
 2619000   0.82383592   -6.7768269    810.49357  0.025788901  0.025665848           20 
 2620000   0.83067975    -6.802218    811.32403  0.025805472  0.025658768            7 
 2621000   0.81788963   -6.7909652     809.3002  0.025731279  0.025651669           28 
 2622000   0.83809416      -6.7941    810.39391  0.025756226  0.025644572           14 
 2623000   0.83019891   -6.7869251    810.70744  0.025756368  0.025637495            7 
 2624000   0.83824085   -6.7980447    811.87465  0.025783621  0.025630458            9 
 2625000   0.82980902   -6.7631562    813.75804  0.025833589  0.025623457           17 
 2626000   0.83701175   -6.8094891    812.25639  0.025776098  0.025616457           10 
 2627000   0.83455835   -6.7682087    810.76122  0.025718856  0.025609471            7 
 2628000   0.82885317   -6.8249478    811.83446  0.025743102  0.025602481           10 
 2629000   0.83938453   -6.8072831    811.50367  0.025722825  0.025595451           14 
 2630000   0.85236127   -6.7799408    812.14723  0.025733436  0.025588446           19 
 2631000    0.8297107    -6.803407    813.71408  0.025773283  0.025581428            6 
 2632000   0.83936564   -6.8016523    813.11992  0.025744678   0.02557443           13 
 2633000   0.84328719   -6.8046849    811.96678  0.025698404  0.025567445           14 
 2634000   0.84849892   -6.7980069    812.28079  0.025698582  0.025560466           43 
 2635000   0.82598478   -6.7946464    813.65706  0.025732355  0.025553519           32 
 2636000   0.82876805   -6.8056242    813.05885  0.025703682  0.025546583           11 
 2637000   0.83423786   -6.7980148    816.17627  0.025792449    0.0255397           24 
 2638000   0.81597579    -6.768099     814.7657  0.025738113  0.025532844           13 
 2639000   0.84838072   -6.8218331     815.6694  0.025756897  0.025525985           11 
 2640000   0.83482757    -6.792469    815.59523  0.025744799  0.025519101            9 
 2641000   0.84012005   -6.7694842    814.87025  0.025712175  0.025512225            5 
 2642000   0.82745179   -6.8275397    814.64955  0.025695482  0.025505319           10 
 2643000    0.8346461   -6.8092283    814.55742  0.025682855  0.025498406           13 
 2644000   0.84797024    -6.818323    814.25946   0.02566375  0.025491536            9 
 2645000   0.81217282   -6.8110858    815.06915  0.025679557  0.025484672           20 
 2646000    0.8177757   -6.8074855    815.90045  0.025696033  0.025477765           27 
 2647000    0.8267017   -6.8169248    815.11095   0.02566147  0.025470818           32 
 2648000   0.81789934   -6.7963442    814.55343  0.025634234  0.025463878            8 
 2649000   0.82850955   -6.7765002    814.42892   0.02562064  0.025456987            4 
 2650000   0.81969089   -6.7944578    816.16707  0.025665631  0.025450077           10 
 2651000   0.80972632   -6.8081679    816.95252   0.02568064  0.025443213           13 
 2652000   0.82534821   -6.7815108    818.50078  0.025719607  0.025436326           16 
 2653000    0.8260347   -6.7730669    817.09162   0.02566565  0.025429458           13 
 2654000   0.83240902   -6.7927961    817.26919  0.025661555  0.025422587           32 
 2655000    0.8234513   -6.8345808    815.89649  0.025608804  0.025415733           43 
 2656000   0.82673734   -6.7915762    817.07586  0.025636165  0.025408871            4 
 2657000   0.83291847   -6.7874421     818.7332  0.025678497  0.025402111            7 
 2658000   0.83933201   -6.8194339    816.89745  0.025611282  0.025395287            9 
 2659000   0.80812655   -6.8027796     816.7119  0.025595835  0.025388492            8 
 2660000   0.84412353   -6.7838342    819.17606   0.02566341  0.025381674           15 
 2661000   0.81022388   -6.7989821    819.53247  0.025664928  0.025374871            8 
 2662000   0.82166454   -6.8155759    816.85802  0.025571563  0.025368068            4 
 2663000   0.82411636   -6.7971586    816.41822  0.025548198  0.025361209           12 
 2664000   0.83213191   -6.8109789    816.41338  0.025538457  0.025354383           10 
 2665000   0.82483584   -6.7951385    816.99752  0.025547139  0.025347483           21 
 2666000   0.82616507    -6.816307    818.28616  0.025577837  0.025340604            9 
 2667000    0.8293412   -6.7912319    817.57773  0.025546111   0.02533373           11 
 2668000   0.81293703    -6.786094      817.104  0.025521739   0.02532689           10 
 2669000   0.81172716   -6.8289643    818.88392  0.025567751  0.025320052           18 
 2670000   0.81713071   -6.7838647    817.60596  0.025518288  0.025313196           10 
 2671000   0.84225668   -6.7999378     818.0752  0.025523375  0.025306368            7 
 2672000   0.82753444   -6.7908242    819.16734  0.025547884  0.025299531            5 
 2673000   0.84272953   -6.8112777    821.28341  0.025604296  0.025292687           16 
 2674000   0.82414089   -6.8034128    819.24318  0.025531139  0.025285884           20 
 2675000   0.81504467   -6.8006708    819.42734  0.025527332   0.02527903            7 
 2676000    0.8139589   -6.8128268    818.74384  0.025496507  0.025272223           13 
 2677000   0.82714813   -6.7846418    820.82099  0.025551643  0.025265462            7 
 2678000   0.83133063   -6.7906922     817.4965  0.025438651   0.02525869            9 
 2679000   0.80837312   -6.8269931    819.94117    0.0255052  0.025251905           11 
 2680000   0.82291436   -6.8186868    818.01176  0.025435689  0.025245104           23 
 2681000   0.81661203   -6.8007618    819.85716  0.025483562  0.025238301           18 
 2682000   0.82382145   -6.8125411    818.42505  0.025429563  0.025231446           12 
 2683000   0.83950279   -6.8141916    819.33971  0.025448494  0.025224646           14 
 2684000   0.82622595    -6.766399    820.31999  0.025469448  0.025217875            8 
 2685000   0.81862834   -6.8066339     820.5434  0.025466896  0.025211158            8 
 2686000   0.81384072   -6.8241445    819.52828  0.025425921   0.02520442           14 
 2687000   0.81928751   -6.7888569    822.25275  0.025500954  0.025197686           10 
 2688000    0.8374908   -6.8128598      822.869  0.025510572  0.025190997            5 
 2689000   0.81626764   -6.8311125    821.16999  0.025448432  0.025184254           10 
 2690000   0.82238927   -6.8010262    820.51981  0.025418829   0.02517753           14 
 2691000   0.83043128   -6.8104783    822.44837  0.025469106  0.025170812           10 
 2692000   0.82463627   -6.7975542     821.9974  0.025445685  0.025164109           17 
 2693000   0.80506712   -6.8357886    821.97783   0.02543563  0.025157406            8 
 2694000   0.82815257   -6.8209804    820.72269  0.025387364  0.025150741            9 
 2695000   0.81868141   -6.8140226    822.72442   0.02543984  0.025144034            9 
 2696000   0.81581941   -6.8032638    820.10243  0.025349358  0.025137318            8 
 2697000   0.80034719   -6.8457334    821.72252  0.025390017  0.025130567           11 
 2698000   0.82263845   -6.7953611    821.98048  0.025388574  0.025123819           12 
 2699000   0.80836606   -6.8458783    821.72671  0.025371332  0.025117065           10 
 2700000   0.82799609   -6.8206511    821.42527  0.025352632  0.025110346           14 
 2701000   0.82025909   -6.8228959    822.77492  0.025384886  0.025103628           12 
 2702000   0.83042523   -6.8217216     822.4198  0.025364539  0.025096949           21 
 2703000    0.8244431   -6.8313179    822.80357  0.025366986  0.025090246            8 
 2704000   0.80984632   -6.7918784    823.02628  0.025364469  0.025083576            9 
 2705000   0.80215373   -6.8171903    822.78766  0.025347741  0.025076899            7 
 2706000   0.82033902   -6.8138732    823.09139  0.025347727  0.025070257            6 
 2707000   0.82588128   -6.7839318    825.90476  0.025424971  0.025063629           12 
 2708000   0.82664626   -6.7849522    824.16516  0.025362049  0.025057049            9 
 2709000   0.81668356   -6.8396439    826.33162  0.025419331  0.025050405           14 
 2710000    0.8196418   -6.7925862    825.61329  0.025387863  0.025043802            9 
 2711000   0.82249669     -6.82348    825.30793  0.025369111  0.025037216           10 
 2712000   0.81980096   -6.7900819    827.36236  0.025422885  0.025030658           10 
 2713000   0.82564444   -6.8296579    824.22029  0.025317001  0.025024061           11 
 2714000   0.80843692   -6.8219072    825.15855  0.025336482  0.025017434           14 
 2715000   0.81965354   -6.8248269    827.77096  0.025407335  0.025010848           10 
 2716000   0.82100324   -6.8614141    824.67338  0.025302939  0.025004211            4 
 2717000   0.81020464   -6.8203553    826.84663  0.025360282  0.024997601           12 
 2718000   0.82442449   -6.8119537    825.49744  0.025309586  0.024990955            9 
 2719000   0.82761397   -6.8101112    824.81684  0.025279418   0.02498435           12 
 2720000   0.81231003   -6.8318876    826.96385  0.025335902  0.024977755            6 
 2721000   0.79636979   -6.8061749    826.21592  0.025303685  0.024971199           12 
 2722000    0.8076414   -6.8207523    828.20933  0.025355417  0.024964685           11 
 2723000   0.81737052   -6.8210064    828.92851  0.025368115  0.024958131           11 
 2724000    0.8208313   -6.8027174    828.18602  0.025336087  0.024951571           23 
 2725000   0.83376209   -6.7967429    827.24198   0.02529792  0.024945021            9 
 2726000   0.81351718   -6.7955357    827.75755    0.0253044  0.024938475           15 
 2727000   0.81262342   -6.8223969    826.43509  0.025254709    0.0249319           33 
 2728000   0.80224433   -6.8184476    827.27519  0.025271114  0.024925305           70 
 2729000   0.84391211    -6.831129    826.15414  0.025227621  0.024918693           18 
 2730000   0.78876421   -6.8459544    824.41544  0.025165306  0.024912097           13 
 2731000   0.81097435   -6.8199885    826.70724  0.025226023  0.024905542           15 
 2732000   0.82045815     -6.81114    826.02127  0.025195866  0.024898986           14 
 2733000   0.80355167   -6.8396098    827.71996  0.025238443  0.024892402           10 
 2734000   0.82152577   -6.8364004    825.94698   0.02517517  0.024885811           10 
 2735000   0.80573393   -6.8127203    827.89807  0.025225413  0.024879224           17 
 2736000    0.8233835   -6.8312264    827.67016  0.025209252  0.024872654            9 
 2737000   0.84280466    -6.847397    828.06193   0.02521197  0.024866071           23 
 2738000    0.8113273   -6.8312447    826.30221  0.025149203   0.02485947           16 
 2739000   0.80405807   -6.8388946    828.24796   0.02519922  0.024852941           11 
 2740000   0.80969286   -6.8128579     828.2746  0.025190833  0.024846428            7 
 2741000   0.81084279   -6.8569199     830.3921   0.02524602  0.024839889           15 
 2742000   0.80746471   -6.8095994    829.95982  0.025223676  0.024833347            8 
 2743000   0.82801807    -6.827046    829.53484  0.025201569  0.024826829            8 
 2744000   0.80378323   -6.8299018    831.05875  0.025238665  0.024820339           17 
 2745000   0.80354553   -6.8330643    829.44183  0.025180383   0.02481385           13 
 2746000   0.80947654    -6.836601    830.52855  0.025204193  0.024807323           20 
 2747000   0.82436531   -6.7996035    829.01544  0.025149116  0.024800813           15 
 2748000   0.80934255   -6.8309103     829.2281  0.025146412   0.02479432           16 
 2749000   0.81264571   -6.8158796    832.00878  0.025221559  0.024787858           11 
 2750000   0.81532167   -6.8337315    829.41695  0.025133847  0.024781387           10 
 2751000   0.79283687   -6.8469337    831.64684  0.025192259  0.024774885           11 
 2752000   0.80579315   -6.8568819    829.47159  0.025117236  0.024768393           20 
 2753000   0.81543703   -6.8488638     831.4424  0.025167769  0.024761929            6 
 2754000   0.81527887   -6.8128558    831.56765   0.02516242  0.024755522           15 
 2755000   0.81923411    -6.852854    830.54835  0.025122455  0.024749088           39 
 2756000   0.81632922    -6.815301    830.26848  0.025104877  0.024742659            9 
 2757000   0.79861715   -6.8299197    829.27594   0.02506577  0.024736217           12 
 2758000   0.79805254   -6.8032254    830.72527  0.025100473  0.024729776            6 
 2759000   0.78311621   -6.8453974    832.07991  0.025132292  0.024723336           29 
 2760000   0.81565467   -6.8554391    832.14161  0.025125049  0.024716886           29 
 2761000   0.80910243   -6.8363407    832.35235  0.025122309  0.024710464           26 
 2762000   0.81109857   -6.8277203    832.79065  0.025126438  0.024704055           15 
 2763000   0.80512949   -6.8319487    833.12425  0.025127405  0.024697659           16 
 2764000   0.80325826     -6.84048    832.34953  0.025094957  0.024691261           24 
 2765000   0.80773996   -6.8599354    832.38749  0.025087025  0.024684851            9 
 2766000   0.80674002   -6.8541848    831.79964  0.025060245  0.024678435           10 
 2767000   0.78280505   -6.8649284    834.72362  0.025139249  0.024672045           10 
 2768000   0.80861573   -6.8399185    832.67875  0.025068604  0.024665643            8 
 2769000   0.81715422   -6.8479865    831.19075  0.025014769  0.024659208           23 
 2770000   0.78752087   -6.8372011    832.40196  0.025042177  0.024652817           14 
 2771000    0.8158809   -6.8415787    832.17056  0.025026181  0.024646445           10 
 2772000   0.80324837   -6.7958713    834.85853   0.02509796  0.024640092           15 
 2773000   0.81396475   -6.8462819    832.46425  0.025016957  0.024633691           10 
 2774000   0.79661485    -6.841289    831.52242  0.024979645  0.024627228           10 
 2775000   0.82014359   -6.8197562    833.36656  0.025026023  0.024620786           14 
 2776000   0.80453766   -6.8478988    832.34594  0.024986369  0.024614359           10 
 2777000   0.80928693   -6.8448923    831.82816  0.024961834  0.024607912           11 
 2778000    0.8066489   -6.8662781    831.99933  0.024957983   0.02460148           28 
 2779000   0.81038192   -6.8268821     833.1534  0.024983609   0.02459508           14 
 2780000   0.81464791   -6.8453768    832.97955  0.024969411  0.024588703            8 
 2781000   0.80946275   -6.7955575    837.15736  0.025085621  0.024582343            6 
 2782000    0.8204111   -6.8531816    833.12773  0.024955899  0.024575977           10 
 2783000   0.81780087    -6.859737     833.2569    0.0249508  0.024569578            9 
 2784000   0.79786718   -6.8551671    833.95935  0.024962864  0.024563191           12 
 2785000   0.80237499   -6.8447681    834.01641  0.024955608  0.024556841           17 
 2786000   0.79724494   -6.8313553    834.65487  0.024965747  0.024550513           10 
 2787000     0.814927   -6.8638883    834.74348  0.024959439  0.024544199           24 
 2788000   0.81008809   -6.8592555    834.71518  0.024949641  0.024537856           27 
 2789000   0.80430349   -6.8352292    833.78911  0.024913025  0.024531488           17 
 2790000   0.80247588   -6.8606606    835.16814  0.024945285  0.024525159           18 
 2791000   0.80831099   -6.8616187    834.91495  0.024928787  0.024518793           24 
 2792000   0.79619227   -6.8371241    836.59226  0.024969922  0.024512429           14 
 2793000   0.80026689     -6.81973    835.35048  0.024923931  0.024506083           22 
 2794000   0.80071778   -6.8459322    836.98943  0.024963894  0.024499778            5 
 2795000   0.80444181   -6.8264511    837.68006  0.024975553  0.024493435            9 
 2796000   0.79978744   -6.8678529    836.32703  0.024926294  0.024487107           10 
 2797000   0.78849158   -6.8505729    837.48682  0.024951937  0.024480778           12 
 2798000   0.79859706   -6.8450325    838.30729  0.024967456  0.024474435           18 
 2799000   0.80134662   -6.7949846    834.93426  0.024858112  0.024468116           15 
 2800000    0.7978642   -6.8618693    834.57599  0.024838571  0.024461768           18 
 2801000   0.79136254   -6.8760677    836.20147  0.024878063  0.024455435           19 
 2802000   0.79395305   -6.8160605    837.02093  0.024893556  0.024449109           19 
 2803000   0.79955435   -6.8423137    837.47351   0.02489813  0.024442761           30 
 2804000   0.78974259   -6.8371795    837.50149  0.024890082  0.024436405            8 
 2805000    0.7976906   -6.8028331    836.41577  0.024848953  0.024430057           25 
 2806000   0.81088299   -6.8727702     837.2165  0.024863878  0.024423738            9 
 2807000   0.80230244   -6.8228044    837.09167  0.024851314  0.024417415           19 
 2808000   0.80915165   -6.8396053    836.90797  0.024837013  0.024411095           14 
 2809000   0.81960988   -6.8563231     836.6266  0.024819823  0.024404719           26 
 2810000   0.80762648   -6.8479771    836.63282  0.024811175  0.024398373           22 
 2811000   0.80321769   -6.8807422     837.4233  0.024825783  0.024392031           15 
 2812000   0.81358744   -6.8762279    839.35385  0.024874166  0.024385701           10 
 2813000   0.81012116    -6.889408    836.34187  0.024776095   0.02437933            8 
 2814000   0.81187678   -6.8246667    838.83589  0.024841148   0.02437298           14 
 2815000    0.7923437    -6.860415    837.48676  0.024792385  0.024366673            9 
 2816000   0.79664449   -6.8500801    836.87263  0.024765407  0.024360348           20 
 2817000   0.78917157   -6.8560405    839.29959  0.024828411  0.024353994           15 
 2818000   0.81230221   -6.8517542    838.97745  0.024810074  0.024347674           17 
 2819000   0.80436892   -6.8505338    837.69131  0.024763253  0.024341345            8 
 2820000    0.8171827   -6.8368348    839.49978  0.024807913  0.024335044           12 
 2821000   0.80105144     -6.84041    838.72651  0.024776277  0.024328738           10 
 2822000   0.79140528   -6.8535209    837.47848  0.024730642  0.024322387           10 
 2823000   0.79010985   -6.8355584    838.97797  0.024766146  0.024316068            9 
 2824000   0.80893176   -6.8447054    839.78265  0.024781122  0.024309768           13 
 2825000   0.79741584    -6.878181    840.17992  0.024784069  0.024303475            7 
 2826000   0.80185233   -6.8287411    842.99491  0.024858307  0.024297203           14 
 2827000     0.807291   -6.8488948    839.47104  0.024745638  0.024290947           17 
 2828000   0.78434587      -6.8638    837.71536  0.024685153  0.024284632           24 
 2829000   0.79708046   -6.8434498    840.59966   0.02476139  0.024278342            7 
 2830000   0.81128594    -6.817655    840.76517  0.024757514    0.0242721            8 
 2831000   0.78134158   -6.8556954    841.23734  0.024762668  0.024265856           13 
 2832000   0.79572996   -6.8640279    839.49143  0.024702549  0.024259565           14 
 2833000   0.80112291   -6.8691413    838.55844  0.024666385  0.024253275           13 
 2834000   0.79551607   -6.8567152    838.18437  0.024646682  0.024246985           18 
 2835000   0.79794154   -6.8414787    840.26431  0.024699127  0.024240701           26 
 2836000   0.80358964   -6.8693137    841.06763  0.024714023  0.024234467            7 
 2837000   0.79128036   -6.8742635    840.67008  0.024693634  0.024228211           11 
 2838000   0.80829174   -6.8400171    841.30066  0.024703449   0.02422199            6 
 2839000   0.79094799   -6.8212932    842.51922  0.024730516   0.02421582           30 
 2840000    0.7924888    -6.848144    840.52176  0.024663197  0.024209643            7 
 2841000   0.81227351   -6.8498836    840.01925  0.024639776   0.02420342           13 
 2842000   0.80352909   -6.8275903    842.09079  0.024691848  0.024197267            9 
 2843000   0.79730772     -6.87786    842.74438  0.024702321  0.024191083           11 
 2844000   0.78704146   -6.8293266    844.07619  0.024732659  0.024184887           11 
 2845000   0.80469274   -6.8682435    842.08976  0.024665781  0.024178714           12 
 2846000   0.77706668   -6.8356081      842.719  0.024675539  0.024172518           25 
 2847000   0.79653957   -6.8500777    841.77639  0.024639281  0.024166319           18 
 2848000   0.80537174   -6.8387184    842.78928  0.024660267  0.024160148           13 
 2849000   0.81184069   -6.8899227    842.08313  0.024630956  0.024153967           15 
 2850000   0.79312802   -6.8585672    843.79955  0.024672501  0.024147774           13 
 2851000   0.80078281   -6.8818653    845.03019  0.024699819  0.024141616           22 
 2852000   0.79002522    -6.860929    844.95379  0.024688926   0.02413546           16 
 2853000   0.77815425   -6.8773806    842.41825  0.024606211  0.024129277            8 
 2854000   0.78683182   -6.8800242    843.96063  0.024642625  0.024123058            7 
 2855000   0.80024555   -6.8336193    844.51748  0.024650247  0.024116872           19 
 2856000   0.79781576   -6.8318376    845.17482  0.024660797  0.024110721           10 
 2857000   0.80430947   -6.8707364    843.22501  0.024595293  0.024104555           12 
 2858000   0.79390304   -6.8737482    842.69369  0.024571194  0.024098331           15 
 2859000   0.79761687   -6.8798515     843.3667  0.024582217  0.024092102            5 
 2860000   0.78883627   -6.8615935     844.0486  0.024593491  0.024085896            9 
 2861000   0.80055736   -6.8733582    843.10159  0.024557311  0.024079705            9 
 2862000   0.79315375   -6.8444431     842.7068  0.024537235  0.024073498            8 
 2863000   0.79979922   -6.8669692    843.10714  0.024540317  0.024067303            5 
 2864000   0.80408138   -6.8704855    843.94931  0.024556253  0.024061108            9 
 2865000   0.80753954   -6.8603582    844.28245  0.024557372  0.024054937           13 
 2866000   0.79772754   -6.8460944    842.55673  0.024498625  0.024048755           12 
 2867000   0.78676292   -6.8657202    843.76525  0.024525208  0.024042548           10 
 2868000   0.79203207   -6.8626907    844.76269  0.024545638  0.024036346            9 
 2869000   0.79115817   -6.8630717    843.31031  0.024494897  0.024030174           15 
 2870000   0.79879075    -6.866797    845.08921  0.024538014  0.024024035            8 
 2871000   0.79863855   -6.8346169     845.9664  0.024554928  0.024017931           13 
 2872000   0.80828148   -6.8599916    845.79067   0.02454128  0.024011815            7 
 2873000   0.79440759   -6.8581365    844.25209   0.02448811  0.024005695           11 
 2874000    0.7828597   -6.8530407    845.49653  0.024515673  0.023999579            7 
 2875000   0.79950937   -6.8309881    846.53473  0.024537238  0.023993466            6 
 2876000   0.78904151   -6.8550328    845.68866  0.024504192  0.023987341            7 
 2877000   0.78951109     -6.87003    845.12274  0.024479282  0.023981222           13 
 2878000   0.80534116   -6.8642305    846.52016  0.024511239  0.023975097           14 
 2879000   0.79481149   -6.8749737    846.02408  0.024488366  0.023968962            6 
 2880000   0.79664239   -6.8622053     843.8749  0.024417676  0.023962808           18 
 2881000   0.79720489   -6.8731367    845.89828  0.024467728  0.023956662            9 
 2882000   0.77663705   -6.8669444     845.0058  0.024433432  0.023950478           10 
 2883000   0.79408051    -6.871391    846.87471  0.024478978  0.023944295           11 
 2884000   0.79462738   -6.8802168     845.4864  0.024430374  0.023938114           13 
 2885000   0.79453118   -6.8842425    845.20029  0.024413642  0.023931956           12 
 2886000   0.80801628   -6.8597567    846.76219  0.024450283  0.023925791           11 
 2887000   0.79056813   -6.8911805    843.61944  0.024351098  0.023919631            8 
 2888000   0.79963976   -6.8727812    845.35261  0.024392677  0.023913472           14 
 2889000   0.79713993   -6.8772461    845.04656  0.024375406  0.023907288            8 
 2890000   0.79641283   -6.8940928     845.0744  0.024367774  0.023901073           12 
 2891000   0.78924402   -6.9185357    844.02179  0.024329004  0.023894838           33 
 2892000   0.79449055   -6.8673674    845.52751  0.024363978  0.023888586           11 
 2893000   0.78644694   -6.8929962    844.89748  0.024337409  0.023882366           26 
 2894000   0.80200303   -6.8791788    844.92283  0.024329729  0.023876153           19 
 2895000   0.78000446   -6.8824265    845.19045  0.024329029  0.023869888           38 
 2896000   0.77766683   -6.8745564    845.03457  0.024316142  0.023863619           43 
 2897000   0.77812072   -6.8631551    844.60452  0.024295378  0.023857316           12 
 2898000   0.77956104   -6.8295626    846.15983  0.024331718   0.02385104           10 
 2899000   0.78819453   -6.8799421    842.84236  0.024227963  0.023844761           14 
 2900000   0.77749485   -6.8965914    844.17541  0.024257914  0.023838491            9 
 2901000   0.78354321   -6.8830033    845.65278  0.024291991  0.023832233           12 
 2902000   0.80339468   -6.8740198     843.9709  0.024235323  0.023825977           12 
 2903000   0.80417484   -6.8761031    845.24271  0.024263483  0.023819718           11 
 2904000   0.78914076   -6.9295059    844.32154  0.024228694  0.023813431            5 
 2905000   0.78053086   -6.8751207    846.49107  0.024282589  0.023807186            8 
 2906000   0.80081712   -6.8664651    845.20848  0.024237453  0.023800908           13 
 2907000    0.7869376   -6.8820508    844.93038  0.024221144  0.023794623            9 
 2908000   0.77236325   -6.8849032    847.01466  0.024272543  0.023788346           14 
 2909000   0.78939289   -6.8862216    845.20837  0.024212455  0.023782013           20 
 2910000   0.77162057   -6.9088369    842.21547  0.024118427  0.023775651           17 
 2911000   0.77996555   -6.8871309    843.95502   0.02415994  0.023769268            7 
 2912000   0.77422815   -6.8942506    843.69557  0.024144219  0.023762927            8 
 2913000   0.78169509   -6.9038152    845.31691  0.024182312  0.023756571           18 
 2914000   0.77043392    -6.912029    846.01522  0.024193984  0.023750246           21 
 2915000   0.80424984   -6.8822255    845.23127  0.024163272   0.02374391           19 
 2916000   0.79535559   -6.8596621    845.27823  0.024156328  0.023737633            9 
 2917000   0.79574012   -6.8865886    845.32376  0.024149347  0.023731365           20 
 2918000   0.79197342   -6.8903854    845.90796  0.024157755  0.023725092           18 
 2919000   0.78159001   -6.8902033    846.22261  0.024158462  0.023718791           13 
 2920000   0.80974695   -6.8763102    848.22579  0.024207357   0.02371254           11 
 2921000   0.79315226   -6.8797312    848.47194  0.024206092  0.023706304            7 
 2922000   0.77534149   -6.9324537    846.17132  0.024132196  0.023700028           25 
 2923000   0.78590213   -6.8683006    847.01069   0.02414787  0.023693749           12 
 2924000   0.78104739    -6.873898    847.19264  0.024144797   0.02368749            9 
 2925000   0.77145635   -6.8760692    847.32544  0.024140326  0.023681251            6 
 2926000   0.76433829   -6.8780429    846.05715  0.024095954  0.023675016           50 
 2927000   0.78053767   -6.9005921    846.08005  0.024088374  0.023668762            8 
 2928000   0.79350159   -6.8492104    847.62941  0.024124243  0.023662558            8 
 2929000   0.78048818   -6.8673393    848.01924  0.024127098  0.023656356            8 
 2930000   0.77843991   -6.8722878    848.84611  0.024142381  0.023650104           12 
 2931000   0.78833013   -6.8663575    845.96656  0.024052273  0.023643898           18 
 2932000   0.77418146   -6.8849854    848.09036  0.024104433  0.023637697           10 
 2933000   0.79048456   -6.8701412    848.82611  0.024117119  0.023631463            8 
 2934000   0.78557224    -6.912251    846.90324  0.024054284  0.023625199           20 
 2935000   0.78403255   -6.9019628    847.79151  0.024071309  0.023618918           11 
 2936000   0.77021023   -6.8952156    849.01785  0.024097918  0.023612628           13 
 2937000   0.77822719   -6.8836103    848.18497  0.024066081  0.023606345           10 
 2938000   0.77415379   -6.8859509    847.59474  0.024041149  0.023600052           13 
 2939000    0.7811629   -6.8875802    847.12069  0.024019527  0.023593797           10 
 2940000   0.80694733   -6.8665392    848.61201  0.024053628  0.023587531           25 
 2941000   0.79073779   -6.8785384    847.30377  0.024008381  0.023581274           13 
 2942000    0.7760565   -6.8800495     848.3179  0.024028946  0.023575016           18 
 2943000   0.76825781   -6.8729752    846.93438  0.023981605  0.023568763           23 
 2944000   0.79226773   -6.8700967    847.92228  0.024001423  0.023562531           13 
 2945000    0.7932866   -6.8942469    848.93015  0.024021793  0.023556291           27 
 2946000   0.78323081   -6.9228507    850.89235  0.024069143  0.023550068           18 
 2947000   0.77763636   -6.8922034    848.84047  0.024002954  0.023543808           26 
 2948000   0.77621345   -6.8768572    848.22491  0.023977411  0.023537567           19 
 2949000    0.7870606   -6.8706479    849.11621  0.023994467  0.023531326           18 
 2950000    0.7817834   -6.8999929    849.56487  0.023999008  0.023525061           10 
 2951000   0.79482612   -6.9345701    848.62657  0.023964378  0.023518802           36 
 2952000   0.77321411   -6.9221792    848.04951   0.02393997  0.023512518           19 
 2953000   0.78045036   -6.9065433    848.15364  0.023934802  0.023506224           10 
 2954000   0.79143734   -6.9118824    849.13152  0.023954286  0.023499938           13 
 2955000   0.77793993   -6.9001711    849.66988  0.023961362  0.023493686           11 
 2956000   0.79455933   -6.8864989     849.5545  0.023950003  0.023487486           12 
 2957000   0.77586402   -6.8852527    851.19076  0.023988016  0.023481301            8 
 2958000   0.78188673   -6.8646697    849.99897  0.023946331  0.023475122           18 
 2959000   0.79247433   -6.8915258    851.11101  0.023969557  0.023468921           21 
 2960000   0.77676955   -6.9059474    851.50932  0.023972672  0.023462721           18 
 2961000   0.76382519   -6.8917275    851.04357  0.023951468  0.023456529            9 
 2962000   0.77583478    -6.879526    851.31889  0.023951128  0.023450308            6 
 2963000   0.78228228   -6.8855601     850.9441  0.023932504  0.023444083           39 
 2964000   0.79029638   -6.8947139     850.0824  0.023900202  0.023437887           17 
 2965000   0.77674443     -6.87554     851.1872  0.023923193  0.023431681           11 
 2966000   0.79551197   -6.8943256    851.39396  0.023920936  0.023425506            7 
 2967000    0.7679605   -6.8980852    849.67183  0.023864505  0.023419328            5 
 2968000   0.77604249    -6.890587    851.18373  0.023898914  0.023413155           14 
 2969000   0.77866181   -6.9077183    852.17188    0.0239186  0.023406955            6 
 2970000   0.78316618   -6.8804582    850.86244  0.023873806  0.023400744           21 
 2971000   0.77273732   -6.9139531    850.57291  0.023857649  0.023394486           14 
 2972000   0.76828117   -6.9351488     850.8547  0.023857523  0.023388219           10 
 2973000   0.78178064   -6.8860137    850.54363  0.023840779  0.023381961           20 
 2974000   0.78878386   -6.9027367    849.46997  0.023802678  0.023375698           27 
 2975000   0.77028394   -6.9206184    851.46068  0.023850439  0.023369405           46 
 2976000   0.76852621   -6.9276472    848.57123  0.023761515  0.023363107           58 
 2977000   0.77288072   -6.9394102    849.84499  0.023789189  0.023356786           66 
 2978000    0.7725745   -6.9173078    850.27783  0.023793313  0.023350466           15 
 2979000   0.77252791   -6.9083339    849.68605  0.023768772  0.023344159           66 
 2980000   0.78215063    -6.907205    851.49501  0.023811382  0.023337854           46 
 2981000   0.76877583    -6.909879    850.10084   0.02376442  0.023331537           23 
 2982000   0.77855436   -6.8745363    850.73898  0.023774284  0.023325284           26 
 2983000   0.77528702   -6.9272549    850.62348  0.023763087  0.023319067           19 
 2984000   0.77041556   -6.9187352    851.02391  0.023766307  0.023312836           21 
 2985000   0.76704095   -6.8958565    852.19643  0.023791078  0.023306613           20 
 2986000   0.78240475    -6.927515     851.6972  0.023769178  0.023300375           12 
 2987000   0.77079894     -6.91127    851.54092  0.023756861  0.023294113            8 
 2988000   0.78548033   -6.8919459    853.05761  0.023791209  0.023287895            8 
 2989000   0.78705067   -6.9036515    852.04896  0.023755129  0.023281661           27 
 2990000   0.78221529   -6.8896212    852.56622    0.0237616  0.023275434           14 
 2991000   0.76142022   -6.9066818    851.80474   0.02373244  0.023269214            9 
 2992000   0.77720755   -6.8976813    851.17083  0.023706852  0.023262985           13 
 2993000   0.76821863   -6.9018087    851.43136  0.023706186  0.023256747           26 
 2994000   0.77562954   -6.9146679     850.1446  0.023662453  0.023250495           13 
 2995000   0.76333654      -6.9076    852.19639  0.023711641  0.023244241           37 
 2996000   0.76960161   -6.9001225    850.72155  0.023662704  0.023237984           30 
 2997000   0.78005343   -6.9176103    851.75117  0.023683438  0.023231708           39 
 2998000   0.75801446   -6.9326079     850.1156  0.023630076  0.023225436           27 
 2999000   0.76979442   -6.9312034    849.79156  0.023613192  0.023219137           23 
 3000000   0.75394442   -6.9017206    850.38676  0.023621854  0.023212888           19 
 3001000   0.77786572   -6.8971437    851.53427  0.023645848  0.023206638           22 
 3002000   0.75908073   -6.9180854    849.61754  0.023584764  0.023200353           11 
 3003000   0.77906011   -6.9379517    851.27816  0.023622993  0.023194078           14 
 3004000   0.80241084   -6.8974057    853.65925  0.023681182  0.023187804           12 
 3005000   0.77208675   -6.8798915    853.91035  0.023680265  0.023181561           17 
 3006000   0.77706224   -6.9241777    852.61299  0.023636421  0.023175333           31 
 3007000   0.76368444   -6.9099299    854.07156  0.023668982  0.023169079           23 
 3008000   0.77320019   -6.8861166    854.23486  0.023665638  0.023162848           21 
 3009000   0.78030027   -6.8827335    853.37141   0.02363386  0.023156622           22 
 3010000   0.75938628   -6.9152782    850.91714   0.02355806  0.023150377           34 
 3011000   0.76505328   -6.9036544    853.00461   0.02360801  0.023144121            7 
 3012000   0.77941015    -6.908054    854.47018   0.02364072  0.023137876           21 
 3013000   0.76899237   -6.9135143     852.8272  0.023587432  0.023131629           10 
 3014000   0.77860198   -6.9101091     852.0581  0.023558342   0.02312536           10 
 3015000   0.77217003   -6.9175063    852.65813  0.023567112  0.023119112           11 
 3016000   0.77802522   -6.9357638    854.62927  0.023613762  0.023112843           21 
 3017000   0.78972897   -6.9059344    852.68932  0.023552351   0.02310657           32 
 3018000   0.76802899   -6.8991873    852.37771  0.023535943  0.023100306           26 
 3019000   0.76387168   -6.8872904    851.15081  0.023494281   0.02309405           15 
 3020000   0.76270198   -6.8739786    852.71535  0.023529673  0.023087803           10 
 3021000   0.76860794   -6.8984005    852.02742  0.023502908  0.023081548            7 
 3022000   0.76144179   -6.9238341     853.5683  0.023537621  0.023075279           20 
 3023000   0.76190194   -6.9053543     853.5156  0.023528382   0.02306899           11 
 3024000    0.7648232   -6.9006467    854.60552  0.023550637  0.023062736           29 
 3025000   0.76770061   -6.9075124    852.92186   0.02349647  0.023056479            8 
 3026000   0.77657812   -6.9017677    851.62867  0.023453092  0.023050185           19 
 3027000   0.77827029   -6.8750415    853.09175  0.023485623   0.02304391           30 
 3028000   0.76301861   -6.9010819    853.71789  0.023495098   0.02303765            8 
 3029000   0.76224297   -6.9229745    853.43593  0.023479584  0.023031381           13 
 3030000    0.7671674   -6.9201847     852.7268  0.023452332  0.023025094           11 
 3031000   0.77084539   -6.9243421    854.32323  0.023488486  0.023018857            6 
 3032000   0.77158025   -6.9442657    854.18105  0.023476832  0.023012584           11 
 3033000   0.76459702   -6.9057915    853.47437  0.023449675    0.0230063            9 
 3034000   0.77511179   -6.9460489    852.04587   0.02340271  0.023000002           13 
 3035000   0.76105778   -6.9316503    851.43717  0.023378286  0.022993715           16 
 3036000   0.78476033   -6.9235896    853.22067   0.02341954  0.022987407           10 
 3037000   0.76747504   -6.9157064    853.43338  0.023417665   0.02298111           27 
 3038000   0.75984363   -6.9059791    851.51989  0.023357469  0.022974813           23 
 3039000   0.77160878   -6.9298059    850.18677  0.023313227  0.022968527           16 
 3040000   0.78519383   -6.9236661    852.39422   0.02336607  0.022962212           20 
 3041000   0.75506686   -6.9261024    853.60407   0.02339154  0.022955875           11 
 3042000   0.76003141   -6.9102114    855.50537  0.023435935  0.022949611            8 
 3043000   0.76844049   -6.9153678    855.60629  0.023430997   0.02294336           23 
 3044000   0.75966206   -6.9189704    854.95257  0.023405403    0.0229371           13 
 3045000    0.7556481   -6.9103326    855.18184  0.023403991  0.022930865           19 
 3046000   0.77546287   -6.9181097    853.46291  0.023349281  0.022924614           17 
 3047000   0.76186765   -6.9146693    854.28304  0.023364048  0.022918335           16 
 3048000   0.75712489   -6.9020866    853.83348  0.023344091  0.022912095           10 
 3049000   0.75432962   -6.9356767    854.94468  0.023366806  0.022905866           12 
 3050000   0.75363106   -6.9358319    855.29322  0.023368667  0.022899645            9 
 3051000   0.74385543   -6.9373021    855.30991  0.023361464  0.022893441            8 
 3052000   0.77374928   -6.9199608    855.43562  0.023357242  0.022887248           17 
 3053000   0.76693238   -6.9137402    855.14058  0.023341538  0.022881047            9 
 3054000   0.73380409   -6.9047391     854.1117   0.02330582  0.022874826           17 
 3055000   0.76192757    -6.933677    852.14899  0.023244653  0.022868605           24 
 3056000   0.76856884   -6.9307687    856.87799  0.023366001  0.022862372            9 
 3057000   0.75378876   -6.9409944     853.8035  0.023274548  0.022856166           22 
 3058000   0.75970146   -6.9384877    854.82528  0.023294781  0.022849944           19 
 3059000   0.75395218   -6.9181293    853.48675  0.023250702  0.022843715           20 
 3060000   0.77144855    -6.918494    856.25164    0.0233184  0.022837508            8 
 3061000   0.77183275   -6.9126312    854.64725  0.023267104  0.022831277           14 
 3062000   0.77752511   -6.9157001    855.26062  0.023276198  0.022825101           15 
 3063000   0.76305991   -6.9127281    855.51643  0.023275559  0.022818924           19 
 3064000   0.76702157   -6.8952269    857.41403  0.023319572   0.02281275           25 
 3065000   0.76026407   -6.9232095    855.68536  0.023264964  0.022806566           11 
 3066000   0.76510273    -6.928882    858.02755  0.023321036  0.022800362            8 
 3067000   0.77651457   -6.9259129    857.07577  0.023287571  0.022794169           27 
 3068000   0.77137855   -6.9167415    855.77924  0.023244764  0.022787954            6 
 3069000   0.77702477   -6.9533163    856.13177  0.023246762  0.022781741           19 
 3070000   0.76652762   -6.9265503    854.33733  0.023190481  0.022775504           21 
 3071000   0.75095666   -6.9278971     856.3521  0.023237602  0.022769296            9 
 3072000   0.73994776   -6.9277776    856.54128  0.023235169  0.022763088           13 
 3073000   0.75365759   -6.9246147    854.04447    0.0231599   0.02275687           15 
 3074000   0.75147303   -6.9377388    855.30153  0.023186444  0.022750651            5 
 3075000   0.76654363   -6.9112768    855.91973  0.023195657  0.022744426           12 
 3076000   0.77235007   -6.9154159    856.89025  0.023214409  0.022738222           23 
 3077000   0.74513733   -6.9336199    855.44963  0.023167848   0.02273199           28 
 3078000   0.75049069   -6.9138375     854.0095  0.023121332  0.022725743           28 
 3079000   0.77279963   -6.9342892     856.3103  0.023176093  0.022719492           25 
 3080000   0.75938256   -6.9327764    854.80406  0.023127815  0.022713254           30 
 3081000   0.76274315   -6.9382511    856.64285  0.023170044  0.022707024           21 
 3082000    0.7550684   -6.9288502    855.45246  0.023130339  0.022700818           12 
 3083000   0.76375395   -6.9467048    854.38643  0.023094022  0.022694605           12 
 3084000   0.76267914   -6.9365584    856.73755  0.023150064  0.022688393           24 
 3085000   0.75582379   -6.9373205     857.5789  0.023165286  0.022682186           13 
 3086000   0.75100548   -6.9401145    858.63816  0.023186384  0.022675982           16 
 3087000   0.75977537   -6.9615314    856.52901  0.023121936  0.022669775           21 
 3088000   0.75587915   -6.9433511    855.69641   0.02309198  0.022663565           82 
 3089000   0.75309368   -6.9544527     856.3766  0.023102854  0.022657328           33 
 3090000   0.76145918   -6.9327647    857.33382  0.023121193  0.022651084           38 
 3091000   0.75826997   -6.9361018    854.79135  0.023045168  0.022644815           20 
 3092000   0.77132248   -6.9427021     854.1476  0.023020364  0.022638516           11 
 3093000   0.78129876   -6.9643424    856.25594  0.023069726  0.022632259           29 
 3094000   0.76271998   -6.9699951    854.43049  0.023013103  0.022625988            9 
 3095000   0.76610224   -6.9298783    857.39895  0.023085594  0.022619733           26 
 3096000   0.74295599    -6.922011    857.41294  0.023078514    0.0226135           30 
 3097000   0.76238101   -6.9618393     857.2011  0.023065362   0.02260728           13 
 3098000   0.75973088   -6.9544447    854.90427  0.022996134  0.022601053           12 
 3099000   0.75335923   -6.9783444    856.56253  0.023033304  0.022594817            8 
 3100000   0.74331368   -6.9607949    856.68366  0.023029131  0.022588565           14 
 3101000    0.7483317   -6.9635901    856.38029  0.023013552  0.022582298           36 
 3102000    0.7566073   -6.9526703    857.24452   0.02302935  0.022576036           37 
 3103000   0.74299458   -6.9637545    857.51343   0.02302915  0.022569812           41 
 3104000   0.73994812   -6.9590147    857.58198  0.023023571  0.022563584           29 
 3105000   0.76445556   -6.9288121    859.59343   0.02307014  0.022557391           27 
 3106000   0.76147326   -6.9426138    859.23738   0.02305316  0.022551218           44 
 3107000   0.75741956   -6.9400563    856.54236  0.022973457  0.022545006           16 
 3108000   0.74568506   -6.9847351    856.58279  0.022967149  0.022538759           22 
 3109000   0.73897374   -6.9584333    857.62795  0.022987776  0.022532536           20 
 3110000   0.74754299   -6.9554178    858.04249  0.022991492  0.022526304           33 
 3111000   0.73536963   -6.9595754    858.01253  0.022983299  0.022520077           26 
 3112000   0.75852702   -6.9558105    857.25308  0.022955577  0.022513884           33 
 3113000   0.74245792   -6.9368405    858.71265  0.022987275  0.022507742           28 
 3114000   0.74559649   -6.9439375    859.67316  0.023005597  0.022501555           18 
 3115000   0.74025824   -6.9423533    858.76794  0.022973995  0.022495365           20 
 3116000    0.7522662   -6.9423844    860.07245   0.02300151  0.022489174           43 
 3117000   0.74421846   -6.9355277    857.80942  0.022933628  0.022482986           27 
 3118000   0.75193757   -6.9512965    859.25363  0.022964872  0.022476778           14 
 3119000   0.73557344   -6.9399697    858.92208   0.02294865  0.022470584            9 
 3120000   0.74620416   -6.9318228    861.35156  0.023006185  0.022464391            8 
 3121000   0.77105401   -6.9649042    859.43243  0.022947571  0.022458202           11 
 3122000   0.75577419   -6.9756658     855.6822  0.022840118  0.022452017           11 
 3123000   0.75920502   -6.9527276    859.81699  0.022943137  0.022445829           12 
 3124000   0.75860536   -6.9600465    856.57001  0.022849179   0.02243964           24 
 3125000   0.74717159   -6.9042068    860.99357  0.022959829  0.022433464           23 
 3126000   0.73694429   -6.9783171    859.15489  0.022903468  0.022427281           23 
 3127000   0.75269454   -6.9597381    858.89868  0.022889316  0.022421056           12 
 3128000   0.74775219    -6.958295    859.45229  0.022896747  0.022414862           10 
 3129000    0.7505302   -6.9479566    859.26026  0.022884315  0.022408662           16 
 3130000   0.76093232   -6.9421442    857.41584  0.022827898  0.022402466           15 
 3131000   0.76372304    -6.968963    859.14718  0.022866687  0.022396262            7 
 3132000   0.75630043   -6.9547471    858.65904  0.022846398  0.022390087           24 
 3133000   0.73742094   -6.9542271    858.53075  0.022835694  0.022383895           13 
 3134000   0.73599126   -6.9411595    858.89053  0.022837974  0.022377693           16 
 3135000   0.75852315   -6.9446666     858.0099  0.022807281  0.022371489           19 
 3136000   0.74328351   -6.9248443    858.96635  0.022825424  0.022365298           21 
 3137000   0.75169003   -6.9370087    858.68382  0.022810642  0.022359108           22 
 3138000   0.74973536   -6.9601786    857.43314   0.02277016  0.022352913           15 
 3139000   0.74384615   -6.9575279    859.53081  0.022818594  0.022346729           21 
 3140000   0.74609461    -6.959774     859.1068  0.022800074  0.022340526           27 
 3141000   0.73633697   -6.9361335    858.88176  0.022786845  0.022334331           16 
 3142000   0.75364411   -6.9750656    858.25783  0.022763045  0.022328139           17 
 3143000   0.75064466   -6.9538171     859.5143  0.022789116  0.022321941            8 
 3144000   0.75579187    -6.959633    858.20998  0.022747296   0.02231576           22 
 3145000   0.73371884    -6.932658    858.25583  0.022741278  0.022309575            9 
 3146000   0.73970738   -6.9731158    859.85463  0.022776399   0.02230339           51 
 3147000   0.74987714   -6.9539821    857.80681  0.022714935  0.022297209           15 
 3148000    0.7468201   -6.9702782    859.77825  0.022759907  0.022291006           16 
 3149000    0.7478625   -6.9441507    860.71374  0.022777436  0.022284793           19 
 3150000   0.74224308   -6.9632976    858.03676  0.022699385  0.022278582           24 
 3151000   0.73515455   -6.9527848    859.37303  0.022727521  0.022272373           12 
 3152000   0.74210807   -6.9915657    857.11672  0.022660658  0.022266117           19 
 3153000   0.73865888   -6.9495884    858.75354  0.022696732  0.022259885           30 
 3154000    0.7578213   -6.9754398    858.74808  0.022689391  0.022253684           19 
 3155000   0.73722162   -6.9749183    859.79173  0.022709766   0.02224748           32 
 3156000   0.74193659   -6.9797915     861.9587  0.022759788   0.02224131           20 
 3157000   0.75101155   -6.9757602    860.84043  0.022723061   0.02223513           26 
 3158000   0.75543754   -6.9606911    859.93661  0.022692015  0.022228931           14 
 3159000   0.74502274   -6.9468967    859.88712  0.022683527  0.022222748           14 
 3160000   0.74877251   -6.9647792     861.4135  0.022716601  0.022216558           18 
 3161000   0.75594513   -6.9638539    861.98054  0.022724363  0.022210368            8 
 3162000   0.73795595   -6.9581627    861.34537  0.022700437  0.022204184           11 
 3163000   0.75860513   -6.9941637    861.05945  0.022685727  0.022197988           16 
 3164000   0.75120099   -6.9735937    858.55029  0.022612471  0.022191802           59 
 3165000   0.73581179   -6.9486929    859.77097  0.022637466  0.022185642           17 
 3166000   0.74658521   -6.9535551    860.52171  0.022650077  0.022179475           12 
 3167000   0.74089152   -6.9734219     861.0155  0.022655918  0.022173295           17 
 3168000   0.72143464   -6.9682735    859.76811  0.022615954  0.022167119            8 
 3169000    0.7357389   -6.9750414    860.46467  0.022627135  0.022160932           10 
 3170000    0.7507125   -6.9668525    863.17035  0.022691124  0.022154757           32 
 3171000   0.73211458   -6.9754613    860.22173  0.022606479  0.022148606           16 
 3172000   0.71688205   -6.9655346    860.78657  0.022614191   0.02214244           11 
 3173000   0.74751966   -6.9806079    860.61548  0.022602571  0.022136268            8 
 3174000   0.73480258   -6.9695523    863.23213   0.02266415  0.022130114           10 
 3175000   0.72877577   -6.9618611     862.5144  0.022638173  0.022123967            9 
 3176000   0.75674244    -6.988689    861.80233  0.022612362  0.022117823            9 
 3177000   0.74807598     -6.95798    862.44264   0.02262204  0.022111663           20 
 3178000   0.74352058   -6.9595376    861.44867  0.022588858  0.022105513           35 
 3179000   0.74158488   -6.9724115    862.78141  0.022616688  0.022099357           12 
 3180000   0.74513063   -6.9501065    863.09168  0.022617707   0.02209324           15 
 3181000   0.73028467   -6.9661778    860.82355  0.022551177  0.022087145           19 
 3182000   0.74538731   -6.9752229    862.33429  0.022583655  0.022081014           28 
 3183000   0.74073772   -6.9750305    861.75853  0.022561486   0.02207485           27 
 3184000   0.74132668   -6.9372231    861.22365  0.022540401    0.0220687           20 
 3185000   0.74383072   -6.9884559    862.14072  0.022557319  0.022062598           17 
 3186000    0.7294429   -6.9569364    861.91144  0.022544241  0.022056482           26 
 3187000   0.74303688   -6.9496558    861.34047  0.022522238  0.022050373           24 
 3188000   0.73801088   -6.9789434    860.54686  0.022494429  0.022044232           14 
 3189000   0.73328564   -6.9746076    861.79241  0.022519923  0.022038087           20 
 3190000   0.74897334   -6.9770909    862.19116   0.02252328  0.022031927           20 
 3191000    0.7384715    -6.994952    862.32932   0.02251983  0.022025775           12 
 3192000    0.7287583   -6.9792023    860.67499  0.022469585  0.022019604           12 
 3193000   0.71429584   -7.0198119    859.82744  0.022440428  0.022013431           20 
 3194000   0.74156401   -6.9765329    861.89254  0.022487282  0.022007251           18 
 3195000   0.73502217   -6.9865616    862.98937  0.022508852  0.022001065           20 
 3196000   0.74653607   -6.9804035    862.24938  0.022482514  0.021994928           33 
 3197000   0.74683042   -6.9492053    860.97655  0.022442304  0.021988794           18 
 3198000   0.76844422   -6.9527524    860.22772  0.022415773   0.02198266           30 
 3199000   0.73784044   -6.9869901    862.25654  0.022461617  0.021976511           24 
 3200000   0.75007511   -6.9729408     862.0831  0.022450081  0.021970398           22 
 3201000   0.71640955   -6.9741995    864.67382  0.022510513  0.021964259           24 
 3202000   0.73445064   -6.9560457    863.10242  0.022462586  0.021958178           25 
 3203000   0.75674358   -6.9730192    866.09969  0.022533554  0.021952111           26 
 3204000   0.73433203   -6.9662507     864.3649  0.022481401  0.021946026           16 
 3205000   0.75189843   -6.9873278    861.61851  0.022402977  0.021939911           28 
 3206000   0.74699837   -6.9795444    863.20386  0.022437198  0.021933823           42 
 3207000   0.74432985   -6.9696371    861.02944  0.022373699  0.021927722           16 
 3208000   0.76041604   -6.9828971     860.5165    0.0223534  0.021921595           16 
 3209000      0.74519   -6.9621103    862.29753  0.022392685  0.021915453           22 
 3210000   0.72816173   -6.9821676    862.30607  0.022385931  0.021909329           12 
 3211000   0.73110562   -6.9471849    862.02971  0.022371787   0.02190321            6 
 3212000    0.7495778   -6.9401022     863.4373  0.022401341  0.021897091           11 
 3213000   0.74091654   -6.9801481    862.66404  0.022374314  0.021890976           11 
 3214000   0.73088807   -6.9591076    863.46357  0.022388083  0.021884877           28 
 3215000    0.7408902     -6.97434    862.11132  0.022346068  0.021878741           19 
 3216000   0.72830558   -6.9778318    863.90901  0.022385702  0.021872599           17 
 3217000   0.72643798   -6.9802413    860.95715  0.022302278  0.021866451           34 
 3218000   0.73851237   -6.9522472    862.23862  0.022328533  0.021860311           24 
 3219000   0.74412939   -6.9953843    862.08497  0.022317618  0.021854161           37 
 3220000   0.74356692   -7.0020794    862.85608  0.022330644  0.021848035           45 
 3221000   0.74414274   -6.9768264    864.25949   0.02236002  0.021841903           27 
 3222000   0.73285578   -7.0012173    862.31451  0.022302776  0.021835766           22 
 3223000   0.74914631   -7.0068549    861.06981  0.022263673   0.02182961           19 
 3224000   0.75314618   -6.9694664    860.79463  0.022249655  0.021823456           14 
 3225000   0.73590013   -6.9530583    864.86473  0.022347926  0.021817334           28 
 3226000   0.73144354   -6.9986495    862.77289  0.022286962  0.021811225           13 
 3227000   0.71639634   -6.9668202    863.12677  0.022289194  0.021805094           27 
 3228000   0.73881632   -6.9673248    862.73441   0.02227216  0.021798969            9 
 3229000   0.73662526   -6.9713125    863.26414  0.022278934  0.021792854           22 
 3230000   0.72636039    -6.969452    863.20437  0.022270495  0.021786752           48 
 3231000   0.74121553   -7.0045131    863.87517  0.022280903  0.021780658           33 
 3232000   0.72887666   -6.9680846    862.43987  0.022237002  0.021774546           20 
 3233000   0.72775667    -6.990871    863.08476  0.022246746  0.021768431           44 
 3234000   0.74254601   -6.9824999    863.22305   0.02224343  0.021762311           27 
 3235000   0.73623983   -6.9749854    862.79549  0.022225541    0.0217562           15 
 3236000   0.74234265   -6.9862147    864.14557   0.02225344  0.021750075           29 
 3237000   0.72250293   -6.9709255    864.28285  0.022250099  0.021743932           10 
 3238000   0.72721753   -6.9962558    864.40001  0.022246243  0.021737813           16 
 3239000   0.74313546   -7.0080408    862.59163  0.022192848  0.021731695           14 
 3240000   0.74344649   -7.0091758    864.15861  0.022226302  0.021725556           29 
 3241000   0.72097443   -6.9844611    863.55103  0.022203822  0.021719431           23 
 3242000   0.71561989   -6.9858744    865.47579  0.022246448  0.021713345           26 
 3243000   0.73048432    -6.961506    865.09422  0.022229783  0.021707262           21 
 3244000   0.73083149   -6.9811613    862.50829  0.022156502  0.021701158           21 
 3245000   0.73211593   -6.9872817    864.52723  0.022201521  0.021695066           33 
 3246000   0.72177584   -6.9902343    865.08361  0.022208965  0.021688972           22 
 3247000   0.74337696   -7.0212163    863.87741  0.022171169  0.021682883           15 
 3248000   0.74288059   -6.9995298    865.66518  0.022210211   0.02167679           23 
 3249000   0.74929318   -6.9797468    864.07068  0.022162478  0.021670744           64 
 3250000   0.73521573    -6.995498    865.65568    0.0221963  0.021664691           40 
 3251000   0.73460541   -7.0005296    864.96698  0.022171818  0.021658596           21 
 3252000   0.73485385   -6.9947864    862.66482  0.022106007  0.021652512           20 
 3253000   0.72147764   -7.0087371    864.42446  0.022144289    0.0216464           18 
 3254000   0.72103851   -7.0093225    864.67989  0.022144025  0.021640305           32 
 3255000   0.73012598   -7.0218715    863.14163   0.02209784  0.021634197           23 
 3256000   0.73769121    -7.005345    864.18958  0.022117874  0.021628093           31 
 3257000    0.7381326   -6.9881911    864.29098  0.022113678  0.021622022           16 
 3258000   0.72685794   -6.9992126    864.50756   0.02211243  0.021615965           13 
 3259000   0.71909047   -6.9894497    863.52219  0.022080449  0.021609885           23 
 3260000   0.72977391    -6.995181    865.03197  0.022112269  0.021603802           14 
 3261000   0.72448713   -7.0019701    865.13793  0.022108196  0.021597725           25 
 3262000   0.72927819   -7.0180586    864.86391  0.022094418  0.021591649            9 
 3263000    0.7372093   -7.0160037    864.12569  0.022068794  0.021585555           19 
 3264000    0.7340719   -6.9987083    866.93102  0.022133655  0.021579477            9 
 3265000   0.74264256   -7.0094591    865.48101  0.022089868  0.021573378           35 
 3266000   0.74599059   -7.0035058    867.02763  0.022122567  0.021567278           20 
 3267000   0.72723638   -7.0148861    865.41225  0.022074591  0.021561194           16 
 3268000    0.7227535   -7.0181566    865.70717  0.022075356  0.021555109           12 
 3269000   0.71920091   -6.9965286    866.50834  0.022089027  0.021549023           13 
 3270000    0.7392645   -6.9806607    865.72687  0.022062356  0.021542986           13 
 3271000   0.74030006     -6.99032    867.25394  0.022094516  0.021536937           14 
 3272000   0.72287252   -7.0017174    864.12851  0.022008163  0.021530888           14 
 3273000   0.72529476   -7.0058263    862.95348  0.021971521  0.021524819           11 
 3274000   0.73834309   -6.9887969    864.38121  0.022001151  0.021518737           26 
 3275000   0.73957417    -7.024762    864.58884  0.021999716  0.021512647            8 
 3276000   0.73004249   -7.0006268    866.55703  0.022043066  0.021506563           12 
 3277000   0.73009653   -7.0003561    865.74109  0.022015591  0.021500477           16 
 3278000   0.72540879   -6.9758468    864.96148  0.021989055  0.021494393           11 
 3279000   0.73262166   -6.9966694    865.49524  0.021995914  0.021488345           23 
 3280000   0.72613734   -7.0080225    863.58177  0.021940594  0.021482274           34 
 3281000   0.73572144   -7.0092611    865.15159  0.021973778  0.021476199           12 
 3282000   0.73626167   -7.0202414    866.90004  0.022011478  0.021470123           30 
 3283000   0.73261202   -7.0282291    864.22891  0.021936971  0.021464038           43 
 3284000   0.71963852    -6.977339    865.13409   0.02195326  0.021457967           17 
 3285000   0.71571323   -6.9848774    866.02817  0.021969259  0.021451908           41 
 3286000   0.72864409    -7.014778    866.48565  0.021974175   0.02144584           31 
 3287000   0.71663812   -6.9892093    865.04637     0.021931  0.021439771           19 
 3288000   0.71594292   -6.9943888    866.30182  0.021956149  0.021433699           33 
 3289000   0.72727267   -7.0010235    865.11051  0.021919289  0.021427632           24 
 3290000   0.71265095    -6.982942    865.80936  0.021930328  0.021421551           24 
 3291000   0.71535499   -7.0183211    864.86514  0.021899755  0.021415467           21 
 3292000   0.73180629   -7.0129214    863.88804  0.021868369   0.02140938           54 
 3293000   0.71907948   -6.9964838    865.30959  0.021897702  0.021403294           50 
 3294000   0.72757366   -6.9674897    864.34412  0.021866629  0.021397202           24 
 3295000   0.72877766   -7.0009442    866.49082  0.021914285  0.021391132           38 
 3296000   0.72075989   -7.0011124    864.37825  0.021854223  0.021385053           23 
 3297000   0.71923823   -7.0238277    865.78372  0.021883119  0.021378954           54 
 3298000    0.7305508   -7.0061184    866.55894  0.021896072  0.021372873           29 
 3299000   0.72098919   -7.0210524    866.68756  0.021892684  0.021366776           19 
 3300000   0.73640404   -7.0224817    864.27833   0.02182521  0.021360687           51 
 3301000   0.73999343   -7.0022223    866.22636  0.021867776  0.021354588           30 
 3302000   0.71419741   -7.0123586    864.76238  0.021824207  0.021348498           13 
 3303000    0.7155611   -6.9931851    866.74273  0.021867563  0.021342424           20 
 3304000   0.72198275   -7.0105215    864.71056  0.021809689  0.021336351           24 
 3305000   0.71921934   -7.0184422    865.84654  0.021831733  0.021330279           35 
 3306000   0.72879819   -7.0144471    865.57312  0.021818238  0.021324181           22 
 3307000   0.71538916   -7.0118123    865.24089  0.021803268  0.021318096           18 
 3308000   0.73240965   -7.0477735    864.25168  0.021771757  0.021312008           33 
 3309000    0.7283856   -7.0195841    865.68603    0.0218013  0.021305937           38 
 3310000   0.72770564   -7.0109255    866.33018  0.021810931   0.02129987           33 
 3311000   0.71369155   -7.0317111    865.58244  0.021785524  0.021293812           30 
 3312000   0.73161706   -7.0057388    865.76443  0.021783525  0.021287738           40 
 3313000   0.72339297   -7.0042939    866.96797  0.021807223  0.021281687           16 
 3314000   0.72143678   -7.0075761    866.67446  0.021793262  0.021275624           26 
 3315000   0.71810601   -7.0120538    868.22436   0.02182565  0.021269564           38 
 3316000   0.71228664   -7.0105651    867.45169  0.021799651   0.02126352           38 
 3317000   0.74150605   -7.0211455    866.96786  0.021780923  0.021257456           27 
 3318000   0.72114955   -7.0037447    869.00631  0.021825555  0.021251393           19 
 3319000   0.73622502    -7.017391    866.25898  0.021749999  0.021245356           38 
 3320000   0.73142275   -7.0191625     868.4549  0.021798567  0.021239301           53 
 3321000   0.70968651   -7.0044497    866.48694  0.021742621  0.021233254           26 
 3322000    0.7224089   -7.0188311     866.0224  0.021724423   0.02122719           17 
 3323000   0.72260515   -7.0441343    866.78819   0.02173709  0.021221108           16 
 3324000   0.71446321   -7.0259302    866.16158  0.021714841  0.021215045           12 
 3325000   0.71721556   -7.0030028    868.81088  0.021774709  0.021208991           12 
 3326000   0.71703917   -7.0177258    867.34392  0.021731407  0.021202959           18 
 3327000    0.7098545   -7.0231803    866.55354  0.021705078  0.021196897           29 
 3328000   0.72692457   -7.0233677    867.05261  0.021711053  0.021190803           35 
 3329000   0.73760636   -7.0091474    866.16858  0.021682401   0.02118471           15 
 3330000    0.7218113   -7.0566495    865.83563  0.021667558  0.021178619           21 
 3331000    0.7027793   -7.0005421    865.21471   0.02164552  0.021172528           23 
 3332000    0.7264893   -7.0195639    866.57877  0.021673139   0.02116645           29 
 3333000   0.72160318   -6.9976032     867.4864  0.021689329  0.021160382           31 
 3334000   0.72017574    -7.029056     866.8946  0.021668031  0.021154335           23 
 3335000   0.71619372   -6.9935212    865.67813  0.021631138  0.021148276           14 
 3336000   0.72028245   -7.0440251    866.74689  0.021651351  0.021142223           17 
 3337000   0.70752527   -7.0017444    868.03133  0.021676939  0.021136153           17 
 3338000   0.71731231   -7.0240068    865.33554  0.021603144  0.021130099           29 
 3339000   0.72917363    -7.008516    864.57981  0.021577813  0.021124015           24 
 3340000   0.72778862   -7.0085726    865.04443  0.021582945   0.02111794           38 
 3341000   0.70845547   -6.9997784    866.10762  0.021603004  0.021111874           35 
 3342000   0.71512995   -7.0343508    864.18959  0.021548713  0.021105793           28 
 3343000   0.69450773   -7.0200062    866.89354  0.021609671  0.021099704           57 
 3344000   0.72257235   -6.9933675    866.89266  0.021603186  0.021093628           15 
 3345000   0.72201253   -7.0174936     865.2756  0.021556442  0.021087567           23 
 3346000   0.72031175   -7.0110171    866.73938  0.021586456  0.021081502           26 
 3347000   0.72782924   -7.0325237    866.62643  0.021577194  0.021075416           44 
 3348000   0.71794947   -7.0272206    866.87856  0.021577025  0.021069333           36 
 3349000    0.7210425   -7.0169501    866.71181  0.021566433  0.021063283           31 
 3350000   0.72002801   -7.0335583    866.46446  0.021553842  0.021057228           45 
 3351000   0.72182507   -7.0120201    866.28889  0.021543044  0.021051148           52 
 3352000   0.73478317   -7.0378422    866.49103  0.021541642  0.021045085           31 
 3353000   0.71548179   -7.0324439    866.93871  0.021546344  0.021039009           32 
 3354000    0.6998524   -7.0315364    867.15457  0.021545284  0.021032934           42 
 3355000   0.71452997   -7.0246032    866.54561  0.021523736   0.02102688           55 
 3356000   0.70301813   -7.0242497    866.31604  0.021511622   0.02102084           29 
 3357000   0.71875492   -7.0422035    868.13221  0.021550298  0.021014813           29 
 3358000   0.72990042    -7.042685    865.96082  0.021489995   0.02100878           36 
 3359000   0.71250077   -7.0267459    867.70124  0.021526775  0.021002764           32 
 3360000    0.7078128    -7.029879    869.79018  0.021572177  0.020996737           59 
 3361000   0.70559942   -7.0379951    867.46367  0.021508075  0.020990698           26 
 3362000   0.72055021   -7.0511481    868.01418  0.021515323  0.020984688           47 
 3363000   0.70894921   -7.0533642    869.25957  0.021539785  0.020978685           70 
 3364000   0.70832937   -7.0273389    868.05314  0.021503496  0.020972673           53 
 3365000   0.69678172   -7.0362776    867.57597  0.021485289  0.020966676           83 
 3366000   0.70828204   -7.0245677    867.64193  0.021480539   0.02096066           97 
 3367000   0.69933406   -7.0352129    866.19875   0.02143844  0.020954628           77 
 3368000   0.71191348   -7.0586274     868.5445  0.021490115  0.020948591           34 
 3369000   0.72678062     -7.02421    868.71873  0.021488046  0.020942592           29 
 3370000   0.70052692   -7.0264287    868.59912  0.021478712  0.020936587           60 
 3371000   0.73175601   -7.0306126    868.78866  0.021477026  0.020930571           68 
 3372000   0.71653519   -7.0470636    867.52628  0.021439459  0.020924555           74 
 3373000   0.70593843   -7.0190518    867.32031  0.021428014  0.020918518          105 
 3374000   0.70624908   -7.0378966    866.24816  0.021395183  0.020912464          189 
 3375000   0.70805732   -7.0586038     866.5471  0.021396225  0.020906412          108 
 3376000   0.69309231   -7.0338582    866.46982  0.021387979  0.020900372           90 
 3377000   0.71574215   -7.0419192    866.04615  0.021371191  0.020894293           86 
 3378000   0.72026825   -7.0690043      866.916  0.021386323  0.020888212           71 
 3379000   0.70541556   -7.0405097    867.87285  0.021403592  0.020882151           51 
 3380000   0.71284794   -7.0323672    866.69204  0.021368147  0.020876114           73 
 3381000   0.71157084   -6.9997529    870.08415  0.021445434  0.020870086           78 
 3382000   0.72296746    -7.046865    867.37421  0.021372319  0.020864034           47 
 3383000   0.73765199   -7.0598958    867.18485  0.021361337  0.020857988           59 
 3384000   0.71112929   -7.0378937    866.98355  0.021350068  0.020851925           85 
 3385000    0.7008761   -7.0623436    867.24649  0.021350234   0.02084585           89 
 3386000   0.71483004   -7.0358208    867.47212  0.021349481   0.02083979          111 
 3387000   0.69558562   -7.0349147    867.87555  0.021353104  0.020833743           74 
 3388000   0.70531678   -7.0466943    867.29613  0.021332549  0.020827675           76 
 3389000   0.69845226   -7.0646023    865.80652  0.021289626  0.020821606           73 
 3390000   0.70661591   -7.0565394    866.35561  0.021296844  0.020815529          245 
 3391000   0.71459753   -7.0717156    865.18357  0.021261761  0.020809467          178 
 3392000    0.7127922   -7.0687707    865.72066  0.021268688  0.020803412          175 
 3393000   0.71026854    -7.054478    867.32899   0.02130192  0.020797346           99 
 3394000   0.70183247   -7.0372926    867.66116    0.0213038  0.020791309          115 
 3395000   0.71874476   -7.0750699    864.85135  0.021228555  0.020785266          144 
 3396000   0.70439521   -7.0622611    866.87403  0.021271938  0.020779214          133 
 3397000   0.71436026   -7.0662929    867.80222  0.021288446  0.020773164          133 
 3398000   0.70048623   -7.0566248    867.65035  0.021278457   0.02076712          107 
 3399000   0.71386165    -7.039317    867.91131  0.021278595  0.020761062           79 
 3400000   0.70528425     -7.05073    866.36171  0.021234356  0.020755005          134 
 3401000   0.70358442   -7.0558399    867.10817  0.021246402  0.020748955          173 
 3402000    0.7119121   -7.0483583    867.72488  0.021255264  0.020742885          136 
 3403000   0.70123901   -7.0463405    866.54478  0.021220119  0.020736835           92 
 3404000   0.71269468   -7.0312275    869.37446  0.021283159   0.02073081          116 
 3405000   0.70463407    -7.053368    869.55971  0.021281442  0.020724808           34 
 3406000   0.69513315   -7.0206124    867.12521  0.021215629  0.020718808           80 
 3407000   0.70400582   -7.0359585    868.13469  0.021234094    0.0207128           47 
 3408000    0.6965427   -7.0433978    867.30966  0.021207689  0.020706778           32 
 3409000   0.69261154   -7.0410666    868.21453  0.021223588  0.020700773           62 
 3410000   0.71710052   -7.0234603    869.01276  0.021236871  0.020694754           68 
 3411000   0.70488061   -7.0372143    869.16522   0.02123437   0.02068873           43 
 3412000   0.70509362   -7.0394799    867.94661  0.021198383  0.020682698           43 
 3413000    0.6924776   -7.0591435    867.76385   0.02118771  0.020676664           34 
 3414000   0.69407115   -7.0229749    868.02438  0.021187863  0.020670631           46 
 3415000   0.68316742   -7.0542873    867.32761  0.021164656  0.020664594           47 
 3416000   0.69459402    -7.047064    868.91127  0.021197094   0.02065855           50 
 3417000   0.69789048   -7.0342577    867.04137  0.021145288  0.020652514           40 
 3418000   0.70341306   -7.0540503    868.20371   0.02116744  0.020646483           45 
 3419000   0.70314518   -7.0556006    867.71735  0.021149394   0.02064044           79 
 3420000   0.70813789   -7.0658754    865.05751  0.021078399  0.020634395           40 
 3421000   0.69132294   -7.0515286    867.07572    0.0211214   0.02062836           43 
 3422000   0.69581257    -7.038811    867.71076  0.021130693   0.02062232           59 
 3423000   0.71068507   -7.0461436    866.32902  0.021090881  0.020616257           92 
 3424000   0.70851038   -7.0541944    868.17017  0.021129531  0.020610204          104 
 3425000   0.70506622   -7.0337094    867.88427  0.021116406  0.020604158           64 
 3426000   0.69496063   -7.0533422    868.44053  0.021123772  0.020598111           50 
 3427000   0.70901321   -7.0795232    868.18164  0.021111313  0.020592068           83 
 3428000   0.71373637   -7.0654899     867.1778  0.021080752   0.02058604           69 
 3429000   0.69345289   -7.0650363    866.07283   0.02104775  0.020580004           85 
 3430000   0.70847619   -7.0432968    866.94689   0.02106285  0.020573972           72 
 3431000    0.6929474   -7.0780607    865.92921  0.021031993  0.020567935           50 
 3432000   0.71542547     -7.06733    867.34251  0.021060181  0.020561882           88 
 3433000   0.69995587   -7.0667366    867.35165  0.021054269  0.020555816          106 
 3434000   0.71749228   -7.0727129    867.01058  0.021039861  0.020549762           42 
 3435000   0.70441112   -7.0426558    867.41467  0.021043539  0.020543695           57 
 3436000   0.68648299   -7.0637797    867.79295  0.021046589  0.020537639          103 
 3437000   0.70566556   -7.0430391    867.70147  0.021038247  0.020531587           96 
 3438000   0.69354529   -7.0632702     867.9013  0.021036972  0.020525561          110 
 3439000   0.70708722   -7.0770357     869.2135  0.021062652  0.020519521          101 
 3440000   0.69795877   -7.0688127    866.87752   0.02099994  0.020513464           90 
 3441000   0.69297875   -7.0514353    865.18265  0.020952791  0.020507396           80 
 3442000   0.70978306   -7.0363027    864.89451  0.020939728  0.020501313           91 
 3443000   0.71250218   -7.0613198    866.20278  0.020965311  0.020495234          121 
 3444000   0.70014598   -7.0746149    865.44482  0.020940883   0.02048914          139 
 3445000   0.69475636   -7.0490284     870.1948  0.021049705  0.020483084          191 
 3446000   0.69751497   -7.0802149    867.09298  0.020968586  0.020477027           84 
 3447000   0.69036879   -7.0446907    866.63629  0.020951462  0.020470968          121 
 3448000   0.70183956    -7.091106    868.26978  0.020984865   0.02046491          150 
 3449000   0.70599412   -7.0739646    867.73698  0.020965908  0.020458843           71 
 3450000   0.70692866   -7.0637654    868.70453  0.020983201  0.020452781           66 
 3451000   0.70465671   -7.0456888     866.2776  0.020918516  0.020446731           85 
 3452000   0.70510029   -7.0670597    867.52093  0.020942471  0.020440668           67 
 3453000   0.69175867   -7.0792913    865.44416  0.020886286  0.020434588           83 
 3454000    0.6978487   -7.0537544    867.27714  0.020924463  0.020428509           31 
 3455000   0.68496941   -7.0763198    866.02381  0.020888177  0.020422436           52 
 3456000   0.70495731   -7.0648526    866.65256  0.020897294  0.020416354           39 
 3457000   0.69991053   -7.0512485    867.76138  0.020917978  0.020410289           18 
 3458000    0.6982909   -7.0547778    867.91212  0.020915561  0.020404248           30 
 3459000   0.71113916   -7.0444655    866.65846  0.020879312  0.020398191           22 
 3460000   0.71342803    -7.041935    868.25146  0.020911644  0.020392112           77 
 3461000   0.71072611   -7.0646877    866.81552  0.020871028   0.02038603           98 
 3462000   0.69842529   -7.0818161    867.08973    0.0208716  0.020379935           29 
 3463000   0.69832342   -7.0501654    868.11069  0.020890141  0.020373868           39 
 3464000   0.69111063   -7.0730802    868.72692  0.020898935    0.0203678           64 
 3465000   0.68862118   -7.0704864    868.01549  0.020875793  0.020361731           41 
 3466000   0.68988547   -7.0742981    865.65225  0.020812951  0.020355649           83 
 3467000   0.69565143    -7.065399    865.94084  0.020813884   0.02034957           71 
 3468000   0.69846039   -7.0553095    868.59763  0.020871723  0.020343518           52 
 3469000   0.70487258   -7.0706045    867.17036   0.02083142  0.020337457           37 
 3470000   0.71693887   -7.0507538    868.85856   0.02086596  0.020331411           41 
 3471000   0.69614572    -7.081232    867.43895  0.020825866  0.020325359           33 
 3472000   0.68897395   -7.0557893    867.33818  0.020817449    0.0203193           33 
 3473000   0.68058685   -7.0515299    869.89914  0.020872904  0.020313261           21 
 3474000   0.67425733    -7.065057    868.10743  0.020823916  0.020307244           36 
 3475000   0.70556236   -7.0514542    867.74341  0.020809194  0.020301194           31 
 3476000    0.6812331   -7.0920775    866.26306  0.020767718  0.020295139           75 
 3477000   0.69937559   -7.0632584    866.44339  0.020766067  0.020289082           48 
 3478000   0.70056756   -7.0672882    864.88282  0.020722705  0.020283013           39 
 3479000   0.68528528   -7.0603919     865.0356  0.020720408   0.02027695           57 
 3480000   0.70483568   -7.0707139    866.76326  0.020755825  0.020270869           51 
 3481000   0.69176209      -7.0762    867.13103  0.020758667  0.020264817           96 
 3482000   0.70882744   -7.0826173    866.71252  0.020742689  0.020258751          138 
 3483000   0.69366788   -7.0768605    866.71744  0.020736851  0.020252691          163 
 3484000   0.68129721   -7.0822339    866.31348  0.020721237  0.020246618          168 
 3485000   0.70272627     -7.07154    867.39387  0.020741126  0.020240562          177 
 3486000   0.69173469   -7.0609963       865.07  0.020679623   0.02023452          158 
 3487000   0.69666037   -7.0888083    867.50913  0.020731984  0.020228461          192 
 3488000   0.68910066   -7.0804027      864.212  0.020647267  0.020222398          199 
 3489000   0.69590222   -7.0720251    867.30349  0.020715188  0.020216329          227 
 3490000   0.67316593   -7.0816371    868.61726  0.020740622  0.020210274          210 
 3491000   0.69620504   -7.0741478    867.81808  0.020715604  0.020204221          187 
 3492000   0.70036416   -7.1010893    866.21722  0.020671469  0.020198164          186 
 3493000   0.70046069   -7.0885713     866.2015  0.020665176  0.020192088          176 
 3494000   0.70816166    -7.098911    867.75876  0.020696402  0.020186027          180 
 3495000   0.67511844   -7.1043207    864.79083  0.020619714   0.02017996          129 
 3496000   0.69524561   -7.1050053    866.70444  0.020659431  0.020173898          167 
 3497000   0.68222758    -7.084636    866.31801  0.020644314   0.02016785          223 
 3498000   0.69235604   -7.0754541    866.60184  0.020645174  0.020161812          175 
 3499000   0.67313399   -7.0862049    866.93216  0.020647141   0.02015576          177 
 3500000   0.69891091   -7.0902621    867.69191  0.020659331  0.020149725          196 
 3501000   0.68732473   -7.0758603    867.28645  0.020643779  0.020143686          132 
 3502000   0.69575548   -7.0861734    867.80976  0.020650337   0.02013762           93 
 3503000   0.68272344   -7.0747591    867.35586  0.020633644  0.020131574          135 
 3504000   0.68112373   -7.0660517    867.26183  0.020625519  0.020125535          132 
 3505000    0.6965361   -7.0901452    867.29651  0.020620459  0.020119495          142 
 3506000   0.70350178    -7.076923    867.91929   0.02062938  0.020113469          143 
 3507000   0.67855812   -7.0651083    867.41983   0.02061163   0.02010744          129 
 3508000    0.6814599   -7.0697112     868.1544  0.020623204  0.020101419          173 
 3509000   0.69636479   -7.1005444    868.18173  0.020617976  0.020095402          135 
 3510000   0.70043385   -7.0707323     867.1022  0.020586472  0.020089408          122 
 3511000   0.69269714   -7.0888646    868.86657  0.020622486   0.02008339          111 
 3512000   0.69660446   -7.0708407    867.53603  0.020585043  0.020077386          109 
 3513000   0.68273947   -7.0766721    868.20203  0.020594981   0.02007138           94 
 3514000   0.68923029   -7.0689862    869.95946  0.020630797  0.020065403          100 
 3515000   0.69294248   -7.1038163    866.80601  0.020550166  0.020059414          118 
 3516000   0.68996187    -7.077955    869.10386  0.020598783  0.020053408          111 
 3517000   0.68619784   -7.0978181    867.41312  0.020552865  0.020047397          133 
 3518000   0.68615526   -7.1150223    868.44461  0.020571456  0.020041381          112 
 3519000   0.69169943    -7.089815    868.61313  0.020569602   0.02003538          122 
 3520000   0.70290795   -7.0864058    868.23569  0.020554822  0.020029368          102 
 3521000   0.67403875   -7.0886731    869.09777  0.020569388   0.02002337          120 
 3522000   0.68952231   -7.0801319    868.84837  0.020557646  0.020017368           77 
 3523000   0.69325126   -7.0801657    867.47722  0.020519378  0.020011384          187 
 3524000    0.6870325   -7.0871418     867.7775  0.020520656  0.020005421          181 
 3525000   0.67198749   -7.0772278     868.8732  0.020540738  0.019999449          204 
 3526000   0.68743561   -7.0981033    867.88637  0.020511589  0.019993464          200 
 3527000   0.69012042   -7.0685084    868.29053  0.020515323  0.019987478          175 
 3528000   0.70164413   -7.0914881    869.68745  0.020542504  0.019981504          208 
 3529000   0.68416249   -7.0953362     869.3309  0.020528264  0.019975534          162 
 3530000    0.6828064   -7.0939772    866.86399  0.020464211  0.019969574          138 
 3531000    0.6796334    -7.057085    868.04916  0.020486386  0.019963597          171 
 3532000   0.69399137   -7.1044644     866.4426  0.020442681  0.019957613          167 
 3533000   0.68322807   -7.1209409    867.00769  0.020450224  0.019951628          177 
 3534000   0.69390931   -7.0970501    868.86697   0.02048828  0.019945643          181 
 3535000   0.69546379    -7.101081    866.60429  0.020429144  0.019939644          187 
 3536000   0.68361501   -7.1153522    870.07813  0.020505235  0.019933639          174 
 3537000    0.6774176   -7.1045888     868.9444  0.020472727  0.019927657          208 
 3538000   0.67978169   -7.1102503    865.39951  0.020383444  0.019921673          171 
 3539000    0.6889186   -7.1216581    866.61588  0.020406327  0.019915683          257 
 3540000   0.68044093   -7.1239433     866.6934  0.020402387  0.019909694          189 
 3541000   0.69952182   -7.0885903    867.90705  0.020425187  0.019903698          245 
 3542000   0.69861236   -7.1055654    867.58759  0.020411904   0.01989771          209 
 3543000   0.68833627   -7.1119565    868.71274  0.020432608  0.019891732          238 
 3544000   0.67879158   -7.1049485    870.47384  0.020468252  0.019885758          283 
 3545000   0.66771387   -7.1241794    867.70653  0.020397427  0.019879758          320 
 3546000   0.66910284   -7.1435098    867.24262  0.020380772  0.019873751          372 
 3547000   0.67828105   -7.1224278    867.83038  0.020388835  0.019867746          432 
 3548000   0.68783242   -7.1011713     866.8262  0.020359503  0.019861757          383 
 3549000   0.67478256   -7.1203994    866.11189  0.020336994  0.019855763          302 
 3550000   0.68485153   -7.1376977    867.96454  0.020374754   0.01984977          351 
 3551000   0.68356224   -7.1127324     866.1169  0.020325657  0.019843751          411 
 3552000   0.69833972   -7.1288967    868.02734  0.020364755  0.019837733          389 
 3553000   0.68903807    -7.119307    867.60344  0.020349081  0.019831712          371 
 3554000   0.67562677   -7.0991257    867.13477  0.020332367  0.019825697          379 
 3555000   0.68814254   -7.1382108    869.31558  0.020377768  0.019819685          450 
 3556000   0.67873075   -7.1387316    867.36195  0.020326255  0.019813684          306 
 3557000    0.6716456   -7.1090537    869.93053  0.020380717  0.019807693          282 
 3558000   0.67404591   -7.1166739    868.84693   0.02034961  0.019801713          313 
 3559000   0.67616535   -7.1352035    867.25221  0.020306552  0.019795729          442 
 3560000    0.6832388   -7.1175706     867.8399  0.020314604  0.019789735          471 
 3561000   0.67179019   -7.1201317    867.76129   0.02030706  0.019783748          388 
 3562000   0.66143843   -7.1346015    867.45973  0.020294304   0.01977774          281 
 3563000   0.68540205   -7.1236994    866.74331  0.020271852  0.019771745          420 
 3564000   0.67758302   -7.1371028    865.34814  0.020233542  0.019765735          452 
 3565000   0.66807344   -7.1220954    866.01715  0.020243505  0.019759728          346 
 3566000   0.67991063   -7.1421374    867.91856  0.020282262  0.019753712          398 
 3567000   0.66727149   -7.1473337    866.32941   0.02023945  0.019747688          467 
 3568000   0.68857079   -7.1301143    866.48536   0.02023742  0.019741677          375 
 3569000    0.6802553   -7.1318336    867.05354  0.020245016   0.01973568          311 
 3570000   0.69848597   -7.1055952    867.31727  0.020245501  0.019729688          581 
 3571000   0.68662964   -7.1457865    867.62445     0.020247  0.019723701          497 
 3572000    0.6811192   -7.1196291    867.23598  0.020232269  0.019717696          438 
 3573000   0.68419136   -7.1177343    866.98145   0.02022067  0.019711717          348 
 3574000   0.68163095   -7.1135498    868.52911  0.020251098  0.019705741          501 
 3575000   0.67441216   -7.1254833    869.41008  0.020265969  0.019699764          422 
 3576000   0.66283411   -7.1468978    867.14897   0.02020761  0.019693794          364 
 3577000   0.66417569   -7.1184311    866.59563   0.02018907    0.0196878          402 
 3578000   0.67685654   -7.1011032    866.74188  0.020186833   0.01968181          348 
 3579000   0.67845303   -7.1053668    868.56028  0.020223533  0.019675844          321 
 3580000   0.68683004   -7.0971557    866.61156  0.020172522  0.019669887          453 
 3581000   0.68166892   -7.1126705    867.84924  0.020195691  0.019663926          360 
 3582000   0.69352597   -7.1515429     866.8038  0.020165731  0.019657945          379 
 3583000   0.69777376   -7.1173804    869.52738  0.020223448  0.019651966          328 
 3584000   0.68911885   -7.1424806    866.88597  0.020156389  0.019645986          401 
 3585000   0.67394264   -7.1279289    868.82348  0.020195804  0.019640019          344 
 3586000   0.68926037   -7.1225821    866.96634  0.020147015  0.019634055          312 
 3587000   0.66265552   -7.1226723      869.449  0.020199075  0.019628073          322 
 3588000   0.66540481   -7.1159034    869.00066  0.020183033  0.019622108          336 
 3589000   0.68121469   -7.1225743    869.30307  0.020184431  0.019616149          364 
 3590000   0.65331839   -7.1352362    868.11112   0.02015114    0.0196102          368 
 3591000   0.67386958   -7.1111412    867.77191  0.020137657  0.019604261          397 
 3592000   0.67242935   -7.1097008    868.45953  0.020148003  0.019598316          328 
 3593000   0.67816287   -7.1004453    868.69978  0.020147968  0.019592393          355 
 3594000   0.67583405   -7.0824601    870.10049   0.02017484  0.019586483          345 
 3595000   0.67127872   -7.1043865    870.00811  0.020167087  0.019580569          359 
 3596000   0.66402848   -7.1082417    869.59712  0.020151954  0.019574655          344 
 3597000   0.67696332   -7.1306809    869.49463  0.020143977  0.019568732          408 
 3598000   0.67426175   -7.1120249    869.03923  0.020127831  0.019562816          368 
 3599000   0.68477647   -7.1432845    868.63396  0.020112854   0.01955687          360 
 3600000   0.68217859   -7.1727009    867.25164  0.020075269  0.019550934          433 
 3601000   0.66755514    -7.127338    867.66469  0.020079253  0.019544997          501 
 3602000   0.68072239    -7.139494    867.00592  0.020058438  0.019539054          479 
 3603000   0.67554742    -7.140391    868.28407  0.020082433  0.019533114          422 
 3604000   0.66279095   -7.1613251    868.36913  0.020078827  0.019527174          438 
 3605000    0.6774059   -7.1531651    868.43301  0.020074734  0.019521233          493 
 3606000   0.67391083   -7.1236846    868.74629  0.020076407  0.019515295          434 
 3607000   0.66818844   -7.1283521    868.67324  0.020069153  0.019509363          450 
 3608000   0.67582115    -7.144555    867.64627  0.020039871  0.019503438          501 
 3609000     0.681912   -7.1491318     869.0458  0.020066634  0.019497507          449 
 3610000   0.67515946   -7.1466354    868.67421  0.020052498  0.019491591          447 
 3611000   0.67783593   -7.1445405    866.11891  0.019987974  0.019485664          524 
 3612000   0.66095819   -7.1614491    867.53856  0.020015194  0.019479717          478 
 3613000   0.67059154   -7.1314657    869.65975  0.020058579  0.019473784          535 
 3614000   0.67184268   -7.1301548    867.00754  0.019991873  0.019467862          516 
 3615000    0.6731079   -7.1645697    867.55057  0.019998861  0.019461935          424 
 3616000   0.65617498   -7.1459072    867.99883   0.02000366  0.019456007          558 
 3617000   0.66577694   -7.1618005    867.54704  0.019987721  0.019450082          516 
 3618000   0.66235348   -7.1405839    868.53468  0.020004945  0.019444153          443 
 3619000   0.67175368   -7.1482331     868.2925   0.01999384  0.019438234          470 
 3620000   0.68617239    -7.143831    866.82362  0.019954503  0.019432306          501 
 3621000   0.67048555   -7.1602201    869.36309  0.020007435  0.019426388          393 
 3622000   0.67808095   -7.1435608    867.14826  0.019950954  0.019420446          516 
 3623000   0.66848291   -7.1308257    867.03511  0.019942845  0.019414528          410 
 3624000   0.67910333   -7.1609234    869.31559  0.019989781  0.019408617          533 
 3625000   0.65148323   -7.1302198     869.0326  0.019977761  0.019402696          558 
 3626000   0.68372249   -7.1537728    868.27989  0.019954952  0.019396787          515 
 3627000   0.67023147   -7.1556576    868.65613  0.019958095  0.019390879          481 
 3628000   0.66491812   -7.1601313    866.39685    0.0199007  0.019384951          539 
 3629000    0.6832698   -7.1520617    867.96835  0.019931302  0.019379042          540 
 3630000   0.66674478   -7.1570637    867.73896  0.019920546  0.019373118          563 
 3631000   0.66214604   -7.1521588    867.93442  0.019919545  0.019367199          626 
 3632000   0.66029634   -7.1494153    867.26571  0.019898718  0.019361291          616 
 3633000   0.67062771   -7.1741258    868.87869  0.019930239  0.019355375          668 
 3634000   0.68237129   -7.1284158    868.92717  0.019925866  0.019349463          690 
 3635000   0.66852672   -7.1683683    869.22903  0.019927305   0.01934354          748 
 3636000   0.67819832   -7.1501031    868.48675  0.019904812  0.019337607          753 
 3637000   0.67284287   -7.1644133    868.28899  0.019894808  0.019331677          749 
 3638000   0.66212958   -7.1516966    867.59953  0.019873546  0.019325759          716 
 3639000   0.66167407   -7.1541493    869.14909   0.01990357  0.019319857          730 
 3640000   0.66597197   -7.1686428    867.18554  0.019853149  0.019313943          820 
 3641000   0.67312388   -7.1541434    867.40647  0.019852753  0.019308027          830 
 3642000   0.67719556   -7.1590788    867.42452  0.019847715  0.019302108          892 
 3643000   0.67658703   -7.1523669    867.70482  0.019848678  0.019296193          867 
 3644000   0.66464271   -7.1706732    867.63364  0.019841604  0.019290284          807 
 3645000   0.66704793   -7.2262119    866.58487  0.019812183  0.019284364          908 
 3646000   0.66345198   -7.1725553    868.51645  0.019850897  0.019278446         1036 
 3647000   0.65191266   -7.1859429    866.76075  0.019805337  0.019272522          920 
 3648000   0.66397823    -7.186221    866.26933  0.019788682  0.019266598          989 
 3649000   0.67503444   -7.1839594    866.40922  0.019786453  0.019260663          912 
 3650000   0.66722157   -7.1682802    867.16606  0.019798312  0.019254736          805 
 3651000   0.67604008   -7.1822914    866.22607  0.019771434  0.019248797          843 
 3652000   0.68141019   -7.1774401    865.51028  0.019749687  0.019242842          973 
 3653000   0.66909044   -7.2180323    866.76551  0.019772915  0.019236882          989 
 3654000   0.68843053   -7.2150066    867.20044  0.019777423  0.019230924         1008 
 3655000   0.66459883   -7.2036221    866.23368   0.01974997  0.019224963          993 
 3656000   0.66038888   -7.1992921    867.57975   0.01977525  0.019218998          959 
 3657000   0.66330878   -7.2007709    866.17383  0.019737805  0.019213038          961 
 3658000   0.66584413     -7.20044    866.84209  0.019747633  0.019207084         1028 
 3659000    0.6641119   -7.2099736    865.83086  0.019719205   0.01920112          980 
 3660000   0.66223396     -7.19954    867.39444  0.019749418  0.019195151          978 
 3661000   0.65916311   -7.2169328    867.61765  0.019749104  0.019189203          986 
 3662000   0.67331964   -7.2144305     865.9525  0.019705819   0.01918325         1022 
 3663000   0.65954713   -7.2142828    866.00097  0.019701542  0.019177297         1013 
 3664000   0.66336016   -7.2006354    866.55054  0.019708664  0.019171359          940 
 3665000   0.66477035   -7.1677101    866.96682  0.019712752  0.019165429          957 
 3666000   0.65735044   -7.1856115    866.35131  0.019693383  0.019159498          995 
 3667000   0.65575776   -7.1843268    865.38044   0.01966595  0.019153569          941 
 3668000   0.67165038   -7.1807572    867.38732  0.019706182  0.019147637          931 
 3669000   0.66708079   -7.1983761    868.10664  0.019717149  0.019141699         1032 
 3670000   0.65148865   -7.2103667    866.96109  0.019685765  0.019135772         1049 
 3671000   0.66592636    -7.206068    867.37271  0.019689746  0.019129856          883 
 3672000   0.65677414     -7.19476    864.51858  0.019619612  0.019123942          981 
 3673000   0.66839964   -7.2009943    868.63085   0.01970757  0.019118025         1040 
 3674000   0.66915178   -7.2142859    867.01627  0.019665584  0.019112103         1009 
 3675000   0.67304316    -7.226324    867.21247  0.019664682  0.019106176         1069 
 3676000    0.6539119   -7.2088545    865.65534  0.019624033  0.019100237         1051 
 3677000    0.6703068    -7.206137    867.19744  0.019653645  0.019094318         1072 
 3678000   0.65406668   -7.1989342    867.64418  0.019658423  0.019088399         1008 
 3679000   0.67693818   -7.2211957    867.00946  0.019638703  0.019082482         1120 
 3680000   0.65910854   -7.2241606       865.51  0.019599411  0.019076554         1101 
 3681000   0.65485916   -7.2051083    866.75465  0.019622264  0.019070624         1111 
 3682000   0.66374386   -7.2173711    866.74227  0.019616655  0.019064703         1057 
 3683000   0.65257271   -7.2233844    867.51517  0.019628816  0.019058797          994 
 3684000   0.65189003   -7.2185575    866.32593  0.019596587  0.019052885         1104 
 3685000   0.65916439   -7.2443921    866.08973  0.019585928  0.019046956         1135 
 3686000   0.64848077   -7.2170918    866.19846  0.019583072  0.019041033         1113 
 3687000    0.6686578   -7.2020653    865.86356  0.019570192  0.019035117         1176 
 3688000    0.6558454   -7.2251508    865.61425  0.019559252  0.019029193         1190 
 3689000   0.65611749   -7.2392571    868.80655  0.019626063  0.019023257         1270 
 3690000   0.65569997   -7.2298009    866.70478  0.019573279  0.019017326         1225 
 3691000   0.65447142   -7.2314486    864.24051  0.019512339    0.0190114         1288 
 3692000   0.65120291   -7.2330639    865.43468  0.019534008  0.019005481         1319 
 3693000   0.67824116   -7.2469626    865.53207  0.019530916  0.018999556         1309 
 3694000   0.65924961   -7.2512531    864.22285  0.019496094  0.018993621         1355 
 3695000   0.67010503   -7.2548752     865.7036  0.019524213  0.018987687         1271 
 3696000    0.6641678   -7.1984688    864.94649   0.01950186   0.01898175         1254 
 3697000   0.66802648   -7.2349194    865.69533  0.019513464  0.018975823         1393 
 3698000   0.65132928   -7.2611456    867.23291  0.019542837   0.01896989         1387 
 3699000   0.65408612   -7.2047496    864.94493  0.019486008  0.018963954         1327 
 3700000    0.6521112   -7.2236091    862.80867  0.019432628  0.018958014         1384 
 3701000   0.66055056   -7.2411909    864.50143  0.019465492  0.018952078         1391 
 3702000    0.6685355    -7.235632    867.94914  0.019537843  0.018946144         1404 
 3703000   0.66010082   -7.2714427    865.08894    0.0194682  0.018940216         1415 
 3704000   0.65259668    -7.258176    864.69971  0.019454187  0.018934279         1426 
 3705000   0.65394149   -7.2457661    865.42828  0.019465323   0.01892835         1388 
 3706000   0.65602143   -7.2503387    863.33029  0.019412896  0.018922409         1435 
 3707000   0.66122513   -7.2342617    865.10357  0.019447522  0.018916468         1394 
 3708000    0.6517436   -7.2732526    863.35025  0.019402873  0.018910516         1541 
 3709000   0.65704926   -7.2500108    864.92073  0.019432927  0.018904566         1465 
 3710000   0.66478969   -7.2590076    866.43873  0.019461786  0.018898625         1453 
 3711000   0.64727955   -7.2371504    863.80842  0.019397477  0.018892679         1433 
 3712000   0.65728929   -7.2686032    865.23064  0.019424179  0.018886729         1589 
 3713000   0.66738468   -7.2590497    862.82398  0.019364934  0.018880766         1608 
 3714000   0.64994974   -7.2844778    863.61131  0.019377385  0.018874791         1584 
 3715000   0.65361344   -7.2770142    864.51279  0.019392391  0.018868827         1540 
 3716000   0.65041825   -7.2557899    864.52267  0.019387394  0.018862867         1565 
 3717000   0.65088052   -7.2644363    863.58711  0.019361203  0.018856911         1690 
 3718000   0.65311038   -7.2751721    863.88551  0.019362684  0.018850952         1701 
 3719000   0.65864025   -7.2914532    863.85001  0.019356682   0.01884499         1656 
 3720000   0.67296908   -7.2570449    864.08087   0.01935665  0.018839029         1769 
 3721000   0.65657677   -7.2731049    864.03537  0.019350429  0.018833057         1754 
 3722000   0.65461592   -7.2665774    861.57008  0.019290034   0.01882709         1792 
 3723000   0.64968925   -7.2629663    863.28769  0.019323299  0.018821119         1798 
 3724000    0.6670057   -7.2997341    863.56594  0.019324336  0.018815148         1806 
 3725000   0.65440345   -7.2996208    863.81321   0.01932468  0.018809167         1716 
 3726000   0.65377414   -7.2955859    864.34952  0.019331489  0.018803201         1818 
 3727000   0.65914102   -7.2874664     862.0465  0.019274808  0.018797225         1824 
 3728000   0.65111053   -7.2939924    861.65552  0.019260898  0.018791255         1837 
 3729000   0.65779369   -7.2915547    862.79853  0.019281276  0.018785287         1882 
 3730000   0.66560204     -7.32745     861.3837  0.019244497  0.018779302         1919 
 3731000   0.65294131   -7.3043912    860.90737    0.0192287  0.018773307         1849 
 3732000   0.64914609   -7.3023598     862.0519  0.019249105  0.018767313         1966 
 3733000   0.63861192   -7.2918964    863.57695  0.019277993  0.018761324         1934 
 3734000   0.66553431   -7.3025792    863.89845  0.019280005   0.01875534         1932 
 3735000   0.65775513   -7.2960297    862.70785  0.019248279  0.018749348         1905 
 3736000   0.65908198   -7.2944126     862.0455  0.019228352  0.018743354         1916 
 3737000   0.65801078   -7.3236793    863.26346  0.019250367  0.018737364         1982 
 3738000   0.65918669   -7.3049242    863.01318  0.019239638  0.018731364         1959 
 3739000   0.64960446   -7.2993026    862.16267  0.019215536  0.018725363         2019 
 3740000   0.66234229   -7.3251517    862.11186  0.019209266  0.018719349         1935 
 3741000   0.65131706   -7.3192734    861.68883  0.019194708  0.018713342         2001 
 3742000   0.65067242   -7.3107332    860.66871  0.019166861  0.018707336         1968 
 3743000   0.66306636   -7.3190672    861.27029  0.019175133   0.01870133         1888 
 3744000    0.6534818   -7.3429745    860.84351  0.019160513  0.018695328         2003 
 3745000   0.64638534   -7.3454989    860.83519  0.019155211  0.018689332         1963 
 3746000   0.66245857    -7.316781    861.43297  0.019163396  0.018683329         1982 
 3747000   0.66644195   -7.3368057    860.97572  0.019148112  0.018677322         2036 
 3748000   0.65635672   -7.3185356    860.60067  0.019134664  0.018671323         1955 
 3749000   0.65169658   -7.3281528    861.90886  0.019158639  0.018665319         2055 
 3750000   0.64576809   -7.3110501    862.14756  0.019158835   0.01865932         2099 
 3751000   0.65866728   -7.3395168    860.89914  0.019125992  0.018653312         2132 
 3752000   0.64304492     -7.35405    863.10268  0.019169836  0.018647305         2084 
 3753000   0.66089228   -7.3366711    861.06403  0.019119461  0.018641296         2027 
 3754000    0.6483395   -7.3414359    861.05088  0.019114076  0.018635288         2106 
 3755000   0.66626026   -7.3399814    861.73414  0.019124149  0.018629278         2105 
 3756000   0.64143863   -7.3654862    861.48836  0.019113604  0.018623259         2056 
 3757000   0.64224713   -7.3519897    861.96761  0.019119147  0.018617239         2188 
 3758000   0.65547413   -7.3155224    861.82361  0.019110866  0.018611231         2150 
 3759000   0.66105219   -7.3158376    861.45626  0.019097638  0.018605224         2165 
 3760000    0.6470441    -7.317646    860.86449  0.019079444  0.018599224         2127 
 3761000   0.65748345   -7.3242171    858.96862  0.019032363  0.018593217         2107 
 3762000   0.65089752   -7.3381172    861.39943   0.01908115  0.018587223         2097 
 3763000   0.64511441   -7.3319266    862.85713  0.019108361  0.018581222         2091 
 3764000   0.64974185   -7.3486503    859.97376  0.019039447  0.018575224         2188 
 3765000     0.661797   -7.3221825    862.02572  0.019079808   0.01856923         2208 
 3766000   0.64902365   -7.3554875    862.89479  0.019093972  0.018563236         2231 
 3767000   0.63377669   -7.3647056    861.79148  0.019064496  0.018557234         2245 
 3768000   0.64598948   -7.3507496    860.60084  0.019033104  0.018551234         2222 
 3769000   0.64175472   -7.3589465    859.11949  0.018995301  0.018545228         2216 
 3770000   0.64105956   -7.3282736    861.51178  0.019043143  0.018539225         2284 
 3771000   0.64368346   -7.3371044    860.58761   0.01901767  0.018533226         2281 
 3772000   0.64174319   -7.3374925    860.66122  0.019014255  0.018527223         2165 
 3773000   0.63929532   -7.3525863    860.60493  0.019007972  0.018521226         2208 
 3774000    0.6470789   -7.3413482    859.42521  0.018976886  0.018515231         2212 
 3775000   0.63693948   -7.3373998    860.75459  0.019001205  0.018509241         2188 
 3776000   0.64997733   -7.3523017    861.02134   0.01900206   0.01850324         2318 
 3777000   0.64024901   -7.3412708    861.27826  0.019002698  0.018497242         2330 
 3778000   0.66716573   -7.3467896    859.17106  0.018951188  0.018491255         2329 
 3779000   0.65079755   -7.3348991    860.49527  0.018975374  0.018485272         2311 
 3780000   0.65910224   -7.3584073    859.80586  0.018955156  0.018479286         2345 
 3781000   0.62914289   -7.3534267    859.99895  0.018954398  0.018473284         2368 
 3782000   0.65529709   -7.3462047    860.09874  0.018951585  0.018467282         2303 
 3783000    0.6371574   -7.3457847    860.50014  0.018955418  0.018461281         2345 
 3784000    0.6510982   -7.3865855    860.36826  0.018947504  0.018455277         2348 
 3785000   0.66541196   -7.3478431    861.31354   0.01896331  0.018449273         2399 
 3786000   0.64677018    -7.377515    859.21175  0.018912039  0.018443283         2390 
 3787000   0.65239098   -7.3546768    861.75301  0.018962966  0.018437294         2359 
 3788000   0.65879089   -7.3591441    862.00614  0.018963528  0.018431306         2324 
 3789000   0.63809559   -7.3858068    860.69308  0.018929645  0.018425318         2384 
 3790000   0.65639224   -7.3648174    861.45391  0.018941379  0.018419331         2333 
 3791000   0.64068261    -7.375661    859.83485  0.018900793  0.018413338         2391 
 3792000   0.65400568   -7.3730657    859.59313  0.018890496   0.01840734         2298 
 3793000   0.64897857   -7.3777458    858.12397  0.018853238   0.01840134         2359 
 3794000    0.6329325   -7.3710052    859.46208   0.01887766  0.018395332         2320 
 3795000   0.64414324   -7.3807834    860.43542  0.018894058  0.018389327         2330 
 3796000   0.63968723    -7.386696    859.59052  0.018870533  0.018383328         2354 
 3797000   0.64039924   -7.3661091    861.28757  0.018902809  0.018377331         2333 
 3798000   0.63646726   -7.3634484    860.97615  0.018890999   0.01837134         2363 
 3799000   0.64431854   -7.3779261    859.36559  0.018850697  0.018365349         2284 
 3800000    0.6470556   -7.3800968     859.3172  0.018844675  0.018359357         2367 
 3801000   0.62909201   -7.3925242    859.98155  0.018854283  0.018353369         2405 
 3802000   0.63523665   -7.3482244    860.16363  0.018853315   0.01834738         2301 
 3803000   0.64734931   -7.3675945    860.03768  0.018845597  0.018341385         2405 
 3804000   0.64524237   -7.3858874    859.48148  0.018828459  0.018335399         2317 
 3805000    0.6387655   -7.3839016    857.49182  0.018779935  0.018329407         2435 
 3806000   0.64306834   -7.3701306    859.03833  0.018808862  0.018323416         2387 
 3807000   0.63917946   -7.3721297    858.86083  0.018800036  0.018317426         2405 
 3808000   0.64911017   -7.3775001    859.89677  0.018817769  0.018311439         2390 
 3809000   0.64248741   -7.3802179    858.64561  0.018785456  0.018305446         2346 
 3810000   0.64785859   -7.3820979    858.57539  0.018778989  0.018299462         2364 
 3811000   0.63665333   -7.3908445    859.54463  0.018795256  0.018293478         2388 
 3812000   0.64434928   -7.3624994     859.3139  0.018785281    0.0182875         2399 
 3813000   0.63684849   -7.3763692    859.31228  0.018780319  0.018281523         2352 
 3814000   0.63460398    -7.378512    858.80028  0.018764208  0.018275552         2450 
 3815000   0.65046124   -7.3862642    859.12351   0.01876635   0.01826959         2411 
 3816000   0.65006994   -7.3978045    860.02003   0.01878101  0.018263614         2405 
 3817000   0.63241749   -7.3789084    858.39789  0.018740675  0.018257644         2386 
 3818000   0.63819527   -7.3812478    859.29594  0.018755368  0.018251663         2419 
 3819000   0.64113151   -7.3986292    859.95347  0.018764805  0.018245693         2420 
 3820000   0.64571846   -7.4129997     858.9532  0.018738071  0.018239723         2452 
 3821000   0.63011533   -7.4065833    858.62258  0.018725957  0.018233752         2445 
 3822000   0.62956693   -7.3880298    858.04016  0.018708359  0.018227776         2462 
 3823000    0.6322323   -7.3831123    859.28147  0.018730523  0.018221802         2426 
 3824000   0.65232473   -7.3974155    856.86847   0.01867304   0.01821583         2451 
 3825000   0.63974592   -7.3783108    859.60613  0.018727802  0.018209854         2385 
 3826000   0.62919546    -7.400039    860.16631  0.018735109  0.018203889         2463 
 3827000   0.63336935   -7.3987783    858.16359  0.018686604  0.018197912         2407 
 3828000    0.6284535    -7.391676    859.04327  0.018700872   0.01819194         2422 
 3829000   0.64073225   -7.3979091     858.5788   0.01868588  0.018185973         2401 
 3830000   0.63406304   -7.3799387    858.33286   0.01867565  0.018180009         2431 
 3831000   0.64438193   -7.4092581    858.52098  0.018674867  0.018174037         2435 
 3832000    0.6368678   -7.3977008       858.07  0.018660186  0.018168083         2430 
 3833000   0.65087046    -7.413875    857.99125  0.018653606  0.018162124         2437 
 3834000   0.64102229   -7.3994719      858.284  0.018655103  0.018156169         2467 
 3835000   0.62088325   -7.3965007    858.73117  0.018659956  0.018150216         2459 
 3836000   0.64224643   -7.4247098    858.15217  0.018642513  0.018144251         2463 
 3837000   0.63103133   -7.4023926    859.61279  0.018669377  0.018138299         2416 
 3838000   0.63657636   -7.3983754    859.19466  0.018655434  0.018132349         2425 
 3839000    0.6356265   -7.4290303     859.5201  0.018657639  0.018126396         2386 
 3840000   0.63818234   -7.4072793     858.5134  0.018630933  0.018120451         2448 
 3841000   0.64027895   -7.4006074    858.80771  0.018632468  0.018114506         2427 
 3842000   0.63877723   -7.3952109    858.72616  0.018625849  0.018108564         2466 
 3843000   0.63547318   -7.4050666    859.35753  0.018634694  0.018102616         2447 
 3844000   0.62202729   -7.4052378    858.92946  0.018620566  0.018096678         2489 
 3845000   0.63568807   -7.3994602    857.33793  0.018581229  0.018090748         2514 
 3846000   0.64624599   -7.4199247    859.59548  0.018625314  0.018084802         2493 
 3847000   0.64095533   -7.4290688    859.99152  0.018629051  0.018078879         2443 
 3848000   0.63875635   -7.4015938    859.66517  0.018617143  0.018072945         2472 
 3849000   0.63552421    -7.396588    859.02451  0.018598435  0.018067008         2556 
 3850000   0.63399877   -7.4136919    858.67982  0.018586143  0.018061077         2514 
 3851000   0.63571084   -7.4218168    857.78999  0.018562062  0.018055139         2480 
 3852000   0.64960948   -7.4169668    858.27034  0.018567635  0.018049205         2581 
 3853000   0.63395401   -7.4110659      857.921   0.01855526  0.018043267         2559 
 3854000   0.63403418   -7.3832568    859.93974  0.018594096  0.018037334         2590 
 3855000   0.64166812   -7.4080986    857.54709  0.018537551  0.018031401         2588 
 3856000   0.64432029   -7.4237063    858.86162  0.018561152   0.01802547         2600 
 3857000   0.63451404   -7.4269923    858.49653  0.018548452  0.018019543         2683 
 3858000   0.63692247   -7.4206097    856.80577  0.018507123  0.018013612         2702 
 3859000   0.62755483   -7.4009259    858.93858  0.018548384  0.018007682         2666 
 3860000   0.62849729   -7.4258815     858.2024  0.018527686  0.018001757         2666 
 3861000   0.63293609   -7.4142055    859.22076  0.018544867  0.017995835         2660 
 3862000   0.63305452   -7.4042134    858.42041  0.018522795  0.017989919         2690 
 3863000   0.62914794   -7.3877211    857.47829  0.018497676  0.017984007         2677 
 3864000   0.63358753   -7.4058329    858.84884  0.018522447  0.017978089         2704 
 3865000   0.63326717   -7.4192952    856.70882  0.018471514  0.017972177         2649 
 3866000   0.64032915   -7.4194657     858.6154  0.018507833   0.01796627         2662 
 3867000   0.63254969   -7.4337501    858.63895  0.018503555  0.017960357         2716 
 3868000   0.63497498     -7.42884    858.20592  0.018489442  0.017954441         2682 
 3869000   0.65443699   -7.3964096    857.49086  0.018469261  0.017948538         2682 
 3870000    0.6289915   -7.4128134    857.38903  0.018462296  0.017942637         2740 
 3871000   0.64099441   -7.4377694    857.52493  0.018460452  0.017936717         2731 
 3872000   0.65394912   -7.4273547    859.13951  0.018490434  0.017930804         2739 
 3873000   0.63163078   -7.4165339    858.81894  0.018478762  0.017924892         2681 
 3874000   0.63024935   -7.4326046    857.29506  0.018441212  0.017918982         2710 
 3875000    0.6184697   -7.4305639    856.79825  0.018425769  0.017913078         2713 
 3876000    0.6391226   -7.4153733    857.62622  0.018438816  0.017907169         2655 
 3877000   0.63519656   -7.4203658    856.64045  0.018412872  0.017901263         2766 
 3878000   0.63542099   -7.4302203    858.23892  0.018442473  0.017895348         2747 
 3879000   0.62135299   -7.4099289    857.72795  0.018426741  0.017889445         2671 
 3880000   0.62257828    -7.447329    857.35891  0.018414066  0.017883544         2741 
 3881000   0.62295589   -7.4232691    858.17501  0.018426845  0.017877646         2713 
 3882000   0.63380884   -7.4168136    857.47338  0.018407036  0.017871747         2729 
 3883000   0.63958653   -7.4421628     856.5823  0.018383172  0.017865851         2721 
 3884000   0.64526474   -7.4375847    857.45936  0.018397257  0.017859945         2701 
 3885000   0.62768634   -7.4429997    856.75649  0.018377445  0.017854052         2797 
 3886000   0.64107226   -7.4263108    857.96356  0.018398601  0.017848157         2719 
 3887000   0.62896129    -7.403486    857.13049  0.018376007  0.017842263         2725 
 3888000   0.63059864   -7.4351362    857.72711  0.018384069  0.017836377         2694 
 3889000   0.62616979   -7.4384256    857.01179  0.018364014  0.017830501         2728 
 3890000   0.63060865   -7.4255708    857.25008  0.018364398  0.017824616         2778 
 3891000   0.63191645    -7.446257    857.47888  0.018364578  0.017818731         2719 
 3892000   0.62992939   -7.4300562    858.00849  0.018371199  0.017812847         2664 
 3893000   0.62990497   -7.4424823    857.97021  0.018365661  0.017806974         2757 
 3894000   0.61795775   -7.4613823    856.76079  0.018335062  0.017801092         2780 
 3895000   0.62470181    -7.451834    858.07249  0.018358419   0.01779521         2731 
 3896000   0.61618661   -7.4229638    858.06193  0.018353481   0.01778933         2730 
 3897000   0.62513843   -7.4408721    856.67766   0.01831917  0.017783454         2724 
 3898000   0.60963879   -7.4226935    859.23452  0.018369132  0.017777576         2678 
 3899000   0.62291328   -7.4348659    857.85668  0.018334972    0.0177717         2761 
 3900000   0.63685019   -7.4252089    856.42737   0.01829973  0.017765825         2681 
 3901000   0.63371242   -7.4231388    856.63232  0.018299417   0.01775996         2787 
 3902000   0.62061911   -7.4325088    856.80875  0.018298495   0.01775409         2719 
 3903000   0.62984045   -7.4585124    857.09597   0.01829994   0.01774822         2744 
 3904000   0.64634993   -7.4168592    857.15581  0.018296529  0.017742351         2780 
 3905000   0.62335161   -7.4402314    857.46696  0.018298484  0.017736488         2696 
 3906000   0.62362173   -7.4358129    855.74156  0.018256988   0.01773062         2709 
 3907000   0.61865147   -7.4487041    857.23835  0.018284241  0.017724754         2728 
 3908000   0.63284886    -7.446841    856.32851  0.018260161  0.017718885         2740 
 3909000   0.64150554   -7.4345538    856.11799  0.018251002  0.017713018         2706 
 3910000   0.63299251   -7.4465335    855.77774  0.018239082  0.017707156         2681 
 3911000   0.63539741   -7.4484452    855.62103   0.01823108  0.017701288         2736 
 3912000    0.6225148   -7.4526681    857.38362  0.018263966  0.017695434         2772 
 3913000   0.62350503   -7.4528773    855.92084  0.018228146  0.017689575         2748 
 3914000   0.64617509   -7.4461285    856.51126   0.01823606  0.017683711         2767 
 3915000   0.63961631   -7.4561884    856.80062  0.018237561   0.01767785         2779 
 3916000   0.62777971   -7.4577899      857.166  0.018240679  0.017671985         2758 
 3917000   0.62430568   -7.4627466    857.76682  0.018248805  0.017666126         2761 
 3918000   0.62349891   -7.4242469    857.34154  0.018235102  0.017660264         2698 
 3919000   0.61662847   -7.4392641    857.66652  0.018237359  0.017654417         2697 
 3920000   0.60788993    -7.442311    858.99232  0.018260891  0.017648566         2733 
 3921000   0.63195494   -7.4525802    856.13128  0.018195428  0.017642713         2753 
 3922000   0.61675642   -7.4296535     856.4092  0.018196694  0.017636862         2770 
 3923000   0.63081087   -7.4588528     856.6058  0.018196232  0.017631026         2747 
 3924000   0.64925762   -7.4564356    856.99299  0.018199817  0.017625184         2743 
 3925000   0.62288823   -7.4654264    857.10984  0.018197661  0.017619342         2812 
 3926000   0.61770714   -7.4463334     857.3145   0.01819737  0.017613495         2757 
 3927000   0.63010585    -7.465784    855.89666  0.018162649  0.017607651         2785 
 3928000   0.62833165   -7.4493733    855.52681  0.018150178    0.0176018         2766 
 3929000   0.63528286   -7.4466973    856.60298  0.018168384  0.017595965         2787 
 3930000   0.62936404    -7.457577    857.60875  0.018185088  0.017590127         2782 
 3931000   0.61466583   -7.4583567    855.86507  0.018143498  0.017584288         2781 
 3932000   0.62405415   -7.4572502    858.00814  0.018184303  0.017578448         2749 
 3933000   0.62489144   -7.4580528    857.09888  0.018160414  0.017572609         2727 
 3934000   0.61080533   -7.4745256    857.08841  0.018155575  0.017566768         2761 
 3935000   0.61285109   -7.4583242    855.80739  0.018123833  0.017560927         2783 
 3936000    0.6149367   -7.4616236    855.69582  0.018116866   0.01755509         2778 
 3937000   0.61617598   -7.4640477    856.36469  0.018126422  0.017549255         2771 
 3938000   0.61308372   -7.4649696    855.22459  0.018097693  0.017543414         2804 
 3939000   0.62534188   -7.4709652    856.73441   0.01812504  0.017537582         2753 
 3940000   0.61126397   -7.4747333    855.94471  0.018103738  0.017531747         2789 
 3941000   0.61798911   -7.4546238    856.28081  0.018106251  0.017525907         2782 
 3942000   0.61291389   -7.4641242    855.39198  0.018082868  0.017520076         2833 
 3943000   0.62099027   -7.4569099    855.46076  0.018079735  0.017514245         2748 
 3944000     0.628509   -7.4480831    855.22429  0.018070155   0.01750842         2801 
 3945000   0.62113482   -7.4748235    856.07697  0.018083586  0.017502603         2779 
 3946000   0.61920514   -7.4694486    856.39424  0.018085704  0.017496777         2799 
 3947000   0.62734221    -7.462589    856.32336  0.018079625  0.017490959         2770 
 3948000   0.62120401   -7.4517703    854.83352  0.018043598  0.017485134         2813 
 3949000   0.61425355   -7.4511341    855.96149  0.018062832  0.017479316         2832 
 3950000   0.61863911    -7.471566    855.80439  0.018054945  0.017473495         2850 
 3951000   0.63417741   -7.4788512    854.91553  0.018031628  0.017467686         2798 
 3952000   0.63629996   -7.4770717    856.58225   0.01806221  0.017461877         2783 
 3953000   0.62701115   -7.4770033    855.65036  0.018037996  0.017456073         2826 
 3954000   0.60978006   -7.4510151    856.13261  0.018043597  0.017450267         2718 
 3955000   0.61144645    -7.490921    856.63072  0.018049531  0.017444463         2747 
 3956000   0.62130476   -7.4900241    855.38646  0.018018758   0.01743866         2797 
 3957000   0.62620292   -7.4592067    855.83736    0.0180237  0.017432857         2767 
 3958000   0.60915617   -7.4724339    854.07942  0.017982134  0.017427052         2801 
 3959000   0.60754526   -7.4661323    855.76408  0.018013052  0.017421259         2747 
 3960000   0.60770892   -7.4756516    857.00105  0.018034534   0.01741547         2766 
 3961000   0.61022898   -7.4714584    854.57715  0.017978986  0.017409676         2815 
 3962000   0.61957442   -7.4703916    857.87927  0.018043902  0.017403887         2800 
 3963000   0.62658546   -7.4701377     857.3443    0.0180281  0.017398108         2753 
 3964000    0.6195649   -7.4735512    855.71895  0.017989382   0.01739232         2793 
 3965000    0.6213737   -7.4736156    856.53503  0.018001997   0.01738653         2741 
 3966000   0.60792352   -7.4589727    854.56724  0.017956111  0.017380743         2764 
 3967000   0.60193717   -7.4623074    855.88417  0.017979249  0.017374956         2781 
 3968000   0.61709231   -7.4877865    855.38011  0.017964132  0.017369175         2785 
 3969000    0.6111712   -7.4793537     856.0694  0.017974078  0.017363397         2748 
 3970000   0.61652577   -7.4610458    856.50504  0.017978695  0.017357607         2812 
 3971000   0.63077525   -7.4851284    855.07389  0.017944134  0.017351826         2856 
 3972000   0.61340298   -7.4702956    855.72561   0.01795329  0.017346045         2815 
 3973000   0.61494821   -7.4879749    855.92528  0.017952959  0.017340267         2811 
 3974000   0.61905438   -7.4653624    855.35641  0.017936512  0.017334492         2819 
 3975000   0.62148671   -7.4663391    855.01849  0.017924916  0.017328721         2789 
 3976000   0.61070291   -7.4625756    854.99848  0.017919988  0.017322954         2777 
 3977000   0.62410819     -7.48077    855.24645  0.017920678  0.017317177         2888 
 3978000   0.61110751   -7.4654343    853.85556  0.017887036  0.017311405         2795 
 3979000   0.62330642   -7.4673714    855.15597  0.017909776  0.017305642         2851 
 3980000   0.60645057   -7.4767794    855.93633  0.017921615  0.017299876         2874 
 3981000   0.61659502   -7.4782847    857.21927  0.017943969  0.017294108         2847 
 3982000   0.61867036   -7.4757304     855.8402  0.017910602  0.017288345         2828 
 3983000   0.62083402   -7.4790742    856.03126  0.017910103  0.017282576         2858 
 3984000    0.6144517   -7.4739156    854.68611  0.017877471  0.017276812         2840 
 3985000   0.61297545   -7.4827982     856.0516  0.017901539   0.01727105         2856 
 3986000   0.60730992   -7.4967157    856.30854   0.01790242   0.01726529         2848 
 3987000   0.61569055   -7.4769134    856.24251  0.017896549  0.017259537         2865 
 3988000   0.61645226   -7.4688382    855.79296  0.017882668  0.017253784         2852 
 3989000   0.63296059   -7.4815057    854.45939  0.017850326  0.017248032         2937 
 3990000   0.59943476    -7.487377    854.61571  0.017849117  0.017242277         2889 
 3991000   0.61585918   -7.4676015    854.48781  0.017841974  0.017236528         2888 
 3992000   0.61873089   -7.4840798    855.67844  0.017862359  0.017230783         2888 
 3993000   0.61759766   -7.4802896    856.75598  0.017880373  0.017225035         2896 
 3994000   0.60422031   -7.4605218    855.85392  0.017857076  0.017219288         2923 
 3995000   0.61585288   -7.4914919    856.49477  0.017865974   0.01721355         2871 
 3996000   0.61745067   -7.4789871     854.7739  0.017825615   0.01720781         2849 
 3997000   0.62729665   -7.4880099    855.08567  0.017827656  0.017202073         2836 
 3998000   0.60716807   -7.4858366    855.40815  0.017829918  0.017196337         2779 
 3999000    0.6173188   -7.4770426    854.78683  0.017812512  0.017190594         2867 
 4000000    0.6268812   -7.4745228    853.91227  0.017789839  0.017184857         2848 
 4001000   0.61436048   -7.4766945    855.01717  0.017808406   0.01717913         2837 
 4002000   0.61059691   -7.4923553    855.59905  0.017816072  0.017173408         2827 
 4003000   0.59795707   -7.4649055      854.352  0.017785661  0.017167678         2804 
 4004000   0.59557523   -7.4799216     855.2791  0.017800514   0.01716195         2840 
 4005000   0.61539988   -7.5023814     855.1038  0.017792422  0.017156225         2862 
 4006000   0.61005149   -7.4755425    855.02444   0.01778633  0.017150495         2840 
 4007000   0.61696369    -7.470935    855.46816  0.017791119  0.017144774         2847 
 4008000   0.61232032   -7.4701182    854.19844   0.01776028   0.01713906         2854 
 4009000   0.60147228   -7.4931014    856.10093  0.017795396  0.017133339         2856 
 4010000   0.61521841   -7.4862054    854.48469  0.017757371  0.017127616         2868 
 4011000   0.61801385   -7.4915258    854.67306  0.017756857  0.017121895         2814 
 4012000   0.61656413   -7.4866345    854.05312  0.017739555  0.017116179         2911 
 4013000   0.61145569   -7.4841811    853.13871  0.017716146  0.017110465         2891 
 4014000   0.61483057    -7.491516    855.99299  0.017770989  0.017104757         2876 
 4015000   0.62197865   -7.4630941    854.92192  0.017744332   0.01709905         2816 
 4016000   0.61168466   -7.4759135    855.65431  0.017755111  0.017093345         2854 
 4017000   0.60013687   -7.4898248    853.59342  0.017707937  0.017087645         2850 
 4018000   0.60358778   -7.4824797    854.67779   0.01772602  0.017081948         2847 
 4019000   0.60452901   -7.5052641    854.10068  0.017709643  0.017076249         2864 
 4020000   0.60290288   -7.4913901    854.22538  0.017707823   0.01707055         2851 
 4021000   0.61796078   -7.4959725     854.9961  0.017719392  0.017064847         2840 
 4022000   0.61695696    -7.488674    854.26571  0.017699853  0.017059159         2846 
 4023000   0.61347898   -7.4979502    854.64906  0.017703394  0.017053465         2863 
 4024000   0.60951909   -7.5004158     855.3463  0.017713434  0.017047774         2864 
 4025000   0.59843728   -7.4985949    855.11543  0.017704253   0.01704209         2840 
 4026000   0.59536411   -7.4921186    854.17577  0.017680406  0.017036401         2869 
 4027000   0.60916442   -7.4896982    855.03774  0.017693853  0.017030717         2892 
 4028000   0.61349149   -7.5069433     855.5693  0.017700457  0.017025023         2835 
 4029000   0.60534602   -7.4874883    853.72317   0.01765788  0.017019341         2868 
 4030000   0.62586653   -7.4918847    853.85291  0.017656181  0.017013658         2814 
 4031000   0.60235555   -7.5046301     854.3632   0.01766235  0.017007983         2861 
 4032000   0.61076274    -7.490404    857.26232  0.017717889  0.017002305         2871 
 4033000   0.59863207   -7.5126618    853.88638  0.017643739  0.016996633         2836 
 4034000   0.61595214   -7.4895618    854.92817  0.017660886  0.016990955         2829 
 4035000    0.5999145   -7.5174466    854.06181  0.017638616  0.016985285         2929 
 4036000   0.59652557   -7.4890448    855.74813  0.017669065  0.016979609         2884 
 4037000   0.61291907   -7.5143884    856.49648  0.017680135  0.016973941         2882 
 4038000   0.59112536   -7.4919306    854.92104  0.017643244   0.01696827         2934 
 4039000   0.60525093   -7.4946773     855.3153   0.01764701  0.016962605         2928 
 4040000   0.61144202   -7.4945667    856.36121  0.017664216  0.016956946         2895 
 4041000   0.60960119    -7.505539    853.64095  0.017603748  0.016951275         2873 
 4042000   0.60577369   -7.5110765    854.68905  0.017621001  0.016945611         2879 
 4043000   0.60069678   -7.5175715    854.93557  0.017621724   0.01693995         2931 
 4044000   0.61053013   -7.5096147    855.50931   0.01762919  0.016934294         2894 
 4045000   0.58599886   -7.4910245    854.02773  0.017594308  0.016928634         2893 
 4046000   0.60817842   -7.5103065    854.58384  0.017601414  0.016922977         2886 
 4047000   0.60639328   -7.5004719    854.44949  0.017594298  0.016917322         2860 
 4048000   0.61676758   -7.5264801    852.72505  0.017554452  0.016911664         2957 
 4049000    0.6006702   -7.5064206    854.46139  0.017585852  0.016906011         2869 
 4050000   0.59987271   -7.5029874    854.32554  0.017578715  0.016900368         2867 
 4051000   0.61175292   -7.4912074    854.60751  0.017580176  0.016894722         2877 
 4052000   0.59100085   -7.4960969    854.30935  0.017569705  0.016889084         2945 
 4053000   0.59807764   -7.5001598    853.60736  0.017550937  0.016883437         3003 
 4054000   0.59458992   -7.5113928    854.20934  0.017558982  0.016877797         2876 
 4055000   0.58168994   -7.5149008    854.97191  0.017570323  0.016872155         2893 
 4056000   0.59749308   -7.5120564    853.56319  0.017537048  0.016866518         2904 
 4057000   0.61331806   -7.4947887    853.16509  0.017524548  0.016860881         2898 
 4058000    0.5941186    -7.480025    853.58316  0.017528815  0.016855251         2923 
 4059000   0.59582634    -7.507551    854.74193  0.017548286  0.016849622         2923 
 4060000   0.60293897   -7.5039653    855.33117  0.017556059  0.016843992         2896 
 4061000    0.5934906   -7.5064052    854.38706  0.017532362  0.016838361         2881 
 4062000   0.60291645   -7.4996159    854.10513  0.017522262  0.016832743         2920 
 4063000   0.60061244   -7.4803523    854.71719  0.017530503  0.016827117         2880 
 4064000   0.59169003   -7.5056716    855.36223  0.017539416  0.016821498         2861 
 4065000    0.5956033   -7.5085658    854.26216  0.017512549   0.01681588         2864 
 4066000   0.60002851   -7.5079308    854.85343   0.01752036  0.016810257         2800 
 4067000   0.60688463    -7.512917    854.05814  0.017499757  0.016804633         2917 
 4068000   0.60597195   -7.5181955     854.9862  0.017514467  0.016799014         2897 
 4069000   0.59861792   -7.5131075     854.5413  0.017501051  0.016793398         2914 
 4070000   0.59951194   -7.5207992    853.23748  0.017470055  0.016787785         2909 
 4071000   0.59035885   -7.5113451    854.04422  0.017482278   0.01678217         2875 
 4072000     0.606289   -7.4976745     853.8727  0.017474474   0.01677656         2841 
 4073000   0.59478422   -7.5041947    855.62329  0.017506001  0.016770951         2864 
 4074000   0.59901841   -7.5343091    852.91848  0.017446377  0.016765347         2875 
 4075000   0.58338832    -7.545486    853.14901   0.01744681  0.016759741         2909 
 4076000   0.59731267   -7.5059299    854.21286   0.01746428  0.016754132         2865 
 4077000   0.60216808   -7.5312157    854.23342  0.017460416  0.016748528         2886 
 4078000   0.56742121   -7.5167812    855.38174  0.017479601  0.016742933         2892 
 4079000   0.59543215   -7.5062057    854.26232  0.017452446  0.016737329         2898 
 4080000   0.60360309   -7.5064212    854.09403  0.017444731  0.016731734         2935 
 4081000   0.58900437   -7.5099841    854.01276  0.017438797  0.016726142         2891 
 4082000   0.59359199   -7.5236781    854.37225  0.017441864  0.016720549         2851 
 4083000   0.58656679   -7.5192961    853.33973  0.017416518  0.016714963         2914 
 4084000   0.60292223   -7.4993008    853.11941  0.017407758  0.016709382         2882 
 4085000   0.59487543   -7.5283373    854.67142  0.017435157  0.016703797         2957 
 4086000   0.59300584   -7.5174822    853.79611  0.017413039  0.016698215         2894 
 4087000    0.5962712   -7.5206637    853.15279  0.017395661  0.016692638         2869 
 4088000   0.61339967     -7.51348    854.82063  0.017425404  0.016687056         2845 
 4089000   0.60169781   -7.5165244    853.37527  0.017391686  0.016681479         2917 
 4090000   0.58120484   -7.5290081    853.85453  0.017397199  0.016675902         2917 
 4091000   0.58600111   -7.5188432    853.06984  0.017376963  0.016670329         2907 
 4092000   0.59779441   -7.5136078    854.33614  0.017398504  0.016664755         2924 
 4093000   0.59271101   -7.5355069    853.77857  0.017382901  0.016659178         2942 
 4094000   0.60263306   -7.5339117    853.48531  0.017372686  0.016653601         2914 
 4095000   0.61134072   -7.5170814     855.4154  0.017407721  0.016648029         2902 
 4096000    0.5897483   -7.5265582    852.26613  0.017339399  0.016642459         2838 
 4097000   0.59632364   -7.5237094    853.52341   0.01736074  0.016636889         2873 
 4098000   0.58518215   -7.5060017    854.49896  0.017376341  0.016631325         2852 
 4099000   0.59894091   -7.5096729    853.39412   0.01734964  0.016625764         2930 
 4100000   0.59383946   -7.5347015    855.91553  0.017396657  0.016620207         2916 
 4101000   0.59209065   -7.5137408    853.32257  0.017339725  0.016614648         2904 
 4102000   0.59784843   -7.5129527    853.09569  0.017330889  0.016609098         2878 
 4103000   0.59932381    -7.527394    852.78909  0.017320438  0.016603548         2877 
 4104000     0.574629   -7.5029187    852.51955  0.017310745  0.016597996         2854 
 4105000   0.59794442   -7.5243843    853.48557  0.017326138  0.016592444         2938 
 4106000   0.60025313   -7.5181239    854.04136  0.017333199  0.016586894         2887 
 4107000   0.58686836   -7.5173454    853.75013  0.017323069  0.016581348         2929 
 4108000    0.6002978   -7.5406482     853.5469  0.017314729  0.016575806         2919 
 4109000    0.6040603   -7.5246379    854.19813  0.017323723  0.016570261         2875 
 4110000   0.60063114   -7.4940852    855.65929  0.017349134  0.016564717         2853 
 4111000   0.60390266    -7.536831    853.79014  0.017307025  0.016559182         2890 
 4112000   0.60570159   -7.5150736     853.4812  0.017296555  0.016553645         2896 
 4113000   0.57777563   -7.5120676    853.29352  0.017288547  0.016548105         2884 
 4114000    0.5845267   -7.5299511    853.72911  0.017293168  0.016542575         2893 
 4115000   0.59351863    -7.516089    853.70526  0.017288482  0.016537046         2897 
 4116000   0.59872548   -7.5299924     853.6759  0.017283688  0.016531519         2891 
 4117000   0.58968711   -7.5232357     853.1079  0.017267992  0.016525997         2919 
 4118000    0.5891825   -7.5341449    854.83211  0.017298691  0.016520471         2899 
 4119000   0.60070365   -7.5371914    853.70186  0.017271624  0.016514949         2904 
 4120000   0.58149381   -7.5282761    853.95036  0.017272459  0.016509428         2906 
 4121000   0.60146538   -7.5159479    853.24894  0.017254084   0.01650391         2886 
 4122000   0.57489116   -7.5258494    853.88589  0.017262775  0.016498391         2845 
 4123000   0.58548586    -7.513167    854.20612   0.01726506  0.016492878         2900 
 4124000   0.58699685   -7.4968762    853.34554  0.017243484  0.016487364         2918 
 4125000   0.59319043   -7.5048746    852.19353  0.017216031  0.016481854         2885 
 4126000   0.58753096   -7.5172031    854.26248  0.017253645  0.016476345         2870 
 4127000   0.59680807   -7.5139077    853.78905  0.017239905  0.016470837         2940 
 4128000   0.58072868    -7.531896    853.74755  0.017234891  0.016465327         2902 
 4129000   0.59789898   -7.5114316    854.07272  0.017237279  0.016459825         2948 
 4130000   0.60251429   -7.5069323    853.95498   0.01723073  0.016454319         2939 
 4131000   0.58879654   -7.5316424     853.9248   0.01722595  0.016448818         2899 
 4132000   0.57724603   -7.5086116    853.93975  0.017222083  0.016443315         2911 
 4133000   0.59194871   -7.5192714    853.14635  0.017201919  0.016437811         2912 
 4134000   0.60804597   -7.5140694     853.3988  0.017202846   0.01643231         2918 
 4135000   0.59400544   -7.5342927    853.74295  0.017205622  0.016426821         2934 
 4136000   0.58561768     -7.51589     852.8683  0.017183839  0.016421325         2932 
 4137000    0.5872017   -7.5151156    853.57353  0.017193891  0.016415828         2935 
 4138000   0.58091531   -7.5232453    854.73033  0.017213032   0.01641034         2953 
 4139000   0.57509083   -7.5256154    852.80399  0.017170089  0.016404849         2949 
 4140000   0.58152708   -7.5287181    852.40348   0.01715788  0.016399362         2906 
 4141000    0.6052149   -7.5205635    854.64788  0.017198903   0.01639388         2883 
 4142000   0.59628347   -7.5356489    852.48137  0.017151162  0.016388397         2948 
 4143000   0.58748559   -7.5219306    852.00461  0.017137433  0.016382922         2958 
 4144000   0.59160716   -7.5258902    853.39043  0.017161165  0.016377449         2895 
 4145000   0.59719619   -7.5120026    854.41078  0.017177539  0.016371974         2879 
 4146000   0.59046427   -7.5230973    852.20707  0.017129102  0.016366506         3001 
 4147000   0.58257064   -7.5192666    852.33019  0.017127445  0.016361027         2957 
 4148000   0.59503618   -7.5187614    853.47494  0.017146314  0.016355555         2956 
 4149000   0.58663636   -7.5256896    852.24976  0.017117574   0.01635009         2937 
 4150000   0.58419376   -7.5185849    853.02114  0.017128939  0.016344629         2941 
 4151000   0.59821272   -7.5050959    854.22682  0.017149017  0.016339171         2908 
 4152000    0.5894178    -7.538387    854.75283  0.017155444  0.016333719         2894 
 4153000   0.58013836   -7.5278799    853.33033  0.017122769  0.016328259         2942 
 4154000   0.59270921   -7.5353431    854.11818  0.017134452  0.016322799         2901 
 4155000   0.57846551   -7.5401994    851.75028  0.017082837  0.016317344         2918 
 4156000   0.58541786   -7.5111183     852.9488  0.017102759  0.016311883         2933 
 4157000   0.59357963   -7.5482312    853.31898  0.017106066  0.016306423         2906 
 4158000    0.5888203   -7.5209022    852.21482  0.017079823  0.016300973         2916 
 4159000   0.59034332   -7.5182876    852.92184  0.017089882  0.016295528         2845 
 4160000   0.59228682   -7.5386743    852.68945  0.017081119  0.016290075         2886 
 4161000   0.59721652   -7.5439385    852.14814  0.017066173  0.016284628         2928 
 4162000   0.58745189   -7.5472018    850.80992  0.017035278  0.016279178         2962 
 4163000   0.59753456   -7.5299728      852.897  0.017072964  0.016273734         2916 
 4164000   0.58462221   -7.5467369    853.28424  0.017076614   0.01626829         2875 
 4165000   0.59920617   -7.5290362    853.14627  0.017069753  0.016262852         2919 
 4166000   0.58218535   -7.5267653    852.40393  0.017050807  0.016257411         2881 
 4167000   0.58265354   -7.5587606    853.32791  0.017065193  0.016251975         2900 
 4168000   0.58281993   -7.5105497    852.55133  0.017045572  0.016246545         2858 
 4169000   0.59057022   -7.5521853    853.70742  0.017064592  0.016241118         2866 
 4170000   0.58294839    -7.518392     853.2866   0.01705209  0.016235686         2942 
 4171000   0.59029495    -7.527605    853.20805  0.017046433  0.016230256         2911 
 4172000   0.57043914   -7.5382332    854.08593  0.017059882  0.016224827         2898 
 4173000   0.59655183   -7.5456918    852.53709  0.017024864  0.016219406         2880 
 4174000   0.59142374   -7.5390052    852.92988  0.017028627  0.016213986         2924 
 4175000   0.57810531   -7.5403433    851.56247  0.016997255  0.016208565         2944 
 4176000   0.57826843   -7.5202745    853.52885  0.017032424  0.016203146         2859 
 4177000   0.57981787   -7.5300552    853.12363  0.017020262  0.016197729         2902 
 4178000   0.58549525   -7.5273434     852.9814  0.017013352  0.016192311         2901 
 4179000   0.59245605   -7.5309006    852.33308  0.016996352  0.016186894         2916 
 4180000   0.58820133   -7.5439625    852.02658  0.016986176   0.01618148         2935 
 4181000   0.58214192   -7.5560926     852.0592  0.016982763  0.016176068         2882 
 4182000   0.58515204   -7.5306037    851.90615  0.016975653  0.016170652         2879 
 4183000    0.5909973   -7.5324939    853.76452  0.017008617  0.016165247         2858 
 4184000   0.58569152   -7.5462547    854.28678  0.017014953   0.01615984         2923 
 4185000    0.5745622   -7.5279311    853.31135  0.016991465  0.016154435         2903 
 4186000   0.57389448   -7.5400597    853.99509  0.017001017  0.016149037         2907 
 4187000   0.58163178    -7.548057    853.05758  0.016978298  0.016143637         2884 
 4188000   0.58037242    -7.537211    852.87753  0.016970661  0.016138235         2912 
 4189000   0.59141313   -7.5316082     853.0989  0.016971013  0.016132841         2882 
 4190000   0.58647738   -7.5311902    852.99666   0.01696493   0.01612745         2886 
 4191000   0.58018134   -7.5293466    852.96792   0.01696031  0.016122056         2952 
 4192000   0.59557574   -7.5436298    852.76428  0.016952216  0.016116668         2921 
 4193000   0.58508515   -7.5297049    852.84613    0.0169498  0.016111277         2909 
 4194000    0.5730275   -7.5373151    852.49813  0.016938844  0.016105892         2897 
 4195000   0.59614784    -7.557983    852.91093  0.016943006  0.016100505         2908 
 4196000    0.5922652   -7.5388948    851.86596  0.016918215  0.016095116         2913 
 4197000   0.58529489   -7.5535406     851.1658  0.016900282  0.016089733         2896 
 4198000   0.57006313   -7.5384938    852.42381  0.016921229   0.01608435         2878 
 4199000   0.57453816   -7.5341273    850.68835  0.016882757   0.01607897         2862 
 4200000   0.59222244   -7.5336084     854.0191  0.016944823  0.016073596         2901 
 4201000   0.58082846   -7.5475074    853.55789  0.016931641  0.016068222         2866 
 4202000   0.57711525   -7.5521977    853.13942  0.016919313  0.016062847         2832 
 4203000   0.57236836   -7.5391327    851.91597   0.01689103  0.016057478         2926 
 4204000   0.58427545   -7.5182028    850.80784  0.016865046  0.016052106         2917 
 4205000   0.57648439   -7.5450681    853.35091  0.016911433  0.016046739         2914 
 4206000   0.58191211   -7.5532924    851.32685   0.01686731  0.016041379         2932 
 4207000   0.58206264   -7.5445872    851.65054  0.016869712  0.016036011         2878 
 4208000    0.5754443    -7.551489    850.28437  0.016838648  0.016030643         2926 
 4209000   0.58133336   -7.5365886    852.57264  0.016879953  0.016025279         2931 
 4210000   0.58884374   -7.5495571    853.03421  0.016885079   0.01601992         2949 
 4211000   0.56861273   -7.5527349    852.37452  0.016868015  0.016014558         2967 
 4212000   0.58732172   -7.5252946    852.31513  0.016862835  0.016009199         2898 
 4213000   0.58334733   -7.5574047    851.00868  0.016832991  0.016003846         2933 
 4214000   0.57931174   -7.5258253    851.82246  0.016845089  0.015998495         2885 
 4215000   0.57539228    -7.546883    852.07155  0.016846017   0.01599315         2864 
 4216000   0.57599969   -7.5570228    852.84493  0.016857308  0.015987804         2893 
 4217000   0.57554891   -7.5266861    851.23104  0.016821418  0.015982459         2878 
 4218000   0.58033361   -7.5449044     851.9241  0.016831123  0.015977114         2980 
 4219000   0.58153804   -7.5335397    851.71754  0.016823053   0.01597177         2933 
 4220000    0.5686591   -7.5404083    851.11474  0.016807163   0.01596643         2928 
 4221000   0.58539558    -7.552126    852.95144  0.016839442  0.015961083         2878 
 4222000   0.57833142   -7.5540641    851.73619  0.016811468  0.015955741         2896 
 4223000   0.57174529   -7.5651637    851.41082  0.016801066  0.015950401         2923 
 4224000   0.56799245   -7.5509524    851.39055  0.016796689  0.015945057         2952 
 4225000   0.57572998   -7.5521986    852.61296  0.016816824   0.01593972         2915 
 4226000   0.57677617   -7.5340888    851.24696  0.016785908  0.015934393         2904 
 4227000   0.58043541   -7.5439051    851.61805  0.016789253  0.015929058         2908 
 4228000    0.5709889   -7.5451254    852.83634  0.016809294  0.015923733         2933 
 4229000   0.57276971   -7.5572954    851.22052  0.016773479  0.015918407         2950 
 4230000   0.57867801   -7.5576024    851.73817  0.016779712  0.015913086         2920 
 4231000   0.57348315   -7.5523221    851.22367  0.016765612  0.015907765         2888 
 4232000   0.58482606   -7.5477797    853.01611  0.016796946  0.015902447         2864 
 4233000   0.57637343   -7.5361451    851.41388  0.016761436  0.015897127         2950 
 4234000     0.567873   -7.5369229     852.7602  0.016783975  0.015891804         2851 
 4235000    0.5751796   -7.5387019     852.4387  0.016773686  0.015886492         2924 
 4236000   0.57237784   -7.5553558     852.0941  0.016762947  0.015881179         2904 
 4237000   0.57975469   -7.5557744    852.45695  0.016766127  0.015875868         2933 
 4238000   0.56714711   -7.5571706    852.06338  0.016754432  0.015870555         2943 
 4239000   0.56955411   -7.5483483    853.52749  0.016779262   0.01586525         2896 
 4240000   0.58472897   -7.5378415    851.88608  0.016743044  0.015859944         2936 
 4241000    0.5769279   -7.5569174    851.56475  0.016732782  0.015854639         2943 
 4242000   0.57204821   -7.5328081    852.05294  0.016738428   0.01584934         2892 
 4243000   0.57467881   -7.5487659    851.08134  0.016715401  0.015844044         3004 
 4244000   0.58042059   -7.5530267    852.58319  0.016740952  0.015838747         2895 
 4245000   0.57442094   -7.5640089    853.32639  0.016751598  0.015833449         2912 
 4246000    0.5791357   -7.5458138    851.18974  0.016705718  0.015828152         2886 
 4247000    0.5696037   -7.5479833     853.0876  0.016739024  0.015822862         2932 
 4248000   0.56478663   -7.5634646    853.45389  0.016742269  0.015817575         2890 
 4249000   0.57652892   -7.5631356    849.84753  0.016667599  0.015812287         2944 
 4250000    0.5692255   -7.5401328    852.04631   0.01670679     0.015807         2924 
 4251000   0.56622675    -7.551005    852.07442  0.016703411  0.015801713         2931 
 4252000   0.57932804   -7.5343607    851.43512  0.016686954  0.015796434         2907 
 4253000   0.57498512   -7.5528698    850.98315  0.016674174  0.015791155         2877 
 4254000   0.57592854   -7.5446217    853.43007  0.016718188  0.015785874         2899 
 4255000   0.56656133   -7.5286901    852.51358   0.01669631  0.015780601         2873 
 4256000   0.56690969   -7.5484748    849.23559  0.016628203  0.015775327         2945 
 4257000   0.57192812   -7.5537816    852.04647  0.016679322  0.015770058         2926 
 4258000   0.56282405   -7.5543133    851.98209  0.016674144  0.015764788         2872 
 4259000   0.57826173   -7.5559081     851.3915  0.016658674  0.015759521         2950 
 4260000   0.56343178   -7.5583741    853.00587  0.016686343  0.015754252         2937 
 4261000   0.56180002   -7.5624205    851.72212  0.016657321  0.015748986         2906 
 4262000   0.55606498   -7.5346468    852.01726  0.016659183  0.015743724         2967 
 4263000   0.56327257   -7.5639619      850.286  0.016621433  0.015738463         2952 
 4264000   0.56000339   -7.5786328    851.68172  0.016644812  0.015733196         2956 
 4265000   0.56901398   -7.5556224    851.67544  0.016640786  0.015727936         2925 
 4266000   0.56611383   -7.5386763    850.19944  0.016608053   0.01572268         2928 
 4267000   0.56769646   -7.5454618    851.42829   0.01662816  0.015717425         2942 
 4268000   0.56769695   -7.5538308    850.71738  0.016610383  0.015712165         2952 
 4269000   0.56400184   -7.5536241    851.86145  0.016628825  0.015706914         2926 
 4270000   0.56928488   -7.5503114    852.35796  0.016634621  0.015701666         2926 
 4271000   0.57956471   -7.5577701    850.61042  0.016596629   0.01569642         2919 
 4272000   0.57681922    -7.557784    851.80686  0.016616083  0.015691177         2940 
 4273000   0.58220738   -7.5691156    851.12359  0.016598869  0.015685933         2972 
 4274000    0.5700948   -7.5612079    850.17114  0.016576414  0.015680691         2998 
 4275000     0.557814   -7.5476089    851.06902  0.016590039  0.015675451         2944 
 4276000   0.56377553   -7.5555134    852.28748  0.016609906  0.015670213         2890 
 4277000   0.56172538    -7.560463    851.28805  0.016586549  0.015664981         2885 
 4278000   0.56143542   -7.5402986     851.2818   0.01658255  0.015659743         2940 
 4279000   0.57089663   -7.5695542    851.27314  0.016578506  0.015654514         2917 
 4280000    0.5705841   -7.5566903    852.29637  0.016594555  0.015649282         2891 
 4281000    0.5560254   -7.5674604    851.29262   0.01657114  0.015644054         2901 
 4282000    0.5615343   -7.5611622    850.48748  0.016551601  0.015638828         2920 
 4283000   0.56546466    -7.548326    851.27031  0.016562968  0.015633604         2925 
 4284000   0.55620284   -7.5527751    851.40324  0.016561688  0.015628382         2944 
 4285000   0.57140563    -7.566988    850.93714  0.016548758  0.015623161         2919 
 4286000   0.56165603   -7.5656894    851.93199   0.01656424  0.015617936         2902 
 4287000   0.56857726   -7.5661588    851.60428  0.016554006  0.015612721         2955 
 4288000   0.57115365   -7.5542507    852.63417   0.01657016  0.015607503         2934 
 4289000   0.57051367   -7.5714889    851.59545  0.016546115  0.015602289         2971 
 4290000   0.55337914   -7.5779966    849.71769  0.016505783  0.015597072         2952 
 4291000   0.57045042   -7.5626627    851.83619  0.016543078  0.015591858         2953 
 4292000   0.56077548   -7.5591694    851.50116  0.016532719  0.015586648         2956 
 4293000   0.57059077   -7.5666325    851.57577  0.016530316  0.015581439         2911 
 4294000   0.58085534   -7.5688023    851.67411  0.016528375  0.015576235         2945 
 4295000   0.56040322   -7.5640801    850.93369  0.016510161  0.015571028         2939 
 4296000   0.57086427   -7.5660264    851.17667  0.016511031  0.015565822         2920 
 4297000   0.56320868   -7.5756667     850.6422  0.016496823  0.015560618         2968 
 4298000   0.55909966   -7.5665203    851.74459  0.016514359  0.015555423         2973 
 4299000   0.56028811   -7.5619716    852.19621  0.016519272  0.015550228         2912 
 4300000   0.55994798   -7.5694622    850.03516   0.01647355  0.015545036         2938 
 4301000   0.56444798   -7.5708958    851.48288  0.016497769  0.015539843         2956 
 4302000   0.55556317   -7.5679492    852.04613  0.016504845  0.015534654         2952 
 4303000   0.55661312   -7.5721408    851.71591  0.016494614  0.015529475         2984 
 4304000   0.56914418   -7.5786298    851.64409  0.016489392  0.015524293         2964 
 4305000    0.5654259   -7.5522214      851.436  0.016481533  0.015519116         2906 
 4306000   0.56267793    -7.564212    850.56053  0.016460763  0.015513938         2939 
 4307000   0.57641066   -7.5604748    848.93888  0.016425565  0.015508759         2936 
 4308000   0.55998733   -7.5691889    850.99787  0.016461581  0.015503582         2923 
 4309000   0.55549244   -7.5750636     851.4687  0.016466866  0.015498404         2921 
 4310000    0.5659056   -7.5611074    851.17453  0.016457357  0.015493233         2903 
 4311000   0.55941248    -7.572741    850.63738  0.016443157  0.015488063         2940 
 4312000    0.5757517   -7.5569626    851.06477  0.016447603  0.015482901         2895 
 4313000    0.5607849   -7.5782551    851.06977  0.016443886  0.015477738         2963 
 4314000    0.5628929   -7.5768013    851.44507  0.016447324  0.015472578         2936 
 4315000   0.54211652   -7.5725349    850.60335  0.016427257  0.015467417         2927 
 4316000    0.5650941   -7.5779879    850.22505  0.016416146  0.015462258         2959 
 4317000   0.55972363   -7.5660247    850.53735  0.016418372  0.015457099         2965 
 4318000   0.57101805   -7.5754624    851.03038  0.016424085   0.01545194         2946 
 4319000   0.54872812   -7.5709727    850.94592  0.016418652  0.015446781         2945 
 4320000    0.5571048   -7.5699948    851.48553  0.016425261  0.015441627         2930 
 4321000   0.56742031   -7.5713706    851.19513  0.016415859  0.015436477         2941 
 4322000   0.55602721    -7.569803     850.9933  0.016408169  0.015431329         2911 
 4323000   0.54731429    -7.561851    851.68823   0.01641777  0.015426181         2930 
 4324000     0.557989   -7.5623249    850.31577  0.016387523  0.015421032         2961 
 4325000   0.55667257   -7.5676092    851.13248   0.01639947   0.01541589         2852 
 4326000   0.56572507   -7.5777435    850.30945  0.016379825  0.015410753         2893 
 4327000   0.56160651   -7.5783442     850.1714   0.01637338   0.01540561         2917 
 4328000   0.55973096   -7.5673445      851.867  0.016402245  0.015400473         2900 
 4329000   0.57580643   -7.5661722    850.23371  0.016367015  0.015395335         2898 
 4330000   0.55803691   -7.5652826    852.08915  0.016398944  0.015390195         2937 
 4331000   0.56234137   -7.5815958    851.36396  0.016381205  0.015385061         2912 
 4332000   0.56231639   -7.5548729     848.8843  0.016329723  0.015379922         2911 
 4333000   0.55780033   -7.5654735    850.86705  0.016364087  0.015374792         2862 
 4334000   0.56380508   -7.5670096    849.39145  0.016331938  0.015369661         2959 
 4335000   0.54943454   -7.5790205    851.22808  0.016363477  0.015364536         2891 
 4336000    0.5612204   -7.5609838    850.21508  0.016340234  0.015359412         2942 
 4337000   0.56309309   -7.5788443    850.97847  0.016351135  0.015354291         2926 
 4338000   0.57257802   -7.5662383    851.11848  0.016350055  0.015349169         2908 
 4339000   0.55844493   -7.5783086    852.56414  0.016374052  0.015344048         2946 
 4340000   0.54554519   -7.5823262    849.36964  0.016308941  0.015338934         2945 
 4341000   0.55597661   -7.5674063    850.25973  0.016322271  0.015333817         2933 
 4342000   0.55994153   -7.5713714    850.60429  0.016325125  0.015328705         2938 
 4343000   0.55528325    -7.573846    851.18038   0.01633242  0.015323596         2929 
 4344000   0.55373103   -7.5819503     851.5016  0.016334822  0.015318487         2954 
 4345000   0.55132169   -7.5766316     850.3992  0.016309919  0.015313375         2970 
 4346000   0.55289568    -7.564821    851.50478  0.016327366   0.01530827         2927 
 4347000   0.55493072   -7.5928019    851.78459  0.016328974  0.015303164         2934 
 4348000   0.56101196   -7.5772049     851.5835  0.016321364  0.015298065         2956 
 4349000    0.5621934   -7.5767754    852.05437  0.016326634  0.015292964         2883 
 4350000   0.55674599   -7.5805795    849.93152  0.016282213  0.015287863         2917 
 4351000   0.55904164   -7.5835882    849.57875  0.016271714  0.015282769         2902 
 4352000   0.54979375    -7.585607    850.12613  0.016278457  0.015277671         2898 
 4353000   0.55842403   -7.5639038    849.18821  0.016256762  0.015272581         2960 
 4354000   0.54869889   -7.5814439    850.87152  0.016285246  0.015267492         2887 
 4355000   0.54711476   -7.5814581    849.96277  0.016264117  0.015262409         2949 
 4356000   0.55277858   -7.5860631    850.63151  0.016273177  0.015257324         2921 
 4357000    0.5555461   -7.5726936    851.59535  0.016287877  0.015252243         2969 
 4358000   0.54991903   -7.5900553    849.48656  0.016243815  0.015247154         2955 
 4359000   0.54762308   -7.5732763     849.6394  0.016243011  0.015242071         2953 
 4360000    0.5603036   -7.5779856    849.30026  0.016232803  0.015236992         2968 
 4361000   0.56546526    -7.570531    851.12484  0.016263946  0.015231912         2928 
 4362000   0.55454282   -7.5668305    850.79268  0.016253872  0.015226843         2932 
 4363000   0.56471386   -7.5634408    851.19479  0.016257827  0.015221769         2914 
 4364000   0.55343314   -7.5845547    849.88444   0.01622908    0.0152167         2984 
 4365000   0.55007363   -7.5905556    851.27627  0.016251933  0.015211628         2932 
 4366000   0.56384063   -7.5646758    849.47615  0.016213852  0.015206558         2910 
 4367000   0.54586055    -7.618771    851.02078  0.016239615  0.015201495         2924 
 4368000   0.56235485   -7.5841553    850.30557  0.016222252  0.015196426         2867 
 4369000   0.55362816   -7.5757097     849.8487  0.016209825  0.015191368         2932 
 4370000   0.53881615   -7.5864333    849.63252  0.016201993  0.015186309         2965 
 4371000   0.55037125   -7.5835759    851.30181  0.016230111  0.015181246         2943 
 4372000   0.55291725   -7.5756838    849.67784  0.016195445  0.015176186         2899 
 4373000   0.54562499   -7.5942548    850.42456  0.016205971   0.01517113         2890 
 4374000   0.54758089   -7.5974372    850.35747  0.016200988  0.015166072         3001 
 4375000   0.54690977   -7.5757726    849.26783   0.01617653   0.01516102         2886 
 4376000   0.56308719   -7.5760355    849.00377  0.016167805   0.01515597         2961 
 4377000   0.55144596   -7.5875944    851.32114  0.016208231   0.01515092         2948 
 4378000   0.56619296   -7.5951522    850.52137  0.016189306  0.015145876         2892 
 4379000   0.55106426    -7.588049    851.21969  0.016198898  0.015140832         2948 
 4380000    0.5376063   -7.5645174    849.82171  0.016168602  0.015135792         2947 
 4381000   0.55322674   -7.5951763    850.64834  0.016180635  0.015130751         2922 
 4382000   0.54434808   -7.5840048    851.10828  0.016185689  0.015125716         2877 
 4383000   0.55844874   -7.5727669    850.80459  0.016176222  0.015120681         2914 
 4384000   0.53861933   -7.5879564    850.21273  0.016161282  0.015115649         2975 
 4385000   0.54449889   -7.5953793    849.09166  0.016136292  0.015110615         2926 
 4386000   0.55489752   -7.5823351    851.21966  0.016173044  0.015105589         2947 
 4387000   0.56272196   -7.5778287    849.68843  0.016140271  0.015100562         2958 
 4388000   0.55369431   -7.5741005    851.25517  0.016166347  0.015095537         2944 
 4389000   0.54977545   -7.5902329    850.68454  0.016151829  0.015090515         2932 
 4390000    0.5555706   -7.5901663    850.95721  0.016153326  0.015085495         2902 
 4391000   0.54228566   -7.5797865    850.38087  0.016138709  0.015080472         2902 
 4392000   0.54001347   -7.5849555    849.50537  0.016118423  0.015075452         2895 
 4393000   0.54572652   -7.5833881    850.08757  0.016125798  0.015070436         2938 
 4394000   0.54001468   -7.5817843    849.74366  0.016115606  0.015065423         2903 
 4395000   0.54564877   -7.5932127    848.60347   0.01609032  0.015060412         2936 
 4396000   0.55822637   -7.5838643    849.45614  0.016102823  0.015055401         2935 
 4397000    0.5636768   -7.6105652      849.213  0.016094553  0.015050396         2950 
 4398000    0.5675713   -7.5893957    850.31689   0.01611181  0.015045392         2932 
 4399000   0.55507932   -7.5856505      850.467  0.016110991   0.01504039         2947 
 4400000   0.54411635   -7.5928416    851.30427  0.016123187  0.015035386         2925 
 4401000   0.54268939   -7.5930847    850.32609  0.016101001  0.015030388         2931 
 4402000   0.53982757   -7.5730092    850.54725  0.016101531  0.015025392         2896 
 4403000   0.54879311   -7.6046056    849.34518  0.016075123  0.015020395         2912 
 4404000   0.55042525   -7.5867962     850.4228  0.016091864  0.015015401         2922 
 4405000    0.5476868   -7.5786851    850.57478  0.016091086  0.015010407         2948 
 4406000   0.53010376   -7.6064119    849.86062  0.016073926  0.015005418         2907 
 4407000   0.55385459   -7.5906126    851.01514   0.01609211  0.015000427         2940 
 4408000   0.54823604   -7.5796239    851.43992   0.01609649  0.014995441         2933 
 4409000    0.5314874   -7.5792435    850.65382  0.016077981  0.014990459         2912 
 4410000   0.54709609   -7.5952425    850.19944  0.016065749  0.014985479         2900 
 4411000   0.54166397   -7.5879867    850.36318    0.0160652  0.014980502         2942 
 4412000    0.5491811    -7.600877    850.26147  0.016059638  0.014975526         2951 
 4413000   0.55100632   -7.5983946    849.94052  0.016049938   0.01497055         2898 
 4414000   0.54277129   -7.5669296     849.4583  0.016037198  0.014965578         2904 
 4415000   0.56224535   -7.5883885    849.38847  0.016032247  0.014960609         2978 
 4416000    0.5353648   -7.5899225    850.98627  0.016058769  0.014955639         2953 
 4417000   0.55625412   -7.6013176    849.70991  0.016031052  0.014950669         2976 
 4418000   0.54170324   -7.5835116     851.4374  0.016060008  0.014945701         2953 
 4419000   0.54608851   -7.5953292    850.51101  0.016038904  0.014940739         2913 
 4420000   0.54557502    -7.594663    850.71934  0.016039203  0.014935779         2920 
 4421000   0.54752477   -7.5812852      850.661  0.016034476   0.01493082         2958 
 4422000   0.52662349   -7.6003584    850.43857  0.016026658  0.014925862         2930 
 4423000   0.53501538   -7.6108053    849.18175  0.015999355  0.014920907         2943 
 4424000   0.53602865   -7.5849791    848.95837  0.015991531  0.014915952         2934 
 4425000    0.5555595   -7.6005459    849.36171  0.015995512  0.014910999         2922 
 4426000   0.54567879   -7.5862256    850.31325  0.016009814  0.014906049         2903 
 4427000    0.5476795   -7.5981094    849.43045   0.01598958  0.014901095         2933 
 4428000   0.53248496    -7.589063     849.8973  0.015994755  0.014896152         2927 
 4429000    0.5521146   -7.5926026    848.04023  0.015956202  0.014891209         2915 
 4430000   0.55033008   -7.6043444    850.20379  0.015993299  0.014886268         2946 
 4431000   0.53621292   -7.5841933    848.40222  0.015955808  0.014881331         2923 
 4432000    0.5380317   -7.5990626    849.74121  0.015977384  0.014876391         2894 
 4433000   0.54472486   -7.5748319    850.78941  0.015993485  0.014871457         2908 
 4434000   0.55358636   -7.5822436    850.93745   0.01599266  0.014866527         2937 
 4435000    0.5401366    -7.610991    849.72393  0.015966252  0.014861595         2873 
 4436000   0.54500628   -7.5983825    851.22939  0.015990934  0.014856667         2928 
 4437000   0.55210602    -7.597697    850.39299  0.015971621  0.014851737         2899 
 4438000   0.54158355   -7.5884189    849.21149  0.015945837  0.014846806         2904 
 4439000   0.54077145   -7.5903535    851.00121  0.015975843  0.014841883         2895 
 4440000   0.53969333   -7.6117274    848.94116   0.01593358  0.014836957         2911 
 4441000    0.5444527   -7.5834511    849.35729  0.015937801  0.014832035         2921 
 4442000   0.55021273   -7.5959991    849.79192  0.015942367  0.014827115         2922 
 4443000   0.54315549   -7.5911019    850.08421  0.015944261  0.014822196         2937 
 4444000   0.53812571    -7.600016    849.69796   0.01593343  0.014817281         2940 
 4445000   0.53848312   -7.5976653    849.30375  0.015922455  0.014812361         2904 
 4446000   0.53786343    -7.623195    849.27772  0.015918386  0.014807447         2904 
 4447000   0.54450244   -7.6066528    848.14637  0.015893606  0.014802531         2929 
 4448000   0.53614582   -7.5947014     848.8791   0.01590376  0.014797618         2920 
 4449000   0.54821386   -7.5850964    847.64732  0.015877113  0.014792706         2959 
 4450000   0.52994362   -7.6275182    850.31708  0.015923541    0.0147878         2912 
 4451000   0.55542948   -7.6083167    849.86945  0.015911583  0.014782892         2953 
 4452000   0.54170939   -7.6193517    849.59761   0.01590292  0.014777985         2952 
 4453000   0.52850249   -7.6082739    848.85833  0.015885514  0.014773082         2932 
 4454000   0.54801897   -7.5984217    848.66122   0.01587826  0.014768179         2926 
 4455000   0.53853173   -7.6146034    849.65366   0.01589326  0.014763278         2891 
 4456000   0.54879023   -7.6070933    849.58805  0.015888466  0.014758379         2959 
 4457000   0.53435653   -7.6051376    850.10838   0.01589463  0.014753486         2918 
 4458000   0.53761341   -7.6060372     848.8315  0.015867196  0.014748593         2946 
 4459000   0.52409269   -7.6134517    850.52704  0.015895325  0.014743699         2908 
 4460000   0.53392548   -7.6028232    847.58259  0.015836745   0.01473881         2925 
 4461000   0.53768732   -7.6137083    850.99851  0.015897006  0.014733922         2961 
 4462000   0.53543643   -7.6076972    848.53696   0.01584747  0.014729037         2956 
 4463000   0.53985738   -7.6038653    850.71242   0.01588454  0.014724154         2915 
 4464000   0.53829637   -7.5808716    848.11519  0.015832497  0.014719272         2909 
 4465000    0.5336392   -7.5899848    850.52053  0.015873843  0.014714392         2934 
 4466000   0.53817096   -7.6067877     848.6385  0.015835171  0.014709514         2895 
 4467000    0.5349632   -7.5939657    848.88667  0.015836256  0.014704633         2960 
 4468000   0.54480553   -7.6130836    849.34157  0.015841196  0.014699757         2977 
 4469000   0.54101324   -7.6050297    849.45912  0.015839843  0.014694884         2969 
 4470000   0.52890417   -7.6183432    849.73344  0.015841414   0.01469001         2987 
 4471000   0.53994765    -7.602833    850.52225  0.015852573  0.014685141         3017 
 4472000   0.52796738   -7.5988569    848.54058  0.015812101  0.014680274         2984 
 4473000    0.5415915   -7.6142215    849.81641  0.015832335  0.014675407         2912 
 4474000   0.53808599   -7.5986205    850.35798  0.015838883  0.014670542         2961 
 4475000   0.54238763   -7.6137172    849.35691  0.015816702  0.014665677         2946 
 4476000   0.53987841    -7.611702    848.48521  0.015796939  0.014660813         2943 
 4477000   0.53084172   -7.5967123    849.34815  0.015809473  0.014655953         2903 
 4478000   0.53730887   -7.6151172    849.63344  0.015811252  0.014651097         2946 
 4479000   0.53133885   -7.6084937    848.97131  0.015795403  0.014646238         2963 
 4480000   0.52201614   -7.6059725    848.96723  0.015791801  0.014641387         2936 
 4481000    0.5399758   -7.6087165    849.38029  0.015795959  0.014636534         2966 
 4482000   0.54027746   -7.6072469    850.13859  0.015806533  0.014631681         2916 
 4483000    0.5275185   -7.6054255    849.93624  0.015799246  0.014626838         2932 
 4484000   0.55117801   -7.6206471    848.40217  0.015767213  0.014621994         2911 
 4485000   0.54353927   -7.6052543    849.46163  0.015783382  0.014617152         2932 
 4486000   0.53317917    -7.624689    849.19563  0.015774923   0.01461231         2987 
 4487000   0.52684759   -7.6114409    848.66071  0.015761472   0.01460747         2938 
 4488000   0.53347723   -7.6098354    848.26321  0.015750579  0.014602629         2942 
 4489000   0.53205424   -7.6119686    849.07051  0.015762057  0.014597793         2966 
 4490000   0.53312158   -7.6019071     849.1493  0.015760009  0.014592956         2934 
 4491000   0.53011388   -7.6219314    850.12642  0.015774631   0.01458812         2966 
 4492000   0.52713291   -7.6151685     850.0273  0.015769281  0.014583293         2960 
 4493000   0.52551897   -7.5986404    849.44245  0.015754923  0.014578463         2923 
 4494000   0.53038143   -7.6323631    849.58328  0.015754029  0.014573634         2998 
 4495000   0.53195451   -7.6227698    848.18656   0.01572463  0.014568805         2982 
 4496000   0.52708117   -7.6086821    849.31948  0.015742132  0.014563979         2974 
 4497000   0.53576784   -7.6170823    849.08577    0.0157343  0.014559158         3001 
 4498000   0.53345303   -7.6244297    847.98751  0.015710455  0.014554338         2967 
 4499000   0.52601821   -7.6066596    849.40519  0.015733222  0.014549517         3006 
 4500000   0.53603549   -7.6458901    849.05427  0.015723227  0.014544699         3030 
 4501000   0.53085096   -7.6271271    848.82284  0.015715449  0.014539881         2976 
 4502000   0.52324261    -7.603493    848.59184  0.015707682  0.014535065         2999 
 4503000   0.53315084   -7.6026828    848.50237  0.015702538  0.014530252         2974 
 4504000   0.53943851    -7.618162    849.40444  0.015715742  0.014525447         2982 
 4505000   0.53488045   -7.6099822    848.73017  0.015699781   0.01452064         3003 
 4506000   0.53576617   -7.6006787    850.43727  0.015727868  0.014515839         2971 
 4507000   0.52626013   -7.6190396    850.12425  0.015718591  0.014511038         2986 
 4508000   0.54355231   -7.6139106      849.899   0.01571094  0.014506237         2998 
 4509000   0.53260891   -7.6198029    849.83541   0.01570628  0.014501438         3013 
 4510000   0.52078582   -7.6116537    850.63072  0.015717493  0.014496643         2967 
 4511000    0.5395659   -7.6234647    849.87402   0.01570003  0.014491846         3000 
 4512000   0.54254793   -7.6304331    848.43638  0.015669998  0.014487048         2985 
 4513000   0.53076834   -7.6280944    849.84006  0.015692445   0.01448226         2995 
 4514000   0.53479299   -7.6120708    848.79939  0.015669757  0.014477469         2974 
 4515000   0.52358701   -7.6195175    848.83693  0.015666979  0.014472681         2998 
 4516000   0.53733744   -7.6287286    848.13215  0.015650505  0.014467895         3010 
 4517000   0.52967842   -7.6121833    848.60393  0.015655744  0.014463107         3044 
 4518000   0.53593102   -7.6336685    848.80499  0.015655987   0.01445833         2980 
 4519000   0.52446923   -7.6178098    850.07552  0.015675952  0.014453553         2961 
 4520000   0.52738423   -7.5977907    848.66702  0.015646516  0.014448775         2995 
 4521000   0.53510225   -7.6154995    847.67195  0.015624713     0.014444         3000 
 4522000   0.52605214   -7.6102705    849.25419  0.015650416  0.014439225         2957 
 4523000   0.52585023   -7.6199502    848.99317  0.015642147  0.014434454         3008 
 4524000   0.53195337   -7.6112723    848.47123  0.015629075  0.014429685         2927 
 4525000   0.52621896   -7.6185359    849.31861  0.015641227  0.014424917         2988 
 4526000   0.52859493   -7.6124202    850.47719  0.015659103  0.014420156         2963 
 4527000   0.52199502   -7.6151715     849.9882  0.015646642  0.014415395         2939 
 4528000   0.52188785   -7.6275173    849.29099  0.015630355  0.014410634         3002 
 4529000   0.52153992    -7.623569     849.4926  0.015630614  0.014405875         2989 
 4530000    0.5249978   -7.6200762    849.94953  0.015635569  0.014401114         2984 
 4531000   0.53360032    -7.627742    848.23537  0.015600592  0.014396356         3016 
 4532000   0.52511866   -7.6253263    849.14574  0.015613889  0.014391607         2939 
 4533000   0.53158256   -7.6305869     849.0772  0.015609184  0.014386856         2988 
 4534000   0.52113389   -7.6053076    848.86767  0.015601891  0.014382104         2993 
 4535000   0.52261405   -7.6144382    849.51392  0.015610326  0.014377355         2990 
 4536000    0.5276816    -7.632153     849.9459   0.01561482  0.014372605         2978 
 4537000   0.51664368   -7.6177013    849.78161  0.015608361  0.014367862         2975 
 4538000   0.54231876   -7.6196803    848.62588  0.015583698  0.014363118         2965 
 4539000   0.52328829   -7.6286428    849.46747  0.015595716  0.014358376         2939 
 4540000   0.52060978   -7.6178449    848.29426  0.015570746  0.014353632         2985 
 4541000   0.52998922   -7.6303579     849.1558  0.015583128  0.014348895         2993 
 4542000   0.53112327   -7.6229735    848.70488  0.015571424   0.01434416         3009 
 4543000   0.52264906   -7.6230974    849.71114  0.015586454  0.014339425         2982 
 4544000   0.51394193   -7.6246115    848.15516  0.015554489   0.01433469         2944 
 4545000   0.53116634   -7.5977358    848.27102  0.015553191   0.01432996         2995 
 4546000   0.51898941   -7.6065831    847.88631  0.015542717  0.014325234         2979 
 4547000   0.52044471   -7.6096727    848.87285  0.015557379  0.014320505         2973 
 4548000   0.52228741   -7.6061347    848.42952  0.015545836  0.014315783         3003 
 4549000   0.53004996   -7.6131912    846.07474  0.015499281  0.014311059         2988 
 4550000   0.52846653   -7.6036068    848.65513  0.015543134  0.014306339         2919 
 4551000   0.51985762   -7.6315576     848.1174  0.015529873  0.014301619         2958 
 4552000   0.50901552   -7.6103004    848.45252  0.015532596    0.0142969         2966 
 4553000   0.53454363   -7.6164048    847.17214   0.01550575  0.014292184         2949 
 4554000   0.52599772   -7.6225623    849.64073  0.015547517  0.014287476         2926 
 4555000   0.52340877   -7.6205906    848.74452  0.015527708  0.014282759         2944 
 4556000   0.52911252   -7.6239769    848.19817  0.015514307  0.014278048         3003 
 4557000   0.51925104   -7.6428222    849.83709  0.015540873  0.014273343         2981 
 4558000   0.53081045   -7.6264619    847.96397  0.015503217  0.014268637         3033 
 4559000    0.5165042   -7.6114859    848.57315  0.015510952   0.01426393         2969 
 4560000    0.5265223   -7.6153188    847.80864  0.015493579   0.01425923         3000 
 4561000   0.52870371   -7.6204363    848.66751  0.015505874  0.014254526         2949 
 4562000   0.51885431   -7.6167973    848.99851  0.015508522  0.014249829         3012 
 4563000   0.52229336   -7.6123768    848.86109  0.015502613  0.014245131         2969 
 4564000   0.54198994   -7.6181991    849.11641  0.015503878  0.014240435         2987 
 4565000   0.51551192   -7.6229694    848.97702  0.015497938  0.014235739         2968 
 4566000   0.53287011   -7.6261456    848.46772  0.015485248  0.014231043         3000 
 4567000   0.50601797   -7.6212014    849.57894  0.015502134  0.014226352         2977 
 4568000   0.51887587   -7.6247347    848.63994   0.01548161   0.01422166         3026 
 4569000   0.51748425    -7.623531    849.08898  0.015486412  0.014216972         2967 
 4570000    0.5155042   -7.6316692    847.73708  0.015458371  0.014212283         3017 
 4571000   0.51860978   -7.6427323    849.70568  0.015490879  0.014207602         3033 
 4572000   0.51810285   -7.6216114    849.44944   0.01548282  0.014202919         2983 
 4573000   0.52443801   -7.6223267    848.26374  0.015457827  0.014198241         3032 
 4574000   0.51755108   -7.6262206    849.16375  0.015470845  0.014193562         2977 
 4575000   0.51936529   -7.6138517     848.3397  0.015452454  0.014188884         2990 
 4576000   0.52242105   -7.6150775     847.7854  0.015438982  0.014184206         2991 
 4577000    0.5061314   -7.6247978    849.02219  0.015458127  0.014179529         3000 
 4578000   0.51656046   -7.6375845    849.59602  0.015465196  0.014174858         3000 
 4579000   0.51975775   -7.6441396    849.31073  0.015456627  0.014170184         3047 
 4580000   0.52428609   -7.6522335    847.67203  0.015423436  0.014165512         3023 
 4581000   0.53626616   -7.6171866    847.89816  0.015424183  0.014160844         3037 
 4582000   0.51478464   -7.6208043    849.64895  0.015452658   0.01415618         3001 
 4583000   0.52286121   -7.6382316    848.62359  0.015430642  0.014151515         3029 
 4584000   0.50999202    -7.629285    849.04099  0.015434864  0.014146853         3001 
 4585000    0.5139839   -7.6429671    848.01463  0.015412843  0.014142194         3016 
 4586000   0.52895651   -7.6321016    848.84431  0.015424559  0.014137538         3033 
 4587000    0.5140997   -7.6442506    847.29638  0.015393074  0.014132879         3017 
 4588000   0.52293204   -7.6378227    848.63377  0.015414011  0.014128225         3027 
 4589000   0.52030915   -7.6279334    849.13251  0.015419708  0.014123571         3035 
 4590000   0.51133715   -7.6284126    846.15657   0.01536232  0.014118915         3035 
 4591000   0.52006854   -7.6378121    848.07958  0.015393879  0.014114267         3033 
 4592000    0.5188838   -7.6246164    849.45721  0.015415527  0.014109621         2945 
 4593000   0.53248577   -7.6386814    847.21424  0.015371475  0.014104969         2977 
 4594000   0.51068078   -7.6414276    847.76275  0.015378079  0.014100322         2999 
 4595000   0.50595244    -7.630477    848.18312  0.015382356  0.014095675         3046 
 4596000   0.52601232   -7.6341227    849.08584  0.015395377   0.01409104         3008 
 4597000   0.52528233   -7.6521517    848.31126  0.015377987  0.014086404         2952 
 4598000   0.51313043   -7.6298714    847.33094  0.015356875  0.014081771         2986 
 4599000   0.51023822   -7.6396152    848.42627  0.015373383  0.014077136         2986 
 4600000    0.5164606   -7.6095486    848.69453  0.015374901  0.014072504         2994 
 4601000   0.51385871   -7.6342241    848.83986  0.015374191  0.014067871         3022 
 4602000   0.50515802   -7.6143925     848.4224  0.015363291  0.014063243         3021 
 4603000   0.51534892   -7.6278764     849.2778   0.01537544  0.014058614         2981 
 4604000   0.52466909   -7.6314246    848.99029  0.015366896  0.014053988         3012 
 4605000   0.52000556   -7.6285415    848.43694  0.015353546  0.014049364         3024 
 4606000   0.51255561   -7.6370893    848.71142  0.015355178  0.014044741         3002 
 4607000   0.50664419   -7.6376101    847.44359  0.015328912   0.01404012         3026 
 4608000   0.51177035   -7.6345211    848.07194  0.015336949    0.0140355         3073 
 4609000   0.51736198   -7.6426548    847.35439  0.015320648  0.014030881         2950 
 4610000   0.51842983   -7.6312154    847.87007  0.015326646  0.014026264         3042 
 4611000   0.50050929   -7.6321078    847.68927  0.015320055  0.014021649         3023 
 4612000   0.52428658   -7.6341411    848.88009   0.01533825  0.014017036         3039 
 4613000   0.51049154   -7.6254229    847.82661  0.015315894  0.014012426         2994 
 4614000   0.51569821   -7.6379028    847.98843  0.015315497  0.014007818         2997 
 4615000    0.5013399   -7.6438797    847.81547  0.015309055  0.014003212         3019 
 4616000    0.5182953   -7.6228819    848.19335   0.01531256  0.013998606         2994 
 4617000   0.50872051   -7.6393111    848.57708   0.01531617  0.013994005         2996 
 4618000   0.52680362   -7.6568643    847.72856  0.015297541  0.013989401         3005 
 4619000   0.51203124   -7.6345819    848.33102  0.015305099  0.013984799         2985 
 4620000   0.51548643   -7.6388863    846.88282  0.015275664    0.0139802         2952 
 4621000   0.50795187   -7.6402714    847.20768  0.015278217  0.013975604         2978 
 4622000   0.51329139   -7.6353775    848.94548  0.015306243  0.013971009         2967 
 4623000   0.49480535   -7.6331934    847.44291  0.015275847  0.013966416         3031 
 4624000   0.50493352   -7.6270547    847.39083  0.015271605   0.01396183         2992 
 4625000   0.50624471   -7.6415418    848.27586   0.01528425  0.013957242         2981 
 4626000   0.52096792   -7.6287156    848.92421  0.015292625  0.013952655         2993 
 4627000   0.52924525   -7.6442159    847.63118  0.015266032  0.013948069         3039 
 4628000    0.4959556   -7.6442338    847.65156  0.015263101  0.013943485         2997 
 4629000    0.5170105   -7.6455092     847.6696  0.015260128  0.013938905         3006 
 4630000   0.51648981    -7.646664     847.6074  0.015255713  0.013934325         3004 
 4631000   0.51927493   -7.6500387    847.61231  0.015252507  0.013929747         3007 
 4632000   0.50558326    -7.637303    848.34719  0.015262435  0.013925176         3048 
 4633000   0.50676528   -7.6456733    847.52482  0.015244349  0.013920601         3050 
 4634000   0.50806709   -7.6316861    847.36711  0.015238223  0.013916031         3017 
 4635000   0.51773701   -7.6413426    847.95626  0.015245528  0.013911462         2997 
 4636000   0.50739855   -7.6534907    847.66839  0.015237065  0.013906892         2995 
 4637000    0.5099665   -7.6304645    846.76691  0.015217578  0.013902329         3033 
 4638000    0.4917584   -7.6482806    847.54704  0.015228314  0.013897763         3071 
 4639000   0.52206929    -7.620096    848.11068  0.015235156    0.0138932         3059 
 4640000   0.50264589   -7.6241521    847.90629  0.015228202  0.013888639         3030 
 4641000   0.51030414   -7.6519475    847.76098  0.015222312   0.01388408         3054 
 4642000   0.50715552   -7.6534822    848.02623  0.015223794  0.013879518         3033 
 4643000   0.50692615   -7.6482747    847.32123  0.015207862   0.01387496         3021 
 4644000   0.50844305   -7.6430291    847.03229  0.015199402  0.013870408         3016 
 4645000   0.50743127   -7.6470645    848.08383  0.015214995  0.013865853         3028 
 4646000    0.5055459   -7.6372335    846.79383  0.015188582  0.013861298         2960 
 4647000   0.52009442   -7.6482765    847.55767  0.015199011  0.013856752         2966 
 4648000   0.50644782   -7.6371669     846.8874  0.015183724  0.013852205         3032 
 4649000   0.52147732   -7.6370514    846.35304   0.01517088  0.013847658         3060 
 4650000   0.51460336   -7.6386093    847.73918  0.015192458  0.013843112         3068 
 4651000   0.50343982   -7.6453811    847.62483  0.015187143  0.013838568         3023 
 4652000   0.51095438   -7.6242993    847.27463  0.015177605  0.013834023         3025 
 4653000   0.50350545   -7.6539609    847.75543  0.015182954  0.013829482         3054 
 4654000   0.52248132   -7.6552961     847.4278  0.015173825   0.01382494         3025 
 4655000   0.50057111   -7.6275714    845.99137  0.015144851  0.013820402         2979 
 4656000   0.50718409   -7.6419446    847.84217  0.015174724  0.013815866         3048 
 4657000   0.50206864   -7.6534551     849.5339  0.015201738   0.01381133         2989 
 4658000   0.49391177   -7.6729152    848.00465  0.015171115  0.013806798         3077 
 4659000   0.50695665   -7.6489711    848.27844  0.015172756  0.013802267         3039 
 4660000   0.50648867    -7.649966    847.63838  0.015158054  0.013797739         3051 
 4661000   0.50401497   -7.6516352    848.06285  0.015162391  0.013793215         3029 
 4662000   0.49200727   -7.6402531    846.46572   0.01513059   0.01378869         3044 
 4663000   0.51297029   -7.6500227    845.90969  0.015117408  0.013784168         3029 
 4664000   0.50786878   -7.6711621    848.12392  0.015153729  0.013779647         3002 
 4665000   0.50587573   -7.6519721    848.66183   0.01516009  0.013775129         2992 
 4666000   0.50182627   -7.6437316    848.26747  0.015149798  0.013770616         3028 
 4667000   0.50580044    -7.669875    847.35519  0.015130262  0.013766105         3008 
 4668000   0.49298779   -7.6630736    847.66711  0.015132589   0.01376159         2988 
 4669000   0.50208689   -7.6556563    848.62386  0.015146424  0.013757079         3014 
 4670000    0.5036403   -7.6512907    847.32128  0.015119937  0.013752569         2998 
 4671000   0.50793792   -7.6384161    847.27948  0.015115954  0.013748062         2962 
 4672000   0.50181412   -7.6427845    845.60326  0.015082821  0.013743559         3012 
 4673000   0.51223982   -7.6565378     847.8003  0.015118773  0.013739057         3013 
 4674000   0.49113153   -7.6544656    848.58573  0.015129542  0.013734553         2979 
 4675000   0.50879329   -7.6551509    847.16783  0.015101031  0.013730054         3030 
 4676000   0.49970067   -7.6486656    847.75335  0.015108236  0.013725555         3032 
 4677000   0.51363003   -7.6527874    845.83427  0.015070812   0.01372106         3033 
 4678000   0.49283181   -7.6448408    846.66582  0.015082404  0.013716565         2984 
 4679000   0.49872474   -7.6492595    847.54433  0.015094827  0.013712072         3002 
 4680000   0.50284127    -7.660735    847.64692  0.015093428  0.013707582         3002 
 4681000   0.50459809    -7.666247    848.52099  0.015105764  0.013703095         3023 
 4682000   0.50796291   -7.6508875    847.38727  0.015082359  0.013698605         3011 
 4683000   0.51006724   -7.6662877    847.18574  0.015075552  0.013694122         3023 
 4684000   0.50870716    -7.661035    848.08791  0.015088384  0.013689636         3021 
 4685000   0.50469165   -7.6590594    846.39217  0.015055001  0.013685153         3017 
 4686000    0.5080962   -7.6638575    847.46402   0.01507085  0.013680671         2989 
 4687000   0.50761305   -7.6617546    846.69053  0.015053882  0.013676195         2989 
 4688000    0.4970503   -7.6514196    847.42598  0.015063744   0.01367172         2996 
 4689000   0.49749929   -7.6575362    847.48158   0.01506152  0.013667247         2992 
 4690000   0.49174914   -7.6405805    846.29605  0.015037243  0.013662774         2996 
 4691000   0.49622118   -7.6550236    847.92291  0.015062938  0.013658304         3058 
 4692000   0.49765134   -7.6426259     848.0056  0.015061196  0.013653835         3039 
 4693000     0.494784   -7.6561179    847.52831  0.015049512  0.013649369         2969 
 4694000   0.49924746   -7.6680211    846.82386  0.015033799  0.013644903         3032 
 4695000    0.5019963   -7.6373382    847.37966  0.015040463  0.013640439         2971 
 4696000   0.49595011   -7.6387199    846.68505  0.015024934  0.013635976         2955 
 4697000   0.49344928   -7.6730651    847.20639  0.015030984  0.013631514         3017 
 4698000   0.49925333   -7.6581438    847.21241  0.015027892  0.013627055         3039 
 4699000   0.49886802   -7.6436239     844.9259  0.014984144  0.013622597         3029 
 4700000   0.49929805   -7.6500631    847.60711  0.015028495  0.013618139         3021 
 4701000   0.49046344   -7.6742447    847.09538  0.015016227  0.013613683         2973 
 4702000   0.50586866   -7.6658655    847.95785  0.015028319  0.013609229         3001 
 4703000   0.49282516   -7.6802947    847.18888  0.015011498  0.013604773         3040 
 4704000   0.49199039   -7.6559398    848.11616  0.015024734  0.013600323         2999 
 4705000   0.48955944   -7.6516581     846.7004  0.014996465  0.013595867         3015 
 4706000   0.50298521    -7.657708    847.20684  0.015002246  0.013591423         3026 
 4707000   0.48578825   -7.6591044    846.41621  0.014985061  0.013586978         3030 
 4708000   0.49100892   -7.6362032    844.68515  0.014951238  0.013582531         3032 
 4709000   0.49049938   -7.6673759    847.01788  0.014989344  0.013578088         2979 
 4710000   0.48739339   -7.6588641    847.05119  0.014986751  0.013573649         3020 
 4711000   0.49675382    -7.662519    847.06904  0.014983886  0.013569209         2971 
 4712000   0.49999811   -7.6678818    846.95948  0.014978768  0.013564772         3027 
 4713000   0.49482424   -7.6662943    848.37679   0.01500065  0.013560336         3009 
 4714000   0.48843407   -7.6544727    845.81732  0.014952222  0.013555903         2961 
 4715000   0.50471239   -7.6587395    847.06102  0.014971033  0.013551471         3009 
 4716000   0.49320952     -7.66109    847.12233  0.014968941  0.013547039         2980 
 4717000   0.50020074   -7.6787576    847.35935  0.014969955   0.01354261         3001 
 4718000    0.5004406   -7.6554773    846.95944  0.014959719  0.013538186         3009 
 4719000   0.50009476   -7.6717642    847.76991  0.014970861  0.013533763         3052 
 4720000   0.50149197   -7.6690617    846.69727  0.014948751   0.01352934         3029 
 4721000   0.49594583   -7.6740163    846.50735  0.014942232  0.013524919         2993 
 4722000    0.4897061   -7.6577589    845.78857  0.014926383    0.0135205         3050 
 4723000   0.49088156   -7.6700439    845.84515  0.014924221  0.013516081         3004 
 4724000   0.49253922   -7.6509011    846.86044  0.014938972  0.013511665         3005 
 4725000   0.50664095   -7.6576713    847.43911  0.014946016  0.013507253         2984 
 4726000   0.49768724   -7.6893628    846.99102  0.014934952   0.01350284         2991 
 4727000   0.49458425   -7.6688109    847.44604  0.014939815  0.013498424         3001 
 4728000   0.48852307    -7.662406    846.32897  0.014916966  0.013494011         3007 
 4729000   0.49777148   -7.6622088    845.39436  0.014897342  0.013489607         3019 
 4730000   0.49886886   -7.6690804    847.01181  0.014922689  0.013485201         3012 
 4731000   0.49645806    -7.662686    846.36626  0.014908164  0.013480797         3014 
 4732000    0.4893657   -7.6723059    848.40242  0.014940871  0.013476399         3015 
 4733000   0.49521088   -7.6435998    846.21224  0.014899152     0.013472         3011 
 4734000   0.49831667   -7.6576268    846.20028  0.014895794  0.013467602         3035 
 4735000   0.48912868   -7.6568196    845.37887  0.014878192  0.013463203         2989 
 4736000   0.49370838   -7.6694639    845.40094  0.014875439  0.013458806         3058 
 4737000   0.49378762   -7.6576689    847.24526  0.014904744  0.013454413         3054 
 4738000   0.48445466   -7.6726344    847.10528  0.014899136  0.013450018         3011 
 4739000   0.49259985   -7.6545241    846.45987  0.014884643  0.013445627         2998 
 4740000   0.48218237   -7.6567414    846.38343  0.014880159  0.013441239         2997 
 4741000   0.48673928   -7.6560969    846.14985  0.014872914  0.013436852         3010 
 4742000   0.49544903   -7.6613124    847.89043  0.014900366  0.013432467         3023 
 4743000    0.4985598    -7.683443    845.56398  0.014856349  0.013428084         2949 
 4744000   0.49741475   -7.6613857    845.86272  0.014858465    0.0134237         3006 
 4745000   0.49358218    -7.661669    846.06059  0.014858809  0.013419318         3010 
 4746000   0.49051287   -7.6711685    846.23876  0.014858807  0.013414943         3008 
 4747000   0.50634984   -7.6730794    845.34432  0.014839975  0.013410561         3004 
 4748000   0.49003519   -7.6739381    846.58055  0.014858547  0.013406186         3033 
 4749000   0.50078774   -7.6728854    847.07264  0.014864053  0.013401813         3003 
 4750000   0.49054408   -7.6696387     845.9326  0.014840923  0.013397438         3024 
 4751000   0.47787182   -7.6558325    846.81895  0.014853346  0.013393067         3005 
 4752000   0.48236341   -7.6695698    846.93451  0.014852247  0.013388697         2959 
 4753000   0.48032586   -7.6607582    846.81341  0.014846998  0.013384329         2991 
 4754000   0.49019928   -7.6725169    847.06469   0.01484828  0.013379967         2953 
 4755000   0.48617641   -7.6600088    846.74987   0.01483964    0.0133756         2955 
 4756000   0.49051303   -7.6693764    846.54252  0.014832887  0.013371239         2963 
 4757000   0.49603338   -7.6585968    846.75194  0.014833437  0.013366879         2972 
 4758000   0.49113024   -7.6675485    845.12359    0.0148018  0.013362521         3012 
 4759000   0.48451194   -7.6611861     846.9159  0.014830075  0.013358163         2996 
 4760000   0.48665489   -7.6818362    846.95309   0.01482761  0.013353808         2989 
 4761000   0.49658509   -7.6563945     845.6783  0.014802183  0.013349454         3059 
 4762000   0.49924943   -7.6780508     845.5866   0.01479747  0.013345104         2990 
 4763000   0.49867033   -7.6577549    847.45772    0.0148271  0.013340757         3002 
 4764000   0.49337738   -7.6598236    845.33276  0.014786817  0.013336412         3014 
 4765000   0.48339128   -7.6585803    845.66354  0.014789499  0.013332068         2987 
 4766000    0.4848653   -7.6777587    845.45153  0.014782689  0.013327722         3030 
 4767000   0.48749822   -7.6656457    847.11488  0.014808665  0.013323379         3000 
 4768000   0.48180257   -7.6816429    845.31041  0.014774021  0.013319036         3020 
 4769000   0.48840645   -7.6807679    846.92935  0.014799213  0.013314697         3036 
 4770000    0.4830888   -7.6582238    846.83923  0.014794536  0.013310364         2984 
 4771000   0.49456445   -7.6760346     846.1868  0.014780039  0.013306029         3058 
 4772000   0.49010868   -7.6799021    844.44983  0.014746609  0.013301694         3029 
 4773000    0.4827261   -7.6869004    845.87193  0.014768349  0.013297364         3038 
 4774000   0.48907013   -7.6735604    847.98557   0.01480215  0.013293036         3015 
 4775000   0.48611892   -7.6763331    846.83716  0.014779008   0.01328871         3008 
 4776000   0.49659292   -7.6696492    847.03373  0.014779343  0.013284386         3008 
 4777000   0.48654196   -7.6868436    845.03413  0.014741367  0.013280061         3009 
 4778000   0.48930002   -7.6892399    846.45961  0.014763144  0.013275737         2993 
 4779000   0.49399593   -7.6722775    847.79252  0.014783297  0.013271416         2991 
 4780000   0.48710781   -7.6769982    844.49314  0.014722684  0.013267097         3015 
 4781000   0.49683534    -7.679511    845.33307  0.014734244  0.013262778         3021 
 4782000   0.49191848   -7.6481766    845.51287  0.014734296  0.013258464         3026 
 4783000   0.48727321   -7.6885538    846.36057  0.014745985  0.013254146         3011 
 4784000   0.49636464   -7.6632069     845.8633  0.014734241  0.013249834         3038 
 4785000   0.47408474   -7.6768364    847.12706  0.014753171  0.013245522         3042 
 4786000   0.47315923   -7.6700245    844.79358  0.014709458   0.01324121         3037 
 4787000    0.4841937   -7.6936762     844.4599  0.014700576  0.013236902         3009 
 4788000   0.49607301   -7.6826775    846.31082   0.01472972  0.013232595         3052 
 4789000   0.48150793   -7.6655863    845.89503   0.01471941  0.013228287         3005 
 4790000   0.48048144    -7.689416    847.35662  0.014741764  0.013223981         3014 
 4791000   0.48920986    -7.686453    846.79377  0.014728897  0.013219677         2974 
 4792000   0.49219684   -7.6801771    846.23548  0.014716115  0.013215373         3047 
 4793000   0.48010933   -7.6889991    845.20348  0.014695102  0.013211073         3036 
 4794000   0.47864375   -7.6771557    845.93389  0.014704733  0.013206774         3011 
 4795000    0.4871417   -7.6870365    844.77361  0.014681502  0.013202475         2994 
 4796000   0.49034395   -7.6749111    844.42965  0.014672464  0.013198179         2989 
 4797000   0.47782581   -7.6710325    845.59363  0.014689626  0.013193888         3004 
 4798000   0.49201168   -7.6879594    845.97877  0.014693254  0.013189595         3006 
 4799000   0.48252878   -7.6766301    846.20134  0.014694057  0.013185303         2987 
 4800000   0.48004679   -7.6800955    845.49281  0.014678695  0.013181015         2979 
 4801000   0.48737074   -7.6845281    846.70993  0.014696763  0.013176723         3005 
 4802000   0.48388971   -7.6735203    846.39239  0.014688192  0.013172436         2990 
 4803000   0.49605295    -7.685219    845.51183  0.014669856  0.013168152         3020 
 4804000   0.48251856   -7.6703486    844.82333  0.014654859  0.013163871         2991 
 4805000   0.47883572    -7.689546    845.62997  0.014665799  0.013159593         3024 
 4806000   0.47856587   -7.6766428    845.93964  0.014668117  0.013155315         2973 
 4807000   0.47731701    -7.693859    846.47697  0.014674381  0.013151042         3033 
 4808000   0.47683357   -7.6880484    845.78518  0.014659338  0.013146766         2958 
 4809000    0.4822359   -7.6756814    844.05275  0.014626269  0.013142492         3027 
 4810000   0.49053923   -7.6916776    845.38905   0.01464638  0.013138223         3016 
 4811000   0.48385453   -7.6819057     845.7343  0.014649316  0.013133953         3030 
 4812000   0.49827479   -7.6676844    845.98802  0.014650665  0.013129686         3031 
 4813000   0.46692429    -7.672559    845.56718  0.014640335  0.013125419         3016 
 4814000   0.47969091   -7.6728514    845.07079  0.014628701  0.013121152         3012 
 4815000    0.4855082   -7.6880431    845.65505  0.014635775  0.013116888         3012 
 4816000   0.47792236    -7.686143    845.35333  0.014627515  0.013112625         3014 
 4817000   0.48021471   -7.6974635    845.77189  0.014631719  0.013108366         3003 
 4818000    0.4887758   -7.6880671     845.0905  0.014616897  0.013104107         3035 
 4819000   0.48736386     -7.68991    845.64846  0.014623512  0.013099851         3006 
 4820000   0.47075697   -7.6792262    845.32923  0.014614959  0.013095594         3028 
 4821000   0.48179791   -7.6757386    845.45794  0.014614152  0.013091341         2999 
 4822000   0.47488092   -7.6858769    847.05365  0.014638698  0.013087088         3039 
 4823000   0.47695121   -7.6952469    844.96556  0.014599585  0.013082838         3019 
 4824000   0.47826912   -7.6683086    844.82848   0.01459419  0.013078587         3024 
 4825000   0.47704226   -7.6826185    844.24545  0.014581096  0.013074341         3048 
 4826000    0.4765085   -7.6816915    845.65011   0.01460233  0.013070093         3034 
 4827000    0.4807898   -7.6995181    844.99121  0.014587929   0.01306585         3016 
 4828000   0.47493212   -7.6747608    845.59326  0.014595299  0.013061606         3034 
 4829000   0.48510704   -7.6970804    846.55663  0.014608902  0.013057366         3038 
 4830000   0.47813508   -7.6827226    845.50693  0.014587766  0.013053128         3027 
 4831000   0.47413753   -7.6798035    845.10571  0.014577826   0.01304889         2995 
 4832000   0.48104323   -7.6978775    845.46059  0.014580929  0.013044656         3047 
 4833000   0.47551322   -7.6963444    846.26462  0.014591776   0.01304042         3008 
 4834000   0.48171589   -7.6913342    846.61985  0.014594881   0.01303619         2964 
 4835000   0.46837216   -7.6757659    844.99213  0.014563808  0.013031959         3044 
 4836000   0.46689489   -7.6985236    846.46143  0.014586115  0.013027733         3030 
 4837000   0.47914696   -7.6964435    846.55343  0.014584685  0.013023506         3035 
 4838000   0.47021942   -7.6805472    845.22558  0.014558798  0.013019284         3031 
 4839000   0.49584876   -7.6881282    846.26603  0.014573707  0.013015061         3064 
 4840000   0.47979301   -7.6883273     846.1398  0.014568523  0.013010839         3048 
 4841000   0.47267566   -7.6786954    846.04238  0.014563836  0.013006618         3025 
 4842000   0.47020275   -7.6849875    845.90743  0.014558506  0.013002398         3020 
 4843000   0.47346352   -7.6750078    844.86262  0.014537522  0.012998181         3057 
 4844000   0.46775533   -7.6884352    845.07111  0.014538107  0.012993967         3039 
 4845000   0.46747745   -7.6886407    845.23318  0.014537894  0.012989752         3031 
 4846000   0.48147481    -7.696793    846.24778  0.014552342   0.01298554         3035 
 4847000   0.46601657   -7.6851631    844.99361  0.014527777  0.012981331         3028 
 4848000   0.47374514    -7.699906    845.32583  0.014530491  0.012977125         3002 
 4849000   0.47999254   -7.6884265    844.51785  0.014513609  0.012972919         3026 
 4850000   0.47650997   -7.7145367    845.85646  0.014533616  0.012968714         3084 
 4851000   0.47265278   -7.6884592     845.6855  0.014527683   0.01296451         3039 
 4852000   0.47279742   -7.6999601    846.27726  0.014534853  0.012960312         2997 
 4853000   0.48336085   -7.6993096    845.60368  0.014520291  0.012956113         3083 
 4854000   0.48108475   -7.6980204    845.20299  0.014510421  0.012951915         3046 
 4855000   0.47302532    -7.697256    846.10381  0.014522894   0.01294772         3019 
 4856000    0.4587312   -7.6891393    845.04971  0.014501814  0.012943525         3032 
 4857000   0.45870661   -7.6945852    845.30498  0.014503208  0.012939333         3027 
 4858000   0.47811034   -7.7056656    844.78227  0.014491256  0.012935141         3035 
 4859000   0.46496831   -7.6730634    845.87595  0.014507031   0.01293095         3002 
 4860000   0.47520983   -7.7096747    845.31312  0.014494395   0.01292676         3039 
 4861000   0.47394461   -7.6986599    845.03028  0.014486565  0.012922577         3051 
 4862000   0.46846302   -7.6865535    845.80092  0.014496794  0.012918393         3016 
 4863000    0.4787059   -7.7044572     846.6163  0.014507785  0.012914211         3047 
 4864000   0.47783211   -7.6867917    844.63757  0.014470901   0.01291003         3041 
 4865000   0.46997359   -7.6973601     844.2893  0.014461961  0.012905851         3030 
 4866000    0.4720877   -7.6884569    845.53161  0.014480265  0.012901674         3053 
 4867000   0.47912054   -7.6899412    844.93262  0.014467033  0.012897498         3083 
 4868000   0.46191499   -7.6996255    845.94322  0.014481362  0.012893322         3019 
 4869000   0.46693986   -7.7053813    844.48732   0.01445347  0.012889148         3044 
 4870000   0.48271468    -7.708223    845.69309  0.014471134  0.012884974         3018 
 4871000   0.47939739   -7.7058236    845.77473   0.01446956  0.012880806         3018 
 4872000   0.46909475   -7.6900284    844.23907  0.014440323   0.01287664         3049 
 4873000   0.46728973   -7.6918064    845.82271  0.014464442  0.012872473         3030 
 4874000   0.46804956   -7.7013605    845.49051  0.014455794  0.012868306         3024 
 4875000   0.46805518    -7.701358    844.95949  0.014443752  0.012864143         3030 
 4876000   0.47051618   -7.6920691    844.54249  0.014433663  0.012859983         3044 
 4877000   0.48223298   -7.7038012    845.07001  0.014439717  0.012855822         3032 
 4878000   0.47107961   -7.7055895     845.8401  0.014449913  0.012851664         3030 
 4879000   0.47024829   -7.6942852     843.8525  0.014413003  0.012847511         3054 
 4880000   0.46261069   -7.7097644    846.46413  0.014454647  0.012843359         3047 
 4881000   0.46330864   -7.7071807    844.17997  0.014412688  0.012839204         3024 
 4882000   0.46393696   -7.6998451    843.27004  0.014394204  0.012835052         3078 
 4883000   0.47923399   -7.6944854    844.46935  0.014411724    0.0128309         2995 
 4884000   0.46893728   -7.6896628     845.2077  0.014421371  0.012826755         3025 
 4885000   0.47226745   -7.6932107    843.51486   0.01438954  0.012822608         3010 
 4886000   0.45800691     -7.70731    844.81035  0.014408691  0.012818463         3019 
 4887000    0.4664647   -7.7127363    843.77614  0.014388107  0.012814317         3080 
 4888000   0.46255861   -7.7073347    844.16094  0.014391724  0.012810175         3024 
 4889000   0.47337924   -7.7102845    845.44448  0.014410658  0.012806035         3052 
 4890000   0.46729263    -7.691701    844.35353   0.01438912    0.0128019         3033 
 4891000   0.47210622   -7.6935875     845.4613  0.014405052  0.012797765         3017 
 4892000   0.47439625   -7.6908076    846.00713  0.014411405  0.012793631         3014 
 4893000   0.47605122   -7.7002939    844.28328  0.014379101  0.012789497         2967 
 4894000   0.46925465   -7.6973356    844.84812  0.014385781  0.012785368         3039 
 4895000   0.46879904   -7.7010379    844.60027  0.014378622  0.012781238         3056 
 4896000   0.48437083   -7.6999397    844.10751  0.014367298  0.012777112         3004 
 4897000   0.45771819    -7.708619    846.33661  0.014402298  0.012772989         2989 
 4898000   0.48541006   -7.6904088    844.73086  0.014372037  0.012768866         3022 
 4899000   0.46500628   -7.7051501    843.59974  0.014349863  0.012764744         3012 
 4900000   0.47350579   -7.7067418    845.16911  0.014373624  0.012760627         3016 
 4901000   0.47453373   -7.7055066    844.86808  0.014365573  0.012756505         3034 
 4902000   0.45999326   -7.7143852    845.56144   0.01437443  0.012752385         3087 
 4903000   0.46935818    -7.698288    845.05657  0.014362917   0.01274827         3016 
 4904000    0.4684778   -7.7248855    844.56834  0.014351692  0.012744154         3038 
 4905000   0.47212575   -7.7128278    844.50758  0.014347733  0.012740039         3051 
 4906000   0.46819632   -7.7068314    844.97966  0.014352827  0.012735924         3046 
 4907000   0.47156987   -7.7151816     844.1219  0.014335336  0.012731813         3019 
 4908000   0.45746351   -7.7012891    844.46318  0.014338209  0.012727706         3063 
 4909000   0.46792827   -7.7017748    844.41294  0.014334436  0.012723596         3028 
 4910000   0.46116611   -7.7094064    846.11319  0.014360373  0.012719489         3016 
 4911000   0.46232766   -7.6987995    844.24727  0.014325787  0.012715386         3021 
 4912000   0.46109737   -7.6912627    844.78835   0.01433205  0.012711285         3051 
 4913000   0.46712176   -7.7051494     844.9928  0.014332601  0.012707186         3042 
 4914000   0.45953907   -7.7064824    843.68257  0.014307465  0.012703085         3065 
 4915000   0.46665017   -7.7045141    844.73036  0.014322319  0.012698985         3063 
 4916000   0.45895039    -7.702849    845.40221  0.014330794   0.01269489         3047 
 4917000   0.45531512   -7.6992012     845.0719  0.014322282  0.012690794         3023 
 4918000   0.46034997   -7.7105318    845.33323  0.014323798  0.012686702         3030 
 4919000   0.46471388    -7.703683    844.80204  0.014311887   0.01268261         3033 
 4920000   0.47037548   -7.7237217    844.98287   0.01431204  0.012678522         3028 
 4921000   0.46168618   -7.7102862    844.66261  0.014303709  0.012674434         3037 
 4922000   0.46217172   -7.7027114    844.69284  0.014301315  0.012670348         3040 
 4923000   0.45991933   -7.7096867    845.71295  0.014315677  0.012666263         3028 
 4924000   0.46305273    -7.714835    844.03243  0.014284329  0.012662177         3023 
 4925000   0.46275567   -7.7282999    844.07552  0.014282158  0.012658097         3029 
 4926000     0.457799   -7.7035399    845.07829  0.014296222  0.012654016         3049 
 4927000   0.45657623   -7.7199322    844.52316  0.014283931  0.012649939         3031 
 4928000   0.46234816   -7.7121711     843.5966  0.014265365  0.012645864         3037 
 4929000   0.45772998   -7.7024065    844.59465  0.014279344  0.012641792         3068 
 4930000   0.45886358   -7.6872665    843.94269  0.014265427  0.012637722         3018 
 4931000   0.46040371   -7.6933616    843.51103  0.014255239  0.012633648         2992 
 4932000   0.47122601   -7.7154712    845.03184  0.014278045  0.012629579         3040 
 4933000   0.46619559   -7.6911095    843.73117  0.014253179  0.012625511         3027 
 4934000   0.46647432   -7.7080086    845.05189  0.014272596  0.012621447         3018 
 4935000   0.46339635   -7.7077588    845.47247  0.014276806  0.012617382         3023 
 4936000   0.45907216   -7.7172658    844.64635  0.014259967  0.012613319         3019 
 4937000   0.46714873   -7.7102223     843.3412  0.014235048  0.012609256         3041 
 4938000   0.46408453   -7.7150489    844.66912  0.014254575  0.012605194         3013 
 4939000   0.46033589   -7.7110908    843.98343   0.01424012  0.012601135         3048 
 4940000    0.4591364   -7.7163906    843.49908  0.014229067  0.012597076         3037 
 4941000   0.45612353   -7.7167651    844.82307  0.014248517  0.012593019         3038 
 4942000   0.46298963   -7.7136723    844.27967  0.014236471  0.012588964         3043 
 4943000   0.46814105   -7.7144858    844.13733  0.014231191  0.012584912         2966 
 4944000    0.4547392   -7.7201975    843.79446  0.014222533  0.012580861         3039 
 4945000   0.46669175   -7.7135883    843.29659  0.014211267  0.012576814         3040 
 4946000   0.46372586   -7.7091311    846.14568  0.014256397  0.012572766         3083 
 4947000   0.45406746   -7.7240478    845.22004  0.014237923  0.012568721         3034 
 4948000   0.45102996   -7.7158558     843.5943  0.014207665  0.012564678         3056 
 4949000   0.45631266   -7.7301179    844.43415  0.014218936  0.012560635         3011 
 4950000   0.45846269   -7.6982643    842.36027  0.014181149  0.012556593         3062 
 4951000    0.4677874   -7.7269257    845.10026  0.014224404  0.012552553         3018 
 4952000   0.45103568   -7.7185334    843.88737   0.01420112  0.012548515         3040 
 4953000   0.45854647   -7.7215697    844.80325  0.014213663   0.01254448         3064 
 4954000   0.45344624   -7.7156926    844.90423  0.014212492  0.012540448         3063 
 4955000   0.44904683   -7.7310905    844.03905  0.014195073  0.012536415         3052 
 4956000   0.45259014   -7.7068608    844.40108  0.014198296  0.012532382         3059 
 4957000    0.4568802   -7.7076392    843.54601  0.014181057  0.012528353         3065 
 4958000   0.46349931   -7.7080213    843.75777  0.014181756  0.012524324         3066 
 4959000   0.45671327   -7.7009784    843.98175   0.01418266  0.012520297         3060 
 4960000    0.4583523   -7.7342069    844.41726  0.014187118  0.012516272         3053 
 4961000    0.4544312   -7.7021919    843.39802  0.014167137  0.012512249         3032 
 4962000   0.45596124   -7.7123471    843.47768   0.01416562  0.012508226         3057 
 4963000    0.4566349   -7.7072468    843.89297  0.014169739  0.012504207         3064 
 4964000    0.4564636   -7.7169633    843.58204  0.014161665   0.01250019         3060 
 4965000   0.46056656   -7.7326996    844.04861  0.014166643  0.012496171         3069 
 4966000   0.45645883   -7.6998355    845.41834  0.014186776  0.012492159         3090 
 4967000   0.45820176     -7.73388    844.28273  0.014164867  0.012488147         3057 
 4968000   0.46588121   -7.6998239    842.41679  0.014130716  0.012484135         3056 
 4969000   0.46130331   -7.7212374    844.28857  0.014159264  0.012480123         3037 
 4970000   0.46365125   -7.7333782    842.94081  0.014133816  0.012476114         3061 
 4971000   0.45429713    -7.707476    844.57762  0.014158412   0.01247211         3035 
 4972000   0.44814276   -7.7144754     845.2347  0.014166578  0.012468103         3062 
 4973000   0.45521121   -7.7197428    843.82994  0.014140189  0.012464099         3038 
 4974000   0.46323927   -7.6997082    844.63505  0.014150835  0.012460095         3056 
 4975000   0.46300444    -7.707728     843.3051  0.014125714  0.012456095         3084 
 4976000   0.45271234   -7.7083338    844.94845  0.014150396  0.012452098         3077 
 4977000   0.44744728   -7.7214226    844.18628  0.014134791  0.012448101         3010 
 4978000   0.45710345   -7.7424699    844.51279  0.014137418  0.012444104         3044 
 4979000   0.45345659   -7.7105508    844.19438  0.014129249  0.012440112         3089 
 4980000   0.45422189     -7.71277    844.37348  0.014129409  0.012436118         3056 
 4981000   0.45652844   -7.7299123     843.3301  0.014109116   0.01243213         3060 
 4982000   0.45913127   -7.7395647    845.67554  0.014145516  0.012428143         3043 
 4983000   0.46283982   -7.7258247    843.46432  0.014105698  0.012424153         3047 
 4984000   0.45455561   -7.7158856    843.71092  0.014106991  0.012420167         3064 
 4985000   0.44990696   -7.7201892    843.50132  0.014100657  0.012416182         3076 
 4986000   0.45910018    -7.718227    843.26587  0.014093894  0.012412202         3060 
 4987000   0.46053377   -7.7151726    843.18989  0.014089798   0.01240822         3072 
 4988000   0.45397217   -7.7199137    843.20672  0.014087255  0.012404241         3035 
 4989000   0.45966182   -7.7327707     844.1292   0.01409984  0.012400259         3047 
 4990000   0.45049869   -7.7056681    844.80294  0.014108266  0.012396286         3039 
 4991000   0.44714567   -7.7271052    843.53664  0.014084296  0.012392311         3057 
 4992000   0.44858359   -7.7201142    843.26922   0.01407701  0.012388335         3039 
 4993000     0.454045   -7.7284436    843.42566  0.014076802  0.012384361         3073 
 4994000   0.44991566   -7.7272649      844.077  0.014084852  0.012380388         3071 
 4995000   0.44155371   -7.7356202    844.14057  0.014083093  0.012376421         3043 
 4996000   0.45996552   -7.7261842    843.06725  0.014062371  0.012372452         3029 
 4997000   0.44988774   -7.7310184     844.3247  0.014080527  0.012368486         3062 
 4998000   0.44936895   -7.7407384    843.28817  0.014060427  0.012364522         3059 
 4999000   0.45294156   -7.7078657    843.69188  0.014064344  0.012360557         3034 
 5000000   0.43427282   -7.7359973    843.00775  0.014050129  0.012356593         3094 
 5001000   0.45319832   -7.7302736    843.77201  0.014060055  0.012352631         3058 
 5002000   0.45168146   -7.7287697    843.72194   0.01405641  0.012348672         3046 
 5003000   0.45087394   -7.7052056    844.30477  0.014063308  0.012344716         3026 
 5004000   0.45631219   -7.7363902    844.35895    0.0140614  0.012340761         3056 
 5005000   0.45999076   -7.7240503    843.29381  0.014040856  0.012336807         3038 
 5006000   0.44660237   -7.7085019     842.4476  0.014023965  0.012332853         3089 
 5007000   0.45616655   -7.7167584    844.40031  0.014053663  0.012328904         3043 
 5008000   0.44787391   -7.7235245    844.18236   0.01404723  0.012324956         3059 
 5009000   0.44522187   -7.7159242    843.11013  0.014026588  0.012321006         3077 
 5010000   0.44320504   -7.7352892     843.4704   0.01402978   0.01231706         3052 
 5011000   0.44342591   -7.7329837    843.50203  0.014027507  0.012313114         3060 
 5012000     0.443506   -7.7428425    843.58268  0.014026049  0.012309171         3054 
Loop time of 10744.2 on 48 procs for 5000000 steps with 4000 atoms

Performance: 80415.316 tau/day, 465.366 timesteps/s
99.4% CPU use with 48 MPI tasks x no OpenMP threads

MPI task timing breakdown:
Section |  min time  |  avg time  |  max time  |%varavg| %total
---------------------------------------------------------------
Pair    | 700.67     | 734.49     | 762.49     |  48.9 |  6.84
Neigh   | 66.408     | 68.021     | 69.17      |   7.1 |  0.63
Comm    | 590.43     | 621.17     | 662.27     |  63.2 |  5.78
Output  | 55.188     | 55.193     | 55.272     |   0.2 |  0.51
Modify  | 9100.3     | 9147       | 9178.4     |  23.3 | 85.13
Other   |            | 118.4      |            |       |  1.10

Nlocal:        83.3333 ave          89 max          78 min
Histogram: 3 6 5 3 7 9 5 4 3 3
Nghost:        1776.29 ave        1797 max        1755 min
Histogram: 2 2 5 6 5 13 5 5 3 2
Neighs:        10802.9 ave       11661 max        9989 min
Histogram: 3 3 3 8 9 9 3 4 5 1
FullNghs:      21605.8 ave       23177 max       20180 min
Histogram: 3 6 2 5 10 9 3 5 2 3

Total # of neighbors = 1037078
Ave neighs/atom = 259.26950
Neighbor list builds = 269805
Dangerous builds = 0

#clear
#
#next RN
#
#jump SELF
Total wall time: 2:59:07
