
units lj                  # Use reduced LJ style units
atom_style atomic         # Uncharged point particles
atom_modify map hash      # Needed for indexing of clusters etc
                          # Used to be able to find where atoms are in relation to each other.

lattice fcc 1.0 spacing 1 1 1
Lattice spacing in x,y,z = 1.5874011 1.5874011 1.5874011
region box block 0 10 0 10 0 10 units lattice
create_box 2 box
Created orthogonal box = (0.0000000 0.0000000 0.0000000) to (15.874011 15.874011 15.874011)
  3 by 4 by 4 MPI processor grid
create_atoms 1 box
Created 4000 atoms
  using lattice units in orthogonal box = (0.0000000 0.0000000 0.0000000) to (15.874011 15.874011 15.874011)
  create_atoms CPU = 0.002 seconds
set type 1 type/fraction 2 0.23 78393
Setting atom values ...
  954 settings made for type/fraction
mass 1 1.0
mass 2 1.0
pair_style lj/cut  3.5
pair_modify tail  yes
pair_coeff 1  1  1.0  1.0   # Intearaction between 1 and 1 set with epsilon = 1 and sigma = 1
pair_coeff 1  2  1.5  0.8
pair_coeff 2  2  0.5  0.88

write_data data.0
System init for write_data ...
Neighbor list info ...
  update every 1 steps, delay 10 steps, check yes
  max neighbors/atom: 2000, page size: 100000
  master list distance cutoff = 3.8
  ghost atom cutoff = 3.8
  binsize = 1.9, bins = 9 9 9
  1 neighbor lists, perpetual/occasional/extra = 1 0 0
  (1) pair lj/cut, perpetual
      attributes: half, newton on
      pair build: half/bin/atomonly/newton
      stencil: half/bin/3d
      bin: standard
WARNING: Not all mixed pair coeffs generated from mixing. Use write_data with 'pair ij' option to store all pair coeffs. (../write_data.cpp:312)


#############################
#   M E L T   S Y S T E M   #
#############################

velocity all create 2.4 2750902 mom yes dist gaussian # Assign velocities
                                                    # Temperature 2.4, random number seed, zero linear momentum
                                                                                # Gaussian distribution

timestep 0.002   # simulation timestep
thermo 1000       # output thermodynamic data every 1000 steps bf 100

# Define a fix  in this case with index 1 applied to all
# particles in the simulation. This fix is for simulations
# in the anisotropic NPT ensemble. Note that we use the MTK
# correction.
fix 1 all npt temp 2.4 2.4 0.1 iso 5.68 5.68 0.5 mtk yes tchain 5 pchain 5 # Use NPT ensemble
                                                                         # Set temperature and pressure and damping
                                                                         # Numbers of thermostats in chain and in barostat
run 10000          # run for 10000 steps
Per MPI rank memory allocation (min/avg/max) = 3.642 | 3.644 | 3.648 Mbytes
Step Temp E_pair E_mol TotEng Press Volume 
       0          2.4   -6.8530311            0   -3.2539311   -3.7471165         4000 
    1000    2.4156298   -4.8978902            0   -1.2753514    5.5960473    4376.4779 
    2000    2.3330499   -4.9343632            0   -1.4356633    5.2313156    4385.7747 
    3000    2.3629403   -4.8498342            0   -1.3063098    5.6750609    4383.0078 
    4000    2.3861676   -4.8873856            0    -1.309029    5.6101392    4376.7217 
    5000    2.3661642   -4.8596004            0   -1.3112414    6.0084534    4348.4558 
    6000    2.3927786   -4.9142471            0   -1.3259765     5.782499    4347.9356 
    7000    2.4009887   -4.9637751            0   -1.3631925    5.5453093    4342.8511 
    8000    2.4049095   -4.8546227            0   -1.2481603    5.6481898    4387.0659 
    9000    2.4044001   -4.9115237            0   -1.3058252    5.7390378    4359.2027 
   10000    2.4269201   -4.8720167            0   -1.2325467    5.4139461    4409.7436 
Loop time of 2.32015 on 48 procs for 10000 steps with 4000 atoms

Performance: 744778.618 tau/day, 4310.061 timesteps/s
99.6% CPU use with 48 MPI tasks x no OpenMP threads

MPI task timing breakdown:
Section |  min time  |  avg time  |  max time  |%varavg| %total
---------------------------------------------------------------
Pair    | 0.98976    | 1.0548     | 1.1651     |   3.5 | 45.46
Neigh   | 0.19839    | 0.20511    | 0.2296     |   1.2 |  8.84
Comm    | 0.69341    | 0.80381    | 0.90167    |   5.1 | 34.64
Output  | 0.00024269 | 0.00024654 | 0.00030916 |   0.0 |  0.01
Modify  | 0.21195    | 0.24139    | 0.28943    |   4.2 | 10.40
Other   |            | 0.01484    |            |       |  0.64

Nlocal:        83.3333 ave          94 max          75 min
Histogram: 3 4 5 7 8 11 6 3 0 1
Nghost:        1537.17 ave        1569 max        1498 min
Histogram: 2 2 3 3 7 10 8 6 4 3
Neighs:        8652.25 ave        9888 max        7654 min
Histogram: 6 3 6 2 9 7 9 3 2 1

Total # of neighbors = 415308
Ave neighs/atom = 103.82700
Neighbor list builds = 904
Dangerous builds = 196

# Equilibrate just above the melting temperature to avoid step fn in T

fix 1 all npt temp 1.25 1.25 0.1 iso 5.68 5.68 0.5 mtk yes tchain 5 pchain 5
run 2000
Per MPI rank memory allocation (min/avg/max) = 3.643 | 3.645 | 3.649 Mbytes
Step Temp E_pair E_mol TotEng Press Volume 
   10000    2.4269201   -4.8720167            0   -1.2325467    5.4139461    4409.7436 
   11000    1.2458854    -6.632294            0    -4.763933    5.6079301     3560.622 
   12000    1.2402368   -6.6546125            0   -4.7947223    5.8056948    3543.3092 
Loop time of 0.517547 on 48 procs for 2000 steps with 4000 atoms

Performance: 667764.867 tau/day, 3864.380 timesteps/s
99.7% CPU use with 48 MPI tasks x no OpenMP threads

MPI task timing breakdown:
Section |  min time  |  avg time  |  max time  |%varavg| %total
---------------------------------------------------------------
Pair    | 0.22496    | 0.25011    | 0.29053    |   2.4 | 48.33
Neigh   | 0.032475   | 0.034498   | 0.040209   |   0.7 |  6.67
Comm    | 0.1424     | 0.17696    | 0.2086     |   3.6 | 34.19
Output  | 5.2148e-05 | 5.3472e-05 | 6.8555e-05 |   0.0 |  0.01
Modify  | 0.038845   | 0.051319   | 0.063398   |   3.4 |  9.92
Other   |            | 0.004602   |            |       |  0.89

Nlocal:        83.3333 ave          94 max          70 min
Histogram: 1 0 4 2 9 12 9 7 3 1
Nghost:        1782.73 ave        1809 max        1755 min
Histogram: 3 4 3 4 9 7 6 4 5 3
Neighs:        10779.0 ave       11926 max        8964 min
Histogram: 1 0 3 4 8 7 8 7 3 7

Total # of neighbors = 517392
Ave neighs/atom = 129.34800
Neighbor list builds = 142
Dangerous builds = 12

#############################
# L I N E A R  Q U E N C H  #
#############################

# Define solid atoms. This closely follows ten Wolde  Ruiz-Montero and Frenkel  Faraday Discuss  1996  104  93-110
# Compute components of the per-atom q6 vector
compute q6 all orientorder/atom degrees 1 6 components 6 nnn NULL cutoff 1.3 # compute the Q6 parameter.
                                                                             # Use all neighbours within 1.3 unit cell.

# get number of connections
compute coord_number all coord/atom orientorder q6 0.5

# An atom is solid if it has 8 or more connections (of a possible 14)
variable is_solid atom c_coord_number>=8
group solid dynamic all var is_solid    # Must be dynamic to update
dynamic group solid defined

# do clustering
compute cluster solid cluster/atom 1.3 # Create a cluster where all atoms within are solid and max 1.3 units from another member

# define chunks one chunk per cluster
compute clus_chunks solid chunk/atom c_cluster nchunk every compress yes  # Says which atoms are in which chunk

# count the size of each chunk
compute size_chunks solid property/chunk clus_chunks count


# Find the maximum entry in the vector of chunk sizes
variable max_n equal max(c_size_chunks)


# Thermo style which includes this variable
# thermo_style custom step temp pe vol v_max_n

thermo ${N}  # Print the thermo information every 100 steps
thermo 1000  

# Reset the npt fix at a lower temperature (below freezing)
fix 1  all npt temp  ${temp} ${temp}  0.1  iso  5.68  5.68  0.5  mtk yes tchain  5  pchain  5
fix 1  all npt temp  0.45 ${temp}  0.1  iso  5.68  5.68  0.5  mtk yes tchain  5  pchain  5
fix 1  all npt temp  0.45 0.45  0.1  iso  5.68  5.68  0.5  mtk yes tchain  5  pchain  5

dump dmp2 all dcd ${N} traj.dcd
dump dmp2 all dcd 1000 traj.dcd


compute msd all msd com yes
variable twopoint equal c_msd[4]/6/(step*dt+1.0e-6)
fix 9 all vector 10 c_msd[4]
variable fit equal slope(f_9)/6/(10*dt)
thermo_style custom step temp pe c_msd[4] v_twopoint v_fit v_max_n

fix 1 all npt temp 1.25 ${temp} 0.1 iso 5.68 5.68 0.5 mtk yes tchain 5 pchain 5
fix 1 all npt temp 1.25 0.45 0.1 iso 5.68 5.68 0.5 mtk yes tchain 5 pchain 5
run 5000000 # 5000000  # Run for this many steps
Neighbor list info ...
  update every 1 steps, delay 10 steps, check yes
  max neighbors/atom: 2000, page size: 100000
  master list distance cutoff = 3.8
  ghost atom cutoff = 3.8
  binsize = 1.9, bins = 9 9 9
  4 neighbor lists, perpetual/occasional/extra = 1 3 0
  (1) pair lj/cut, perpetual
      attributes: half, newton on
      pair build: half/bin/atomonly/newton
      stencil: half/bin/3d
      bin: standard
  (2) compute orientorder/atom, occasional
      attributes: full, newton on
      pair build: full/bin/atomonly
      stencil: full/bin/3d
      bin: standard
  (3) compute coord/atom, occasional
      attributes: full, newton on
      pair build: full/bin/atomonly
      stencil: full/bin/3d
      bin: standard
  (4) compute cluster/atom, occasional
      attributes: full, newton on
      pair build: full/bin/atomonly
      stencil: full/bin/3d
      bin: standard
Per MPI rank memory allocation (min/avg/max) = 9.782 | 9.788 | 9.794 Mbytes
Step Temp PotEng c_msd[4] v_twopoint v_fit v_max_n 
   12000    1.2402368   -6.6546125 1.114266e-30 7.7379582e-33 8.3333333e+20            3 
   13000    1.2535766   -6.6329873   0.53272918 0.0034149305  0.043076026            1 
   14000    1.2234351   -6.6889961    1.0297842 0.0061296679  0.042931958            2 
   15000    1.2400279    -6.636646    1.5512004 0.0086177794  0.042916226            2 
   16000    1.2749085   -6.6582131    2.0363453  0.010605965  0.042110396            3 
   17000    1.2452644   -6.6615009    2.5006749   0.01225821  0.041445435            1 
   18000    1.2513363   -6.7086199    3.0056597  0.013915091  0.041264188            3 
   19000    1.2636189   -6.6934686    3.5794688  0.015699424  0.041711226            3 
   20000    1.2394491    -6.698839    4.1272645  0.017196935  0.042202786            1 
   21000     1.233273   -6.6790735    4.6344814  0.018390799  0.042503912            3 
   22000    1.2374783   -6.6556753    5.1076532  0.019347171  0.042531046            3 
   23000    1.2651025   -6.7009918    5.6070965  0.020315566  0.042598438            2 
   24000      1.20798   -6.6611558    6.1004242  0.021182028  0.042496969            2 
   25000    1.2361547   -6.6539477    6.6129085  0.022043028  0.042420211            1 
   26000    1.2585105   -6.6581942     7.131075  0.022856009  0.042340994            1 
   27000    1.2281056   -6.6623815    7.6284415  0.023544572  0.042307245            3 
   28000    1.2508165   -6.6517822    8.1783375   0.02434029   0.04232407            1 
   29000    1.2754214   -6.7329816    8.5930739  0.024692741  0.042246494            2 
   30000     1.240318   -6.6392412    9.1281934  0.025356092   0.04219084            2 
   31000    1.2700111   -6.6539332    9.6333507  0.025896104  0.042151649            1 
   32000    1.2358629   -6.7140582    10.286456  0.026787645  0.042215921            2 
   33000    1.2542121   -6.6244503      10.8255   0.02733712  0.042364963            1 
   34000    1.2575716    -6.649224    11.363648  0.027852078  0.042513573            1 
   35000    1.2214477   -6.6942034    11.968794  0.028497127  0.042716554            1 
   36000    1.2493133   -6.6890198    12.421692  0.028753916  0.042839061            2 
   37000    1.2467304   -6.6904409    12.934782  0.029132392  0.042941484            3 
   38000    1.2321602   -6.6351703    13.568603  0.029755708  0.043028169            2 
   39000    1.2579001   -6.6859165    13.969832  0.029850068  0.043127332            1 
   40000    1.2462575   -6.6114346    14.637126  0.030494013  0.043195321            1 
   41000    1.2471869    -6.697763    15.078351  0.030647054  0.043257438            1 
   42000      1.23755    -6.683419    15.583483  0.030919609  0.043305527            1 
   43000    1.2430505   -6.6600626    16.055104  0.031114543  0.043348939            2 
   44000    1.2352116   -6.6527269    16.499746  0.031249518  0.043342784            3 
   45000    1.2278085    -6.675819    16.926401  0.031345188  0.043318397            1 
   46000     1.260766   -6.6842661    17.377385   0.03148077  0.043237443            2 
   47000    1.2599774   -6.6674087    17.756919  0.031483899   0.04313959            2 
   48000    1.2557269   -6.6504787    18.326602  0.031817017  0.043033411            1 
   49000    1.2599852   -6.6707572    18.873879  0.032098434  0.042972411            1 
   50000    1.2592789   -6.6318386    19.312973  0.032188289   0.04288686            2 
   51000    1.2224736   -6.7000923    19.773844  0.032310202  0.042790362            2 
   52000    1.2484673   -6.6885387    20.353311  0.032617485  0.042722614            2 
   53000     1.219488   -6.6515565    21.048404  0.033094975  0.042694773            2 
   54000    1.2405608   -6.6863265    21.527497  0.033221446  0.042689819            1 
   55000    1.2258466   -6.6583887    21.975003  0.033295459   0.04266343            2 
   56000     1.261518   -6.6919764    22.561345   0.03357343  0.042645414            1 
   57000    1.2567371   -6.6426977    23.038447   0.03368194  0.042646627            2 
   58000    1.2325634   -6.6943604    23.691884  0.034040063  0.042651844            3 
   59000    1.2567081   -6.6775312    24.260645  0.034266448  0.042675087            3 
   60000    1.2090586   -6.6525735     24.88852  0.034567389   0.04273287            1 
   61000    1.2364661   -6.7058961    25.306455  0.034571659  0.042792513            4 
   62000    1.2304045   -6.6561344    25.929114  0.034850959  0.042839953            1 
   63000    1.2378654   -6.6801087    26.349471  0.034853797  0.042875739            2 
   64000    1.2056864   -6.6663945     26.99212  0.035145989  0.042914319            2 
   65000     1.233544   -6.6670806    27.530022    0.0352949  0.042953424            2 
   66000    1.2336155   -6.6774242    28.159033  0.035554334  0.042996777            1 
   67000     1.261541   -6.6816398    28.626463  0.035605053  0.043052978            3 
   68000    1.2506682   -6.6882528    29.073983   0.03562988  0.043093837            1 
   69000    1.2307652   -6.6555291    29.947899   0.03616896  0.043154123            2 
   70000    1.2513667   -6.7117878     30.18776  0.035937809  0.043210719            2 
   71000    1.2227526   -6.7158105    30.813217  0.036165748  0.043254994            2 
   72000    1.2558934   -6.7257106    31.450782  0.036401367  0.043321513            1 
   73000    1.2199639   -6.6602407     31.97034  0.036495821      0.04338            1 
   74000    1.2554653      -6.6691    32.415269  0.036503681  0.043423456            1 
   75000    1.2237239   -6.6554163    33.039746  0.036710829  0.043464499            2 
   76000    1.2316364   -6.6725552     33.52761  0.036762731  0.043507697            1 
   77000    1.2143885   -6.6538017     34.24804  0.037064978  0.043545589            1 
   78000    1.2120036   -6.6957667    34.612369  0.036979026  0.043576831            2 
   79000    1.2238495   -6.6555052    35.098622  0.037023862  0.043606963            2 
   80000    1.2204295   -6.6473403    35.504613  0.036983971  0.043615107            2 
   81000    1.2374746   -6.7191106      35.9481  0.036983641  0.043619144            3 
   82000    1.2453987   -6.6508859    36.442416  0.037034975  0.043614398            2 
   83000    1.2248379   -6.6604256    36.503412  0.036650012  0.043596009            2 
   84000    1.2415224   -6.7247382    37.048613  0.036754576  0.043560012            2 
   85000    1.2219799   -6.7026947     37.60616  0.036868784  0.043530924            1 
   86000    1.2370371   -6.7025072    38.196288  0.037011907  0.043501773            2 
   87000    1.2312961   -6.6777784     38.52927  0.036905431  0.043472973            1 
   88000    1.2307696   -6.6318434    39.150387   0.03707423  0.043442738            2 
   89000    1.2369898    -6.680449    39.972618  0.037427545  0.043423249            2 
   90000    1.2426154   -6.7141629    40.268359  0.037285518  0.043405711            2 
   91000    1.2246863   -6.7004373    40.908219  0.037461739   0.04338585            1 
   92000     1.253536   -6.7044126    41.370981  0.037473715  0.043370887            1 
   93000    1.2427062   -6.6285897    42.078103  0.037704393  0.043360131            1 
   94000    1.2197064   -6.7187038    42.294784  0.037495376  0.043350782            2 
   95000     1.255981    -6.647268    42.921966  0.037650847  0.043332023            2 
   96000    1.2581017   -6.7049538    43.442699  0.037710676  0.043317633            2 
   97000    1.2202562   -6.7078233     43.97377  0.037778152    0.0433105            1 
   98000    1.2337458   -6.6906576    44.314104  0.037682061  0.043300671            5 
   99000    1.2265332   -6.6900061    44.844904  0.037748236  0.043282162            1 
  100000    1.2252693   -6.6401794    45.644995  0.038037496  0.043269171            2 
  101000    1.2290199   -6.7082167    46.176113  0.038099103  0.043267652            2 
  102000    1.2417249    -6.712384    46.232041  0.037771275  0.043259268            2 
  103000    1.2463504   -6.7057598    46.708365  0.037789939  0.043237934            1 
  104000      1.23294    -6.678234    47.312903   0.03791098  0.043216725            1 
  105000    1.2394727   -6.6497498    47.980344  0.038079638  0.043196013            2 
  106000    1.2366023     -6.69719    48.312304  0.037981371  0.043176708            2 
  107000    1.2317833   -6.6743981    48.734871  0.037955507  0.043156354            2 
  108000    1.2287664   -6.7054348    49.356279  0.038083549  0.043135741            3 
  109000    1.2623388   -6.6634161    49.873288  0.038129425  0.043120208            2 
  110000    1.2404349   -6.6906664    50.233276  0.038055512  0.043096453            1 
  111000    1.2681369   -6.7020331    50.827435  0.038158735  0.043074107            1 
  112000    1.2553892   -6.7455001    50.972348  0.037925854  0.043049061            2 
  113000    1.2647325   -6.6804216    51.314311  0.037842412  0.043021991            2 
  114000    1.2401163    -6.718228    51.923538  0.037955802  0.042991987            2 
  115000    1.2192178     -6.72436    52.536999  0.038070289  0.042963284            3 
  116000    1.2268329   -6.7110045     53.06578  0.038121968  0.042937739            1 
  117000     1.227235   -6.6674882    53.876318  0.038373446  0.042916535            1 
  118000    1.2063844     -6.64091    54.255988  0.038316375  0.042896025            1 
  119000    1.2551825   -6.6910445     54.66859  0.038283326  0.042877372            2 
  120000    1.2008888   -6.7191731    55.040735  0.038222733  0.042858278            2 
  121000     1.250726   -6.7032796    55.782817  0.038417918  0.042836726            1 
  122000     1.226583   -6.7085468    55.972719  0.038232732  0.042818354            2 
  123000    1.2325262   -6.7256507    56.449632  0.038245008  0.042797058            1 
  124000    1.2207314   -6.6697202    56.933629  0.038261847  0.042773708            2 
  125000    1.2296394   -6.6749448     57.79468  0.038529787  0.042757886            2 
  126000    1.2154966   -6.6610441    58.554093  0.038726252  0.042749528            2 
  127000    1.2481014   -6.6987515    58.783021  0.038571536  0.042741916            2 
  128000    1.2270736   -6.6723488    59.230146  0.038561293  0.042730896            1 
  129000    1.2301829    -6.707225    59.687227   0.03855764  0.042713711            2 
  130000    1.2211242   -6.7053962    60.091587  0.038520248   0.04269562            3 
  131000    1.2389063   -6.6762525    60.378888  0.038408962  0.042677666            1 
  132000    1.2414513   -6.7027001    60.976782  0.038495443  0.042660179            1 
  133000    1.2478122   -6.6774631    61.377809  0.038457274  0.042636417            2 
  134000    1.2142213   -6.7116808    61.508589   0.03825161   0.04260584            1 
  135000     1.235417   -6.6846359    62.308626  0.038462115  0.042578081            1 
  136000    1.2069909   -6.7234605    62.707735  0.038423857  0.042549319            2 
  137000    1.2724587   -6.6856107     63.21308  0.038450778  0.042521377            1 
  138000    1.2563061   -6.7406131    62.958678  0.038018525  0.042488065            2 
  139000    1.2251702   -6.6743538    63.916295  0.038319121  0.042450713            1 
  140000     1.228182   -6.7215014    64.051952  0.038126162  0.042417205            1 
  141000    1.2463275   -6.7434135    64.912651  0.038364451  0.042387979       -1e+20 
  142000    1.2399743   -6.7059498    65.566168  0.038477798  0.042364258            1 
  143000    1.2147229   -6.6500098    66.233245  0.038597462   0.04233924            1 
  144000    1.2727702   -6.7177191    66.481425  0.038473047  0.042313155            1 
  145000    1.2301253   -6.7412963    66.896907  0.038446498  0.042287575            4 
  146000    1.2408463   -6.7152264    67.538351  0.038549287  0.042265199            1 
  147000    1.2414055   -6.7076966     68.25202  0.038691621  0.042241899            2 
  148000     1.204345   -6.6857053    68.728604  0.038698538  0.042226371            1 
  149000    1.2364558   -6.7187144    68.908405  0.038539376  0.042206948            1 
  150000    1.2040846    -6.737487    69.422347   0.03856797  0.042183614            1 
  151000    1.2360719   -6.6834661    70.139235  0.038708187   0.04216203            1 
  152000    1.2313809   -6.7015056    70.552138    0.0386799   0.04214178            4 
  153000    1.2320897   -6.7029605     70.74121   0.03853007  0.042119169            2 
  154000    1.2327325   -6.7422711     71.46277   0.03867033  0.042097265            4 
  155000     1.258772   -6.7299932    71.772798  0.038587526  0.042076439            2 
  156000    1.2219742   -6.7094721    72.127234  0.038529505   0.04205531            3 
  157000    1.2203066   -6.7269636    72.218543   0.03833256  0.042026986            1 
  158000    1.2203108   -6.7355148    72.518476  0.038248141  0.041994417            1 
  159000    1.2026742   -6.7171655    73.224243  0.038377486  0.041963117            3 
  160000    1.2808843   -6.6735015    73.902619  0.038490947  0.041932245            1 
  161000    1.2333761   -6.6981734    74.014018  0.038309533  0.041901882            1 
  162000     1.221961     -6.72397    74.576625  0.038362461  0.041870442            2 
  163000    1.2308661   -6.7253699    74.908654  0.038296858  0.041842127            1 
  164000     1.218283   -6.7132523    75.806727  0.038519678  0.041813975            3 
  165000    1.2253708   -6.6835177    76.381998  0.038576767  0.041790047            2 
  166000    1.2054427   -6.7377121    76.629847  0.038468799  0.041764957            4 
  167000    1.2257139   -6.6842321    77.598908   0.03872201  0.041743335            1 
  168000    1.2230277   -6.7138937    77.875997  0.038628967  0.041722636            2 
  169000    1.2400658   -6.7138065    78.337625   0.03862802  0.041705445            1 
  170000    1.2123559   -6.7072939    79.237319  0.038841823  0.041692663            2 
  171000    1.2438713   -6.6929578    79.845249   0.03891094  0.041681161            3 
  172000    1.2400169   -6.6843571    80.320442  0.038914943  0.041670726            1 
  173000    1.1998926   -6.6909695    80.994639  0.039014758  0.041665559            2 
  174000    1.2349274   -6.7112023    81.429317  0.038998715  0.041659033            1 
  175000    1.2274749    -6.711395    82.065314  0.039078721  0.041651633            2 
  176000    1.2229195   -6.7170481    82.080469  0.038863858  0.041643764            4 
  177000    1.2144262   -6.7154066    82.993308  0.039074062  0.041637298            2 
  178000     1.229886    -6.703596    83.541537  0.039111206  0.041632884            2 
  179000    1.2541803   -6.7475158     83.66112   0.03894838  0.041627205            3 
  180000    1.2446484   -6.7392195    83.950098  0.038865786  0.041617985            1 
  181000    1.2422899   -6.7250107    84.217134  0.038774003  0.041604976            2 
  182000    1.2391568   -6.7292398    84.926193   0.03888562  0.041587814            1 
  183000    1.2211897   -6.7409779    85.157023  0.038778244  0.041575382            4 
  184000    1.2129323   -6.7330233    85.809814   0.03886314  0.041562188            1 
  185000    1.2346508   -6.7122757    86.257052  0.038854528  0.041548043            2 
  186000    1.2231677   -6.7239333    86.585226  0.038792664  0.041530444            3 
  187000    1.2183922   -6.6620743      87.0273  0.038782219  0.041514559            1 
  188000    1.2330913   -6.7191285    87.244211  0.038672079  0.041498667            2 
  189000    1.2414449   -6.7272172    87.752882  0.038691747  0.041481502            3 
  190000    1.2309596     -6.75012    88.424054   0.03878248  0.041463887            1 
  191000    1.1850711   -6.7090456    88.892452  0.038783792   0.04144753            2 
  192000    1.1904221   -6.6442509    89.472141  0.038833394  0.041431775            2 
  193000    1.2227355   -6.6936731    89.786564  0.038767947  0.041415573            2 
  194000    1.2144386   -6.7107842    90.045522  0.038679348  0.041398794            1 
  195000    1.2183121   -6.7134409    90.807322  0.038806548  0.041382485            1 
  196000    1.2347275   -6.7164946    91.095341  0.038731012   0.04136619            2 
  197000    1.2221724   -6.7069104    91.732693  0.038804016  0.041349564            2 
  198000    1.2187787   -6.7007447    91.893333  0.038675645  0.041332859            3 
  199000    1.2282503   -6.7128896    92.411628  0.038698337  0.041314792            3 
  200000     1.244582   -6.7267107    92.779558  0.038658149   0.04129573            2 
  201000    1.1888267    -6.707322    93.251832  0.038661622  0.041275587            2 
  202000    1.2023376   -6.7418766     93.64669  0.038633123  0.041255712            2 
  203000    1.2256945   -6.7190599    94.181866  0.038662506  0.041232189            1 
  204000    1.2176403   -6.7028005    94.717992   0.03869199  0.041213899            1 
  205000     1.222708   -6.7441627    95.285375  0.038733892  0.041197395            2 
  206000    1.2273219   -6.6998643    95.937518  0.038809676  0.041181812            2 
  207000     1.236938   -6.7332678    96.459411  0.038832291  0.041168383            2 
  208000     1.232633   -6.7585863    97.085371  0.038896382  0.041158434            2 
  209000     1.215738   -6.7733738    97.339884  0.038811756  0.041149476            2 
  210000    1.2166683   -6.7113162    98.188861  0.038963834  0.041140271            1 
  211000    1.2292233   -6.7180717    98.260235   0.03880736   0.04113185            3 
  212000    1.2550396   -6.7735798    98.781353  0.038829148  0.041120067            1 
  213000    1.2272335   -6.7514921    99.285197  0.038843974   0.04111061            2 
  214000    1.2437396   -6.6910468    99.688923  0.038819674  0.041096229            1 
  215000    1.2131355   -6.7367048    99.924183  0.038730304  0.041082812            1 
  216000    1.2006029   -6.7496645    99.942699   0.03855814  0.041067294            1 
  217000    1.2069621   -6.7476721     100.7257  0.038681145  0.041050617            1 
  218000    1.2242985   -6.7399925    100.97309  0.038598277  0.041031757            1 
  219000    1.2027032   -6.6995188    101.53079  0.038634241  0.041009494            3 
  220000    1.2154596   -6.7166719    101.51381  0.038452201  0.040987591            1 
  221000    1.2387487   -6.7492304    101.86388   0.03841021  0.040964517            3 
  222000    1.2314114   -6.7653635    102.30345  0.038402196  0.040941831            1 
  223000    1.2056621   -6.7282133    102.61705  0.038347179  0.040916203            4 
  224000    1.2198537   -6.7447001    102.95789  0.038302785  0.040890161            3 
  225000     1.204466   -6.7301017    103.72362  0.038416155  0.040862302            2 
  226000    1.2193878   -6.7175755    103.81113  0.038278438  0.040837594            3 
  227000     1.195752   -6.6767579    104.63108  0.038410822   0.04081334            2 
  228000    1.1995873   -6.6994741    104.92899  0.038351241  0.040787305            1 
  229000    1.2059125   -6.7361033    104.95929  0.038194793  0.040760524            1 
  230000    1.2035024   -6.7234264    105.16186  0.038102122  0.040732886            3 
  231000    1.1741598    -6.741882    106.12111  0.038283227  0.040707866            1 
  232000    1.2251604    -6.710022    106.69611  0.038324753  0.040683266            2 
  233000    1.1925595   -6.7090518    107.11557   0.03831029  0.040661716            3 
  234000    1.2113856   -6.7496657    107.35771  0.038232801  0.040639234            2 
  235000    1.2165553   -6.7310777    107.92682  0.038271923  0.040614986            2 
  236000    1.1936843   -6.7618148    108.35755  0.038261848  0.040591596            1 
  237000    1.2325436   -6.7327151    109.11555  0.038366932  0.040570367            2 
  238000    1.2116244   -6.7678968    109.24355  0.038250544  0.040549131            3 
  239000    1.1828045   -6.7070972    109.73929  0.038263351  0.040527401            2 
  240000    1.2278132   -6.7961509    110.43838   0.03834666  0.040508194            2 
  241000    1.1967084   -6.7476719    110.75001  0.038295301  0.040488778            2 
  242000    1.2292447    -6.742584    111.12362  0.038265711  0.040468132            1 
  243000    1.1988404   -6.7461398     111.5545  0.038256001  0.040446372            3 
  244000    1.2370349   -6.7372359    111.99013  0.038247995  0.040422876            1 
  245000    1.2409014   -6.7543076    111.81439  0.038032104   0.04040045            3 
  246000     1.211592   -6.7727417    112.22586  0.038016891  0.040377003            2 
  247000    1.2290897   -6.7792281    112.88152  0.038084184  0.040352059            3 
  248000    1.1977687   -6.7197755    113.93403  0.038284285  0.040328213            2 
  249000    1.2003615   -6.7569565    113.73013  0.038062292  0.040303073            1 
  250000    1.1957557   -6.7048661    113.80639  0.037935465  0.040277688            3 
  251000    1.2160772   -6.7183718    114.37027  0.037971539  0.040252725            2 
  252000    1.2228884   -6.7128903    114.83664  0.037975078  0.040226875            2 
  253000    1.2049466   -6.7176773    115.50978  0.038046699  0.040201156            5 
  254000    1.1952371   -6.7443767    115.71692  0.037964868  0.040176007            1 
  255000    1.2101596   -6.7389901    115.71827  0.037816428  0.040151275            1 
  256000    1.1918262   -6.7003619    117.00402  0.038087246  0.040126493            2 
  257000    1.2047832    -6.730513    117.24605  0.038017525  0.040103221            2 
  258000    1.1715897   -6.7364212    117.57227  0.037975539  0.040080879            2 
  259000    1.1905121    -6.736244    118.30881  0.038065899  0.040058755            1 
  260000    1.2227902    -6.718467    118.58839    0.0380091  0.040037738            1 
  261000    1.1831985   -6.7293305    119.05632  0.038012874  0.040014943            1 
  262000    1.2188354   -6.7353337    119.57163  0.038031689  0.039994395            2 
  263000    1.2123423     -6.74984    119.93911  0.038003519  0.039972905            3 
  264000    1.2078349    -6.763381    120.67373  0.038091455  0.039952017            2 
  265000    1.1936899   -6.7596036    120.91455  0.038023442  0.039931943            4 
  266000    1.2330739   -6.7763865    120.97762  0.037900257  0.039911659            2 
  267000    1.2375061   -6.7777164    121.37561  0.037882524  0.039890132            3 
  268000     1.196768   -6.6900797     122.0742  0.037958394  0.039868625            1 
  269000    1.2079807   -6.7303895    122.37381  0.037910102   0.03984764            2 
  270000    1.2069664   -6.7058567    122.86654  0.037921771  0.039828803            3 
  271000    1.2239616    -6.720117    123.60724  0.038009607  0.039810986            2 
  272000    1.1899355   -6.7469883      123.443  0.037819548  0.039791189            2 
  273000     1.187023   -6.7614016    124.44866  0.037987992  0.039770093            2 
  274000    1.2062845    -6.756117    124.22905  0.037782559  0.039748741            2 
  275000    1.2125349   -6.7546654    125.13298  0.037919084  0.039727642            1 
  276000    1.2068869   -6.7361886    125.23223  0.037811662  0.039706944            1 
  277000    1.2076878   -6.7331715    126.20738  0.037968525  0.039685761            1 
  278000    1.2197422   -6.7924448    125.91636  0.037744713  0.039666746            1 
  279000    1.2156122   -6.7952447     126.5059  0.037785515  0.039648245            1 
  280000    1.1987949   -6.7548177    127.50642   0.03794834  0.039628783            1 
  281000    1.2158734   -6.7501978    127.36516    0.0377714  0.039609038            3 
  282000    1.2085997   -6.7546493    128.27264  0.037905625  0.039589192            2 
  283000    1.2379826   -6.7386045    128.61329  0.037871993  0.039570175            2 
  284000    1.1922743   -6.7774261    128.70237   0.03776478  0.039550226            2 
  285000     1.205569   -6.7490232    129.24844  0.037791941  0.039529913            1 
  286000    1.2104194   -6.7791021    129.08263  0.037611488  0.039509237            2 
  287000    1.1960493   -6.7725032    129.94167  0.037729868  0.039489111            2 
  288000    1.1857578   -6.7476214    130.09265  0.037642549  0.039470289            4 
  289000    1.1752205   -6.7392895    130.86854  0.037736027  0.039449702            2 
  290000    1.2207869    -6.750042    131.16603  0.037691388  0.039429572            2 
  291000    1.1971901    -6.727246    131.58962  0.037683167  0.039410225            2 
  292000    1.1940814   -6.7505304     132.2404   0.03773984  0.039389847            4 
  293000    1.2221324   -6.7687305    132.16187    0.0375887  0.039369118            1 
  294000      1.19707   -6.7643222    132.33922  0.037511117   0.03934816            2 
  295000    1.2149842   -6.7493535    132.85653  0.037530094  0.039327978            1 
  296000    1.2184441   -6.7614769    133.86591  0.037687474  0.039307781            2 
  297000    1.2231312   -6.7128117     134.5276  0.037746239  0.039290644            1 
  298000    1.2002538   -6.7970767    134.56014  0.037628673  0.039273643            2 
  299000    1.2302364   -6.7777389    135.19991  0.037681134  0.039257452            2 
  300000    1.2094065   -6.7548469    136.10899  0.037808053  0.039242029            1 
  301000    1.1929959   -6.7231748    136.99948  0.037928982  0.039227977            2 
  302000    1.2412317   -6.7391979    136.77725  0.037742065  0.039213277            1 
  303000     1.196963    -6.700612    137.94747  0.037939349  0.039199884            3 
  304000    1.1943719   -6.7448999    138.11898  0.037861563  0.039186468            3 
  305000    1.2111845   -6.7674731    137.99005    0.0377022  0.039172878            4 
  306000    1.2237776    -6.705953    138.86519  0.037817316  0.039161567            4 
  307000    1.1873908   -6.7411521     139.6257   0.03790057   0.03915113            1 
  308000    1.2254777   -6.7651344    140.40135  0.037987377   0.03914139            4 
  309000    1.1827727   -6.7415179    140.88335  0.037994432  0.039131217            3 
  310000     1.195626   -6.7382257    141.49556  0.038036441  0.039122361            1 
  311000    1.2059361   -6.7945341    141.99541  0.038048074  0.039112658            2 
  312000    1.1782781   -6.7690826    142.26001  0.037996798  0.039104382            3 
  313000    1.1930382   -6.7225441    142.81311  0.038022659  0.039096107            1 
  314000    1.2063875   -6.8086954    142.68156  0.037866656  0.039087019            1 
  315000    1.1985506   -6.7636012    143.43486   0.03794573  0.039077299            1 
  316000    1.2011753   -6.8016241    143.77755   0.03791602  0.039068164            2 
  317000    1.1812709   -6.7710687    144.37649   0.03795386  0.039057901            1 
  318000    1.1947584   -6.7450928      144.797  0.037944707  0.039047642            2 
  319000    1.2368036   -6.7648052    145.66509  0.038052532  0.039038683            1 
  320000    1.2065784   -6.7410581    145.99429  0.038019346  0.039031499            3 
  321000    1.1774916   -6.7132641    146.53442  0.038041128  0.039024689            2 
  322000    1.1973873   -6.7763698    146.88706  0.038014248  0.039018417            1 
  323000     1.186128   -6.7453365    147.02781   0.03793287  0.039011591            2 
  324000    1.2245811   -6.7793847    147.81176  0.038017427  0.039004659            2 
  325000    1.2020889    -6.767504    148.09829  0.037973922  0.038997388            1 
  326000    1.1794351   -6.7724717     147.9858  0.037828681  0.038987759            2 
  327000     1.195602    -6.742148    148.72547  0.037901497   0.03897865            2 
  328000    1.2110364   -6.7352318    149.37197  0.037950197  0.038969992            2 
  329000    1.2076464   -6.8001057    149.59949  0.037892473  0.038960137            1 
  330000    1.2202903   -6.7530334    150.53519  0.038013938  0.038950457            3 
  331000    1.2306372   -6.7387644    150.88859  0.037988063  0.038942935            1 
  332000    1.2048599   -6.7767599    150.59749  0.037800574  0.038933817            2 
  333000    1.1920859   -6.7607137    151.24696  0.037849588  0.038923824            2 
  334000    1.2043863   -6.7691293    151.53396  0.037807875  0.038913889            2 
  335000    1.1945157   -6.7384079    152.70759  0.037986964  0.038904712            3 
  336000    1.1665629   -6.7488195    152.54959   0.03783472  0.038896208            2 
  337000    1.1733422   -6.7947457    152.93925  0.037818807  0.038886471            4 
  338000    1.2200255   -6.7304741    153.37978  0.037815527  0.038876946            2 
  339000    1.2002212    -6.725173    153.79418  0.037805844  0.038867754            1 
  340000    1.1927395    -6.776262    154.21525  0.037797854  0.038858642            2 
  341000    1.1861442   -6.8046814     154.8846  0.037850586  0.038848904            1 
  342000    1.2003551   -6.7816856    155.10894  0.037794575  0.038839725            2 
  343000    1.2151485   -6.7589048    155.99464  0.037899572  0.038831844            1 
  344000    1.2105267   -6.8147483    155.67756  0.037712586  0.038822966            1 
  345000    1.1904605   -6.7660988    156.49955  0.037801824  0.038813819            1 
  346000    1.1973346   -6.7723462    157.44412  0.037920068  0.038804517            2 
  347000    1.1913817   -6.7534765    157.52212  0.037829519  0.038794708            1 
  348000     1.188158    -6.802839    157.10417   0.03762073  0.038783588            1 
  349000    1.1949875   -6.8128955    157.13888  0.037521223  0.038772452            4 
  350000    1.2275205    -6.754311    158.57772  0.037756599  0.038761959            3 
  351000    1.1917765     -6.74516    159.25451  0.037809712  0.038751555            2 
  352000    1.2013087   -6.7962531    159.38678  0.037733613  0.038741688            1 
  353000    1.2166349   -6.8076657    159.52428  0.037659178  0.038731898            2 
  354000    1.1902214   -6.8041096    160.15633  0.037701583  0.038722259            4 
  355000    1.1658231   -6.8393668    159.62131   0.03746979  0.038710493            2 
  356000    1.2010237   -6.7751202    161.37117   0.03777415  0.038698859            4 
  357000     1.210451   -6.7387686    161.40552  0.037676358  0.038688663            2 
  358000      1.19589   -6.7703504    162.24957   0.03776759  0.038678967            1 
  359000    1.1686305   -6.7842008    161.94986  0.037592817  0.038669351            1 
  360000    1.2219102   -6.7592819    163.39641  0.037823244  0.038659866            2 
  361000    1.1790767   -6.7638153    163.18877  0.037670538  0.038650631            1 
  362000    1.2051099   -6.7682568    163.85725  0.037720362  0.038641521            1 
  363000    1.2011087   -6.7670122    164.23073  0.037702189  0.038634278            1 
  364000    1.2095771   -6.7470218     165.1831  0.037816644  0.038626059            3 
  365000     1.188839     -6.80524    165.48313  0.037781536  0.038618904            1 
  366000    1.1878989   -6.7592838    166.43139  0.037894215  0.038612186            2 
  367000    1.1923215   -6.7846651    166.60556  0.037830509  0.038606058            2 
  368000    1.2034037   -6.7573217    167.90081  0.038021018  0.038600356            2 
  369000    1.1749839   -6.7360755    168.20644  0.037987001  0.038596381            2 
  370000    1.1803603   -6.8186364    167.72783  0.037776538  0.038591981            2 
  371000     1.197641   -6.7425334     168.6479  0.037881379  0.038586547            1 
  372000    1.1950018   -6.7892019    168.90736   0.03783767  0.038580639            1 
  373000    1.1920108   -6.7902553    169.31213   0.03782666  0.038574729            2 
  374000    1.2081097   -6.7508217    169.95946  0.037869755  0.038569621            1 
  375000    1.1896595   -6.7807438    169.62793  0.037695096  0.038563717            1 
  376000    1.1980587   -6.7708328    170.29862  0.037743489  0.038556437            2 
  377000    1.2099817   -6.8079427    170.84419  0.037763968  0.038549557            1 
  378000    1.2106567   -6.7768368    171.14731  0.037730888  0.038542694            1 
  379000    1.1803257   -6.7909286    171.87755  0.037791898   0.03853568            5 
  380000    1.1755806   -6.7497626     172.3596  0.037798157  0.038528841            3 
  381000    1.2030131   -6.7699007    172.67763   0.03776851  0.038521779            2 
  382000    1.1891939   -6.7983389    172.96002  0.037731242  0.038515294            3 
  383000    1.1914198   -6.7967715     172.9618  0.037633117  0.038508316            1 
  384000    1.1756277   -6.7592651    174.05411  0.037772159  0.038501353            4 
  385000    1.1998312   -6.7463437    174.43572   0.03775665  0.038495067            3 
  386000    1.1646663   -6.7954786    174.58905  0.037691937  0.038488447            2 
  387000    1.1872763   -6.7456433    175.96082  0.037889926  0.038482725            2 
  388000    1.1901709     -6.76908    176.16605  0.037836351  0.038477263            4 
  389000     1.160324   -6.8008845    175.91948  0.037686264  0.038471257            3 
  390000    1.2130123    -6.796722    176.92559  0.037804613  0.038464957            3 
  391000    1.1832165   -6.7640255    177.33026  0.037794173  0.038458479            4 
  392000    1.1999857   -6.7688211    177.63991  0.037763586  0.038453031            2 
  393000     1.184878   -6.7281749    177.76287   0.03769357  0.038446757            2 
  394000    1.2175326   -6.7861368    178.29757  0.037710992  0.038440971            1 
  395000    1.1798013   -6.7922697    178.56569  0.037672087  0.038434829            2 
  396000    1.1906112   -6.8071225    180.04051  0.037887312  0.038429226            2 
  397000    1.2023534   -6.8068089    179.83336  0.037748396  0.038423328            2 
  398000    1.2039959   -6.7994313    180.26567  0.037744069  0.038417853            1 
  399000    1.1959875   -6.7980187    181.65933  0.037940544  0.038413237            1 
  400000    1.1902852   -6.7815568    181.04227  0.037717139  0.038408587            3 
  401000    1.1905242   -6.7993701    182.41657   0.03790868  0.038404423            3 
  402000    1.1590331   -6.7521835    183.45917  0.038030508  0.038400942            1 
  403000    1.1566683   -6.7650989    182.95161  0.037831184  0.038396879            1 
  404000    1.2031454   -6.8116571    183.44287  0.037838876  0.038392734            2 
  405000    1.1848416   -6.7837444    183.94514  0.037848795  0.038388389            1 
  406000    1.1688087   -6.7843099    184.56984  0.037883793  0.038383382            1 
  407000    1.1722207    -6.747615    184.89538  0.037857367  0.038379771            1 
  408000    1.1809282   -6.8085194    184.40711  0.037664851  0.038375333            2 
  409000    1.1842355   -6.7977409    185.57359  0.037810431  0.038370347            2 
  410000     1.180669   -6.8222999    184.81491  0.037564005  0.038366452            1 
  411000    1.1843781   -6.7650368    186.43353  0.037800797  0.038360747            2 
  412000    1.1726149   -6.7731415    186.60013  0.037742745  0.038355896            1 
  413000    1.1704894   -6.7933459    187.59114   0.03785132    0.0383521            2 
  414000    1.1546284   -6.7943891    188.18985  0.037880405  0.038348876            1 
  415000    1.1906938   -6.7962614    187.90376  0.037731679  0.038344098            2 
  416000    1.1877051   -6.8264192    188.59469  0.037779385   0.03833901            2 
  417000    1.1762927   -6.8089041    188.11746  0.037593416  0.038332533            2 
  418000    1.1719685    -6.805773      188.919  0.037663278  0.038326218            3 
  419000    1.1711904   -6.7932864    189.13699  0.037616744  0.038319707            2 
  420000    1.1745883    -6.767792    189.58495  0.037616062  0.038312772            3 
  421000    1.1762382   -6.7830875    189.93506  0.037596013  0.038305517            2 
  422000    1.1955669   -6.8003518    189.59253  0.037439283  0.038298029            4 
  423000    1.1685138   -6.7859803    191.07589  0.037643005  0.038291091            4 
  424000     1.187701    -6.801768    191.02585  0.037544388   0.03828414            3 
  425000    1.1783011   -6.7473097    192.03904  0.037654713  0.038278317            2 
  426000    1.1701805   -6.8082613     192.0459  0.037567663  0.038272487            3 
  427000    1.1613907   -6.7593013    192.92582  0.037651409   0.03826662            1 
  428000    1.1852345   -6.7950642    193.36897  0.037649721  0.038260743            1 
  429000    1.1919235   -6.8002729    193.66892  0.037620226  0.038255049            3 
  430000    1.1760243   -6.8448018    193.98659    0.0375943  0.038249514            3 
  431000     1.184745    -6.810259    194.23088  0.037554308  0.038243355            3 
  432000    1.2112692   -6.8200736    194.02626  0.037427905  0.038236372            1 
  433000    1.1903422   -6.8121775    194.53044    0.0374385  0.038229472            1 
  434000    1.1496658    -6.784096      195.699  0.037576614  0.038222344            1 
  435000    1.1901933   -6.8302373    195.45811  0.037444082  0.038214914            2 
  436000    1.1826958   -6.7970954    195.32735  0.037333209  0.038206763            4 
  437000    1.2187012   -6.8016969    195.97615    0.0373715  0.038197967            3 
  438000    1.1963893   -6.7824659    196.58307  0.037401649  0.038188616            1 
  439000    1.1777268   -6.8362941    196.00829  0.037207344  0.038179154            2 
  440000    1.1985796    -6.824336    197.19426  0.037347397  0.038169173            2 
  441000    1.1901649   -6.7995976    197.35856  0.037293756    0.0381592            2 
  442000    1.1953958   -6.8012713    198.46868   0.03741868  0.038150956            1 
  443000     1.172001   -6.8303901    198.42622  0.037326227  0.038142397            2 
  444000    1.1879583   -6.8164915    198.95983   0.03734231  0.038134292            1 
  445000    1.2035156   -6.7812175     199.6337  0.037384588  0.038125501            1 
  446000    1.1940616   -6.8179915    199.42694  0.037262133  0.038116766            3 
  447000    1.1850319   -6.8422562    199.86608  0.037260641  0.038108109            1 
  448000    1.1721926   -6.8278156     201.0942  0.037405914  0.038100307            3 
  449000    1.1760625   -6.7611858    200.75249  0.037259185  0.038091978            3 
  450000    1.1916439    -6.816498    201.43157  0.037302142  0.038084239            2 
  451000    1.1672241   -6.8084938    201.86787  0.037300049  0.038075876            1 
  452000    1.2122907   -6.8113885    202.29353  0.037296005  0.038067801            3 
  453000    1.1883559   -6.8026341    202.81258  0.037309158  0.038059887            2 
  454000    1.1630999   -6.8411211    203.53159  0.037358955  0.038052194            1 
  455000    1.1796111   -6.8352027    203.48483  0.037268284  0.038045008            2 
  456000    1.1722456   -6.8150754    204.53431  0.037378345  0.038037782            1 
  457000    1.1908389   -6.8184378    205.95374  0.037555386  0.038031119            1 
  458000    1.2030615   -6.8101176    205.91664  0.037466637  0.038025087            2 
  459000    1.1885858   -6.7721748    206.65223  0.037518561  0.038019795            1 
  460000    1.2002925   -6.8038286    206.91547  0.037484686  0.038013985            1 
  461000    1.1812006   -6.8311719    206.70259  0.037364893  0.038008122            2 
  462000    1.1834382   -6.7894416    207.46306  0.037421187  0.038001914            2 
  463000    1.1708886   -6.7824477    207.79473  0.037400059  0.037995408            1 
  464000    1.1655201   -6.8200214    208.44375  0.037436018   0.03798858            2 
  465000    1.1916469   -6.8035424    208.64422  0.037391438  0.037982525            2 
  466000    1.1664889   -6.8076367    208.59726  0.037302801  0.037976208            1 
  467000    1.1872005   -6.8452737    208.73293  0.037247133  0.037969234            2 
  468000    1.1821771   -6.8152899    209.37911  0.037282605  0.037962293            2 
  469000    1.1495988   -6.8139987    209.29825  0.037188744  0.037954735            1 
  470000    1.1781677   -6.8334477    209.91828  0.037219553  0.037947248            1 
  471000    1.1494221   -6.8100603    210.46949  0.037238055  0.037939921            1 
  472000    1.1815217   -6.7891705      211.289   0.03730385  0.037933032            3 
  473000    1.2068438   -6.7711479    212.05991  0.037360801  0.037926158            2 
  474000    1.1867408   -6.7993205    212.32342  0.037328309    0.0379193       -1e+20 
  475000    1.1655191   -6.7843513    212.50636  0.037281818  0.037912454            3 
  476000    1.1358125   -6.8280455     212.7325  0.037243085  0.037905497            2 
  477000    1.1613094   -6.7710218    213.68237  0.037330953  0.037898624            3 
  478000    1.1633552   -6.7826252    213.88272  0.037287783  0.037892154            2 
  479000    1.1978512   -6.7964779    213.87907  0.037209302  0.037884949            2 
  480000     1.184049   -6.7778028    214.81531  0.037294324  0.037878217            2 
  481000    1.1987242   -6.8395085    216.03617  0.037428304  0.037871473            1 
  482000    1.1753008    -6.850594    215.49004   0.03725623  0.037865234            1 
  483000     1.168652   -6.8115163    217.61764  0.037546176  0.037859646            2 
  484000    1.1623716    -6.870348    216.30971  0.037243407  0.037853658            2 
  485000    1.1789684   -6.8688621    216.67643  0.037229627  0.037847422            1 
  486000    1.1953756   -6.7970465    217.77101  0.037340708  0.037840719            2 
  487000    1.1816769   -6.8106021    216.70848  0.037082218  0.037833893            2 
  488000    1.1770017   -6.8440835    217.66972  0.037170376  0.037827102            1 
  489000    1.1571734   -6.8376414    218.20159  0.037185002   0.03782014            5 
  490000    1.1868832   -6.8437788    218.78731  0.037208726  0.037813839            2 
  491000    1.1663008   -6.8247702    219.05289  0.037178019  0.037807238            1 
  492000    1.1545757   -6.8193741    219.81472   0.03723149  0.037800636            2 
  493000    1.1559227   -6.8074884    220.84501  0.037330124  0.037794303            1 
  494000    1.1697675   -6.8130669    220.62564   0.03721755   0.03778789            3 
  495000    1.1943758   -6.7842214    221.04678  0.037213263  0.037781744            3 
  496000    1.1700191   -6.8094924    221.49351  0.037213291  0.037775434       -1e+20 
  497000    1.1714376   -6.7991339    222.38931  0.037288617  0.037769878            1 
  498000    1.1914012   -6.7981419    222.68457  0.037263148  0.037764556            3 
  499000    1.1612617   -6.7875869    222.79199  0.037206411  0.037759224            1 
  500000    1.1846962   -6.8328608    222.97725  0.037162874  0.037752997            2 
  501000     1.160234   -6.8123733    224.39574  0.037324641   0.03774679            1 
  502000    1.1780662   -6.7931545    224.23157  0.037223036  0.037740514            1 
  503000    1.1740763   -6.7958184    224.80525  0.037244078  0.037734454            1 
  504000    1.1654637   -6.7801725    225.42633  0.037272872  0.037728484            1 
  505000    1.1507864   -6.7988696    225.76623  0.037255154  0.037722221            1 
  506000    1.1773908   -6.8594291    225.48235  0.037134775  0.037716575            2 
  507000    1.1783282   -6.8630186    226.42688  0.037216778  0.037710616            4 
  508000    1.1662921   -6.8238326    227.29673   0.03728621  0.037704702            2 
  509000    1.1762059   -6.8109715    227.59331  0.037261512  0.037698629            1 
  510000    1.1565854   -6.7922341    228.06593  0.037265674  0.037692992            1 
  511000    1.1498665    -6.853605    228.64893  0.037287823   0.03768754            2 
  512000    1.1588875   -6.8529947    228.16933  0.037136935  0.037681321            1 
  513000    1.1604093   -6.8248986    228.90521  0.037184082  0.037675533            1 
  514000    1.1759143   -6.8089951    229.36589  0.037186428  0.037669233            2 
  515000    1.1788248   -6.7937578    230.26967  0.037260465  0.037663537            2 
  516000    1.1703583   -6.8536037    229.95668  0.037137706  0.037657423            2 
  517000    1.1750482   -6.8142768    230.31822  0.037124149  0.037651031            2 
  518000    1.1920843   -6.8324396    230.71798  0.037116792  0.037644898            3 
  519000    1.1691649   -6.8373222    230.97836  0.037087084  0.037638603            1 
  520000    1.1486598   -6.8021296    232.00729  0.037180655  0.037632704            1 
  521000    1.1815282   -6.7970509    232.79855  0.037235853  0.037627163            3 
  522000    1.1552564   -6.8228114    232.24263  0.037075771  0.037621429            1 
  523000    1.1758222   -6.8277526    233.00576  0.037126476  0.037615349            2 
  524000    1.1418888   -6.8308334    233.13938  0.037076874  0.037609183            2 
  525000     1.162935   -6.8543615    233.30536  0.037032597  0.037602774            1 
  526000      1.18989   -6.8065772    233.84656  0.037047934    0.0375962            1 
  527000    1.2024305   -6.7959739    235.05376  0.037168526  0.037589466            1 
  528000    1.1625979   -6.8405685    235.13829  0.037111473  0.037582525            2 
  529000    1.1671568   -6.8205291    234.81319  0.036990105   0.03757547            1 
  530000     1.169558   -6.7755894    235.79358  0.037074462  0.037568416            3 
  531000    1.1532439   -6.8276914    236.07843  0.037049346  0.037561236            2 
  532000    1.1730497   -6.8294462    236.08322  0.036980454   0.03755377            2 
  533000    1.1621483   -6.8960821     235.6747  0.036847202  0.037546326            2 
  534000      1.17626   -6.8131241    237.82117  0.037113166  0.037538726            2 
  535000    1.1913338   -6.8240148    236.90835  0.036901612  0.037531242            1 
  536000    1.1480245    -6.831238    238.18911   0.03703189  0.037524598            2 
  537000    1.1693244   -6.7971598    238.52201  0.037014589  0.037518202            2 
  538000    1.1904202   -6.8318377    238.28248  0.036908686   0.03751136            2 
  539000    1.1714339   -6.8589318    238.24842  0.036834944  0.037504343            1 
  540000    1.1697844   -6.8512925    238.61322  0.036823029  0.037496673            2 
  541000      1.16882   -6.8107228    239.26076  0.036854707  0.037488458            1 
  542000    1.1704062   -6.8196756    240.10981  0.036917253  0.037480483            4 
  543000    1.1545124   -6.8537143    240.00466  0.036833128  0.037472045            4 
  544000    1.1544847   -6.8606516    239.70301  0.036719211  0.037463616            5 
  545000    1.1543746   -6.7994708    240.47285  0.036769549  0.037455435            2 
  546000    1.1464426   -6.8436973    240.41815  0.036693857  0.037446988            2 
  547000    1.1893762   -6.8448652    241.18675  0.036743869  0.037438526            2 
  548000    1.1757299   -6.8448397    241.39309  0.036708195  0.037430283            2 
  549000    1.1564612   -6.8471613    242.24283  0.036770315  0.037421997            8 
  550000    1.1524618   -6.8153242    242.55071  0.036750107  0.037413604            1 
  551000    1.1301642   -6.8097587    243.45542  0.036820239  0.037405615            4 
  552000    1.1883394   -6.8467632    243.42087   0.03674832  0.037397421            3 
  553000    1.1505378   -6.8146126    244.28167  0.036811584  0.037388874            2 
  554000    1.1965344   -6.8620785    244.31233  0.036749748  0.037380139            2 
  555000    1.1694162   -6.8434116    245.53925  0.036867754  0.037371843            1 
  556000    1.1680672   -6.8070121    244.97452  0.036716805  0.037363637            2 
  557000    1.1614499    -6.862827    244.48889   0.03657823  0.037355115            2 
  558000    1.1684583   -6.8165125    245.50669  0.036664678  0.037346425            1 
  559000    1.1587012   -6.8216531    245.77933  0.036639732  0.037337852            2 
  560000    1.1595982   -6.8459518    246.48948  0.036679982  0.037329761            1 
  561000    1.1715462    -6.836964    246.99843  0.036690201  0.037321564            2 
  562000     1.179104    -6.829845    248.00697  0.036774462  0.037313577            3 
  563000    1.1407927   -6.8373039    246.32903   0.03646078   0.03730489            2 
  564000    1.1727466   -6.8521425    247.69991  0.036598686  0.037295832            2 
  565000    1.1664354   -6.8726569     247.6661  0.036528924  0.037286862            2 
  566000    1.1459964   -6.8561325    248.56925  0.036597357  0.037277542            2 
  567000    1.1657668   -6.8176658    249.33718  0.036645676  0.037267982            2 
  568000    1.1595489   -6.8596798    248.22532  0.036418034  0.037258487            2 
  569000    1.1523286   -6.8191338    250.23343   0.03664813  0.037249492            1 
  570000    1.1674362    -6.836251    249.87302  0.036531143  0.037240511            2 
  571000    1.1720093   -6.8641558    251.60937  0.036720573  0.037232065            2 
  572000    1.1741228   -6.9003199    250.59094  0.036508003  0.037223684            1 
  573000    1.1722428   -6.8298087    250.82866  0.036478862  0.037214894            2 
  574000    1.1573574   -6.8420163    251.43793  0.036503764  0.037206579            1 
  575000    1.1938274   -6.8492004    252.26566   0.03656024  0.037198405            2 
  576000    1.1590039   -6.8001587    252.61971  0.036547991  0.037189617            2 
  577000    1.1688164   -6.8926153    252.70636  0.036497163  0.037181022            2 
  578000    1.1398212   -6.8549581    253.47501   0.03654484  0.037172369            3 
  579000    1.1907514   -6.8006794    254.54226  0.036635329  0.037164034            2 
  580000    1.1754722   -6.8542308    254.15283  0.036516211  0.037155478            3 
  581000    1.1621633   -6.8756081    254.84957  0.036553295  0.037146869            1 
  582000     1.137566   -6.8049515    255.15065  0.036533598  0.037138848            2 
  583000    1.1516123     -6.79868    256.41115  0.036651107  0.037131305            2 
  584000     1.159628   -6.8299259     256.5787  0.036612257  0.037123887            1 
  585000    1.1520084   -6.8142914    257.31957  0.036655209  0.037116388            1 
  586000    1.1458883   -6.8326387     257.5458  0.036624829  0.037108864            4 
  587000    1.1564987   -6.8869928    257.19534  0.036512683  0.037101594            2 
  588000    1.1685306    -6.847485    258.60661  0.036650597  0.037093963            1 
  589000    1.1501491   -6.8514837    257.92127  0.036491408   0.03708626            1 
  590000    1.1447295   -6.8312466    258.96026  0.036576308  0.037078639            2 
  591000     1.156342   -6.8390748    259.19577  0.036547627   0.03707094            1 
  592000    1.1361167   -6.8190449    260.27423  0.036637701  0.037063686            2 
  593000    1.1636499   -6.8366474    260.69528  0.036635087  0.037057011            1 
  594000    1.1415502   -6.8561918    260.71136  0.036575667   0.03705017            3 
  595000    1.1731208   -6.8180112    262.66028  0.036787155  0.037043825            2 
  596000    1.1720302   -6.8558946    262.11716  0.036649491  0.037037559            2 
  597000    1.1620861   -6.8285621    262.66178  0.036664123  0.037031497            2 
  598000    1.1337177   -6.8609076    262.93249  0.036640537  0.037025386            1 
  599000    1.1341037   -6.8626229    262.89186  0.036573715  0.037018616            3 
  600000    1.1315839   -6.8308362    263.11057  0.036543135  0.037012267            1 
  601000    1.1854437   -6.8466176    263.11545  0.036483007  0.037005689            2 
  602000    1.1441595   -6.8517755    264.15165  0.036565843  0.036998643            3 
  603000     1.170647   -6.8425772    265.94022  0.036752379  0.036992055            2 
  604000    1.1488294   -6.8544491    264.84158  0.036539953  0.036985659            2 
  605000     1.169146   -6.8309066    266.18522  0.036664631  0.036978785            4 
  606000    1.1342566    -6.846471    265.92431  0.036568249  0.036972007            2 
  607000    1.1672702    -6.812865    266.00295  0.036518802  0.036965209            2 
  608000     1.174877   -6.8556799    266.21769   0.03648817  0.036958227            2 
  609000    1.1681864    -6.844328    266.58104  0.036477974  0.036951031            2 
  610000    1.1564193   -6.8731017    266.77879  0.036445189  0.036944394            3 
  611000    1.1436214   -6.8556289    267.88944  0.036537021  0.036937182            1 
  612000    1.1900488   -6.8950103    267.54595  0.036430549  0.036929453            4 
  613000    1.1572961   -6.8504163     268.0475  0.036439301  0.036921952            3 
  614000    1.1378128   -6.8096672    268.13301   0.03639156    0.0369148            2 
  615000    1.1741823   -6.8606655    269.00495  0.036450536  0.036907269            2 
  616000    1.1548537    -6.875218    269.07689  0.036401095  0.036899904            2 
  617000    1.1394505   -6.8923659    269.01838  0.036334195  0.036892603            2 
  618000    1.1621929    -6.848234    270.85105  0.036522525  0.036886218            2 
  619000    1.1292079   -6.8818675    270.97126  0.036479707  0.036880383            2 
  620000    1.1331279   -6.8928719    271.06992  0.036434129  0.036873941            1 
  621000    1.1727886   -6.8384252    271.33626    0.0364112  0.036867422            2 
  622000    1.1552226   -6.8862872    272.28429  0.036479674   0.03686051            2 
  623000    1.1546074   -6.8488996    272.02276  0.036386137  0.036853465            1 
  624000    1.1543684    -6.847657    272.99084   0.03645711   0.03684677            1 
  625000    1.1458988   -6.8601545    273.47508  0.036463343  0.036840195            2 
  626000    1.1612765   -6.8738634    273.85429  0.036455577  0.036833931            1 
  627000    1.1563811   -6.8699964    274.01473  0.036418757  0.036827106            2 
  628000      1.14263   -6.8712919    273.55045  0.036299157  0.036820097            2 
  629000    1.1522846   -6.8559752     274.9922   0.03643246  0.036813318            2 
  630000    1.1474028   -6.8598409    274.92499  0.036365739  0.036806881            3 
  631000    1.1639095   -6.9010145    275.64306   0.03640294  0.036800806            2 
  632000    1.1659183   -6.8691027    276.59163  0.036470416  0.036795058            2 
  633000    1.1623432   -6.8552341    277.17491  0.036489588  0.036789294            2 
  634000    1.1207865   -6.8436435    277.13507  0.036426797  0.036782998            3 
  635000      1.16675   -6.8643558     278.1001  0.036496076  0.036776823            1 
  636000    1.1518978   -6.8748876    277.98649  0.036423806  0.036770946            2 
  637000    1.1417674   -6.8777386    278.07123  0.036377711   0.03676527            2 
  638000    1.1254117   -6.8771315    278.69169  0.036401735  0.036759285            1 
  639000    1.1201162    -6.891472    277.73803  0.036220401  0.036753104            2 
  640000    1.1765982   -6.8465921    279.35459  0.036374295  0.036746521            2 
  641000    1.1567783   -6.8733208    279.59033  0.036348197  0.036740099            3 
  642000    1.1528054   -6.8780758    279.69658  0.036305372  0.036733395            1 
  643000    1.1449401    -6.862059    280.56915  0.036361994   0.03672683            2 
  644000    1.1519486   -6.8565971    280.47679   0.03629358  0.036720178            2 
  645000    1.1206056   -6.8427854    280.60952   0.03625446  0.036714074            2 
  646000    1.1515461   -6.8268025    281.78728  0.036350268  0.036707363            1 
  647000    1.1430318   -6.8516895    282.14363  0.036339983  0.036700999            2 
  648000    1.1484008   -6.8877325     283.1005  0.036406958  0.036694172            2 
  649000    1.1609294   -6.8992044    282.22908  0.036238968  0.036687518            2 
  650000       1.1625   -6.8762517    283.26933   0.03631658   0.03668067            1 
  651000    1.1482543   -6.8738376    283.72717  0.036319403  0.036674193            3 
  652000    1.1176286   -6.8899382    283.31471  0.036210981  0.036666716            3 
  653000    1.1383366   -6.8800901    283.41565  0.036168408  0.036659016            1 
  654000    1.1221317   -6.8648552    284.26421  0.036221229  0.036651752            4 
  655000    1.1758631   -6.8558107    283.96143  0.036127408   0.03664453            1 
  656000    1.1545552   -6.8573926    284.51413  0.036142547  0.036637335            2 
  657000    1.1863298   -6.9175202     283.9697  0.036018481  0.036629874            1 
  658000    1.1473449   -6.8666249    285.53562   0.03616206  0.036622444            1 
  659000    1.1588529   -6.8507538    285.99509  0.036165286  0.036615207            3 
  660000     1.131561   -6.8877136     286.6779  0.036196704  0.036608419            1 
  661000    1.1690253   -6.8790411    286.64642  0.036137975  0.036601651            2 
  662000     1.133272   -6.8407313    287.63506  0.036207837  0.036594369            1 
  663000    1.1520869   -6.8994006     287.4005  0.036123743   0.03658691            2 
  664000    1.1167702   -6.8475186    287.88176  0.036129739  0.036579389            2 
  665000    1.1494309   -6.8625478     287.9119  0.036079185  0.036572623            1 
  666000    1.1610138   -6.8922819    289.20878  0.036187284  0.036565217            1 
  667000     1.167016    -6.878165    289.51618  0.036171437  0.036558103            2 
  668000    1.1711554   -6.8870505    289.14417  0.036070879  0.036551114            2 
  669000    1.1513344   -6.8553089    290.46134  0.036181034  0.036544277            1 
  670000    1.1344509   -6.8891836    289.69603  0.036031844  0.036537409            2 
  671000    1.1601604   -6.8259865    290.96164  0.036135325  0.036530254            3 
  672000    1.1272649   -6.8335327    291.87659  0.036195013   0.03652356            2 
  673000    1.1274476   -6.8691759    292.20466  0.036181854  0.036517048            2 
  674000    1.1602958   -6.9153875    292.28163  0.036137689  0.036510458            1 
  675000    1.1495509   -6.9054289    292.69624  0.036135339  0.036504158            1 
  676000    1.1365433   -6.8816108    293.57158   0.03618979  0.036498295            2 
  677000    1.1303555   -6.8520465    294.46304  0.036246067  0.036492339            4 
  678000    1.1606697   -6.8645303    294.22994  0.036163956  0.036486142            1 
  679000    1.1508135   -6.8656104    295.29111  0.036240931  0.036479866            2 
  680000    1.1184449   -6.8512151    295.53747  0.036217827  0.036473697            1 
  681000    1.1581717   -6.8637618    296.10802  0.036234462  0.036467348            3 
  682000     1.109465   -6.8516256    295.91003  0.036157139  0.036460947            2 
  683000    1.1229715   -6.9025233     295.8892   0.03610166  0.036454277            2 
  684000    1.1392879   -6.8766748    296.69061  0.036146517  0.036447692            3 
  685000     1.136185   -6.8973005    296.85249  0.036113442  0.036441581            3 
  686000    1.1263672   -6.8997527    296.05501  0.035963922  0.036435129            1 
  687000    1.1586094   -6.8719803    297.74265  0.036116284  0.036428495            1 
  688000    1.1327132   -6.8567074    298.21824  0.036121395  0.036422045            1 
  689000    1.1149499   -6.8489564    298.90326  0.036151821  0.036415781            1 
  690000    1.1557966   -6.8858457    298.46892  0.036046971   0.03640989            1 
  691000    1.1443354    -6.900924    298.42488  0.035989494  0.036403595            1 
  692000    1.1618317   -6.8742336    299.06821  0.036014957   0.03639693            4 
  693000     1.160243   -6.8916004    299.10417  0.035967312  0.036390092            2 
  694000    1.1292748   -6.9139676    298.47552      0.03584  0.036383202            1 
  695000    1.1373497   -6.8549973    301.40107  0.036139217  0.036376491            1 
  696000    1.1488814   -6.9003545    298.99967  0.035799769  0.036369533            3 
  697000    1.1247329   -6.8771071    301.42373  0.036038227  0.036362791            1 
  698000    1.1544248   -6.8660178    302.73448  0.036143085  0.036356503            2 
  699000    1.1523501   -6.8828167    302.83444  0.036103296  0.036350294            2 
  700000    1.1360273   -6.8689329    302.65463  0.036030313  0.036344418            2 
  701000    1.1504911   -6.8684122    304.78401  0.036232051  0.036338961            2 
  702000    1.1316315   -6.8252613    305.74427  0.036294429  0.036333612            4 
  703000    1.1164334   -6.8737445    304.59506  0.036106574  0.036328013            1 
  704000    1.1625361   -6.8938859    303.92342  0.035975783  0.036322178            1 
  705000     1.137118   -6.8644533    304.65736  0.036011508  0.036316202            1 
  706000    1.1492142    -6.887772    304.48473  0.035940124  0.036310279            1 
  707000    1.1466553   -6.8921795     305.5897  0.036019531  0.036304022            1 
  708000    1.1299062   -6.9298862    305.35931  0.035941538  0.036297855            2 
  709000    1.1215948   -6.8831402    306.10435  0.035978415  0.036291814            1 
  710000    1.1359015    -6.871087    307.42238  0.036082439  0.036285782            3 
  711000    1.1398623   -6.8628809    307.71919  0.036066478  0.036279631            2 
  712000    1.1157964   -6.9090722    307.41532  0.035980257  0.036273434            5 
  713000    1.1207285   -6.8888593    308.06745  0.036006013  0.036267325            2 
  714000    1.1140246   -6.8797819    310.30886  0.036217188  0.036262042            3 
  715000     1.117024   -6.8878517    309.95292  0.036125049  0.036257246            4 
  716000    1.1285158   -6.8601257    309.52819  0.036025161  0.036252286            2 
  717000    1.1277968   -6.9041968    309.66874  0.035991253  0.036247125            4 
  718000    1.1451376   -6.8668037    310.96283  0.036091322  0.036242396            3 
  719000     1.137293   -6.9130932    310.08711  0.035939628  0.036237536            5 
  720000    1.1316524   -6.8690149     311.6276  0.036068009  0.036232238            3 
  721000    1.1372344   -6.8400988    312.71225  0.036143349    0.0362273            1 
  722000    1.1497402   -6.9121422    311.86459  0.035995451  0.036222434            2 
  723000    1.1311369   -6.8915585    312.45291  0.036013475  0.036217414            2 
  724000      1.14857   -6.8718951     313.0591  0.036033506  0.036212617            1 
  725000    1.1376938   -6.9016427    314.49635  0.036149006  0.036207725            1 
  726000    1.1477977   -6.8747618    315.26616  0.036187576  0.036203203            1 
  727000    1.1506322   -6.8856083    314.81585  0.036086182  0.036198533            3 
  728000    1.1166202   -6.8634129    315.23963  0.036085123   0.03619372            3 
  729000    1.1304519   -6.9129451    315.61021  0.036077984  0.036189006            2 
  730000    1.1309346   -6.8861679    316.51934  0.036132345  0.036184269            5 
  731000    1.1410934   -6.9019427    315.65019  0.035983834  0.036179345            1 
  732000    1.1324767   -6.8980327    316.27475  0.036005777  0.036174203            2 
  733000     1.136123    -6.868539    316.57488  0.035990778  0.036169362            2 
  734000    1.1207795   -6.8459381    317.55177  0.036052654  0.036164493            2 
  735000    1.1326616   -6.8915379    316.74246  0.035911844  0.036159394            3 
  736000     1.135714   -6.9024365    317.80244  0.035983066  0.036154458            5 
  737000    1.1333025   -6.8606955    318.31782  0.035992517  0.036149569            5 
  738000    1.1270148   -6.8813764    318.14623  0.035924372  0.036144694            2 
  739000    1.1368306   -6.8750272    320.15238  0.036101983   0.03613964            1 
  740000    1.1387812   -6.8908533    318.28328  0.035842712   0.03613458            2 
  741000      1.13104   -6.9028949    319.41617  0.035921746   0.03612914            2 
  742000     1.137725   -6.9300837    319.72818  0.035908376  0.036123563            2 
  743000    1.1250441   -6.9233004    320.45283  0.035941322   0.03611815            1 
  744000    1.1292366   -6.8638233    321.88295  0.036053198  0.036113118            1 
  745000    1.1201032    -6.874589     322.4702  0.036070492  0.036108394            2 
  746000    1.1305997   -6.8576897    322.97165  0.036078156   0.03610357            2 
  747000    1.1295545   -6.8937109    322.71147  0.036000834  0.036098816            3 
  748000    1.1040375   -6.8837763    323.56935  0.036048279    0.0360941            2 
  749000    1.1139527   -6.8808934    322.27189  0.035855796  0.036089239            8 
  750000    1.1138148   -6.9149538    324.49805  0.036055339  0.036084541            2 
  751000    1.1298617   -6.9077885    324.02635  0.035954988  0.036079752            1 
  752000    1.1346869   -6.8995111    323.53766  0.035853021   0.03607466            1 
  753000     1.131505   -6.8662573    324.10856  0.035868588  0.036069805            2 
  754000    1.1162332    -6.878686    325.74773   0.03600218   0.03606472            2 
  755000    1.1413419   -6.8791241    325.24722  0.035899251  0.036059971            1 
  756000    1.1191232   -6.8818486    325.13591  0.035839496  0.036054927            2 
  757000    1.1164582    -6.918232    325.56227  0.035839087  0.036049792            3 
  758000    1.1356074   -6.8598095    326.04425  0.035844794  0.036044749            1 
  759000    1.1293601   -6.8866958    327.04334  0.035907261  0.036039859            4 
  760000    1.1380026   -6.8401482    327.17661  0.035874628  0.036034671            1 
  761000    1.1517003   -6.8737076    327.76811  0.035892259  0.036029492            1 
  762000    1.1102815   -6.9247354    327.07126  0.035768948   0.03602435            3 
  763000    1.1102301   -6.8572099    328.39584  0.035866737  0.036019333            2 
  764000     1.116613    -6.895135    329.56346  0.035947148  0.036014118            3 
  765000    1.1581003   -6.8976027    329.76163  0.035921747  0.036008872            3 
  766000    1.1115754   -6.9183208     328.3366  0.035719821  0.036003241            2 
  767000    1.1004151   -6.9203092    328.87857  0.035732135  0.035997521            2 
  768000    1.1341878   -6.9018732    329.40593  0.035742831  0.035991718            2 
  769000    1.1261177   -6.8991595    329.21159  0.035675291  0.035985828            2 
  770000    1.0964054   -6.8972754    330.72117  0.035792334  0.035979891            2 
  771000     1.095605   -6.9054021    330.30521  0.035700952  0.035973732            1 
  772000    1.1372603   -6.8586472    331.42353  0.035775425  0.035967835            1 
  773000    1.1398595   -6.8888023    330.71879  0.035653168  0.035962117            1 
  774000     1.135533   -6.8963336    331.60499  0.035702519  0.035956497            3 
  775000    1.1064769   -6.9046042    332.00608  0.035699578   0.03595125            2 
  776000    1.1165229   -6.9296435     331.8661  0.035638542  0.035945817            2 
  777000    1.1249808    -6.900702    333.44623  0.035762144  0.035940374            6 
  778000    1.1141136    -6.867154    334.80878  0.035862123  0.035935219            2 
  779000    1.1293863   -6.8863873    334.08484  0.035738644  0.035929777            2 
  780000    1.1346586   -6.9287005    333.22104  0.035600538  0.035923935            3 
  781000     1.154212   -6.9025611    334.42983  0.035683934  0.035918163            2 
  782000    1.1131639   -6.9178076    334.40643  0.035635809   0.03591256            2 
  783000    1.1293696   -6.8786019    335.23248  0.035678212  0.035906587            2 
  784000    1.1083302   -6.9251186    334.52481  0.035557484  0.035900558            1 
  785000    1.1425321   -6.9259321    334.93899  0.035556156  0.035894688            1 
  786000    1.0953988   -6.8694509    337.38517  0.035770268   0.03588847            2 
  787000    1.1223099   -6.9441552    335.15648  0.035488827  0.035882622            1 
  788000    1.1228767    -6.901814     336.3471  0.035569702  0.035876193            1 
  789000    1.1116124   -6.9261462    336.62803  0.035554291  0.035869862            2 
  790000    1.1495143   -6.8834119    336.51928  0.035497814  0.035863281            2 
  791000    1.0935063   -6.9021527    336.93519  0.035496754  0.035856366            2 
  792000    1.1478344   -6.9008633    338.06566  0.035570881  0.035849619            2 
  793000    1.1457956   -6.9244934    337.20035  0.035435093  0.035843123            4 
  794000    1.1147132   -6.9429329    338.02037  0.035476529  0.035836554            2 
  795000    1.1271114   -6.9109716    337.62441    0.0353904  0.035829805            1 
  796000    1.1184423   -6.8885738    339.55107  0.035547641  0.035823264            3 
  797000    1.1056029   -6.9383838    338.39969  0.035382653  0.035816564            1 
  798000    1.1276384   -6.9300987    340.29783  0.035536532  0.035809903            2 
  799000    1.1332436    -6.911681    339.85289   0.03544565  0.035803433            2 
  800000    1.1471893   -6.8959465    340.36362  0.035454543  0.035796934            2 
  801000    1.1045416   -6.9683843    340.04053  0.035376668  0.035790334            1 
  802000    1.1076027    -6.929014    341.40004   0.03547382  0.035783731            2 
  803000    1.1158242   -6.9294115    341.00407  0.035388551  0.035776956            1 
  804000    1.1215429   -6.9225642    341.23425  0.035368392  0.035770165            2 
  805000    1.1053014    -6.873887    342.82947  0.035489593  0.035763341            3 
  806000    1.1073779   -6.9165006    342.63576  0.035425533  0.035756643            4 
  807000    1.1110466   -6.9069841     343.0656  0.035426022   0.03574991            1 
  808000    1.1294662   -6.9229272    343.36105   0.03541265   0.03574304            2 
  809000    1.0986478   -6.9192459     344.6412  0.035500742  0.035736231            2 
  810000    1.1141097   -6.9075208    343.31355  0.035320324  0.035729534            1 
  811000    1.1178687   -6.9156382    344.92977  0.035442845  0.035722871            2 
  812000    1.1061422   -6.9075479    345.41072  0.035448555   0.03571682            3 
  813000    1.1201621   -6.9342982    345.85374  0.035450362  0.035710221            3 
  814000    1.1137977   -6.9016928    345.95638   0.03541732  0.035703725            2 
  815000    1.1091378   -6.9175067    346.91531  0.035471913  0.035697378            1 
  816000    1.1248532   -6.9286642    346.52428  0.035388509   0.03569125            1 
  817000    1.1152938   -6.9196377    347.12475  0.035406441  0.035684772            3 
  818000    1.1215941   -6.9541535    346.26844   0.03527592  0.035678569            1 
  819000      1.11312    -6.948251    348.10599   0.03541982  0.035672378            2 
  820000    1.1358839   -6.8977794     349.0697  0.035474563  0.035666471            2 
  821000    1.1324125   -6.9392434    349.14611   0.03543911  0.035660538            2 
  822000      1.09773   -6.9271476    348.35083  0.035315372  0.035654488            4 
  823000    1.1086037    -6.926547    349.68991  0.035408051  0.035648267            2 
  824000     1.136839   -6.8983629    350.72792  0.035470057  0.035642231            1 
  825000     1.133971   -6.9271478    349.46423  0.035299417  0.035636239            1 
  826000    1.1163578   -6.9223734    349.15194  0.035225176  0.035629876            1 
  827000    1.1069702   -6.9368871    349.65843  0.035233619  0.035623108            2 
  828000    1.1152269    -6.894198    351.41976  0.035368333  0.035616647            3 
  829000    1.1218966   -6.9435254    351.17548  0.035301114  0.035609934            1 
  830000    1.0990697   -6.9299228    350.44909  0.035185652  0.035603137            2 
  831000    1.1188945   -6.9715732    351.74613  0.035273378  0.035596372            3 
  832000    1.1073032     -6.92323    352.86654  0.035343203  0.035589612            1 
  833000    1.1103016   -6.9307827    353.41668  0.035355811  0.035582968            2 
  834000    1.1149113   -6.9175004    354.07511  0.035379207  0.035576218            2 
  835000    1.1077112   -6.9370852     352.3183  0.035161507  0.035569249            1 
  836000    1.1068639   -6.8920003    352.97246  0.035184655  0.035562447            2 
  837000    1.1390136   -6.9160628    352.41546  0.035087163  0.035555481            5 
  838000    1.1167194   -6.9127527     353.7607  0.035179068  0.035548182            2 
  839000    1.1237066   -6.9099344    354.61984  0.035222471  0.035541258            1 
  840000    1.1203998     -6.92782    354.52618  0.035171248  0.035534376            4 
  841000    1.1066982   -6.9146373     354.9258  0.035169025  0.035527474            1 
  842000    1.1137131   -6.9870488    355.00863  0.035135455  0.035520907            2 
  843000    1.1113521   -6.9583571    355.24599  0.035117239  0.035514398            2 
  844000    1.0926288   -6.9465757    355.60496  0.035111074  0.035507514            2 
  845000    1.1275456   -6.9629856     355.9924  0.035107732  0.035500715            3 
  846000    1.1346186   -6.9006896    357.77107  0.035241438  0.035493818            3 
  847000    1.1228975   -6.9078968    358.94228  0.035315061  0.035487156            2 
  848000    1.1125895   -6.9024418    357.93905  0.035174828  0.035480535            3 
  849000    1.1325089   -6.9326749    357.29902  0.035070575  0.035473317            2 
  850000     1.114844   -6.9736586    357.49232  0.035048266  0.035465587            1 
  851000    1.1074299   -6.9703749    356.49681  0.034909597  0.035457945            2 
  852000    1.1336579   -6.9346989    359.02658  0.035116058  0.035450284            1 
  853000    1.0944584   -6.9430604     358.4951  0.035022968  0.035442903            1 
  854000    1.1129608   -6.9263645    359.35867  0.035066225  0.035435747            2 
  855000    1.1296517   -6.9322527    359.42003  0.035031192  0.035428541            1 
  856000    1.1366797   -6.9000115     360.5087  0.035096252  0.035421286            2 
  857000    1.0841884   -6.9295715    360.37226  0.035042032  0.035414494            1 
  858000      1.11983   -6.8943311    361.09783  0.035071662  0.035407599            1 
  859000    1.1116934   -6.9068062     361.9088  0.035109507  0.035400685            2 
  860000    1.1115785   -6.9067813    361.02122  0.034982676   0.03539353            2 
  861000    1.1194774   -6.9454033    361.88327  0.035025481  0.035386517            2 
  862000    1.1409925   -6.8649629    362.47704   0.03504225  0.035379243            3 
  863000    1.1161423    -6.942272     361.9509   0.03495084  0.035372183            1 
  864000    1.1016999   -6.9550287     362.8401  0.034996152  0.035364876            1 
  865000    1.1147785    -6.934889    362.29277  0.034902964  0.035357549            1 
  866000    1.1324801   -6.9463415     362.1224  0.034846267  0.035349423            3 
  867000    1.1393515   -6.9403889    363.11667  0.034901641  0.035341422            2 
  868000    1.1141012   -6.9506882    361.75789   0.03473098   0.03533336            2 
  869000    1.0853557   -6.9689399    362.97621  0.034807846  0.035325357            2 
  870000    1.0981603   -6.9392539    364.83063  0.034945463  0.035317874            2 
  871000    1.0906605    -6.940909    364.89474  0.034911475  0.035310617            3 
  872000    1.1141245   -6.9339098    364.29119  0.034813761  0.035303184            2 
  873000    1.1049743   -6.9289997    365.77574  0.034915592   0.03529577            3 
  874000    1.1011385   -6.9465502    364.78371  0.034781056  0.035288115            5 
  875000    1.1050764   -6.9326906    365.79905  0.034838005  0.035280392            2 
  876000    1.1105987   -6.9750492     365.6118  0.034780423  0.035272509            3 
  877000    1.0765848   -6.9233115    366.14837  0.034791749  0.035264762            4 
  878000    1.1321346    -6.900323    366.14673  0.034751968  0.035256748            2 
  879000    1.0988692   -7.0022511    366.43855  0.034740098  0.035248522            1 
  880000     1.098467   -6.9538625    366.98162  0.034752047  0.035240316            5 
  881000    1.1130383   -6.9293486    367.15795   0.03472928  0.035232415            1 
  882000    1.1276798   -6.9237519     369.0669  0.034870266  0.035224582            2 
  883000    1.0984866   -6.9021403    368.90643  0.034815631  0.035216971            1 
  884000    1.1328994   -6.9553642    368.88344  0.034774079  0.035209416            2 
  885000     1.088834   -6.9524265    367.52585  0.034606954   0.03520165            4 
  886000    1.1023731   -6.9566703    369.03586  0.034709919  0.035193766            1 
  887000    1.1181989   -6.9246511    370.74342  0.034831211  0.035185934            2 
  888000    1.1224382   -6.8974142    371.36637  0.034850447  0.035178364            2 
  889000    1.1434711   -6.9121761    370.56288  0.034735928  0.035170814            2 
  890000    1.0942568   -6.9170235    371.76388  0.034809352  0.035163098            2 
  891000    1.1269319   -6.9545165    370.89776  0.034689278   0.03515525            3 
  892000    1.1302157   -6.9160218    372.63037  0.034812255  0.035147656            3 
  893000    1.1185918   -6.9588695    370.94123  0.034615643  0.035139704            1 
  894000    1.1147341   -6.9290973    372.04759  0.034680051    0.0351315            2 
  895000    1.1115843   -6.9265182    372.09908  0.034646097  0.035123255            2 
  896000    1.1082001    -6.960332    371.07783  0.034512447  0.035115015            3 
  897000    1.0993903   -6.9192868    372.76519  0.034630731  0.035106947            1 
  898000    1.0950573   -6.9308463    373.95589  0.034702663  0.035098766            1 
  899000     1.121505   -6.9338431    373.64259   0.03463502  0.035090794            2 
  900000    1.1288911   -6.9136419    374.35575  0.034662569  0.035082926            2 
  901000    1.1017145   -6.9293268     373.7586  0.034568868  0.035075135            1 
  902000     1.115995   -6.9340279      375.424  0.034684405  0.035067228            2 
  903000    1.1201123   -6.9314586    375.14063  0.034619844  0.035059365            1 
  904000    1.1184403   -6.9243297    376.00341  0.034661082  0.035051511            1 
  905000    1.0929334   -6.9442019    376.08006   0.03462984  0.035043936            2 
  906000    1.0829516    -6.954679    377.92024  0.034760876  0.035036586            1 
  907000    1.1118143   -6.9211807    376.21064  0.034565476  0.035029205            2 
  908000     1.119405   -6.9757033    376.24296  0.034530374  0.035022033            2 
  909000    1.1011821   -6.9907677    376.64007  0.034528793  0.035014625            3 
  910000    1.0745936   -6.9199892     378.1943  0.034633177    0.0350072            2 
  911000    1.1058156   -6.9726317    376.67182  0.034455893  0.034999749            1 
  912000    1.0967287   -6.9821757    378.16275  0.034554345  0.034992107            3 
  913000    1.0849728    -6.933109    378.60869  0.034557201    0.0349842            2 
  914000    1.1287569    -6.945441      378.133  0.034476021  0.034976436            3 
  915000    1.0956981   -6.9424798    379.33959  0.034548232  0.034968577            4 
  916000    1.0984957   -6.9515519    380.08139  0.034578001  0.034961027            2 
  917000    1.1084451   -6.9463493    380.41537  0.034570645  0.034953579            2 
  918000    1.0981051   -6.9667292    380.87875   0.03457505  0.034946136            3 
  919000    1.1020608    -6.950364    381.18742  0.034565418  0.034938344            2 
  920000    1.0956003   -6.9125986    382.66773  0.034661932  0.034930862            3 
  921000    1.0888421   -6.9296844    380.66438  0.034443032  0.034923283            2 
  922000    1.1129965   -6.9918911    381.87891  0.034515448  0.034915973            3 
  923000    1.1044012   -6.9859313    382.56239   0.03453976  0.034908342            2 
  924000    1.1068817   -6.8977678    383.79191  0.034613268  0.034900987            3 
  925000    1.0884311   -6.9858298    383.60508  0.034559016  0.034893637            3 
  926000    1.0806941   -6.9225779    383.75358  0.034535059  0.034886348            2 
  927000    1.1008156   -6.9470583    384.43216  0.034558807    0.0348789            1 
  928000    1.0961175   -6.9626365    383.57999  0.034445043    0.0348714            3 
  929000    1.0997827   -6.9425048    383.43957  0.034395369  0.034863519            4 
  930000    1.1055936   -6.9770266    383.55844  0.034369036  0.034855598            2 
  931000    1.1145797   -6.9608104     384.4204  0.034409274  0.034847891            1 
  932000    1.1192572   -6.9646745    385.71801  0.034488377  0.034839856            1 
  933000    1.0897987   -6.9939102     385.3148  0.034415398  0.034831895            3 
  934000    1.0933337   -6.9470282    384.96389  0.034347242  0.034823756            1 
  935000    1.0994373   -6.9509045    386.30034   0.03442962   0.03481574            4 
  936000    1.1184605   -6.9432911    386.39438  0.034401209   0.03480803            2 
  937000    1.1006576   -6.9718415    385.18661   0.03425708  0.034799867            2 
  938000    1.0835232   -6.9783511    385.79057  0.034274215  0.034791562            2 
  939000    1.1380085   -6.9834505    385.38611   0.03420182  0.034783151            2 
  940000    1.0793836   -6.9780457    386.16706  0.034234668  0.034774862            3 
  941000    1.1185622   -6.9365709      388.736  0.034425788  0.034766578            1 
  942000    1.1077226   -6.9730446    386.31165  0.034174775   0.03475849            1 
  943000     1.080653   -6.9435952    387.94972  0.034283291  0.034750334            2 
  944000    1.1149737   -6.9500416    386.96072  0.034159668  0.034742297            2 
  945000    1.1089884   -6.9496541    389.05049  0.034307804  0.034733945            3 
  946000    1.0963793   -6.9382744    388.57203   0.03422939  0.034725802            1 
  947000    1.1101622   -6.9177332    389.91893  0.034311768   0.03471755            2 
  948000    1.1027803   -6.9698854    390.61221  0.034336516  0.034709188            1 
  949000    1.0988954   -6.9850699     389.4079  0.034194582  0.034701058            1 
  950000    1.1054349   -6.9330086    389.59839  0.034175297  0.034692669            4 
  951000    1.0989685   -6.9549847    391.22217  0.034281648  0.034684333            1 
  952000    1.0817927   -6.9786263    390.35862  0.034170047   0.03467601            2 
  953000    1.1030164    -6.955957    390.88659  0.034180359  0.034667642            3 
  954000    1.1060161   -6.9300382    391.47231  0.034195695  0.034659411            1 
  955000    1.1079451   -6.9869357    390.83554  0.034104323  0.034651223            2 
  956000    1.0779165   -7.0230141    390.35849  0.034027065  0.034642476            3 
  957000    1.1127309   -6.9630492    391.04818  0.034051566  0.034633616            1 
  958000    1.1252428   -6.9368283    392.42318  0.034135628  0.034624965            1 
  959000    1.1304052    -6.951456    392.83896  0.034136162  0.034616339            2 
  960000    1.0810718   -6.9454867    391.97985  0.034026029  0.034607567            2 
  961000    1.0965586   -6.9596924    393.64178  0.034134736   0.03459906            2 
  962000    1.0956964   -6.9626317    393.65509  0.034100406  0.034590557            2 
  963000    1.1066958   -7.0036159    393.08159  0.034015368  0.034582159            2 
  964000    1.1197614   -6.9632743    393.36522  0.034004601  0.034573705            3 
  965000    1.0911874    -6.959398    394.32675  0.034052396  0.034565364            1 
  966000    1.1078517   -6.9735558    394.19719  0.034005969   0.03455689            1 
  967000    1.0966004   -6.9853154    394.78712  0.034021641  0.034548399            2 
  968000    1.1029028   -6.9514534    396.65774  0.034147533  0.034539859            3 
  969000    1.1222642   -6.9772546    397.17579  0.034156845  0.034531609            4 
  970000     1.077327   -6.9698474     395.6614  0.033991529  0.034523545            1 
  971000    1.1116209   -6.9970501    395.74492   0.03396369  0.034515432            3 
  972000    1.0992405   -6.9885624    397.35257  0.034066578  0.034507101            2 
  973000    1.0859255    -6.975085    396.95243  0.033997297   0.03449911            2 
  974000    1.0837048   -6.9451097    398.08812  0.034059558  0.034491035            1 
  975000    1.0892039   -6.9464448    399.42811  0.034139154  0.034483033            1 
  976000    1.0905008   -7.0010504     398.5524  0.034029406  0.034475058            2 
  977000    1.0903657   -6.9822833    399.39435   0.03406639  0.034467191            3 
  978000    1.0976809   -6.9480876    399.82109  0.034067919  0.034459295            4 
  979000    1.0842079   -6.9450464     400.7964  0.034116139  0.034451523            2 
  980000    1.0845677   -6.9879815    399.95989  0.034010194  0.034443808            1 
  981000    1.1239632   -6.9779992    400.29014  0.034003579  0.034436135            2 
  982000    1.0848707   -6.9481604    401.73674  0.034091712   0.03442869            2 
  983000    1.0770805   -7.0017657    400.76144   0.03397435  0.034420748            3 
  984000    1.0828209   -6.9731441    403.06048  0.034134526  0.034413286            2 
  985000    1.0860156   -6.9336885    401.71965  0.033986434  0.034405754            4 
  986000    1.1116099   -6.9626369    403.78683  0.034126676  0.034398438            1 
  987000    1.1022172   -6.9525761    402.96259  0.034022508  0.034390847            1 
  988000    1.0792807   -6.9932065    402.93076  0.033985388  0.034383041            3 
  989000    1.1169178   -6.9578481    403.73346   0.03401866  0.034375402            4 
  990000    1.0866686   -7.0001242    403.57389  0.033970867  0.034367452            2 
  991000    1.0966828   -6.9983687     403.5252  0.033932492  0.034359181            2 
  992000    1.0624223   -6.9782961    403.93186  0.033932448  0.034351193            3 
  993000    1.0947632    -6.938275    404.46276   0.03394283  0.034343072            1 
  994000    1.0899189   -7.0000498    404.34216  0.033898571  0.034334913            2 
  995000    1.1043715   -6.9667946    404.10238   0.03384442  0.034326726            2 
  996000    1.0812478   -6.9729868    404.43746  0.033838475   0.03431853            2 
  997000    1.0939169   -6.9609811    405.66436  0.033907084   0.03431065            2 
  998000    1.1131664   -6.9520119    407.07332  0.033990758  0.034302934            1 
  999000    1.0882199   -6.9732347    407.04809  0.033954628  0.034295066            2 
 1000000    1.1142955   -6.9427918    407.30477  0.033942065  0.034287108            6 
 1001000    1.1025256   -6.9686636    407.68023  0.033939413  0.034279148            3 
 1002000    1.0949888   -6.9926349    406.63881   0.03381893  0.034271183            1 
 1003000    1.1083359   -6.9348773    407.20097  0.033831918  0.034263263            2 
 1004000    1.1106548    -6.958026    407.67591  0.033837642  0.034255343            2 
 1005000    1.0811539   -7.0115274    408.75507  0.033893456  0.034247626            2 
 1006000    1.0935532    -6.936634    408.85724  0.033868227  0.034239773            1 
 1007000    1.0661533   -6.9620372    409.28182   0.03386973  0.034232138            1 
 1008000    1.0868074   -6.9441435    409.36712  0.033843181  0.034224438            2 
 1009000     1.077292   -6.9938816    410.40721  0.033895541    0.0342169            2 
 1010000     1.099136   -6.9934546    410.81119  0.033895312  0.034208938            2 
 1011000    1.0876495   -7.0151022    409.65482  0.033766471  0.034201091            1 
 1012000    1.0796603   -6.9551519    411.15663  0.033856771  0.034193328            1 
 1013000    1.0837231   -6.9754071    411.11029  0.033819537  0.034185712            2 
 1014000    1.0822049   -6.9847845    410.73404  0.033755263  0.034177891            1 
 1015000    1.0838678    -6.956018    411.46795  0.033782262  0.034170185            1 
 1016000    1.0973727   -6.9731251    411.67814  0.033766252  0.034162646            2 
 1017000     1.087597    -6.969101    412.39096  0.033791458  0.034154721            3 
 1018000    1.0737308   -6.9861432    413.02331  0.033810028  0.034146878            1 
 1019000    1.0808019   -7.0174358    413.10529  0.033783553  0.034139064            2 
 1020000    1.0856537   -6.9975953    414.39544  0.033855837  0.034131074            1 
 1021000     1.089491   -7.0183826    412.46858  0.033665408  0.034123212            2 
 1022000    1.0749257   -6.9906971    413.82397  0.033742985  0.034115249            1 
 1023000    1.0858042   -7.0062333    412.95235  0.033638999  0.034107248            1 
 1024000    1.0700904   -6.9733259    414.29946  0.033715776  0.034099546            3 
 1025000    1.0886652   -6.9972875    413.37111  0.033607407  0.034091568            3 
 1026000    1.1065223     -7.01056    413.77279  0.033607276  0.034083617            3 
 1027000     1.071909    -6.948191    415.11131  0.033683164  0.034075813            1 
 1028000    1.0777026   -6.9880697    415.89748  0.033714128  0.034067873            3 
 1029000    1.0720689   -6.9670706    416.56415  0.033735354  0.034060113            3 
 1030000     1.112723   -6.9972619    416.68887  0.033712692  0.034052574            2 
 1031000    1.0762431   -6.9946464    416.74214  0.033684298  0.034044904            2 
 1032000    1.0729185   -7.0457371    416.65995  0.033645022   0.03403728            2 
 1033000    1.0810791   -6.9807181    419.08159  0.033807808  0.034029838            8 
 1034000    1.0869748   -6.9762516    419.65092  0.033820996  0.034022439            2 
 1035000    1.1239831   -6.9875202    417.98771  0.033654405  0.034015168            2 
 1036000    1.0839785   -6.9658445    420.72743  0.033842296  0.034008071            2 
 1037000    1.0637409   -6.9912227    419.36823  0.033700436  0.034001058            2 
 1038000    1.0678719   -6.9821373    420.96308  0.033796008  0.033993959            3 
 1039000    1.0907762    -7.000119    420.35528  0.033714732  0.033986937            2 
 1040000    1.0864115   -7.0168745    420.24226  0.033673258  0.033980067            1 
 1041000    1.0956534   -6.9682408    422.45404  0.033817967  0.033973157            2 
 1042000    1.0795906     -6.98162    423.23389   0.03384788  0.033966239            2 
 1043000    1.0749518   -6.9670152    421.23883  0.033656026  0.033959308            3 
 1044000    1.0904752   -6.9485209    422.88863  0.033755478  0.033952284            4 
 1045000    1.0901767   -6.9839928    423.25485   0.03375238  0.033945066            3 
 1046000    1.1195733   -6.9920605    423.42945  0.033734023  0.033937815            2 
 1047000    1.1034113   -7.0086799    422.92499  0.033661651  0.033930761            2 
 1048000    1.0665564    -6.988363    424.09568  0.033722621  0.033923742            1 
 1049000    1.0818647   -6.9809371     424.2286  0.033701033  0.033916591            1 
 1050000    1.0573807   -7.0103182    423.62832  0.033621295  0.033909405            4 
 1051000    1.0650204   -6.9978067    424.28869  0.033641666  0.033902345            2 
 1052000    1.0826912   -7.0091202    423.85582  0.033575398  0.033895101            6 
 1053000    1.1046327   -7.0073853    425.33342  0.033660448  0.033887786            4 
 1054000    1.0769332   -6.9874792    426.30688  0.033705478  0.033880649            2 
 1055000     1.102685   -6.9685149    425.18623   0.03358501  0.033873398            4 
 1056000    1.0847166   -6.9934006    426.23956  0.033636329  0.033866126            1 
 1057000     1.062861   -6.9853383    426.77504  0.033646723  0.033858778            2 
 1058000    1.0645956   -7.0231509    425.90844  0.033546664  0.033851404            1 
 1059000    1.0881748   -6.9688852    427.37751  0.033630588  0.033844116            2 
 1060000    1.1219348   -6.9986577    426.99712  0.033568956  0.033836882            1 
 1061000     1.089955   -7.0002853    428.00822  0.033616731  0.033829826            3 
 1062000    1.0870713   -7.0117319     428.4133  0.033616863  0.033822562            3 
 1063000    1.0900801   -7.0218377    428.70688  0.033608253  0.033815247            1 
 1064000    1.0599897   -6.9924713    427.38654  0.033473256  0.033807955            2 
 1065000    1.0970491   -7.0002736    428.09218  0.033497041  0.033800566            2 
 1066000    1.0725125   -7.0306089    427.94071  0.033453776  0.033793204            2 
 1067000    1.0593408   -6.9753884    428.82117  0.033491188  0.033785919            2 
 1068000    1.0869444   -7.0053058    428.18405  0.033410116  0.033778384            2 
 1069000    1.0737452   -7.0121964    429.14861  0.033454055   0.03377071            3 
 1070000    1.0727546   -7.0000673    429.04462   0.03341469  0.033762969            3 
 1071000     1.063628   -6.9936655    428.79817  0.033364314  0.033755408            3 
 1072000    1.0732199   -6.9881384    429.50387   0.03338805  0.033747624            2 
 1073000    1.0776172   -6.9692868    430.11325   0.03340426  0.033739985            3 
 1074000    1.0651782   -6.9572709    429.97634  0.033362534  0.033732341            2 
 1075000    1.0735041   -7.0265182    430.27722  0.033354823  0.033724455            1 
 1076000    1.0622181   -7.0297006    429.82287  0.033288636  0.033716325            1 
 1077000    1.1044816   -7.0027985    430.69041  0.033324854  0.033708237            3 
 1078000    1.0715721   -6.9523773    431.65231  0.033368299   0.03370028            2 
 1079000     1.077262   -7.0085585    431.65253  0.033337391  0.033692328            3 
 1080000    1.0808127   -7.0014016     432.0903  0.033340301  0.033684479            5 
 1081000    1.0859673   -7.0010819    431.69491  0.033278979  0.033676639            2 
 1082000    1.0773446    -6.973976    434.17568  0.033439285   0.03366862            1 
 1083000    1.0658433   -7.0271306    431.46218  0.033199613  0.033660527            4 
 1084000     1.097431   -6.9862325    432.67879  0.033262514  0.033652681            1 
 1085000    1.1063617   -7.0221368    432.11919  0.033188877  0.033644698            4 
 1086000    1.0562763   -7.0160314    431.78519  0.033132688  0.033636551            3 
 1087000    1.0840048   -6.9999169     433.8002  0.033256685  0.033628759            3 
 1088000     1.089401   -7.0248879    433.02011  0.033166369   0.03362087            4 
 1089000    1.0416774   -7.0048835    433.50756  0.033173214  0.033612886            3 
 1090000    1.0837166   -6.9961004    434.39404  0.033210553  0.033604644            2 
 1091000    1.0986119    -7.009179     433.8377  0.033137619  0.033596344            1 
 1092000     1.073629   -6.9804878    435.06452  0.033200894  0.033588018            2 
 1093000    1.0768356   -7.0339309    434.24535  0.033108063  0.033579532            8 
 1094000    1.0794159   -7.0252139    433.59876  0.033028546  0.033570848            1 
 1095000    1.0571536   -7.0249801    435.59287  0.033150142  0.033562374            2 
 1096000    1.0900889   -7.0046578    434.94941  0.033070971  0.033554127            2 
 1097000    1.0730935    -7.004043    435.99857  0.033120523  0.033545978            1 
 1098000    1.0584324   -6.9567917    436.46965  0.033126112  0.033537699            5 
 1099000    1.0875992   -6.9852946    436.40796  0.033091292  0.033529455            2 
 1100000    1.0937233   -7.0013173    436.21759  0.033046787   0.03352117            4 
 1101000    1.0705588   -6.9876419    437.71077  0.033129789  0.033512802            2 
 1102000    1.0876719   -6.9973344    437.37331  0.033074207  0.033504461            1 
 1103000    1.0748649   -7.0112052    437.02971  0.033018261  0.033496056            2 
 1104000    1.0824283    -7.031213    437.00307  0.032986343  0.033487704            3 
 1105000     1.062496   -7.0040144    439.53327  0.033147306  0.033479536            2 
 1106000    1.0841219   -6.9802346    439.41437  0.033108376  0.033471303            3 
 1107000    1.0774601   -7.0594165     437.7767  0.032955187  0.033462978            2 
 1108000    1.0868107   -7.0175487    439.00091  0.033017517  0.033454502            1 
 1109000    1.0723092   -7.0030491     440.5825   0.03310659   0.03344641            2 
 1110000    1.0873124   -7.0219465    440.33796  0.033058405  0.033438461            2 
 1111000    1.0686261   -7.0096189    440.48991  0.033040047  0.033430331            1 
 1112000    1.0662152   -7.0264083    439.25603  0.032917868  0.033422038            3 
 1113000    1.0493573   -7.0332033    441.02912  0.033021048  0.033413945            3 
 1114000    1.1032852    -7.001236    440.53856  0.032954709  0.033405883            1 
 1115000    1.0510693   -7.0235518    440.73365  0.032939735  0.033397928            2 
 1116000    1.0521607   -6.9950414    442.82198  0.033066158  0.033389843            1 
 1117000    1.0723603   -7.0205712    443.45396  0.033083703  0.033381983            2 
 1118000    1.0686422    -7.029185     442.4822  0.032981678   0.03337414            2 
 1119000    1.0941918   -6.9871192     442.1558  0.032927897  0.033366122            2 
 1120000    1.0640752   -7.0278978    444.17393  0.033048656  0.033358226            2 
 1121000    1.0712065   -7.0066425    444.02174  0.033007861  0.033350243            3 
 1122000    1.0807104   -7.0383624    443.41749  0.032933562  0.033342124            2 
 1123000    1.0615686   -7.0075862    444.28519  0.032968625    0.0333337            4 
 1124000    1.0849988   -7.0265586    443.81647  0.032904542  0.033325335            2 
 1125000    1.0728995   -7.0020616    443.88436  0.032880323  0.033317032            3 
 1126000    1.0774115   -7.0058234    444.56532  0.032901518  0.033308803            2 
 1127000    1.0459294   -7.0077367    444.50709  0.032868019  0.033300447            5 
 1128000    1.0460661   -6.9949686    445.33144  0.032899781  0.033292178            1 
 1129000    1.0634029   -7.0246164    445.89347  0.032912125  0.033283945            5 
 1130000    1.0678355   -7.0418055    445.39331  0.032846114  0.033275791            3 
 1131000    1.0587141   -7.0442262    444.69604  0.032765697  0.033267752            4 
 1132000    1.0722299   -7.0418924    448.01263  0.032980906   0.03325985            2 
 1133000    1.0693253   -6.9918639    448.83007   0.03301192  0.033251881            2 
 1134000    1.0339296    -7.019218    446.56354   0.03281625  0.033244098            3 
 1135000    1.0647213   -7.0425801    447.99349  0.032892327   0.03323638            4 
 1136000    1.0554159   -7.0166177    448.48786  0.032899637  0.033228434            2 
 1137000    1.0268109   -7.0355232    448.63254  0.032881306  0.033220421            2 
 1138000    1.0645064   -7.0228177    448.24103  0.032823742  0.033212482            3 
 1139000    1.0769192   -7.0386765    449.10658  0.032858251  0.033204597            4 
 1140000     1.069869   -7.0078282    449.83969  0.032883018   0.03319677            3 
 1141000    1.0685632    -7.017655    449.11128  0.032800999  0.033188919            3 
 1142000    1.0924748   -7.0377062    449.66613  0.032812765  0.033180972            1 
 1143000    1.0691284   -7.0285572    449.81877  0.032795186  0.033172765            1 
 1144000    1.0699248   -7.0125676      450.091  0.032786349  0.033164959            2 
 1145000    1.0798005    -7.043381    449.19108  0.032692218  0.033156882            2 
 1146000    1.0538428   -7.0324429    450.80932  0.032781364   0.03314864            3 
 1147000    1.0729662   -7.0225835      450.566  0.032735106  0.033140572            2 
 1148000     1.069894   -7.0509872    450.62862  0.032711136  0.033132598            1 
 1149000     1.059182    -6.998507    452.63245  0.032827999  0.033124507            2 
 1150000    1.0691987   -7.0321982    453.98553  0.032897502  0.033116934            2 
 1151000    1.0814223   -7.0330912    452.97806  0.032795979    0.0331094            1 
 1152000    1.0856801   -7.0074017    454.42667    0.0328723  0.033101785            1 
 1153000     1.062317   -6.9990848    454.28309  0.032833412  0.033094139            3 
 1154000    1.0772731   -7.0203827    454.90047  0.032849543  0.033086423            5 
 1155000    1.0673868   -7.0046706    453.32611  0.032707511  0.033078549            2 
 1156000    1.0667061   -7.0501224    453.45944  0.032688829  0.033070709            2 
 1157000    1.0680038   -7.0222649     454.7354  0.032752478  0.033062917            2 
 1158000    1.0768836   -7.0622327    454.75138  0.032725344  0.033055125            6 
 1159000     1.067639   -7.0092133    454.92622  0.032709679  0.033047181            2 
 1160000    1.0612218   -7.0461857    453.18755  0.032556577   0.03303915            2 
 1161000    1.0564122   -7.0257412     455.6686  0.032706618   0.03303104            1 
 1162000    1.0442004   -7.0288036    456.06663  0.032707016  0.033023006            2 
 1163000    1.0517468   -7.0143233    456.51227  0.032710825  0.033015071            2 
 1164000    1.0718173   -7.0378608    456.48197  0.032680554  0.033007007            2 
 1165000    1.0900939   -7.0353251    457.01224  0.032690432  0.032998862            2 
 1166000    1.0880163    -7.056255     456.1928  0.032603831  0.032990784            2 
 1167000    1.0661572   -7.0170428    457.64148   0.03267934  0.032982826            2 
 1168000    1.0594232   -7.0129198    456.79089  0.032590674   0.03297483            2 
 1169000    1.0752843   -7.0326511    458.33464  0.032672843  0.032966909            2 
 1170000    1.0550197   -7.0489356    458.47176  0.032654684  0.032958976            3 
 1171000    1.0644049   -7.0227118    457.69215  0.032571317  0.032951155            1 
 1172000    1.0704614   -7.0518931    458.50919  0.032601621  0.032943253            1 
 1173000    1.0550264   -6.9984228    459.78416  0.032664405   0.03293548            3 
 1174000    1.0709281   -7.0496064    459.17083  0.032593046  0.032927455            2 
 1175000    1.0625913   -7.0541784    458.46644  0.032515351  0.032919405            4 
 1176000    1.0501048   -7.0482189    458.84499  0.032514526  0.032911284            2 
 1177000    1.0766705   -7.0313258     459.6765  0.032545773  0.032903245            2 
 1178000    1.0665541   -6.9792233    461.30783  0.032633548  0.032895228            3 
 1179000    1.0296786   -7.0652519    459.81879  0.032500621  0.032887313            1 
 1180000    1.0767906   -7.0373628    460.97708  0.032554878  0.032879159            1 
 1181000    1.0539008   -7.0122332    460.84042   0.03251767  0.032871068            1 
 1182000    1.0878741   -7.0464767    460.22938   0.03244708  0.032863083            3 
 1183000    1.0957609   -7.0087214    462.46326  0.032577011  0.032855195            1 
 1184000     1.043138   -7.0649798    463.16798  0.032599097  0.032847478            2 
 1185000    1.1213145    -7.001949    462.70285  0.032538878  0.032839908            3 
 1186000    1.0661047   -6.9974574    465.56388   0.03271247  0.032832481            1 
 1187000     1.054919   -7.0353587    464.03323  0.032577452  0.032824862            1 
 1188000    1.0673614   -7.0582593    464.16413  0.032559213  0.032816999            4 
 1189000    1.0914745    -7.079987    463.32442  0.032472976  0.032809212            1 
 1190000    1.0561278   -7.0438477    465.61783   0.03260629  0.032801613            4 
 1191000    1.0833825   -7.0787001    464.29214  0.032486156  0.032793963            1 
 1192000    1.0688621   -7.0726536    465.71223  0.032558181  0.032786606            2 
 1193000    1.0588485   -7.0904224    463.61584  0.032384454  0.032778927            2 
 1194000    1.0449659   -7.0496323    464.96662  0.032451607  0.032771553            2 
 1195000    1.0614513   -7.0371194    467.17951  0.032578767  0.032764206            3 
 1196000    1.0697119   -7.0531767    466.80004  0.032525086  0.032756834            2 
 1197000    1.0418158   -7.0767875    467.28188  0.032531459  0.032749507            2 
 1198000    1.0607141   -7.0207742    468.10834  0.032561793  0.032742123            2 
 1199000     1.056183   -7.0519124    468.60348  0.032569049  0.032734754            2 
 1200000     1.080558   -7.0551586    468.35992  0.032524995  0.032727402            2 
 1201000    1.0236537   -6.9942161    468.39893  0.032500619  0.032719954            1 
 1202000    1.0424727   -7.0155052    469.18929  0.032528376   0.03271247            2 
 1203000    1.0423022   -7.0563003    469.83695    0.0325462  0.032704834            2 
 1204000    1.0635617   -7.0361354    469.35414  0.032485751  0.032697442            2 
 1205000    1.0578622   -7.0393123    469.92913  0.032498556  0.032690034            1 
 1206000    1.0715305   -7.0148032    470.17312  0.032488469  0.032682766            3 
 1207000    1.0811454   -7.0422329    469.72075   0.03243032  0.032675637            2 
 1208000     1.057579    -7.045128     471.2056  0.032505905  0.032668517            1 
 1209000    1.0461603   -7.0516986    471.74546   0.03251623  0.032661467            2 
 1210000    1.0302802   -7.0404931    472.94913  0.032572254  0.032654437            1 
 1211000    1.0541877   -7.0575597    471.73009  0.032461471  0.032647335            3 
 1212000    1.0339926   -7.0254105    472.88549  0.032514129  0.032640338            2 
 1213000    1.0647852   -7.0564903    472.62683  0.032469554  0.032633268            3 
 1214000    1.0723779   -7.0274073    474.49868  0.032571298  0.032626312            1 
 1215000    1.0475394   -7.0206211    473.27954  0.032460873  0.032619342            6 
 1216000     1.082617   -7.0440248    475.07033  0.032556903  0.032612531            1 
 1217000    1.0658105   -7.0253431    473.85325  0.032446812  0.032605761            2 
 1218000    1.0570082    -7.084732     474.7314  0.032480255  0.032598872            1 
 1219000    1.0381328     -7.00907    474.82703  0.032460147  0.032591928            3 
 1220000    1.0725577   -7.0319902    476.31789  0.032535375  0.032585226            3 
 1221000       1.0704   -7.0312808    476.67619  0.032533183  0.032578459            2 
 1222000    1.0720697   -7.0543694    477.02838  0.032530577  0.032571766            1 
 1223000    1.0552372   -7.0693987    475.60553  0.032407027  0.032564991            3 
 1224000    1.0428275   -7.0551278    476.07056  0.032412211  0.032558168            4 
 1225000    1.0682286   -7.0559008    476.07475  0.032386037  0.032551187            2 
 1226000    1.0418953   -7.0456237    475.61489  0.032328364  0.032544226            3 
 1227000    1.0499906    -7.024287    477.13732  0.032405415  0.032537216            3 
 1228000    1.0459285   -7.0519973    477.59255  0.032409918  0.032530307            2 
 1229000     1.070628   -7.0313889    478.25037  0.032428151   0.03252353            6 
 1230000    1.0419331   -7.0631211    477.90993  0.032378721  0.032516782            2 
 1231000    1.0501851   -7.0555982    478.30615  0.032379241  0.032509906            2 
 1232000    1.0558362   -7.0316249    479.38303    0.0324258  0.032502842            2 
 1233000    1.0577784   -7.0673213     478.3963  0.032332813  0.032495995            3 
 1234000    1.0727682   -7.0565685    479.05101  0.032350825  0.032489112            3 
 1235000    1.0654363   -7.1018864    479.49495  0.032354585  0.032482247            2 
 1236000    1.0554884   -7.0534745    479.05997  0.032299081  0.032475354            2 
 1237000    1.0425599   -7.0449113    479.01206  0.032269743  0.032468295            3 
 1238000    1.0468062   -7.0495844    480.36194  0.032334541  0.032461195            2 
 1239000    1.0537397   -7.0292332    479.90527  0.032277729  0.032454056            1 
 1240000     1.046419     -7.06274    480.34274  0.032281098  0.032446978            2 
 1241000    1.0732009   -7.0824352    480.76651  0.032283542  0.032439844            3 
 1242000    1.0552968   -7.0454985    482.18515  0.032352734  0.032432621            2 
 1243000    1.0502273   -7.0652547    480.66507  0.032224797  0.032425641            2 
 1244000    1.0361705   -7.0811899    480.74971  0.032204563  0.032418459            3 
 1245000    1.0653203   -7.0786522    482.06146  0.032266497  0.032411403            7 
 1246000    1.0570391   -7.0383712    483.24497  0.032319754  0.032404548            3 
 1247000    1.0698874   -7.0749838     483.0864  0.032283239  0.032397965            2 
 1248000    1.0462716   -7.1099722    484.23491  0.032334062   0.03239138            3 
 1249000    1.0515339   -7.0751844    484.37348  0.032317419  0.032384675            7 
 1250000     1.043378   -7.0595505     484.1467  0.032276447  0.032378031            1 
 1251000    1.0474925   -7.0559973    484.30067  0.032260903  0.032371379            2 
 1252000    1.0458277    -7.066647    485.84231  0.032337747  0.032364684            3 
 1253000    1.0321339   -7.0423306    486.28694   0.03234151  0.032358058            3 
 1254000    1.0535226   -7.0684917    486.88758  0.032355634  0.032351512            1 
 1255000    1.0443136   -7.1109041    486.29894  0.032290766  0.032344933            1 
 1256000    1.0765579   -7.0988457     486.6568    0.0322888  0.032338503            3 
 1257000    1.0579728   -7.0700718    486.86409  0.032276856  0.032331965            3 
 1258000    1.0354884   -7.0632906    487.38326   0.03228559  0.032325356            2 
 1259000    1.0206671   -7.0700895    488.02398  0.032302355  0.032318522            1 
 1260000    1.0612741   -7.0651578    486.31506  0.032163694  0.032311879            4 
 1261000    1.0641442   -7.0927138    486.43763  0.032146288  0.032305287            1 
 1262000     1.061055   -7.0516154    488.11934  0.032231863  0.032298561            2 
 1263000    1.0488129   -7.0708058    487.13741  0.032141555  0.032291748            3 
 1264000    1.0501969   -7.1014995    488.59633  0.032212311  0.032284582            2 
 1265000    1.0238909   -7.0601998    487.55553  0.032118283   0.03227755            1 
 1266000    1.0471818    -7.045408    488.69414  0.032167861  0.032270555            3 
 1267000    1.0677446   -7.0741732    488.14699  0.032106484  0.032263592            2 
 1268000    1.0592563   -7.0761501     488.5602   0.03210832  0.032256718            3 
 1269000    1.0499116   -7.0736154    489.54202  0.032147493  0.032249614            1 
 1270000    1.0440756   -7.0115468    489.45831  0.032116687  0.032242748            1 
 1271000    1.0360938   -7.0634217    489.11251  0.032068746  0.032235751            6 
 1272000    1.0416784   -7.0560754    490.53809  0.032136929  0.032228673            3 
 1273000    1.0524251    -7.094039    489.92542  0.032071578  0.032221656            3 
 1274000    1.0460876   -7.0470792    491.72214  0.032163929  0.032214754            3 
 1275000    1.0574256    -7.095319    489.99328  0.032025705  0.032207749            3 
 1276000    1.0402435   -7.0679531    490.79997  0.032053289  0.032200701            2 
 1277000     1.041444   -7.0721347    492.32665  0.032127816  0.032193753            3 
 1278000    1.0585631   -7.0960606    489.77876  0.031936539  0.032186623            1 
 1279000    1.0654577   -7.0800356     490.6974  0.031971423  0.032179547            2 
 1280000    1.0639683   -7.0653043    491.77723  0.032016747   0.03217242            2 
 1281000    1.0197189   -7.0430809    492.42611  0.032033965  0.032165418            2 
 1282000    1.0445386   -7.0563186     492.4386  0.032009789  0.032158358            1 
 1283000     1.051853    -7.101634    492.28583  0.031974918  0.032151311            2 
 1284000    1.0728322   -7.0912642    491.67038  0.031910071  0.032144359            1 
 1285000    1.0527061   -7.0743646    493.53193  0.032005962   0.03213744            3 
 1286000    1.0586288   -7.0957415    493.65788  0.031989235   0.03213042            2 
 1287000    1.0463197   -7.0743099    494.76472  0.032036048  0.032123458            1 
 1288000    1.0480253   -7.0719443    494.59245  0.032000029  0.032116716            3 
 1289000    1.0423039   -7.0984781    494.17031  0.031947913  0.032109841            4 
 1290000    1.0272052   -7.0757438    493.87427  0.031904023  0.032102748            2 
 1291000     1.056259   -7.0358274    495.20311  0.031965086  0.032095793            3 
 1292000    1.0243891    -7.038926      496.043  0.031994518  0.032088846            1 
 1293000    1.0384538   -7.0467728    497.53275  0.032065787  0.032082049            5 
 1294000    1.0542105   -7.0616867    497.05202  0.032010048  0.032075137            1 
 1295000    1.0427418   -7.0816804    496.39138  0.031942817  0.032068213            2 
 1296000     1.043017   -7.0792743    497.81732  0.032009859  0.032061279            1 
 1297000    1.0575275   -7.1057891    496.59381  0.031906567  0.032054534            1 
 1298000    1.0373478   -7.0804767    497.46209   0.03193773  0.032047767            2 
 1299000        1.017   -7.0907509    496.89858  0.031876994    0.0320409            3 
 1300000    1.0471259   -7.0946179    496.07953   0.03179997  0.032033967            2 
 1301000    1.0449675   -7.0752983    499.93121   0.03202224  0.032027224            2 
 1302000    1.0451576   -7.0565193    499.89881  0.031995572  0.032020481            1 
 1303000    1.0304969   -7.0850641    499.07079   0.03191806  0.032013629            3 
 1304000    1.0529763   -7.0841247    498.11432  0.031832459  0.032006854            5 
 1305000    1.0384834   -7.0646394    499.55815  0.031900265  0.031999873            1 
 1306000    1.0584513    -7.091566    499.37534  0.031864174  0.031993108            3 
 1307000    1.0310116   -7.1024422    499.78088  0.031865651  0.031986046            4 
 1308000    1.0326743   -7.0918019    499.94767  0.031851916  0.031979044            3 
 1309000    1.0610167    -7.111894    499.15952  0.031777408  0.031971853            4 
 1310000    1.0335541    -7.091481    498.11596  0.031686766  0.031964657            2 
 1311000    1.0452854   -7.0757083    499.67256  0.031761541  0.031957363            4 
 1312000    1.0234091   -7.0653375    499.56706  0.031730632  0.031950019            4 
 1313000    1.0560174   -7.0864145    499.04678  0.031673444   0.03194267            3 
 1314000    1.0492657   -7.0673299    500.61325  0.031748684  0.031935364            2 
 1315000    1.0497723   -7.1098894     501.1865  0.031760868  0.031928081            1 
 1316000     1.063425   -7.0596434    501.00792  0.031725425  0.031920776            2 
 1317000     1.049881   -7.0929097    500.77855  0.031686823  0.031913467            1 
 1318000    1.0434528   -7.0775016     501.1087  0.031683656  0.031906084            3 
 1319000    1.0251478   -7.0885302    502.41305  0.031742043  0.031898736            1 
 1320000    1.0236343   -7.0487437    504.09199  0.031823989  0.031891586            2 
 1321000     1.046665   -7.1013081    503.32049  0.031751229  0.031884298            2 
 1322000     1.052513   -7.0830566    503.06419  0.031711056  0.031877046            3 
 1323000    1.0207379    -7.071253    502.53733  0.031653901   0.03186979            2 
 1324000    1.0333705   -7.0651368    503.74131  0.031705772  0.031862494            4 
 1325000    1.0403971   -7.0965597    503.49233  0.031666184  0.031855292            3 
 1326000    1.0410686   -7.1111342    503.44547  0.031639358  0.031848005            1 
 1327000    1.0444545   -7.0800446    504.69274  0.031693842  0.031840723            1 
 1328000    1.0322543   -7.0565975    503.69047  0.031607083  0.031833186            3 
 1329000    1.0598189   -7.1257606    502.84277  0.031530146  0.031825624            3 
 1330000    1.0314771   -7.0714883    503.64338  0.031556603  0.031818014            5 
 1331000     1.052622   -7.1396984    503.62898  0.031531992  0.031810362            2 
 1332000    1.0376358   -7.0991866    503.18724  0.031480683  0.031802689            1 
 1333000    1.0584741   -7.0918511    505.43563  0.031597627  0.031794968            3 
 1334000    1.0395767   -7.0822622    505.49926  0.031577915  0.031787359            3 
 1335000    1.0593173   -7.0891387    504.30273  0.031479571  0.031779822            4 
 1336000    1.0529149   -7.1011572    506.06144  0.031565709  0.031772144            2 
 1337000    1.0346852   -7.0730776    504.94451  0.031472483  0.031764429            1 
 1338000    1.0251959   -7.0786782    505.08808  0.031457903   0.03175672            1 
 1339000    1.0303193   -7.0623042    505.16023  0.031438899  0.031748908            1 
 1340000    1.0689654   -7.0787078    505.07587  0.031410191   0.03174122            1 
 1341000    1.0175154   -7.0810043    505.94633  0.031440861  0.031733488            4 
 1342000    1.0153492   -7.0719819    505.00798  0.031359164  0.031725634            2 
 1343000    1.0365227   -7.0415358    509.36695  0.031606289  0.031717905            4 
 1344000    1.0412596   -7.0957871    508.48751  0.031528243  0.031710203            1 
 1345000    1.0421143   -7.0923749    507.30645  0.031431626  0.031702492            3 
 1346000    1.0328659   -7.0906367    506.70661  0.031371137  0.031694829            2 
 1347000    1.0389004   -7.1058219    507.64525  0.031405918  0.031687216            3 
 1348000    1.0437905    -7.095156    508.87249  0.031458487  0.031679616            2 
 1349000    1.0423485    -7.092016     507.9585  0.031378706  0.031671966            1 
 1350000    1.0553216   -7.1000777    507.51231   0.03132792   0.03166423            1 
 1351000    1.0285891   -7.0440171    509.36796  0.031419193  0.031656482            3 
 1352000    1.0493031   -7.0822144    508.70552  0.031355123  0.031648701            3 
 1353000    1.0462015   -7.1131011    508.15506  0.031298045  0.031640845            1 
 1354000    1.0308699   -7.1247115    508.12804  0.031273267  0.031633015            2 
 1355000     1.043322   -7.0643401     508.7407  0.031287866  0.031625086            1 
 1356000    1.0312925   -7.0806007     508.9513  0.031277735  0.031617387            2 
 1357000    1.0199217    -7.099111    510.00386  0.031319323  0.031609458            4 
 1358000    1.0438092   -7.1371037    509.35004  0.031256139  0.031601551            2 
 1359000    1.0502683   -7.0889977    509.90123  0.031266939  0.031593705            1 
 1360000    1.0566821    -7.069882    511.46076  0.031339508  0.031585897            3 
 1361000    1.0263844   -7.1122422    511.09917   0.03129434  0.031578118            1 
 1362000    1.0300834   -7.1524128    509.21188  0.031155891  0.031570161            1 
 1363000    1.0276119   -7.0993884    510.17569   0.03119196  0.031562014            2 
 1364000    1.0471049   -7.0857018     511.8426  0.031270931  0.031553905            3 
 1365000    1.0121284   -7.1071343    509.54413    0.0311077   0.03154575            2 
 1366000    1.0447767   -7.0915757    511.48541  0.031203356  0.031537574            4 
 1367000     1.030411   -7.0778185    510.77166  0.031137019  0.031529462            4 
 1368000    1.0317695   -7.1317038    511.51674  0.031159645  0.031521207            2 
 1369000    1.0217256   -7.1470801    510.26344  0.031060594  0.031512969            2 
 1370000    1.0409277   -7.0961078    512.80795  0.031192698  0.031504788            1 
 1371000    1.0490709   -7.1357745    511.92929  0.031116538  0.031496605            2 
 1372000    1.0171076   -7.0865971    512.83354  0.031148781  0.031488569            2 
 1373000    1.0295421   -7.1249412    511.10906  0.031021429  0.031480496            2 
 1374000    1.0344345   -7.1280493    512.11075  0.031059604  0.031472098            2 
 1375000    1.0459997   -7.1084385    512.22322  0.031043831  0.031463779            2 
 1376000    1.0088331   -7.1239204    513.39444  0.031092202  0.031455527            2 
 1377000    1.0240338   -7.0966942    513.15316   0.03105502  0.031447339            1 
 1378000    1.0216155    -7.143744    513.58626  0.031058676  0.031439229            2 
 1379000    1.0276267   -7.0838816    515.19398  0.031133308  0.031431042            1 
 1380000    1.0242358   -7.0823772    514.58552  0.031074005  0.031422882            2 
 1381000    1.0212764   -7.1128181     514.2539  0.031031493  0.031414815            3 
 1382000    1.0310591   -7.1393811    514.99759  0.031053883  0.031406751            3 
 1383000    1.0142547   -7.1110614    513.80673  0.030959673  0.031398603            1 
 1384000    1.0229098   -7.1159217    514.11283  0.030955734  0.031390495            2 
 1385000    1.0233308   -7.1256108    516.07884  0.031051675  0.031382226            1 
 1386000    1.0397861   -7.1405872    514.10765  0.030910753  0.031373973            3 
 1387000    1.0353829   -7.1278584     515.8002  0.030990159  0.031365871            2 
 1388000    1.0292764   -7.1197367    516.43298  0.031005822  0.031357732            2 
 1389000    1.0219493   -7.0952489    517.04347  0.031020127  0.031349778            3 
 1390000    1.0324297   -7.1172329    516.42167  0.030960532  0.031341771            5 
 1391000    1.0249248   -7.1551078    517.91964  0.031028016  0.031333696            2 
 1392000    1.0301662   -7.1394836    517.45686  0.030978021  0.031325554            1 
 1393000    1.0392257   -7.1089542    516.16398  0.030878439  0.031317497            1 
 1394000    1.0155954   -7.0810302     518.3866  0.030989156   0.03130932            3 
 1395000    1.0415498   -7.0879041    518.12617  0.030951384  0.031301172            1 
 1396000    1.0458456    -7.118176    518.76051  0.030967079  0.031292991            1 
 1397000    1.0512941   -7.1304475    518.00062  0.030899584  0.031284885            4 
 1398000    1.0324182   -7.1067593    520.51815  0.031027549  0.031276644            2 
 1399000    1.0185878   -7.0967948    520.22324  0.030987803  0.031268654            3 
 1400000    1.0219527   -7.1011893    519.59919  0.030928523  0.031260576            6 
 1401000    1.0189932   -7.1287272    518.89843  0.030864765  0.031252601            1 
 1402000   0.98958739   -7.1084319    520.43711  0.030934207   0.03124461            3 
 1403000    1.0290018   -7.0808299    521.28951  0.030962789   0.03123672            3 
 1404000    1.0149322   -7.1515203    520.06223  0.030867891  0.031228661            2 
 1405000    1.0133884   -7.1145832     523.1011  0.031026162  0.031220609            1 
 1406000    1.0155969   -7.1153882    522.59466  0.030974079  0.031212698            3 
 1407000    1.0280183   -7.1019917    521.99932  0.030916804  0.031204901            2 
 1408000    1.0329251   -7.0749383    523.37048  0.030975999  0.031197164            4 
 1409000    1.0065122   -7.1167658    520.40858  0.030778837  0.031189289            2 
 1410000    1.0293985   -7.0900839    521.94911  0.030848056   0.03118135            2 
 1411000    1.0154723   -7.1098158    522.10174  0.030835208  0.031173348            2 
 1412000     1.034181   -7.1148967    522.27225  0.030823433  0.031165411            2 
 1413000    1.0292511   -7.1429256    520.41553  0.030692116  0.031157463            2 
 1414000    1.0373284   -7.0985449    523.28931  0.030839776  0.031149338            4 
 1415000    1.0316715   -7.1250093    522.43551  0.030767698  0.031141299            3 
 1416000    1.0258489   -7.1543473    522.53051   0.03075156  0.031133182            5 
 1417000    1.0394042   -7.1057094    524.67491   0.03085597  0.031125233            2 
 1418000    0.9986882   -7.1334377    524.44278  0.030820568  0.031117332            3 
 1419000    1.0287605   -7.1199532    525.15897  0.030840907  0.031109573            2 
 1420000    1.0186005   -7.1071252    524.63266  0.030788302  0.031101785            4 
 1421000      1.01774   -7.1123962    525.74521   0.03083188  0.031093899            2 
 1422000     1.033624   -7.0996236    526.07904  0.030829761  0.031086197            1 
 1423000    1.0313554   -7.1099634    526.88962  0.030855564  0.031078425            3 
 1424000    1.0312976   -7.1322874    527.30054  0.030857943  0.031070806            1 
 1425000    1.0050009   -7.1060567    527.89512  0.030871059  0.031063176            1 
 1426000     1.041879   -7.0669971    528.59215  0.030890144  0.031055694            2 
 1427000    1.0409669   -7.0995221    529.51886  0.030922615  0.031048247            4 
 1428000    1.0136363   -7.0831376    528.46268  0.030839325  0.031040984            3 
 1429000    1.0147636   -7.1051874    529.03853  0.030851326  0.031033607            2 
 1430000    1.0417163   -7.1189107    528.69963  0.030810002  0.031026342            4 
 1431000     1.002487   -7.1099495     531.3331  0.030941829  0.031018972            3 
 1432000    1.0109457   -7.1423386    530.28188  0.030859048  0.031011678            1 
 1433000    1.0034925   -7.1097183    530.55582  0.030853444  0.031004436            2 
 1434000    1.0452187   -7.1300874    530.23332  0.030813187  0.030997112            2 
 1435000     1.006795   -7.1091583    531.34041  0.030856005  0.030989911            2 
 1436000    1.0189076   -7.1343946    531.65063   0.03085252  0.030982539            3 
 1437000    1.0148746    -7.132748    531.15519  0.030802319  0.030975201            1 
 1438000    1.0054691   -7.1281432    530.54995  0.030745824  0.030967845            2 
 1439000    1.0366042   -7.1369028     532.8535  0.030857858  0.030960695            4 
 1440000    1.0097746   -7.1400019    531.13055  0.030736721  0.030953303            2 
 1441000     1.017922    -7.159774    530.51186  0.030679612   0.03094594            3 
 1442000    1.0416875   -7.1187528    531.24251  0.030700561  0.030938496            2 
 1443000    1.0104805   -7.1458388    532.87065  0.030773311  0.030931086            2 
 1444000    1.0326585   -7.1184894    532.23876  0.030715534  0.030923706            1 
 1445000    1.0198742    -7.153258    532.52688  0.030710893  0.030916395            2 
 1446000    1.0128898   -7.1778637    533.91007  0.030769368  0.030909111            3 
 1447000    1.0212267   -7.1100622    534.32883   0.03077222  0.030901652            4 
 1448000   0.99917607   -7.1198637    534.73519  0.030774355  0.030894399            2 
 1449000   0.99464555   -7.1281518    534.91855  0.030763662   0.03088705            3 
 1450000    1.0416249   -7.1409352    534.35402  0.030710001  0.030879862            2 
 1451000    1.0105595   -7.1368245    536.05216  0.030786363  0.030872644            3 
 1452000    1.0092414   -7.1508152    533.52456  0.030620096  0.030865332            4 
 1453000    1.0327083   -7.1048752    537.10138  0.030804163  0.030858151            2 
 1454000    1.0167754    -7.167694    535.61474  0.030697773  0.030850958            2 
 1455000    1.0141551   -7.1401156    536.15493  0.030707613  0.030843715            3 
 1456000    1.0476375   -7.1148852    537.53895  0.030765737  0.030836609            2 
 1457000    1.0252159    -7.160824    536.52607  0.030686689   0.03082936            4 
 1458000    1.0279846   -7.1218385    538.01036  0.030750478  0.030822126            5 
 1459000    1.0170912   -7.1645143    536.89882  0.030665914  0.030814985            3 
 1460000    1.0233397   -7.1647071    537.03673  0.030652781  0.030807708            3 
 1461000    1.0348985   -7.1814979    535.67181  0.030553948  0.030800354            3 
 1462000    1.0052517   -7.1200754    537.10969  0.030615007  0.030793008            3 
 1463000    1.0207178   -7.1540984    537.82294  0.030634708  0.030785751            3 
 1464000    1.0317832   -7.1182641     538.3818  0.030645594  0.030778395            4 
 1465000    1.0295697   -7.1463106    539.19215  0.030670771   0.03077105            3 
 1466000    1.0252279   -7.1393861     538.6623  0.030619731  0.030763832            2 
 1467000    1.0097989   -7.1280593    538.04507  0.030563796  0.030756734            1 
 1468000    1.0291423    -7.142256    538.95676   0.03059473  0.030749568            4 
 1469000    1.0254244   -7.1547021    540.50018  0.030661458  0.030742509            1 
 1470000     1.028533    -7.159047    539.22974  0.030568579  0.030735315            2 
 1471000    1.0140375     -7.16763    538.68009   0.03051666   0.03072806            3 
 1472000    1.0424879   -7.1335523    541.00067  0.030627302   0.03072077            2 
 1473000   0.98871569   -7.1041675    540.50473  0.030578453  0.030713472            2 
 1474000    1.0357039   -7.1230793    540.40921  0.030552307  0.030706171            2 
 1475000    1.0047488   -7.1186486    541.41588  0.030588468  0.030698927            2 
 1476000     1.022561   -7.1372569     540.8148  0.030533807  0.030691562            2 
 1477000    1.0182081   -7.1268326    541.34844  0.030543243  0.030684112            2 
 1478000    1.0265903   -7.1587847     540.1439  0.030454663  0.030676558            2 
 1479000    1.0335332   -7.1527394    539.76128  0.030412513  0.030669076            4 
 1480000    1.0295056   -7.1519706    541.83799  0.030508896  0.030661578            1 
 1481000    1.0050471   -7.1545239    540.77188  0.030428307  0.030654091            3 
 1482000    1.0126374   -7.1177434    540.60052   0.03039814   0.03064666            2 
 1483000    1.0176977    -7.156737    542.76711  0.030499388  0.030639307            3 
 1484000    1.0095749   -7.1145949      542.373  0.030456705  0.030631954            3 
 1485000    1.0003588   -7.1635384    543.09687  0.030476817  0.030624559            2 
 1486000    1.0279403   -7.1168778    543.69965  0.030490111   0.03061732            3 
 1487000   0.99462329    -7.161283    543.92237  0.030482087  0.030609993            3 
 1488000     1.001085   -7.1450289    543.32223  0.030427992  0.030602755            3 
 1489000   0.99176619   -7.1649745    544.85215   0.03049318  0.030595499            2 
 1490000    1.0212629    -7.092647    544.14944  0.030433414  0.030588326            4 
 1491000    1.0155152   -7.1473057    546.13504   0.03052398  0.030581307            3 
 1492000    1.0025292   -7.1365344    545.32356  0.030458197   0.03057426            2 
 1493000    1.0183156   -7.1636988    546.55239  0.030506385   0.03056722            2 
 1494000    1.0117082   -7.1456738    546.49305  0.030482656  0.030560113            2 
 1495000    1.0160189   -7.1425997    547.27617  0.030505918  0.030553073            3 
 1496000    1.0305766   -7.1696577    546.95119  0.030467424   0.03054596            2 
 1497000      1.00063   -7.1453296    547.00134  0.030449863  0.030538918            4 
 1498000    1.0267817   -7.1583287    547.13124  0.030436762  0.030531787            2 
 1499000    1.0128375   -7.1631125    546.05048  0.030356375  0.030524593            5 
 1500000    1.0043181   -7.1652012    547.83788  0.030435438  0.030517495            1 
 1501000   0.99075934   -7.1759546    547.63142  0.030403699  0.030510367            2 
 1502000    1.0282137   -7.1320819    548.17839  0.030413803  0.030503276            3 
 1503000    1.0318561   -7.1424474     546.9962  0.030328022  0.030496121            2 
 1504000    1.0155587   -7.1915854     547.2504  0.030321941  0.030488989            5 
 1505000   0.99117327   -7.1596255    547.35139  0.030307386  0.030481845            1 
 1506000    1.0015501   -7.1593937    547.52323   0.03029677  0.030474565            2 
 1507000    1.0115048   -7.1403782    550.51347  0.030442019  0.030467456            2 
 1508000    1.0142569   -7.1476021     549.9592  0.030391203  0.030460367            3 
 1509000    1.0132187   -7.1805084    548.40235  0.030285087  0.030453416            2 
 1510000    1.0070353   -7.1552781    549.20985  0.030309594  0.030446333            2 
 1511000    1.0117624   -7.1280602    551.64147  0.030423642  0.030439206            1 
 1512000    1.0160902   -7.1649064    550.47006  0.030338959   0.03043229            2 
 1513000    1.0058803   -7.1453745    550.24494  0.030306507  0.030425299            1 
 1514000   0.98290507   -7.1517792    552.50227  0.030410737  0.030418257            3 
 1515000    1.0241055   -7.1630066    551.53218  0.030337304  0.030411138            2 
 1516000    1.0087092   -7.1637769    550.42857  0.030256628  0.030403935            3 
 1517000    1.0138301   -7.1716015    551.22348  0.030280349  0.030396772            2 
 1518000    1.0092232   -7.1598078    551.82131  0.030293221  0.030389776            1 
 1519000    1.0073872   -7.1472043     553.8256  0.030383235   0.03038275            2 
 1520000    1.0121907   -7.1392533    552.65875  0.030299273  0.030375676            1 
 1521000    1.0099984   -7.1217646    553.18787  0.030308343  0.030368663            3 
 1522000     1.012294   -7.1699328    551.99871   0.03022332  0.030361573            2 
 1523000    1.0337137    -7.136791    553.16065  0.030267052  0.030354558            2 
 1524000     1.003087   -7.1302651    554.00378  0.030293295  0.030347615            2 
 1525000    1.0075366   -7.1209484    554.06126  0.030276572   0.03034061            3 
 1526000    1.0012097   -7.1682075    553.25047  0.030212455  0.030333493            2 
 1527000   0.99460772   -7.1341936    555.20017  0.030299071   0.03032641            2 
 1528000   0.99507192   -7.1648399     554.7894  0.030256839  0.030319314            3 
 1529000    0.9965015   -7.1775682    553.60495  0.030172496  0.030312257            2 
 1530000    1.0071921   -7.1458512    555.14477  0.030236643  0.030305115            2 
 1531000    0.9912327    -7.176351    555.90253  0.030258139  0.030297935            2 
 1532000     1.020191   -7.1741347    556.16267  0.030252539  0.030290901            3 
 1533000    1.0003016   -7.1308626    555.38406   0.03019048  0.030283861            1 
 1534000    1.0302005   -7.1734464    555.50539   0.03017739  0.030276787            3 
 1535000   0.99481642   -7.1823273    555.08217  0.030134754  0.030269652            2 
 1536000    1.0056961   -7.1634617    555.76493  0.030152177  0.030262414            2 
 1537000    1.0003879   -7.1251893    556.37637  0.030165711   0.03025516            2 
 1538000   0.99091243   -7.1604268    555.70278    0.0301096  0.030248038            2 
 1539000    1.0029696   -7.1246451    556.80336  0.030149629  0.030241022            2 
 1540000   0.99157962   -7.1435481    556.33565  0.030104743  0.030233874            2 
 1541000   0.99642893   -7.1678274    556.76047   0.03010818  0.030226701            4 
 1542000     1.011318   -7.1560289    556.66761  0.030083637  0.030219414            3 
 1543000   0.98889345   -7.1786132    557.21678  0.030093799  0.030212022            1 
 1544000    1.0081572   -7.1469221    557.25979  0.030076629  0.030204679            3 
 1545000    1.0342492   -7.1171681    557.05713  0.030046231  0.030197384            1 
 1546000    1.0241105   -7.1198987    556.73563  0.030009467    0.0301901            2 
 1547000    1.0039567    -7.140652    557.86056  0.030050666   0.03018274            3 
 1548000   0.99084432   -7.1867501    555.52734  0.029905649  0.030175169            2 
 1549000    1.0178135   -7.1695889     557.4608   0.02999036  0.030167588            3 
 1550000    1.0100532   -7.1324084    556.91384  0.029941604  0.030160197            2 
 1551000    1.0212469   -7.1801573    557.82036  0.029971006  0.030152789            1 
 1552000   0.99629348   -7.1763006    556.46221   0.02987877  0.030145267            1 
 1553000    1.0253245   -7.1769904    557.76206   0.02992928  0.030137669            2 
 1554000    1.0039184   -7.1862545    558.15288  0.029930978  0.030130024            4 
 1555000    1.0134044   -7.1826348     557.0476  0.029852497  0.030122495            3 
 1556000    1.0063596   -7.1837831    558.54083  0.029913284  0.030114792            1 
 1557000   0.99738422    -7.142392    558.09904  0.029870426  0.030107202            3 
 1558000   0.99381261    -7.151308    558.40187  0.029867451   0.03009958            1 
 1559000    1.0260451   -7.2015998    557.58987  0.029804889  0.030091751            3 
 1560000   0.98147863   -7.1661771    559.17997  0.029870725  0.030083917            1 
 1561000    1.0244069   -7.1857353    559.38754   0.02986267  0.030076115            2 
 1562000    0.9927913   -7.1808977    557.86502  0.029762325  0.030068391            1 
 1563000   0.98349878   -7.1163886    559.37283  0.029823674  0.030060639            3 
 1564000   0.98365723   -7.1590367    558.79815  0.029773985  0.030052913            7 
 1565000    1.0183692   -7.1888101    560.34601  0.029837381  0.030045206            2 
 1566000   0.99947339   -7.1544068    561.08445  0.029857623  0.030037579            2 
 1567000    0.9984769   -7.1460391    561.27739  0.029848829   0.03003002            2 
 1568000    1.0023505    -7.179082    560.74852  0.029801686  0.030022477            2 
 1569000    1.0166426   -7.1729327    560.57549  0.029773502  0.030014954            2 
 1570000     1.012999   -7.1618037    561.22263  0.029788887  0.030007317           11 
 1571000    1.0157685   -7.1730666    560.50993   0.02973212  0.029999702            3 
 1572000    1.0004373   -7.1636521    561.81277  0.029782271  0.029992068            1 
 1573000   0.98781719   -7.1724314    562.72212  0.029811513   0.02998441            3 
 1574000   0.99783539   -7.1596483      562.867  0.029800243  0.029976668            1 
 1575000   0.99310123   -7.2300548    560.38388  0.029649941  0.029968883            2 
 1576000   0.99415143   -7.1607055    563.03793  0.029771464  0.029961154            2 
 1577000     1.000616   -7.1379926    564.94714  0.029853474  0.029953573            3 
 1578000   0.98737992   -7.1917976    563.42481  0.029754162   0.02994597            2 
 1579000   0.99790557   -7.1982453    562.88899   0.02970704  0.029938258            2 
 1580000   0.99299905   -7.1874147    562.61258  0.029673659  0.029930655            2 
 1581000    1.0247283   -7.1580733    564.79581  0.029769967  0.029923026            3 
 1582000    1.0100861    -7.164561     564.3921  0.029729883  0.029915301            3 
 1583000     1.005135   -7.1581345    564.67024  0.029725744  0.029907543            2 
 1584000    0.9843815   -7.2029843    563.18492  0.029628836  0.029899686            3 
 1585000   0.99298315   -7.1752148    564.33635  0.029670681  0.029891735            3 
 1586000   0.97634098   -7.2017588    562.00016  0.029529222  0.029883815            2 
 1587000   0.99283737   -7.1790017    563.72874  0.029601383  0.029875765            2 
 1588000   0.98283451   -7.1984687    563.92579  0.029593083  0.029867762            2 
 1589000   0.97366518   -7.1759292    562.89729  0.029520521  0.029859764            2 
 1590000   0.98745277   -7.1457439     562.3305  0.029472248  0.029851721            6 
 1591000   0.99801804   -7.2111017    564.13406  0.029548191  0.029843794            1 
 1592000     1.009581    -7.187157     562.8589  0.029462882  0.029835847            2 
 1593000   0.99249285   -7.1754208    563.50578  0.029478227  0.029827817            3 
 1594000    1.0227314     -7.17074     566.0842  0.029594532  0.029819764            2 
 1595000    1.0072783   -7.1998089    566.08848  0.029576201  0.029811731            3 
 1596000    1.0064114   -7.1805604     564.0461  0.029451029  0.029803794            9 
 1597000   0.97521588    -7.166255    562.98091  0.029377004  0.029795916            2 
 1598000   0.99003759   -7.1900098    566.61056  0.029547901  0.029787925            3 
 1599000    1.0000499   -7.2079728    564.73038  0.029431436  0.029780006            2 
 1600000    1.0003954   -7.1761352    567.21259  0.029542323  0.029772218            1 
 1601000   0.98937303   -7.1578052     566.8185  0.029503358  0.029764377            1 
 1602000    1.0021063   -7.1970197    566.37511  0.029461876  0.029756475            3 
 1603000   0.99771873   -7.1489564    569.36846  0.029599109  0.029748624            5 
 1604000   0.98885521   -7.2070776    567.25658  0.029470936  0.029740799            1 
 1605000    0.9908437   -7.2084583    566.73332  0.029425406  0.029732845            4 
 1606000   0.99934054    -7.180651     567.5245  0.029448137  0.029724955            2 
 1607000    1.0016358   -7.1800901    566.24005  0.029363205  0.029717056            3 
 1608000    1.0207312   -7.1969689    566.78209  0.029373035   0.02970905            2 
 1609000     1.006138   -7.2170385    568.65244  0.029451649  0.029701163            2 
 1610000    1.0127197   -7.1673078    567.65758  0.029381862  0.029693197            4 
 1611000   0.99370222   -7.1951826    568.31661  0.029397714  0.029685076            1 
 1612000     1.002903   -7.1856852    567.34614  0.029329308  0.029676981            6 
 1613000     1.004017   -7.1780712    567.63769  0.029326188  0.029668965            2 
 1614000   0.99037914   -7.1702247    567.68733  0.029310581  0.029660874            3 
 1615000   0.99459657   -7.2186946    567.42301  0.029278793  0.029652772            2 
 1616000   0.99257084   -7.1860768     568.9832   0.02934113  0.029644707            3 
 1617000   0.98522798    -7.182077    569.71328   0.02936061   0.02963677            1 
 1618000   0.99655956    -7.185853    567.77683  0.029242729  0.029628683            3 
 1619000   0.99354947    -7.199598    569.53108  0.029314962  0.029620623            3 
 1620000   0.97837038   -7.1796482    571.29449  0.029387577  0.029612527            7 
 1621000    1.0016888   -7.1808376    571.04893  0.029356824  0.029604466            3 
 1622000   0.98482015   -7.2000314    569.92646  0.029281055  0.029596336            2 
 1623000   0.99541775   -7.1657101    571.53033  0.029345365  0.029588204            3 
 1624000   0.97317727    -7.189756    569.02686  0.029198833  0.029580112            1 
 1625000     1.013301   -7.2051613    571.10754  0.029287566  0.029572034            2 
 1626000    0.9811377   -7.1780392    571.28346   0.02927857  0.029564098            2 
 1627000   0.98943287   -7.2074523    571.42151  0.029267646  0.029556053            2 
 1628000   0.99436406   -7.1944238    571.88377  0.029273329  0.029548163            4 
 1629000   0.98957211   -7.1928138    572.33942  0.029278669  0.029540325            2 
 1630000   0.99629357   -7.1861854    571.99949  0.029243328  0.029532469            3 
 1631000   0.97305068   -7.1405293     573.0048  0.029276763  0.029524642            3 
 1632000   0.97809842   -7.1675822    574.68343  0.029344538  0.029516857            1 
 1633000   0.99878921   -7.2120358    572.26711  0.029203261  0.029508965            3 
 1634000   0.97819162   -7.1726859    572.80446  0.029212794     0.029501            3 
 1635000   0.97969879   -7.2016048    574.06298  0.029259071  0.029493209            1 
 1636000    1.0103837   -7.1644482    574.58442  0.029267748  0.029485455            3 
 1637000    1.0185861   -7.1998787    574.28698  0.029234727  0.029477713            2 
 1638000     0.984914   -7.2194026    574.35532  0.029220356   0.02947005            4 
 1639000   0.98221728   -7.1683007    575.03578  0.029237125    0.0294623            3 
 1640000   0.99029492   -7.1668594    577.64833  0.029352049  0.029454687            4 
 1641000   0.96484921   -7.2235046    574.36529  0.029167443  0.029447041            2 
 1642000    1.0000166   -7.1904533    576.00109  0.029232699  0.029439269            3 
 1643000   0.99613729   -7.1835193    576.38004  0.029234127  0.029431503            2 
 1644000   0.97437883   -7.1643468    576.33487  0.029214055   0.02942373            4 
 1645000    1.0116592   -7.2068502    576.01646  0.029180165  0.029415834            2 
 1646000    1.0027055   -7.1789549     575.5638   0.02913952  0.029408014            3 
 1647000   0.97688955   -7.1685216    576.67677   0.02917814  0.029400197            4 
 1648000   0.98087086   -7.1867232    575.74777  0.029113459  0.029392498            4 
 1649000   0.98478398   -7.2049305    576.90598  0.029154335   0.02938459            5 
 1650000   0.99324776   -7.1857721    576.38204  0.029110204  0.029376756            4 
 1651000   0.98857407   -7.2203114    577.60062   0.02915408   0.02936896            5 
 1652000   0.99338539   -7.1914735     578.7739  0.029195616  0.029361151            3 
 1653000   0.96577279   -7.2101321     577.0067  0.029088863  0.029353299            1 
 1654000   0.99212989   -7.2321695    575.43905  0.028992294  0.029345313            3 
 1655000    1.0005241   -7.1674461    578.16989  0.029112281  0.029337393            2 
 1656000   0.99959587   -7.1888348    576.92401  0.029032005  0.029329466            2 
 1657000    1.0158802   -7.2355476    576.50888  0.028993607  0.029321412            3 
 1658000     1.003013   -7.2069778    576.42413   0.02897186  0.029313317            2 
 1659000    1.0098429   -7.2034792    577.07824  0.028987254   0.02930518            2 
 1660000   0.99926188    -7.193213     577.7337  0.029002696  0.029297156            2 
 1661000    1.0046859   -7.2029555    578.50016  0.029023689  0.029289173            1 
 1662000   0.97789889   -7.2071393    577.18579  0.028940322  0.029281187            3 
 1663000    1.0035141   -7.2098789    576.99256  0.028913237  0.029273171            2 
 1664000   0.99477194   -7.1789289    579.41354  0.029017104  0.029265311            2 
 1665000    0.9784217   -7.1941465    579.53404  0.029005708  0.029257556            2 
 1666000   0.96435297   -7.2141983    579.25343  0.028974261  0.029249737            2 
 1667000   0.98541221   -7.1878106    580.45503  0.029016948  0.029241959            4 
 1668000     1.003623   -7.1985118     580.4941  0.029001504  0.029234136            2 
 1669000    0.9868066   -7.1936498    580.58617  0.028988724  0.029226241            2 
 1670000   0.97001843   -7.2043946    580.32033    0.0289581   0.02921843            1 
 1671000   0.98775334   -7.2023036    581.74439  0.029011789  0.029210622            2 
 1672000   0.96960014   -7.1780287    580.75357  0.028945054  0.029202794            4 
 1673000   0.98551945    -7.193578     580.6454  0.028922365  0.029194972            2 
 1674000   0.97568709   -7.1832788     581.9339   0.02896923  0.029187148            4 
 1675000   0.99303679   -7.1854652    579.84812  0.028848165  0.029179217            3 
 1676000   0.98924936   -7.1934688    582.71622  0.028973559  0.029171244            4 
 1677000   0.98137209   -7.2088752    581.50437  0.028896063  0.029163283            2 
 1678000   0.97705968   -7.2073958    581.57072  0.028882137  0.029155273            1 
 1679000   0.98756177   -7.1635751    581.80477  0.028876552   0.02914734            4 
 1680000   0.97485026   -7.1884781    581.99092  0.028868597  0.029139369            2 
 1681000   0.97761029   -7.2316196    581.23702   0.02881405  0.029131395            3 
 1682000   0.95760962   -7.2020895    582.01517  0.028835472  0.029123348            2 
 1683000   0.99829274   -7.2027238    581.47337  0.028791512  0.029115242            3 
 1684000   0.97211226   -7.2208818    582.92407  0.028846203  0.029107105            1 
 1685000   0.97619492   -7.1917957    581.41249  0.028754327  0.029099093            3 
 1686000    0.9888688    -7.199439    582.28891  0.028780591  0.029091009            2 
 1687000   0.98235659   -7.2480503    581.71046  0.028734956  0.029082921            4 
 1688000   0.97035773   -7.2190149    582.43256  0.028753582   0.02907472            6 
 1689000   0.96952015   -7.2123967    582.95521  0.028762345  0.029066602            2 
 1690000   0.97355634   -7.2197094    582.99334  0.028747206  0.029058421            2 
 1691000   0.98474339   -7.2243704    582.23865  0.028693015  0.029050285            3 
 1692000    0.9659752   -7.2089078    583.96146  0.028760907  0.029042244            5 
 1693000   0.95746522   -7.1935307    584.31492  0.028761317  0.029034285            2 
 1694000   0.98882307    -7.217535    584.16439  0.028736934  0.029026201            2 
 1695000    0.9816659    -7.212975    583.85124  0.028704584  0.029018117            2 
 1696000   0.97284984   -7.2007541    583.20201  0.028655759  0.029009855            5 
 1697000   0.98493271    -7.245559    583.00864  0.028629378  0.029001606            3 
 1698000   0.99824537   -7.1966843    585.42264  0.028730989  0.028993334            1 
 1699000   0.96518483   -7.2150101    583.05094  0.028597751  0.028985159            2 
 1700000   0.98782288   -7.2244912    583.58608  0.028607161  0.028977054            4 
 1701000   0.95823611   -7.1949923    584.06723  0.028613915  0.028968967            3 
 1702000   0.99753828   -7.1796554    586.32287  0.028707544  0.028960808            2 
 1703000   0.98841219   -7.2026506    584.99865  0.028625888  0.028952819            2 
 1704000   0.98921019   -7.2037489    585.56308  0.028636692   0.02894474            1 
 1705000    0.9604639   -7.1957393    585.69924  0.028626551  0.028936632            3 
 1706000   0.93880996    -7.204941    584.81852  0.028566751  0.028928427            4 
 1707000   0.98313563   -7.2366273    585.83203  0.028599494  0.028920232            2 
 1708000   0.95474756   -7.2219962    586.51808  0.028616222  0.028912014            1 
 1709000   0.97562097   -7.2534611    585.12747  0.028531669  0.028903808            5 
 1710000   0.99426152   -7.1897941    586.37772  0.028575912  0.028895671            4 
 1711000    0.9864079   -7.2219121    586.43451  0.028561977  0.028887442            2 
 1712000   0.99476555   -7.2020054    587.04174  0.028574851  0.028879261            2 
 1713000   0.98452027   -7.2436673    586.67745  0.028540448  0.028871052            2 
 1714000   0.98385827   -7.1911728     587.1543  0.028546981  0.028862888            2 
 1715000   0.94975392   -7.2117116     586.8124  0.028513722  0.028854753            1 
 1716000   0.98856151    -7.232127    586.57483  0.028485569  0.028846501            3 
 1717000   0.98040433   -7.1969726    586.15036  0.028448377  0.028838313            3 
 1718000   0.98082813   -7.2276392    587.28073  0.028486648  0.028830042            2 
 1719000   0.96477984   -7.2036662    589.14922  0.028560656  0.028821792            2 
 1720000   0.99215664   -7.2368842    587.31517  0.028455193  0.028813622            2 
 1721000   0.99198945   -7.2246817    588.25277  0.028484058  0.028805345            4 
 1722000   0.98309502   -7.2238504    587.15335  0.028414312  0.028797116            2 
 1723000   0.96888331   -7.1954771    588.88367  0.028481508  0.028788878            3 
 1724000   0.97113157   -7.2436166    587.28064  0.028387502  0.028780612            4 
 1725000   0.98035107   -7.1994595    587.75199  0.028393816  0.028772346            3 
 1726000    0.9781864   -7.2266749    586.14383  0.028299721  0.028764067            3 
 1727000   0.97556026   -7.2116159    589.44177  0.028442471  0.028755725            3 
 1728000   0.96636988    -7.221992    587.74132  0.028344007  0.028747298            2 
 1729000   0.96695493   -7.2277943    587.88143  0.028334366  0.028738982            3 
 1730000   0.99527073   -7.2115363    587.86866  0.028317373   0.02873061            2 
 1731000   0.98889392   -7.2383458     588.1237  0.028313292  0.028722174            3 
 1732000   0.96557001   -7.2001415    590.03914  0.028389104  0.028713775            2 
 1733000   0.98824954   -7.2062228    588.39798  0.028293806  0.028705367            6 
 1734000   0.96403041   -7.2090686    589.75721  0.028342811    0.0286971            3 
 1735000   0.97198476   -7.2628631    589.08682  0.028294276  0.028688718            2 
 1736000   0.97307022    -7.233402    588.27961  0.028239228   0.02868028            3 
 1737000   0.96947729   -7.2672655    589.43812  0.028278551  0.028671907            3 
 1738000   0.98887124   -7.2366289    590.65152   0.02832046  0.028663597            7 
 1739000   0.98941985   -7.2093672    590.53169  0.028298433  0.028655328            3 
 1740000   0.98464942   -7.2229725    589.64086  0.028239505  0.028647118            2 
 1741000   0.98711403   -7.2152802    590.30797  0.028255216  0.028638882            7 
 1742000   0.98673465    -7.244653    590.38102   0.02824249  0.028630707            5 
 1743000   0.97516505   -7.2403821    592.38201  0.028321955   0.02862248            2 
 1744000   0.96717113   -7.1995861    592.14513  0.028294396  0.028614238            2 
 1745000   0.96508709    -7.261106    591.97864  0.028270231  0.028606149            3 
 1746000   0.96087167   -7.2360884    592.06064  0.028257954  0.028598013            4 
 1747000   0.97837932   -7.2106926    594.79372  0.028372148  0.028589991            2 
 1748000   0.98628475   -7.2345881    593.85085  0.028310967  0.028582047            3 
 1749000   0.96914269   -7.2616009    592.29032  0.028220427  0.028573984            2 
 1750000   0.97989388   -7.2371603    594.40351  0.028304929  0.028565917            3 
 1751000   0.96974606   -7.2611556    591.98779  0.028173795  0.028557962            3 
 1752000   0.97527751   -7.2350996    594.94277  0.028298267  0.028549909            4 
 1753000   0.97662449   -7.2463743    594.66703  0.028269016  0.028541839            2 
 1754000    0.9751173   -7.2330189    595.11456  0.028274162  0.028533788            4 
 1755000    1.0101773   -7.2391151    595.14683  0.028259583  0.028525847            7 
 1756000   0.98851106   -7.2437634    593.56445  0.028168397  0.028517864            1 
 1757000    0.9854562   -7.1946861     597.0242  0.028316458  0.028509818            1 
 1758000    0.9730706   -7.2144921    594.70792  0.028190554   0.02850178            1 
 1759000     0.964877    -7.215041    595.24472  0.028199958  0.028493865            2 
 1760000   0.96751784    -7.228531      595.194  0.028181534  0.028485907            1 
 1761000   0.98710292   -7.2030008    596.13209  0.028209923  0.028477926            2 
 1762000   0.97478277   -7.2626389     595.0584  0.028143133  0.028469827            3 
 1763000   0.97923497   -7.2297379    594.32092   0.02809231  0.028461737            4 
 1764000   0.97685704   -7.1985618     598.0794   0.02825394   0.02845371            2 
 1765000   0.96228138   -7.2260852    595.98714  0.028139147  0.028445706            2 
 1766000   0.96083431   -7.2254428    596.62974  0.028153536   0.02843774            4 
 1767000   0.95319062   -7.2300789    595.94121  0.028105132  0.028429731            3 
 1768000   0.95125189   -7.2255218    597.89239  0.028181203  0.028421893            4 
 1769000   0.95917799   -7.2369554    598.17674  0.028178667  0.028414048            3 
 1770000   0.97589534   -7.2670557    596.79912  0.028097887  0.028406139            2 
 1771000   0.96576821   -7.2589498    597.54703  0.028117214  0.028398115            2 
 1772000   0.94693521   -7.2479748    598.84329  0.028162307  0.028390078            4 
 1773000   0.98827918   -7.2327188    598.05784  0.028109505  0.028382026            3 
 1774000   0.99201901   -7.1996683    597.82939  0.028082929  0.028374008            2 
 1775000   0.97383281   -7.2606248    599.26714  0.028134608  0.028365928            2 
 1776000   0.98460427   -7.2519106    598.13054  0.028065434    0.0283579            2 
 1777000   0.95799606   -7.2598815     598.9142  0.028086391  0.028349891            4 
 1778000   0.98359331   -7.2796697    598.52439  0.028052324  0.028341829            5 
 1779000   0.96841796   -7.2617342    599.46758  0.028080737   0.02833383            3 
 1780000   0.97497198   -7.2503542    599.42056   0.02806276  0.028325846            4 
 1781000   0.96827275   -7.2404287    598.34737  0.027996789  0.028317833            1 
 1782000   0.97780249   -7.2093408     599.7036  0.028044501  0.028309813            2 
 1783000   0.95269372    -7.252542    600.06584  0.028045702  0.028301826            2 
 1784000   0.98249035   -7.2586353     600.2899  0.028040448  0.028293802            2 
 1785000   0.96440525   -7.2269771    599.91114  0.028007056   0.02828574            2 
 1786000   0.94598721   -7.2176539    600.04865  0.027997791  0.028277595            9 
 1787000   0.96520378    -7.245371    599.52916  0.027957898  0.028269556            3 
 1788000    0.9499634   -7.2546325    600.43004  0.027984249   0.02826138            2 
 1789000   0.96453592   -7.2217582     600.7386   0.02798298  0.028253241            3 
 1790000    0.9480702   -7.2517458    599.88939  0.027927811  0.028245092            1 
 1791000   0.94845439   -7.2673512    600.98217  0.027963064  0.028237039            2 
 1792000   0.94753686    -7.249044    600.98801  0.027947731  0.028228993            2 
 1793000   0.97645905   -7.2239548    603.09584   0.02803011  0.028220998            2 
 1794000   0.95958336   -7.2302702    603.52591  0.028034463  0.028213048            2 
 1795000    1.0063537   -7.2334905    602.23303  0.027958822   0.02820505            2 
 1796000   0.96037341   -7.2402971    601.55693  0.027911884  0.028197043            1 
 1797000   0.95093167   -7.2301871     603.4948  0.027986218  0.028189124            2 
 1798000   0.96775149   -7.2405858    604.01223  0.027994634  0.028181229            2 
 1799000    0.9619822   -7.2554576    604.51202  0.028002224  0.028173324            1 
 1800000   0.96416052   -7.2569706    603.41127  0.027935707  0.028165433            4 
 1801000   0.95920412   -7.2757094    602.67302  0.027886036   0.02815756            4 
 1802000   0.96451254   -7.2820237    602.62872  0.027868513  0.028149664            2 
 1803000    0.9452954   -7.2744428    602.57123  0.027850399  0.028141656            2 
 1804000   0.95413152   -7.2751915    603.98177  0.027900119   0.02813374            2 
 1805000   0.96319749   -7.2381313    606.30399  0.027991874  0.028125829            3 
 1806000   0.95825824   -7.1746384     606.4589  0.027983522  0.028118064            4 
 1807000   0.95833908   -7.2800997    603.96193  0.027852884  0.028110216            2 
 1808000   0.96470041   -7.2184333    605.02564  0.027886506   0.02810231            2 
 1809000   0.95402715   -7.2565319    604.53752  0.027848605  0.028094427            3 
 1810000   0.97789361   -7.2412214    605.72169  0.027887739  0.028086558            3 
 1811000   0.95096575    -7.259561     605.9761  0.027884047    0.0280787            3 
 1812000   0.97690383   -7.2752872    607.01783  0.027916567  0.028070905            3 
 1813000    0.9642587   -7.2660023      606.767   0.02788964  0.028063113            2 
 1814000   0.95530537    -7.264275    607.41652  0.027904103  0.028055263            3 
 1815000    0.9699015   -7.2642429      606.332  0.027838935  0.028047426            2 
 1816000   0.96482935   -7.2359071    606.62405  0.027837007  0.028039514            5 
 1817000   0.95387781   -7.2551342    607.19239  0.027847752  0.028031654            3 
 1818000    0.9528277   -7.2799005    606.87734  0.027817993  0.028023773            7 
 1819000   0.94403616   -7.2880667    606.41009  0.027781294  0.028015791            5 
 1820000   0.98248014   -7.2696628    606.78484  0.027783189  0.028007871            2 
 1821000   0.96446616   -7.2617597    606.28742  0.027745168   0.02800002            1 
 1822000   0.92821236    -7.279505    606.67309   0.02774758  0.027992105            2 
 1823000   0.95648718    -7.240371     608.5565  0.027818454  0.027984132            3 
 1824000   0.96483479   -7.2275121    608.20923  0.027787337  0.027976297            4 
 1825000   0.99113874   -7.2561122    606.27007  0.027683565  0.027968468            1 
 1826000   0.97504084   -7.2756068    607.29437   0.02771515   0.02796051            2 
 1827000   0.96920847   -7.2763138    607.87483  0.027726456  0.027952641            5 
 1828000   0.95539813   -7.2433899     608.3682   0.02773378  0.027944804            2 
 1829000   0.94564306   -7.2480023     608.4524  0.027722453  0.027937018            2 
 1830000   0.96213914   -7.2362882    608.70428  0.027718774  0.027929202            2 
 1831000   0.95972022    -7.256923    609.37762  0.027734281  0.027921438            1 
 1832000    0.9445219   -7.2763644      607.662  0.027641103  0.027913613            5 
 1833000   0.95628107   -7.2819293    609.34017  0.027702317  0.027905717            2 
 1834000   0.97334687   -7.2806345    609.09875  0.027676243  0.027897817            3 
 1835000     0.967426   -7.2579338     610.5516  0.027727139  0.027889941            3 
 1836000   0.95232106   -7.2735701      609.489  0.027663807   0.02788203            3 
 1837000   0.96468086   -7.2710865    610.02336  0.027672989  0.027874118            3 
 1838000   0.95451914   -7.2854376    609.51709  0.027634979  0.027866214            3 
 1839000   0.95796657   -7.3004054    610.54065  0.027666333   0.02785833            3 
 1840000    0.9746754   -7.2826382    611.17058  0.027679827  0.027850536            3 
 1841000   0.95465155   -7.2834623    611.25597  0.027668657  0.027842649            6 
 1842000   0.93896413    -7.260334    611.80069   0.02767828  0.027834918            6 
 1843000   0.97022394   -7.2597798    610.42424  0.027601024  0.027827168            2 
 1844000   0.96891821   -7.2682575     610.9637  0.027610435  0.027819319            3 
 1845000   0.97154394   -7.2494357    612.03626  0.027643914  0.027811537            3 
 1846000   0.96571797   -7.2581761    612.11969  0.027632705  0.027803754            2 
 1847000   0.95604091   -7.2869097    611.30086    0.0275808  0.027795936            6 
 1848000   0.95437017   -7.2607831    610.48937  0.027529282  0.027788034            1 
 1849000   0.93433122    -7.250818    612.56451  0.027607919  0.027780183            3 
 1850000   0.96263932   -7.2554897    611.06861  0.027525613  0.027772398            1 
 1851000   0.96991964   -7.3061635    611.10883  0.027512553  0.027764513            1 
 1852000   0.94908197   -7.2524281    612.84844  0.027575974  0.027756686            5 
 1853000   0.96252044   -7.2834492    612.79358  0.027558625  0.027748867            4 
 1854000    0.9642414     -7.27961    611.27087  0.027475318  0.027741078            3 
 1855000   0.96215337   -7.2862576    611.62596  0.027476458  0.027733296            2 
 1856000   0.96094087   -7.2623757    614.52436   0.02759179  0.027725462            4 
 1857000   0.95445516   -7.2951182    612.30025  0.027477125  0.027717692            3 
 1858000   0.97152202   -7.2826038    613.20906  0.027503097  0.027709911            2 
 1859000   0.95981422   -7.2769202    613.07703  0.027482384  0.027702027            2 
 1860000   0.91479695   -7.2622095    615.53137   0.02757757  0.027694206            2 
 1861000   0.96703393    -7.293609    612.99904  0.027449357  0.027686346            3 
 1862000   0.95203001   -7.2841294    613.56244   0.02745983  0.027678475            3 
 1863000   0.96152132    -7.307835    613.94198  0.027462068   0.02767066            4 
 1864000   0.98438377   -7.2762792    614.99538  0.027494429  0.027662904            2 
 1865000   0.94017791   -7.2778182     616.0505  0.027526832  0.027655119            3 
 1866000    0.9675193   -7.2766992    614.79508  0.027456015  0.027647359            3 
 1867000   0.94092784   -7.2834896    614.94203  0.027447868  0.027639483            2 
 1868000   0.95740879   -7.2793109    613.81777  0.027383019  0.027631587            2 
 1869000   0.96146654   -7.2515133    614.99719  0.027420956  0.027623748            3 
 1870000   0.94521263   -7.2729775    614.23206  0.027372195  0.027615857            2 
 1871000     0.962037   -7.2341256    616.81751   0.02747272  0.027607985            1 
 1872000   0.94612955   -7.2481748    615.80959  0.027413176  0.027600215            3 
 1873000    0.9420418   -7.2733202    615.94392  0.027404517  0.027592396            2 
 1874000    0.9681036   -7.2737782    616.09452   0.02739659  0.027584532            3 
 1875000   0.93522206   -7.2706047    615.09787  0.027337683  0.027576641            2 
 1876000   0.93143857   -7.2549103    616.28623  0.027375899  0.027568737            2 
 1877000   0.94633655   -7.2816103    615.98641  0.027348003  0.027560879            5 
 1878000   0.95444076   -7.2801153    615.51534  0.027312537  0.027553022            5 
 1879000   0.94845261   -7.2378367     617.0394  0.027365593  0.027545136            2 
 1880000   0.94032144   -7.3082708    616.15372  0.027311778  0.027537326            3 
 1881000   0.94371342   -7.2753592    616.28688  0.027303158  0.027529439            2 
 1882000   0.95001087   -7.2705518    617.32219  0.027334493  0.027521649            4 
 1883000   0.96154294   -7.2916651    617.14765  0.027312252  0.027513926            2 
 1884000   0.94937819   -7.2918316    617.04925  0.027293403   0.02750616            5 
 1885000   0.92816204   -7.2439281    617.99795  0.027320864  0.027498401            3 
 1886000   0.94279561   -7.2682319    617.81395  0.027298248  0.027490547            2 
 1887000    0.9483898   -7.2982602    616.24007  0.027214276  0.027482699            3 
 1888000   0.96455499   -7.2704465     618.6181  0.027304824  0.027474847            2 
 1889000   0.94377091   -7.2956379    617.99576  0.027262915  0.027467036            4 
 1890000   0.98355931   -7.3023994     617.5052  0.027226861   0.02745919            2 
 1891000   0.96250333   -7.2854884    618.10716   0.02723899  0.027451335            3 
 1892000   0.94655842   -7.2874478    617.94573  0.027217483  0.027443539            3 
 1893000   0.94885656   -7.2651892     619.1916   0.02725795  0.027435727            4 
 1894000   0.92920287   -7.2577153    620.11342  0.027284118   0.02742788            2 
 1895000    0.9465814    -7.307293    618.86072  0.027214631  0.027420002            2 
 1896000   0.93148641   -7.2855971    619.01743  0.027207165  0.027412121            2 
 1897000   0.94571869   -7.2985209    617.04323  0.027106099  0.027404189            3 
 1898000   0.93576682   -7.2794363    619.03851  0.027179422  0.027396221            2 
 1899000   0.95307684   -7.2589285    620.25648  0.027218557  0.027388338            2 
 1900000   0.95634986   -7.3058512    618.70206  0.027136055   0.02738047            2 
 1901000   0.94626226   -7.2572075    619.81806  0.027170702   0.02737258            6 
 1902000   0.94215168   -7.2708673    619.80988  0.027156059  0.027364665            2 
 1903000   0.94401224   -7.3243284    619.74042  0.027138747  0.027356732            2 
 1904000    0.9476159   -7.3145838    618.03613  0.027049901  0.027348765            1 
 1905000   0.94201412   -7.2886614    618.73517   0.02706628  0.027340821            3 
 1906000    0.9480956   -7.3163676    618.73437  0.027052045  0.027332865            2 
 1907000   0.94610181   -7.2921108     620.2646  0.027104728  0.027324979            1 
 1908000   0.96579903   -7.2833308    619.12338  0.027040679  0.027317022            2 
 1909000   0.94951495   -7.2771429    620.57603  0.027089926  0.027309114            1 
 1910000   0.93638376   -7.2688206    620.47067  0.027071146  0.027301202            2 
 1911000   0.95734333   -7.2792409    620.64832  0.027064727  0.027293259            2 
 1912000   0.96398565   -7.2592778     622.2777  0.027121587  0.027285502            3 
 1913000   0.95313601   -7.2854476    621.42917  0.027070447  0.027277682            2 
 1914000   0.94644614   -7.2744454    622.29615   0.02709405  0.027269857            2 
 1915000   0.93788553   -7.3167824    621.20352  0.027032355  0.027261981            3 
 1916000   0.93801862   -7.3054778    621.36719  0.027025365  0.027254055            2 
 1917000   0.97393459   -7.3109169    621.69581  0.027025553  0.027246206            2 
 1918000   0.95098297    -7.277047    623.07209  0.027071259  0.027238383            4 
 1919000   0.92453087   -7.2625639    622.95911  0.027052246  0.027230529            2 
 1920000   0.94988824   -7.3265765    621.91889  0.026993007  0.027222573            1 
 1921000   0.95499482   -7.3232357    620.99736   0.02693898   0.02721449            2 
 1922000   0.93620707   -7.2871049    620.92256   0.02692172  0.027206527            8 
 1923000   0.94150073   -7.3000578    623.55477  0.027021788   0.02719853            2 
 1924000   0.94788224   -7.2989208    625.56645  0.027094874   0.02719069            4 
 1925000   0.95635043   -7.2943526    623.26268  0.026981069  0.027182836            2 
 1926000   0.95012566   -7.3050534    621.78713  0.026903216  0.027174909            1 
 1927000   0.94063541   -7.3058501    621.62593  0.026882284   0.02716688            2 
 1928000   0.96086824   -7.3167882    622.80672  0.026919377  0.027158946            3 
 1929000   0.93296706   -7.3226315    622.39328  0.026887562  0.027150994            5 
 1930000   0.94605695   -7.3359422    623.32467  0.026913846  0.027143001            3 
 1931000   0.93376959   -7.3056386    623.94112  0.026926511  0.027135003            2 
 1932000   0.92791252   -7.2844942    625.53033  0.026981122  0.027127131            4 
 1933000     0.937445   -7.3276152    623.65994  0.026886529  0.027119214            3 
 1934000   0.93725938   -7.3177237    623.59824  0.026869969  0.027111279            4 
 1935000   0.95214942   -7.2752269     623.8825  0.026868325  0.027103352            3 
 1936000   0.94480105   -7.2936426     624.1791  0.026867213  0.027095344            4 
 1937000   0.95141939   -7.3086771    623.39955  0.026819805  0.027087356            2 
 1938000   0.92362642   -7.3048932     623.3866  0.026805409   0.02707934            2 
 1939000   0.93082348   -7.2866537    624.16543  0.026825057  0.027071264            4 
 1940000   0.94161515   -7.3257485    625.18242  0.026854915  0.027063309            2 
 1941000   0.94236038   -7.2834199    624.30817  0.026803545  0.027055356            2 
 1942000   0.94102839   -7.2842269    625.29843  0.026832236  0.027047484            3 
 1943000   0.95661207   -7.2752617     626.1234  0.026853808  0.027039558            2 
 1944000   0.95391337   -7.3309254    626.65556  0.026862807  0.027031647            4 
 1945000   0.93305815   -7.2884604    624.63675    0.0267625  0.027023742            1 
 1946000   0.93642232   -7.3056222    627.68949  0.026879475   0.02701586            5 
 1947000   0.92762147   -7.3113839    625.80705  0.026785099  0.027007998            1 
 1948000   0.94539953   -7.2811061    626.33164   0.02679379  0.027000038            2 
 1949000   0.92338173   -7.2835085    627.77624  0.026841809  0.026992201            2 
 1950000   0.93641036   -7.2872213    627.13635  0.026800699  0.026984349            4 
 1951000   0.94288668   -7.3368265     626.0239  0.026739446  0.026976469            2 
 1952000   0.92348284   -7.3012172    627.18788  0.026775439  0.026968557            2 
 1953000   0.93390553   -7.3122663    627.37579  0.026769747  0.026960647            3 
 1954000    0.9491693   -7.3124527    626.63436  0.026724427    0.0269527            3 
 1955000   0.95101045   -7.3055096    626.57413   0.02670819  0.026944731            3 
 1956000   0.94426643   -7.2935694    626.98792  0.026712164  0.026936826            3 
 1957000   0.93505538   -7.3075287     627.7204  0.026729706  0.026929005            3 
 1958000   0.93091008    -7.288151     626.8914  0.026680771  0.026921294            3 
 1959000   0.94466438   -7.3178838    627.71141  0.026702034  0.026913516            3 
 1960000   0.95079602   -7.2697167    628.65244   0.02672842  0.026905722            3 
 1961000   0.91906889   -7.2936357    628.88831  0.026724813  0.026897962            2 
 1962000   0.94893777    -7.313863    628.73175  0.026704542  0.026890126            2 
 1963000   0.91862976   -7.3140783    629.31143  0.026715547  0.026882255            2 
 1964000   0.93162505    -7.364858    628.55594  0.026669889  0.026874407            5 
 1965000   0.92879907   -7.3260793    630.22512  0.026727104  0.026866571            2 
 1966000   0.94645306   -7.3306322    630.10766  0.026708531  0.026858753            6 
 1967000   0.93889154   -7.2940549    631.75568  0.026764772  0.026851062            2 
 1968000   0.95389009   -7.3038198    630.96044  0.026717498  0.026843251            2 
 1969000   0.94861266   -7.2968502    630.48292  0.026683719  0.026835522            3 
 1970000   0.95196583   -7.2991625    631.91154  0.026730607  0.026827799            3 
 1971000   0.91307106   -7.2547407    632.07038   0.02672376  0.026820123            5 
 1972000   0.93209266   -7.3100526    631.63397  0.026691767  0.026812417            3 
 1973000   0.94488088    -7.329628    631.38531  0.026667736  0.026804713            3 
 1974000   0.92100983   -7.3046126    632.99748  0.026722285  0.026797016           10 
 1975000   0.93304185   -7.3141771    631.66807  0.026652661  0.026789358            2 
 1976000   0.92455217   -7.3208644    631.09482  0.026614997   0.02678162            2 
 1977000   0.95256532   -7.3151949    632.89144  0.026677265  0.026773867            4 
 1978000   0.94047908   -7.3203702    632.09621  0.026630275  0.026766112            3 
 1979000   0.93653863   -7.2804302    632.68039  0.026641418  0.026758349            4 
 1980000   0.93666968   -7.3399149    630.32394  0.026528785   0.02675064            5 
 1981000      0.92166    -7.293987    631.99288    0.0265856  0.026742828            4 
 1982000   0.93721355   -7.2677962     632.8648  0.026608846  0.026735079            3 
 1983000   0.93829668   -7.3099721    633.64125  0.026628057  0.026727317            1 
 1984000   0.93898183    -7.347146    630.00185  0.026461771  0.026719408            2 
 1985000   0.95207494    -7.324967    630.40234  0.026465254  0.026711447            4 
 1986000   0.94621011   -7.3095821    632.05935  0.026521456  0.026703409            5 
 1987000   0.93104691   -7.3271403     629.0993  0.026383967  0.026695434            3 
 1988000   0.94786118   -7.3057924    631.31206   0.02646345  0.026687581            3 
 1989000   0.95535726   -7.2969001     631.3985  0.026453766  0.026679704            3 
 1990000   0.94012579   -7.3166315    630.80597   0.02641566  0.026671757            2 
 1991000   0.92905856   -7.2931486    631.71931  0.026440621  0.026663805            4 
 1992000   0.93585199   -7.3226778    632.11286  0.026443811  0.026655835            2 
 1993000   0.92611742   -7.3501334    630.72601  0.026372554  0.026647847            2 
 1994000   0.91053132   -7.3327122    632.67199  0.026440655  0.026639837            1 
 1995000   0.91668339    -7.340358    631.78188   0.02639022  0.026631847            2 
 1996000   0.90667106   -7.3040873    631.54499  0.026367109  0.026623831            3 
 1997000   0.92024717   -7.3320396    631.88521  0.026368103  0.026615812            1 
 1998000   0.92378104   -7.3363347    632.95293  0.026399438  0.026607785            2 
 1999000   0.93886422   -7.3040181    632.45451  0.026365454  0.026599839            3 
 2000000   0.93248055   -7.2986661    631.89265   0.02632886  0.026591767            2 
 2001000   0.91727177   -7.3129685    633.11893  0.026366772  0.026583737            3 
 2002000   0.93741768   -7.3572294     632.0313  0.026308329  0.026575619            2 
 2003000    0.9128437    -7.333821    632.88719  0.026330803  0.026567564            3 
 2004000   0.93202575   -7.3198452     633.2737  0.026333737  0.026559537            3 
 2005000    0.9388175   -7.3229632     632.4719  0.026287278  0.026551451            3 
 2006000   0.92834069   -7.3319262    633.46847  0.026315573  0.026543397            3 
 2007000   0.92886906   -7.3283019    632.55071  0.026264354  0.026535309            2 
 2008000   0.92121905    -7.309794    633.63742  0.026296374  0.026527271            2 
 2009000   0.91614605   -7.3295647    631.82077   0.02620793  0.026519197            2 
 2010000   0.93049811     -7.36002    631.70478  0.026190082  0.026511046            2 
 2011000   0.94540286   -7.3208497    633.04143  0.026232448   0.02650286            6 
 2012000   0.93091042   -7.3511259    631.99246  0.026175963  0.026494699            3 
 2013000   0.92659817    -7.315946    632.95863  0.026202957  0.026486525            4 
 2014000   0.93342317   -7.2859091    635.26814  0.026285507  0.026478448            2 
 2015000   0.93053975   -7.3232418    634.28147  0.026231657  0.026470399            3 
 2016000    0.9203734   -7.2950385    634.54318  0.026229463  0.026462413            2 
 2017000   0.91238062   -7.3260948    633.00964    0.0261531  0.026454357            5 
 2018000   0.91503925   -7.3189284    633.79768  0.026172682  0.026446366            3 
 2019000   0.93461361   -7.3363161     636.2149  0.026259489  0.026438421            3 
 2020000   0.89532526   -7.2932663    634.82494  0.026189148  0.026430411            2 
 2021000   0.93131026    -7.332234    634.27693  0.026153593  0.026422438            1 
 2022000    0.9189983   -7.2927458    636.51911  0.026233066  0.026414436            2 
 2023000   0.93674953   -7.3146018    635.66624  0.026184966  0.026406425            1 
 2024000   0.95028885   -7.3413082     632.5188  0.026042441  0.026398308            2 
 2025000   0.94738165   -7.3444771    635.25615  0.026142228  0.026390121            2 
 2026000   0.93158063   -7.3411562    635.99568  0.026159743  0.026381933            3 
 2027000    0.9305001   -7.3477693    633.98313  0.026064098  0.026373743            3 
 2028000   0.91335721   -7.3239156    633.23925  0.026020679  0.026365502            3 
 2029000   0.92539622   -7.3313744    634.52216  0.026060545  0.026357287            4 
 2030000   0.94009526   -7.3764878    633.85153  0.026020178  0.026348955            1 
 2031000   0.92493644   -7.3518379    635.72387   0.02608419   0.02634075            3 
 2032000   0.91533279   -7.3427218    634.74919  0.026031381  0.026332529            1 
 2033000   0.92127274   -7.2978079    635.41571  0.026045897   0.02632434            4 
 2034000   0.92183674    -7.324549    634.39691  0.025991351  0.026316097            3 
 2035000   0.93742142   -7.3215748    635.52316  0.026024699  0.026307847            4 
 2036000   0.93200839   -7.3261886     634.7804  0.025981516  0.026299571            3 
 2037000   0.93506911   -7.3261415    636.80151  0.026051444  0.026291324            6 
 2038000   0.91870334    -7.345296    636.60435    0.0260306  0.026283099            1 
 2039000    0.9149457   -7.3176002    635.44439  0.025970426    0.0262749            1 
 2040000   0.92746008   -7.3465994     637.2123  0.026029914   0.02626679            2 
 2041000    0.9097726   -7.3345074    636.38041  0.025983195  0.026258674            2 
 2042000   0.90736603   -7.3441461    634.98193  0.025913399  0.026250504            3 
 2043000   0.95250348   -7.3365558    634.94905  0.025899374  0.026242273            3 
 2044000   0.93203829    -7.323271    636.54227  0.025951658  0.026234098            3 
 2045000   0.91894279   -7.3283983    636.06879  0.025919673  0.026225901            1 
 2046000   0.90577687   -7.3525769    637.51025  0.025965716   0.02621771            2 
 2047000   0.93063333   -7.3781333    636.12037  0.025896449  0.026209468            4 
 2048000   0.92750902   -7.3288517    638.89655  0.025996767  0.026201292            2 
 2049000   0.94462479   -7.3469534    638.29085  0.025959446  0.026193207            2 
 2050000   0.95273784    -7.323148    637.88191  0.025930159   0.02618514            3 
 2051000   0.91059224   -7.3043486    637.04706  0.025883596  0.026177049            2 
 2052000   0.93970244   -7.3593495    637.82122  0.025902421  0.026168878            4 
 2053000   0.93197882   -7.3592695    638.77289  0.025928434  0.026160752            2 
 2054000   0.91567547   -7.3656578    637.28958  0.025855631  0.026152637            2 
 2055000   0.91380916   -7.3342542    639.75007  0.025942825  0.026144542            4 
 2056000   0.92649061   -7.3130613     639.4076  0.025916326  0.026136577            2 
 2057000   0.93020135   -7.3166047    640.53203   0.02594928    0.0261286            2 
 2058000   0.92536884   -7.3415848    639.67711  0.025902053   0.02612057            3 
 2059000    0.9222789   -7.2811558    640.74083  0.025932525  0.026112536            2 
 2060000   0.93576777   -7.3512952    640.27316  0.025901018  0.026104567            3 
 2061000   0.92936785   -7.2873705    641.61087  0.025942539  0.026096571            4 
 2062000   0.92375435   -7.3779311    638.33202  0.025797447  0.026088519            2 
 2063000   0.91399906   -7.3591838    640.40743  0.025868777  0.026080487            2 
 2064000   0.90246451   -7.3161968    640.70148  0.025868115  0.026072492            4 
 2065000   0.93008089    -7.350954    639.55298  0.025809241  0.026064448            3 
 2066000   0.91488856   -7.3187055     639.9387  0.025812307  0.026056395            3 
 2067000   0.91778184   -7.3474429     640.4226  0.025819328  0.026048449            2 
 2068000   0.91839252   -7.3505042    639.73349  0.025779074  0.026040419            3 
 2069000   0.92041693   -7.3439941     639.6442  0.025763018  0.026032324            5 
 2070000   0.91072061   -7.3240174    640.19515  0.025772752  0.026024243            2 
 2071000   0.90174616    -7.381762    640.52378  0.025773531  0.026016103            2 
 2072000   0.90212317    -7.376563    639.37743  0.025714987  0.026007963            4 
 2073000   0.90850609   -7.3644639    639.84686  0.025721453  0.025999792            4 
 2074000   0.90639262   -7.3901695    639.72767  0.025704262  0.025991681            3 
 2075000   0.93436087   -7.3290754    643.13989  0.025828911  0.025983607            3 
 2076000   0.93548649   -7.3712302    640.01808  0.025691156  0.025975561            2 
 2077000   0.91805982   -7.4155412    639.71109   0.02566647  0.025967454            2 
 2078000   0.92023441   -7.3348441     642.5323  0.025767256  0.025959375            2 
 2079000   0.93628567   -7.4118813    641.21515  0.025702066  0.025951338            1 
 2080000   0.92304428   -7.3674527    641.60956  0.025705511  0.025943296            2 
 2081000   0.93170685   -7.3399052    642.39689  0.025724687  0.025935323            3 
 2082000   0.93037406   -7.3513286    643.37081  0.025751313  0.025927314            4 
 2083000   0.91568693   -7.3442392    642.32173  0.025696981   0.02591924            2 
 2084000   0.90832018   -7.3347021    642.15337  0.025677918  0.025911173            2 
 2085000   0.93649584   -7.3673133    643.04816  0.025701365  0.025903192            2 
 2086000   0.93317699    -7.320959    642.30438  0.025659331  0.025895139            5 
 2087000   0.92010664   -7.3601044    642.86696    0.0256695  0.025887131            2 
 2088000   0.90754303   -7.3316754    643.23444  0.025671873    0.0258791            4 
 2089000    0.9103109   -7.3314477    643.91743  0.025686829  0.025871108            2 
 2090000   0.90083878   -7.3770844    643.26508  0.025648528  0.025863125            3 
 2091000   0.91647709   -7.3362405    643.59071  0.025649239  0.025855111            3 
 2092000   0.90594881   -7.3556271     642.7608   0.02560392  0.025847075            2 
 2093000   0.92321112   -7.3444919    643.33988  0.025614743  0.025839016            3 
 2094000   0.90006761   -7.3500653    643.34955  0.025602895  0.025830975            3 
 2095000   0.93465584   -7.3517881    641.75961  0.025527431  0.025822929            5 
 2096000   0.90054059   -7.3525635    642.94643  0.025562437  0.025814849            2 
 2097000   0.92522417   -7.3602289    643.17156  0.025559194   0.02580685            1 
 2098000   0.90006557   -7.3854133    643.04871  0.025542132  0.025798776            2 
 2099000   0.89033463   -7.3673916    644.99371  0.025607182  0.025790679            2 
 2100000   0.92786718    -7.374708    643.08057   0.02551907  0.025782559            2 
 2101000   0.93533936   -7.3969743    643.00404  0.025503889  0.025774469            3 
 2102000   0.92500957   -7.3286022    643.66499  0.025517959  0.025766442            3 
 2103000   0.90515016    -7.372716    644.05945  0.025521455  0.025758444            2 
 2104000   0.93742362   -7.3588712     644.9825  0.025545885  0.025750424            4 
 2105000   0.92433987   -7.3467932    645.16624  0.025541023    0.0257424            3 
 2106000   0.89993255   -7.3556968     643.8368   0.02547629   0.02573431            1 
 2107000   0.92876086   -7.3296586    644.52222  0.025491308  0.025726318            2 
 2108000   0.90867369    -7.406014    645.68145  0.025525042  0.025718312            2 
 2109000   0.93268501   -7.3328232    646.02631  0.025526565  0.025710305            1 
 2110000    0.9140202   -7.3665199    645.82447  0.025506496  0.025702378            3 
 2111000   0.89036421   -7.3485272     644.6514  0.025448105  0.025694378            4 
 2112000   0.92021416    -7.334296    644.37726  0.025425239  0.025686384            2 
 2113000   0.89559578   -7.3336559    645.06342  0.025440267  0.025678412            1 
 2114000   0.91000552   -7.3608778    646.01857  0.025465885  0.025670408            3 
 2115000    0.8967307   -7.3599913    645.36511  0.025428097  0.025662316            2 
 2116000   0.92345701   -7.3684951    643.81975   0.02535522  0.025654216            3 
 2117000   0.91715392   -7.3626467    644.41965  0.025366857  0.025646062            4 
 2118000   0.90504775   -7.3319841    645.45774  0.025395725  0.025637901            2 
 2119000   0.90988676   -7.3782964    644.64932  0.025351947  0.025629776            2 
 2120000   0.92140523   -7.3816986    644.58985  0.025337651  0.025621609            2 
 2121000   0.92082766   -7.3885721    644.51887  0.025322916  0.025613393            1 
 2122000   0.90539327   -7.3911072    645.45706  0.025347827  0.025605252            2 
 2123000   0.93222258   -7.3851097    645.54666  0.025339404  0.025597089            4 
 2124000   0.90090194   -7.3929833    645.57081  0.025328422  0.025589016            4 
 2125000   0.91418671   -7.3882876    645.92546   0.02533041  0.025580887            3 
 2126000   0.91580519   -7.3846586     645.1683  0.025288817  0.025572739            1 
 2127000   0.92251903   -7.3977118    645.25524  0.025280334  0.025564636            2 
 2128000   0.90010477   -7.3856911    646.16262  0.025303987  0.025556524            2 
 2129000   0.89866446   -7.4022662    646.99048  0.025324506  0.025548474            2 
 2130000   0.91864296   -7.3977486    647.37799  0.025327778  0.025540368            2 
 2131000    0.9082407   -7.3633041    648.87174  0.025374306  0.025532308            3 
 2132000    0.9122998   -7.4057183    646.27339  0.025260842  0.025524202            2 
 2133000   0.90618512   -7.3668535    647.33493  0.025290472  0.025516118            2 
 2134000   0.92057649   -7.3687858    647.57891  0.025288149  0.025508042            2 
 2135000    0.8921508   -7.3808352    646.78316  0.025245244  0.025499991            3 
 2136000   0.92451689   -7.3610664    647.61326  0.025265811  0.025491932            2 
 2137000    0.9030914   -7.3643022    648.05228  0.025271107  0.025483942            4 
 2138000   0.92806229   -7.3594647    647.34103  0.025231565  0.025475939            2 
 2139000   0.89863435   -7.3495501    649.62201  0.025308634  0.025467946            2 
 2140000   0.91679086   -7.3695387    648.63422  0.025258342  0.025459955            3 
 2141000   0.92362072   -7.3717106    646.89574  0.025178878  0.025451902            2 
 2142000   0.91729499   -7.3798668    648.02826  0.025211183  0.025443803            5 
 2143000   0.91149831   -7.3668356    647.02758  0.025160506  0.025435753            2 
 2144000   0.88599225   -7.3933726    649.04487  0.025227179  0.025427711            5 
 2145000   0.90226076   -7.3828012    647.34279  0.025149292  0.025419636            4 
 2146000   0.89753368   -7.3799419    650.74903  0.025269844  0.025411588            3 
 2147000   0.90043262   -7.3701375    649.51273  0.025210089  0.025403584            2 
 2148000   0.89919517   -7.3971283    648.86121  0.025173076  0.025395566            3 
 2149000   0.89473341   -7.4136976    648.21614  0.025136348  0.025387538            5 
 2150000   0.89035915   -7.3291949    650.58776   0.02521658  0.025379521            2 
 2151000    0.9070763   -7.3790867    648.00527  0.025104807  0.025371561            3 
 2152000   0.92365751    -7.370868    650.77081  0.025200233   0.02536358            3 
 2153000   0.90508787   -7.3823876    648.84722  0.025114074  0.025355648            2 
 2154000   0.90686508   -7.3731112    648.94334  0.025106133  0.025347647            2 
 2155000   0.90434583   -7.4017256    650.57127  0.025157435  0.025339655            3 
 2156000   0.90676929   -7.3700481    650.49229  0.025142714  0.025331684            4 
 2157000    0.9087977   -7.3646567    651.33519  0.025163622  0.025323704            3 
 2158000   0.90643856   -7.3759764    649.36278  0.025075795  0.025315734            2 
 2159000   0.91040135   -7.3540454    653.28448   0.02521555  0.025307859            2 
 2160000   0.90403504   -7.3681421    651.40482  0.025131359  0.025299949            1 
 2161000   0.91738683   -7.4187089     649.5008  0.025046306  0.025291976            3 
 2162000    0.9353548   -7.3917399    650.54306  0.025074894  0.025284009            2 
 2163000   0.87387207   -7.3677435    649.64613  0.025028746  0.025276036            3 
 2164000   0.90278387   -7.3636948    652.89726  0.025142378  0.025268144            3 
 2165000   0.89341011   -7.3470843     652.8714  0.025129769   0.02526028            2 
 2166000   0.91180746   -7.3799065    651.25062   0.02505581  0.025252469            2 
 2167000   0.92319286   -7.3571572    653.45217   0.02512891  0.025244606            5 
 2168000   0.90433464    -7.361291    652.20061  0.025069212   0.02523683            2 
 2169000   0.88868731   -7.3736972    652.44927  0.025067207  0.025229001            2 
 2170000   0.89827841   -7.3920506    653.49558  0.025095836  0.025221229            3 
 2171000   0.91210405   -7.3526565    654.37851  0.025118168  0.025213423            2 
 2172000   0.91469598   -7.3705555    653.69228  0.025080275   0.02520565            2 
 2173000   0.90359995   -7.3931323    653.52359  0.025062264  0.025197804            4 
 2174000   0.93094479   -7.3879583    652.27125  0.025002731  0.025189962            3 
 2175000    0.8758314   -7.3719778    654.10672   0.02506156  0.025182107            2 
 2176000   0.91685267   -7.3865999    654.00558   0.02504617  0.025174315            3 
 2177000   0.88561529   -7.4081557    653.57874  0.025018326  0.025166463            2 
 2178000   0.90343187   -7.4001789    653.12958  0.024989653  0.025158613            1 
 2179000   0.90588902    -7.388149    653.47858  0.024991532  0.025150805            5 
 2180000   0.90236663   -7.3913204    654.37517  0.025014341  0.025143045            2 
 2181000   0.88688628   -7.4075682    654.43479   0.02500515  0.025135263            2 
 2182000   0.89404159   -7.4219531     655.4275  0.025031603  0.025127467            2 
 2183000   0.90426642   -7.3972485    656.11656  0.025046441   0.02511971            2 
 2184000   0.91655537   -7.4172428    654.39472  0.024969273  0.025111964            4 
 2185000   0.90779094    -7.377116     656.4114   0.02503476  0.025104197            2 
 2186000   0.91283075    -7.372896    656.19072  0.025014895  0.025096434            5 
 2187000   0.88871293   -7.3962634    656.58119  0.025018335  0.025088646            2 
 2188000   0.90725953   -7.3745908    655.19115  0.024953959  0.025080901            2 
 2189000   0.91218796   -7.3676967    656.50343  0.024992517   0.02507319            1 
 2190000   0.90608324   -7.4034425    657.49647  0.025018892   0.02506552            2 
 2191000   0.90224075   -7.3799321    657.71495  0.025015782  0.025057849            4 
 2192000   0.89386177   -7.3985665    656.00527  0.024939373  0.025050166            3 
 2193000   0.89233328   -7.4136752    656.29355  0.024938955   0.02504247            5 
 2194000    0.8893239   -7.3807296    657.11305  0.024958715  0.025034735            3 
 2195000   0.91557848   -7.4002614    660.06646  0.025059471   0.02502705            3 
 2196000   0.88557414    -7.362812    656.07152   0.02489646  0.025019326            3 
 2197000   0.90370667   -7.4080354    655.61964  0.024867988  0.025011556            2 
 2198000   0.88970135    -7.420022    655.40626  0.024848584  0.025003813            3 
 2199000   0.90925282   -7.4068955    656.94104  0.024895446  0.024996047            4 
 2200000   0.91317005   -7.4130611    656.27076  0.024858741   0.02498835            6 
 2201000   0.87874229   -7.3790431    658.46472  0.024930514  0.024980684            4 
 2202000   0.88176869   -7.4105505    659.06235  0.024941808  0.024973033            7 
 2203000   0.91444191   -7.3856008    659.56194  0.024949385  0.024965393            5 
 2204000   0.88582487   -7.3791654     658.1079  0.024883087  0.024957725            2 
 2205000   0.91796374   -7.3890982     659.6705  0.024930858   0.02495007            2 
 2206000   0.90295306   -7.4048292    657.14352  0.024824098  0.024942441            4 
 2207000    0.9059511   -7.3928965    658.41436  0.024860835   0.02493482            2 
 2208000   0.88572022   -7.3967647    656.82911  0.024789746  0.024927149            1 
 2209000   0.90758817   -7.4168045     658.5255  0.024842519  0.024919492            4 
 2210000   0.89370485   -7.3793563     660.3074  0.024898469  0.024911812            2 
 2211000   0.89832039   -7.3989537    659.02251   0.02483878  0.024904164            2 
 2212000    0.9102986   -7.3850826    659.27458  0.024837047  0.024896554            3 
 2213000    0.8938008   -7.3684041    661.11115  0.024894982     0.024889            2 
 2214000   0.91168937   -7.4040309    659.53073  0.024824252  0.024881437            2 
 2215000   0.88746481   -7.3176843    661.15909  0.024874308  0.024873937            4 
 2216000   0.92034784   -7.4041826    661.64325   0.02488129  0.024866455            1 
 2217000   0.90220734   -7.4233116    660.08084  0.024811338  0.024858942            3 
 2218000   0.90690731   -7.3676344     662.4053  0.024887485  0.024851403            2 
 2219000   0.88444544   -7.3724363    661.13209  0.024828454  0.024843804            4 
 2220000   0.90903499   -7.3843066     659.5265  0.024757001  0.024836272            4 
 2221000   0.91513616   -7.3653396     662.6117  0.024861613  0.024828727            2 
 2222000   0.88595055   -7.3968081     659.2456  0.024724182  0.024821087            2 
 2223000   0.89998661   -7.4161003    660.16929  0.024747687  0.024813437            2 
 2224000   0.90684574   -7.3854985    659.10084  0.024696524  0.024805766            3 
 2225000   0.87957683   -7.3928272    660.75074  0.024747219  0.024798117            1 
 2226000   0.91067299   -7.4120782    660.22995  0.024716605  0.024790505            1 
 2227000   0.90513115   -7.3911837    659.53221  0.024679397  0.024782919            3 
 2228000   0.88851667   -7.4125959    659.41145  0.024663804  0.024775298            6 
 2229000   0.88161433   -7.4134212    660.63238  0.024698384  0.024767585            3 
 2230000   0.90100929   -7.4479938     659.2684  0.024636338  0.024759872            2 
 2231000   0.89488011   -7.3985538    661.41272  0.024705391  0.024752212            6 
 2232000   0.90367346   -7.4269639    659.85996  0.024636349  0.024744587            2 
 2233000   0.90728751   -7.3789022    662.17232  0.024711611  0.024736967            4 
 2234000   0.88699952   -7.4024051    661.47857  0.024674671  0.024729376            1 
 2235000    0.8885444   -7.3836508    661.70863  0.024672208  0.024721765            3 
 2236000   0.88873372   -7.4265775    660.93965  0.024632515  0.024714146            2 
 2237000   0.87683467   -7.4126187    660.85137  0.024618215  0.024706539            2 
 2238000   0.88113881   -7.3988964    663.50588  0.024706057  0.024698954            3 
 2239000   0.89154006   -7.4016362    662.56742  0.024660094  0.024691375            2 
 2240000   0.89535368   -7.4071001     663.7626  0.024693549  0.024683879            3 
 2241000   0.89480138   -7.4109045    661.96272    0.0246156  0.024676306            2 
 2242000   0.88685546   -7.3812668    664.00853  0.024680662  0.024668732            4 
 2243000   0.87677049   -7.4522731    662.86478  0.024627165  0.024661156            3 
 2244000    0.8878837    -7.408917    662.02194  0.024584891  0.024653622            3 
 2245000   0.88706117   -7.4363454    662.14726  0.024578592  0.024646079            3 
 2246000   0.88292251   -7.4462699     661.5346  0.024544917  0.024638543            3 
 2247000   0.89662125   -7.4135223    664.17201  0.024631806  0.024630982            2 
 2248000   0.88937427   -7.4205292    662.48489  0.024558307  0.024623477            3 
 2249000    0.8874793   -7.4228887     663.0531  0.024568442  0.024615927            4 
 2250000   0.88836282   -7.4173465    662.22929  0.024527011  0.024608437            2 
 2251000   0.88527123   -7.4378159    663.36495  0.024558157  0.024600886            2 
 2252000   0.87686645   -7.4256112     664.4421  0.024587111  0.024593415            5 
 2253000   0.89387742   -7.3712787    665.75599  0.024624796  0.024586066            2 
 2254000   0.87989327   -7.3970094    665.59662  0.024607979  0.024578659            5 
 2255000   0.92242076   -7.3945287    665.75313   0.02460285  0.024571274            2 
 2256000   0.87925385   -7.4291442     665.8227  0.024594515  0.024563875            2 
 2257000   0.88640492    -7.390942    667.02084  0.024627856  0.024556506            1 
 2258000     0.892948   -7.4018132    667.26748  0.024626051  0.024549172            4 
 2259000   0.88106741   -7.4072238    667.38833  0.024619608  0.024541795            3 
 2260000   0.89746029   -7.4197158    666.13309   0.02456243  0.024534373            3 
 2261000   0.88029362   -7.4362352    664.15146  0.024478529  0.024526927            3 
 2262000   0.89053058   -7.4488538     665.6112  0.024521485  0.024519445            4 
 2263000   0.89857807   -7.4047566    666.64399  0.024548681  0.024511964            2 
 2264000   0.90166473   -7.4582888    663.51804  0.024422778  0.024504475            2 
 2265000   0.88679796   -7.4204943    664.23893  0.024438518  0.024497018            5 
 2266000   0.90141286   -7.4265235     666.6717    0.0245172  0.024489609            2 
 2267000   0.87742327   -7.4096432    667.47812  0.024536029  0.024482238            3 
 2268000   0.87178935    -7.411875    666.82912  0.024501364  0.024474851            2 
 2269000   0.89023953   -7.4167084    667.27022  0.024506766  0.024467417            3 
 2270000   0.90347477   -7.4435929     666.4644  0.024466388  0.024460015            3 
 2271000   0.87313827   -7.4404645    664.33972   0.02437765  0.024452526            4 
 2272000   0.89742942   -7.4128645    666.53002  0.024447257  0.024445084            4 
 2273000    0.8981343   -7.4174121    666.49765  0.024435315  0.024437661            2 
 2274000   0.87989748   -7.4585033    667.08276  0.024446011  0.024430233            5 
 2275000   0.88576724   -7.4431472    667.65932  0.024456385  0.024422773            2 
 2276000   0.89980202   -7.4138961    668.10377  0.024461913  0.024415275            4 
 2277000   0.87263459   -7.4197042    667.73155  0.024437547  0.024407899            4 
 2278000   0.86765672   -7.4147062     667.3014  0.024411084  0.024400519            4 
 2279000   0.89346304   -7.4068851    669.94483  0.024497032  0.024393126            3 
 2280000   0.89192732    -7.387765    668.27395  0.024425217  0.024385773            5 
 2281000   0.87195542     -7.44716    665.16549  0.024300946  0.024378319            3 
 2282000   0.87423051   -7.4245509    668.77518  0.024422115  0.024370942            2 
 2283000   0.90871169   -7.4343455    670.17944  0.024462675   0.02436359            4 
 2284000   0.88726635   -7.4245725    668.60347  0.024394464  0.024356222            6 
 2285000    0.8859943    -7.421351    668.76745  0.024389768  0.024348843            3 
 2286000   0.90239355   -7.4100155    668.32383  0.024362928  0.024341474            4 
 2287000   0.88129933   -7.4214358    668.02301  0.024341313   0.02433403            2 
 2288000   0.89629136   -7.3830592    669.57877  0.024387339  0.024326653            2 
 2289000   0.86847195   -7.4263118    669.11925  0.024359955   0.02431928            3 
 2290000   0.88817878   -7.4156854    669.30893   0.02435622  0.024311924            4 
 2291000   0.87027528   -7.4130656    669.69369  0.024359584  0.024304584            9 
 2292000   0.87530906    -7.434781    670.05886  0.024362233  0.024297188            2 
 2293000   0.88281291   -7.4349324    667.71636  0.024266476  0.024289823            6 
 2294000   0.89695799   -7.4019071     669.0754  0.024305267  0.024282415            2 
 2295000   0.88186566   -7.3971644    670.56073  0.024348611  0.024274965            2 
 2296000    0.8806075   -7.4547172    668.14157  0.024250202  0.024267514            2 
 2297000   0.88013106   -7.4560711    669.34478  0.024283296  0.024260067            2 
 2298000   0.88874506   -7.4126847    670.05367  0.024298436  0.024252621            2 
 2299000   0.88663624    -7.402871    669.37888  0.024263407  0.024245158            6 
 2300000    0.8773262   -7.4396899    669.12442  0.024243638  0.024237734            3 
 2301000   0.88417805   -7.4114896    668.70564  0.024217936  0.024230313            4 
 2302000   0.87717956   -7.4084313     669.5201  0.024236899  0.024222927            4 
 2303000   0.88247571   -7.4408311    667.89358   0.02416752  0.024215444            3 
 2304000   0.88149975   -7.4383279    671.17333  0.024275656  0.024207982            4 
 2305000   0.88051269   -7.4663543    669.63387  0.024209467    0.0242005            6 
 2306000   0.88638855   -7.4373402    669.08479  0.024179127  0.024193073            6 
 2307000   0.88997635    -7.430346    668.60876  0.024151451  0.024185605            3 
 2308000   0.87090598   -7.4395866    669.31248  0.024166395  0.024178137            4 
 2309000   0.88047423   -7.4409317    670.14066  0.024185819  0.024170605            4 
 2310000   0.89734513   -7.4112827    668.57143  0.024118739  0.024163134            5 
 2311000   0.87939046    -7.436182     668.8127  0.024117002  0.024155693            2 
 2312000   0.86484774   -7.4325666     672.8721  0.024252887  0.024148262            3 
 2313000   0.85812697   -7.4364819    669.89546  0.024135159  0.024140797            5 
 2314000   0.89142987   -7.4051044    673.13859  0.024241522  0.024133362            1 
 2315000   0.89877296   -7.4340522    669.10971  0.024086023  0.024125922            1 
 2316000   0.89508936   -7.4151147    671.89814  0.024175955  0.024118509            4 
 2317000    0.8549693   -7.4526311    671.83539  0.024163264  0.024111105            4 
 2318000   0.85878754   -7.4524312    670.72499   0.02411292  0.024103693            3 
 2319000   0.87599361   -7.4431066    670.07822  0.024079281  0.024096214            3 
 2320000   0.88502341   -7.4364136    670.11063  0.024070066  0.024088759            3 
 2321000   0.86177832   -7.4524757     672.4125  0.024142342  0.024081309            1 
 2322000   0.87541013   -7.4114424    671.76587  0.024108738  0.024073909            4 
 2323000   0.86279507   -7.4593701     671.3605  0.024083817  0.024066527            2 
 2324000   0.86488825    -7.416245    672.05197  0.024098249  0.024059072            3 
 2325000   0.89028129   -7.4556771    671.04261  0.024051706  0.024051655            3 
 2326000   0.88040279   -7.4439041    669.88096  0.023999748  0.024044232            2 
 2327000   0.87413916   -7.4563832    672.62541  0.024087717  0.024036882            4 
 2328000   0.86702753   -7.4558781    671.69172  0.024043948  0.024029462            3 
 2329000   0.86382592   -7.4494832    670.85183  0.024003572  0.024022035            3 
 2330000   0.88761983   -7.4910513    672.68257  0.024058747  0.024014684            3 
 2331000   0.88465224   -7.4413252    673.59208  0.024080941  0.024007308            2 
 2332000   0.85592537   -7.4470548    672.02183  0.024014502  0.023999948            1 
 2333000   0.89456116   -7.4855928     672.9658  0.024037927  0.023992601            4 
 2334000   0.87853808    -7.445827    675.06329  0.024102517  0.023985254            1 
 2335000   0.89114839   -7.4296124    674.40507  0.024068703  0.023977977            2 
 2336000     0.874776   -7.4612713    673.07569  0.024010976  0.023970648            3 
 2337000   0.89152883   -7.4430425    674.48777  0.024051055  0.023963333            3 
 2338000   0.88901429   -7.4432351    674.22751  0.024031491  0.023956026            2 
 2339000   0.87440189   -7.4434298    672.96103  0.023976095  0.023948731            2 
 2340000   0.87387663   -7.4351263    674.05431  0.024004783  0.023941421            3 
 2341000   0.89146694   -7.4461988    674.18459  0.023999167  0.023934109            2 
 2342000   0.88071768   -7.4613948    675.32973  0.024029666  0.023926794            4 
 2343000   0.88545271   -7.4482418    674.61491  0.023993986  0.023919514            3 
 2344000   0.87203146   -7.4552158    674.84095  0.023991786  0.023912236            4 
 2345000   0.85833451   -7.4744492    675.60017  0.024008535   0.02390495            4 
 2346000   0.84460345   -7.4461595    674.18072   0.02394788  0.023897641            5 
 2347000   0.89045491   -7.4619048    671.95805  0.023858758  0.023890278            4 
 2348000   0.89089814   -7.4276783    674.66073  0.023944518  0.023882959            2 
 2349000   0.87831026   -7.4504806     673.8798   0.02390662  0.023875593            2 
 2350000    0.8754265    -7.443059    674.50364  0.023918569  0.023868274            1 
 2351000   0.86031917   -7.4434489    674.22196   0.02389841  0.023860952            2 
 2352000    0.8673465   -7.4316897    674.28787  0.023890585  0.023853623            1 
 2353000   0.87186704   -7.4663944    675.34161  0.023917751  0.023846271            2 
 2354000   0.88093169   -7.4458982    676.16199  0.023936632   0.02383894            3 
 2355000   0.88477107   -7.4530582    674.23832  0.023858398  0.023831635            3 
 2356000   0.88371218   -7.4623819    674.13952  0.023844776  0.023824369            2 
 2357000   0.87862903   -7.4663696    674.45237  0.023845721  0.023817072            3 
 2358000   0.86871386   -7.4604353     676.0375  0.023891628  0.023809795            3 
 2359000   0.85560346   -7.4510257    675.81909  0.023873785  0.023802492            5 
 2360000    0.8501578    -7.473972    675.29721  0.023845241   0.02379515            3 
 2361000   0.87070085   -7.4553681    675.03859  0.023826013  0.023787824            7 
 2362000   0.88663887   -7.4308324    675.59472  0.023835546  0.023780491            2 
 2363000   0.87825312   -7.4260055    676.10371  0.023843409  0.023773175            5 
 2364000     0.861167   -7.4320218    675.09229   0.02379767  0.023765884            3 
 2365000   0.91144535   -7.4399496    675.01427  0.023784858  0.023758608            3 
 2366000   0.86456702   -7.4641997    675.24729  0.023783012  0.023751307            3 
 2367000   0.86668812   -7.4711171     676.3632  0.023812252  0.023743962            1 
 2368000   0.87501437    -7.448814    675.75303  0.023780723  0.023736616            6 
 2369000   0.87295246   -7.4705872    675.78666  0.023771868  0.023729239            4 
 2370000   0.87206516   -7.4497897    676.18945     0.023776  0.023721859            2 
 2371000   0.86215015   -7.4717088    675.93361   0.02375698  0.023714487            3 
 2372000   0.86549339   -7.4664656    675.65227  0.023737081   0.02370711            1 
 2373000   0.87762915   -7.4415225    677.22465  0.023782296   0.02369979            5 
 2374000    0.8708882   -7.4544906    675.31806  0.023705352  0.023692439            2 
 2375000   0.85908491   -7.4183791    677.83242  0.023783594  0.023685149            4 
 2376000   0.87661339    -7.453513    676.18162  0.023715685  0.023677879            4 
 2377000   0.86875502    -7.455761    676.57744  0.023719585  0.023670538            2 
 2378000   0.87594907   -7.4533356    676.67196  0.023712923  0.023663222            4 
 2379000   0.87643606   -7.4440183    677.05613  0.023716412  0.023655907            3 
 2380000   0.87059839    -7.480426    675.57871  0.023654717  0.023648597            2 
 2381000   0.87468461   -7.4702429    676.58254  0.023679915  0.023641276            3 
 2382000   0.87447284   -7.4757753    676.64949  0.023672316  0.023633956            2 
 2383000   0.87978316   -7.4689642    677.89281  0.023705861  0.023626661            1 
 2384000   0.87034689   -7.4685036     678.0824  0.023702545  0.023619411            2 
 2385000    0.8593711   -7.4662134     677.3358   0.02366652   0.02361216            4 
 2386000   0.86399439   -7.4677383     677.6398  0.023667218  0.023604846            3 
 2387000   0.86173756   -7.4699098    678.59993  0.023690823  0.023597486            4 
 2388000   0.86693982   -7.4727904    676.53286  0.023608768  0.023590202            2 
 2389000   0.85976734   -7.4703268    679.00492  0.023685116  0.023582866            2 
 2390000   0.87354574   -7.4743005    677.36147  0.023617903  0.023575595            2 
 2391000   0.85336031   -7.4660366    678.68586  0.023654184  0.023568397            2 
 2392000   0.87476606   -7.4172617    680.40658  0.023704243  0.023561235            4 
 2393000   0.87599664   -7.4879498    678.42289  0.023625257  0.023554048            2 
 2394000   0.84537119   -7.4594164    681.43378  0.023720196  0.023546878            4 
 2395000   0.88229305   -7.4403674    679.32221   0.02363682  0.023539689            2 
 2396000   0.87691391   -7.4835364    679.43187  0.023630769  0.023532483            3 
 2397000   0.86048951   -7.4685205    679.82149  0.023634456   0.02352528            2 
 2398000    0.8736997   -7.4737403    678.06689  0.023563626  0.023518123            1 
 2399000   0.86765373   -7.4682553    680.99338   0.02365546  0.023510982            6 
 2400000   0.86648914   -7.4457318     680.3443  0.023623066  0.023503858            2 
 2401000   0.84575298   -7.4809483    680.49314  0.023618393  0.023496745            1 
 2402000   0.86659002   -7.4911174    681.91135  0.023657762  0.023489597            2 
 2403000   0.88073913   -7.4917271    681.54916  0.023635357   0.02348243            2 
 2404000   0.85566686   -7.4654797    679.43237  0.023552148  0.023475299            1 
 2405000   0.86631643   -7.4731798    679.60655   0.02354839  0.023468155            4 
 2406000   0.85132278    -7.457116    679.47694  0.023534114  0.023461023            4 
 2407000   0.87894756   -7.4553364    682.57822  0.023631707  0.023453889            3 
 2408000   0.87369095   -7.4638461    682.71397  0.023626591  0.023446768            5 
 2409000   0.85246316   -7.4419471    682.92185  0.023623974  0.023439693            4 
 2410000   0.86747326   -7.4791325    682.09913  0.023585724  0.023432571            6 
 2411000   0.86381319   -7.4444949     682.1762  0.023578605  0.023425456            5 
 2412000   0.86649472   -7.5044663    679.84918  0.023488432  0.023418328            3 
 2413000   0.86820342   -7.4681354    682.45397  0.023568655   0.02341119            2 
 2414000   0.85088029   -7.4619124    681.29987  0.023519051  0.023404083            2 
 2415000   0.86893093   -7.4740925    681.99105  0.023533163  0.023396996            2 
 2416000   0.87359328   -7.4658771    681.04416  0.023490762  0.023389886            4 
 2417000   0.86869525   -7.4618714    682.80501  0.023541753  0.023382827            2 
 2418000   0.86459182   -7.4685324    683.67886  0.023562133  0.023375767            3 
 2419000   0.85565695   -7.4830472    683.45111  0.023544547   0.02336876            1 
 2420000    0.8649022   -7.4378783    683.92435  0.023551114  0.023361771            2 
 2421000   0.88525627   -7.4820722    685.26786  0.023587631  0.023354776            3 
 2422000    0.8801128   -7.4999614    683.34946  0.023511886  0.023347761            7 
 2423000   0.85596815   -7.4635241    683.41897  0.023504573  0.023340724            3 
 2424000   0.86463107   -7.5094871    683.10806  0.023484188  0.023333622            3 
 2425000   0.83539756   -7.4843705    683.93519  0.023502928  0.023326535            2 
 2426000   0.84186545   -7.4632714    682.52388  0.023444761  0.023319477            2 
 2427000   0.85057959   -7.4958891    682.68617  0.023440673  0.023312407            2 
 2428000   0.86502496   -7.4699429    683.72122  0.023466544  0.023305341            3 
 2429000   0.87640551   -7.4972985     682.8545  0.023427148  0.023298253            5 
 2430000   0.86369734   -7.4711717    684.44865  0.023472176  0.023291224            2 
 2431000   0.87993028   -7.4995771    683.49862  0.023429954  0.023284158            7 
 2432000   0.86237089   -7.4789412    683.46517  0.023419174  0.023277043            5 
 2433000    0.8599627   -7.5107525    682.80236  0.023386846  0.023269927            3 
 2434000   0.85939201    -7.498785    683.91991  0.023415499  0.023262805            3 
 2435000   0.87243533   -7.5098807    683.64197  0.023396371  0.023255678            4 
 2436000   0.86298747   -7.4647665    685.36669  0.023445768  0.023248635            4 
 2437000   0.86914104   -7.4952668    682.43224  0.023335803  0.023241562            3 
 2438000   0.86645792   -7.4705917    683.15526  0.023350945   0.02323451            2 
 2439000    0.8615835   -7.4867056    683.57823  0.023355823  0.023227474            3 
 2440000   0.86169265   -7.4367841    685.03212  0.023395906  0.023220364            4 
 2441000   0.86686234   -7.4826345    685.23182  0.023393139  0.023213347            3 
 2442000   0.85458654   -7.4518032    685.96691  0.023408644  0.023206371            2 
 2443000   0.84339808   -7.4988856    685.70141  0.023390006  0.023199346            4 
 2444000   0.86111177   -7.4785136    684.97169  0.023355554   0.02319232            4 
 2445000   0.84981486   -7.4769022    681.77146  0.023236928  0.023185248            2 
 2446000   0.88025509   -7.4921807    685.40004  0.023351051  0.023178133            2 
 2447000   0.84979329   -7.5013829     684.1987  0.023300596  0.023171022            4 
 2448000   0.85500707   -7.4827725    684.23205  0.023292213  0.023163929            1 
 2449000   0.87543672   -7.5046943    685.47543  0.023325011  0.023156892            4 
 2450000   0.86868341   -7.4886915    685.60676  0.023319958  0.023149875            5 
 2451000   0.85742726   -7.4920002    686.48417  0.023340275  0.023142821            1 
 2452000   0.86123636   -7.4960969    686.34555  0.023326045  0.023135757            4 
 2453000   0.82856235   -7.5144239    685.36197  0.023283122  0.023128673            4 
 2454000   0.86389712   -7.5106634    685.36681  0.023273798  0.023121602            3 
 2455000   0.86198786   -7.5091535    686.82051  0.023313663  0.023114555            4 
 2456000    0.8642177   -7.4911189    687.15692  0.023315585   0.02310751            1 
 2457000   0.85439171   -7.4914202    684.57637  0.023218572  0.023100455            4 
 2458000   0.86454721   -7.4870405    685.69868  0.023247175  0.023093397            2 
 2459000   0.86011964   -7.4792613    685.63414  0.023235534  0.023086363            3 
 2460000   0.86392304   -7.4697962    687.19889  0.023279095  0.023079314            4 
 2461000   0.85196341   -7.5031353    685.35013  0.023207034  0.023072288            2 
 2462000   0.84932728   -7.4777087    686.01802  0.023220215  0.023065242            2 
 2463000   0.86287989   -7.4690494    684.95589  0.023174851  0.023058227            4 
 2464000   0.86217967   -7.5091995    684.78979  0.023159828  0.023051168            8 
 2465000   0.86828419   -7.4926101    685.26031  0.023166339  0.023044087            3 
 2466000   0.86593038   -7.4647455    687.13801  0.023220398  0.023037102            3 
 2467000    0.8710647   -7.5025357    686.38689  0.023185613  0.023030066            3 
 2468000   0.86650839   -7.4989024    687.44522  0.023211954  0.023023049            4 
 2469000   0.85680391   -7.5106631    686.56261  0.023172763  0.023016051            4 
 2470000   0.85017753   -7.4884465    685.91955  0.023141685  0.023009003            4 
 2471000   0.85614348   -7.5160666     686.4034  0.023148638  0.023001988            4 
 2472000   0.87065375   -7.4816909    687.85689  0.023188272  0.022995023            2 
 2473000   0.84490837   -7.4941151    688.98928  0.023217053  0.022988024            2 
 2474000   0.86291209   -7.4718112     688.3857  0.023187338  0.022981064            3 
 2475000   0.86692034   -7.5014869     686.9419  0.023129357  0.022974065            5 
 2476000    0.8520593   -7.5069149    687.13142  0.023126394  0.022967031            2 
 2477000   0.84801352   -7.4873352    688.85758   0.02317513  0.022960001            2 
 2478000   0.84814276    -7.512904     687.6072  0.023123729  0.022953009            5 
 2479000   0.86896315   -7.4882782    687.24357  0.023102177     0.022946            7 
 2480000   0.85403542   -7.5002724    687.43255  0.023099212  0.022938984            3 
 2481000   0.87035221   -7.5118187    688.58123  0.023128484  0.022931974            3 
 2482000   0.87522239   -7.5200418    688.21085   0.02310673  0.022924934            2 
 2483000   0.84214645   -7.4665204    688.83818  0.023118478  0.022917898            3 
 2484000   0.84738984   -7.5233434    686.11941  0.023017962  0.022910885            1 
 2485000   0.87444291   -7.5091481    690.28014  0.023148227  0.022903842            2 
 2486000   0.85321582   -7.5321497    688.52188  0.023079977  0.022896819            4 
 2487000   0.87647367   -7.5050006    688.81306  0.023080454  0.022889791            4 
 2488000   0.85729207    -7.501226    687.69737  0.023033808  0.022882784            2 
 2489000   0.85929328   -7.4922941    690.78825  0.023128038  0.022875771            4 
 2490000   0.84276493    -7.507809    687.63054   0.02301307  0.022868729            8 
 2491000     0.862888   -7.4751278    687.35127  0.022994489  0.022861693            2 
 2492000   0.83247534   -7.4954681    688.77539  0.023032885  0.022854637            2 
 2493000   0.85592824   -7.4960014    688.40964   0.02301142  0.022847603            2 
 2494000   0.84018289   -7.4968935    688.80367  0.023015359  0.022840558            4 
 2495000   0.86645837   -7.4730617    689.85148  0.023041132  0.022833556            2 
 2496000   0.85198842   -7.4872638    688.16235  0.022975506  0.022826554            4 
 2497000   0.86111895   -7.4883076    690.38859  0.023040602   0.02281955            3 
 2498000   0.86620671   -7.5546063    688.00179  0.022951754  0.022812548            3 
 2499000   0.85414886   -7.5299809    687.27992  0.022918498  0.022805484            2 
 2500000   0.83890935      -7.4789    690.46181  0.023015394  0.022798475            2 
 2501000   0.87570416   -7.5094848    688.37854  0.022936777  0.022791468            2 
 2502000   0.85513999    -7.482992     688.1568  0.022920224   0.02278442            2 
 2503000   0.84888081   -7.5000014    690.27076  0.022981448  0.022777375            3 
 2504000   0.86552241   -7.4951777    690.42695  0.022977468  0.022770319            2 
 2505000   0.83042827   -7.5159546    689.65923  0.022942756  0.022763321            2 
 2506000   0.84044559   -7.5076484    688.98042  0.022911028  0.022756327            3 
 2507000   0.85703844   -7.5064231    690.27826  0.022945029  0.022749321            2 
 2508000   0.84213625   -7.4674529    690.45518  0.022941759  0.022742322            2 
 2509000   0.86313673   -7.5274292    690.89354  0.022947175  0.022735328            3 
 2510000   0.83734251   -7.4948994    689.12194  0.022879215  0.022728353            4 
 2511000   0.86393661   -7.5103044    690.24522  0.022907382  0.022721311            1 
 2512000   0.86543042   -7.5265704    688.95271  0.022855385  0.022714275            2 
 2513000   0.85806609   -7.4921258     690.3824  0.022893699    0.0227073            5 
 2514000   0.85837989   -7.4982517     690.4738  0.022887623  0.022700397            2 
 2515000   0.84186966    -7.509864    691.60885  0.022916132  0.022693509            1 
 2516000   0.84178802    -7.523335    690.10315  0.022857152  0.022686563            2 
 2517000   0.85572414   -7.5069565    690.80951  0.022871458  0.022679653            3 
 2518000   0.83457345   -7.5168424    691.74655  0.022893386  0.022672729            2 
 2519000   0.85910475   -7.5052079    691.84556  0.022887573  0.022665754            2 
 2520000   0.84569906   -7.5183296    690.50483  0.022834154  0.022658797            2 
 2521000   0.86447304   -7.4845707    691.29903   0.02285135  0.022651833            3 
 2522000   0.84340249   -7.5065896    691.92776  0.022863064  0.022644865            3 
 2523000    0.8408063   -7.4973416    691.19974  0.022829956  0.022637946            4 
 2524000   0.85737323   -7.4704768    691.52264  0.022831572   0.02263104            4 
 2525000   0.84632236   -7.5111907    691.77206  0.022830761  0.022624136            3 
 2526000   0.82714611   -7.4797052    691.94644  0.022827476  0.022617199            7 
 2527000   0.83795715   -7.5088145    692.14166   0.02282488  0.022610276            6 
 2528000   0.85172279   -7.5249486    690.89018  0.022774597  0.022603334            3 
 2529000     0.848183   -7.5040056    692.62527  0.022822765  0.022596391            2 
 2530000     0.855161   -7.4942525    693.30103  0.022836002  0.022589501            4 
 2531000   0.82133688   -7.5244338    692.74856   0.02280879  0.022582618            3 
 2532000   0.85256836   -7.5132257    691.73975   0.02276658  0.022575675            2 
 2533000   0.85654636   -7.5272086    692.74068  0.022790521  0.022568714            3 
 2534000   0.83229404   -7.5517626    692.00219  0.022757241  0.022561777            3 
 2535000   0.82798366   -7.5066015    693.23505  0.022788792  0.022554799            3 
 2536000   0.85317271   -7.5361044     691.6004  0.022726091  0.022547848            3 
 2537000    0.8444592   -7.5454555    692.48984  0.022746349  0.022540912            2 
 2538000   0.83218541   -7.5681334    691.37659  0.022700834  0.022533914            4 
 2539000   0.83958894   -7.4989838     692.6681  0.022734282  0.022526931            1 
 2540000   0.83491648   -7.5261642    693.27446  0.022745225  0.022519996            3 
 2541000    0.8550076   -7.5355218    692.05446  0.022696263  0.022513045            4 
 2542000   0.84503173   -7.5130331    693.73302  0.022742362  0.022506087            3 
 2543000   0.83930127   -7.5212487    693.95999  0.022740857  0.022499151            6 
 2544000   0.82639281   -7.5561167     691.3862  0.022647609  0.022492171            3 
 2545000   0.83365898   -7.5317924    691.90958  0.022655847  0.022485166            3 
 2546000   0.83770811   -7.5377253    692.41762  0.022663577  0.022478178            2 
 2547000   0.85692746   -7.4932032    693.70573  0.022696824  0.022471265            3 
 2548000   0.84491763   -7.5107057    694.33546  0.022708512  0.022464354            5 
 2549000   0.83588825   -7.5285487    693.86956  0.022684372  0.022457481            3 
 2550000   0.86932664   -7.5332375    693.31184   0.02265725  0.022450606            2 
 2551000   0.84460438   -7.5231823    692.83675  0.022632848  0.022443715            2 
 2552000   0.85467768   -7.5152221    694.16609  0.022667388  0.022436833            3 
 2553000   0.84761015   -7.5443679    694.26959  0.022661888  0.022429923            6 
 2554000   0.84204479   -7.5652984    693.86168  0.022639705  0.022422993            6 
 2555000   0.84564593   -7.5156345    695.15069  0.022672886  0.022416056            5 
 2556000   0.84992686   -7.5067361    694.17591  0.022632235  0.022409209            2 
 2557000   0.85806902   -7.5475127    693.48496  0.022600865  0.022402335            4 
 2558000   0.84147636   -7.5514926    695.34285  0.022652556  0.022395405            3 
 2559000   0.83483469   -7.5483741    693.99856  0.022599927  0.022388488            4 
 2560000   0.85338605   -7.5493996    694.13321  0.022595482  0.022381572            6 
 2561000   0.85030843   -7.5337085    692.96783  0.022548738  0.022374648            3 
 2562000   0.84881355   -7.5278869    694.46281  0.022588564  0.022367786            3 
 2563000   0.84490922   -7.5267248    694.60697  0.022584438   0.02236096            3 
 2564000   0.84172165   -7.4752861    697.01814  0.022653996  0.022354166            3 
 2565000    0.8427457    -7.491859    697.39512  0.022657411  0.022347402            4 
 2566000   0.85919392   -7.5086081    695.68717  0.022593114  0.022340594            3 
 2567000    0.8297717   -7.5299108    696.48914  0.022610347  0.022333806            2 
 2568000   0.85241943   -7.4981379    696.99041  0.022617809  0.022326986            2 
 2569000   0.81583594   -7.5371071    696.68488  0.022599094  0.022320178            2 
 2570000   0.85482234   -7.5535282    696.28908  0.022577467  0.022313429            2 
 2571000   0.83753459   -7.5149535    698.09646  0.022627268  0.022306647            2 
 2572000   0.84055509   -7.5291483     698.4966  0.022631435  0.022299902            3 
 2573000   0.86022171   -7.5374728     697.5972   0.02259351  0.022293112            4 
 2574000   0.83224082    -7.495784    696.01304  0.022533445  0.022286385            3 
 2575000   0.83143851   -7.5252483    696.35083  0.022535625  0.022279592            4 
 2576000   0.84087676   -7.5036042    697.75394  0.022572268  0.022272787            5 
 2577000   0.83910797   -7.5128969    698.13196  0.022575733  0.022266014            3 
 2578000    0.8481398   -7.5309358    697.90527  0.022559648  0.022259261            4 
 2579000   0.82479885   -7.5642255    696.37268  0.022501379  0.022252477            4 
 2580000   0.83650935   -7.4947452    697.53599  0.022530232  0.022245702            3 
 2581000   0.84180277   -7.5333262    696.75045   0.02249614   0.02223893            2 
 2582000   0.85001864   -7.5288194    697.24165  0.022503281  0.022232153            5 
 2583000   0.83923914   -7.5167206    697.68449  0.022508856  0.022225405            3 
 2584000   0.84161228   -7.5365652    696.38034  0.022458086  0.022218652            5 
 2585000   0.84614903   -7.4940443    698.90652  0.022530836  0.022211913            3 
 2586000   0.85204349   -7.5302114    698.05242    0.0224946  0.022205186            3 
 2587000   0.84560955    -7.549655    698.21916  0.022491276  0.022198486            2 
 2588000   0.83053796   -7.5329519    698.79474  0.022501118  0.022191791            2 
 2589000   0.82654915   -7.5472969    698.50371   0.02248306  0.022185064            4 
 2590000    0.8389077   -7.5506618    698.56961    0.0224765  0.022178349            2 
 2591000   0.83789467   -7.5484103    697.87906  0.022445615  0.022171657            3 
 2592000   0.83561686   -7.5177921    701.11536  0.022541003  0.022164964            3 
 2593000   0.83743897   -7.5182097    698.74618   0.02245617  0.022158339            4 
 2594000   0.85633274   -7.5391654    699.77588  0.022480592  0.022151743            5 
 2595000   0.83349697   -7.5506695    698.86204  0.022442583  0.022145067            4 
 2596000   0.82890241   -7.5097977    700.84057   0.02249745  0.022138443            4 
 2597000   0.82084943   -7.5141177    698.79523  0.022423156   0.02213183            2 
 2598000    0.8396834    -7.557274     697.5197  0.022373611  0.022125156            2 
 2599000    0.8188174   -7.5398001    698.14922  0.022385187   0.02211841            2 
 2600000   0.82349352   -7.5351402    701.80074  0.022493614  0.022111694            4 
 2601000   0.83870841   -7.5246331    699.70928  0.022417957  0.022104999            3 
 2602000   0.83612915    -7.559366    699.99211    0.0224184  0.022098329            2 
 2603000   0.83975277    -7.571875    698.96128  0.022376786  0.022091668            8 
 2604000   0.83382576   -7.5428855    700.21863   0.02240843  0.022085005            1 
 2605000   0.83857799   -7.5562874    698.03207  0.022329881  0.022078347            2 
 2606000   0.82269419   -7.4950883    700.97464  0.022415408  0.022071704            2 
 2607000   0.84190341    -7.536821    698.24145  0.022319443  0.022065087            3 
 2608000   0.83122556   -7.5129933    700.99224  0.022398781  0.022058499            2 
 2609000   0.83015072   -7.5612813    700.40507  0.022371441  0.022051857            3 
 2610000   0.81833451   -7.5443952    702.00313  0.022413893  0.022045206            2 
 2611000   0.84006534   -7.5424591    700.38694  0.022353726  0.022038582            3 
 2612000   0.82886712   -7.5622635    700.34026  0.022343678  0.022031965            3 
 2613000   0.82253368   -7.5474481      701.631  0.022376291  0.022025353            3 
 2614000   0.83326861   -7.5588535    701.93125  0.022377303  0.022018745            3 
 2615000   0.83899164   -7.5831908      700.687  0.022329095  0.022012121            2 
 2616000   0.84301582   -7.5465288    702.13705  0.022366751  0.022005487            4 
 2617000   0.84798225   -7.5270711    700.93204  0.022319833  0.021998829            4 
 2618000   0.83528766    -7.556976    699.92003  0.022279095  0.021992238            4 
 2619000   0.83860524   -7.5597022    701.18051  0.022310694  0.021985602            3 
 2620000    0.8234587   -7.5630561    700.52133  0.022281213  0.021978994            2 
 2621000   0.84119207   -7.5623058    701.29265  0.022297235  0.021972383            3 
 2622000   0.83448546   -7.5218726    703.85495  0.022370168  0.021965779            6 
 2623000   0.83304114   -7.5747514     700.6422  0.022259569  0.021959146            2 
 2624000   0.83122398   -7.5580666    701.40356  0.022275265  0.021952467            2 
 2625000   0.82508161   -7.5612721    702.75752  0.022309763  0.021945808            3 
 2626000   0.83010375    -7.555478    701.66678  0.022266653  0.021939203            2 
 2627000   0.84651729   -7.5333149    702.80713  0.022294351  0.021932624            4 
 2628000   0.82779347   -7.5373448    701.91902  0.022257706  0.021925995            2 
 2629000   0.84026961   -7.5596486    701.30305  0.022229715  0.021919369            3 
 2630000    0.8165955   -7.5295054    701.51621  0.022228017  0.021912726            2 
 2631000    0.8392218   -7.5641326    702.12584  0.022238878   0.02190611            2 
 2632000   0.81412973   -7.5574532    702.81335  0.022252196  0.021899501            2 
 2633000   0.83112552   -7.5665729     701.4372   0.02220019  0.021892861            3 
 2634000     0.832004   -7.5563232    700.84973  0.022173175  0.021886235            4 
 2635000   0.82632422   -7.5669058    702.73887  0.022224506   0.02187959            3 
 2636000    0.8087945   -7.5729116    701.74262   0.02218458  0.021872928            3 
 2637000   0.84056186   -7.5371408     701.6881  0.022174444  0.021866269            2 
 2638000   0.82510282   -7.5191157    702.01651  0.022176412  0.021859602            3 
 2639000   0.83614057   -7.5438596    701.53525  0.022152812   0.02185297            3 
 2640000   0.83575892   -7.5376688    702.45803  0.022173549  0.021846316            3 
 2641000    0.8317645    -7.544593    702.83647  0.022177094  0.021839628            3 
 2642000   0.82696764   -7.5490127    702.68145  0.022163811  0.021832965            7 
 2643000   0.84442352   -7.5274406    703.51917  0.022181838  0.021826338            4 
 2644000   0.83737574   -7.5283534    704.39509  0.022201055  0.021819754            2 
 2645000    0.8492604   -7.5646081    703.17919  0.022154354  0.021813162            2 
 2646000   0.84502542   -7.5587146    702.09503  0.022111836  0.021806533            5 
 2647000    0.8630725   -7.5482649     700.8769  0.022065133  0.021799878            1 
 2648000   0.81472292   -7.5711866    703.72322  0.022146375  0.021793243            2 
 2649000   0.82866081   -7.5427879    702.32047  0.022093887  0.021786599            3 
 2650000   0.83579629   -7.5391714     703.8455  0.022133506  0.021779971            4 
 2651000   0.82988263   -7.5430516    704.07871  0.022132488  0.021773366            3 
 2652000   0.83280747   -7.5830318    702.70294  0.022080912  0.021766781            3 
 2653000   0.82065278    -7.552009    703.84078   0.02210833  0.021760201            4 
 2654000   0.82669208   -7.5296224    705.17854  0.022142004  0.021753629            2 
 2655000   0.83059815   -7.5183297    706.82887  0.022185464  0.021747117            2 
 2656000   0.82205437   -7.5818683    704.20145  0.022094674  0.021740585            3 
 2657000   0.81995843   -7.5631433    705.67051  0.022132433  0.021734035            5 
 2658000   0.81373859   -7.5533029     705.6298  0.022122831  0.021727445            2 
 2659000   0.82552007   -7.5703507    702.75035  0.022024268  0.021720885            5 
 2660000    0.8354486   -7.5501992    705.81547  0.022112014  0.021714325            3 
 2661000   0.81564491   -7.5648003    703.11644  0.022019179   0.02170776            3 
 2662000   0.81612696   -7.5443359    705.10502   0.02207316  0.021701193            3 
 2663000   0.81661387   -7.5619337    704.56926  0.022048106  0.021694613            2 
 2664000   0.82094261   -7.5605077    705.28913  0.022062348  0.021688071            3 
 2665000   0.81162445   -7.5360597    706.19254  0.022082318  0.021681561            4 
 2666000   0.81581443   -7.5664256    705.24114  0.022044297  0.021675031            4 
 2667000   0.80942749    -7.534264    706.03438  0.022060817  0.021668538            3 
 2668000   0.81490713   -7.5190581    705.45369   0.02203441  0.021662047            2 
 2669000   0.83586795   -7.5920332    704.63356  0.022000548  0.021655533            3 
 2670000   0.82457018   -7.5622119    706.59256  0.022053451  0.021648979            4 
 2671000   0.82003106   -7.5523929    705.07391  0.021997813  0.021642463            6 
 2672000   0.83034451   -7.5779226    704.80342  0.021981145   0.02163598            3 
 2673000   0.84409279   -7.5822439    706.21221  0.022016842  0.021629451            7 
 2674000   0.80575628   -7.5761737     706.1586  0.022006937  0.021622905            5 
 2675000   0.80130196   -7.5725517    705.47337  0.021977363  0.021616401            2 
 2676000   0.83638481   -7.5654372    705.45533  0.021968589  0.021609924            1 
 2677000   0.81226428   -7.5799925    704.82851   0.02194087  0.021603471            5 
 2678000   0.81617515   -7.5710762    706.75373  0.021992586  0.021597027            3 
 2679000   0.83026444   -7.5829085    706.21693  0.021967679  0.021590584            6 
 2680000   0.81924252   -7.5852053     705.9019  0.021949686  0.021584133            3 
 2681000   0.83504309   -7.5640741    709.10073  0.022040928  0.021577699            3 
 2682000    0.8220299   -7.5940351    706.84325  0.021962567  0.021571234            7 
 2683000   0.83962142   -7.5831469    706.55462  0.021945416  0.021564807            5 
 2684000   0.82605703   -7.5756809    706.27284  0.021928491  0.021558357            3 
 2685000   0.83423986   -7.5621491    707.41521  0.021955779   0.02155192            3 
 2686000    0.8185541   -7.6025122      706.719  0.021926005  0.021545459            5 
 2687000    0.8399687   -7.5590775    707.60752  0.021945401  0.021538977            2 
 2688000   0.82895413   -7.5700492    709.40196  0.021992868  0.021532551            5 
 2689000   0.81120591   -7.5413579    710.30809  0.022012771  0.021526182            5 
 2690000   0.82402615    -7.572421    708.63351  0.021952711  0.021519811            7 
 2691000   0.82397149   -7.5847494    707.93512  0.021922926  0.021513404            2 
 2692000   0.84101037    -7.576971    707.40265  0.021898299  0.021506985            2 
 2693000   0.82254727   -7.5923749    707.85945  0.021904303   0.02150057            2 
 2694000   0.83288148   -7.5498753    707.47378  0.021884242  0.021494165            3 
 2695000   0.80311212   -7.5977396    707.33645  0.021871875  0.021487765            3 
 2696000   0.82859336   -7.5927595    708.65245   0.02190444  0.021481351            1 
 2697000   0.82056884    -7.574377    708.40295  0.021888609   0.02147491            2 
 2698000   0.81896001   -7.5966409    708.86919  0.021894897  0.021468482            6 
 2699000   0.82124656   -7.5760097    709.28372  0.021899584  0.021462066            2 
 2700000   0.83994611   -7.5618879    708.93967  0.021880854  0.021455651            7 
 2701000   0.80981366   -7.5456567    709.94666  0.021903821  0.021449282            3 
 2702000   0.80937443   -7.5873938     708.6735  0.021856449  0.021442885            2 
 2703000   0.82390409   -7.5766669    707.16392  0.021801823  0.021436444            2 
 2704000   0.81496281   -7.5601744    708.82657     0.021845  0.021430053            4 
 2705000   0.81573387    -7.599697    706.19292  0.021755789  0.021423608            3 
 2706000    0.8253919   -7.5673469    709.53147  0.021850563  0.021417194            5 
 2707000   0.80660509   -7.6037866    709.31013  0.021835677  0.021410787            3 
 2708000   0.80316527   -7.5696869    708.36186  0.021798432   0.02140437            4 
 2709000   0.83400972    -7.581727    709.08438  0.021812612  0.021397999            6 
 2710000   0.81764297   -7.5919307    708.57805  0.021788993  0.021391581            3 
 2711000   0.82785039   -7.5720054    709.45963  0.021808054  0.021385145            2 
 2712000   0.82693258   -7.5900037    709.81569  0.021810954  0.021378758            3 
 2713000   0.82904597   -7.5604224    709.42018  0.021790766  0.021372372            5 
 2714000   0.81270807   -7.5546955    712.58275  0.021879844  0.021366011            3 
 2715000   0.82984258   -7.5570712    711.21581  0.021829828  0.021359651            3 
 2716000    0.8109673   -7.6025257    709.22306  0.021760649  0.021353239            2 
 2717000   0.82013105    -7.560926    710.34378  0.021787013  0.021346839            4 
 2718000   0.81521237   -7.5933041    709.27703  0.021746291  0.021340446            3 
 2719000   0.82401373   -7.5867376    710.17947  0.021765952  0.021334039            2 
 2720000   0.80225678   -7.5690088    710.57743  0.021770142  0.021327625            3 
 2721000   0.82358292   -7.6040348    709.24553   0.02172135  0.021321197            3 
 2722000   0.80936317   -7.5866276    709.37897  0.021717456  0.021314785            6 
 2723000   0.80916731   -7.5657514    709.78058  0.021721771  0.021308419            2 
 2724000   0.81028706   -7.5753817    711.21016  0.021757531  0.021302036            2 
 2725000   0.82810573   -7.5990085    710.67421  0.021733156  0.021295701            2 
 2726000   0.83917686   -7.6038199    709.57357  0.021691537   0.02128932            4 
 2727000   0.80432739   -7.5799315    711.50312  0.021742547  0.021282936            3 
 2728000   0.81485708   -7.5691074     711.7368  0.021741716  0.021276546            4 
 2729000     0.827804   -7.5701278    711.44007  0.021724688  0.021270183            9 
 2730000    0.8005638    -7.590506    709.17593  0.021647617  0.021263781            3 
 2731000   0.83665512   -7.6009298    711.42663  0.021708368  0.021257381            3 
 2732000   0.82122908   -7.5949762    712.02336  0.021718624  0.021250997            3 
 2733000   0.81026382   -7.5912607    709.71956  0.021640431  0.021244601            2 
 2734000   0.81499564   -7.6096785    710.89263  0.021668271  0.021238228            3 
 2735000   0.80010285   -7.6011145    709.97604  0.021632421  0.021231813            4 
 2736000   0.81017141   -7.6158949    709.36831  0.021606004  0.021225408            7 
 2737000   0.79776836   -7.6247098    709.97613  0.021616616  0.021218963            2 
 2738000   0.81554834   -7.6168683    708.42238  0.021561431  0.021212548            1 
 2739000   0.81301593   -7.6132371     709.2194  0.021577808  0.021206102            2 
 2740000   0.81138465   -7.6100745    709.79202  0.021587349   0.02119966            2 
 2741000   0.84302085   -7.5848362    709.52075  0.021571226  0.021193265            3 
 2742000   0.81275174   -7.6119863    709.32998  0.021557561   0.02118686            3 
 2743000    0.8029515   -7.5949293    709.50864  0.021555129  0.021180453            3 
 2744000   0.81840997   -7.5756519    711.37798  0.021604045  0.021174063            5 
 2745000   0.80226564    -7.625833     712.2967  0.021624065  0.021167673            3 
 2746000    0.8293033   -7.6001165    711.95181  0.021605724   0.02116128            3 
 2747000     0.812436   -7.6097956    711.11851  0.021572579  0.021154873            3 
 2748000   0.80825588   -7.5911796     709.2199  0.021507154  0.021148449            2 
 2749000   0.81985008   -7.5906751    711.16007  0.021558145  0.021142066            2 
 2750000   0.81936043   -7.6135533    712.61693  0.021594452  0.021135673            5 
 2751000   0.81555794   -7.5948644    709.97289   0.02150651  0.021129255            2 
 2752000   0.81412951   -7.5729124     712.0196  0.021560671  0.021122859            3 
 2753000   0.82208019   -7.6054122    709.78053  0.021485063  0.021116466            1 
 2754000   0.80731183   -7.6119256    710.60994  0.021502358  0.021110081            5 
 2755000   0.81047279   -7.5394796    712.27143   0.02154481  0.021103709            3 
 2756000   0.80953542   -7.6144757    710.01707  0.021468828  0.021097343            2 
 2757000   0.80785659   -7.5679622    711.90514   0.02151811  0.021090963            3 
 2758000   0.84632609   -7.5661549    711.30225  0.021492091  0.021084574            5 
 2759000    0.7941375   -7.5602439    712.12165  0.021509051   0.02107817            7 
 2760000    0.7942495   -7.5930473    710.25622  0.021444934    0.0210718            4 
 2761000   0.81964082   -7.6025142    710.16361  0.021434372  0.021065383            3 
 2762000   0.80607244   -7.6041421    712.64269  0.021501409  0.021058977            2 
 2763000   0.80566776   -7.5904021    712.69036  0.021495064  0.021052588            3 
 2764000   0.79457127     -7.60626    712.84785  0.021492036  0.021046198            3 
 2765000   0.81983294   -7.6171606    711.85596  0.021454369  0.021039755            2 
 2766000   0.80314496    -7.594047    712.49445  0.021465849   0.02103336            4 
 2767000   0.80966047   -7.5899832    712.00239  0.021443272  0.021026954            5 
 2768000   0.78456473   -7.6053298    711.12997   0.02140926  0.021020569            3 
 2769000   0.79568209   -7.6231417    711.05383  0.021399236  0.021014094            3 
 2770000   0.79885648   -7.6199098     711.2744  0.021398147  0.021007607            3 
 2771000   0.80564848   -7.6010995    711.26313  0.021390086  0.021001151            4 
 2772000    0.8187112   -7.5759251    710.69351  0.021365245  0.020994718            2 
 2773000   0.81304608   -7.6170695    710.23892  0.021343879  0.020988299            2 
 2774000   0.80985223   -7.5904474    710.76292  0.021351926   0.02098188            3 
 2775000   0.84013641    -7.603155    711.59427  0.021369197  0.020975485            6 
 2776000   0.80862503   -7.5741024     714.1475  0.021438145  0.020969108            8 
 2777000   0.81152225   -7.6183561    712.15068  0.021370504  0.020962727            3 
 2778000    0.8078665   -7.6154755    711.80763  0.021352521  0.020956315            3 
 2779000    0.7883894   -7.6049581    712.01384  0.021351021  0.020949883            2 
 2780000   0.79483295   -7.5874515    714.35463  0.021413508  0.020943468            2 
 2781000   0.81026412   -7.6205614    711.45981  0.021319064  0.020937054            4 
 2782000    0.8141627   -7.5778603    712.99638  0.021357428  0.020930636            3 
 2783000   0.79583792     -7.60202    713.33921   0.02136002  0.020924238            2 
 2784000   0.80566616   -7.5833352    713.90718  0.021369348  0.020917827            6 
 2785000   0.81860717   -7.5789413    712.61959  0.021323148   0.02091143            2 
 2786000   0.80733093   -7.6048105    713.11104  0.021330194  0.020905008            3 
 2787000   0.81726327   -7.6209809    712.88979  0.021315925  0.020898602            3 
 2788000   0.80959482   -7.5863625    711.83358  0.021276709  0.020892208            5 
 2789000    0.7958459   -7.5783826    712.54054  0.021290204  0.020885808            2 
 2790000   0.81495207   -7.6279167    713.22148  0.021302912  0.020879375            2 
 2791000    0.7981069   -7.6321534    712.16347  0.021263689  0.020872957            2 
 2792000     0.777443   -7.6234686    712.02717  0.021252005  0.020866541            3 
 2793000   0.80347152   -7.5902461    714.48229  0.021317648  0.020860132            6 
 2794000   0.79493816   -7.5704746     714.9793  0.021324842  0.020853776            3 
 2795000   0.80658641   -7.5810977    713.94647  0.021286418  0.020847385            2 
 2796000   0.81024837   -7.6086308    713.06688  0.021252589  0.020840953            3 
 2797000   0.79974762   -7.6333459    711.97132   0.02121235   0.02083453            4 
 2798000   0.80079451   -7.6092093    713.03656  0.021236495  0.020828051            2 
 2799000   0.79996858   -7.6176361    711.89163  0.021194821  0.020821613            5 
 2800000   0.80721017   -7.6059921    711.78886  0.021184192  0.020815141            8 
 2801000   0.79457349   -7.5795973     711.8812  0.021179376  0.020808675            2 
 2802000   0.80539785   -7.6116188    712.76733  0.021198172  0.020802229            2 
 2803000   0.81030783   -7.5887786    714.07454  0.021229473  0.020795833            3 
 2804000   0.80848052   -7.6081647    712.31019  0.021169466  0.020789412            4 
 2805000   0.79818014   -7.6050358     711.8224  0.021147427  0.020782977            2 
 2806000   0.81898653   -7.6062252    712.40446  0.021157177  0.020776541            2 
 2807000   0.79726589   -7.6136717     712.9518  0.021165889  0.020770103            1 
 2808000   0.80002863   -7.6210474    713.45338  0.021173237  0.020763616            2 
 2809000     0.808741   -7.5974113    713.52567  0.021167844   0.02075718            3 
 2810000    0.7868143   -7.6058195    715.02189  0.021204682  0.020750725            1 
 2811000   0.79103898   -7.6049348    713.70347  0.021158054  0.020744309            8 
 2812000   0.80992671   -7.5949498    714.50531  0.021174292  0.020737939            3 
 2813000    0.8166997    -7.618679    715.45083  0.021194775  0.020731537            4 
 2814000   0.78893252   -7.6373632    712.23475  0.021092003  0.020725136            6 
 2815000   0.80469198   -7.6042432    713.37118  0.021118152  0.020718756            3 
 2816000   0.79091381   -7.5999242    713.99313  0.021129058  0.020712423            3 
 2817000   0.79918552   -7.6161816    712.29236  0.021071245  0.020706051            4 
 2818000   0.80103997   -7.6238981     715.4931  0.021158419  0.020699667            4 
 2819000   0.82144154   -7.5974109    713.89665   0.02110372  0.020693297            1 
 2820000   0.77566955   -7.6385954    714.21854  0.021105749  0.020686876            6 
 2821000   0.80574123   -7.6492348    713.14222  0.021066472  0.020680435            3 
 2822000    0.8031064    -7.643768    713.64179   0.02107376  0.020674022            1 
 2823000    0.7948234   -7.6246536    714.60804  0.021094818  0.020667654            3 
 2824000   0.78393784   -7.5986717    715.25563  0.021106457  0.020661292            3 
 2825000   0.78817945   -7.6203456    712.90002  0.021029499  0.020654906            3 
 2826000   0.80056211   -7.6295902    712.96315  0.021023919  0.020648486            3 
 2827000   0.78938191   -7.6249474    714.72786  0.021068502  0.020642074            7 
 2828000   0.79471242   -7.6361493    714.48437  0.021053877  0.020635691            3 
 2829000   0.80611339   -7.6163635    712.65253  0.020992475  0.020629264            2 
 2830000   0.79846378   -7.6579109    711.90933  0.020963172  0.020622813            4 
 2831000   0.77840778   -7.6018447    712.72033   0.02097964  0.020616357            3 
 2832000   0.81150751   -7.6620759    713.10312  0.020983496  0.020609903            3 
 2833000   0.81681944   -7.6412612     711.4664  0.020927945   0.02060347            2 
 2834000   0.80727028   -7.6103438    714.26704  0.021002912  0.020597035            3 
 2835000   0.80559231   -7.6395008    714.29699  0.020996384  0.020590644            3 
 2836000   0.81144792   -7.6173608    714.39195  0.020991771  0.020584216            6 
 2837000   0.79107978   -7.6002415     715.0838  0.021004694  0.020577793            7 
 2838000   0.81935578   -7.6304073     713.6617  0.020955535  0.020571417            4 
 2839000   0.79590491   -7.5997481    714.35402  0.020968475  0.020565024            4 
 2840000   0.80213544    -7.633658    713.49221  0.020935804  0.020558601            4 
 2841000    0.8026085    -7.609646    714.75796  0.020965563  0.020552187            6 
 2842000   0.80357502   -7.6385649    714.50675   0.02095082  0.020545791            3 
 2843000   0.80490141   -7.6181537    714.81955  0.020952619  0.020539398            4 
 2844000   0.80230683   -7.6311867    714.34177  0.020931252  0.020533016            3 
 2845000   0.78626881   -7.6642697    714.20666  0.020919937  0.020526589            6 
 2846000     0.793299   -7.6458149    715.17098  0.020940823  0.020520166            3 
 2847000   0.78941616   -7.6532173    715.06504  0.020930366  0.020513764            2 
 2848000   0.78859152   -7.6341536    716.09722  0.020953219  0.020507387            3 
 2849000   0.76754144   -7.6442364     714.6613  0.020903864  0.020501013            3 
 2850000   0.79736039   -7.6494086     714.6894  0.020897351  0.020494582            3 
 2851000   0.77655835   -7.6546609    713.77065  0.020863166  0.020488134            3 
 2852000    0.8027798   -7.6027365    714.07723  0.020864809  0.020481723            3 
 2853000   0.79808296   -7.6341366    715.28312  0.020892719  0.020475362            2 
 2854000   0.78612516   -7.5961806    714.51265  0.020862901  0.020468986            5 
 2855000   0.81282492   -7.6317498    717.29126  0.020936698  0.020462592           10 
 2856000   0.78427609   -7.6295184    714.42348   0.02084569  0.020456215            5 
 2857000   0.78060296   -7.6426673     714.6382  0.020844656  0.020449806            2 
 2858000   0.79137865   -7.6316066    715.25067  0.020855221  0.020443359            2 
 2859000   0.78199959   -7.6376138     714.7966  0.020834692   0.02043692            3 
 2860000   0.80164474   -7.6062393    715.46427  0.020846861  0.020430513            4 
 2861000   0.78330247   -7.6225325    714.49725  0.020811408  0.020424097            5 
 2862000   0.80004255   -7.6291599    714.82483  0.020813674  0.020417673            4 
 2863000   0.79111519   -7.6313849    715.69535  0.020831743  0.020411293            2 
 2864000   0.79665578   -7.6737828    715.49821  0.020818733  0.020404868            3 
 2865000   0.78622106   -7.6451126    714.72703  0.020789035  0.020398406            3 
 2866000   0.78145473   -7.6688936    715.61278  0.020807536  0.020391925            3 
 2867000   0.77705336   -7.6544307    713.48481  0.020738426  0.020385449            4 
 2868000   0.79763339   -7.6311518    713.66613  0.020736464  0.020379011            3 
 2869000   0.79711534   -7.6248436    714.33343  0.020748618  0.020372573            4 
 2870000   0.80181875   -7.6098196    714.01841  0.020732242  0.020366169            3 
 2871000   0.79133742   -7.6293437     713.7201  0.020716362  0.020359773            2 
 2872000   0.79173986   -7.6239171    715.13175  0.020750109  0.020353366            2 
 2873000   0.79655756   -7.6201187    714.04519   0.02071137  0.020346923            2 
 2874000   0.78293156   -7.6670298    715.17317   0.02073687  0.020340454            3 
 2875000   0.79270264   -7.6614376    713.88098  0.020692202  0.020334035            3 
 2876000    0.8036429   -7.6746534    713.58413  0.020676406  0.020327613            6 
 2877000   0.79934893   -7.6362967    712.61579  0.020641171  0.020321138            2 
 2878000   0.78503146   -7.6620996    712.02591  0.020616919  0.020314644            2 
 2879000   0.79468035   -7.6529764    714.34299  0.020676826   0.02030815            4 
 2880000   0.78674408   -7.6635933    715.52759  0.020703923   0.02030172            3 
 2881000   0.79476725   -7.6394611    712.89136  0.020620484  0.020295295            2 
 2882000   0.78661591   -7.6314428    715.50481  0.020688897  0.020288836            5 
 2883000   0.79910529   -7.6426005     714.6701  0.020657593  0.020282382            6 
 2884000   0.79475228    -7.643991     714.1334  0.020634923  0.020275937            2 
 2885000   0.77230389   -7.6398892    715.34677  0.020662818  0.020269476            3 
 2886000   0.79935098   -7.6553663    716.98229  0.020702884  0.020263035            3 
 2887000   0.78429903   -7.6775858    715.54181  0.020654134  0.020256609            3 
 2888000   0.78955699   -7.6825776    714.90017  0.020628468  0.020250176            2 
 2889000   0.80658666   -7.6565654    713.59898  0.020583794  0.020243744            5 
 2890000   0.80405147   -7.6782618    715.03376  0.020618044  0.020237314            4 
 2891000   0.80251401   -7.6975933    715.78745  0.020632637  0.020230873            2 
 2892000   0.79417254   -7.6507482    714.38148   0.02058499  0.020224438            2 
 2893000   0.78897965   -7.6630013    717.90583  0.020679394  0.020218031            3 
 2894000   0.79323318   -7.6584468    717.45768  0.020659344  0.020211663            2 
 2895000   0.77610935   -7.6598134    716.74192  0.020631604  0.020205307            1 
 2896000   0.78474755    -7.635398    716.54315   0.02061876  0.020198939            3 
 2897000   0.79714998   -7.6517145    717.22266  0.020631189  0.020192605            5 
 2898000   0.77816229   -7.6255201    716.11821  0.020592311  0.020186238            2 
 2899000   0.78248091   -7.6621496    715.63422  0.020571295  0.020179837            2 
 2900000    0.7734943   -7.6664506    716.25928  0.020582163   0.02017344            5 
 2901000    0.7971219   -7.6611715     715.4839  0.020552795  0.020167073            3 
 2902000   0.78833943   -7.6663246    715.50707  0.020546378  0.020160703            2 
 2903000   0.77755676   -7.6157925    718.14835  0.020615121  0.020154349            4 
 2904000    0.7967062   -7.6606543    717.44459  0.020587827  0.020148016            4 
 2905000   0.78337963   -7.6525806    718.41697  0.020608634  0.020141676            3 
 2906000   0.76642451   -7.6633483    715.90716   0.02052957  0.020135302            3 
 2907000   0.79830835   -7.6685063    716.68835  0.020544902  0.020128945            3 
 2908000   0.79327753   -7.6244177    718.22308  0.020581817  0.020122622            2 
 2909000   0.77575583   -7.6294877    718.12665  0.020571979  0.020116328            3 
 2910000   0.77441974   -7.6623413    717.36922  0.020543219  0.020110002            4 
 2911000   0.79159551    -7.645129    718.19392  0.020559771  0.020103699            6 
 2912000   0.77845261   -7.6223737    720.16189  0.020609028  0.020097391            2 
 2913000    0.7822035   -7.6694951    718.20744  0.020546042  0.020091072            3 
 2914000   0.80521702   -7.6608884    717.44407  0.020517161  0.020084753            3 
 2915000   0.77678329   -7.6814415    716.91421  0.020494975  0.020078438            4 
 2916000   0.80832103   -7.6454944    718.11038   0.02052213   0.02007212            3 
 2917000   0.78571842   -7.6564118    716.63633  0.020472984  0.020065799            3 
 2918000   0.78795455   -7.6158775    719.38189  0.020544377  0.020059509            3 
 2919000   0.78269884   -7.6613043    718.69231  0.020517652  0.020053235            2 
 2920000   0.77179102   -7.6636128     717.1991  0.020468011  0.020046957            2 
 2921000   0.78201278   -7.6603458    717.57697  0.020471784  0.020040658            4 
 2922000   0.80196455   -7.6782697    717.68846  0.020467958   0.02003433            2 
 2923000   0.78065427   -7.6851462    717.16916   0.02044615  0.020027996            4 
 2924000   0.77750852   -7.6867041     717.2431  0.020441265  0.020021667            4 
 2925000   0.77778742   -7.6482618    717.10442  0.020430325    0.0200153            3 
 2926000   0.77825635   -7.6823662    717.22265   0.02042671  0.020008955            2 
 2927000   0.79645277   -7.6606018    718.90113  0.020467519  0.020002638            3 
 2928000   0.78821051   -7.6465389    718.67291  0.020454033  0.019996333            4 
 2929000   0.78300115   -7.6576193    717.64399  0.020417776  0.019990024            4 
 2930000   0.77979932   -7.6610162    717.80177  0.020415295  0.019983731            2 
 2931000    0.7716353   -7.6616337    716.17109  0.020361967  0.019977435            5 
 2932000      0.78032    -7.638606    719.21204  0.020441452   0.01997116            5 
 2933000     0.777068   -7.6600328    719.52896  0.020443487  0.019964873            6 
 2934000   0.80113429   -7.6656387    718.87187  0.020417856    0.0199586            4 
 2935000   0.79241468   -7.6710407    718.33429  0.020395636  0.019952291            2 
 2936000   0.77766646   -7.6854486    716.65163   0.02034093  0.019945987            3 
 2937000   0.78260318   -7.6478748    718.25751  0.020379569  0.019939678            3 
 2938000    0.7769076   -7.6746464    717.57948    0.0203534  0.019933366            1 
 2939000   0.79293687   -7.6414554    718.05944  0.020360084  0.019927063            3 
 2940000   0.76828412   -7.6691542    717.26409  0.020330615   0.01992073            3 
 2941000   0.77024602    -7.656332    716.99546   0.02031609  0.019914388            3 
 2942000   0.79685992   -7.6701943    717.09532  0.020312013  0.019908071            6 
 2943000   0.77914088   -7.6674986     718.3903   0.02034178  0.019901744            1 
 2944000   0.79265738   -7.6683441    717.98662  0.020323444  0.019895429            6 
 2945000   0.78585921   -7.6389194    718.29306  0.020325214  0.019889163            8 
 2946000   0.77369453   -7.6652202    717.86858  0.020306307  0.019882882            6 
 2947000   0.78552532   -7.6935451    717.80841  0.020297715   0.01987659            3 
 2948000   0.79191809   -7.6740139    720.13903  0.020356712  0.019870284            3 
 2949000   0.77203245   -7.6611548    719.27847  0.020325491  0.019864057            6 
 2950000   0.80114372    -7.661174    720.24523  0.020345911  0.019857819            7 
 2951000   0.77056254   -7.6725282    719.18924  0.020309196  0.019851591            2 
 2952000   0.78497095   -7.6430266    721.42732  0.020365496  0.019845357            3 
 2953000   0.77462321   -7.6790482    718.52535  0.020276706  0.019839124            3 
 2954000    0.7766058   -7.6927471    721.31442  0.020348522    0.0198329            4 
 2955000    0.7767102   -7.6767889    719.13452  0.020280161  0.019826665            2 
 2956000    0.7705493   -7.6979367    719.25994  0.020276836  0.019820422            3 
 2957000   0.77131724   -7.6659524    719.15577  0.020267043  0.019814213            4 
 2958000   0.78755734   -7.6592684    719.54863  0.020271259  0.019808018            2 
 2959000   0.78783513   -7.6705883    719.00826  0.020249191  0.019801825            3 
 2960000   0.76699944   -7.6707885    718.67388  0.020232936  0.019795624            3 
 2961000   0.77740286   -7.6880301    719.14315   0.02023931  0.019789412            3 
 2962000   0.77365709   -7.6627824     721.3939    0.0202958  0.019783203            3 
 2963000   0.76460925   -7.6632809    719.95757  0.020248554  0.019777033            4 
 2964000   0.79221355   -7.6829413    720.09057  0.020245461  0.019770857            5 
 2965000   0.77804558   -7.6694438    721.96114  0.020291207  0.019764685            1 
 2966000   0.78292758   -7.6895843    722.53351  0.020300447  0.019758527            2 
 2967000   0.78039827   -7.6699265    720.50865  0.020236733  0.019752319            3 
 2968000   0.76964439   -7.6467195    720.60231  0.020232545  0.019746168            2 
 2969000   0.78945911   -7.6671235    721.49297  0.020250729  0.019740016            4 
 2970000    0.7519378   -7.6740531    721.87715   0.02025469  0.019733863            2 
 2971000   0.76155489   -7.6691598    721.67346  0.020242159  0.019727743            3 
 2972000   0.77607926    -7.682091    720.88206  0.020213158  0.019721621            1 
 2973000    0.7806164   -7.6856448    722.74132  0.020258474    0.0197155            3 
 2974000   0.77485129   -7.6553979    722.47132  0.020244097  0.019709391            2 
 2975000   0.79194031   -7.6715267    722.33812  0.020233561  0.019703284            6 
 2976000   0.75718703   -7.6757008    721.34478  0.020198947  0.019697147            5 
 2977000   0.77492865   -7.7119438    721.56419  0.020198303  0.019690997            5 
 2978000   0.78447232   -7.6690567    722.26052  0.020211006  0.019684852            2 
 2979000   0.76681475   -7.6820703    722.17685  0.020201881  0.019678728            2 
 2980000   0.76866067   -7.6937895    721.06468  0.020164001  0.019672601            3 
 2981000   0.77489905   -7.6751972    720.88941  0.020152337  0.019666455            2 
 2982000   0.77459353   -7.6713931    722.12299  0.020180052  0.019660306            6 
 2983000   0.76473001   -7.6760202    721.97606  0.020169182  0.019654162            2 
 2984000   0.77483544   -7.6485376    722.87844  0.020187624  0.019648031            4 
 2985000   0.77625022   -7.6692137    722.53939  0.020171395  0.019641906            4 
 2986000   0.78417061    -7.707158    721.10694  0.020124664  0.019635742            6 
 2987000   0.78364044   -7.6967734    720.95503  0.020113688  0.019629576            5 
 2988000     0.774343   -7.6953643    723.00703  0.020164185  0.019623431            6 
 2989000   0.75300245    -7.689637    721.44297  0.020113833  0.019617269            5 
 2990000   0.76612638   -7.6802924    722.19976  0.020128199  0.019611123            4 
 2991000   0.76232621   -7.6836287     723.5622  0.020159428  0.019605024            2 
 2992000    0.7760507   -7.6572709    721.77806  0.020102999  0.019598937            3 
 2993000   0.77051583   -7.7063444    721.48186  0.020088035  0.019592827            6 
 2994000   0.75905457     -7.67455    724.70054  0.020170912  0.019586722            7 
 2995000   0.76527694   -7.6654644    722.18373  0.020094149  0.019580629            3 
 2996000   0.78538164   -7.6553431    723.14949  0.020114305  0.019574529            4 
 2997000   0.77300019   -7.6694299    724.72758  0.020151473  0.019568449            5 
 2998000   0.77614515   -7.6877805    723.89755   0.02012168  0.019562373            3 
 2999000   0.75869912   -7.6832946    722.89983  0.020087247   0.01955628            3 
 3000000   0.77776495   -7.7058477    723.07948  0.020085541  0.019550192            2 
 3001000   0.77013068   -7.6781828    723.86394  0.020100631  0.019544137            3 
 3002000    0.7618148   -7.6803036    723.69855  0.020089344  0.019538065            2 
 3003000    0.7627905   -7.7015906    722.74264  0.020056128  0.019531992            4 
 3004000   0.77468229   -7.6805427    723.16306  0.020061115   0.01952591            6 
 3005000   0.77295729   -7.6662421    723.91261  0.020075225  0.019519822            4 
 3006000    0.7795059   -7.7224015    723.36862  0.020053466  0.019513735            6 
 3007000   0.76416406   -7.6857182    722.84266  0.020032221  0.019507629            2 
 3008000   0.78876169   -7.7159408    724.02236  0.020058244  0.019501542            2 
 3009000   0.75085488   -7.6801063    724.51836  0.020065314  0.019495477            4 
 3010000   0.76231787   -7.7062197     725.0385  0.020073048  0.019489406            2 
 3011000   0.76956766   -7.6854653    724.94968  0.020063923  0.019483357            2 
 3012000   0.78033675   -7.6804053    724.74301  0.020051544  0.019477317            5 
 3013000   0.78039433   -7.6705995    724.68894  0.020043394  0.019471292            3 
 3014000   0.79628556   -7.7078502    724.30563  0.020026145  0.019465277            1 
 3015000   0.76218386   -7.6859662    723.29154  0.019991474  0.019459264            2 
 3016000   0.76783728   -7.6796064    723.39066  0.019987585  0.019453222            4 
 3017000   0.76348523   -7.6937356    724.31959  0.020006618  0.019447197            2 
 3018000   0.77052514    -7.650532    727.31149  0.020082601  0.019441195            5 
 3019000   0.77137313   -7.6806839    726.80396   0.02006194  0.019435233            3 
 3020000   0.76329277   -7.7181949    725.07207  0.020007507  0.019429265            1 
 3021000   0.78430375   -7.6894088     725.1317  0.020002529  0.019423284            1 
 3022000   0.76986987   -7.6656583    725.20117  0.019997826  0.019417315            2 
 3023000   0.76614209   -7.7024332     724.5862  0.019974258  0.019411312            5 
 3024000   0.76588502   -7.6961441    724.39461  0.019962374  0.019405293            3 
 3025000   0.79652344   -7.6838375    725.83636  0.019995492  0.019399301            3 
 3026000   0.77021483   -7.6837773    724.81893  0.019960865  0.019393326            1 
 3027000   0.77443327   -7.7076157     723.1274  0.019907703  0.019387343            3 
 3028000   0.75898476   -7.6990789    723.37061  0.019907822  0.019381294            4 
 3029000    0.7588011   -7.7139328    724.43602  0.019930561   0.01937524            2 
 3030000   0.75317463   -7.6831176    724.97975  0.019938937  0.019369242            2 
 3031000    0.7629039   -7.6928505     724.9816   0.01993241  0.019363233            5 
 3032000   0.77341095   -7.6910664    724.95734  0.019925169  0.019357233            2 
 3033000    0.7541487   -7.7028425    725.33951    0.0199291  0.019351208            3 
 3034000   0.77172161   -7.6844986    725.31936  0.019921978  0.019345209            3 
 3035000   0.77415299   -7.6947143     725.9271  0.019932101  0.019339198            4 
 3036000   0.77242937   -7.6838601    725.54806  0.019915131  0.019333182            4 
 3037000   0.76810893   -7.7190957    723.77208  0.019859842  0.019327164            4 
 3038000    0.7731954   -7.6824202    724.91072  0.019884538  0.019321188            2 
 3039000   0.77406543   -7.7193126    723.21337  0.019831451  0.019315173            3 
 3040000   0.76547208   -7.7290378     725.1482  0.019877966  0.019309171            2 
 3041000   0.75398339   -7.7004771    724.82277  0.019862512  0.019303151            2 
 3042000   0.75671035   -7.7149729    726.96356  0.019914627  0.019297125            3 
 3043000   0.76932654   -7.7055852    724.34984  0.019836506  0.019291118            4 
 3044000   0.76617889   -7.7146052    724.59679   0.01983675  0.019285091            4 
 3045000   0.76629152   -7.7150432    723.94899  0.019812507  0.019279065            5 
 3046000    0.7552861   -7.6842271    727.71119   0.01990893  0.019273045            4 
 3047000   0.75715199   -7.6990319    724.65377  0.019818777  0.019267034            8 
 3048000   0.75855898   -7.7283221    724.35579  0.019804128     0.019261            3 
 3049000   0.76834536   -7.6831421    726.78818  0.019864113  0.019255008            2 
 3050000   0.75987447   -7.7017332    726.16761  0.019840645  0.019248998            3 
 3051000   0.76845319   -7.6933241    725.56743  0.019817749   0.01924299            2 
 3052000   0.75884416    -7.704093     724.0792   0.01977062  0.019236989            6 
 3053000   0.77102922   -7.7035187    725.94341  0.019815029  0.019230976            2 
 3054000   0.76448624   -7.6989254    726.26191  0.019817232  0.019224958            6 
 3055000   0.76887891   -7.7285694    723.53684  0.019736411  0.019218897            4 
 3056000   0.76572946   -7.7124446    724.84115   0.01976552  0.019212838            4 
 3057000   0.76071412    -7.703168    725.19594  0.019768726  0.019206807            3 
 3058000   0.76990136   -7.7235073    726.37783  0.019794469  0.019200776            2 
 3059000   0.76549814    -7.711803    725.18368  0.019755467  0.019194767            4 
 3060000   0.75473998    -7.735969    725.14014  0.019747825  0.019188756            2 
 3061000   0.77066636   -7.7237935    723.91461   0.01970801  0.019182735            4 
 3062000   0.75575473   -7.7355737    726.00332  0.019758418  0.019176706            3 
 3063000   0.77442249   -7.7510541    726.07091  0.019753806  0.019170668            2 
 3064000    0.7506007   -7.7118444    724.33384  0.019700115  0.019164639            2 
 3065000   0.78219817   -7.7052795    725.40641   0.01972285  0.019158626            2 
 3066000   0.75896319   -7.7595111    726.23642  0.019738976  0.019152627            1 
 3067000   0.74850367   -7.6972131    725.35924  0.019708707  0.019146634            2 
 3068000   0.77068502    -7.709122    725.72447  0.019712203  0.019140626            3 
 3069000   0.75935269   -7.7169093    726.98841    0.0197401  0.019134608            2 
 3070000   0.76986824   -7.7040419    724.58697  0.019668485   0.01912862            3 
 3071000   0.76684544   -7.7327789    725.86291  0.019696703  0.019122609            3 
 3072000   0.76179277   -7.7331428    725.13339  0.019670502  0.019116613            7 
 3073000   0.75713838    -7.729446    726.93875  0.019713059  0.019110616            4 
 3074000   0.77430146   -7.7298514    725.64156   0.01967148  0.019104632            4 
 3075000    0.7689869    -7.698153    726.33068  0.019683758   0.01909862            4 
 3076000   0.73943938   -7.7125507    725.33966  0.019650511  0.019092636            2 
 3077000   0.76601028   -7.6986333    727.50357  0.019702729  0.019086661            2 
 3078000   0.74090637   -7.7407027    725.92555  0.019653605  0.019080676            5 
 3079000   0.75615337   -7.7302009    726.40087  0.019660086  0.019074689            4 
 3080000   0.77335266   -7.7294081    727.34994  0.019679381   0.01906873            6 
 3081000   0.75361231   -7.7365168    725.80313  0.019631157  0.019062773            3 
 3082000   0.75011648   -7.7316741    726.34381  0.019639406  0.019056822            7 
 3083000   0.76042017   -7.7022832     728.7063  0.019696894  0.019050899            2 
 3084000   0.76812636   -7.7347811    727.37041   0.01965441  0.019044991            5 
 3085000   0.77161984   -7.7244935    726.11508   0.01961413  0.019039058            3 
 3086000   0.75622482   -7.7310874    726.82948  0.019627065   0.01903314            3 
 3087000   0.75435302   -7.7525804    726.41699  0.019609572  0.019027193            5 
 3088000   0.73275883    -7.733525    728.70351  0.019664926  0.019021259            2 
 3089000   0.75344554   -7.7380689    725.68128  0.019577028   0.01901532            3 
 3090000   0.76759935   -7.7408404    728.54789  0.019648001  0.019009403            2 
 3091000   0.74040712   -7.7481608    727.39143  0.019610467  0.019003468            6 
 3092000   0.74821698   -7.7133226    727.96954  0.019619705  0.018997535            4 
 3093000   0.75651009   -7.7153267    727.29138   0.01959509  0.018991582            3 
 3094000   0.75825834   -7.7366226    728.68912  0.019626404   0.01898565            4 
 3095000   0.75548629   -7.7232189    727.29456  0.019582514  0.018979729            3 
 3096000   0.74860286   -7.7318056     725.6743  0.019532577  0.018973794            2 
 3097000   0.75300194   -7.7519072    728.48732  0.019601962  0.018967842            3 
 3098000   0.77506162   -7.7481561    725.60101  0.019517996  0.018961901            5 
 3099000   0.75686411    -7.736584    725.06056  0.019497165  0.018955919            3 
 3100000   0.74676353    -7.716488    725.39671  0.019499912   0.01894997            3 
 3101000   0.76203954   -7.7229988    725.20035  0.019488346   0.01894401            6 
 3102000   0.74706851   -7.7312093    726.77855  0.019524461  0.018938046            3 
 3103000   0.77852902   -7.7246513    727.53071  0.019538369   0.01893209            3 
 3104000   0.74861796   -7.7317598    726.53581  0.019505364  0.018926108            7 
 3105000   0.76165025   -7.7135634    725.85067  0.019480694  0.018920133            3 
 3106000   0.74841075   -7.7439942    725.88643  0.019475382   0.01891414            6 
 3107000     0.757612   -7.7460897    727.33937  0.019508083  0.018908156            2 
 3108000   0.75273138   -7.7197515    726.19827  0.019471211  0.018902191            3 
 3109000   0.75701721   -7.7485862    728.06869  0.019515082  0.018896262            2 
 3110000   0.75441491   -7.7454581    729.07387  0.019535741  0.018890344            8 
 3111000   0.73597151   -7.7229923    727.37485  0.019483951  0.018884413            3 
 3112000   0.74018793   -7.7365388    727.44407  0.019479543  0.018878486            3 
 3113000   0.74713262   -7.7355103    726.79079  0.019455798  0.018872545            4 
 3114000   0.75856306   -7.7256764    727.70698  0.019474068  0.018866608            4 
 3115000   0.75379925   -7.7176205    726.51749  0.019435995  0.018860665            3 
 3116000   0.75627553   -7.7513799    727.71723  0.019461843  0.018854712            2 
 3117000   0.74131803   -7.7271772    727.58199  0.019451984  0.018848797            4 
 3118000   0.74736784   -7.7249813    729.59402   0.01949952  0.018842901            3 
 3119000    0.7518462   -7.7491122    727.18344  0.019428862  0.018836967            3 
 3120000   0.75958571   -7.7406791    728.24096   0.01945088   0.01883103            3 
 3121000   0.75095908   -7.7684755    727.00687  0.019411697  0.018825102            6 
 3122000    0.7490273   -7.7429161    725.21319  0.019357602  0.018819174            3 
 3123000   0.75268882   -7.7693089    727.60768  0.019415297  0.018813219            4 
 3124000   0.75748303   -7.7829401    725.60441  0.019355645  0.018807265            7 
 3125000   0.73772511   -7.7453729    726.50093  0.019373358  0.018801339            4 
 3126000   0.74269421    -7.716287    726.35549  0.019363284  0.018795403            2 
 3127000   0.74086028   -7.7325212    726.72206   0.01936686  0.018789476            5 
 3128000   0.77065579    -7.720202    727.74902  0.019388028   0.01878352            4 
 3129000   0.75642786   -7.7213465    728.21591  0.019394266  0.018777577            2 
 3130000   0.74907304   -7.7678055    726.65832  0.019346601  0.018771611            5 
 3131000   0.75160908   -7.7643375    726.33347  0.019331775  0.018765641            4 
 3132000   0.75182153   -7.7287492    726.65323  0.019334111  0.018759703            4 
 3133000   0.74275631     -7.76681    726.89065  0.019334255  0.018753729            5 
 3134000   0.72948649   -7.7402683    726.28388  0.019311952   0.01874776            3 
 3135000   0.75251331   -7.7563496    726.19955   0.01930355  0.018741792            5 
 3136000   0.76096068   -7.7569338    726.59148  0.019307809   0.01873582            5 
 3137000   0.74684662   -7.7845055    725.67828  0.019277396  0.018729853            4 
 3138000   0.75395188   -7.7314324    727.05459  0.019307802  0.018723917            3 
 3139000   0.75303225   -7.7786984    727.41478  0.019311213  0.018717983            4 
 3140000   0.72400704    -7.782911    724.41099  0.019225345  0.018712027            3 
 3141000   0.74747849   -7.7622709    726.97286  0.019287193  0.018706067            6 
 3142000   0.75218603    -7.763407    728.16166  0.019312584  0.018700153            3 
 3143000   0.74441915   -7.7805795    727.59064  0.019291299  0.018694241            4 
 3144000   0.74628148   -7.7365356    728.20971  0.019301572  0.018688315            3 
 3145000   0.73662769   -7.7404826    728.17956  0.019294636  0.018682403            3 
 3146000   0.73943138   -7.7362655    728.40804  0.019294555  0.018676486            6 
 3147000    0.7808614   -7.7495737    728.47147  0.019290103  0.018670567            2 
 3148000   0.72837399   -7.7501377     728.8134  0.019293027  0.018664683            2 
 3149000   0.76222589   -7.7331632    729.22186   0.01929771  0.018658784            4 
 3150000   0.75369933   -7.7335741    728.05124  0.019260615  0.018652882            4 
 3151000   0.73120127   -7.7405454    726.54137  0.019214571   0.01864697            2 
 3152000   0.75102976   -7.7242046    730.24488   0.01930639  0.018641069            5 
 3153000   0.75287118   -7.7564623    727.23435  0.019220698  0.018635166            2 
 3154000   0.75075433   -7.7484713    728.73786  0.019254329  0.018629271            4 
 3155000   0.75417916   -7.7538622    727.51978  0.019216053  0.018623361            4 
 3156000   0.75155714    -7.751949    726.86001  0.019192544  0.018617436            2 
 3157000   0.74173164   -7.7520557    728.48221  0.019229284  0.018611529            2 
 3158000   0.73882943   -7.7719418    728.72775  0.019229675  0.018605637            3 
 3159000   0.75692453   -7.7752486    728.04233  0.019205506  0.018599724            2 
 3160000   0.74475117   -7.7765837    726.20419  0.019150955  0.018593804            2 
 3161000   0.73710889   -7.7498093    726.60043  0.019155342  0.018587877            4 
 3162000   0.75563072   -7.7533305    727.87011  0.019182746  0.018581977            4 
 3163000   0.73478817   -7.7808729    727.64374  0.019170717  0.018576063            2 
 3164000   0.75431971   -7.7475478    727.98805  0.019173727  0.018570168            1 
 3165000   0.74092271   -7.7512693     729.9589   0.01921956  0.018564292            3 
 3166000   0.73814323   -7.7726858    728.04357  0.019163076    0.0185584            3 
 3167000   0.73631159   -7.7694486    728.60123  0.019171699  0.018552524            3 
 3168000   0.73622242   -7.7814616    728.79303  0.019170692  0.018546623            5 
 3169000   0.73422948   -7.7351488    729.56233  0.019184872  0.018540753            3 
 3170000   0.73849074   -7.7401841    727.85138  0.019133843  0.018534898            3 
 3171000   0.75209098   -7.7352937     727.4196  0.019116462  0.018529059            3 
 3172000    0.7487111   -7.7696315     727.5472  0.019113787  0.018523214            3 
 3173000   0.75419563   -7.7662644    729.57983  0.019161147  0.018517349            3 
 3174000   0.75163146   -7.7521323    730.34744  0.019175264  0.018511506            2 
 3175000   0.75295587   -7.7583237    729.45818  0.019145884  0.018505645            2 
 3176000   0.75144815   -7.7677333     727.7055  0.019093868   0.01849977            5 
 3177000   0.74129839   -7.7704987    727.77568  0.019089699  0.018493911            3 
 3178000   0.75225671   -7.7601757    728.23983  0.019095863  0.018488076            7 
 3179000   0.75924798   -7.7551603    729.14092  0.019113477  0.018482228            8 
 3180000   0.75628656   -7.7427176    728.47926  0.019090127  0.018476375            4 
 3181000   0.74117149   -7.7598158    728.72203  0.019090486  0.018470518            5 
 3182000   0.74182177   -7.7358943    729.83652  0.019113674  0.018464682            4 
 3183000   0.74376546   -7.7764767    727.89551  0.019056852  0.018458843            3 
 3184000   0.73990368   -7.7690271    727.74983  0.019047054   0.01845299            3 
 3185000   0.73679631   -7.7725531    728.99721   0.01907371  0.018447143            3 
 3186000   0.74088799   -7.7447848    729.88586  0.019090967  0.018441299            7 
 3187000   0.72030661   -7.7505551    728.31584  0.019043924  0.018435454            5 
 3188000   0.73944997    -7.751535    730.20564  0.019087349  0.018429634            4 
 3189000   0.74608682   -7.7574459    728.29052  0.019031319  0.018423813            4 
 3190000   0.75953039   -7.7358911    731.92998  0.019120428  0.018417995            2 
 3191000   0.74633284   -7.7581927    729.38866  0.019048069  0.018412165            5 
 3192000   0.75338594   -7.7678242    729.32084  0.019040331  0.018406319            1 
 3193000   0.74893543   -7.7490253    729.51354  0.019039397  0.018400496            6 
 3194000   0.75260172   -7.7365907     729.1366  0.019023602  0.018394667            4 
 3195000   0.74786687    -7.732384    729.67851  0.019031782  0.018388862            3 
 3196000   0.75423006   -7.7628527    728.93737  0.019006502  0.018383043            3 
 3197000   0.72706653   -7.7644977    729.49045  0.019014974  0.018377221            4 
 3198000   0.75160224   -7.7451718    727.85328  0.018966367  0.018371393            4 
 3199000   0.73677964   -7.7806724    729.51142  0.019003632  0.018365583            4 
 3200000   0.72200361   -7.7808184    728.72482  0.018977209  0.018359788            3 
 3201000    0.7226571   -7.7831149    729.02789   0.01897917  0.018353972            4 
 3202000   0.72426699   -7.7831542    731.27043  0.019031606  0.018348182            2 
 3203000   0.74347081     -7.78182    730.64414   0.01900937  0.018342385            3 
 3204000   0.72818009   -7.7722599    729.36501  0.018970168  0.018336577            3 
 3205000   0.74145094   -7.7728719    729.91909  0.018978656  0.018330768            3 
 3206000   0.74589672   -7.7774426    729.63227   0.01896528   0.01832496            7 
 3207000   0.72193155   -7.7825008    729.22734  0.018948845  0.018319154            3 
 3208000   0.74347927    -7.768344    730.68326  0.018980758  0.018313351           10 
 3209000   0.74732286   -7.7959267    730.54588  0.018971276  0.018307564            2 
 3210000   0.71681829   -7.7735172    728.14377  0.018903005  0.018301784            4 
 3211000   0.74327086   -7.7674745    729.39335  0.018929548  0.018296002            2 
 3212000   0.74722074   -7.7546692    729.89509  0.018936672  0.018290233            3 
 3213000   0.74773609   -7.7738444    730.86638   0.01895597  0.018284465            5 
 3214000    0.7571844   -7.7844649    730.53997  0.018941609   0.01827869            5 
 3215000   0.74333408   -7.7645481    729.46589  0.018907877  0.018272914            3 
 3216000   0.73637981   -7.8023818    729.15255  0.018893878  0.018267117            3 
 3217000   0.73527162   -7.7903303    731.13604  0.018939386  0.018261309            5 
 3218000   0.71656006   -7.7881387    730.13516  0.018907581  0.018255522            4 
 3219000   0.74163038   -7.7700712    729.40782  0.018882878  0.018249727            3 
 3220000    0.7436753   -7.7619254     728.9633   0.01886551  0.018243937            2 
 3221000   0.73089921   -7.7599217    729.73749  0.018879683  0.018238143            2 
 3222000   0.73958859   -7.7846046     729.9252  0.018878678  0.018232376            5 
 3223000   0.71934075    -7.785312    728.93684  0.018847266   0.01822659            5 
 3224000   0.73186707   -7.7796799    729.26083  0.018849794  0.018220794            3 
 3225000   0.72149994   -7.7768124    732.11125  0.018917603  0.018215017            3 
 3226000    0.7328081   -7.7945492    731.67899  0.018900573  0.018209234            4 
 3227000   0.73299141   -7.7869649     730.0583  0.018852864  0.018203462            4 
 3228000   0.73691672    -7.790668    729.49902  0.018832585  0.018197678            2 
 3229000   0.72668988   -7.7700009     730.7633  0.018859381  0.018191915            4 
 3230000   0.75490449   -7.7944455    728.92187  0.018806034  0.018186142            4 
 3231000   0.73975392   -7.7653901    730.18605  0.018832819  0.018180397            3 
 3232000   0.73175579   -7.7913611    730.21895   0.01882784  0.018174665            3 
 3233000   0.73088455   -7.7789281    730.45828  0.018828185  0.018168912            3 
 3234000   0.73702372   -7.7770576    729.70917  0.018803061  0.018163155            4 
 3235000   0.73924519   -7.7576816    732.09284  0.018858651  0.018157387            4 
 3236000   0.73269084    -7.780847    731.72633  0.018843385  0.018151639            6 
 3237000   0.72274502   -7.7845705    730.90782  0.018816492  0.018145888            4 
 3238000   0.73009375   -7.7983421    730.86399  0.018809553  0.018140138            2 
 3239000   0.73869254   -7.7629557    732.23457  0.018839008  0.018134387            7 
 3240000   0.71900844   -7.7735794    730.15915  0.018779814  0.018128627            2 
 3241000   0.73855821   -7.7668638    731.42537  0.018806576  0.018122875            1 
 3242000   0.73511007   -7.7923481    733.05445   0.01884265  0.018117139            2 
 3243000   0.71398429   -7.7829406    729.93498   0.01875668  0.018111394            3 
 3244000   0.73166835   -7.7762349    732.55742  0.018818265  0.018105659            5 
 3245000   0.75253989   -7.7766173    730.92081  0.018770437  0.018099886            2 
 3246000    0.7274431   -7.7933845    730.99163  0.018766472  0.018094129            3 
 3247000   0.72722075   -7.7984712    731.11235  0.018763791  0.018088391            3 
 3248000   0.73867799   -7.7884292    730.81279  0.018750328  0.018082633            7 
 3249000   0.73547264   -7.7534345    731.27981  0.018756536    0.0180769            3 
 3250000   0.73053642   -7.7912467    732.10509  0.018771925  0.018071178            4 
 3251000   0.72031041   -7.7934168    730.88718  0.018734932   0.01806545            4 
 3252000   0.74025768   -7.7841383    730.53487  0.018720143  0.018059717            5 
 3253000   0.72181394   -7.7846817    730.20664   0.01870598  0.018053976            3 
 3254000   0.73337967   -7.8037455    732.15733  0.018750188  0.018048226            4 
 3255000   0.72776958   -7.8048701    731.33475  0.018723368  0.018042482            4 
 3256000   0.72980766   -7.7972489    732.06914  0.018736413  0.018036755            4 
 3257000   0.72923933   -7.8160361    731.20767  0.018708619  0.018031027            5 
 3258000   0.72634753   -7.8139765    730.99242  0.018697371  0.018025293            3 
 3259000   0.72713838   -7.8283419    730.73307  0.018685002  0.018019566            2 
 3260000   0.73306653   -7.8115094    731.41627  0.018696735  0.018013819            3 
 3261000   0.73193012   -7.8216466    731.20723  0.018685659  0.018008064            6 
 3262000   0.73252707   -7.8059589    730.70557  0.018667116  0.018002317            3 
 3263000   0.72050801   -7.7958834    731.31279  0.018676902  0.017996576            2 
 3264000   0.73580373   -7.8078462    731.22133  0.018668845  0.017990857            3 
 3265000   0.72700026   -7.7782175    732.51935  0.018696257   0.01798515            4 
 3266000   0.73423693   -7.7906843    731.88564  0.018674363  0.017979448            6 
 3267000   0.72824749   -7.8033163    731.05833  0.018647544  0.017973749            2 
 3268000   0.72487024   -7.8244874    730.95787  0.018639277  0.017968008            5 
 3269000   0.73176541   -7.8321257    730.81405  0.018629908  0.017962259            2 
 3270000   0.72837733   -7.8165731    730.97639  0.018628348  0.017956506            3 
 3271000   0.73083288    -7.828219    730.61097  0.018613344  0.017950778            4 
 3272000   0.71622885    -7.820892    732.85577  0.018664827  0.017945046            7 
 3273000   0.73212434   -7.8118339    731.06725  0.018613587  0.017939327            2 
 3274000   0.73072212   -7.8126778     732.2276  0.018637436  0.017933612            3 
 3275000   0.72306713   -7.8363615    732.24952  0.018632303  0.017927908            2 
 3276000   0.71832141   -7.8151349    730.23286  0.018575317  0.017922184            3 
 3277000     0.752314   -7.7903947    730.48185   0.01857598   0.01791645            3 
 3278000   0.72947483   -7.7999197    730.71579  0.018576261  0.017910718            5 
 3279000   0.72104355   -7.7972885    731.82942  0.018598897  0.017905006            4 
 3280000   0.72689287   -7.8013503    730.64354  0.018563098  0.017899274            4 
 3281000   0.71378326   -7.7690331    732.11699  0.018594864  0.017893566            4 
 3282000   0.72628143   -7.7892673    731.18837   0.01856562  0.017887857            7 
 3283000   0.72215734    -7.791259    732.06057  0.018582104   0.01788212            4 
 3284000   0.72261219   -7.7998221    730.83691  0.018545395   0.01787639            1 
 3285000   0.72320833   -7.7907784     731.7756  0.018563562  0.017870682            2 
 3286000   0.72343105   -7.8058417    729.01683   0.01848795  0.017864984            3 
 3287000   0.72279716   -7.8223676    730.96991   0.01853184  0.017859272            4 
 3288000   0.71475848   -7.7952775    732.03055  0.018553086  0.017853597            1 
 3289000   0.72874274   -7.7979852    731.21843  0.018526868  0.017847931            2 
 3290000   0.72617795   -7.8092094    731.68504  0.018533056  0.017842249           10 
 3291000   0.73004329   -7.8194446    730.13423  0.018488155  0.017836548            3 
 3292000    0.7275322     -7.81181    731.06511  0.018506103  0.017830851            4 
 3293000   0.70984181   -7.8116456    732.76083  0.018543396  0.017825139            4 
 3294000   0.73169114   -7.8221316    730.48125  0.018480096  0.017819415            4 
 3295000   0.72973036     -7.83682    731.11747  0.018490578  0.017813698            7 
 3296000    0.7336906   -7.8445259     731.6361  0.018498081  0.017807967            3 
 3297000   0.72620037   -7.8268154    731.31395  0.018484328  0.017802262            4 
 3298000   0.71665856   -7.8172056    731.65501  0.018487341  0.017796556            3 
 3299000   0.72300633   -7.8470239    730.82426  0.018460752  0.017790858            4 
 3300000   0.73216588   -7.8148623    729.59278   0.01842406  0.017785172            6 
 3301000   0.72457532   -7.8184623    732.34995  0.018488083  0.017779496            3 
 3302000   0.72359111   -7.8168489    731.79161  0.018468393  0.017773825            7 
 3303000   0.72308612   -7.8037999    730.95049  0.018441581  0.017768156            5 
 3304000   0.72025886   -7.8247394    731.35221  0.018446131  0.017762482            7 
 3305000   0.73717822   -7.8301594    732.57284  0.018471327  0.017756809            3 
 3306000   0.72600144   -7.8139799    732.34032  0.018459879  0.017751126           10 
 3307000   0.72545944   -7.8081277    732.97795  0.018470365  0.017745457            3 
 3308000   0.73102031   -7.7675621    733.02544  0.018465977  0.017739794            3 
 3309000   0.72404993   -7.8055683    733.00202  0.018459807  0.017734146            6 
 3310000   0.71164136   -7.8083086    732.16308  0.018433109  0.017728513            3 
 3311000   0.73219516   -7.8170398    731.91573  0.018421316  0.017722876            5 
 3312000   0.72112479   -7.8100473    731.94136  0.018416399  0.017717209            6 
 3313000   0.71745755   -7.8220373    733.64193  0.018453615  0.017711548           21 
 3314000   0.71596556   -7.8017343    733.13092  0.018435197  0.017705905           10 
 3315000    0.7153833     -7.79466    732.91932  0.018424317  0.017700266           17 
 3316000   0.71346606   -7.7736229    733.56621  0.018435017  0.017694618            6 
 3317000   0.72672332   -7.8251501    732.14779  0.018393824  0.017688966            5 
 3318000   0.71901206    -7.819633      731.757  0.018378466   0.01768333            8 
 3319000   0.70951467   -7.8160465    731.99615  0.018378933   0.01767768            3 
 3320000   0.69639185    -7.821339    731.94277  0.018372058  0.017672037            4 
 3321000   0.71998864   -7.8230596    732.24698  0.018374159  0.017666405            5 
 3322000   0.72967828   -7.7945762    732.63526  0.018378368  0.017660778            4 
 3323000   0.71287657   -7.8247903    734.14133  0.018410606   0.01765515            8 
 3324000   0.72794702   -7.8166487    731.77144  0.018345654  0.017649511            2 
 3325000    0.7288141   -7.7828577    733.02636  0.018371588   0.01764389            4 
 3326000   0.71402377   -7.8361303    732.54118  0.018353908  0.017638276            7 
 3327000   0.71681841   -7.8091563    732.96991   0.01835913  0.017632632            5 
 3328000   0.71580965   -7.7931081    734.05088  0.018380681  0.017627003            2 
 3329000   0.70163501   -7.7840958    732.50431  0.018336445  0.017621385            3 
 3330000   0.73252938   -7.8284796    732.66416  0.018334939  0.017615782            6 
 3331000   0.72628771   -7.8222149    732.77917  0.018332312  0.017610145            2 
 3332000   0.70796976   -7.7883708    732.47533  0.018319211    0.0176045            2 
 3333000   0.73387241   -7.8476213     731.9549  0.018300703  0.017598853            3 
 3334000   0.72170592   -7.8531674     732.3209  0.018304362  0.017593202            8 
 3335000   0.72362794   -7.8099176    733.89642  0.018338241  0.017587551            3 
 3336000   0.71894197   -7.8258752    732.70757  0.018303047  0.017581942            3 
 3337000   0.71081078   -7.8169187    734.31973  0.018337822  0.017576332            3 
 3338000   0.71545235   -7.8161703    734.36967  0.018333575  0.017570742            2 
 3339000   0.72976132   -7.8577762    733.13269  0.018297212  0.017565135            2 
 3340000   0.71178247   -7.8316739    733.23177  0.018294206  0.017559515            4 
 3341000   0.71382219   -7.8171731    733.28098  0.018289958  0.017553913            4 
 3342000   0.71186979    -7.870263     732.6013  0.018267537  0.017548287            3 
 3343000   0.72990558   -7.8450241    731.29963  0.018229625  0.017542668            5 
 3344000   0.71453731   -7.8258423    733.50641  0.018279167  0.017537051            6 
 3345000   0.70263867   -7.8617347    733.21033  0.018266326  0.017531436            8 
 3346000   0.72015624   -7.8324781    733.64152  0.018271606  0.017525834            3 
 3347000   0.72621258   -7.8215072    732.51181  0.018238019  0.017520246            4 
 3348000   0.72643923   -7.8379688     733.6451   0.01826078  0.017514662            2 
 3349000   0.71981477     -7.81164    732.09676    0.0182168  0.017509077            4 
 3350000   0.70960813   -7.8439309     733.0527  0.018235142  0.017503489            5 
 3351000   0.71187605   -7.8595036    734.54329  0.018266768  0.017497906            8 
 3352000   0.72132593   -7.8507455    734.09807   0.01825025  0.017492319           11 
 3353000   0.70774843   -7.8424516    732.44461  0.018203713   0.01748674            4 
 3354000   0.70632928   -7.8226841    733.82581  0.018232603  0.017481164            3 
 3355000   0.71132351   -7.8361745    734.55131  0.018245189  0.017475593            5 
 3356000   0.71029078   -7.8216055    733.66544  0.018217755  0.017470049            4 
 3357000   0.69811296   -7.8345457    734.76259  0.018239564  0.017464494            3 
 3358000   0.70076481   -7.8602282     734.0672  0.018216875  0.017458939            6 
 3359000   0.72552909   -7.8182205    734.47892  0.018221666  0.017453388            3 
 3360000   0.73967202   -7.8259603    734.05476  0.018205723  0.017447855            6 
 3361000   0.72432323   -7.8423319    734.45738  0.018210289  0.017442327            5 
 3362000   0.70263474   -7.8457415     732.5538  0.018157689  0.017436771            5 
 3363000   0.72023222   -7.8606681    733.43512  0.018174128  0.017431214            4 
 3364000   0.70644941   -7.8311877    733.64028  0.018173808  0.017425679            5 
 3365000   0.70306196    -7.818122     733.5243  0.018165535  0.017420153            3 
 3366000   0.71920175   -7.8114697    735.27902   0.01820358  0.017414625            2 
 3367000   0.70623789   -7.8244905    735.97605  0.018215425  0.017409123            7 
 3368000   0.71575668   -7.7879194    736.36659   0.01821968  0.017403631            4 
 3369000   0.70774566   -7.8293983    735.67175  0.018197085  0.017398127            5 
 3370000   0.70383882   -7.8211138    735.58364  0.018189506  0.017392618            3 
 3371000   0.71582948   -7.8460213    735.47936  0.018181533  0.017387101            3 
 3372000   0.71289252    -7.840255    735.24407  0.018170326  0.017381605            2 
 3373000   0.70696364   -7.8377075    736.36771    0.0181927  0.017376081            3 
 3374000     0.711638   -7.7991886    736.01421  0.018178577   0.01737056            4 
 3375000   0.72785352   -7.8333982    736.37149  0.018182012  0.017365049            4 
 3376000   0.71138723   -7.8596957    734.43483  0.018128822  0.017359535            4 
 3377000   0.70300138    -7.826404    735.49844    0.0181497  0.017354027            3 
 3378000    0.7213801   -7.8387107    734.64189  0.018123196  0.017348523            2 
 3379000   0.71581659   -7.8189108    734.90786  0.018124392  0.017343035            5 
 3380000   0.71781243   -7.8547785    734.41415  0.018106858   0.01733752            4 
 3381000   0.72602046   -7.8734669    734.50986  0.018103861  0.017332012            4 
 3382000   0.69689194   -7.8498752     735.8938  0.018132609  0.017326524            4 
 3383000   0.70389541   -7.8196728    733.48297  0.018067863  0.017321031            5 
 3384000   0.71071137   -7.8707582    735.29684  0.018107192  0.017315535            4 
 3385000    0.7097246   -7.8203961    734.08194  0.018071933  0.017310048            5 
 3386000   0.72306723    -7.817289    734.67906  0.018081292  0.017304549            3 
 3387000    0.7353751   -7.8615097    733.85798  0.018055752  0.017299062            8 
 3388000   0.69756298   -7.8466867    731.48695  0.017992103  0.017293549            3 
 3389000   0.72052583   -7.8433431    734.02893    0.0180493  0.017288041            4 
 3390000   0.70710769   -7.8154128    733.70807  0.018036088  0.017282539            2 
 3391000    0.7044813   -7.8664275    734.29422  0.018045174  0.017277032            6 
 3392000   0.72850689   -7.8545838    733.53482  0.018021197  0.017271528            4 
 3393000   0.70713995   -7.8703524    733.96551  0.018026464   0.01726604            4 
 3394000   0.72076149   -7.8492991    734.28533  0.018029005  0.017260562            1 
 3395000   0.70656753   -7.8499132    735.83363  0.018061699  0.017255091            3 
 3396000   0.71996367   -7.8412113    736.76818  0.018079313  0.017249622            4 
 3397000   0.69416372   -7.8467739    735.40754  0.018040613  0.017244154           11 
 3398000   0.72119062   -7.8540866    734.74669  0.018019097  0.017238676            3 
 3399000   0.70646044   -7.8538163     735.4153  0.018030188  0.017233197            2 
 3400000   0.71698119   -7.8327806    735.02635  0.018015352  0.017227729            4 
 3401000   0.69562957    -7.850809    733.63685  0.017976008   0.01722225            4 
 3402000   0.69860015    -7.852373     734.3414  0.017987983  0.017216758            5 
 3403000   0.71340593   -7.8430114    737.08237  0.018049818  0.017211275            6 
 3404000   0.70913851   -7.8455771    735.49502  0.018005656  0.017205794            7 
 3405000   0.69145303    -7.843904    735.90956  0.018010513  0.017200334            2 
 3406000   0.71784572   -7.8456424    734.42973  0.017969019  0.017194869            7 
 3407000   0.70928413   -7.8793546    735.21976  0.017983068  0.017189407            5 
 3408000   0.70212398   -7.8125218    736.47834  0.018008567  0.017183961            3 
 3409000   0.70603356   -7.8615152    735.26903  0.017973722  0.017178497            3 
 3410000   0.70351429   -7.8506461    735.92253  0.017984422  0.017173029            4 
 3411000   0.71286636   -7.8705613    735.64022  0.017972252  0.017167554            9 
 3412000   0.70558836   -7.8439219     735.2229  0.017956792  0.017162091            6 
 3413000   0.71426821   -7.8381156    735.42716  0.017956518  0.017156623            5 
 3414000   0.71243923   -7.8469681    735.96818  0.017964464  0.017151149            3 
 3415000   0.71345671    -7.860078    734.75635  0.017929633  0.017145664            3 
 3416000   0.71291395   -7.8676096    734.71822  0.017923454  0.017140193            6 
 3417000   0.71365989    -7.847682    734.76667   0.01791939  0.017134724            9 
 3418000   0.70551038   -7.8633118    734.52352  0.017908219  0.017129253            5 
 3419000    0.7024624   -7.8349333    735.57735  0.017928667  0.017123788            7 
 3420000   0.68917043   -7.8375123    735.43914  0.017920057  0.017118331            8 
 3421000   0.72138085   -7.8683196    733.86851  0.017876559  0.017112864            4 
 3422000   0.70491989   -7.8659472     734.7109  0.017891849  0.017107382            4 
 3423000   0.69259132   -7.8482911    735.35568  0.017902319  0.017101913            5 
 3424000   0.70088574   -7.8475823    734.75663  0.017882511   0.01709644            5 
 3425000   0.70014138   -7.8680505    734.35705  0.017867568  0.017090972            2 
 3426000   0.68830944   -7.8518887     735.2906   0.01788506  0.017085502            6 
 3427000   0.70863565    -7.856355    734.76174  0.017866981  0.017080042            8 
 3428000   0.69929128   -7.8683136    734.67808  0.017859736   0.01707456           12 
 3429000   0.71459077   -7.8694745    733.69485  0.017830632  0.017069069            4 
 3430000   0.70976346   -7.8974875    734.10661  0.017835438  0.017063554            4 
 3431000   0.70587993   -7.8792293    733.32414  0.017811234  0.017058045            2 
 3432000   0.69785848   -7.8679951    733.53971  0.017811279  0.017052555            3 
 3433000   0.69867028   -7.8707423    733.73231  0.017810766  0.017047071            3 
 3434000   0.70458685   -7.8908324    734.00828  0.017812276  0.017041587            2 
 3435000   0.70239816   -7.8934997    734.45715   0.01781798  0.017036091            3 
 3436000   0.70623007   -7.8636723    733.47937  0.017789081  0.017030623            2 
 3437000   0.69899579   -7.8790144    733.13189   0.01777548  0.017025156            5 
 3438000   0.69449688   -7.8566438    735.48477  0.017827341  0.017019699            5 
 3439000   0.70047741   -7.8786252     734.8683  0.017807219  0.017014232            2 
 3440000    0.7078457   -7.8663062    734.51959  0.017793595  0.017008763            7 
 3441000   0.69992677   -7.8915896    734.26792  0.017782329  0.017003301            3 
 3442000   0.70600305   -7.8641556     734.8362  0.017790921  0.016997837            5 
 3443000   0.70310197   -7.8733123    735.10493  0.017792258  0.016992377            7 
 3444000    0.7035683   -7.8920593    733.70369  0.017753186  0.016986923            6 
 3445000   0.70577897   -7.8618457     734.2571   0.01776142  0.016981465            3 
 3446000   0.68010686   -7.8711714    734.53908  0.017763085  0.016976031            3 
 3447000   0.68772626   -7.8603284    735.23356  0.017774721    0.0169706            5 
 3448000   0.71089814   -7.8663114     734.7363  0.017757548  0.016965162            6 
 3449000   0.72120666   -7.8797374    734.68771  0.017751225   0.01695972            4 
 3450000   0.70571513   -7.8553678    735.87788  0.017774828  0.016954301            2 
 3451000    0.7072434   -7.8579907    736.17619  0.017776881  0.016948888            2 
 3452000   0.69793678   -7.8699798     735.0772  0.017745201  0.016943464            2 
 3453000   0.69689459   -7.8739031    735.49941  0.017750251   0.01693805            4 
 3454000   0.68729729   -7.8723136    735.91432  0.017755123  0.016932633            4 
 3455000    0.7084642   -7.8541398    735.18365   0.01773236  0.016927225            3 
 3456000   0.71338352   -7.8696729    735.56454  0.017736414  0.016921809            4 
 3457000   0.68518542   -7.8824476     734.8661  0.017714446   0.01691639            3 
 3458000   0.70181372   -7.8837578     736.4266   0.01774693  0.016910982            6 
 3459000   0.70409569   -7.8850622    735.53145  0.017720233  0.016905557            6 
 3460000   0.69988447   -7.8817461    733.95915  0.017677244  0.016900132            2 
 3461000    0.7028771   -7.8922931    734.76476  0.017691533  0.016894695            6 
 3462000   0.68481675   -7.8992853    734.77292  0.017686619  0.016889254            3 
 3463000   0.68383523   -7.8882407    734.99925  0.017686959  0.016883808            6 
 3464000   0.68632109   -7.8981234    734.29874  0.017665001  0.016878363            3 
 3465000   0.70442577   -7.8717754    734.46466  0.017663893  0.016872923            5 
 3466000   0.70269587   -7.8934572    735.98701  0.017695398  0.016867497            3 
 3467000   0.69453418   -7.9078847    733.25457  0.017624617  0.016862069            4 
 3468000   0.68715891   -7.8638571    735.64651  0.017677011   0.01685664            3 
 3469000   0.69026427   -7.8749602    735.21455  0.017661539  0.016851213            5 
 3470000   0.69734115   -7.8525968      734.268  0.017633718  0.016845789            3 
 3471000   0.70691028   -7.8719711    735.37402  0.017655191  0.016840374            2 
 3472000   0.70849146   -7.8580593    734.70521  0.017634054  0.016834968            3 
 3473000   0.67519374   -7.8779391    736.73411  0.017677659  0.016829551            5 
 3474000   0.68952522   -7.8695377    736.13384  0.017658171  0.016824151            4 
 3475000   0.69900705   -7.8785857    734.91221  0.017623794  0.016818756            4 
 3476000   0.70334684   -7.8759132     735.1894  0.017625369  0.016813351            8 
 3477000   0.70162955    -7.877679    736.18867   0.01764425  0.016807927            6 
 3478000   0.68208333     -7.89248     734.9341  0.017609117  0.016802508            9 
 3479000   0.69732795   -7.8776459    734.12268  0.017584619  0.016797083            3 
 3480000   0.69704678   -7.8943256    734.79244  0.017595604  0.016791653            5 
 3481000   0.70375681   -7.8722075     736.1672  0.017623461  0.016786223            4 
 3482000   0.68206929   -7.8978616    735.76467  0.017608766  0.016780791            2 
 3483000   0.68367869   -7.8669932    736.07009  0.017611018  0.016775366            3 
 3484000   0.69521629   -7.8891043    735.33528  0.017588387  0.016769952            5 
 3485000   0.67809047   -7.8997339     734.5352  0.017564209  0.016764533            5 
 3486000   0.70866439   -7.8723818    734.72676  0.017563749  0.016759118            4 
 3487000   0.69244906    -7.886939    734.67586  0.017557496  0.016753694            5 
 3488000   0.69088964   -7.8512159    734.58269  0.017550236  0.016748268            3 
 3489000   0.70233809   -7.8976591    734.46488  0.017542392  0.016742861            3 
 3490000    0.6925856   -7.8697912    733.80269  0.017521554  0.016737455            5 
 3491000   0.68797909   -7.9075405    734.40376  0.017530883  0.016732048            5 
 3492000   0.67645488   -7.8753783    734.57094  0.017529852  0.016726633            3 
 3493000   0.67802931   -7.8628336    735.77211  0.017553491  0.016721231            2 
 3494000   0.69850518   -7.8860099    735.98997  0.017553663  0.016715837            1 
 3495000   0.70152502   -7.8746074    734.36833  0.017509975  0.016710441            2 
 3496000   0.70116776   -7.8786257    735.87485  0.017540876   0.01670502            5 
 3497000   0.69986377   -7.8919397    734.22315    0.0174965  0.016699616            2 
 3498000   0.68216006   -7.8641691    735.99392  0.017533684   0.01669421            3 
 3499000    0.6792517   -7.8603928    736.16458  0.017532737  0.016688813            4 
 3500000   0.69886937   -7.8986487    735.26985  0.017506425  0.016683424            3 
 3501000   0.69254126   -7.9048296    734.47021  0.017482391  0.016678028            2 
 3502000   0.68934783   -7.8841365    734.51482   0.01747846  0.016672628            4 
 3503000   0.69482305   -7.8980145    733.86325   0.01745797  0.016667226            7 
 3504000   0.69060393   -7.9050093    734.64027  0.017471468   0.01666183            4 
 3505000   0.69240517   -7.8836806    734.23381  0.017456819  0.016656444            4 
 3506000   0.69343785   -7.9108632    735.76386  0.017488207  0.016651053            3 
 3507000   0.69380588   -7.8918914    734.30471  0.017448548  0.016645664            5 
 3508000   0.70922231   -7.8988019    735.10087  0.017462487  0.016640277            3 
 3509000   0.69104321   -7.8939286    735.48675  0.017466675  0.016634886            3 
 3510000   0.69507816   -7.8935522    732.61966  0.017393629  0.016629505            4 
 3511000    0.6945173   -7.9101595    733.62377  0.017412508   0.01662412            3 
 3512000   0.69288497   -7.9189745    734.10722  0.017419021  0.016618728            2 
 3513000   0.68608226   -7.9019299    733.85321  0.017408037  0.016613319            4 
 3514000   0.68766542   -7.8936005    733.17926  0.017387101  0.016607906            2 
 3515000   0.69367549   -7.8961528    734.70666  0.017418366  0.016602514            4 
 3516000   0.68775909   -7.9159085    734.62006  0.017411359  0.016597118            3 
 3517000   0.67518861    -7.920326    734.56315   0.01740506  0.016591719            4 
 3518000   0.69255831   -7.9104376    733.50149  0.017374964  0.016586326            4 
 3519000   0.69202554   -7.9160496    733.52418  0.017370564  0.016580937            5 
 3520000    0.7020387   -7.9016424     735.4763  0.017411844  0.016575543            3 
 3521000   0.69445693   -7.8967909    734.88521   0.01739291  0.016570158            2 
 3522000   0.70040145   -7.9244542    733.61555   0.01735793  0.016564774            4 
 3523000   0.67902878   -7.8986588    735.71698   0.01740271  0.016559374            4 
 3524000   0.68923614   -7.9216484    734.48767  0.017368702  0.016553985            5 
 3525000   0.69407234   -7.9003276     735.3228  0.017383518  0.016548609            3 
 3526000   0.69475151   -7.8900632    734.72998  0.017364577  0.016543228            3 
 3527000   0.70525356   -7.8931891    735.00575  0.017366169  0.016537849            3 
 3528000   0.69352344   -7.8826612    736.22738  0.017390102  0.016532476            5 
 3529000   0.69159468   -7.9221069    734.21063  0.017337551  0.016527097            4 
 3530000   0.69373329   -7.8996533    735.31119  0.017358621  0.016521716            5 
 3531000   0.69426631   -7.8912636    734.10344  0.017325201   0.01651634            4 
 3532000   0.70341559   -7.9125555    734.48607  0.017329324  0.016510973            3 
 3533000   0.67752093   -7.9300752    735.26012  0.017342677  0.016505602            6 
 3534000   0.67715176   -7.9070958    734.29079  0.017314912  0.016500235            4 
 3535000   0.68866028   -7.9082652     735.0446  0.017327784  0.016494882            2 
 3536000   0.68103043   -7.9000411    735.99974  0.017345394  0.016489515            7 
 3537000    0.7046869   -7.9291029    736.20009   0.01734521  0.016484146            3 
 3538000   0.68069537   -7.9297637    733.13106   0.01726802  0.016478775            3 
 3539000   0.70044292   -7.9316129    735.34186  0.017315199  0.016473416            2 
 3540000   0.68413503    -7.911276    736.67093  0.017341594  0.016468086            4 
 3541000   0.68752134   -7.9169984    733.42246  0.017260248  0.016462731            5 
 3542000   0.68810722   -7.9210095    735.14431  0.017295885  0.016457374            3 
 3543000   0.68810452   -7.9063098    733.55212  0.017253555   0.01645201            4 
 3544000   0.70251716   -7.8954774    734.72973  0.017276376  0.016446656            4 
 3545000   0.69119597   -7.9129212    734.56654  0.017267667  0.016441305            4 
 3546000   0.69501018   -7.9217843    734.87558   0.01727006  0.016435961            3 
 3547000    0.6742766   -7.8959645    735.29727  0.017275098  0.016430631            3 
 3548000   0.66904085   -7.9192041    734.67928  0.017255714  0.016425292            2 
 3549000   0.68542989   -7.9024735     735.1089   0.01726094  0.016419967            6 
 3550000   0.68835345   -7.9179419    735.03465  0.017254335  0.016414648            4 
 3551000   0.67663338   -7.8805398    735.55998  0.017261804  0.016409336            4 
 3552000   0.68675268   -7.8847791    736.16236  0.017271076  0.016404024            3 
 3553000   0.68108207   -7.8896431    735.55551  0.017251982  0.016398715            4 
 3554000   0.69703887   -7.8987662    734.79754  0.017229355  0.016393404            4 
 3555000   0.67865587   -7.8815826     735.9969  0.017252623  0.016388103            4 
 3556000   0.68927522   -7.9107269    735.58686  0.017238162  0.016382806            6 
 3557000   0.69221105   -7.9173502    736.02121  0.017243492  0.016377502            5 
 3558000   0.67990074   -7.8945245    734.75245  0.017208929  0.016372213            3 
 3559000     0.694495   -7.9179638    736.08728  0.017235349  0.016366917            3 
 3560000   0.68060893    -7.890646    734.75733  0.017199376  0.016361622            5 
 3561000   0.68148147    -7.897911     734.6466  0.017191954  0.016356322            3 
 3562000   0.69005688   -7.8901637    734.47533  0.017183121  0.016351023            5 
 3563000   0.67520101   -7.8993569    735.48314   0.01720187  0.016345741            4 
 3564000   0.68419505   -7.8896408    737.12943  0.017235537   0.01634046            4 
 3565000   0.68503192   -7.8955956    737.23491  0.017233168  0.016335197            5 
 3566000   0.70501696    -7.902494    736.37205  0.017208171  0.016329923            3 
 3567000   0.68638054   -7.9079039    736.00284  0.017194721  0.016324646            5 
 3568000   0.68131863   -7.9051659    734.24973  0.017148957  0.016319367            5 
 3569000    0.6856402   -7.9116678    735.27747  0.017168149  0.016314082            5 
 3570000   0.68702879   -7.8934919    735.03993  0.017157795  0.016308788            7 
 3571000   0.68320058   -7.9163877    735.90079  0.017173079  0.016303486            6 
 3572000   0.68031415   -7.9036674    734.92226  0.017145443    0.0162982            5 
 3573000   0.65834059   -7.9383179    736.45891  0.017176484  0.016292929            4 
 3574000   0.66667374   -7.9044521      735.752  0.017155195  0.016287653            3 
 3575000   0.67471237   -7.9331636    735.92131  0.017154343  0.016282376            4 
 3576000   0.66617778   -7.8972618    736.89374  0.017172207  0.016277112            5 
 3577000   0.68574511   -7.9044952    736.87006  0.017166855  0.016271873            5 
 3578000   0.67178694   -7.9125662    736.98967  0.017164842  0.016266615            9 
 3579000   0.68176568   -7.8976001    735.69361  0.017129869  0.016261367            7 
 3580000   0.67146958   -7.9021824    736.43759  0.017142402  0.016256125            6 
 3581000   0.67364802    -7.899401    735.31507  0.017111493  0.016250881            4 
 3582000      0.67583   -7.9030083    735.76885  0.017117273  0.016245641            5 
 3583000   0.67247447   -7.8999334    737.16279  0.017144916  0.016240404            3 
 3584000   0.67001814   -7.8844672    738.81535  0.017178556  0.016235172            4 
 3585000   0.68176064   -7.9006664    738.43289  0.017164874   0.01622996            3 
 3586000   0.68659553   -7.9111432    737.51511   0.01713876  0.016224754            3 
 3587000   0.67481185   -7.9297602    736.80228  0.017117421  0.016219539            4 
 3588000   0.67158588   -7.9151673    736.72173   0.01711078   0.01621431           10 
 3589000   0.67392214   -7.9242064    735.62637  0.017080579  0.016209086            4 
 3590000     0.685857   -7.9059666    736.78668  0.017102755  0.016203865            4 
 3591000   0.67834277   -7.8820331    737.00057  0.017102956  0.016198654            5 
 3592000   0.66850446   -7.9088902     737.3899  0.017107227  0.016193453            2 
 3593000   0.67298789   -7.9056664    736.88292  0.017090707  0.016188243            5 
 3594000   0.69016021   -7.9048215    736.59443  0.017079262  0.016183034            2 
 3595000   0.68133663   -7.8951895    737.29439  0.017090737  0.016177826            1 
 3596000   0.67633913   -7.8938456    736.52441  0.017068141  0.016172604            3 
 3597000   0.68381507   -7.9097227    735.79577  0.017046515  0.016167386            4 
 3598000   0.67252214   -7.9208097    735.88616  0.017043871  0.016162166            3 
 3599000   0.66779037    -7.925346    735.87837  0.017038955  0.016156942            5 
 3600000   0.67462918   -7.9231752    735.54381  0.017026477  0.016151723            6 
 3601000    0.6761497   -7.9084958    736.50872  0.017044078  0.016146513            4 
 3602000   0.67779889    -7.921744    736.80517  0.017046205  0.016141297            4 
 3603000   0.68263024    -7.912581    736.08673  0.017024857  0.016136093            3 
 3604000   0.67231376   -7.9269016     736.7697  0.017035925  0.016130875            7 
 3605000   0.68305844   -7.9333142    735.66009   0.01700555  0.016125651            3 
 3606000    0.6737596   -7.9194603    736.26507  0.017014815  0.016120436            3 
 3607000   0.69010554   -7.9098149    736.83188  0.017023193   0.01611522            5 
 3608000   0.66375071   -7.9153647    736.90703   0.01702021  0.016110001            3 
 3609000   0.67217885   -7.9354282    735.03972  0.016972377  0.016104773            3 
 3610000    0.6710538    -7.935198    735.08364   0.01696869  0.016099554            5 
 3611000   0.66965223   -7.9129368    735.87489  0.016982251  0.016094343            7 
 3612000   0.67206405   -7.9219024    736.59275  0.016994111  0.016089128            3 
 3613000    0.6786893   -7.9268769     735.1457  0.016956032  0.016083921            2 
 3614000   0.67619243   -7.9375433    736.07984  0.016972879  0.016078714            3 
 3615000   0.68868348   -7.9409308    737.25818  0.016995348  0.016073495            3 
 3616000   0.66642828   -7.9275742    737.30225  0.016991663  0.016068289            5 
 3617000     0.680683   -7.9375277     735.1327   0.01693698  0.016063065            3 
 3618000   0.67715837   -7.9087747     736.0933  0.016954425  0.016057862            2 
 3619000   0.67585178   -7.9298686    736.41514  0.016957151  0.016052662            3 
 3620000   0.69183099   -7.9509393    735.95222   0.01694181  0.016047455            3 
 3621000   0.67561707   -7.9282712    735.26186  0.016921243  0.016042261            3 
 3622000   0.67283236   -7.9339966    736.37658  0.016942218  0.016037049            2 
 3623000   0.67428308    -7.929878    735.27094  0.016912111  0.016031831            5 
 3624000   0.66640519   -7.9492132    735.40523  0.016910532  0.016026617            2 
 3625000   0.66404525   -7.9352621    735.27527   0.01690288    0.0160214            4 
 3626000   0.67559848   -7.9250233    735.65328  0.016906906  0.016016182            4 
 3627000   0.67882814   -7.9301315    737.04006  0.016934107  0.016010995            9 
 3628000   0.67287382   -7.9339665    734.81697  0.016878376  0.016005794            5 
 3629000   0.66893701   -7.9424178    735.70169  0.016894041  0.016000586            3 
 3630000   0.65947572   -7.9346776    736.69481  0.016912186  0.015995381            4 
 3631000   0.66263711    -7.911134    736.63327  0.016906116  0.015990186            3 
 3632000   0.67097742   -7.9323065    736.54722  0.016899486  0.015985006            4 
 3633000    0.6722845   -7.9387058    736.13927  0.016885477  0.015979815            4 
 3634000   0.69031942   -7.9386361    735.72566  0.016871346  0.015974621            3 
 3635000   0.66959636   -7.9248261    735.69536   0.01686601  0.015969422            4 
 3636000   0.68583935   -7.9457441    735.94686  0.016867136  0.015964235            3 
 3637000   0.66659273     -7.94209    737.42781   0.01689643  0.015959044            4 
 3638000   0.66960124   -7.9229859    737.13764  0.016885139  0.015953852            4 
 3639000   0.67853498    -7.955867    735.07639  0.016833296  0.015948663            5 
 3640000   0.67451644   -7.9180043    736.93401    0.0168712  0.015943475            2 
 3641000   0.67106726   -7.9424142    736.29445  0.016851928  0.015938295            5 
 3642000   0.66220689   -7.9145595    736.21576  0.016845501  0.015933102            3 
 3643000    0.6551536   -7.9614774    735.34839  0.016821036   0.01592792            3 
 3644000   0.67259287   -7.9316268    737.87002  0.016874086  0.015922753            4 
 3645000   0.65950668   -7.9368732    736.19413  0.016831141  0.015917591            5 
 3646000   0.65806898   -7.9520176    736.42439  0.016831788  0.015912426            4 
 3647000   0.66485025   -7.9622734    734.83382  0.016790828  0.015907258            5 
 3648000   0.66843276   -7.9606764    735.61946  0.016804173  0.015902092            4 
 3649000   0.68789499   -7.9361393    736.72171   0.01682474  0.015896917            4 
 3650000   0.67650497   -7.9493301    736.22788  0.016808856  0.015891747            5 
 3651000   0.68305543   -7.9624206    737.10022  0.016824163  0.015886574           10 
 3652000   0.65534293   -7.9426979    735.28638  0.016778167  0.015881418            4 
 3653000   0.66504003    -7.955519    737.40753  0.016821962  0.015876267            9 
 3654000   0.68341413   -7.9509718    736.86865  0.016805069  0.015871108            5 
 3655000   0.67497794   -7.9449624    736.66532  0.016795835  0.015865942            4 
 3656000   0.67928031   -7.9484717    737.65566  0.016813814  0.015860792            3 
 3657000   0.66951316    -7.937842    736.23928  0.016776941  0.015855643            4 
 3658000    0.6629538   -7.9499916    737.11569   0.01679232    0.0158505            2 
 3659000   0.66570315   -7.9587646    735.66695  0.016754736  0.015845347            5 
 3660000   0.66973376    -7.949969     736.0308  0.016758443  0.015840211            3 
 3661000   0.68080122   -7.9593955    735.77272  0.016747991  0.015835062            4 
 3662000    0.6592834   -7.9468202    738.97466  0.016816281  0.015829922            4 
 3663000   0.66306598    -7.942896    736.88107  0.016764061  0.015824776            9 
 3664000   0.65783744   -7.9280931     736.2788  0.016745788  0.015819628            4 
 3665000   0.68207974   -7.9553454    735.58868  0.016725527  0.015814477            3 
 3666000   0.66097795   -7.9532947    735.06734  0.016709114  0.015809321           10 
 3667000   0.65719831    -7.941158    735.88606  0.016723163   0.01580418            9 
 3668000   0.68014094   -7.9531151     736.1244  0.016724019  0.015799043            9 
 3669000   0.66068644   -7.9468502    736.70224  0.016732585  0.015793914            3 
 3670000   0.65363204   -7.9473249    735.78908  0.016707291  0.015788782            4 
 3671000   0.67553816   -7.9363672    736.63756     0.016722   0.01578365            8 
 3672000   0.66616646   -7.9428557    736.91145  0.016723662  0.015778509            6 
 3673000   0.65273865   -7.9407208    735.93269  0.016696903  0.015773379            5 
 3674000   0.65147727   -7.9273384    736.04325  0.016694866  0.015768256            4 
 3675000   0.66834448   -7.9338588    736.13469  0.016692397  0.015763128            3 
 3676000   0.66573442   -7.9516359    735.30485  0.016669044  0.015758011            2 
 3677000   0.67092472   -7.9491727    735.63824  0.016672066   0.01575288            3 
 3678000   0.67399192   -7.9324507    736.40442  0.016684893   0.01574775            5 
 3679000   0.66899678   -7.9427354    735.09502  0.016650698   0.01574261            4 
 3680000   0.65735014   -7.9451958    735.29445  0.016650689  0.015737489            3 
 3681000   0.66900755   -7.9597142    736.48411  0.016673099  0.015732353            5 
 3682000   0.68197363   -7.9545645    733.83684  0.016608656  0.015727217            3 
 3683000   0.65470765   -7.9532818    735.35242  0.016638438  0.015722082            3 
 3684000    0.6700302    -7.945163    735.82155  0.016644534  0.015716951            4 
 3685000    0.6450516   -7.9445956    736.14877  0.016647417  0.015711828            3 
 3686000   0.66274725    -7.945892    735.53088  0.016628931  0.015706694            5 
 3687000   0.67281139   -7.9491833    735.01972  0.016612868   0.01570155            6 
 3688000    0.6604021   -7.9695461    735.86753   0.01662752  0.015696418            2 
 3689000   0.67822796   -7.9645557    737.07458   0.01665028  0.015691266            3 
 3690000   0.66133909   -7.9728339    736.20446  0.016626117  0.015686123            5 
 3691000   0.65077374   -7.9712144    735.01214  0.016594693  0.015680975            4 
 3692000   0.66207697    -7.945623     735.7303  0.016606408  0.015675841            4 
 3693000   0.68296022   -7.9840948    735.16025  0.016589048  0.015670696            5 
 3694000   0.65662202    -7.984275    735.26536  0.016586928  0.015665552            2 
 3695000   0.67197196   -7.9546178    736.30606   0.01660591   0.01566041            2 
 3696000   0.65069442    -7.970909    733.05281  0.016528067  0.015655268            3 
 3697000   0.66576886   -7.9621028    734.84071  0.016563897  0.015650125            4 
 3698000   0.64986917   -7.9832829    734.15432   0.01654395  0.015644986            4 
 3699000   0.64985349   -7.9556213    736.20238  0.016585617  0.015639842            4 
 3700000   0.64868934   -7.9610464    735.36904  0.016562366  0.015634713            3 
 3701000   0.65978816     -7.96162    735.79306  0.016567438  0.015629591            2 
 3702000   0.65241534   -7.9601554    735.93887  0.016566245  0.015624478            2 
 3703000   0.65977754   -7.9549242    735.48611  0.016551582  0.015619343            2 
 3704000   0.66785513   -7.9709266    735.08744  0.016538144  0.015614219            5 
 3705000   0.65755472   -7.9562256    735.84917  0.016550814  0.015609085            3 
 3706000   0.67386278   -7.9687585    734.85267   0.01652394  0.015603956            3 
 3707000   0.64933965   -7.9461542    736.41578  0.016554621  0.015598824            6 
 3708000   0.65632847   -7.9541092    734.66435  0.016510795  0.015593697            2 
 3709000   0.66516336   -7.9398978     735.6327  0.016528101  0.015588574            6 
 3710000   0.63616397   -7.9609129    735.79712  0.016527339  0.015583456            2 
 3711000   0.67153202   -7.9913428    734.92015  0.016503192  0.015578327            4 
 3712000   0.65446721    -7.975956    735.34243  0.016508226  0.015573195            2 
 3713000   0.64060579   -7.9862624      735.189  0.016500337  0.015568068            3 
 3714000   0.64634336   -7.9677268    734.70169   0.01648496  0.015562939            1 
 3715000   0.66368398   -7.9553193    736.68967  0.016525116   0.01555782            5 
 3716000   0.66799179   -7.9743093    734.18537  0.016464509  0.015552701            8 
 3717000   0.65850496   -7.9741877    736.92605  0.016521524  0.015547584            4 
 3718000   0.64681713   -7.9593707    733.68219  0.016444374  0.015542465            5 
 3719000   0.65358448   -7.9705664    735.29086  0.016475998  0.015537339            3 
 3720000   0.67116963   -7.9966542    736.62829   0.01650153  0.015532218            6 
 3721000   0.64678279    -8.007975    733.83857  0.016434618  0.015527093            2 
 3722000   0.66077763   -7.9651558    735.21593  0.016461041  0.015521969            3 
 3723000   0.67804899   -7.9538992    735.65623  0.016466475  0.015516857            3 
 3724000   0.66509291   -7.9549296    736.15959  0.016473317  0.015511746            4 
 3725000   0.65935824   -7.9636258    734.43568  0.016430328   0.01550663            4 
 3726000   0.65373488    -7.952569    735.78544  0.016456107  0.015501526            3 
 3727000   0.65116124   -7.9766084    735.04388   0.01643511  0.015496433            4 
 3728000   0.65065889   -7.9718913    734.96115  0.016428853  0.015491335            6 
 3729000   0.65810585   -7.9607743    735.85482  0.016444418  0.015486239            3 
 3730000   0.64631412   -7.9727451    734.31144  0.016405528  0.015481134            5 
 3731000   0.64615611   -7.9765303    735.69173   0.01643196  0.015476026            2 
 3732000   0.65272619   -7.9872159    734.18271  0.016393862  0.015470909            6 
 3733000   0.64811533    -7.980151    734.26944  0.016391406  0.015465799            3 
 3734000   0.63562262   -7.9920738      736.109  0.016428071  0.015460696            2 
 3735000   0.65208098   -7.9856416    735.17881  0.016402918  0.015455598            3 
 3736000   0.65438579   -7.9610864     735.9929  0.016416687  0.015450503            3 
 3737000   0.65436709    -7.996668    734.60416  0.016381325  0.015445405            3 
 3738000   0.65529674   -7.9865535    733.88758  0.016360968   0.01544031            2 
 3739000   0.64270994   -7.9732174    733.98854  0.016358842  0.015435223            3 
 3740000   0.64443595   -8.0075351    734.91368  0.016375082  0.015430146            3 
 3741000   0.65984908   -7.9927886    736.05277  0.016396079  0.015425071            4 
 3742000   0.64908804   -7.9822717    734.84178  0.016364729  0.015420001            5 
 3743000   0.65273679   -7.9815324    733.94955  0.016340492  0.015414923            3 
 3744000   0.66294687    -7.988528    733.65657  0.016329607  0.015409834            2 
 3745000   0.65949431   -7.9851073    734.27532  0.016339015  0.015404752            3 
 3746000   0.66613475   -7.9811508    734.39827  0.016337388  0.015399671            6 
 3747000   0.64198296   -7.9732304    734.75919  0.016341055  0.015394601            5 
 3748000   0.67507818   -7.9732156    736.13009  0.016367176  0.015389547            4 
 3749000   0.64067561   -7.9890123    734.19896  0.016319884  0.015384476            4 
 3750000    0.6375633   -7.9824663    735.12638  0.016336142  0.015379409            4 
 3751000   0.65790218   -8.0051388    735.53854  0.016340943  0.015374345            2 
 3752000   0.66270229   -7.9476062    735.91513  0.016344952   0.01536929            2 
 3753000   0.65522382   -7.9846316     735.0287  0.016320914  0.015364257            4 
 3754000   0.64760003   -7.9716708     734.3748  0.016302051   0.01535923            2 
 3755000   0.66129906   -7.9684021    736.33802  0.016341279  0.015354193            3 
 3756000   0.65240754   -7.9750284    735.79133  0.016324799  0.015349155            3 
 3757000   0.66164017   -7.9729017    736.37391  0.016333376   0.01534411            4 
 3758000    0.6578392   -7.9768498    736.03791  0.016321579  0.015339088            5 
 3759000   0.63536031   -7.9696948    736.89218  0.016336175  0.015334072            3 
 3760000   0.65212207   -7.9680113    735.85326  0.016308805  0.015329045            3 
 3761000   0.63975053   -7.9786047     734.8454  0.016282137  0.015324012            5 
 3762000    0.6530297   -7.9830081     735.7526  0.016297904  0.015318998            4 
 3763000   0.64233724    -7.966914     734.7973  0.016272418  0.015313974            4 
 3764000   0.64714221   -7.9872888    735.48855  0.016283399  0.015308951            2 
 3765000   0.64021345   -8.0014312    736.22785  0.016295437  0.015303911            5 
 3766000   0.64809099   -8.0023429     735.1144  0.016266472  0.015298877            6 
 3767000   0.66131595   -7.9775049    735.58807  0.016272632  0.015293846            4 
 3768000   0.64308829   -7.9941085    737.10155  0.016301786   0.01528881            4 
 3769000   0.65460831   -8.0011041    736.73819  0.016289427  0.015283778            5 
 3770000   0.64313447   -7.9799448    734.85908  0.016243569  0.015278756            5 
 3771000   0.64158616   -8.0140056    736.78478  0.016281817   0.01527374            3 
 3772000   0.65356635   -7.9942003    733.96726  0.016215254  0.015268719            4 
 3773000   0.65533135   -7.9842519    735.53324  0.016245544   0.01526369            4 
 3774000   0.64549758   -7.9976148     734.2292  0.016212445  0.015258681            4 
 3775000   0.65950765   -8.0023447    736.22538  0.016252216  0.015253663            4 
 3776000   0.65653306   -8.0145635      735.009  0.016221067  0.015248643            4 
 3777000   0.66499362   -8.0003092    735.53953  0.016228478   0.01524361            4 
 3778000   0.66021605   -8.0155358    737.32122  0.016263482  0.015238587            2 
 3779000   0.65092473   -7.9891596    735.01169  0.016208249  0.015233567            6 
 3780000   0.63211662   -8.0141924    735.32642    0.0162109  0.015228545            4 
 3781000   0.64708312   -7.9986192     735.6978  0.016214798  0.015223523            8 
 3782000   0.63889658     -8.01804    735.04199   0.01619606  0.015218515            9 
 3783000   0.65001842   -8.0323683     735.5333  0.016202602  0.015213487            2 
 3784000   0.65941572   -8.0109906    736.19826  0.016212964  0.015208464           12 
 3785000    0.6382855   -8.0033744    736.07363  0.016205936  0.015203446            5 
 3786000   0.64336179   -8.0096114    734.83268  0.016174341  0.015198428            3 
 3787000   0.64234181   -8.0191289    733.88045  0.016149116  0.015193418            4 
 3788000   0.64751555   -8.0113644    736.10559  0.016193805  0.015188411            2 
 3789000   0.64802415    -8.019431    734.26807  0.016149117   0.01518341            4 
 3790000   0.64510519    -7.999267    735.87371  0.016180161  0.015178411            5 
 3791000   0.64978472   -8.0220485    734.80352  0.016152368  0.015173422            8 
 3792000   0.65881268   -8.0120845    734.89123  0.016150036   0.01516844            1 
 3793000    0.6431233   -7.9984884     735.8282  0.016166364  0.015163455            2 
 3794000   0.64171969   -8.0018875     734.9779  0.016143426  0.015158473            4 
 3795000   0.64343704   -8.0146593    735.23446  0.016144806  0.015153482            3 
 3796000   0.65239337    -7.999782    736.55937  0.016169638  0.015148491            5 
 3797000   0.63769901   -8.0289754    734.97344  0.016130573  0.015143503            3 
 3798000   0.65449249   -8.0131335    734.72443  0.016120863  0.015138518            4 
 3799000   0.64723618   -8.0034758    735.47199  0.016133017  0.015133541            4 
 3800000   0.65574939   -8.0203794     736.5558  0.016152539  0.015128557            3 
 3801000   0.64108443    -8.012447    735.89857  0.016133881  0.015123582            5 
 3802000   0.63921994   -8.0271216    734.27308  0.016094009  0.015118599            5 
 3803000   0.65072929   -8.0044318    735.86015  0.016124554  0.015113624            5 
 3804000   0.66634341   -8.0178463    735.33517  0.016108815  0.015108649            6 
 3805000   0.65366077   -8.0050258    736.08943    0.0161211  0.015103678            4 
 3806000   0.65279779   -7.9930358    736.56393  0.016127254  0.015098711            3 
 3807000   0.64727539   -8.0170293    735.71874  0.016104517  0.015093726            5 
 3808000   0.63186072   -8.0104874    734.70861  0.016078182  0.015088753            5 
 3809000   0.63675474   -8.0052755    734.75909  0.016075066  0.015083781            3 
 3810000   0.64202932    -8.010014    734.10809  0.016056607  0.015078815            3 
 3811000   0.63875131   -8.0105134    734.25387  0.016055582  0.015073842            3 
 3812000   0.64387596   -8.0363417     736.1185  0.016092132  0.015068866            7 
 3813000   0.65196574   -8.0129473    735.44975  0.016073296  0.015063901            5 
 3814000    0.6456103    -8.012542    735.76895  0.016076056  0.015058943            5 
 3815000   0.65330338   -8.0094179    736.69035  0.016091969  0.015053982            3 
 3816000   0.64197473   -8.0166382    734.68428  0.016043944  0.015049024            5 
 3817000   0.63814373   -8.0158205     734.9337  0.016045186  0.015044075            2 
 3818000   0.62677467    -8.012716    735.60569  0.016055651  0.015039127            2 
 3819000   0.62521302   -8.0248455    735.68199  0.016053111  0.015034162            5 
 3820000   0.64693486   -8.0163771    734.90916   0.01603205  0.015029203            8 
 3821000   0.63651407   -8.0139591    735.21442  0.016034511  0.015024241            5 
 3822000   0.63957713     -8.04736    734.84348  0.016022228  0.015019277            4 
 3823000   0.62323987   -8.0311323    734.82796  0.016017699  0.015014317            4 
 3824000   0.62639827   -8.0115608    734.93315  0.016015803  0.015009357            4 
 3825000   0.64939408   -8.0347797    734.72064  0.016006986  0.015004389            5 
 3826000   0.63850341   -8.0238735    734.39541  0.015995718  0.014999433            5 
 3827000    0.6397587   -8.0132362    735.46989  0.016014935  0.014994474            5 
 3828000   0.64713618   -8.0512745    735.05715  0.016001767  0.014989527            3 
 3829000   0.63924474   -8.0502094    733.51402  0.015964003  0.014984576            5 
 3830000   0.64673547   -8.0131087    735.06482  0.015993577  0.014979619           19 
 3831000   0.63704939   -8.0433754    733.62706  0.015958128   0.01497467            6 
 3832000   0.64771562   -8.0323363    735.35494  0.015991539  0.014969722            6 
 3833000   0.64894445   -8.0246156    733.89887  0.015955711  0.014964775            2 
 3834000   0.65525608   -8.0387083    734.65883  0.015968067  0.014959815            6 
 3835000   0.64609556   -8.0224386    734.00203  0.015949631  0.014954869            3 
 3836000   0.62595639   -8.0245061    734.49301  0.015956139  0.014949926            5 
 3837000   0.63897602   -8.0129794    733.68763  0.015934489  0.014944981            5 
 3838000   0.65282451   -8.0203702    734.87227  0.015956059  0.014940043            3 
 3839000     0.638468   -8.0091452    735.98124  0.015975976  0.014935108            3 
 3840000   0.63548596   -8.0150764    734.68741  0.015943737  0.014930168            3 
 3841000   0.63576167   -8.0437074     734.0219  0.015925148  0.014925233            2 
 3842000   0.62637213   -8.0309322    736.04853   0.01596496  0.014920292            3 
 3843000   0.61801925    -8.005497     736.0425  0.015960675  0.014915378            5 
 3844000   0.64215591   -8.0164971     736.4989  0.015966417  0.014910459            6 
 3845000   0.62942626   -8.0033791    735.27882  0.015935822  0.014905541            3 
 3846000   0.63068691   -8.0224055    735.60189  0.015938678  0.014900627            3 
 3847000    0.6229084   -8.0032507    735.13114  0.015924338  0.014895702            7 
 3848000   0.63329761   -8.0280659    734.71026  0.015911085  0.014890784            2 
 3849000   0.64056232   -8.0164587    734.09841  0.015893704  0.014885859            2 
 3850000   0.65283014   -8.0115236    734.82303   0.01590526  0.014880945            3 
 3851000    0.6177092   -8.0400891    734.86909  0.015902127  0.014876027            4 
 3852000   0.63584379   -8.0450043    735.29786  0.015907275  0.014871104            4 
 3853000   0.61868278   -8.0189864    733.56787  0.015865729  0.014866185            5 
 3854000   0.62893309   -8.0142393    735.96187  0.015913377  0.014861278            5 
 3855000   0.63683357   -8.0350714    734.55842  0.015878911  0.014856371            9 
 3856000    0.6409748    -8.035981    736.63524  0.015919676   0.01485147            7 
 3857000   0.65004489   -8.0502478    734.72175  0.015874206  0.014846556            6 
 3858000   0.62779852   -8.0337824    733.47271  0.015843112  0.014841653            3 
 3859000   0.64208198   -8.0122473    733.85135  0.015847183  0.014836742            3 
 3860000   0.64371164   -8.0245976    734.64254  0.015860159   0.01483184            4 
 3861000   0.63388857   -8.0364113    734.34575  0.015849645  0.014826935            8 
 3862000    0.6433308   -8.0409884    734.68485  0.015852858   0.01482203            3 
 3863000   0.63880567   -8.0461953    734.04291  0.015834906  0.014817125            8 
 3864000   0.64250006   -8.0645114    734.94027  0.015850161  0.014812225            5 
 3865000     0.630831   -8.0396885    735.75141  0.015863549   0.01480733            4 
 3866000   0.63402278   -8.0380221     734.5927  0.015834469  0.014802436            7 
 3867000   0.64156388    -8.026169    733.23915  0.015801206  0.014797537            8 
 3868000   0.63085755   -8.0304059    735.25908  0.015840639  0.014792642            7 
 3869000   0.63921089   -8.0589039    735.02401  0.015831481  0.014787753            4 
 3870000   0.62446101   -8.0168836    734.77271  0.015821979  0.014782862           12 
 3871000   0.62926563    -8.030239    733.54169  0.015791391  0.014777974            7 
 3872000   0.62969258   -8.0318597    734.13652  0.015800115  0.014773085           13 
 3873000   0.62886166    -8.024414    735.25621  0.015820127    0.0147682            7 
 3874000   0.62897271   -8.0369638    734.03085  0.015789684  0.014763318            4 
 3875000   0.64360908   -8.0476599    733.61569  0.015776682   0.01475842            7 
 3876000   0.64204091   -8.0316765    734.05181  0.015781988  0.014753525            4 
 3877000   0.63041687    -8.018964    735.06962  0.015799794  0.014748641            4 
 3878000    0.6254503   -8.0248328    734.84437  0.015790879  0.014743762            3 
 3879000   0.61785947   -8.0144252    734.28197  0.015774726  0.014738882            9 
 3880000    0.6238135   -8.0316179    733.83788  0.015761123  0.014734011           11 
 3881000   0.63917967   -8.0325302     734.1896  0.015764614  0.014729134            8 
 3882000   0.64191139   -8.0488085    735.03564  0.015778715  0.014724257            5 
 3883000   0.64750854    -8.052682    733.55682  0.015742914  0.014719387            4 
 3884000   0.63687001   -8.0367978    733.50502  0.015737749  0.014714511            5 
 3885000    0.6367434   -8.0406338    733.73767  0.015738689   0.01470963            6 
 3886000   0.61814344   -8.0312794    734.68688  0.015754994  0.014704753            8 
 3887000   0.63324548   -8.0199683      734.041  0.015737094  0.014699873            8 
 3888000   0.62868601   -8.0454952    734.94023   0.01575232  0.014694993            6 
 3889000   0.64595712   -8.0356149    734.54501  0.015739801   0.01469012            4 
 3890000   0.62731261   -8.0426633     733.4863  0.015713074   0.01468524            5 
 3891000   0.62900653   -8.0374674     733.6721  0.015713015  0.014680352            5 
 3892000   0.62881344   -8.0407084    733.71491  0.015709895  0.014675485            5 
 3893000     0.626638    -8.058335    734.57353  0.015724239  0.014670616            5 
 3894000   0.63644078   -8.0315161    733.69719  0.015701446  0.014665744            5 
 3895000   0.60962258   -8.0337386    735.11047  0.015727652  0.014660871            4 
 3896000   0.61323507   -8.0566331    732.99704   0.01567841  0.014656005            7 
 3897000   0.61986722   -8.0456004    734.77801  0.015712471  0.014651146            3 
 3898000   0.62748305   -8.0625696     734.4058  0.015700483  0.014646277            5 
 3899000   0.61390853    -8.021228    734.19733  0.015692001   0.01464141            4 
 3900000   0.63481766   -8.0453022    732.46325  0.015650924   0.01463654            5 
 3901000   0.63421582   -8.0462135    734.62621  0.015693117  0.014631674            5 
 3902000   0.62164227   -8.0521221    735.18146  0.015700954  0.014626808            7 
 3903000   0.62837299   -8.0486599    734.57814  0.015684049  0.014621951            2 
 3904000   0.64606052   -8.0380996    734.74497  0.015683593  0.014617096            3 
 3905000   0.63744914   -8.0486478    734.36421  0.015671451  0.014612243            3 
 3906000    0.6274057    -8.044526     734.9177  0.015679248   0.01460739            3 
 3907000   0.63724223   -8.0590655    733.27856  0.015640273  0.014602542            5 
 3908000   0.61749533   -8.0618715    734.27773  0.015657577  0.014597691            7 
 3909000   0.63283647   -8.0452896    733.17698  0.015630105  0.014592837            3 
 3910000   0.62133086   -8.0488542     733.0121  0.015622594  0.014587982            6 
 3911000   0.61217201    -8.049989    733.37823  0.015626401  0.014583136            3 
 3912000   0.61197959   -8.0445839    735.48307  0.015667243  0.014578297            4 
 3913000   0.61514301   -8.0623123    735.31267  0.015659611  0.014573452            2 
 3914000   0.61878917   -8.0516839    734.55216  0.015639417  0.014568602            3 
 3915000   0.61983564   -8.0481279    733.65693  0.015616367  0.014563759            2 
 3916000   0.61188212   -8.0449235     732.2315  0.015582046  0.014558917            3 
 3917000   0.61052242     -8.05144    732.94277    0.0155932  0.014554079            5 
 3918000   0.63421929   -8.0558484    733.66012  0.015604478  0.014549243            5 
 3919000   0.62539512   -8.0521133    733.53999  0.015597941  0.014544402            2 
 3920000    0.6305962   -8.0337342    732.89055  0.015580156  0.014539564            3 
 3921000   0.62913651   -8.0455491    733.05407  0.015579658  0.014534738            3 
 3922000   0.62086312   -8.0464509    735.40053  0.015625543  0.014529914            4 
 3923000   0.62278706   -8.0611165    732.61449  0.015562378  0.014525078            3 
 3924000   0.63218582   -8.0332487     734.2252  0.015592618  0.014520248            4 
 3925000    0.6430302   -8.0581938    733.25351  0.015568015  0.014515416            4 
 3926000   0.63096113   -8.0541281    732.71873  0.015552698  0.014510582            8 
 3927000   0.62029351   -8.0679073    732.47957  0.015543663  0.014505756            3 
 3928000    0.6231732   -8.0571658    732.89478  0.015548515  0.014500929           10 
 3929000   0.62121039   -8.0598842     734.9943  0.015589087  0.014496101            2 
 3930000   0.60288889   -8.0491029     732.5541  0.015533378  0.014491276            6 
 3931000   0.62296935   -8.0430845    733.79978  0.015555834  0.014486452            3 
 3932000   0.61548089   -8.0542556    734.21496  0.015560676  0.014481637            4 
 3933000   0.63166228   -8.0675271    732.99712  0.015530916  0.014476828            2 
 3934000   0.62855126    -8.058802    732.89037  0.015524707  0.014472006            2 
 3935000   0.62876789   -8.0517478    732.34715  0.015509258  0.014467198            5 
 3936000   0.62080559   -8.0324706    733.39143  0.015527427  0.014462389            2 
 3937000   0.62954061   -8.0687178    733.58028   0.01552748  0.014457583            5 
 3938000   0.61476433   -8.0513993    733.53511  0.015522581  0.014452781            7 
 3939000   0.62197025   -8.0652643    733.68186  0.015521745  0.014447992            2 
 3940000   0.61720632   -8.0708812    734.56514  0.015536488  0.014443196            5 
 3941000    0.6162828   -8.0508352    733.98637  0.015520307  0.014438415            3 
 3942000   0.61249598   -8.0446251    734.25671  0.015522085  0.014433627            6 
 3943000   0.60942831   -8.0528984    734.53845  0.015524103  0.014428836            2 
 3944000   0.62111584   -8.0718891    734.55983  0.015520618  0.014424055            2 
 3945000   0.62721999   -8.0403654    733.50242  0.015494348  0.014419276            4 
 3946000   0.62496794   -8.0528313    735.01409  0.015522345  0.014414491            3 
 3947000   0.62512257   -8.0631903    733.66398  0.015489908  0.014409713            3 
 3948000   0.60568214   -8.0593411    734.80863  0.015510145  0.014404936            6 
 3949000   0.62409065   -8.0580144    734.23457  0.015494103  0.014400164            4 
 3950000   0.60778244   -8.0189714    735.21637  0.015510894  0.014395398            3 
 3951000   0.61240144   -8.0576096    733.92261   0.01547968  0.014390632            5 
 3952000   0.60921059    -8.053831    733.13637  0.015459185   0.01438586            4 
 3953000    0.6158436     -8.04079    735.83883  0.015512244  0.014381096            5 
 3954000   0.61039623   -8.0265321    734.07705   0.01547119  0.014376339            2 
 3955000   0.61557449   -8.0675663    733.64979  0.015458276  0.014371583            4 
 3956000   0.60412667   -8.0309256    733.81141  0.015457773  0.014366826            3 
 3957000   0.61653272    -8.048373    735.00838  0.015479075  0.014362069            5 
 3958000   0.61678802   -8.0389517     733.9082     0.015452  0.014357324            4 
 3959000   0.61535174    -8.060421    734.12076  0.015452571  0.014352573            3 
 3960000   0.61595658   -8.0587208    733.62119  0.015438156  0.014347821            7 
 3961000    0.6139112   -8.0392725    733.64519  0.015434764  0.014343068            5 
 3962000   0.61121748   -8.0564934    735.23515   0.01546431  0.014338319            6 
 3963000   0.61380286   -8.0604653    734.77017   0.01545063  0.014333568            3 
 3964000   0.62245215   -8.0731722    734.29874  0.015436822  0.014328815            4 
 3965000   0.63752698   -8.0409583     732.6724  0.015398747  0.014324063            3 
 3966000   0.61010699   -8.0739049    733.49634  0.015412177  0.014319313            4 
 3967000   0.60822527   -8.0445097    733.95868  0.015418004  0.014314556            4 
 3968000   0.61672783   -8.0587023     734.5782  0.015427129  0.014309797            5 
 3969000   0.61358689   -8.0604628    732.91969  0.015388421   0.01430504            3 
 3970000   0.62104572   -8.0645294    732.94366  0.015385047  0.014300288            6 
 3971000   0.61308868   -8.0616602    733.86158  0.015400436   0.01429553            3 
 3972000   0.62045267   -8.0811704    734.26228  0.015404966  0.014290776            4 
 3973000   0.61373501   -8.0791179    734.09475  0.015397574   0.01428602            3 
 3974000   0.60799352   -8.0679139    734.34377  0.015398921  0.014281271            7 
 3975000   0.61846167   -8.0667976    733.77012  0.015383021  0.014276522            9 
 3976000   0.61394445   -8.0695655    732.70224  0.015356771  0.014271772            5 
 3977000    0.6098178   -8.0892611    732.78545  0.015354653  0.014267013            7 
 3978000   0.61477375   -8.0814952    732.73238  0.015349681  0.014262262            3 
 3979000   0.61509101   -8.0782911    732.09532  0.015332481  0.014257512            4 
 3980000   0.60963817   -8.0509472    734.17372  0.015372146  0.014252763            3 
 3981000   0.60671328   -8.0737926    732.04223  0.015323667  0.014248009            6 
 3982000   0.62347511   -8.0845653    734.02222  0.015361255  0.014243262            7 
 3983000   0.61122907   -8.0737393    732.19498  0.015319169  0.014238509            3 
 3984000   0.61323144   -8.1047027    733.40641  0.015340663  0.014233764            5 
 3985000   0.62913071   -8.0478581      732.233  0.015312275  0.014229023            3 
 3986000   0.61845281   -8.0652393    733.84754  0.015342188  0.014224283            6 
 3987000   0.60817095    -8.070301    734.56138   0.01535326  0.014219545            6 
 3988000   0.61021187   -8.0619194    732.47389   0.01530579  0.014214794            5 
 3989000   0.61602254   -8.0743837    733.11144  0.015315272  0.014210058            7 
 3990000   0.61630611   -8.0669482    732.63332  0.015301448  0.014205318            3 
 3991000   0.62079742   -8.0795743    731.69669  0.015278057  0.014200577            4 
 3992000   0.61686336   -8.0841018    732.97399  0.015300893  0.014195844            5 
 3993000   0.62640427   -8.0794442    734.41106  0.015327053  0.014191115            4 
 3994000   0.60091497   -8.0760711    733.29578  0.015299945  0.014186381           10 
 3995000   0.61314465   -8.0897656    732.44656  0.015278401  0.014181644            4 
 3996000   0.61752457   -8.0865374    733.32571  0.015292912  0.014176915            3 
 3997000   0.60631749   -8.0998769    732.04625   0.01526241  0.014172179            5 
 3998000   0.61848689   -8.0949289    733.26953  0.015284091  0.014167444            4 
 3999000   0.62017338   -8.0875426    732.26556  0.015259347  0.014162709            3 
 4000000   0.61820391   -8.1047606    733.36083  0.015278351  0.014157972            6 
 4001000   0.60209905   -8.1167587    732.42552  0.015255051  0.014153238            7 
 4002000   0.60598667    -8.109718    732.10716   0.01524461  0.014148505            4 
 4003000   0.62353026   -8.0821292     733.5531  0.015270903  0.014143782            4 
 4004000   0.60853304   -8.0892689    733.77626  0.015271734  0.014139048            7 
 4005000   0.59207294   -8.1033534    732.49632  0.015241288  0.014134323            5 
 4006000   0.60739373   -8.0888817     732.0815  0.015228855  0.014129588            8 
 4007000   0.61530946   -8.1184414    732.34775  0.015230591  0.014124859           10 
 4008000    0.6073118   -8.1001747    732.30063  0.015225812  0.014120131            5 
 4009000   0.60813081     -8.10399    734.07948   0.01525899  0.014115402            5 
 4010000   0.60736247    -8.095824    732.22357  0.015216616  0.014110676            6 
 4011000   0.61105487   -8.1002714    732.45095  0.015217546  0.014105955            4 
 4012000   0.60884536   -8.1208259    732.82493  0.015221522  0.014101235           10 
 4013000   0.60116285   -8.1025662      731.648  0.015193288   0.01409651            3 
 4014000    0.6007559    -8.101919    732.93041  0.015216127  0.014091788            2 
 4015000   0.60813445   -8.0979291    732.49429  0.015203285  0.014087069            3 
 4016000   0.60510226   -8.1325719    732.62755  0.015202265  0.014082351            3 
 4017000    0.6145122   -8.1115039    733.02334  0.015206691   0.01407763            3 
 4018000   0.61001355   -8.1198858    732.23175  0.015186489  0.014072906            4 
 4019000    0.6054637   -8.1024939    731.30654  0.015163526  0.014068184            4 
 4020000   0.60578532   -8.0982357    732.89639  0.015192711  0.014063468            5 
 4021000   0.60357196   -8.1160427    732.12207  0.015172885  0.014058757            3 
 4022000   0.60022996   -8.0856379    732.57174   0.01517843  0.014054044            3 
 4023000   0.60972178   -8.1099333    730.98964  0.015141885  0.014049333            5 
 4024000   0.61077301   -8.1078354    730.87314  0.015135709  0.014044623            7 
 4025000   0.61121941   -8.1182085      730.736   0.01512911  0.014039912            5 
 4026000   0.60030464   -8.1121399    731.29096  0.015136839  0.014035196            6 
 4027000   0.60831243   -8.1147705    731.24957  0.015132223  0.014030483            3 
 4028000   0.60799656   -8.1183708    732.00867  0.015144171  0.014025775            3 
 4029000    0.6058107   -8.1066406    730.85612  0.015116574  0.014021065            3 
 4030000   0.59712109   -8.1096966      733.127  0.015159781  0.014016355            5 
 4031000   0.60472193   -8.1214353    732.59708  0.015145065  0.014011654            3 
 4032000   0.60512502   -8.0968724    731.42568  0.015117098  0.014006947            3 
 4033000   0.60847431   -8.1281352     731.6398  0.015117774  0.014002241            3 
 4034000   0.59560895   -8.1068603    732.39279  0.015129582  0.013997543            4 
 4035000   0.59980436   -8.1153546    732.70083  0.015132194   0.01399285            5 
 4036000   0.59855134   -8.1108922    731.57446  0.015105188  0.013988153            3 
 4037000   0.61482535   -8.0973943    731.64465  0.015102895  0.013983459            3 
 4038000   0.60563215   -8.1265094    730.58052  0.015077194  0.013978758            4 
 4039000   0.61169369   -8.1103663    732.16551  0.015106163  0.013974059            3 
 4040000   0.60611608   -8.0812838    731.55165  0.015089762  0.013969364            3 
 4041000   0.60467454   -8.1143606    729.79639  0.015049831  0.013964666            9 
 4042000   0.60969819   -8.1107158    730.25217  0.015055504  0.013959977            2 
 4043000   0.60765521   -8.1100689     730.8589  0.015064286  0.013955286            4 
 4044000   0.60636438   -8.1055554    731.50777  0.015073932  0.013950592            3 
 4045000    0.6102121   -8.1025492    730.86657  0.015056996   0.01394591            8 
 4046000   0.59999004   -8.1074898    731.43052   0.01506489  0.013941218            4 
 4047000   0.60923154   -8.1132083    731.53162  0.015063249  0.013936537            2 
 4048000   0.60103442   -8.1263519    730.20309  0.015032178  0.013931861            5 
 4049000    0.5925866   -8.1166308    730.89079  0.015042619  0.013927184            6 
 4050000    0.5906273   -8.1162493    731.27314  0.015046772  0.013922506            2 
 4051000   0.59859348   -8.1126804    731.76111  0.015053096  0.013917838            5 
 4052000    0.6087984   -8.1158193      732.779  0.015070315  0.013913164            5 
 4053000   0.60613371   -8.0995977    731.47524   0.01503979  0.013908493            3 
 4054000   0.61058858   -8.0972752    731.25507  0.015031555  0.013903832            4 
 4055000   0.60248158   -8.1300685    731.05582  0.015023753  0.013899168            4 
 4056000    0.6122646   -8.1129614    731.37701  0.015026648  0.013894503            3 
 4057000    0.5952996   -8.1040723     730.6511  0.015008033  0.013889842            4 
 4058000   0.58675707    -8.105757    731.69082  0.015025686  0.013885188            4 
 4059000   0.59689603   -8.1170365    732.35667  0.015035655  0.013880528            6 
 4060000     0.592818   -8.1041962    731.84446  0.015021438   0.01387587            3 
 4061000   0.60628686   -8.1056191    731.59255   0.01501257   0.01387122            6 
 4062000   0.59546147   -8.0944655    731.09267  0.014998619  0.013866562            6 
 4063000   0.59624133   -8.1225937    730.78597  0.014988637  0.013861914            5 
 4064000    0.6157769   -8.0952232    730.98799  0.014989091  0.013857264            2 
 4065000   0.60578293   -8.0984342    731.15162  0.014988758  0.013852623            4 
 4066000   0.61815819   -8.1071921    732.04538   0.01500339  0.013847987            4 
 4067000   0.58893249   -8.0982316    730.71851  0.014972513  0.013843351            5 
 4068000    0.6130622   -8.0921165    732.33605  0.015001968  0.013838718            4 
 4069000   0.60048751   -8.1011645     732.7239  0.015006224   0.01383409            6 
 4070000   0.60065934   -8.1203139    731.58883  0.014979296  0.013829462            5 
 4071000   0.59482481   -8.1114071    732.38671  0.014991949  0.013824832            7 
 4072000    0.5978142   -8.1028139    731.57348  0.014971625  0.013820199            4 
 4073000    0.5892909   -8.1133703    730.78465   0.01495181  0.013815566            3 
 4074000   0.58992107   -8.1086799    731.35857  0.014959879  0.013810933            5 
 4075000   0.59655773   -8.1191345    731.74491  0.014964109  0.013806313            5 
 4076000   0.59360911   -8.1026194    730.78305  0.014940772  0.013801686            3 
 4077000   0.60689171   -8.1166393    732.37261  0.014969598  0.013797063            3 
 4078000   0.58523141    -8.115817    732.63299  0.014971248  0.013792435            3 
 4079000   0.58741133   -8.1164012    732.01659  0.014954985  0.013787813            2 
 4080000   0.61453573   -8.1184889    732.38738  0.014958892   0.01378319            2 
 4081000   0.59497255   -8.0945894    732.26822  0.014952794  0.013778577            4 
 4082000   0.59508028   -8.1215387     730.0334  0.014903507  0.013773953            5 
 4083000   0.58603449   -8.1213938    732.71079  0.014954502  0.013769334            5 
 4084000   0.59405282   -8.1092076    731.26526  0.014921345  0.013764722            2 
 4085000   0.60033031    -8.121576    732.17036  0.014936156  0.013760113            4 
 4086000   0.60359734   -8.1295923    731.60352   0.01492094  0.013755501            2 
 4087000   0.59995142   -8.1107614    730.63198   0.01489748  0.013750892            4 
 4088000   0.57870494   -8.1312025    731.78103  0.014917258  0.013746278            4 
 4089000   0.58603673   -8.1037769     731.1862  0.014901488  0.013741664            6 
 4090000   0.58712199   -8.1244484    731.53992  0.014905051  0.013737045            5 
 4091000   0.58114278   -8.1089479    731.76165  0.014905925   0.01373243            3 
 4092000   0.59147978   -8.1413671    731.94572   0.01490603   0.01372782            5 
 4093000   0.59930873   -8.1234206    730.55496  0.014874073  0.013723213            3 
 4094000   0.59858274    -8.125115    731.24665  0.014884519  0.013718605            3 
 4095000   0.59056608     -8.12553    731.95515  0.014895302  0.013713996            3 
 4096000   0.58571358   -8.1122345    730.42043  0.014860442  0.013709382            5 
 4097000   0.60735802   -8.1195984    730.38741  0.014856143  0.013704774            4 
 4098000   0.59714552   -8.1182304    732.69542  0.014899451  0.013700178            6 
 4099000   0.60207764   -8.1231997    730.38307  0.014848806  0.013695581            3 
 4100000   0.59835878   -8.1337639    730.76809   0.01485301  0.013690973            4 
 4101000   0.59803375   -8.1401981      731.413  0.014862493   0.01368637            3 
 4102000   0.58746633   -8.1386421    731.49569  0.014860549  0.013681768            9 
 4103000   0.59366081   -8.1366861    730.62064  0.014839155  0.013677173            3 
 4104000   0.58656672   -8.1300031    731.28742  0.014849079  0.013672575            5 
 4105000   0.60030464   -8.1072876    730.85651  0.014836714  0.013667978            4 
 4106000   0.59299205   -8.1173191    730.66621  0.014829238  0.013663388            5 
 4107000   0.58039428   -8.1292943    730.51908  0.014822642  0.013658796            5 
 4108000   0.58887007   -8.1312474    730.77967   0.01482432    0.0136542            4 
 4109000   0.60098411   -8.1413768    729.96952  0.014804282  0.013649609            5 
 4110000   0.58469032   -8.1370648     730.7537  0.014816579  0.013645023            5 
 4111000   0.60254449   -8.1153931    731.23499  0.014822732  0.013640439            3 
 4112000   0.59251891    -8.115867    731.49206  0.014824336  0.013635862            2 
 4113000   0.58545728    -8.136998    730.83617  0.014807443  0.013631285            4 
 4114000   0.58526791   -8.1154429    731.02885  0.014807747  0.013626714            3 
 4115000   0.58099988   -8.1239014    729.95385  0.014782379  0.013622135            3 
 4116000   0.60046043   -8.1349764     730.7194  0.014794287  0.013617562            3 
 4117000   0.57969604   -8.1205912     731.4282   0.01480504  0.013612991            3 
 4118000   0.58477372    -8.149321    730.19369  0.014776463   0.01360842            4 
 4119000   0.60241268   -8.1432795    731.04862  0.014790172  0.013603847            4 
 4120000   0.59437211   -8.1122444    731.13559  0.014788341  0.013599286            6 
 4121000   0.61026113   -8.1314664    731.81615  0.014798515  0.013594718            4 
 4122000   0.61079814    -8.130215    729.63787  0.014750887  0.013590156            5 
 4123000   0.58619091   -8.1472329    730.65141  0.014767795  0.013585592            3 
 4124000      0.58485   -8.1165017    731.71831  0.014785773  0.013581016            3 
 4125000   0.59528158    -8.117765    730.41215  0.014755801  0.013576446            3 
 4126000    0.5938349   -8.1275643    730.97617  0.014763616  0.013571885            5 
 4127000   0.59458176   -8.1197827     730.5602   0.01475164  0.013567328            5 
 4128000   0.58772224   -8.1449262    730.63696  0.014749616  0.013562766            3 
 4129000   0.59413734   -8.1392558    731.01234   0.01475362  0.013558209            4 
 4130000   0.59517212   -8.1434471    730.99823  0.014749763  0.013553652            2 
 4131000   0.59460407   -8.1429733    729.94448  0.014724935  0.013549099            3 
 4132000    0.5992693   -8.1212792    731.44143  0.014751562  0.013544544            3 
 4133000   0.59482896   -8.1448556    729.76985  0.014714288  0.013539993            5 
 4134000   0.59299736   -8.1452535     731.0771  0.014737081  0.013535442            5 
 4135000   0.58970324   -8.1404761    730.37016   0.01471927   0.01353089            4 
 4136000   0.59740937   -8.1547921    731.02379   0.01472888  0.013526337            5 
 4137000   0.59092467   -8.1360042    730.45247  0.014713812  0.013521789            7 
 4138000   0.57376151   -8.1289361    731.15778   0.01472446  0.013517241            3 
 4139000   0.58305683   -8.1288401    732.73229  0.014752603  0.013512689            4 
 4140000   0.59836734   -8.1281981    731.87617  0.014731807  0.013508147            5 
 4141000   0.57981105   -8.1166747    730.26982  0.014695923  0.013503615            5 
 4142000   0.58781282   -8.1399974    731.51135  0.014717354  0.013499081            6 
 4143000   0.59724515   -8.1557123     730.6143  0.014695758  0.013494546            4 
 4144000   0.59856795   -8.1478031    730.89643  0.014697885  0.013490015            5 
 4145000   0.58170725   -8.1589411    730.23309  0.014681003  0.013485481            5 
 4146000   0.58142554   -8.1357466    730.60409  0.014684919  0.013480955            6 
 4147000   0.57367446   -8.1378645    730.64859  0.014682272  0.013476431            4 
 4148000   0.58569231   -8.1543613    730.94142  0.014684615  0.013471917            4 
 4149000   0.60230751   -8.1409897    729.79378  0.014658026  0.013467402            3 
 4150000   0.58898326    -8.118213     731.2117  0.014682966  0.013462883            4 
 4151000   0.59511102   -8.1244561    730.99377  0.014675054  0.013458365            5 
 4152000   0.59078682   -8.1387142    731.47326  0.014681143  0.013453852            4 
 4153000   0.58449362   -8.1395671    731.33211  0.014674776  0.013449336            4 
 4154000   0.58984155   -8.1375053    731.39869  0.014672578  0.013444825            2 
 4155000   0.57691733    -8.125273    730.25982  0.014646206  0.013440311            6 
 4156000   0.58241681   -8.1320965    730.42732   0.01464604  0.013435792            5 
 4157000   0.58058644   -8.1555663    729.73734  0.014628685  0.013431285            3 
 4158000   0.57432287   -8.1505341    729.64087  0.014623234  0.013426779            5 
 4159000    0.5853029   -8.1458519    729.62993  0.014619499  0.013422272            3 
 4160000   0.57855828   -8.1294526    730.48756  0.014633164  0.013417762            4 
 4161000   0.58991054   -8.1403402    730.75022  0.014634908  0.013413268            3 
 4162000   0.57812244   -8.1356196    729.89195  0.014614207  0.013408771            3 
 4163000   0.59377668   -8.1523047    731.84416  0.014649775  0.013404273            7 
 4164000   0.58395484   -8.1569719    731.48779  0.014639125  0.013399776            3 
 4165000   0.59104182    -8.150149    730.56051  0.014617057  0.013395281            2 
 4166000   0.58687939    -8.142308    731.51363  0.014632614  0.013390789            4 
 4167000   0.57496077    -8.132552    731.08876  0.014620606  0.013386299            4 
 4168000   0.58495524   -8.1504999    730.50662  0.014605459  0.013381807            5 
 4169000   0.58633951   -8.1422305    731.20706  0.014615956  0.013377314            3 
 4170000    0.5661141   -8.1426795    730.81843  0.014604685  0.013372824            3 
 4171000   0.56963345   -8.1502701    730.32922  0.014591409  0.013368334            3 
 4172000   0.58511072   -8.1368913    731.67713  0.014614836  0.013363846            3 
 4173000   0.58895756   -8.1361681    729.66209  0.014571094  0.013359364            9 
 4174000   0.58720819   -8.1401221    729.98379  0.014574026  0.013354878            6 
 4175000   0.57913011   -8.1352596     730.7511   0.01458585  0.013350394            4 
 4176000   0.58961669   -8.1646852    730.27215    0.0145728  0.013345905            2 
 4177000   0.58447077   -8.1581656    729.66023  0.014557103  0.013341423            3 
 4178000   0.58273125   -8.1485053    729.19366  0.014544313  0.013336938            6 
 4179000   0.58845724   -8.1295435    730.31512  0.014563195  0.013332461            3 
 4180000   0.58863193   -8.1330804    730.95149  0.014572398  0.013327983            7 
 4181000   0.57408184   -8.1501545    729.71044  0.014544177   0.01332351            5 
 4182000   0.58274127   -8.1406157    730.59546  0.014558335  0.013319033            5 
 4183000   0.59487148   -8.1458133    729.29924  0.014529031  0.013314563            6 
 4184000   0.58707712   -8.1442793    730.92334  0.014557906  0.013310094            4 
 4185000   0.58630542   -8.1521102      730.266  0.014541338  0.013305628            5 
 4186000   0.59206235   -8.1613127    729.96196  0.014531812   0.01330116            3 
 4187000    0.5707966   -8.1624203    730.80877  0.014545195  0.013296692            5 
 4188000    0.5872994   -8.1753214    730.98365  0.014545202  0.013292223            5 
 4189000   0.57938624   -8.1651158    731.27663  0.014547558  0.013287759            7 
 4190000   0.59239177   -8.1567372    728.95663  0.014497944  0.013283293            5 
 4191000    0.5845685    -8.130541    729.86414   0.01451253  0.013278833            4 
 4192000   0.58956452   -8.1592282    730.23666  0.014516473  0.013274372            3 
 4193000   0.58453733   -8.1715194    730.82334  0.014524671  0.013269913            4 
 4194000   0.57770006    -8.136804    730.14931  0.014507815  0.013265459            6 
 4195000   0.58329154   -8.1612845    730.15937  0.014504556  0.013261006            5 
 4196000   0.56860188   -8.1677014    730.31301  0.014504151  0.013256554            5 
 4197000   0.58131104   -8.1463722     729.4224  0.014483012  0.013252101            2 
 4198000   0.57812149   -8.1716712    729.71313  0.014485333  0.013247653            3 
 4199000   0.60050019   -8.1245833    730.13982  0.014490351   0.01324321            3 
 4200000   0.58190778   -8.1515473    730.86914  0.014501372  0.013238774            6 
 4201000   0.58437579   -8.1557675    729.81545  0.014477018  0.013234335            4 
 4202000   0.58328332   -8.1517681    728.99929  0.014457387  0.013229896            5 
 4203000   0.57579783   -8.1674918    730.20519  0.014477857  0.013225464            3 
 4204000   0.57541471   -8.1591932    731.95515  0.014509101  0.013221033            3 
 4205000    0.5901794   -8.1724508    729.29635   0.01445296  0.013216598            4 
 4206000   0.57690626   -8.1503173    729.54051  0.014454361  0.013212162            7 
 4207000   0.56939321   -8.1677688     729.7363  0.014454804   0.01320773            3 
 4208000   0.57335553   -8.1556233    730.03349  0.014457254  0.013203303            5 
 4209000   0.58393802   -8.1687447    730.66531  0.014466328  0.013198884            6 
 4210000   0.56666469   -8.1555567    730.52724  0.014460159  0.013194462            4 
 4211000   0.58254152   -8.1447181    730.35308  0.014453279  0.013190044            2 
 4212000   0.57958473   -8.1431453    730.20206  0.014446859  0.013185625            1 
 4213000   0.58067003   -8.1737481     729.9576  0.014438595  0.013181206            6 
 4214000    0.5736511   -8.1698523    730.09313  0.014437849  0.013176789            5 
 4215000   0.57842936    -8.162064    729.90733   0.01443075  0.013172374            7 
 4216000   0.57292426   -8.1493484    729.82923  0.014425783  0.013167962            4 
 4217000   0.57265235   -8.1496337    730.38869  0.014433418  0.013163554            8 
 4218000   0.57119532   -8.1631243    729.97992   0.01442192  0.013159145            2 
 4219000   0.57666896   -8.1494634    730.02138  0.014419321  0.013154735            5 
 4220000   0.57414061   -8.1486596    729.69082  0.014409376  0.013150331            7 
 4221000   0.57807359   -8.1518601    729.24947  0.014397249  0.013145926            9 
 4222000   0.57632764   -8.1348137    730.26037  0.014413792   0.01314152            6 
 4223000   0.56642786   -8.1562916    730.02826  0.014405799  0.013137111            3 
 4224000   0.57778843   -8.1657607    730.02086  0.014402242  0.013132704            4 
 4225000    0.5837578   -8.1626807    730.66632  0.014411565    0.0131283            4 
 4226000   0.58718943   -8.1625315    730.14047  0.014397785    0.0131239            7 
 4227000   0.57487614   -8.1661755    731.43786  0.014419956  0.013119502            6 
 4228000   0.57577235   -8.1668082    729.62418  0.014380798    0.0131151            4 
 4229000    0.5787015   -8.1632339    729.52457  0.014375435    0.0131107            8 
 4230000     0.576847   -8.1703477    730.52989  0.014391842  0.013106302            5 
 4231000   0.56668906   -8.1814646    729.50497  0.014368253  0.013101902            3 
 4232000   0.58277471   -8.1890297    730.00437  0.014374692  0.013097514            5 
 4233000   0.57182972   -8.1581283      729.402  0.014359438  0.013093112            3 
 4234000    0.5954182   -8.1611647    730.24673  0.014372672  0.013088722            4 
 4235000   0.57079604   -8.1699801    729.66127  0.014357758   0.01308433            6 
 4236000   0.56626067   -8.1872114    730.20512  0.014365068   0.01307994            4 
 4237000   0.56431894   -8.1682555    728.81005  0.014334239  0.013075547            7 
 4238000   0.57173281   -8.1645552    729.20866  0.014338695   0.01307116            3 
 4239000   0.58016687   -8.1882436    730.29233  0.014356616  0.013066771            7 
 4240000   0.56930647   -8.1614455    729.37699   0.01433524  0.013062389            4 
 4241000   0.56695984   -8.1819533     728.6665  0.014317899  0.013058007            2 
 4242000   0.56200599   -8.1629062    729.40829  0.014329096  0.013053624            2 
 4243000   0.57694754   -8.1672422    730.17569   0.01434079  0.013049246            4 
 4244000     0.581867    -8.148627    729.83704  0.014330762  0.013044875            5 
 4245000   0.57227617   -8.1821498    729.86313  0.014327898    0.0130405            6 
 4246000   0.57736054   -8.1757195    729.84379  0.014324144  0.013036128            7 
 4247000   0.56067991   -8.1708124    729.32964  0.014310683  0.013031756            7 
 4248000   0.57519496   -8.1642926    728.08222  0.014282843  0.013027386            3 
 4249000    0.5735701   -8.1820007     729.5792  0.014308841  0.013023011            4 
 4250000   0.57698899   -8.1694631    729.49857  0.014303893   0.01301864            4 
 4251000   0.57341399   -8.1562241    729.16698  0.014294028  0.013014268            4 
 4252000   0.57435166   -8.1588794    729.71257   0.01430136  0.013009903            2 
 4253000   0.57444599   -8.1990573    729.54102  0.014294636  0.013005538            4 
 4254000   0.57767793   -8.1693411    729.45318  0.014289555  0.013001169            3 
 4255000   0.56819365   -8.1815954    729.03984  0.014278101  0.012996802            5 
 4256000   0.57373954   -8.1704646    727.80017  0.014250473   0.01299244            5 
 4257000   0.57008715   -8.1810902     728.9486  0.014269607  0.012988075            7 
 4258000   0.56592989    -8.175723    728.08835   0.01424942  0.012983711            6 
 4259000   0.57774654   -8.1816772    729.14354   0.01426672   0.01297935            3 
 4260000   0.56114364   -8.1981398    729.78953  0.014276008  0.012974987            3 
 4261000   0.56767483   -8.1854294    728.46742  0.014246801  0.012970623            3 
 4262000   0.57291572   -8.1776966    728.57025  0.014245469  0.012966268            6 
 4263000   0.56848524   -8.1937365    728.04548  0.014231869   0.01296191            3 
 4264000   0.57307794   -8.1788568    728.70586  0.014241437   0.01295755            3 
 4265000   0.58548931   -8.1779739    728.63232  0.014236661  0.012953195            4 
 4266000    0.5697118    -8.188821    729.91385  0.014258358  0.012948841            7 
 4267000   0.57293246   -8.1711196     728.6214  0.014229775   0.01294449            4 
 4268000   0.57784374   -8.1847788    727.58583  0.014206221  0.012940141            5 
 4269000   0.57420664   -8.1804705    728.80891  0.014226769  0.012935789            4 
 4270000   0.58302334   -8.1686995    730.60403  0.014258471   0.01293144           10 
 4271000   0.56087073   -8.1980728    729.50226  0.014233635  0.012927096            5 
 4272000   0.57817275   -8.1683499    728.96644  0.014219851  0.012922748            2 
 4273000   0.57694846   -8.1653231    728.90211  0.014215269  0.012918402            5 
 4274000   0.56558902   -8.1699198    730.20528  0.014237352  0.012914053            8 
 4275000   0.57082914   -8.1825033    728.93792  0.014209316   0.01290971            5 
 4276000    0.5657485    -8.180124     729.1915  0.014210935  0.012905368            4 
 4277000   0.57315479   -8.1961814    728.63853  0.014196838  0.012901033            4 
 4278000   0.56465301   -8.1916697    727.27351   0.01416693  0.012896695            3 
 4279000     0.570693   -8.1787662    728.49045  0.014187319  0.012892363            6 
 4280000   0.57492758   -8.1962459    729.66022   0.01420678  0.012888034            3 
 4281000   0.56793004   -8.1956157    728.93105  0.014189267  0.012883703            5 
 4282000   0.57654132   -8.1800176    728.69833  0.014181425  0.012879374            5 
 4283000   0.56706826   -8.1746349    728.54652   0.01417516  0.012875044            5 
 4284000   0.55751595   -8.1915451    728.34631  0.014167957  0.012870715            2 
 4285000    0.5628314   -8.2109393    728.59832  0.014169551  0.012866389            3 
 4286000   0.56986229   -8.1792216    729.19768  0.014177899  0.012862063            2 
 4287000   0.57140578   -8.1956482    728.92109  0.014169215  0.012857742            3 
 4288000   0.56734067   -8.1983641    728.17986  0.014151505  0.012853427            2 
 4289000   0.55323122    -8.196695    729.88085  0.014181255  0.012849103            6 
 4290000   0.56873197   -8.1751497    728.97982  0.014160447   0.01284478            5 
 4291000   0.57384886   -8.1829448    729.35884  0.014164508  0.012840465            4 
 4292000   0.56156315    -8.178759    728.11157  0.014136991  0.012836154            5 
 4293000   0.55380227    -8.191809    729.35368  0.014157809  0.012831846            6 
 4294000   0.57650457   -8.1996469    728.80755  0.014143913  0.012827541            5 
 4295000   0.56485353   -8.1969084    728.62593  0.014137096  0.012823238            3 
 4296000   0.55722308   -8.1788966    727.77956  0.014117387  0.012818934            2 
 4297000   0.57454381   -8.1979673    729.99482  0.014157064  0.012814632            8 
 4298000   0.55969439   -8.1993443    729.25728  0.014139469  0.012810332            3 
 4299000   0.56673593   -8.2069942    727.86568  0.014109205  0.012806032           10 
 4300000   0.56662643   -8.2031281    727.64943  0.014101733  0.012801734            8 
 4301000   0.57521344   -8.1964303    728.54748  0.014115854  0.012797442            8 
 4302000   0.57171003   -8.1765734    729.97461  0.014140218  0.012793151            3 
 4303000   0.55707876   -8.1889642    729.39235  0.014125656  0.012788859            8 
 4304000   0.56447355   -8.1818971    728.00877  0.014095585  0.012784565            5 
 4305000   0.55421771   -8.1818734    729.43037  0.014119829  0.012780273            3 
 4306000   0.57154728   -8.1837335    729.72882  0.014122326   0.01277599            4 
 4307000   0.55242466   -8.1968479    728.50044   0.01409528  0.012771712            5 
 4308000   0.56845052   -8.1896668    729.05829  0.014102799  0.012767431            8 
 4309000    0.5631894    -8.200792    728.87402  0.014095962  0.012763148            8 
 4310000   0.55990091    -8.190775    729.98637  0.014114199  0.012758869            3 
 4311000   0.55726126   -8.2137155    728.26162  0.014077585  0.012754589            5 
 4312000   0.56875595   -8.1904093    728.81944    0.0140851  0.012750311            3 
 4313000   0.56248602   -8.2144038    727.68195  0.014059857  0.012746035            4 
 4314000   0.56959709   -8.1760424    728.71609  0.014076574  0.012741762            4 
 4315000   0.55383965   -8.1939034    728.38982  0.014067011  0.012737491            7 
 4316000   0.56265569   -8.1839107    728.73465   0.01407041  0.012733221            3 
 4317000   0.56430947   -8.2082638    728.78697   0.01406816  0.012728954            2 
 4318000   0.56677315   -8.1899576    728.59382  0.014061175  0.012724688            3 
 4319000    0.5727218   -8.1931253    728.96499   0.01406508   0.01272043            7 
 4320000   0.56473957    -8.180035    728.59996  0.014054783  0.012716173            7 
 4321000     0.545631   -8.1975347    727.81675  0.014036426  0.012711917            3 
 4322000   0.55208833   -8.1908524    727.79327  0.014032725  0.012707659            4 
 4323000   0.55278923   -8.1898979    729.40707  0.014060588  0.012703408            7 
 4324000   0.57327857   -8.1895802    729.00805  0.014049646  0.012699156            5 
 4325000   0.56220736   -8.1794772    728.37446   0.01403419  0.012694903            6 
 4326000   0.56282639   -8.2026249    728.86568  0.014040408  0.012690645            4 
 4327000    0.5619994   -8.2022672    727.65927  0.014013929  0.012686389            4 
 4328000   0.56099959   -8.1884634    728.68745  0.014030488  0.012682134            6 
 4329000   0.55644239   -8.1880866     728.8269  0.014029932   0.01267788            9 
 4330000    0.5517972   -8.2058226    728.49666  0.014020336  0.012673635            4 
 4331000   0.54764988    -8.200278    728.58741  0.014018845  0.012669387            5 
 4332000   0.56658963   -8.2139328     728.8065  0.014019823  0.012665137            6 
 4333000   0.57458812   -8.1933671    727.73112  0.013995906  0.012660894            2 
 4334000   0.55299186    -8.192952    728.95626  0.014016233  0.012656655            3 
 4335000   0.56790293   -8.2014977    727.62541  0.013987417  0.012652414            7 
 4336000   0.55660279   -8.2003809    728.84098  0.014007553  0.012648175            3 
 4337000   0.57337182   -8.1891765    728.23669  0.013992712  0.012643937            6 
 4338000   0.55893678   -8.2027607    727.91555  0.013983317  0.012639701            4 
 4339000     0.549613   -8.2132011    727.95049  0.013980765  0.012635463            3 
 4340000   0.55792403   -8.1942318    729.87711  0.014014537   0.01263123            2 
 4341000   0.55086062   -8.2078939    728.80179  0.013990666     0.012627            4 
 4342000   0.55399143   -8.1935202    728.68657  0.013985233  0.012622775            4 
 4343000    0.5512242   -8.2022601    729.05281   0.01398904   0.01261855            3 
 4344000   0.55473824    -8.172433    728.19308  0.013969327  0.012614332            4 
 4345000   0.55873463   -8.2061823    727.59368  0.013954616   0.01261011            7 
 4346000   0.55437327    -8.205287    728.08019  0.013960734  0.012605897            3 
 4347000   0.55659709   -8.1746341    728.82044  0.013971713   0.01260168            5 
 4348000   0.55370636   -8.2053697    728.67439  0.013965701  0.012597465            3 
 4349000   0.55709033   -8.2049101    728.54427  0.013959996  0.012593249            3 
 4350000   0.56271008   -8.1849586    728.56842  0.013957249  0.012589033            4 
 4351000   0.54754697   -8.2222795    727.81132  0.013939541  0.012584824            3 
 4352000   0.55307488    -8.192072    728.46128  0.013948784  0.012580608            4 
 4353000   0.54239112   -8.2062081    728.15935  0.013939799  0.012576401            2 
 4354000   0.56976333   -8.2212683    727.76721  0.013929092  0.012572189            3 
 4355000   0.55626063   -8.2045634    728.32588  0.013936584  0.012567976            3 
 4356000   0.55048675   -8.2103393    728.52033  0.013937105  0.012563767            3 
 4357000   0.55453124    -8.209047    727.84681  0.013921024  0.012559561            5 
 4358000   0.55865439     -8.21407    727.81784  0.013917275  0.012555358            3 
 4359000   0.55727212   -8.2036961    729.10677  0.013938724  0.012551153            8 
 4360000   0.54480612   -8.2105815    727.75026    0.0139096   0.01254695            3 
 4361000   0.55006772   -8.2251192    728.33404  0.013917566  0.012542746            3 
 4362000    0.5590351   -8.2040958    728.28444  0.013913427  0.012538546            3 
 4363000   0.55443346   -8.1950481    729.10221  0.013925858  0.012534354            3 
 4364000   0.54576654   -8.2198868    727.39246  0.013890018  0.012530159            5 
 4365000   0.55194263   -8.2115258    728.82374  0.013914161  0.012525964            4 
 4366000   0.55752637   -8.2047892    728.37516  0.013902412  0.012521773            5 
 4367000   0.54566208   -8.2027028    727.07974  0.013874508  0.012517586            6 
 4368000   0.56303222   -8.1959526     728.8499  0.013905103  0.012513401            4 
 4369000   0.55080079   -8.2191753    728.66858  0.013898462  0.012509217            5 
 4370000   0.55322139   -8.2287941    727.90984  0.013880813   0.01250503            2 
 4371000   0.54563674   -8.2153999    728.03186  0.013879964  0.012500845            9 
 4372000   0.55325206   -8.2064556    726.73039  0.013851982  0.012496662            7 
 4373000   0.55734869   -8.2135145    729.01753  0.013892399  0.012492487            3 
 4374000   0.54126056   -8.2104333    728.00285  0.013869891  0.012488308            7 
 4375000   0.54001904   -8.1938684    727.43869  0.013855975  0.012484132            5 
 4376000   0.55113025   -8.2056362    727.66059  0.013857034  0.012479962            5 
 4377000   0.54312519   -8.2206668    727.91345  0.013858683  0.012475786            8 
 4378000   0.55483718   -8.1868907    729.18399  0.013879701  0.012471623            5 
 4379000   0.55251873   -8.2178117    729.43455    0.0138813  0.012467454            8 
 4380000   0.56251883   -8.2088607    728.55974  0.013861487  0.012463288            5 
 4381000   0.54823589   -8.2072349    727.84152  0.013844661  0.012459125            5 
 4382000   0.54856119   -8.2144279     728.0122  0.013844747  0.012454961            5 
 4383000    0.5477751   -8.1980616    729.30454   0.01386616  0.012450801            4 
 4384000   0.54763278   -8.2231057    727.79882  0.013834375  0.012446641            6 
 4385000   0.55615577   -8.2046547    727.30654  0.013821865  0.012442481            5 
 4386000   0.54452025   -8.1947407     727.6691  0.013825602  0.012438326            5 
 4387000   0.55776557   -8.2082252    728.52243   0.01383866  0.012434167            4 
 4388000   0.54092848    -8.241497    728.04884  0.013826512   0.01243001            4 
 4389000   0.55868184   -8.2253721    727.86981  0.013819963  0.012425848            4 
 4390000   0.55680498    -8.205717    728.08058  0.013820816   0.01242169            8 
 4391000   0.54963612   -8.2079685    728.08085  0.013817673  0.012417532            5 
 4392000    0.5470003   -8.2056407    727.23088    0.0137984  0.012413377            5 
 4393000   0.54022472    -8.219298     728.6509  0.013822196  0.012409225            2 
 4394000   0.55725734   -8.2195707    727.96856   0.01380611  0.012405073            8 
 4395000   0.55418268   -8.1949797     727.6105  0.013796179  0.012400926            3 
 4396000   0.56584934   -8.2079296    726.46702  0.013771364  0.012396777            6 
 4397000   0.55224033   -8.2002796    728.25051  0.013802034  0.012392632            5 
 4398000   0.54398555   -8.2324559    728.76336  0.013808613  0.012388487            4 
 4399000   0.54379005   -8.2145347     727.1436   0.01377479  0.012384342            4 
 4400000   0.55867855   -8.2184344    727.75435  0.013783226  0.012380201            7 
 4401000   0.54247825   -8.2276197    726.09853  0.013748741  0.012376058            4 
 4402000   0.54566251   -8.2356292    728.84077  0.013797531  0.012371914            6 
 4403000   0.55074968   -8.2443165    728.05941  0.013779609   0.01236777            4 
 4404000   0.54972155    -8.234472    728.37557  0.013782462   0.01236363            5 
 4405000   0.53657852   -8.2198351    728.17425  0.013775525  0.012359491            6 
 4406000    0.5574284   -8.2359106     727.3114  0.013756079  0.012355355            7 
 4407000   0.54296071    -8.225234    727.89376  0.013763969   0.01235122            3 
 4408000   0.54977976   -8.2230371    728.48536  0.013772031  0.012347088            5 
 4409000    0.5349071   -8.2258541    728.46733  0.013768567  0.012342961            3 
 4410000   0.54458151   -8.2293545    727.77452  0.013752353  0.012338831            4 
 4411000   0.55346938   -8.2258803    727.88031  0.013751234  0.012334703            4 
 4412000   0.53754218   -8.2269845    726.70851  0.013725984  0.012330574            4 
 4413000   0.55477864   -8.1990588    728.65219  0.013759578  0.012326449            5 
 4414000   0.54866959   -8.2249624    727.32814  0.013731463   0.01232233            6 
 4415000   0.54117087   -8.2105198    725.83512  0.013700172   0.01231821            3 
 4416000   0.55396578    -8.234791    728.31853  0.013743934  0.012314096            3 
 4417000   0.53821381   -8.2102324     727.6981  0.013729117  0.012309977            4 
 4418000   0.53937697     -8.21787    727.60947  0.013724337  0.012305862            3 
 4419000   0.54794188   -8.2120615    726.91198  0.013708078   0.01230175            2 
 4420000   0.54619947   -8.2181781    727.32528  0.013712769  0.012297643            5 
 4421000     0.546687   -8.2021514    727.12109  0.013705819  0.012293538            4 
 4422000   0.54235862   -8.2293893    728.12546  0.013721647  0.012289437            3 
 4423000    0.5493971   -8.2240852    727.40669  0.013705002  0.012285331            4 
 4424000   0.54472492    -8.224573    727.40829  0.013701934  0.012281229            4 
 4425000   0.53263847   -8.2116874    728.64357  0.013722101  0.012277125            5 
 4426000   0.54349006   -8.2177477    727.10511  0.013690034  0.012273029            3 
 4427000    0.5385594   -8.2184411    727.57741  0.013695832  0.012268932            3 
 4428000   0.54804053   -8.2119787    726.65645  0.013675407  0.012264837            4 
 4429000   0.53947334   -8.2262396    727.96175   0.01369688  0.012260744            2 
 4430000   0.53954836   -8.2469183    727.96262  0.013693804  0.012256649            4 
 4431000    0.5399841   -8.2292099    727.54168  0.013682797   0.01225255            6 
 4432000   0.54439277   -8.2519736    727.36079  0.013676309  0.012248456            6 
 4433000   0.53528469   -8.2160722    726.84344  0.013663498  0.012244368            4 
 4434000   0.55705259    -8.236779    726.66641  0.013657089  0.012240278            4 
 4435000   0.54550794   -8.2393472    728.14396  0.013681773  0.012236195            5 
 4436000   0.53071666   -8.2145713     726.9853  0.013656923  0.012232108            7 
 4437000   0.54401398     -8.22624    727.91966  0.013671393  0.012228028            4 
 4438000   0.53449797   -8.2261673    727.50297  0.013660488  0.012223945            6 
 4439000   0.53500668   -8.2394808    726.80405   0.01364429  0.012219868            7 
 4440000   0.53977464   -8.2293483    726.80814  0.013641294  0.012215791            4 
 4441000   0.53300382    -8.206368    728.01968  0.013660956  0.012211715            4 
 4442000   0.54054247   -8.2422647    728.13279  0.013660003  0.012207642            5 
 4443000   0.54426557   -8.2363484    728.22183  0.013658598  0.012203575            4 
 4444000   0.53693002   -8.2237857    728.52454  0.013661201  0.012199509            6 
 4445000   0.54097731   -8.2119797     727.7691  0.013643965  0.012195435            3 
 4446000   0.54030578   -8.2178791    727.79731  0.013641425  0.012191373            3 
 4447000   0.54167785   -8.2304036    727.10258  0.013625339  0.012187313            4 
 4448000   0.52882681   -8.2213267    727.64356  0.013632411   0.01218325            6 
 4449000   0.54427811    -8.243724    727.68869  0.013630192  0.012179188            5 
 4450000   0.54443938   -8.2299449      727.848  0.013630112  0.012175129            3 
 4451000   0.54135736   -8.2508904    727.52488     0.013621  0.012171073            3 
 4452000   0.54874155    -8.227016    726.89772  0.013606202  0.012167018            4 
 4453000   0.54153158   -8.2339353    729.07927  0.013643972  0.012162969            4 
 4454000   0.55102322   -8.2333122     727.0929  0.013603744  0.012158923            4 
 4455000   0.54559865   -8.2377798     726.7105  0.013593537  0.012154879            8 
 4456000   0.54214614     -8.24658    728.02971  0.013615158  0.012150831            5 
 4457000   0.54430257   -8.2480855    727.24086  0.013597354  0.012146781            5 
 4458000   0.54616198   -8.2397271    725.90355  0.013569305  0.012142733            4 
 4459000   0.53442584   -8.2360416    726.60148  0.013579306  0.012138686            5 
 4460000   0.53041861   -8.2320061     728.2785  0.013607595   0.01213464            9 
 4461000   0.53214519   -8.2229666    726.56936  0.013572617  0.012130599            3 
 4462000   0.54338331   -8.2458291    728.85837  0.013612326  0.012126557            4 
 4463000   0.53224795   -8.2394393    727.27732  0.013579754  0.012122517            6 
 4464000   0.55147269   -8.2333934    727.79588  0.013586393  0.012118478            4 
 4465000   0.53578437   -8.2469183    729.06489  0.013607034  0.012114441            4 
 4466000   0.54770171   -8.2202944    727.06098  0.013566595  0.012110404            4 
 4467000   0.54461264    -8.228515    726.70633  0.013556942  0.012106371            5 
 4468000   0.53185848   -8.2309401    726.22841  0.013544994   0.01210234            4 
 4469000    0.5412067   -8.2426415    727.31178  0.013562165  0.012098311            3 
 4470000   0.54589404   -8.2307683    726.59915  0.013545845  0.012094278            6 
 4471000   0.53199669   -8.2567882    727.19056  0.013553839  0.012090255            4 
 4472000   0.53607472   -8.2644978    726.84044  0.013544284  0.012086231            3 
 4473000   0.53765335   -8.2631748    727.21769  0.013548284  0.012082202            6 
 4474000   0.52491619    -8.254588    727.37863  0.013548253  0.012078176            5 
 4475000    0.5400837   -8.2439708    727.65344  0.013550343  0.012074155            4 
 4476000   0.52190302   -8.2359065    728.03499   0.01355442  0.012070134            4 
 4477000   0.54016434   -8.2567045    726.10922  0.013515546  0.012066112            5 
 4478000   0.54390953   -8.2727537    726.81361  0.013525637   0.01206209            4 
 4479000    0.5343109   -8.2493982    726.89678  0.013524164  0.012058068            4 
 4480000    0.5438758     -8.23367    726.93018  0.013521767  0.012054049            3 
 4481000   0.53874268   -8.2369623    726.47374  0.013510261  0.012050032            4 
 4482000   0.53425283   -8.2525534    726.07893  0.013499906  0.012046012            6 
 4483000   0.54347692   -8.2531482    727.67475  0.013526559  0.012041998            4 
 4484000   0.52825942   -8.2418756    727.30861  0.013516737  0.012037988            5 
 4485000   0.52161534   -8.2563344    728.11054  0.013528624  0.012033981            4 
 4486000   0.53781008   -8.2421503    727.60153  0.013516153  0.012029976            2 
 4487000   0.52801837     -8.25523    727.10726  0.013503961  0.012025973            5 
 4488000   0.53333173   -8.2545479    727.13829  0.013501528  0.012021973            3 
 4489000   0.53473195   -8.2528729    728.26109  0.013519364  0.012017974            6 
 4490000   0.53527419   -8.2528892     728.4486  0.013519833  0.012013979            4 
 4491000   0.53754448    -8.243451    726.74926   0.01348529  0.012009983            3 
 4492000   0.53765041   -8.2581616    727.11433  0.013489061  0.012005993            5 
 4493000   0.52891809   -8.2480896    727.33911  0.013490228  0.012001998            4 
 4494000   0.53233364   -8.2458348     726.3083  0.013468111  0.011998011            4 
 4495000   0.55079393   -8.2289948    727.19367  0.013481529  0.011994023            6 
 4496000   0.53009572   -8.2386035    727.04651  0.013475803  0.011990038            5 
 4497000   0.53206307   -8.2648775    726.43853   0.01346154  0.011986052            5 
 4498000   0.54378659   -8.2334941    726.58656  0.013461289  0.011982068            4 
 4499000   0.52894111    -8.244585     726.8517  0.013463209  0.011978086            4 
 4500000    0.5342825   -8.2424329    726.20886  0.013448312  0.011974105            4 
 4501000   0.52067155   -8.2512586    727.37706  0.013466953  0.011970124            6 
 4502000   0.53962651   -8.2594468     727.0878  0.013458607  0.011966147            6 
 4503000   0.53377388   -8.2546456    727.82724  0.013469303  0.011962172            5 
 4504000   0.53406041   -8.2616251    726.99525  0.013450919  0.011958193            4 
 4505000   0.53833478   -8.2357419    726.88088  0.013445817  0.011954216            6 
 4506000   0.54118881   -8.2593997    727.74014  0.013458724   0.01195024            8 
 4507000   0.52888449   -8.2560405    727.73127  0.013455574  0.011946268            4 
 4508000   0.53854742    -8.244293    727.18028  0.013442404  0.011942295            6 
 4509000   0.53348795   -8.2530289    727.02053   0.01343647  0.011938324            6 
 4510000   0.52942624   -8.2746313    727.74297   0.01344684  0.011934357            6 
 4511000   0.52319585   -8.2629579    726.36706  0.013418441  0.011930385            7 
 4512000   0.52694903   -8.2477264    726.75021  0.013422544  0.011926418            3 
 4513000   0.53505766   -8.2667628    726.45572  0.013414132  0.011922455            7 
 4514000   0.52841315   -8.2513931    727.28647  0.013426497  0.011918493            5 
 4515000   0.53093996   -8.2496736    727.27901  0.013423385  0.011914533            7 
 4516000   0.52896479    -8.262065    727.23417  0.013419585  0.011910576            3 
 4517000   0.53232233   -8.2250441    727.35968   0.01341893  0.011906619            6 
 4518000   0.51957437   -8.2531063    727.10543   0.01341127   0.01190266            4 
 4519000   0.53854224   -8.2604446    726.04523  0.013388752  0.011898708            6 
 4520000   0.52368664    -8.258763    726.12492  0.013387259  0.011894754            7 
 4521000    0.5157257   -8.2485514    726.97251  0.013399921  0.011890805            7 
 4522000    0.5205788   -8.2648445     727.3541   0.01340399  0.011886851            5 
 4523000   0.51745205   -8.2491581    727.23128  0.013398763  0.011882907            5 
 4524000   0.52496243   -8.2683143    726.46704  0.013381724  0.011878955            4 
 4525000   0.52830597   -8.2441476    727.83157  0.013403896  0.011875015            5 
 4526000    0.5374321   -8.2790961    726.99053  0.013385449  0.011871071            6 
 4527000   0.52005816   -8.2738138    726.25675  0.013368985  0.011867131            7 
 4528000   0.52589725   -8.2372174    726.53283  0.013371114   0.01186319            7 
 4529000   0.52309802   -8.2702577    726.20662  0.013362159  0.011859249            6 
 4530000   0.52516673   -8.2606209    725.79926  0.013351716  0.011855312            3 
 4531000    0.5356101   -8.2594248    727.54026  0.013380789  0.011851376            7 
 4532000    0.5224945   -8.2618934    726.88085  0.013365711  0.011847444            5 
 4533000   0.53270572   -8.2688135    726.69699  0.013359383  0.011843511            5 
 4534000   0.54418844   -8.2521206    725.97687  0.013343201  0.011839583            8 
 4535000   0.53038675   -8.2468331    726.98824  0.013358843  0.011835653            6 
 4536000   0.53839481    -8.251085    726.72326   0.01335103  0.011831726            6 
 4537000   0.52701475   -8.2539398    726.43159   0.01334273  0.011827796            5 
 4538000   0.53242576    -8.266449     725.5648  0.013323873  0.011823876            6 
 4539000   0.52172179    -8.259538    726.34972  0.013335348  0.011819951            4 
 4540000   0.52248982   -8.2784057    726.01654  0.013326295  0.011816025            7 
 4541000   0.53489256   -8.2471545    727.40323  0.013348808  0.011812107            4 
 4542000   0.53365241   -8.2639192    726.29274  0.013325494  0.011808191           16 
 4543000   0.52030252   -8.2798503    725.65863  0.013310929  0.011804276            4 
 4544000   0.53378532   -8.2638508    727.22391  0.013336706  0.011800361            3 
 4545000   0.51234612   -8.2518116    726.88948   0.01332764  0.011796446            7 
 4546000   0.52818506   -8.2671594    725.18816  0.013293521  0.011792531            3 
 4547000   0.51979319   -8.2595946    725.71008  0.013300163  0.011788619            3 
 4548000   0.52037897   -8.2772135    726.60857  0.013313701  0.011784706            7 
 4549000    0.5271062   -8.2659009    725.89155   0.01329764    0.0117808           13 
 4550000   0.51846638     -8.25115    726.32944  0.013302737  0.011776892            7 
 4551000   0.51499694   -8.2509802    726.44246  0.013301883  0.011772985            4 
 4552000     0.545942   -8.2541482    725.57184  0.013283023  0.011769076            6 
 4553000   0.52853726   -8.2763621    726.60487  0.013299013  0.011765173            5 
 4554000   0.51595195   -8.2669266    726.73035  0.013298389  0.011761274            5 
 4555000   0.51988881   -8.2663741    726.73153  0.013295491  0.011757374            5 
 4556000   0.52287495   -8.2533505    726.57175   0.01328965  0.011753479            4 
 4557000    0.5305811   -8.2579397    725.63749  0.013269649  0.011749583            9 
 4558000     0.519677   -8.2792614    726.90551  0.013289921  0.011745686            5 
 4559000    0.5313178   -8.2540936    726.92154  0.013287299  0.011741796            6 
 4560000   0.51899795   -8.2863855    726.46597  0.013276059  0.011737901            8 
 4561000    0.5284033   -8.2695411     727.0758  0.013284291  0.011734009            5 
 4562000   0.51481568   -8.2638094    725.18365  0.013246815  0.011730118            7 
 4563000   0.51970322   -8.2666288    725.91174  0.013257209   0.01172623            9 
 4564000   0.53236617   -8.2659068    727.78983  0.013288596  0.011722343            6 
 4565000   0.52016031   -8.2654984    725.72374  0.013247969  0.011718456            5 
 4566000   0.51409298   -8.2652105    727.05696    0.0132694  0.011714574            9 
 4567000    0.5256855   -8.2433296    727.18206  0.013268777  0.011710694            8 
 4568000   0.51297173   -8.2769969    727.50087  0.013271688  0.011706817            8 
 4569000   0.52049983   -8.2615334    726.20663  0.013245178  0.011702934            3 
 4570000   0.52039442   -8.2674351    725.05119  0.013221211  0.011699052            5 
 4571000   0.52907492   -8.2633649    726.53676  0.013245401  0.011695174            7 
 4572000   0.52575802   -8.2581408    725.80481  0.013229163  0.011691299            5 
 4573000   0.51242184   -8.2739028    726.04451  0.013230638  0.011687422            5 
 4574000   0.52449632   -8.2860453    726.42772  0.013234727  0.011683544            3 
 4575000   0.52847974   -8.2837791    726.24673  0.013228538   0.01167967            6 
 4576000   0.51649267   -8.2745827    726.33635  0.013227279  0.011675797            5 
 4577000   0.52645208     -8.27055    726.11839  0.013220421  0.011671928            3 
 4578000   0.51966114   -8.2874811    726.29701  0.013220784   0.01166806            4 
 4579000   0.53042164   -8.2658445    725.25532  0.013198939  0.011664196            5 
 4580000   0.52572903   -8.2584906    726.28407  0.013214776  0.011660333            7 
 4581000   0.52466034   -8.2916469    726.70878  0.013219617   0.01165647            6 
 4582000   0.50851643   -8.2760753     725.1974  0.013189244  0.011652608            5 
 4583000   0.52887252   -8.2678715    727.34982  0.013225504  0.011648746            5 
 4584000   0.52253371   -8.2758731    726.33231  0.013204121  0.011644892           11 
 4585000    0.5162454   -8.2987655    726.70187  0.013207958  0.011641038            3 
 4586000   0.50765732   -8.2595021     725.5736  0.013184576  0.011637181            4 
 4587000   0.51710126    -8.272279    725.22359  0.013175343  0.011633328            6 
 4588000    0.5241561   -8.2788334    726.28773    0.0131918  0.011629478            7 
 4589000   0.52355307   -8.2705172    726.14365  0.013186309  0.011625626            5 
 4590000   0.51578784   -8.2600003    726.30624  0.013186388  0.011621776            4 
 4591000   0.52090988   -8.2732866    726.31764  0.013183722  0.011617928            5 
 4592000   0.51327743   -8.2683324    726.33827  0.013181226  0.011614079            8 
 4593000   0.50918701   -8.2869556    727.41736  0.013197935  0.011610231            7 
 4594000   0.51251836   -8.2880723    726.01429  0.013169611  0.011606387            8 
 4595000    0.5076543   -8.2825159    724.82157  0.013145114  0.011602542            5 
 4596000   0.52693259   -8.2947484     726.5997  0.013174494  0.011598699            4 
 4597000   0.51900222   -8.2650703    726.87859  0.013176684  0.011594857            3 
 4598000   0.51615833   -8.2885304    725.83601  0.013154923  0.011591018            6 
 4599000   0.52630549   -8.2677507    727.47011  0.013181672  0.011587182            8 
 4600000   0.52700268   -8.2846693    726.07325  0.013153501  0.011583349            5 
 4601000   0.51678904   -8.2657199    726.36339  0.013155897  0.011579512            9 
 4602000   0.52008854   -8.2907163     725.8532    0.0131438  0.011575684            7 
 4603000   0.51857495   -8.2926309     725.3017   0.01313096  0.011571851            6 
 4604000   0.51597512   -8.2629703     725.6792  0.013134941   0.01156802            8 
 4605000   0.50496439   -8.2735598    726.82155  0.013152761  0.011564197            7 
 4606000   0.51590298   -8.2931854    727.04213  0.013153896  0.011560377           12 
 4607000   0.51714807   -8.2694453    725.19089  0.013117555  0.011556557            5 
 4608000   0.50463647   -8.2714205    726.38492  0.013136301  0.011552736            5 
 4609000    0.4980682   -8.2852111    725.79256  0.013122741  0.011548918            5 
 4610000    0.5003258   -8.2782732    727.13981  0.013144248    0.0115451            4 
 4611000   0.51186862   -8.2694102    726.40128   0.01312805  0.011541287            6 
 4612000    0.5186201     -8.27635     725.6437  0.013111515  0.011537474            7 
 4613000   0.51443101   -8.3004975    726.71086  0.013127951  0.011533665            5 
 4614000   0.52163816   -8.2870102    725.68118  0.013106509  0.011529852            7 
 4615000   0.52330799   -8.2745397    725.35273  0.013097738  0.011526045            5 
 4616000   0.49916216   -8.2741255    725.72278  0.013101581  0.011522237            6 
 4617000   0.51128121   -8.2795772    726.00168  0.013103777  0.011518429            6 
 4618000   0.50375446   -8.2862072    727.10622  0.013120872  0.011514623            5 
 4619000    0.5191976   -8.2789476    727.15733  0.013118953  0.011510821            7 
 4620000   0.50943122   -8.2865752    726.24777  0.013099707  0.011507016           14 
 4621000   0.50736514   -8.2937779    726.81576  0.013107115  0.011503211            4 
 4622000   0.50617684    -8.268811     726.3704   0.01309625  0.011499409            3 
 4623000    0.5131268   -8.2816034    725.53134  0.013078292  0.011495608            7 
 4624000   0.50959388   -8.2828555    725.84399  0.013081098  0.011491807            7 
 4625000   0.50918835   -8.2832502    726.94595  0.013098125  0.011488016            7 
 4626000   0.50696312   -8.2958304    725.22526  0.013064297  0.011484222            6 
 4627000   0.51839506   -8.2854504    726.09188  0.013077082  0.011480428            4 
 4628000   0.50424877   -8.2841541    725.93241  0.013071384  0.011476639            5 
 4629000   0.51994206   -8.2821451    725.29442  0.013057075   0.01147285            7 
 4630000    0.5203872   -8.2898059    725.62353  0.013060179  0.011469058            6 
 4631000   0.51634019   -8.2955198    725.46935  0.013054584  0.011465264            7 
 4632000   0.50581022   -8.2851636    724.92758  0.013042019   0.01146147            9 
 4633000    0.5121638   -8.2949198    725.53269  0.013050088  0.011457681            6 
 4634000     0.506194   -8.3060259    725.06687  0.013038895  0.011453895            3 
 4635000   0.49952471   -8.2931377    726.16283  0.013055786  0.011450108            5 
 4636000   0.51172555   -8.2879058    725.67022  0.013044115  0.011446325            5 
 4637000   0.50433702   -8.2792109    725.72532  0.013042292  0.011442545            5 
 4638000   0.50694173   -8.2913138    726.68084  0.013056649  0.011438767            5 
 4639000   0.50239374   -8.2950027    724.93546  0.013022481  0.011434987            7 
 4640000   0.50179456   -8.3013379    725.81331   0.01303544  0.011431205            4 
 4641000   0.51074119   -8.3082858    726.50699  0.013045087  0.011427431            6 
 4642000   0.51213224   -8.3006326     726.0076  0.013033312  0.011423658            8 
 4643000   0.50872033   -8.2953979     726.1587  0.013033217  0.011419886            6 
 4644000   0.51367144   -8.2740708    725.33549  0.013015638  0.011416112            7 
 4645000   0.50477875   -8.2766391    725.34401  0.013012989  0.011412344            5 
 4646000    0.5158739   -8.2920502    725.88769   0.01301994  0.011408574            5 
 4647000   0.49705451   -8.2946834    725.67477   0.01301332  0.011404809            6 
 4648000   0.50429881   -8.2843766    724.62282   0.01299166  0.011401046            6 
 4649000     0.508858    -8.286201    725.75506  0.013009161  0.011397283            4 
 4650000   0.51643891   -8.2817357    725.81906   0.01300751  0.011393522            8 
 4651000   0.50791669   -8.2934932    725.15388  0.012992795   0.01138976            6 
 4652000   0.49854938    -8.307543    726.15315  0.013007903  0.011386003            7 
 4653000   0.49912295    -8.275075    725.99006  0.013002186  0.011382243            9 
 4654000   0.50466433   -8.2898891    723.75568  0.012959384  0.011378481            6 
 4655000   0.50763464   -8.2779504    725.21989  0.012982812  0.011374725            3 
 4656000   0.51411086   -8.3031191    724.78147  0.012972177   0.01137097            8 
 4657000   0.51139185   -8.2953855    724.66719  0.012967346  0.011367212            7 
 4658000   0.50967989   -8.2960675     725.0534  0.012971472  0.011363458            6 
 4659000   0.51124082    -8.295247     724.6243  0.012961013  0.011359705            6 
 4660000     0.510627   -8.2952156    725.96142  0.012982143  0.011355954            5 
 4661000    0.4998039   -8.3059224    725.75178  0.012975609  0.011352204            8 
 4662000   0.50430956   -8.2991774    725.07639  0.012960754   0.01134846            4 
 4663000   0.49776346   -8.2911273    725.82769  0.012971401  0.011344716            4 
 4664000   0.49800458   -8.2952667    726.10129  0.012973508  0.011340971            5 
 4665000   0.50795702   -8.2982271    725.21293  0.012954858  0.011337228            3 
 4666000   0.50563677   -8.2936763    725.44017   0.01295614  0.011333491            6 
 4667000   0.49737092   -8.2755229    725.23978  0.012949785  0.011329753            6 
 4668000   0.49678564   -8.2876533    725.41994  0.012950227  0.011326015            7 
 4669000    0.4967089   -8.3112689    725.40147  0.012947124  0.011322279           14 
 4670000   0.49518597    -8.296188    725.61299  0.012948126  0.011318545            6 
 4671000   0.50434404   -8.2965742    725.29378  0.012939659   0.01131481            9 
 4672000   0.50020818   -8.3058789    724.75822  0.012927337  0.011311077            8 
 4673000   0.50516881   -8.3027409    726.63686  0.012958072  0.011307349            7 
 4674000   0.50483759   -8.2994832    726.02067  0.012944314  0.011303622            5 
 4675000   0.49890378   -8.3022574    725.06669   0.01292454  0.011299898           12 
 4676000   0.50479573   -8.3006324    725.06082  0.012921671  0.011296171           11 
 4677000   0.50538617   -8.2838915    725.11625  0.012919896  0.011292447            9 
 4678000   0.50213249   -8.2865948    725.66685  0.012926943  0.011288723            5 
 4679000   0.49797023   -8.2936454    725.05454  0.012913274  0.011285008            8 
 4680000   0.50603136   -8.2971685    725.31464  0.012915147  0.011281291            7 
 4681000   0.50035275   -8.3037965    726.60188  0.012935304  0.011277572            5 
 4682000   0.50052671   -8.3085958    725.09446  0.012905711  0.011273856            5 
 4683000   0.51092112   -8.2851487    724.60683  0.012894278   0.01127014            4 
 4684000   0.50434469   -8.3052317    725.15668  0.012901307  0.011266427            9 
 4685000   0.50200033   -8.3078215    725.39857  0.012902856   0.01126272            7 
 4686000   0.51541948   -8.3047989    725.88025  0.012908668  0.011259011            9 
 4687000   0.50692903   -8.3044687    725.50507  0.012899244  0.011255303           10 
 4688000   0.50691183   -8.2936072    723.88283  0.012867656  0.011251596            9 
 4689000   0.50744386   -8.3148275    724.72886  0.012879947  0.011247889           17 
 4690000   0.49164097   -8.3051683    725.14743  0.012884638  0.011244184            6 
 4691000   0.48912754   -8.3008539    724.85564  0.012876708  0.011240482            7 
 4692000   0.50832593   -8.2929047    725.47506  0.012884965  0.011236782            9 
 4693000   0.50624878   -8.3050276    724.41846  0.012863457  0.011233084            8 
 4694000   0.50271292   -8.3230116    724.62576  0.012864397  0.011229384            7 
 4695000   0.49874729   -8.2990144    725.60686  0.012879071  0.011225685            5 
 4696000   0.50787019   -8.3166806    725.61262  0.012876431  0.011221991            5 
 4697000   0.51061372   -8.2960266    725.62947  0.012873988  0.011218297            7 
 4698000    0.5062298   -8.2997294    725.45492  0.012868152  0.011214608            4 
 4699000   0.50286088   -8.3047313    724.28923   0.01284474  0.011210921           11 
 4700000   0.49354236   -8.3208523    726.14495  0.012874911  0.011207234            5 
 4701000   0.49805084    -8.296811    724.97622  0.012851454  0.011203548           10 
 4702000   0.51249159   -8.3281124    724.10856  0.012833343   0.01119986           10 
 4703000   0.49364764   -8.2928199    724.18957   0.01283205  0.011196174            5 
 4704000   0.49537935    -8.288715    723.93818  0.012824869  0.011192492            7 
 4705000   0.50123448   -8.3152616    724.01208  0.012823452  0.011188808            5 
 4706000   0.49139732   -8.3176306    724.79657  0.012834618  0.011185127            7 
 4707000   0.49849949   -8.3140149    725.16064  0.012838337  0.011181444            3 
 4708000   0.49041466   -8.2966543    724.15278  0.012817771  0.011177763            7 
 4709000   0.49628425    -8.313705    725.13395  0.012832412  0.011174082            5 
 4710000   0.49946701   -8.3194024    725.27443  0.012832173  0.011170403            6 
 4711000   0.49604156   -8.3066893    725.28567  0.012829648  0.011166725            7 
 4712000   0.49059043   -8.3148868    724.69549  0.012816488  0.011163056            8 
 4713000   0.49303181   -8.3300082    725.31417  0.012824708  0.011159382           11 
 4714000   0.49938805   -8.3145539     725.1678    0.0128194   0.01115571            5 
 4715000   0.49408044   -8.3144082    723.55951  0.012788256  0.011152037            7 
 4716000   0.50843567   -8.3249835    724.62575  0.012804385  0.011148365            5 
 4717000   0.50026547   -8.3085285    724.34092  0.012796638  0.011144697            8 
 4718000    0.4973114   -8.3059246    724.10184  0.012789703  0.011141037            5 
 4719000   0.49843306   -8.3080923    724.55124  0.012794929  0.011137375            5 
 4720000   0.50409112    -8.317045    725.02416  0.012800568  0.011133712            5 
 4721000   0.49871106   -8.2986203    724.21797  0.012783626  0.011130053            5 
 4722000    0.5033673   -8.3023799    723.85448  0.012774504  0.011126396            5 
 4723000   0.49394272   -8.3032127    724.65605  0.012785942  0.011122738            6 
 4724000   0.49663482   -8.3146788    724.02067  0.012772027  0.011119081            6 
 4725000   0.49878363     -8.32641    725.43004  0.012794181  0.011115425           11 
 4726000   0.48675862   -8.3036612    724.06257  0.012767361  0.011111774            3 
 4727000   0.51094353   -8.3004637    724.22437  0.012767512  0.011108124            7 
 4728000   0.49409421   -8.3141846    724.43872   0.01276859  0.011104475            7 
 4729000   0.48781679   -8.3107248    724.49884  0.012766949  0.011100825            6 
 4730000   0.49386472   -8.3218364    724.69298   0.01276767  0.011097179            5 
 4731000   0.49680471   -8.3266379    724.75886  0.012766132  0.011093531            6 
 4732000   0.50167197   -8.3135342     724.0507  0.012750963  0.011089885            5 
 4733000    0.4967138   -8.3094382    725.45786  0.012773045   0.01108624            6 
 4734000   0.49370987   -8.3321658    724.62447  0.012755677  0.011082596            7 
 4735000   0.49413645   -8.3235485    724.58285   0.01275225  0.011078953            8 
 4736000   0.50046922   -8.3138543    724.14913  0.012741926  0.011075314            4 
 4737000   0.49907707   -8.3030221    723.91844  0.012735178  0.011071671            7 
 4738000   0.49343176   -8.2949317    724.15656  0.012736678  0.011068032            6 
 4739000   0.51255476   -8.3003237    724.04833  0.012732087  0.011064396            4 
 4740000   0.49948256   -8.3254255    724.76085  0.012741928  0.011060761            4 
 4741000   0.48947794   -8.3187946    725.56508  0.012753376  0.011057127            8 
 4742000   0.49294858   -8.3222042    724.63572  0.012734355  0.011053492            5 
 4743000   0.49644139   -8.3100268    724.23784  0.012724679  0.011049861            3 
 4744000   0.50534784   -8.3017822    723.99285  0.012717693  0.011046229            6 
 4745000   0.48924547   -8.3214665    724.30283  0.012720457  0.011042601            6 
 4746000    0.4954213   -8.3353349    724.93111  0.012728809  0.011038975            6 
 4747000   0.49472863   -8.3087125    724.29987  0.012715046  0.011035352            6 
 4748000   0.48967439   -8.3245981    725.06562  0.012725808  0.011031731            7 
 4749000   0.48994058   -8.3200111    723.96941  0.012703892  0.011028114            6 
 4750000   0.48504408   -8.3379267    724.26189  0.012706349  0.011024492            5 
 4751000   0.49427855   -8.3148034    724.38218  0.012705784  0.011020873            7 
 4752000   0.49482926    -8.323979    724.91849  0.012712516  0.011017253            3 
 4753000   0.49466728   -8.3254728    725.13431  0.012713625  0.011013633            4 
 4754000   0.48225162   -8.3233409    724.28317  0.012696031  0.011010019            5 
 4755000   0.49366186   -8.3212795    724.97665  0.012705514  0.011006407            6 
 4756000   0.49058428   -8.3142508    723.23384  0.012672306   0.01100279            5 
 4757000   0.48975619   -8.3142842    724.07804  0.012684431   0.01099918            5 
 4758000   0.49378669   -8.3115357    723.61886  0.012673722  0.010995566            7 
 4759000   0.48953573   -8.3139542    723.47727   0.01266858  0.010991961            3 
 4760000    0.4771667   -8.3076654    724.18972  0.012678391  0.010988356            8 
 4761000   0.49662803   -8.3288541    724.21823  0.012676227  0.010984753            8 
 4762000   0.48231623   -8.3221154    724.33077  0.012675535   0.01098115            6 
 4763000   0.49045946   -8.3079429    724.15079  0.012669725  0.010977548            7 
 4764000   0.48514198   -8.3145869    724.64018  0.012675626  0.010973948            4 
 4765000   0.49865162   -8.3211358    724.54864  0.012671365  0.010970349            6 
 4766000   0.49369355   -8.3077048    724.61757  0.012669911  0.010966752            6 
 4767000   0.49124434   -8.3439918    724.32479  0.012662135  0.010963155            8 
 4768000   0.48547399     -8.32437    725.33473  0.012677131  0.010959558            5 
 4769000   0.47973519   -8.3244012    723.66927  0.012645371  0.010955963            4 
 4770000   0.49117667   -8.3138504    724.79109  0.012662318  0.010952372            6 
 4771000   0.49376638   -8.3295958    724.65119  0.012657221  0.010948785            6 
 4772000    0.4892584   -8.3164878     723.8373  0.012640355  0.010945193            4 
 4773000   0.48546215   -8.3080487    724.39922  0.012647518  0.010941602            6 
 4774000   0.48590879   -8.3071927     724.5939  0.012648267  0.010938017            6 
 4775000   0.49305151   -8.3217147    724.63385  0.012646315  0.010934432            8 
 4776000   0.48994727   -8.3248084    724.38896  0.012639394  0.010930848            6 
 4777000   0.49484097   -8.3274575    723.36634  0.012618909  0.010927268            8 
 4778000   0.49519443   -8.3329911    724.19373  0.012630699  0.010923686            8 
 4779000   0.49598003   -8.3323865    724.65986  0.012636184  0.010920107            7 
 4780000   0.47704213    -8.334327    724.25644  0.012626507  0.010916526            8 
 4781000    0.4948405   -8.3197695    724.34081  0.012625336   0.01091295            8 
 4782000   0.48294123    -8.314605     724.2605  0.012621297  0.010909379            5 
 4783000    0.4887356    -8.306443    723.83553  0.012611254  0.010905808            7 
 4784000    0.4868581   -8.3342035    724.43564  0.012619071  0.010902239            8 
 4785000   0.48365817   -8.3286344    723.40837  0.012598544  0.010898671            3 
 4786000   0.48398073   -8.3281131    724.55015  0.012615792  0.010895102            5 
 4787000   0.48799663   -8.3253038    724.91189  0.012619453  0.010891535            7 
 4788000   0.48282822   -8.3299867    723.77263   0.01259699  0.010887968            7 
 4789000   0.47875471   -8.3252468    723.48734  0.012589395  0.010884405            4 
 4790000   0.47934368   -8.3215626    723.85665  0.012593192  0.010880846            5 
 4791000   0.47778235   -8.3099605    724.30962  0.012598442  0.010877284            6 
 4792000    0.4835212   -8.3230064    723.79144  0.012586802   0.01087372            7 
 4793000    0.4803353    -8.341915    724.81805  0.012602025  0.010870161            5 
 4794000   0.48409315   -8.3268616    723.93601  0.012584064  0.010866604            6 
 4795000   0.48587996   -8.3149406    723.29047   0.01257022  0.010863049            5 
 4796000   0.47155748   -8.3370348    723.95891  0.012579214  0.010859497            4 
 4797000   0.48456434   -8.3376079    723.98306  0.012577011  0.010855942            9 
 4798000   0.48689528   -8.3262024    723.44866  0.012565108  0.010852393            7 
 4799000   0.49090166   -8.3156826    724.28639  0.012577037  0.010848844            4 
 4800000   0.48326968   -8.3498292    723.56657   0.01256192  0.010845295            6 
 4801000   0.47376755   -8.3360334     723.9587   0.01256611  0.010841747            3 
 4802000   0.48893572   -8.3361619    724.19142  0.012567531    0.0108382            6 
 4803000   0.49038338   -8.3308614    722.66908  0.012538502  0.010834655            7 
 4804000   0.47499691   -8.3366805    724.40125  0.012565939  0.010831111            6 
 4805000   0.48945975   -8.3367927    724.54356  0.012565792   0.01082757            6 
 4806000   0.48598602   -8.3307491    723.17137  0.012539384  0.010824029            7 
 4807000   0.47665026   -8.3300048    723.61534  0.012544472  0.010820491            5 
 4808000   0.48545684   -8.3306321    723.14309  0.012533678  0.010816952            5 
 4809000   0.48781428   -8.3254406    723.10608   0.01253043  0.010813413            7 
 4810000   0.48009156    -8.319961    724.06716  0.012544476  0.010809876            8 
 4811000   0.47256644   -8.3419041    724.25297  0.012545087  0.010806342            7 
 4812000   0.48261025    -8.329809     723.6051   0.01253126  0.010802809            7 
 4813000   0.48604739   -8.3265439    725.35847  0.012559015  0.010799279            6 
 4814000   0.46898352   -8.3298288    722.89871  0.012513826  0.010795749            8 
 4815000   0.47671645   -8.3439686    724.60304  0.012540724   0.01079222            7 
 4816000   0.48445604   -8.3293825    722.98343  0.012510095  0.010788698            5 
 4817000   0.47951259   -8.3253083    723.64618  0.012518964  0.010785171            7 
 4818000   0.48284418   -8.3408291    724.41752  0.012529707  0.010781647            6 
 4819000    0.4819467   -8.3356037    724.10398  0.012521685  0.010778126            9 
 4820000   0.47855327   -8.3252445    723.79857  0.012513807  0.010774603           10 
 4821000   0.47820175    -8.327742    723.58148  0.012507458  0.010771081            9 
 4822000   0.48514361    -8.335816    724.02733   0.01251257  0.010767564            9 
 4823000   0.48609404   -8.3443932    724.46275  0.012517499  0.010764053            8 
 4824000   0.48154103   -8.3485713      723.299    0.0124948  0.010760542            7 
 4825000   0.48567479   -8.3273525    724.44159  0.012511945  0.010757031           10 
 4826000   0.49033403   -8.3402442    723.53153  0.012493637  0.010753521            4 
 4827000   0.47980704   -8.3262833    722.88985  0.012479971  0.010750012            7 
 4828000    0.4784902    -8.334019    723.92883  0.012495319    0.0107465            5 
 4829000   0.47538141   -8.3341023    723.52235  0.012485717  0.010742993            7 
 4830000   0.48120156   -8.3309553    723.48699  0.012482522  0.010739489            5 
 4831000   0.47270694   -8.3232476    723.81234  0.012485551  0.010735986           10 
 4832000   0.47142414   -8.3391934    722.86654  0.012466655  0.010732481           10 
 4833000   0.46688083   -8.3175725     722.9187  0.012464975  0.010728981            5 
 4834000    0.4774703   -8.3273072     722.3045  0.012451808  0.010725482            5 
 4835000   0.47882431   -8.3278219    723.73516  0.012473891  0.010721983            7 
 4836000   0.47966091   -8.3277821    723.35262   0.01246472  0.010718487            7 
 4837000   0.47772536   -8.3469529    723.76652  0.012469274  0.010714994           11 
 4838000   0.48294956   -8.3437773    722.94143  0.012452484  0.010711499            6 
 4839000   0.47875061   -8.3293727    723.68846  0.012462776  0.010708007            7 
 4840000   0.48034244   -8.3522447     723.5665  0.012458101  0.010704516            5 
 4841000   0.47447103   -8.3339514    723.73743   0.01245847  0.010701024           10 
 4842000   0.47384818   -8.3343508    724.08094  0.012461809  0.010697538            8 
 4843000   0.46950639   -8.3505942    723.18219  0.012443771   0.01069405            9 
 4844000   0.46828335   -8.3376176    724.52404  0.012464286  0.010690563           11 
 4845000   0.46490768   -8.3291338    723.11101   0.01243741   0.01068708            8 
 4846000   0.47206186   -8.3375202    723.88653  0.012448179  0.010683598            8 
 4847000   0.47598892   -8.3390324    723.76852  0.012443582  0.010680116           12 
 4848000   0.47461027    -8.315962    723.34355  0.012433711  0.010676638            8 
 4849000   0.47141919   -8.3312988    723.58966  0.012435376   0.01067316            7 
 4850000    0.4848718   -8.3524883    723.80158  0.012436453  0.010669682            4 
 4851000   0.47079233   -8.3373416    723.58166  0.012430112  0.010666205            6 
 4852000    0.4727047   -8.3329624    723.88631  0.012432782  0.010662728            7 
 4853000   0.47687581   -8.3221493    723.64509  0.012426078  0.010659254            6 
 4854000   0.47703451   -8.3461187    722.72673  0.012407752  0.010655781            8 
 4855000   0.47755489   -8.3338976    722.91429  0.012408416  0.010652308            6 
 4856000   0.47444741   -8.3305979    723.51189  0.012416116  0.010648836            6 
 4857000   0.46545944   -8.3443387    723.90733  0.012420344  0.010645369            7 
 4858000   0.47936546   -8.3369379    723.96505  0.012418777  0.010641905            7 
 4859000   0.47821644   -8.3548118    724.05942   0.01241784  0.010638439            8 
 4860000   0.47659293   -8.3431599    723.70478  0.012409204  0.010634975            7 
 4861000   0.46620432   -8.3457449    723.55901  0.012404152  0.010631511            6 
 4862000   0.48346571   -8.3455298    723.15735  0.012394717  0.010628047            6 
 4863000   0.47331482   -8.3475153     724.5739  0.012416442  0.010624585            5 
 4864000   0.48154167   -8.3326174    722.51732  0.012378655  0.010621128            6 
 4865000   0.47995792   -8.3360429    724.27106   0.01240615  0.010617672            5 
 4866000    0.4741852   -8.3325916    723.86584  0.012396661  0.010614219            6 
 4867000    0.4763118     -8.33784    722.64693  0.012373244  0.010610765            7 
 4868000   0.47624353     -8.33895     723.0317  0.012377289  0.010607313            9 
 4869000   0.47651025   -8.3533412    723.45629  0.012382014  0.010603864            6 
 4870000   0.46938912   -8.3500076    724.08032  0.012390149  0.010600415            8 
 4871000   0.46895498   -8.3311318    723.30612  0.012374361  0.010596967            6 
 4872000   0.47612063   -8.3614429    723.56071  0.012376175   0.01059352            7 
 4873000   0.47430736   -8.3371709    723.22452  0.012367886  0.010590073            8 
 4874000   0.47684749    -8.338037    724.30363  0.012383799  0.010586627            9 
 4875000   0.48400365     -8.33475    723.26732  0.012363544  0.010583186            6 
 4876000   0.47725655    -8.344453    722.20841  0.012342911  0.010579745            5 
 4877000   0.47853402   -8.3425215      723.413  0.012360963  0.010576305            6 
 4878000   0.47856056   -8.3425332    722.08904  0.012335811  0.010572867           15 
 4879000   0.47482707    -8.345719    724.55021   0.01237532  0.010569429            4 
 4880000   0.46667538   -8.3544606    723.31498   0.01235169  0.010565994            8 
 4881000   0.45935273   -8.3580492    722.96033  0.012343105  0.010562558            7 
 4882000   0.47287366   -8.3494082     723.4891  0.012349602  0.010559122            5 
 4883000   0.46322107   -8.3322003    722.56301  0.012331269  0.010555691            7 
 4884000   0.46543629   -8.3341135    724.42955  0.012360592  0.010552262            5 
 4885000   0.46546551   -8.3659915    722.91938  0.012332299  0.010548831            8 
 4886000   0.47659759   -8.3636087    723.64311  0.012342119    0.0105454            6 
 4887000    0.4678382   -8.3649453    723.91994  0.012344314  0.010541973            6 
 4888000   0.45870548   -8.3524294    723.81324  0.012339969  0.010538549            4 
 4889000   0.46284413   -8.3336854     723.2122    0.0123272  0.010535125            6 
 4890000   0.47542335   -8.3511787    723.41714  0.012328172  0.010531704            4 
 4891000    0.4700855   -8.3729551    723.28963  0.012323479  0.010528281            8 
 4892000     0.462006   -8.3341067    723.94777  0.012332171   0.01052486            5 
 4893000   0.46454289   -8.3760324    722.73204  0.012308945   0.01052144            9 
 4894000   0.47759279   -8.3464072     723.4397   0.01231848  0.010518024            7 
 4895000   0.46148705   -8.3379037    723.77914  0.012321742  0.010514609            7 
 4896000   0.46979294   -8.3526752    723.69245   0.01231775  0.010511195            6 
 4897000   0.47132148   -8.3293757     722.2619  0.012290891   0.01050778            4 
 4898000   0.47311788   -8.3486938    723.54881  0.012310277  0.010504368            3 
 4899000   0.47195501   -8.3367145    722.79942  0.012295016  0.010500957            7 
 4900000   0.47255612   -8.3693459    722.08966  0.012280436  0.010497545            5 
 4901000   0.46919749   -8.3374564    723.38403  0.012299939  0.010494137            9 
 4902000   0.46806585   -8.3551634    723.86999  0.012305691  0.010490729            7 
 4903000    0.4603875   -8.3530663    723.47838  0.012296526  0.010487322            7 
 4904000   0.47931882   -8.3556425    722.37092  0.012275199  0.010483917            6 
 4905000   0.46782137   -8.3629999    722.90257  0.012281729  0.010480517            6 
 4906000   0.46568828   -8.3578955    723.34065  0.012286667  0.010477115           12 
 4907000   0.46576066    -8.355033    722.26774  0.012265942  0.010473713           10 
 4908000   0.46788925   -8.3497144    722.96804  0.012275333  0.010470314            9 
 4909000    0.4653573    -8.338411     722.8046  0.012270058  0.010466917            5 
 4910000   0.45957754    -8.352109    722.48869  0.012262198  0.010463521            7 
 4911000    0.4571541   -8.3562186    723.81337  0.012282179  0.010460125            8 
 4912000   0.45634012   -8.3550079    722.90232  0.012264222  0.010456732            7 
 4913000   0.45959633   -8.3651971    723.23527  0.012267373  0.010453338            5 
 4914000    0.4574108   -8.3486638    722.23178   0.01224786  0.010449947            6 
 4915000   0.45227911   -8.3428104    721.80854  0.012238192  0.010446557            5 
 4916000    0.4735481   -8.3561551    722.31167  0.012244231  0.010443166            6 
 4917000   0.48051623    -8.335911    723.48752  0.012261669  0.010439778            7 
 4918000   0.46528228    -8.366635     722.5029  0.012242492  0.010436394            6 
 4919000   0.45645872    -8.356467    722.72813  0.012243819  0.010433012            6 
 4920000   0.46752269   -8.3658992    722.82781  0.012243019  0.010429632            5 
 4921000   0.46492605   -8.3435253    722.99269  0.012243323  0.010426249            7 
 4922000   0.46383606   -8.3535862    723.73813  0.012253456  0.010422871           11 
 4923000   0.47174584   -8.3558625    722.74062  0.012234082  0.010419494            6 
 4924000   0.46749692   -8.3466002    723.87101  0.012250728  0.010416116            5 
 4925000   0.47280956   -8.3576854    723.52321  0.012242355  0.010412741            9 
 4926000   0.44855133   -8.3438867    721.74081  0.012209717  0.010409367            5 
 4927000   0.45238065   -8.3666102    723.62345  0.012239081  0.010405993            9 
 4928000   0.45411597   -8.3506721    722.17027  0.012212024   0.01040262            8 
 4929000   0.46291885   -8.3629431     723.2631  0.012228023  0.010399249            8 
 4930000   0.46500122   -8.3561996    722.24012  0.012208251  0.010395881            6 
 4931000   0.46077335   -8.3536631    722.47139  0.012209683  0.010392514            7 
 4932000   0.46632691   -8.3558846    722.86621  0.012213879  0.010389148            8 
 4933000   0.46585362   -8.3723708    723.17415  0.012216605  0.010385784            6 
 4934000   0.46690397   -8.3635681    723.49801  0.012219599  0.010382418            7 
 4935000   0.46155375   -8.3606092    721.94739  0.012190939  0.010379056           11 
 4936000   0.45630566   -8.3700988    723.46861  0.012214151  0.010375698            8 
 4937000   0.46833708   -8.3689661     722.4937  0.012195221  0.010372341            7 
 4938000   0.46403806   -8.3732641    722.91257  0.012199821   0.01036898            6 
 4939000   0.44345318   -8.3664205    723.20624  0.012202306  0.010365624            5 
 4940000   0.46642294   -8.3665022     723.5153  0.012205049  0.010362269            9 
 4941000   0.45944453    -8.335299    722.62096  0.012187495  0.010358915            6 
 4942000      0.45858    -8.366298    722.99503  0.012191337  0.010355562            7 
 4943000   0.45768091   -8.3791279    722.84666  0.012186369  0.010352212            7 
 4944000   0.45283881   -8.3609174    722.50354  0.012178121  0.010348859            9 
 4945000   0.46134887   -8.3589416    722.68272  0.012178677   0.01034551            9 
 4946000   0.46616517   -8.3511565    723.27377  0.012186173  0.010342163            5 
 4947000   0.45935282   -8.3606478    722.93107  0.012177937   0.01033882            7 
 4948000   0.45950835   -8.3489103    722.27056  0.012164352  0.010335475            6 
 4949000   0.45733051   -8.3515646    722.79776  0.012170771  0.010332131            6 
 4950000    0.4667625   -8.3610921    723.61645  0.012182095  0.010328788            5 
 4951000   0.45547783   -8.3551738     722.4757  0.012160434  0.010325445            6 
 4952000   0.45069571   -8.3531108    721.57977  0.012142901  0.010322105            5 
 4953000    0.4508277   -8.3648836    723.22831  0.012168186  0.010318767            3 
 4954000    0.4593156   -8.3634291    723.60869  0.012172128  0.010315432            5 
 4955000   0.45488336    -8.350107    722.80357  0.012156131  0.010312097            6 
 4956000   0.46668354   -8.3614282    722.84027  0.012154296  0.010308766            8 
 4957000   0.47429145   -8.3616037    722.20866  0.012141226  0.010305433            6 
 4958000   0.45580223    -8.359669     722.2474  0.012139428  0.010302103            6 
 4959000   0.45706418   -8.3556201    722.25529  0.012137113  0.010298774           10 
 4960000   0.44847652   -8.3892317    722.59669  0.012140401  0.010295444            7 
 4961000   0.46622211    -8.375023    722.94106  0.012143739  0.010292116            8 
 4962000   0.45488125   -8.3618868    722.01528  0.012125744  0.010288795            7 
 4963000   0.45980283   -8.3580157    722.97012  0.012139333  0.010285471            4 
 4964000   0.46427518   -8.3774309     722.6885   0.01213216  0.010282147            8 
 4965000   0.44928896   -8.3541826    722.74853  0.012130724  0.010278824            9 
 4966000   0.45294234   -8.3709651    722.59692  0.012125737  0.010275502            5 
 4967000   0.46492961   -8.3799759    722.00199  0.012113314  0.010272184            7 
 4968000   0.45398318   -8.3729338    721.64497  0.012104887  0.010268864            6 
 4969000   0.46997275    -8.368331    722.08707  0.012109866  0.010265544            7 
 4970000   0.45036837   -8.3656581    722.59308  0.012115913  0.010262229            5 
 4971000   0.45851531   -8.3584829    721.82227  0.012100554  0.010258912            4 
 4972000    0.4607273   -8.3500321    720.88525  0.012082416  0.010255597           10 
 4973000   0.45342453   -8.3635058    722.09168  0.012100202  0.010252287           11 
 4974000   0.45352839   -8.3614737    722.39461  0.012102845  0.010248976            6 
 4975000   0.44906098   -8.3709764    722.67342  0.012105082  0.010245667            5 
 4976000   0.45249857   -8.3624293    721.76145  0.012087377  0.010242362            5 
 4977000   0.45478879   -8.3645976    722.00807  0.012089078  0.010239053           12 
 4978000   0.45881702   -8.3826545    722.60745  0.012096683  0.010235747            8 
 4979000   0.44817018   -8.3701947    723.01233   0.01210103  0.010232443            4 
 4980000   0.46083874   -8.3698369    723.18906  0.012101557   0.01022914           11 
 4981000   0.47031808   -8.3881181    721.70472  0.012074294  0.010225837            4 
 4982000   0.45521874   -8.3701878    722.32027  0.012082167  0.010222536            8 
 4983000   0.45021405   -8.3832659    722.32481  0.012079818  0.010219239            7 
 4984000   0.44893035   -8.3862322    722.77013   0.01208484   0.01021594            4 
 4985000   0.44533805   -8.3736407    723.45413   0.01209385  0.010212643            9 
 4986000   0.45200825   -8.3616294     722.1637  0.012069857  0.010209345            4 
 4987000   0.46244572   -8.3758636    723.42588  0.012088528  0.010206053            5 
 4988000   0.45690802   -8.3728806    722.00478  0.012062363  0.010202761            5 
 4989000     0.454105   -8.3681662     721.1064  0.012044939   0.01019947            7 
 4990000   0.45706446   -8.3729872    722.53197  0.012066332  0.010196178            8 
 4991000   0.45597897   -8.3658626    722.13129  0.012057225   0.01019289            4 
 4992000   0.45778101   -8.3729554     723.1903  0.012072488  0.010189601            5 
 4993000   0.44546254   -8.3727625    721.26549  0.012037945  0.010186316            6 
 4994000   0.43945674   -8.3757076     722.1129  0.012049675  0.010183029            6 
 4995000   0.44187534   -8.3744101    721.79476  0.012041955  0.010179745            5 
 4996000    0.4376975    -8.367743    721.49096  0.012034477  0.010176461            8 
 4997000   0.45067775   -8.3709464    722.46034  0.012048235   0.01017318            4 
 4998000    0.4592627   -8.3822437    721.09897  0.012023125  0.010169901            6 
 4999000   0.45722816    -8.381395    722.14909  0.012038226  0.010166623            9 
 5000000   0.45526701   -8.3820601    722.18184  0.012036364  0.010163346            8 
 5001000   0.43689718   -8.3826278     723.3389  0.012053238  0.010160073            6 
 5002000    0.4593028   -8.3695413    721.88808  0.012026657  0.010156801            6 
 5003000   0.45990855   -8.3762193    721.17547  0.012012384  0.010153529            7 
 5004000   0.44590558   -8.3704833    722.44134  0.012031064   0.01015026            8 
 5005000   0.45351994   -8.3801818    721.11107  0.012006511  0.010146993            6 
 5006000   0.45935396   -8.3961435    722.81724  0.012032515  0.010143725            9 
 5007000   0.45210421   -8.3760265     721.8933  0.012014734   0.01014046            5 
 5008000   0.46781864   -8.3871736     721.2905  0.012002305  0.010137198            8 
 5009000   0.45367118   -8.3633574    722.09378  0.012013273  0.010133935            6 
 5010000   0.45966751   -8.3705588    722.87717  0.012023905  0.010130676            6 
 5011000   0.43752193    -8.370768    721.79762  0.012003553  0.010127417            5 
 5012000   0.45728592   -8.3745928    721.46315  0.011995596  0.010124156            6 
Loop time of 11589.2 on 48 procs for 5000000 steps with 4000 atoms

Performance: 74552.484 tau/day, 431.438 timesteps/s
99.4% CPU use with 48 MPI tasks x no OpenMP threads

MPI task timing breakdown:
Section |  min time  |  avg time  |  max time  |%varavg| %total
---------------------------------------------------------------
Pair    | 723.22     | 776.49     | 827.27     |  78.3 |  6.70
Neigh   | 75.727     | 78.79      | 81.717     |  18.3 |  0.68
Comm    | 707.99     | 764.52     | 826.66     |  91.9 |  6.60
Output  | 13.961     | 13.965     | 14.055     |   0.4 |  0.12
Modify  | 9835.5     | 9854.5     | 9870.4     |   7.1 | 85.03
Other   |            | 100.9      |            |       |  0.87

Nlocal:        83.3333 ave          91 max          75 min
Histogram: 1 2 2 11 7 5 12 3 3 2
Nghost:        1968.96 ave        1986 max        1937 min
Histogram: 1 0 0 3 6 8 10 9 8 3
Neighs:        12572.8 ave       13956 max       11040 min
Histogram: 1 5 2 5 8 10 6 4 3 4
FullNghs:      25145.5 ave       27700 max       22365 min
Histogram: 1 1 3 8 11 3 13 4 2 2

Total # of neighbors = 1206986
Ave neighs/atom = 301.74650
Neighbor list builds = 268376
Dangerous builds = 1

#clear
#
#next RN
#
#jump SELF
Total wall time: 3:13:12
