
units lj                  # Use reduced LJ style units
atom_style atomic         # Uncharged point particles
atom_modify map hash      # Needed for indexing of clusters etc
                          # Used to be able to find where atoms are in relation to each other.

lattice fcc 1.0 spacing 1 1 1
Lattice spacing in x,y,z = 1.5874011 1.5874011 1.5874011
region box block 0 10 0 10 0 10 units lattice
create_box 2 box
Created orthogonal box = (0.0000000 0.0000000 0.0000000) to (15.874011 15.874011 15.874011)
  3 by 4 by 4 MPI processor grid
create_atoms 1 box
Created 4000 atoms
  using lattice units in orthogonal box = (0.0000000 0.0000000 0.0000000) to (15.874011 15.874011 15.874011)
  create_atoms CPU = 0.015 seconds
set type 1 type/fraction 2 0.57 78393
Setting atom values ...
  2292 settings made for type/fraction
mass 1 1.0
mass 2 1.0
pair_style lj/cut  3.5
pair_modify tail  yes
pair_coeff 1  1  1.0  1.0   # Intearaction between 1 and 1 set with epsilon = 1 and sigma = 1
pair_coeff 1  2  1.5  0.8
pair_coeff 2  2  0.5  0.88

write_data data.0
System init for write_data ...
Neighbor list info ...
  update every 1 steps, delay 10 steps, check yes
  max neighbors/atom: 2000, page size: 100000
  master list distance cutoff = 3.8
  ghost atom cutoff = 3.8
  binsize = 1.9, bins = 9 9 9
  1 neighbor lists, perpetual/occasional/extra = 1 0 0
  (1) pair lj/cut, perpetual
      attributes: half, newton on
      pair build: half/bin/atomonly/newton
      stencil: half/bin/3d
      bin: standard
WARNING: Not all mixed pair coeffs generated from mixing. Use write_data with 'pair ij' option to store all pair coeffs. (../write_data.cpp:312)


#############################
#   M E L T   S Y S T E M   #
#############################

velocity all create 2.4 1741580 mom yes dist gaussian # Assign velocities
                                                    # Temperature 2.4, random number seed, zero linear momentum
                                                                                # Gaussian distribution

timestep 0.002   # simulation timestep
thermo 1000       # output thermodynamic data every 1000 steps bf 100

# Define a fix  in this case with index 1 applied to all
# particles in the simulation. This fix is for simulations
# in the anisotropic NPT ensemble. Note that we use the MTK
# correction.
fix 1 all npt temp 2.4 2.4 0.1 iso 5.68 5.68 0.5 mtk yes tchain 5 pchain 5 # Use NPT ensemble
                                                                         # Set temperature and pressure and damping
                                                                         # Numbers of thermostats in chain and in barostat
run 10000          # run for 10000 steps
Per MPI rank memory allocation (min/avg/max) = 3.642 | 3.644 | 3.648 Mbytes
Step Temp E_pair E_mol TotEng Press Volume 
       0          2.4   -4.8904957            0   -1.2913957   -4.1230707         4000 
    1000    2.3702208   -4.6014489            0   -1.0470066     5.553913    3642.3292 
    2000    2.4168658   -4.6451069            0   -1.0207144    5.6655184    3617.5696 
    3000    2.3895335   -4.6013952            0    -1.017991    5.9044389    3614.2615 
    4000    2.3994816   -4.6313019            0   -1.0329793    5.5455674    3631.0763 
    5000    2.3944104   -4.5965905            0   -1.0058728    5.7110438    3641.8081 
    6000    2.3891627   -4.6402635            0   -1.0574154    5.8634466    3605.5435 
    7000    2.4218925    -4.653033            0   -1.0211025    5.9344777    3594.3526 
    8000    2.4151503   -4.6285826            0   -1.0067628     5.557726    3640.2056 
    9000    2.4291267   -4.6129376            0  -0.97015852    5.8447015    3616.3989 
   10000    2.4157015   -4.6141571            0  -0.99151074    5.5576341    3653.7025 
Loop time of 2.60933 on 48 procs for 10000 steps with 4000 atoms

Performance: 662237.762 tau/day, 3832.394 timesteps/s
99.6% CPU use with 48 MPI tasks x no OpenMP threads

MPI task timing breakdown:
Section |  min time  |  avg time  |  max time  |%varavg| %total
---------------------------------------------------------------
Pair    | 1.2065     | 1.2659     | 1.3389     |   2.2 | 48.52
Neigh   | 0.21759    | 0.22329    | 0.22844    |   0.5 |  8.56
Comm    | 0.78136    | 0.87006    | 0.9267     |   3.0 | 33.34
Output  | 0.00024858 | 0.00025455 | 0.00032229 |   0.0 |  0.01
Modify  | 0.21684    | 0.2341     | 0.2524     |   2.0 |  8.97
Other   |            | 0.01569    |            |       |  0.60

Nlocal:        83.3333 ave          92 max          75 min
Histogram: 1 5 5 5 14 5 1 5 5 2
Nghost:        1745.33 ave        1794 max        1699 min
Histogram: 1 3 6 7 9 6 9 4 1 2
Neighs:        10451.0 ave       11744 max        9118 min
Histogram: 2 0 6 9 11 6 2 4 4 4

Total # of neighbors = 501647
Ave neighs/atom = 125.41175
Neighbor list builds = 906
Dangerous builds = 195

# Equilibrate just above the melting temperature to avoid step fn in T

fix 1 all npt temp 1.25 1.25 0.1 iso 5.68 5.68 0.5 mtk yes tchain 5 pchain 5
run 2000
Per MPI rank memory allocation (min/avg/max) = 3.644 | 3.646 | 3.650 Mbytes
Step Temp E_pair E_mol TotEng Press Volume 
   10000    2.4157015   -4.6141571            0  -0.99151074    5.5576341    3653.7025 
   11000     1.231897   -6.7063449            0   -4.8589613    5.9658959    2786.8034 
   12000    1.2347562   -6.8329132            0   -4.9812419    5.5609055    2768.6159 
Loop time of 0.663817 on 48 procs for 2000 steps with 4000 atoms

Performance: 520625.048 tau/day, 3012.876 timesteps/s
99.6% CPU use with 48 MPI tasks x no OpenMP threads

MPI task timing breakdown:
Section |  min time  |  avg time  |  max time  |%varavg| %total
---------------------------------------------------------------
Pair    | 0.29709    | 0.32365    | 0.37047    |   2.2 | 48.76
Neigh   | 0.041785   | 0.044014   | 0.049306   |   0.6 |  6.63
Comm    | 0.20102    | 0.24542    | 0.27153    |   2.5 | 36.97
Output  | 5.1465e-05 | 5.2576e-05 | 6.6977e-05 |   0.0 |  0.01
Modify  | 0.03811    | 0.045805   | 0.052222   |   2.1 |  6.90
Other   |            | 0.004882   |            |       |  0.74

Nlocal:        83.3333 ave          90 max          76 min
Histogram: 5 0 4 5 5 9 6 10 2 2
Nghost:        2109.04 ave        2130 max        2084 min
Histogram: 2 0 5 5 3 11 10 10 1 1
Neighs:        13795.8 ave       15241 max       11570 min
Histogram: 1 0 1 5 7 8 9 10 4 3

Total # of neighbors = 662199
Ave neighs/atom = 165.54975
Neighbor list builds = 144
Dangerous builds = 8

#############################
# L I N E A R  Q U E N C H  #
#############################

# Define solid atoms. This closely follows ten Wolde  Ruiz-Montero and Frenkel  Faraday Discuss  1996  104  93-110
# Compute components of the per-atom q6 vector
compute q6 all orientorder/atom degrees 1 6 components 6 nnn NULL cutoff 1.3 # compute the Q6 parameter.
                                                                             # Use all neighbours within 1.3 unit cell.

# get number of connections
compute coord_number all coord/atom orientorder q6 0.5

# An atom is solid if it has 8 or more connections (of a possible 14)
variable is_solid atom c_coord_number>=8
group solid dynamic all var is_solid    # Must be dynamic to update
dynamic group solid defined

# do clustering
compute cluster solid cluster/atom 1.3 # Create a cluster where all atoms within are solid and max 1.3 units from another member

# define chunks one chunk per cluster
compute clus_chunks solid chunk/atom c_cluster nchunk every compress yes  # Says which atoms are in which chunk

# count the size of each chunk
compute size_chunks solid property/chunk clus_chunks count


# Find the maximum entry in the vector of chunk sizes
variable max_n equal max(c_size_chunks)


# Thermo style which includes this variable
# thermo_style custom step temp pe vol v_max_n

thermo ${N}  # Print the thermo information every 100 steps
thermo 1000  

# Reset the npt fix at a lower temperature (below freezing)
fix 1  all npt temp  ${temp} ${temp}  0.1  iso  5.68  5.68  0.5  mtk yes tchain  5  pchain  5
fix 1  all npt temp  0.45 ${temp}  0.1  iso  5.68  5.68  0.5  mtk yes tchain  5  pchain  5
fix 1  all npt temp  0.45 0.45  0.1  iso  5.68  5.68  0.5  mtk yes tchain  5  pchain  5

dump dmp2 all dcd ${N} traj.dcd
dump dmp2 all dcd 1000 traj.dcd


compute msd all msd com yes
variable twopoint equal c_msd[4]/6/(step*dt+1.0e-6)
fix 9 all vector 10 c_msd[4]
variable fit equal slope(f_9)/6/(10*dt)
thermo_style custom step temp pe c_msd[4] v_twopoint v_fit v_max_n

fix 1 all npt temp 1.25 ${temp} 0.1 iso 5.68 5.68 0.5 mtk yes tchain 5 pchain 5
fix 1 all npt temp 1.25 0.45 0.1 iso 5.68 5.68 0.5 mtk yes tchain 5 pchain 5
run 5000000 # 5000000  # Run for this many steps
Neighbor list info ...
  update every 1 steps, delay 10 steps, check yes
  max neighbors/atom: 2000, page size: 100000
  master list distance cutoff = 3.8
  ghost atom cutoff = 3.8
  binsize = 1.9, bins = 8 8 8
  4 neighbor lists, perpetual/occasional/extra = 1 3 0
  (1) pair lj/cut, perpetual
      attributes: half, newton on
      pair build: half/bin/atomonly/newton
      stencil: half/bin/3d
      bin: standard
  (2) compute orientorder/atom, occasional
      attributes: full, newton on
      pair build: full/bin/atomonly
      stencil: full/bin/3d
      bin: standard
  (3) compute coord/atom, occasional
      attributes: full, newton on
      pair build: full/bin/atomonly
      stencil: full/bin/3d
      bin: standard
  (4) compute cluster/atom, occasional
      attributes: full, newton on
      pair build: full/bin/atomonly
      stencil: full/bin/3d
      bin: standard
Per MPI rank memory allocation (min/avg/max) = 9.844 | 9.851 | 9.855 Mbytes
Step Temp PotEng c_msd[4] v_twopoint v_fit v_max_n 
   12000    1.2347562   -6.8329132            0            0 8.3333333e+20            1 
   13000    1.2392088   -6.8353202   0.45531406 0.0029186798  0.036935079            1 
   14000    1.2662072   -6.8106833   0.84591184 0.0050351894  0.034150126            4 
   15000    1.2368649   -6.7585336    1.2696736 0.0070537419   0.03346663            2 
   16000    1.2444942   -6.8261986    1.7425324 0.0090756894  0.035095584            2 
   17000    1.2501024   -6.8185835    2.1893695  0.010732203  0.035852727            1 
   18000    1.2599795   -6.8851297    2.6183432  0.012121959  0.036196969            2 
   19000    1.2652879   -6.8575048    3.1096174  0.013638673  0.036539995            3 
   20000    1.2526889   -6.8201421    3.5843042    0.0149346   0.03698549            4 
   21000    1.2452128   -6.8231583    4.0216151   0.01595879  0.037244355            3 
   22000    1.2318192   -6.8822329     4.425962  0.016765007  0.037427016            5 
   23000    1.2454877   -6.8302487    4.7896558  0.017353825  0.037177362            1 
   24000    1.2479796    -6.819371    5.2461109  0.018215662  0.036872406            3 
   25000    1.2438031   -6.8141422    5.5931885  0.018643961  0.036609894            3 
   26000    1.2622929   -6.8397194    5.9201626   0.01897488  0.036220826            4 
   27000    1.2493588    -6.823463    6.4426338  0.019884672  0.035924393            6 
   28000    1.2557584   -6.8539025    6.7305981  0.020031542  0.035699589            1 
   29000     1.239579   -6.8440023    7.2540895  0.020845084  0.035532466            8 
   30000    1.2108412   -6.8139218    7.7791613  0.021608781   0.03553659            1 
   31000    1.2304013   -6.8688731    8.2840307  0.022268899  0.035653331            2 
   32000    1.2370211   -6.8594833    8.7618946  0.022817433  0.035843109            2 
   33000    1.2422153   -6.8763249    9.1347769  0.023067618  0.035956868            2 
   34000    1.2588188   -6.8754133    9.5173942  0.023326946  0.035979899            2 
   35000    1.2737091   -6.8736326    10.066179  0.023967093  0.036015541            3 
   36000    1.2725581     -6.85701    10.446384  0.024181444  0.036100845            1 
   37000    1.2335663   -6.8747182     10.92777  0.024612095  0.036140773            2 
   38000    1.2634808   -6.8556703    11.299649  0.024779931  0.036197782            3 
   39000    1.2421562   -6.8601221    11.747021  0.025100472  0.036195584            2 
   40000    1.2075869   -6.7955926    12.072178   0.02515037  0.036149723            1 
   41000    1.2694796   -6.8278188    12.364768  0.025131642  0.036040682            2 
   42000     1.266964    -6.856591     12.71275  0.025223709  0.035921786            3 
   43000    1.2391885   -6.8532391    13.155071  0.025494324  0.035793984            2 
   44000    1.2444896   -6.8019125    13.444616  0.025463288  0.035662533            5 
   45000    1.2428308   -6.8350647    13.762072  0.025485318  0.035485556            3 
   46000    1.2521149   -6.8742147    14.134503  0.025605983   0.03532738            3 
   47000    1.2356671   -6.8653265    14.580682  0.025852274  0.035176905            2 
   48000    1.2068816   -6.8480083    14.958259    0.0259692  0.035047151            1 
   49000    1.2407039   -6.8183865    15.362164   0.02612613  0.034923536            2 
   50000    1.2551338   -6.8242786    15.723412  0.026205687   0.03482245            2 
   51000    1.2441451   -6.7966954    16.156843  0.026400071  0.034703059            3 
   52000    1.2543709   -6.8273936    16.478062   0.02640715  0.034588775            2 
   53000    1.2331443   -6.8707389    16.837701  0.026474372  0.034475484            2 
   54000    1.2353803   -6.8609465    17.268918  0.026649564  0.034379088            2 
   55000    1.2595265   -6.8354535    17.748952  0.026892351  0.034315543            1 
   56000    1.2501289   -6.8319558    18.411003  0.027397325  0.034288768            3 
   57000    1.2694037   -6.8845594    18.722228  0.027371678  0.034272509            5 
   58000    1.2365101   -6.8534871    19.041872  0.027359011  0.034254755            2 
   59000    1.2523127   -6.9063453    19.566681  0.027636554  0.034239563            2 
   60000    1.2430238   -6.8421905    19.968648  0.027734233  0.034233935            3 
   61000    1.2569242   -6.8664359     20.47095  0.027965778  0.034238751            2 
   62000    1.2242487   -6.8260582    20.901974   0.02809405  0.034239727            1 
   63000    1.2509751   -6.8339502    21.273693  0.028139806  0.034242566            4 
   64000    1.2605026   -6.8507263    21.637387   0.02817368  0.034238947            4 
   65000     1.234013    -6.851685    22.030579  0.028244331  0.034230849            2 
   66000    1.2073821   -6.7969036    22.500452  0.028409661  0.034227643            2 
   67000    1.2330909    -6.876917    22.865919  0.028440197  0.034227692            2 
   68000    1.2351358   -6.8732366    23.415748   0.02869577  0.034238825            3 
   69000    1.2634954    -6.886176    23.917191  0.028885496  0.034276893            2 
   70000    1.2341854   -6.8481908    24.278923   0.02890348  0.034299702            2 
   71000     1.244113   -6.8636007    24.765993  0.029068067  0.034319084            3 
   72000    1.2467553   -6.8110562    25.204846  0.029172275  0.034349002            3 
   73000    1.2354694   -6.8063204    25.528872  0.029142548  0.034376181            4 
   74000    1.2425806   -6.8334833    25.961264  0.029235658  0.034395245            2 
   75000     1.230338   -6.8735837     26.52717  0.029474633  0.034423172            6 
   76000    1.2257796   -6.8689142    27.165551  0.029786789  0.034464513            1 
   77000    1.2409922    -6.885004     27.40307  0.029657002  0.034504301            2 
   78000     1.237428   -6.8131218    27.970385  0.029882889  0.034536272            3 
   79000    1.1948423   -6.7997483      28.3221  0.029875633  0.034566451            2 
   80000    1.2628483   -6.8276405    28.631794  0.029824785  0.034598592            3 
   81000     1.254781   -6.8492444    29.005707  0.029841262  0.034622766            6 
   82000    1.2513789   -6.8509559    29.438294  0.029916965  0.034636943            2 
   83000    1.2647144   -6.8819319      29.8064  0.029926105  0.034652586            2 
   84000    1.2391544   -6.8219637    30.194295  0.029954657  0.034665297            2 
   85000    1.2391471   -6.8153437    30.620546  0.030020143   0.03466892            3 
   86000    1.2300766   -6.8439128    31.009058  0.030047537  0.034665629            4 
   87000    1.2343808   -6.8802118    31.431059  0.030106378  0.034665594            2 
   88000    1.2337087   -6.8720154    31.833909  0.030145747  0.034668046            2 
   89000    1.2064549   -6.8546077    32.174579   0.03012601  0.034662061            4 
   90000    1.2195456   -6.8778179    32.327276  0.029932663  0.034651077            2 
   91000    1.2094823   -6.8356592    32.601579  0.029854925  0.034630402            1 
   92000     1.247629   -6.8716951    32.975699  0.029869292  0.034604288            2 
   93000    1.2748238   -6.8873773    33.250074  0.029793973  0.034562002            1 
   94000    1.2529294   -6.8546642    33.643692  0.029825968  0.034521454            2 
   95000    1.2565672   -6.8506454    33.810135  0.029658013  0.034474446            7 
   96000    1.2369522   -6.8498119    34.214587  0.029700162  0.034419674            2 
   97000    1.2280612   -6.8714787    34.706209  0.029816331  0.034378672            1 
   98000    1.2443743   -6.8247205    35.513184  0.030198285   0.03434964            2 
   99000    1.2077517   -6.8254661    35.694869  0.030046186  0.034323845            1 
  100000     1.205105   -6.9095816    35.915601  0.029929668  0.034286753            2 
  101000    1.2419539   -6.9080159    36.363122  0.030002576  0.034246597            6 
  102000    1.2314303   -6.8796512    36.849209  0.030105563  0.034217939            1 
  103000    1.2132329   -6.8504147    37.237264  0.030127236  0.034192519            1 
  104000    1.2314476   -6.8714801    37.632421  0.030154183  0.034157943            2 
  105000    1.2245987   -6.8668225    37.910177  0.030087442   0.03412442            3 
  106000    1.2525354   -6.9060414    38.259119  0.030077923  0.034094854            3 
  107000     1.250729   -6.8716594    38.678767   0.03012365  0.034065596            3 
  108000    1.2527064   -6.8882712       38.999  0.030091821  0.034036662            3 
  109000    1.2146277   -6.9077606    39.338694  0.030075454  0.034006497            4 
  110000    1.2294604     -6.90696    39.866245    0.0302017  0.033978404            3 
  111000    1.2156316     -6.88148    40.232094  0.030204274  0.033951825            4 
  112000    1.2385612   -6.8942693    40.452713  0.030098745  0.033921111            1 
  113000      1.23441   -6.8753763    40.614508  0.029951702  0.033878687            1 
  114000    1.2422221   -6.9041831    40.690838  0.029744765  0.033835579            3 
  115000    1.2186837   -6.8642929      41.2344      0.02988  0.033785581            2 
  116000    1.2409005     -6.84622    41.671581  0.029936481  0.033736672            2 
  117000    1.2517579     -6.89849    42.026937  0.029933716   0.03369357            3 
  118000    1.1933846   -6.8590578    42.685734  0.030145292  0.033657972            1 
  119000     1.247091   -6.8864127    43.024754  0.030129379  0.033624529            1 
  120000    1.2131825   -6.8374844    43.443611  0.030169174   0.03359526            2 
  121000     1.220607   -6.8586136    43.838023  0.030191476  0.033569169            2 
  122000    1.2351015   -6.8611613     44.16296  0.030165956  0.033540667            6 
  123000    1.2356631   -6.8553057    44.697698  0.030282993  0.033513875            2 
  124000    1.2530605    -6.881062    44.884788  0.030164508  0.033485653            4 
  125000    1.2379546   -6.8848744    45.046193  0.030030795  0.033449351            1 
  126000    1.2341888   -6.8873027    45.550435  0.030125949  0.033418151            1 
  127000     1.246289   -6.8976033    45.871789  0.030099599  0.033388554            3 
  128000    1.2313604   -6.9046619    46.361526  0.030183285  0.033362162            2 
  129000    1.2155306   -6.8350593    46.561121  0.030078243  0.033334176            5 
  130000    1.2305871   -6.8808304    47.172142  0.030238553  0.033312199            1 
  131000    1.2293962   -6.8843511    47.447321  0.030182774   0.03328702            2 
  132000    1.2069971   -6.8718593     47.73432  0.030135303  0.033258948            1 
  133000    1.2610971   -6.8369206    48.150992  0.030169795   0.03323045            1 
  134000    1.2325622   -6.8738714    48.407002  0.030103857  0.033201132            2 
  135000    1.2223325   -6.8678136    48.999268  0.030246462  0.033173511            3 
  136000    1.2234592   -6.9152222    49.475815  0.030316063  0.033150871            2 
  137000    1.2548439   -6.9297646    49.798225  0.030290891  0.033129087            3 
  138000    1.2371335   -6.8704275    50.299135  0.030373874  0.033111981            3 
  139000    1.2075177   -6.9063088    50.953255  0.030547515  0.033100592            3 
  140000     1.237452   -6.8080447     51.66069  0.030750411  0.033094491            1 
  141000    1.2294782   -6.8394506    52.083909  0.030782452  0.033092495            2 
  142000    1.2134696   -6.9007554    52.310782  0.030698815  0.033091395            1 
  143000    1.2146592   -6.8852582    52.912045  0.030834525  0.033093572            4 
  144000    1.2233083   -6.8671605     53.60298  0.031020243   0.03309869            3 
  145000    1.2521191    -6.926554    53.720702  0.030873966   0.03310426            3 
  146000    1.2216628   -6.9296047    54.296849  0.030991352   0.03311087            1 
  147000    1.2261874   -6.8990727    54.700498  0.031009352  0.033121084            4 
  148000    1.2195598   -6.8634032    55.209325  0.031086332  0.033131396            5 
  149000    1.2192381   -6.9143272    55.643208  0.031120362  0.033144649            3 
  150000     1.197798   -6.8893343    56.139272  0.031188484  0.033156404            2 
  151000    1.2184951   -6.8824273      56.5828  0.031226711  0.033166806            2 
  152000    1.2438943   -6.8579693    56.673236  0.031070853   0.03317476            5 
  153000    1.2113537   -6.9442434    56.717193  0.030891717  0.033177984            3 
  154000    1.2331505   -6.9044523    57.562188   0.03114837  0.033182341            1 
  155000    1.2247176   -6.8807195    58.042198  0.031205483  0.033188784            2 
  156000    1.2282561   -6.9080153    58.384136  0.031188107  0.033197767            4 
  157000    1.2527654    -6.876166    58.927665  0.031277954  0.033205986            2 
  158000    1.1877417   -6.8684922    59.221385  0.031234907  0.033214415            2 
  159000    1.2046175   -6.9006851    59.437982  0.031151982  0.033220796            4 
  160000    1.2160028   -6.8367031    60.329604  0.031421669  0.033225001            2 
  161000    1.2178956   -6.8936255    60.478836  0.031303745  0.033231451            5 
  162000    1.2337905   -6.8903952    60.865849  0.031309593  0.033240074            6 
  163000    1.2460137   -6.8952692    61.239468  0.031308522  0.033247036            2 
  164000    1.2405789   -6.8970218    61.978826  0.031493306  0.033256686            2 
  165000    1.2423494   -6.8973622    62.368123  0.031499052  0.033267202            4 
  166000    1.2334041   -6.8705577    62.993966  0.031623477  0.033278953            1 
  167000    1.1884053    -6.876139    63.397997  0.031635727  0.033293479            3 
  168000    1.1999753   -6.8410932    64.078285  0.031784864  0.033309589            2 
  169000    1.2358337   -6.9102112    64.375629  0.031743407   0.03332539            2 
  170000    1.2117425   -6.9429028     64.41041   0.03157373  0.033341901            2 
  171000    1.2418935   -6.8774801    65.343491  0.031843807   0.03335888            1 
  172000    1.2094219   -6.8931305    65.590385  0.031778287  0.033375286            3 
  173000    1.2271538   -6.9005744    66.003118  0.031793409  0.033392227            2 
  174000    1.2235639     -6.92464    66.058186  0.031637062  0.033405297            2 
  175000    1.2341636    -6.904238    66.394145  0.031616259  0.033414843            2 
  176000    1.2044901   -6.9059704    66.989996  0.031718748  0.033421425            2 
  177000    1.2222261   -6.8821919    67.692045  0.031870078  0.033433942            2 
  178000    1.2166613   -6.8942308    68.149241  0.031905075  0.033449058            2 
  179000    1.2158622   -6.8944255    68.351844  0.031821156   0.03346322            3 
  180000    1.2115959   -6.8658409    68.928089  0.031911152  0.033474799            2 
  181000    1.2319587   -6.9104793    68.923214  0.031732603  0.033485093            5 
  182000     1.231551   -6.8532352    69.435273  0.031792707  0.033493467            2 
  183000    1.1980952    -6.871442     69.93619  0.031847081  0.033500062            3 
  184000    1.2100608    -6.944017    69.910247   0.03166225  0.033505719            3 
  185000    1.2159678    -6.912651    70.282701  0.031658874  0.033510772            2 
  186000    1.2070103   -6.9163791     70.55128  0.031608996  0.033514637            3 
  187000    1.2190068   -6.8583937    71.347407  0.031794745  0.033516524            3 
  188000    1.2108954   -6.9251667    71.714847  0.031788496  0.033520005            4 
  189000    1.2157901   -6.8888446    71.882998  0.031694444   0.03352206            1 
  190000    1.2367379   -6.8959311    72.235767  0.031682354  0.033522418            1 
  191000    1.1989107   -6.9163814    72.768668  0.031748982  0.033525614            1 
  192000    1.2121922   -6.9551386    72.753787  0.031577164  0.033525552            1 
  193000    1.2362188   -6.8906697    73.387676  0.031687252  0.033525106            4 
  194000    1.2306598    -6.902057    73.662376  0.031641914  0.033525668            4 
  195000    1.2241017   -6.9311223    73.687401  0.031490342  0.033523624            2 
  196000    1.2321049   -6.8898934    74.170763  0.031535188  0.033518742            2 
  197000    1.2302031   -6.9242254    74.698044  0.031598157  0.033512789            3 
  198000    1.2250727     -6.90946    75.318201  0.031699579  0.033509499            3 
  199000     1.201476   -6.9127286    75.715667  0.031706728  0.033509386            3 
  200000    1.2084101    -6.948121    75.954692  0.031647788  0.033507659            5 
  201000    1.2265493   -6.9301115     76.24628  0.031611227  0.033503678            1 
  202000    1.2322363   -6.9557144    76.511559  0.031564175  0.033501441            3 
  203000    1.2362321   -6.9492129    77.393356  0.031770672   0.03350219            4 
  204000    1.2155836   -6.9200645    77.705666  0.031742511  0.033501247            3 
  205000    1.1981543    -6.934901    77.773919  0.031615414  0.033498771            2 
  206000    1.2046315   -6.8346856    78.923413  0.031926947  0.033497431            3 
  207000    1.2269466   -6.8928936    79.108269  0.031847129  0.033498363            1 
  208000     1.211363   -6.8583492    79.372506  0.031799882  0.033500527            4 
  209000    1.2347884    -6.878522    79.862182  0.031842975  0.033500759            2 
  210000    1.2319253   -6.8667078    79.834064  0.031680184  0.033499812            2 
  211000    1.2208515   -6.9526603    80.327838  0.031725054  0.033499508            2 
  212000    1.2187929    -6.919964    81.022452  0.031848448  0.033499478            2 
  213000    1.2029924   -6.8804317    81.529675  0.031897369  0.033497618            1 
  214000    1.2095532   -6.9013437     81.73379    0.0318278   0.03349615            2 
  215000    1.2276752   -6.9101149    81.759409  0.031689693  0.033493293            1 
  216000    1.2199163   -6.8667037    82.636292  0.031881285   0.03349161            2 
  217000    1.2064926   -6.9513487    82.363388  0.031629565  0.033488284            5 
  218000    1.1823703   -6.8784001     83.02943  0.031739079  0.033482997            3 
  219000    1.2078846    -6.917155    83.317179  0.031703645  0.033478619            1 
  220000     1.233151   -6.9174751    83.643012  0.031682959  0.033472952            1 
  221000    1.1892297   -6.9107449    83.788769  0.031594559  0.033465419            2 
  222000    1.2273856   -6.9550745    84.244166  0.031623185   0.03345956            4 
  223000    1.2015318   -6.8932831    84.886483  0.031721406  0.033452041            2 
  224000    1.2382934   -6.8319902    85.614468   0.03185062  0.033445556            4 
  225000    1.2289278   -6.9163842    85.797697  0.031776925  0.033440771            5 
  226000    1.2304922   -6.8868401    86.239105   0.03179908  0.033435473            2 
  227000    1.2199955   -6.9251915    86.402957  0.031719147  0.033429263            2 
  228000    1.1989854   -6.9204313    86.886415  0.031756731  0.033422652            2 
  229000    1.2123885     -6.93444    86.972737  0.031649468  0.033417401            1 
  230000     1.227528   -6.9176348    87.252116  0.031613085  0.033412857            1 
  231000    1.2117718   -6.8988486    87.880648  0.031702975  0.033404933            2 
  232000    1.2587103     -6.87428    88.372272  0.031742914  0.033399514            2 
  233000    1.2039641   -6.9425194    88.733017    0.0317357  0.033394771            2 
  234000    1.2388703   -6.9294935    89.172581  0.031756617  0.033390243            1 
  235000    1.1960049   -6.9740083    89.101621  0.031596319  0.033385706            1 
  236000    1.1896353   -6.9566856    90.128833  0.031825153   0.03338053            1 
  237000    1.2064659   -6.8848256    91.008875  0.032000308  0.033378421            2 
  238000     1.222091   -6.9248158    91.525173  0.032046629  0.033379274            2 
  239000     1.208623   -6.9601504    91.665975  0.031961637  0.033380318            4 
  240000    1.2119785   -6.9312314    92.184767    0.0320086  0.033381363            3 
  241000    1.2085582   -6.9073797    92.624028  0.032027672  0.033382373            2 
  242000    1.2239102   -6.9462206    92.625386  0.031895794  0.033381773            1 
  243000      1.21254    -6.909772    93.349707  0.032012931  0.033380101            5 
  244000    1.1752108   -6.9129758    93.427476  0.031908291  0.033379515            1 
  245000    1.2064232   -6.9015635    94.122756  0.032014543  0.033379092            1 
  246000    1.2079426    -6.902507    94.441345  0.031992326  0.033377243            2 
  247000    1.2116269   -6.9120575    94.409536   0.03185207  0.033375144            2 
  248000    1.2104325   -6.9237112     95.01553  0.031927261  0.033375044            2 
  249000    1.2090649   -6.9390629    95.318693    0.0319005  0.033374056            5 
  250000    1.2183724    -6.885986    96.127484  0.032042495   0.03337434            5 
  251000    1.2147238   -6.9272077    96.122789  0.031913277   0.03337336            8 
  252000    1.2244266   -6.9020112    96.312917   0.03184951  0.033371223            3 
  253000    1.2181286     -6.91746    96.655813  0.031836566  0.033367984            3 
  254000    1.2142398   -6.9949108    96.956959  0.031810026  0.033363584            2 
  255000    1.2043694   -6.9529984    97.235788  0.031776401  0.033357889            2 
  256000    1.1906133   -6.9610922    98.038438  0.031913554  0.033353206            2 
  257000    1.1997632   -6.9592529    98.179772  0.031835205  0.033347985            1 
  258000    1.1895778   -6.9359263    98.474896  0.031807137   0.03334366            3 
  259000    1.2019169   -6.9370363    98.879376  0.031814471  0.033338638            2 
  260000    1.2024715   -6.9456012    98.797447  0.031665848  0.033332908            3 
  261000    1.2419053   -6.9744274    99.386307  0.031732537  0.033326664            2 
  262000    1.1873728   -6.9166153    99.589923  0.031676184  0.033318468            5 
  263000    1.2321522   -6.9482796    100.01195  0.031689465  0.033309077            1 
  264000    1.2249337   -6.9564129    100.09696  0.031596263  0.033300466            2 
  265000    1.2193469   -6.9190681    100.59007  0.031632096  0.033291663            4 
  266000    1.2116666   -6.9464527    100.86857  0.031600428  0.033281698            6 
  267000    1.2205796    -6.994154    100.70172  0.031429999  0.033270183            2 
  268000    1.2168204   -6.9264363    101.52889   0.03156993  0.033257686            2 
  269000    1.1796458   -6.9380922    102.05507  0.031615574  0.033245591            2 
  270000      1.18532   -6.9147675     102.7414  0.031710308  0.033235399            1 
  271000    1.2081533   -6.9313714    102.52068  0.031525424  0.033225727            7 
  272000    1.2059059   -6.9222641    102.76821   0.03148536  0.033215749            1 
  273000    1.1952773   -6.9312286    103.40562  0.031564598  0.033205228            2 
  274000    1.2051131   -6.9145532    103.62252  0.031515365  0.033192536            2 
  275000    1.2188697   -6.9056023    103.88544  0.031480435  0.033180049            3 
  276000    1.1747126   -6.9324429    104.41168  0.031525264  0.033165496            1 
  277000    1.2109035   -6.9428249    104.43392  0.031418148  0.033152541            2 
  278000    1.2066559     -6.93609    105.06189  0.031493374   0.03313992            2 
  279000    1.2049112   -6.9124273    105.30632    0.0314535  0.033127949            1 
  280000    1.2153239   -6.9098741    105.65437  0.031444754  0.033116805            1 
  281000    1.2198762   -6.9122935    106.28202  0.031518987  0.033104347            2 
  282000    1.1784174    -6.902308    106.67963  0.031524713  0.033093329            4 
  283000    1.1819998   -6.9741165    107.15588  0.031553557  0.033081979            2 
  284000    1.2008933   -6.9387053    107.34786  0.031498786  0.033070702            2 
  285000    1.2186046   -6.8983435    108.02023  0.031584862  0.033060005            3 
  286000    1.2204466   -6.9608822    108.49078  0.031611533  0.033050848            3 
  287000    1.2063495   -6.9684004    109.04537  0.031662418   0.03304169            1 
  288000    1.1971439   -6.9765383    109.29912  0.031625902  0.033034094            4 
  289000    1.2020149   -6.9107252    110.34412  0.031817796  0.033028206            4 
  290000    1.2029442   -6.9319206    110.34587  0.031708582  0.033022276            3 
  291000    1.2004549   -6.9581334    110.86983  0.031749665  0.033016722            2 
  292000     1.192016   -6.8851839    110.95223  0.031664448   0.03301008            1 
  293000    1.2249164   -6.9254087    111.24857  0.031640663  0.033004855            2 
  294000    1.1979606   -6.9399498    112.08436  0.031769943   0.03299996            1 
  295000    1.2158267   -6.9698769    112.41079  0.031754459  0.032994953            3 
  296000    1.2029221   -6.9721873     113.0897  0.031838317  0.032990893            4 
  297000    1.2081033   -6.9165008    113.68767  0.031898898  0.032988602            2 
  298000    1.2210009   -6.9102557     114.6061  0.032048686  0.032988057            2 
  299000    1.1937986   -6.9579762    114.41174   0.03188733  0.032987541            2 
  300000    1.2020482    -6.984686    114.79556  0.031887655  0.032986901            2 
  301000    1.2012531   -6.9754198    114.92606  0.031817845  0.032985641            3 
  302000    1.1760399   -6.9282329    115.64022  0.031909552  0.032984148            5 
  303000    1.1876664   -6.9472581      116.427  0.032020626   0.03298226            1 
  304000    1.2223427   -6.9447945    116.24019  0.031864087   0.03298034            2 
  305000    1.2046339   -6.9187425    116.48024  0.031825202  0.032977547            3 
  306000    1.1681876   -6.9594177    116.79581  0.031807137  0.032973933            3 
  307000    1.2276125   -6.9369686    117.64778  0.031934794  0.032972605            2 
  308000    1.2333639   -7.0140692    117.64578  0.031830567  0.032971766            3 
  309000    1.1948149   -6.9405287    118.64732  0.031997658  0.032970728            2 
  310000    1.2028358   -6.9656819    118.67714  0.031902457  0.032970495            1 
  311000    1.1894828   -6.9421648    118.98275  0.031881765  0.032968114            2 
  312000    1.2006104   -6.9801453    119.39524  0.031889755   0.03296648            6 
  313000    1.1795592   -6.9325549    119.24134  0.031746895  0.032962864            5 
  314000    1.1781706   -6.9449553    119.72493  0.031774132   0.03295991            3 
  315000    1.2030292   -6.9083329      120.685  0.031927248  0.032957152            3 
  316000    1.1764047   -6.9475355    120.73687  0.031839893   0.03295432            3 
  317000    1.1937217   -6.9669315    120.79654  0.031755136  0.032949927            3 
  318000    1.2113872   -6.9822863     121.5121  0.031842793   0.03294477            2 
  319000     1.189463   -7.0143401    121.35816   0.03170276  0.032940618            4 
  320000    1.1785644   -6.9592171     122.2777   0.03184315  0.032936512            3 
  321000    1.1963343   -6.9494557    122.60643  0.031829291  0.032933388            5 
  322000    1.1809856   -6.9409913    123.22427  0.031890339  0.032931044            3 
  323000    1.2112933   -6.9692466    123.13289  0.031768031  0.032927127            4 
  324000    1.2149202   -6.9449297    123.35276  0.031726533  0.032921958            2 
  325000    1.1940717   -6.9268458    123.89181  0.031767131   0.03291659            2 
  326000    1.2071172   -6.9736148     124.3048  0.031775257  0.032911142            2 
  327000    1.1962062   -6.9951578     124.4591  0.031717405  0.032905657            2 
  328000    1.1918624   -6.9841497     125.0162  0.031762246   0.03290001            4 
  329000    1.2127003   -6.9539968    125.42317  0.031768787  0.032895234            4 
  330000    1.2213719   -6.9809602    125.28885  0.031638597  0.032889302            1 
  331000    1.1717913   -6.9622258    125.78469  0.031667848  0.032883684            5 
  332000    1.2149074   -6.9694411    126.43579  0.031735892  0.032877894            2 
  333000    1.1561232   -7.0334828    126.48288  0.031652372  0.032871925            4 
  334000     1.194407   -6.9524778    127.26052  0.031751628  0.032866962            2 
  335000    1.2278057   -6.9699667    127.66511   0.03175749  0.032863544            2 
  336000    1.2103209   -6.9758798    128.07776  0.031765318  0.032860738            3 
  337000    1.2295933   -7.0148716    128.36677  0.031742525  0.032857207            2 
  338000    1.2050252   -6.9718153    129.27106  0.031871563  0.032853682            3 
  339000    1.1906644   -6.9492642    129.43715  0.031818376  0.032851207            1 
  340000    1.1853349   -6.9364048    130.02371  0.031868557  0.032847847            1 
  341000    1.2233739   -6.9565104    129.76202  0.031711148  0.032843746            2 
  342000    1.1981731   -6.9702502    130.13333  0.031708901  0.032840124            4 
  343000    1.1583938   -7.0064235    131.15872  0.031865577  0.032836446            2 
  344000     1.225246     -6.91707    131.00609   0.03173597  0.032831724            4 
  345000    1.1984659    -6.990972    131.56521  0.031779036   0.03282745            2 
  346000    1.1915926   -6.9674736    131.96512  0.031783507  0.032823324            3 
  347000    1.1927236   -7.0045642    131.97146  0.031693433  0.032819243            4 
  348000     1.212016   -6.9334492    132.64927  0.031764671   0.03281484            7 
  349000    1.2162811   -6.9434777    132.93895  0.031742824  0.032811652            3 
  350000    1.2223048   -6.9123917    134.02838   0.03191152  0.032808585            3 
  351000    1.1990824   -6.9708236    133.71608  0.031746458  0.032805486            2 
  352000    1.1870895   -6.9708308    134.02284  0.031728893  0.032800248            1 
  353000    1.1820288   -6.9957229    134.62167  0.031780376  0.032795842            1 
  354000    1.2129643    -6.934714    134.95661  0.031769447  0.032792012            1 
  355000    1.2070992   -6.9171164    135.01315  0.031693228  0.032786636            2 
  356000    1.1911201    -6.930529    135.37652  0.031689261  0.032781498            2 
  357000    1.2070287   -6.9059084     135.8993  0.031722525  0.032775256            1 
  358000    1.1716336   -6.9424177    135.92397  0.031639659   0.03276919            2 
  359000    1.1963084   -6.9461893    135.55123  0.031465002  0.032761734            5 
  360000    1.1797448   -6.9835235     135.8995  0.031458218  0.032752547            2 
  361000    1.1612442   -6.9739872    136.39808  0.031486169   0.03274452            3 
  362000      1.18563   -7.0435622    136.41445  0.031402959  0.032736296            3 
  363000    1.1894307   -6.9751551    136.87719  0.031422679  0.032727514            3 
  364000    1.1753914   -6.9760476     137.1705  0.031403502  0.032718196            3 
  365000     1.200223   -6.9557613    137.84301  0.031471006  0.032708578            3 
  366000    1.1806414   -6.9550105    138.50426  0.031535577  0.032699277            2 
  367000    1.2031938   -6.9683762    138.62178  0.031476336  0.032690755            4 
  368000    1.2101391   -6.9759001    139.16185    0.0315131  0.032683049            4 
  369000    1.2029182   -6.9724934     139.6682  0.031542049  0.032676041            5 
  370000    1.1876643    -6.960717    140.62933  0.031673272  0.032669346            5 
  371000    1.2087997   -6.9740439    140.13107  0.031475982  0.032663442            7 
  372000    1.1793116   -7.0092606    140.67392  0.031512974  0.032656712            3 
  373000    1.1989308   -6.9854403      140.588  0.031409294  0.032648906            4 
  374000    1.1812746   -6.9483607    141.20787  0.031463429  0.032641356            4 
  375000    1.2056238   -7.0304938    140.90949   0.03131322  0.032633009            2 
  376000    1.2054435   -6.9938727    141.13004  0.031278821   0.03262378            3 
  377000    1.1802406   -6.9607973    142.26318  0.031446326  0.032614637            3 
  378000    1.2027094   -6.9928323    141.90069  0.031283221  0.032605272            4 
  379000    1.1814944   -7.0052373    142.85332  0.031410142  0.032595521            2 
  380000    1.1999599   -7.0028258    142.96351  0.031351647  0.032587406            2 
  381000    1.2179223   -6.9682617    143.67229  0.031424385  0.032578759            2 
  382000    1.1982379   -6.9625094    144.37048  0.031494434  0.032570785            3 
  383000    1.1861333   -6.9875592    144.37227  0.031412591  0.032563271            3 
  384000    1.1755382   -6.9721019     145.0494  0.031477734  0.032555621            2 
  385000    1.1962833   -6.9302064    145.49187  0.031491746  0.032547864            7 
  386000    1.2066754   -6.9733797    145.72726  0.031460981  0.032539738            3 
  387000    1.1896649    -6.980237    145.58487  0.031349024  0.032532106            5 
  388000    1.2078413   -6.9694031    146.27275  0.031415968  0.032524758            2 
  389000    1.2149409   -6.9726637    146.28406  0.031337632  0.032517028            3 
  390000    1.1816795    -6.978725    146.80575  0.031368751  0.032510724            3 
  391000    1.2035929   -6.9359101     147.3888  0.031412788  0.032502573            3 
  392000    1.1936636   -6.9920921      147.593  0.031376063  0.032494659            2 
  393000    1.1902654   -6.9708672    147.88218  0.031357546  0.032486225            3 
  394000    1.1563758   -6.9610598    148.47053  0.031402397  0.032478408            4 
  395000    1.1734605   -6.9633405    148.61428  0.031353224  0.032470165            2 
  396000    1.2008857   -7.0281612    148.25886  0.031199256  0.032461404            4 
  397000    1.1572445   -7.0218648     148.9586  0.031267548  0.032452542            1 
  398000    1.1836942   -7.0029221    149.33491  0.031267779  0.032443208            2 
  399000    1.1753184    -6.996946    149.73651  0.031273289  0.032433882            2 
  400000     1.218234   -6.9751949    150.26951  0.031306148  0.032425168            2 
  401000    1.1853112   -7.0053071    150.31946  0.031238458  0.032416069            3 
  402000    1.1786775   -7.0489767    150.13383  0.031122269  0.032405213            3 
  403000    1.1885363   -7.0012952    151.04443  0.031233341  0.032395193            3 
  404000    1.1931499   -6.9628065    151.55062  0.031260441  0.032384875            3 
  405000    1.1603534   -6.9961969    151.81934  0.031238547  0.032374578            3 
  406000    1.1878153   -6.9412615     152.5716  0.031316011  0.032365335            4 
  407000    1.1701736   -6.9969445     151.8675  0.031094902  0.032356363            6 
  408000    1.1860379   -7.0449747    151.91107  0.031027587  0.032346784            2 
  409000    1.1752911   -6.9975941    152.71342  0.031115203   0.03233636            4 
  410000    1.1775125   -7.0024589     152.8335  0.031063719  0.032325675            4 
  411000    1.1871398   -7.0239953    153.16383  0.031055115  0.032314584            3 
  412000    1.1467847    -7.006656    153.21701  0.030990495  0.032303213            3 
  413000    1.1802329   -6.9525188    153.86669  0.031046547   0.03229185            2 
  414000    1.1891337   -6.9585706    154.18063  0.031034749  0.032280954            4 
  415000    1.1691303   -6.9592011    154.70306  0.031064871  0.032269595            3 
  416000    1.1875362   -6.9841029    155.56372  0.031162604  0.032258451            4 
  417000    1.2042099   -7.0005804    155.67974   0.03111106  0.032247787            2 
  418000    1.1977429   -6.9739617    155.90907  0.031082351  0.032237492            3 
  419000    1.1814304   -7.0340758    155.35439  0.030897851  0.032228085            3 
  420000    1.1696036   -6.9928928    156.75256  0.031101698   0.03221823            2 
  421000    1.1947179   -7.0012038    156.30339  0.030938914  0.032208026            3 
  422000    1.1773382   -6.9940801    157.23156  0.031048887  0.032197781            3 
  423000    1.1829608   -6.9449058    158.20294  0.031166851  0.032187854            3 
  424000    1.2061466   -6.9871324    157.41856  0.030939183  0.032177527            4 
  425000    1.1842223   -6.9880977    158.03915  0.030988069  0.032167244            3 
  426000     1.198233   -6.9743242    158.52299  0.031009974  0.032156989            4 
  427000    1.1855739   -6.9525278    158.99638  0.031029738  0.032147143            3 
  428000    1.1734193   -6.9998332     158.9174  0.030941862  0.032136581            4 
  429000    1.1890203   -7.0118602      159.168  0.030918414  0.032126031            3 
  430000    1.1691368   -7.0120712    159.55185  0.030920901  0.032115504            3 
  431000    1.1847863   -6.9886074    159.79343  0.030895867  0.032105167            3 
  432000    1.2006448   -7.0053282    160.50234    0.0309611  0.032094551            2 
  433000    1.1879929   -6.9794692    160.66212  0.030920347  0.032084023            2 
  434000    1.1678773   -7.0076399    161.26558  0.030964972  0.032073058            2 
  435000    1.1911609   -7.0484291    161.52217  0.030942944  0.032061677            2 
  436000     1.166515   -6.9868656    162.50614  0.031060043  0.032050487            2 
  437000    1.1853181    -6.979848    162.47309  0.030982665  0.032040642            3 
  438000    1.1693912   -6.9912048    162.74057  0.030962817   0.03203099            3 
  439000    1.1938196   -7.0115038    163.32676  0.031003562  0.032020964            4 
  440000    1.1818359   -7.0090296    163.85182  0.031032541  0.032011456            2 
  441000    1.1783627   -7.0260528    163.84845  0.030961536  0.032002634            2 
  442000    1.1915985   -7.0227652     164.0981  0.030938555  0.031993044            5 
  443000    1.1827306   -7.0170669     165.0921  0.031055699  0.031983891            3 
  444000    1.1911415   -7.0445567    164.63334  0.030899652  0.031974591            3 
  445000    1.2000227   -7.0048378    165.15486  0.030927876   0.03196513            1 
  446000    1.1634053   -7.0047989    165.93343  0.031004004  0.031956075            7 
  447000     1.187769   -7.0430484    165.88188  0.030925034  0.031947039            3 
  448000    1.1882307   -6.9895001    166.97825  0.031059942  0.031937672            4 
  449000    1.1801072   -6.9732159    166.84689  0.030966387  0.031929589            1 
  450000    1.1856725   -7.0260125    166.94906  0.030916492  0.031920333            1 
  451000    1.2077873   -7.0620129    166.91383  0.030841432    0.0319111            1 
  452000    1.1734753   -7.0087246    167.94147   0.03096266  0.031901886            3 
  453000    1.1627012   -6.9966029    168.27608  0.030955864   0.03189287            4 
  454000    1.1715461   -7.0004565     168.9068  0.031003451  0.031884387            2 
  455000    1.1818312    -7.032459    168.92883  0.030939347  0.031875724            1 
  456000    1.1811726    -6.988457    169.68491   0.03100967  0.031867746            1 
  457000    1.1880773   -6.9661363    170.13383  0.031023674  0.031859709            2 
  458000    1.2052872   -7.0240043    169.36956  0.030816877  0.031851062            2 
  459000    1.1871998   -6.9883975    170.24157  0.030908055  0.031842495            4 
  460000    1.2034578   -7.0566602    170.66364  0.030917327  0.031833919            4 
  461000    1.1840639    -7.053989    170.78928  0.030872972  0.031825843            2 
  462000    1.1643705   -6.9888986    171.26482  0.030891923  0.031817455            3 
  463000    1.1614951   -7.0104983    171.93768  0.030946307  0.031809543            1 
  464000    1.1821604   -6.9703006    172.10473  0.030909613  0.031802176            3 
  465000    1.1755035    -7.030656    172.34887  0.030886894  0.031794238            4 
  466000    1.1477056   -7.0395177    172.33708  0.030818505   0.03178658            3 
  467000    1.1694113   -6.9773694    173.39717  0.030941678  0.031778891            4 
  468000    1.1656252   -6.9923044    173.68523  0.030926856  0.031771734            2 
  469000    1.1742454   -6.9929632    173.55641  0.030838026  0.031763689            2 
  470000    1.1458673   -7.0366509    173.87116   0.03082822  0.031755529            2 
  471000    1.1700974   -7.0530697    173.98711  0.030783281  0.031747286            5 
  472000    1.1679009   -7.0392667    174.05432  0.030729929  0.031738907            3 
  473000     1.181168   -7.0187206    175.69327  0.030953713  0.031731228            2 
  474000    1.1813535   -7.0407048    175.60393  0.030872701  0.031723798            3 
  475000    1.1514221   -7.0146918    176.36138  0.030940593  0.031715839            2 
  476000    1.2137223   -7.0303278    176.49446   0.03089889  0.031708464            4 
  477000    1.1771684   -7.0206162    176.63259  0.030858243  0.031700437            2 
  478000    1.1636427   -7.0410192    176.41242  0.030755303  0.031692402            3 
  479000    1.1480784   -7.0276253    177.60198  0.030898048  0.031684483            3 
  480000    1.1783212   -7.0533304    177.91183  0.030887471  0.031677248            3 
  481000    1.1684354   -7.0722475    177.91985  0.030824645   0.03166995            3 
  482000    1.1808793   -7.0059615    178.65511  0.030887813   0.03166218            3 
  483000    1.1603502     -6.99664    179.72993  0.031009305  0.031655041            5 
  484000    1.1487391   -7.0348762    179.28481  0.030868596  0.031648408            5 
  485000    1.1757154   -7.0576152    179.83234  0.030899027  0.031641204            2 
  486000    1.1597086   -7.0097064    179.74163  0.030819896  0.031633701            1 
  487000    1.1547925   -7.0845458    179.56595  0.030726548  0.031626379            3 
  488000    1.1518364   -7.0304534    179.96914  0.030732434  0.031618322            2 
  489000    1.2205987   -7.0128483    180.64708  0.030785119  0.031610388            2 
  490000    1.1766358   -6.9746619    181.83426  0.030924194  0.031603213            5 
  491000    1.1612228   -7.0031343    181.79429  0.030854428  0.031595575            1 
  492000    1.1869702   -7.0002883    182.54275  0.030918487  0.031588614            4 
  493000    1.1846757   -7.0026943     182.5382  0.030855004  0.031581219            2 
  494000    1.1717434   -7.0711761     181.7917  0.030666616  0.031573606            5 
  495000    1.1749796   -7.0380141    182.93028  0.030796344   0.03156521            2 
  496000    1.1496263   -7.0445826    183.24829  0.030787683  0.031557086            2 
  497000    1.1690937   -7.0205752    183.61919  0.030787927  0.031548518            3 
  498000    1.1872167   -7.0433774    183.46522  0.030700338  0.031539837            4 
  499000    1.1803996    -7.058999    183.30954  0.030612816  0.031531428            2 
  500000    1.1606269   -7.0612991    183.74208   0.03062368  0.031522891            5 
  501000    1.1662594   -7.0409336    184.32951  0.030660265  0.031515098            3 
  502000     1.183749   -7.0421317    185.07954  0.030723696  0.031507051            2 
  503000    1.2032933   -7.0118377    185.50017    0.0307323  0.031499334            4 
  504000    1.1566141   -7.0393267    185.28252  0.030635338  0.031491608            1 
  505000    1.1857318   -7.0862831    185.61293  0.030629197  0.031483658            6 
  506000    1.1817051   -7.0287178    186.73887  0.030754096  0.031475652            4 
  507000    1.1705277   -7.0908852    185.91598  0.030558182  0.031467649            2 
  508000    1.1639426   -7.0072319    187.77071  0.030802281  0.031459952            2 
  509000    1.1746177   -7.0264686    187.52836  0.030702089  0.031452839            2 
  510000      1.14927   -7.0310323    187.64904  0.030661607  0.031445901            2 
  511000    1.1626819   -7.0765076     187.5965  0.030593036   0.03143828            2 
  512000    1.1684788   -7.0463608    188.49788  0.030679994  0.031430692            2 
  513000    1.1901233   -7.0637406      188.526  0.030624756  0.031423441            4 
  514000    1.1569962   -7.0499876    189.68776  0.030753527  0.031416417            2 
  515000    1.1900734   -7.0428326    189.98598  0.030742068  0.031409496            5 
  516000    1.1640488    -7.059807    189.71829  0.030639259  0.031402139            4 
  517000    1.1971585   -7.0765319     190.0643  0.030635767  0.031394866            2 
  518000    1.1488841    -7.030248    190.94014  0.030717526  0.031387913            5 
  519000    1.1834112    -7.050706    191.40245  0.030732571  0.031380911            1 
  520000    1.1519068    -7.050765    191.69381  0.030720161  0.031374068            4 
  521000    1.1776122   -7.0498222    191.69113  0.030660769   0.03136705            3 
  522000    1.1767579   -7.0706848    191.85987   0.03062897  0.031359684            2 
  523000    1.1591261   -7.0352905    192.51806   0.03067528  0.031352112            4 
  524000    1.1923675   -7.0341127    191.72892   0.03049124  0.031344974            3 
  525000    1.1687596   -7.0197811    192.36794  0.030534593  0.031337185            2 
  526000    1.1882577   -7.0439712    193.22472  0.030612282   0.03132946            3 
  527000    1.1491308   -7.0339586    193.14723   0.03054194  0.031321805            2 
  528000    1.1914734   -7.0614647    193.15003  0.030484538  0.031313624            2 
  529000    1.1704202   -7.0297596    194.14812   0.03058414  0.031306083            3 
  530000    1.1915202   -7.0471978    194.83339  0.030634181  0.031299305            2 
  531000     1.165827   -7.0406536    194.84994  0.030579086  0.031292947            1 
  532000    1.1878446   -7.0386052    195.53789  0.030629369   0.03128615            2 
  533000    1.1934673   -7.0162195    196.55994  0.030731698  0.031279573            3 
  534000    1.1566494   -7.0169923    195.85046   0.03056343  0.031272727            4 
  535000     1.199282    -7.016282    197.41945  0.030750693  0.031266446            3 
  536000    1.1864067   -7.0418207    196.31909  0.030522247  0.031259526            3 
  537000    1.1725109   -7.0579757    196.98525  0.030568785  0.031253048            3 
  538000    1.1787376   -7.0313492    198.10286  0.030685077  0.031246787            1 
  539000    1.1815075   -7.0397945    197.98991  0.030610686  0.031240362            3 
  540000    1.1805029   -7.0561643    198.53281  0.030637779   0.03123451            2 
  541000    1.1620548   -7.0393848     198.6011  0.030591666  0.031228215            3 
  542000    1.1750924   -7.0118424    199.68148  0.030701334  0.031221915            3 
  543000    1.1647214   -7.0289562    199.14037  0.030561752   0.03121534            2 
  544000    1.1644364   -7.0687889    199.51155  0.030562432  0.031208803            2 
  545000    1.1571412   -7.0538008    200.32497   0.03063073  0.031202119            2 
  546000     1.183828   -7.0433795    200.27653  0.030567236  0.031195579            3 
  547000    1.1759724   -7.0297013    201.11026  0.030638371  0.031188943            3 
  548000    1.1553465   -7.0529235    201.18254  0.030593451   0.03118282            2 
  549000    1.1614581   -7.0361828    202.13732  0.030682653  0.031176769            2 
  550000    1.1663441   -7.0595162    202.22066  0.030639495   0.03117122            4 
  551000    1.1627486    -7.010825    203.36242  0.030756567  0.031165758            2 
  552000    1.1578686   -7.0829833    202.19514  0.030524628  0.031160012            2 
  553000    1.1524156   -7.0774076    203.00799  0.030591921  0.031153651            4 
  554000    1.1715529   -7.0849739    203.09148   0.03054926  0.031147845            2 
  555000    1.1728688   -7.0843077    203.46714  0.030550621  0.031141679            2 
  556000    1.1555556   -7.0507992    203.90213   0.03056087  0.031135681            2 
  557000    1.1834852   -7.0542738     204.4595  0.030589393  0.031130278            5 
  558000    1.1722923   -7.0883671     204.4727  0.030536544  0.031124444            2 
  559000    1.1608738   -7.0328861    204.62068  0.030503978  0.031118659            3 
  560000    1.1505349   -7.1014624    205.21414  0.030537818  0.031112854            2 
  561000    1.1598534    -6.987058    205.54671  0.030532785  0.031106838            5 
  562000    1.1850561   -7.1083001    204.95254  0.030390352  0.031100504            2 
  563000    1.1556221   -7.0650709    205.94868  0.030483819  0.031093801            6 
  564000    1.1555493    -7.031758    207.01141  0.030586792  0.031087759            2 
  565000    1.1523985   -7.0861652    206.34711  0.030434677  0.031081974            2 
  566000    1.1582627   -7.0210026     206.9243  0.030465887  0.031075771            3 
  567000    1.1650421   -7.0623687    207.07202  0.030433865  0.031069786            3 
  568000    1.2043434   -7.0417238    208.04391  0.030522875  0.031064133            2 
  569000    1.1748388   -7.0849352     208.2525  0.030499781   0.03105852            3 
  570000    1.1446381   -7.0555712    209.73935  0.030663648  0.031053327            4 
  571000    1.1398014   -7.1239043    209.10416  0.030517244  0.031048021            3 
  572000    1.1376659   -7.0423673    209.84347  0.030571602   0.03104245            3 
  573000    1.1871373   -7.0721733     209.4675  0.030463569  0.031037058            3 
  574000    1.1428102   -7.0519335    210.38492  0.030543688  0.031031925            3 
  575000    1.1518525   -7.0801495    211.10796  0.030595357  0.031026437            2 
  576000    1.1271978    -7.048874    210.71919  0.030485994  0.031020716            3 
  577000    1.1840994   -7.0901549     210.5008  0.030401618  0.031014938            3 
  578000     1.176471   -7.0622749    211.85786  0.030544673  0.031008832            5 
  579000    1.1580815   -7.0790056    211.99833  0.030512138  0.031002236            3 
  580000    1.1593966   -7.0812704    211.62496  0.030405886  0.030995972            3 
  581000    1.1650461   -7.0462342    211.93147  0.030397515  0.030989478            1 
  582000    1.1798839   -7.0273651    212.52527  0.030430308   0.03098353            3 
  583000    1.1544911   -7.0936745    211.77231  0.030270484  0.030976568            5 
  584000    1.1625602   -7.0699688    212.74725   0.03035777  0.030969455            4 
  585000    1.1648975   -7.0590496    213.23218  0.030374954  0.030962137            3 
  586000    1.1898359   -7.0700325    213.29371   0.03033187  0.030955013            2 
  587000    1.1522855   -7.0379142    214.22464  0.030412357  0.030948165            2 
  588000    1.1695229   -7.0499359    213.70981  0.030287672  0.030941276            3 
  589000    1.1673628   -7.0454541    215.16103  0.030441571  0.030934011            4 
  590000    1.1768677   -7.0633238    213.41727  0.030143682  0.030926268            1 
  591000    1.1763994   -7.0520722    214.79518  0.030286968  0.030918812            2 
  592000    1.1576016   -7.0841015    215.02237  0.030267789  0.030911267            3 
  593000    1.1451982   -7.0402459    215.31073  0.030257269  0.030903603            3 
  594000    1.1608904   -7.0620188    216.36272  0.030353916  0.030896284            1 
  595000    1.1597759   -7.0307473    216.12236  0.030269238   0.03088877            3 
  596000    1.1541547   -7.0937333    216.34285   0.03024928  0.030881238            4 
  597000      1.19481   -7.1040603    215.33202  0.030057513  0.030873916            2 
  598000    1.1592817   -7.0211309    217.12457  0.030257047  0.030866474            2 
  599000    1.1641507   -7.0946316     215.8486  0.030029021  0.030858706            3 
  600000    1.1678401   -7.0566597    217.13279  0.030157332  0.030850267            3 
  601000    1.1448694   -7.0391399    217.04765  0.030095348  0.030841442            2 
  602000    1.1721574   -7.0656224    216.96437  0.030033827  0.030832718            4 
  603000    1.1720325   -7.1083258    216.91892  0.029977739  0.030823351            6 
  604000    1.1340864   -7.0916196    217.26031  0.029975208   0.03081436            4 
  605000    1.1758876   -7.0928031    217.83761   0.03000518  0.030805305            3 
  606000    1.1505835   -7.0850324    217.28484  0.029879653  0.030796207            3 
  607000    1.1505692   -7.0723587    218.33264  0.029974278  0.030786699            3 
  608000    1.1552067    -7.108002    218.04021  0.029884897  0.030776918            3 
  609000    1.1331971   -7.0548987    219.87444  0.030086814  0.030767895            2 
  610000    1.1588163   -7.0418324      219.765  0.030022541  0.030758645            5 
  611000    1.1802886   -7.1101862     219.4729  0.029933564  0.030749801            4 
  612000    1.1559574   -7.0098779    220.82006  0.030068091  0.030741468            1 
  613000    1.1562147   -7.0628397    220.13038  0.029925283  0.030732816            3 
  614000     1.153249   -7.0414389    220.73029  0.029957965  0.030724376            2 
  615000    1.1325954   -7.0246778    222.35124  0.030128894  0.030715666            4 
  616000    1.1428523   -7.0962391    221.14122  0.029916291  0.030707092            3 
  617000    1.1595533   -7.1462454    221.43806  0.029907895  0.030697994            4 
  618000    1.1755687   -7.1146408    221.33914  0.029846162  0.030688892            7 
  619000    1.1503327   -7.0581672    222.26659  0.029922804  0.030679837            1 
  620000    1.1647837   -7.0094981    223.59723  0.030053392  0.030672013            1 
  621000    1.1615235   -7.0911064    223.01177  0.029926432  0.030663982            2 
  622000    1.1770898   -7.0819372    222.25051  0.029776328  0.030655769            2 
  623000    1.1710208    -7.074574    223.29024  0.029867609  0.030647394            1 
  624000    1.1443563    -7.067486    224.47398  0.029977828  0.030639067            4 
  625000    1.1560516   -7.0673251    224.44566  0.029926087  0.030630942            3 
  626000    1.1491724   -7.0834934    224.53443    0.0298901  0.030622733            1 
  627000    1.1211279   -7.0733068    224.85139  0.029884555  0.030614056            2 
  628000    1.1095796   -7.0962562    225.02927  0.029860572  0.030605575            3 
  629000    1.1776215   -7.0726754    226.66545  0.030029869  0.030597571            8 
  630000    1.1574176    -7.117848    226.13636  0.029912217  0.030589636            4 
  631000    1.1344361   -7.0434072    227.56177   0.03005306  0.030581984            3 
  632000    1.1280515   -7.0895214    227.08348  0.029942442  0.030574126            2 
  633000    1.1592649   -7.1242663    226.27724     0.029789  0.030565598            2 
  634000    1.1371023   -7.1019737    227.22615  0.029866739   0.03055755            1 
  635000     1.166001   -7.0526229    228.01061  0.029922652  0.030549512            2 
  636000    1.1338445   -7.0879252    228.16213  0.029895457  0.030541359            3 
  637000    1.1419729   -7.0548709    228.89853  0.029944862   0.03053336            3 
  638000    1.1530888   -7.0571322     228.3408  0.029825078  0.030525282            5 
  639000    1.1723898   -7.0588458    228.98417  0.029862307  0.030517047            2 
  640000    1.1406609   -7.0628147    229.48424   0.02988076  0.030509323            2 
  641000    1.1520952   -7.1436822     229.0477  0.029777392  0.030501193            3 
  642000    1.1447257   -7.1227386    229.63342  0.029807038  0.030492861            3 
  643000     1.169589    -7.060276    231.11067  0.029952135  0.030484344            1 
  644000    1.1629186   -7.0742226    229.28659   0.02966959  0.030476261            3 
  645000    1.1540005   -7.1166784    230.32797  0.029758136  0.030467745            2 
  646000     1.160068   -7.1117104    230.73608  0.029764716  0.030459794            1 
  647000    1.1582795   -7.0665187    231.68401  0.029840805  0.030451798            3 
  648000    1.1388271   -7.0875741    231.29468  0.029744686  0.030443417            4 
  649000    1.1564748   -7.1117052     231.6654  0.029746456  0.030435564            5 
  650000     1.132501   -7.0972957    231.49337  0.029678637  0.030427412            2 
  651000    1.1450842   -7.0783883    232.97665  0.029822919  0.030419032            5 
  652000    1.1451203   -7.0787278    232.81239  0.029756185  0.030410699            2 
  653000     1.148011   -7.1299618    232.25754  0.029639809  0.030401769            2 
  654000    1.1511838   -7.0849204    232.41357  0.029614369  0.030392423            2 
  655000    1.1364326   -7.1648022    232.26231  0.029549912  0.030383054            3 
  656000    1.1358453   -7.1108442    232.59586  0.029547239   0.03037304            2 
  657000    1.1421987   -7.0655663    234.20796  0.029706743  0.030363869            3 
  658000    1.1262374   -7.1186747    233.80505  0.029610569   0.03035458            5 
  659000    1.1279359   -7.0646649    233.97258  0.029586821  0.030345007            3 
  660000    1.1598586   -7.1159258    232.67777  0.029378507   0.03033492            2 
  661000    1.1460069   -7.0812291    234.40163   0.02955139  0.030324783            2 
  662000    1.1525835   -7.1121523     233.8022  0.029431294  0.030314844            6 
  663000     1.144068   -7.1482353    233.91975  0.029401679   0.03030428            2 
  664000    1.1397186   -7.1138201    235.39733  0.029542838  0.030294109            2 
  665000    1.1419614   -7.1060968    235.13448  0.029465473  0.030284148            2 
  666000    1.1509885   -7.0725032    236.00083  0.029529634  0.030274165            2 
  667000    1.1630494   -7.1384013     235.4492  0.029416442  0.030264563            5 
  668000    1.1246121   -7.1447994    235.48214  0.029376514   0.03025498            3 
  669000    1.1665224     -7.09205    236.20926  0.029423176  0.030245397            2 
  670000    1.1477094   -7.1032232    237.18932  0.029501159  0.030235977            2 
  671000    1.1441796   -7.1601174    236.99691  0.029433297  0.030226876            2 
  672000    1.1416632   -7.0543782    238.69644  0.029600253  0.030218041            3 
  673000    1.1363384    -7.117992    238.13312  0.029486518   0.03020923            4 
  674000    1.1409079   -7.1278144    238.10888  0.029439772   0.03020014            3 
  675000    1.1586955   -7.1591223    238.21595  0.029409376  0.030191192            4 
  676000    1.1381023   -7.1033225    238.99286  0.029461644  0.030182023            1 
  677000    1.1317249   -7.0712778    239.87931  0.029527242  0.030172471            2 
  678000     1.147598    -7.090485    239.29479  0.029411848  0.030163364            4 
  679000    1.1357483   -7.1206226    239.28919  0.029367844  0.030154119            2 
  680000    1.1407187   -7.0976435    240.26035   0.02944367  0.030144964            1 
  681000    1.1354973   -7.1184295    240.14709  0.029386574  0.030135702            1 
  682000    1.1486014   -7.1139117    240.52612    0.0293898  0.030126624            3 
  683000    1.1170203   -7.1180303    240.55618  0.029350436  0.030117351            4 
  684000    1.1535776    -7.124053    240.90864  0.029350468  0.030107951            2 
  685000     1.148625    -7.095224    241.79951  0.029415999  0.030098302            4 
  686000    1.1722664   -7.1177983    241.53357  0.029340813  0.030088877            3 
  687000    1.1391448   -7.0696288    242.58484  0.029425624  0.030079415            2 
  688000    1.1475044   -7.0892831    242.71832  0.029399021  0.030070035            2 
  689000    1.1281579   -7.1032942    241.81216  0.029246754  0.030060307            3 
  690000    1.1543836   -7.1168425    242.17959  0.029248742  0.030050624            3 
  691000    1.1645034   -7.1095513    242.76486  0.029276997  0.030040574            4 
  692000    1.1593825   -7.1381357    242.82815  0.029242311  0.030030848            3 
  693000    1.1671032   -7.1442095     243.0192  0.029223088  0.030021092            4 
  694000    1.1349561   -7.0790163    244.30478  0.029335348  0.030011302            1 
  695000    1.1272562   -7.1460435    244.12934  0.029272103  0.030001674            5 
  696000    1.1328274   -7.1240303    244.79073  0.029309235  0.029992492            3 
  697000    1.1332056   -7.1578498    244.26605  0.029204453  0.029983201            2 
  698000    1.1628214   -7.1230288    245.23839    0.0292787  0.029973511            3 
  699000    1.1381877   -7.1605408    244.85879  0.029191559  0.029963721            2 
  700000     1.136293   -7.1624111     244.7098  0.029132119   0.02995402            1 
  701000    1.1279384   -7.1360482     245.9171  0.029234082  0.029944761            2 
  702000    1.1409996   -7.1276623    245.81204  0.029179967  0.029935529            1 
  703000    1.1722036   -7.1182832    247.07809  0.029288536   0.02992597            3 
  704000    1.1435664    -7.132543    247.23961  0.029266052  0.029916715            3 
  705000      1.15018   -7.1388301    246.70963  0.029161895  0.029907688            6 
  706000    1.1351288   -7.1301469    247.43103   0.02920574  0.029898355            4 
  707000    1.1580108   -7.1343655    247.60289  0.029184687  0.029889409            3 
  708000    1.1439588    -7.132259     248.6096  0.029261958  0.029880534            1 
  709000    1.1654214   -7.1231258    248.65355  0.029225853  0.029872118            3 
  710000    1.1153763   -7.1291949    248.20933  0.029132551  0.029863104            2 
  711000    1.1461691    -7.127792     249.0529  0.029190447  0.029853982            3 
  712000    1.1241093   -7.1668265    248.62502  0.029099371  0.029844774            4 
  713000    1.1261795   -7.1467297    249.19109  0.029124719  0.029835657            9 
  714000    1.1190169   -7.1372459    248.40483   0.02899216  0.029826126            4 
  715000    1.1236671   -7.1261848    249.37247   0.02906439  0.029816719            2 
  716000    1.1089337   -7.1274372    250.25639  0.029126675  0.029807364            2 
  717000    1.1316395   -7.1381251     251.2624  0.029202976  0.029798363            2 
  718000    1.1185847   -7.1297483    251.29427  0.029166002  0.029789749            6 
  719000    1.1288863   -7.1159562    251.39401  0.029136997  0.029780893            1 
  720000     1.164336   -7.1483435    251.56219  0.029115994  0.029771642            2 
  721000    1.1403289   -7.0979413    252.53829  0.029188429  0.029762766            2 
  722000    1.1715686   -7.1216807    252.26567  0.029116536  0.029753653            3 
  723000    1.1570826   -7.0912395    254.09685  0.029287327  0.029744993            5 
  724000     1.117021   -7.1193214     252.8984  0.029108932   0.02973646            3 
  725000    1.1336297   -7.0871689    253.92012  0.029186221  0.029728244            1 
  726000    1.1585244   -7.1353774    253.22951  0.029066748  0.029719655            4 
  727000    1.1473759   -7.1187449    253.02775  0.029003639  0.029710339            3 
  728000    1.1518543   -7.1281244     253.7317   0.02904438   0.02970128            2 
  729000    1.1408661   -7.1158977    253.95142  0.029029655   0.02969209            5 
  730000    1.1340098   -7.1350269    253.19967  0.028904072  0.029682728            3 
  731000    1.1544241   -7.0920136    254.55056  0.029018531  0.029673418            8 
  732000    1.1434189   -7.1761793    253.67283  0.028878965  0.029663498            2 
  733000    1.1284942   -7.1218922    254.14664  0.028893433  0.029653525            4 
  734000    1.1452304   -7.1469783    254.82216  0.028930763  0.029643899            4 
  735000     1.159175   -7.1447593    255.14307  0.028927785  0.029634052            3 
  736000    1.1168344   -7.1567681    253.93265  0.028751432  0.029623778            4 
  737000     1.129338   -7.1106002    255.04951  0.028838706  0.029613701            1 
  738000    1.1319059   -7.0857897     256.1794  0.028927214   0.02960362            2 
  739000    1.1239405   -7.1234425    256.31958  0.028903877  0.029593922            5 
  740000    1.1518663   -7.1071203    256.57026  0.028893047  0.029584246            2 
  741000    1.1233787   -7.1282161    256.56524  0.028853491   0.02957449            3 
  742000    1.1405657    -7.122403    256.60491   0.02881906  0.029564805            4 
  743000    1.1113142   -7.1317289    257.55916  0.028887299  0.029555393            5 
  744000    1.1069047   -7.1549212    257.67565   0.02886152   0.02954564            4 
  745000    1.1402382   -7.1321303    258.29182  0.028891702  0.029536107            5 
  746000    1.1065684   -7.1126899    258.46472  0.028872288  0.029526514            2 
  747000    1.1517034   -7.1373999    258.25809  0.028810585  0.029516793            1 
  748000    1.1323562   -7.1316982    258.53098  0.028802471  0.029507651            3 
  749000    1.1588784   -7.1554191    258.24395  0.028732082   0.02949833            3 
  750000    1.1264598   -7.0942985    260.45197  0.028939108   0.02948924            3 
  751000     1.125006   -7.1107695    260.47663   0.02890331  0.029480569            5 
  752000    1.1169934   -7.1011878    260.59467  0.028877955  0.029471978            2 
  753000    1.1438709   -7.1644161    259.29544  0.028695822  0.029463078            3 
  754000    1.1384266   -7.1066017    260.98422   0.02884441  0.029453954            1 
  755000     1.144038    -7.132472    260.92791  0.028799991  0.029444699            4 
  756000     1.129158   -7.1486642    261.13415  0.028784628  0.029435336            2 
  757000    1.1085202   -7.1570181    261.04682  0.028736991   0.02942619            4 
  758000    1.1424658   -7.1564195     261.9593  0.028799396  0.029416894            2 
  759000    1.1278983   -7.1214539    262.11391  0.028778427  0.029407608            2 
  760000    1.1444495   -7.1547254    262.09394  0.028738371  0.029398415            4 
  761000    1.1250681    -7.062826    263.93969  0.028902726  0.029389223            3 
  762000     1.131002   -7.1149239    263.01456  0.028763622   0.02938036            5 
  763000    1.1270302   -7.1232461    262.83496  0.028706309    0.0293712            2 
  764000    1.1000605   -7.1899496    262.67577  0.028651371  0.029361982            4 
  765000    1.1103914    -7.143265    263.83294  0.028739972  0.029352597            3 
  766000    1.1294216   -7.2029766    262.34619  0.028540708  0.029343286            2 
  767000    1.1440316   -7.1378202    264.20659  0.028705626  0.029333646            4 
  768000    1.1410988   -7.1579595    263.88047  0.028632863   0.02932399            9 
  769000    1.1410546    -7.147648    264.31613   0.02864284  0.029314691            3 
  770000    1.1170604   -7.1361277     265.0737  0.028687629  0.029304942            3 
  771000     1.145949   -7.1273143    263.94881  0.028528839  0.029295414            2 
  772000    1.1309353   -7.1645174    263.35169  0.028427427  0.029285406            5 
  773000    1.1116139   -7.1725713    264.95616  0.028563622  0.029275293            3 
  774000    1.1365861   -7.1650238    264.34304  0.028460706  0.029265541            3 
  775000    1.1163445   -7.1469386     265.8392   0.02858486  0.029256108            2 
  776000    1.1556627   -7.1732055     266.4528  0.028613918  0.029246279            3 
  777000    1.1242991   -7.1498349    265.06708  0.028428472   0.02923594            3 
  778000    1.1310372   -7.1700821    265.65617  0.028455031  0.029225767            3 
  779000    1.0984033   -7.1498614    266.01794  0.028457204  0.029215467            8 
  780000    1.1207284   -7.1304194    267.19756  0.028546747  0.029205082            5 
  781000    1.1160216    -7.134979    265.77552  0.028358463  0.029194592            3 
  782000    1.1443692   -7.1254126    266.90696   0.02844277  0.029183888            2 
  783000    1.1089162   -7.1479863    265.74836  0.028283138    0.0291731            6 
  784000    1.1164008   -7.1163967    267.66943  0.028451258  0.029162284            6 
  785000    1.1308036   -7.1507234    267.23027  0.028368394  0.029151448           10 
  786000    1.1266595   -7.1121216    267.84866  0.028397865  0.029140339            3 
  787000    1.1043275   -7.1516582    267.51358    0.0283263  0.029129461            3 
  788000    1.1672118   -7.1664061    267.83764  0.028324623  0.029118608            2 
  789000    1.1458658   -7.1437396    268.77481  0.028387707  0.029107968            4 
  790000    1.1272894   -7.1523156    268.33626  0.028305513  0.029097361            3 
  791000    1.1542497   -7.1505339    269.59904  0.028402764  0.029086834            2 
  792000    1.1052215   -7.1883417    269.38425  0.028344302  0.029076355            3 
  793000    1.1530564   -7.1520497    269.05497  0.028273957     0.029066            2 
  794000    1.1379169   -7.1851068    270.33192  0.028372367  0.029055588            3 
  795000    1.1334163   -7.1507294    270.64446   0.02836944  0.029045799            5 
  796000    1.1105527   -7.1768379    270.28967  0.028296658  0.029036153            4 
  797000      1.10369   -7.1889006    271.34418  0.028371412  0.029026558            2 
  798000    1.1283094   -7.1682696    271.87481  0.028391271   0.02901705            3 
  799000    1.1124456    -7.140381    271.43852  0.028310233  0.029007436            2 
  800000    1.1474629   -7.1349217    272.37265  0.028372151  0.028998017            1 
  801000    1.1214806   -7.1507751    272.69487  0.028370253  0.028988322            1 
  802000    1.1159757   -7.1444765    272.20467  0.028283943  0.028978487            4 
  803000    1.1420727   -7.1369443    273.10179  0.028341821  0.028969205            2 
  804000    1.1320491   -7.1488273    273.46137   0.02834384  0.028959718            2 
  805000    1.1132909   -7.1864752    273.07794  0.028268938   0.02894983            3 
  806000    1.1112242   -7.1284817    274.43403  0.028374072  0.028939778            2 
  807000    1.1317511   -7.1683845    275.11689  0.028409427   0.02892971            2 
  808000    1.1165359   -7.1557088    274.33427  0.028293551  0.028920128            5 
  809000    1.1180477   -7.1934483    274.58072  0.028283963  0.028910365            3 
  810000    1.1152401   -7.1818513    274.44651  0.028235238  0.028900833            5 
  811000    1.1144054   -7.1847366    274.02877  0.028157498  0.028890863            4 
  812000    1.1452895    -7.227342    274.60349  0.028181803  0.028881004            2 
  813000    1.1147121   -7.1598752     275.8458  0.028274477  0.028870989            1 
  814000    1.1505719    -7.186359    275.45438   0.02819967  0.028861234            3 
  815000    1.1141234   -7.1624068    275.33638  0.028153004  0.028851274            2 
  816000    1.1562555   -7.1622305    276.58945  0.028246471  0.028841281            2 
  817000    1.1551248    -7.150475    276.94149  0.028247806  0.028831673            4 
  818000    1.1246958   -7.1552615    275.93889  0.028111133  0.028822274            1 
  819000    1.1153145   -7.1719355    276.69471  0.028153715  0.028812331            3 
  820000    1.1098311   -7.1583459    277.72447  0.028224031  0.028802779            3 
  821000    1.1329048   -7.2002048    277.46183  0.028162995   0.02879296            3 
  822000    1.1120671   -7.2267905    276.34261  0.028015269  0.028783207            4 
  823000    1.1368486   -7.1641521    278.15909  0.028165157  0.028773539            2 
  824000    1.1025835   -7.1954832    278.23947  0.028139105  0.028763712            2 
  825000    1.1251604   -7.1949482    278.42982  0.028124224  0.028754056            7 
  826000    1.0976743   -7.1618521    279.04415  0.028152154   0.02874429            2 
  827000    1.1088158   -7.1753493    278.46245  0.028059498  0.028734601            2 
  828000    1.0886884   -7.1580155    280.14198  0.028194644  0.028724826            3 
  829000    1.0951202   -7.2122057    278.89467   0.02803525  0.028715247            3 
  830000    1.1201796   -7.1938925    279.74507  0.028086854   0.02870536            2 
  831000    1.1354576   -7.1907276    279.25752  0.028004164  0.028695361            3 
  832000     1.131096   -7.1689926     281.4224   0.02818734    0.0286857            2 
  833000    1.0889531   -7.1878046    280.63932  0.028075162  0.028675767            4 
  834000    1.1227919   -7.1892364    280.36673  0.028014261  0.028665871            2 
  835000    1.1249091   -7.1667613    282.13696  0.028157381  0.028656374            4 
  836000    1.1177638   -7.1558661    281.07823  0.028018165  0.028646989            2 
  837000    1.1134693   -7.1807004    281.65244  0.028041859  0.028637303            3 
  838000    1.1170587   -7.1632528    281.87585  0.028030614  0.028627731            5 
  839000    1.1064664   -7.1706746    282.74623  0.028083654   0.02861849            2 
  840000    1.1261505   -7.2045704    282.45645  0.028021474  0.028608971            3 
  841000    1.1253421   -7.1986581    282.05862  0.027948734  0.028599598            6 
  842000    1.0987976    -7.216034    282.27848    0.0279373  0.028589951            2 
  843000    1.1156449   -7.1748097    282.30299  0.027906582  0.028580129            4 
  844000    1.1247558    -7.189433     282.7433  0.027916993  0.028569911            3 
  845000    1.1000112   -7.1858831    283.29832  0.027938691  0.028560044            3 
  846000    1.1288382   -7.2066559    282.65028  0.027841832  0.028550217            3 
  847000    1.1278665   -7.1517254    284.82872   0.02802329  0.028540194            2 
  848000     1.157708   -7.1387852    284.87837  0.027995123  0.028530502            4 
  849000      1.11092    -7.148411    285.12214  0.027986075  0.028520906            4 
  850000    1.0870535   -7.1818628    284.94136  0.027935427  0.028511256            2 
  851000    1.1444461   -7.1925122    285.79473  0.027986167  0.028501559            4 
  852000    1.1216624   -7.1638455    285.41256  0.027915939  0.028492171            3 
  853000    1.1147596   -7.1740484    285.69237  0.027910549  0.028482729            3 
  854000    1.1294408   -7.1549365    285.33853  0.027843338  0.028472908            6 
  855000    1.1218903   -7.2010843    284.83396  0.027761594  0.028463015            3 
  856000    1.1169386   -7.1798049    286.25333  0.027867341  0.028453134            2 
  857000    1.1153817   -7.1588552    287.50345  0.027956383  0.028443399            2 
  858000    1.1020365   -7.1854336    285.80593  0.027758929  0.028433701            4 
  859000    1.1227351   -7.2039162     286.2938  0.027773942  0.028424074            2 
  860000    1.1194584   -7.1882003    286.41673  0.027753559  0.028414314            2 
  861000    1.1012894   -7.2157859    286.71099  0.027749806  0.028403992            3 
  862000    1.1179816   -7.1477904    287.74189  0.027817275  0.028393737            3 
  863000    1.1089377   -7.1891932    286.85765  0.027699657  0.028383831            4 
  864000     1.129571   -7.1998807    287.69525  0.027748385  0.028373886            3 
  865000    1.1076744   -7.1865878    288.26089  0.027770799  0.028363744            2 
  866000    1.1347466   -7.2222822    287.48792   0.02766435  0.028353641            2 
  867000    1.1025702   -7.2222996    287.54013  0.027637459  0.028343078            3 
  868000    1.1106096   -7.2116821     287.5059  0.027602333  0.028332612            3 
  869000    1.1251484   -7.1993554    288.52274   0.02766808  0.028322103            5 
  870000    1.1022279   -7.2115242    287.77344  0.027564505  0.028311579            2 
  871000    1.1154962   -7.1913369    288.48089  0.027600544  0.028301204            2 
  872000    1.1254326   -7.1957051    288.62906  0.027583053  0.028290667            5 
  873000    1.1012705   -7.2237075    288.19692  0.027510206  0.028280144            2 
  874000    1.1394604   -7.1927309    288.70589  0.027527259  0.028269517            4 
  875000     1.105328   -7.2037764    290.41873  0.027658926   0.02825892            2 
  876000    1.1080636    -7.173928    289.90361   0.02757835  0.028248513            4 
  877000    1.1219641   -7.1596907    290.17766  0.027572944  0.028238455            2 
  878000    1.1049984    -7.171956    290.02987  0.027527512  0.028228015            2 
  879000    1.1102985   -7.2284464    290.07835  0.027500792  0.028217545            3 
  880000    1.1099327   -7.1494031     290.7576  0.027533864  0.028207225            1 
  881000    1.1179409    -7.182755    290.68647  0.027495882  0.028196738            3 
  882000    1.1273068   -7.1858639     291.7452   0.02756474  0.028186385            3 
  883000    1.1000384    -7.181706    291.80211  0.027538893  0.028175908            3 
  884000    1.1300036   -7.2064142    292.02656  0.027528899  0.028165391            2 
  885000    1.1327833    -7.197148    292.37062   0.02753019  0.028155079            2 
  886000    1.0922931   -7.1960492    291.44022  0.027411608  0.028144398            3 
  887000    1.1117178   -7.2363293    291.51911  0.027388117  0.028133586            1 
  888000     1.126404   -7.1846176     293.1755  0.027512715  0.028123211            3 
  889000    1.1030947   -7.2047719    293.19299  0.027483408  0.028112654            1 
  890000    1.1041619   -7.2192543    291.58471  0.027301939  0.028101927            2 
  891000    1.1104334   -7.1973062    293.30069   0.02743179  0.028091375            2 
  892000    1.1079732   -7.2111834    293.88768  0.027455875  0.028080632            4 
  893000    1.0927383   -7.2056289     293.4083  0.027380394  0.028070002            4 
  894000    1.1042675   -7.2504582    292.50538  0.027265602  0.028059332            6 
  895000    1.1195809   -7.2110767    294.67217  0.027436887  0.028048724            4 
  896000    1.1022189   -7.2200243    293.38655  0.027286695  0.028038094            2 
  897000     1.111093   -7.1881119    294.86981  0.027394073  0.028027621            3 
  898000    1.1197411    -7.188427    295.23325  0.027397295  0.028017144           10 
  899000     1.099769   -7.2190617    294.75615  0.027322594  0.028007037            6 
  900000    1.1081993   -7.1839937    295.94287  0.027402117  0.027996795            6 
  901000    1.0854997   -7.2143635    295.43884  0.027325087  0.027986417            1 
  902000    1.1126847   -7.1721365    296.28233  0.027372721  0.027975793            2 
  903000    1.1174935   -7.2214399    295.34372  0.027255788  0.027965075            3 
  904000    1.1303352   -7.2532335    294.60582  0.027157616  0.027954588            2 
  905000    1.1194416   -7.2116141    294.85789  0.027150819  0.027943792            2 
  906000    1.1152867     -7.21703    295.64483  0.027193233  0.027932932            5 
  907000    1.0865331   -7.2054128    296.74868  0.027264671  0.027922257            3 
  908000    1.0937183   -7.2182297     296.9429  0.027252469  0.027911604            4 
  909000     1.096776   -7.1672351    297.52694  0.027276031  0.027900937            2 
  910000    1.0886858    -7.194412    297.25777  0.027221408    0.0278903            8 
  911000    1.0875365    -7.200008    297.24157  0.027190045  0.027879782            3 
  912000    1.1114891   -7.2210397    296.91885  0.027130742  0.027869108            1 
  913000    1.1102787   -7.2100632    296.34319  0.027048484  0.027858404            1 
  914000    1.0840571   -7.1614775    298.99619  0.027260776  0.027847956            1 
  915000    1.1216884   -7.2175092    298.95249  0.027227003  0.027837517            3 
  916000    1.0910862   -7.1645406     299.5983  0.027256032  0.027827112            4 
  917000    1.1031623   -7.1947572    298.29105   0.02710751  0.027816887            2 
  918000    1.1083939   -7.2310013    299.23721  0.027163872  0.027806565            9 
  919000    1.1091971   -7.2381844    298.94341  0.027107672  0.027796069            7 
  920000     1.114141   -7.1926003    300.06949  0.027180207  0.027785836            3 
  921000     1.095378   -7.1942824    300.46768  0.027186725  0.027775749            3 
  922000    1.0884322   -7.2195619    301.14541  0.027218493  0.027765713            3 
  923000    1.1006068   -7.2689532    300.13214  0.027097521  0.027755439            3 
  924000    1.1036567   -7.2171585    301.82612   0.02722097  0.027745124            1 
  925000     1.096587   -7.1857047     301.9392   0.02720173  0.027735017            2 
  926000    1.1003374   -7.2472911     300.9706  0.027085187  0.027725059            2 
  927000    1.0805886   -7.2348874     300.2433  0.026990588   0.02771468            2 
  928000    1.1065799   -7.1940372    300.98193  0.027027831  0.027704118            4 
  929000    1.1148294   -7.2431204    301.25805  0.027023506  0.027693669            3 
  930000    1.1111721   -7.2171925    301.68559  0.027032759  0.027683086            5 
  931000    1.1121842    -7.179536    302.81842  0.027105122  0.027672651            2 
  932000    1.0865003   -7.1885959    302.59041  0.027055652  0.027662218            3 
  933000     1.114814   -7.1940834     302.5974  0.027027278  0.027651609            6 
  934000    1.1208148   -7.2431849    302.52995  0.026992323  0.027641162            2 
  935000    1.1078492   -7.2513692    302.81822  0.026989146  0.027630849            2 
  936000    1.1123225   -7.1991053    304.08263  0.027072884  0.027620483            5 
  937000    1.1094774   -7.1529257    303.89976  0.027027726  0.027610461            2 
  938000    1.0901512   -7.2628407    303.23145  0.026939539  0.027600297            2 
  939000    1.1019175   -7.2330959    304.15789  0.026993068  0.027589935            3 
  940000    1.0944096   -7.2279607    304.55386  0.026999455  0.027579778            2 
  941000    1.1059602   -7.2215853    303.37023  0.026865943  0.027569494            8 
  942000    1.1048674   -7.2210873    304.39264   0.02692787  0.027559358            3 
  943000    1.0822993   -7.2453535    303.63138  0.026832041  0.027548632            4 
  944000    1.1044164    -7.210919    305.16635  0.026939119   0.02753795            2 
  945000    1.0893327   -7.2256856    305.36011  0.026927699  0.027527391            3 
  946000    1.0898129   -7.2004727    305.24615  0.026889195  0.027516956            5 
  947000    1.0895559   -7.2427569    304.57219  0.026801495  0.027506395            3 
  948000    1.1093883   -7.2021922    306.19361  0.026915753  0.027495966            3 
  949000    1.1036229   -7.2699564    304.98132  0.026780937  0.027485597            4 
  950000    1.1019577   -7.2210851     305.8284  0.026827052  0.027475179            5 
  951000    1.0887728   -7.2725795     304.7294  0.026702541   0.02746461            2 
  952000    1.1200453    -7.250103    305.59057  0.026749875  0.027453766            4 
  953000    1.1031404   -7.2511451    305.48866  0.026712894  0.027442841            4 
  954000    1.1142888   -7.2360709    306.35008   0.02676014  0.027432024            2 
  955000    1.1405071    -7.233688    306.93623  0.026783266  0.027421207            4 
  956000    1.1181442   -7.2102714    306.85843  0.026748468  0.027410424            5 
  957000    1.0798053   -7.1819332    307.10065   0.02674161  0.027399517            2 
  958000     1.080351   -7.1614321    308.34908  0.026822293   0.02738887            2 
  959000    1.1001555   -7.2018596    308.34207  0.026793715  0.027378415            3 
  960000    1.0969285   -7.2170132    308.48256     0.026778  0.027367789            6 
  961000    1.0771148   -7.2414205    308.25477  0.026730383   0.02735706            3 
  962000    1.1125813   -7.2283212    307.82991  0.026665793  0.027346164           11 
  963000    1.1227694   -7.3132661    307.51233   0.02661062    0.0273351            8 
  964000    1.0928285   -7.2319898    308.80347  0.026694629  0.027324136            2 
  965000    1.0845486   -7.2516838    308.57982  0.026647653  0.027313465            3 
  966000    1.0887614   -7.2493714    308.82668  0.026641363  0.027302481            2 
  967000    1.0983645   -7.2666678    308.36999  0.026574456  0.027291682            2 
  968000      1.09484   -7.2213549    308.99138  0.026600497  0.027280804            2 
  969000     1.115503   -7.2781357    309.20616  0.026591517  0.027270023            2 
  970000    1.0690894    -7.249534     309.9084  0.026624433  0.027259342            2 
  971000    1.1061922   -7.2109043    310.57681  0.026654378    0.0272489            4 
  972000    1.1070539   -7.2616233    309.34021  0.026520937  0.027238361            4 
  973000    1.0914243   -7.2303448    309.62391  0.026517978  0.027227631            4 
  974000    1.0951187   -7.2692849    311.57164  0.026657395  0.027217064           13 
  975000    1.0929607   -7.2579048    311.02453  0.026583293  0.027206648            3 
  976000    1.0886891   -7.2491214    312.34039  0.026668408  0.027196267            5 
  977000    1.0851763   -7.2381529    312.42856  0.026648632  0.027186205            7 
  978000    1.1009872   -7.2468131    312.54672  0.026631452  0.027176193            6 
  979000    1.1189645   -7.2476787     312.4712  0.026597821  0.027166189            4 
  980000    1.1042006   -7.2488617    312.73748  0.026593323  0.027156061            1 
  981000    1.1154755   -7.2572283     313.5686  0.026636816  0.027146107            1 
  982000    1.1142282   -7.2360345    313.86667  0.026634986  0.027136164            4 
  983000    1.1077357   -7.2108731    314.52346  0.026663569   0.02712614            6 
  984000    1.0891824   -7.2357412    314.21694  0.026610513  0.027116299            1 
  985000    1.0860846   -7.2312416    314.46177  0.026604211  0.027106539            4 
  986000    1.0903586   -7.2516097    314.73539  0.026600354  0.027096844            5 
  987000    1.1188802   -7.2383637     315.1246  0.026606264  0.027087263            3 
  988000    1.0935261   -7.2660795    315.37341  0.026600321  0.027077704            2 
  989000     1.078993   -7.2382808    316.74444  0.026688949  0.027068157            2 
  990000    1.0980707   -7.2318041    316.24767  0.026620174  0.027058542            5 
  991000    1.1029955   -7.2363686    316.62364  0.026624927  0.027049158            3 
  992000    1.0881904   -7.2493682    317.52543  0.026673844  0.027039728            6 
  993000    1.0900212    -7.286538    317.64213  0.026656775  0.027030422            5 
  994000    1.0761294   -7.2216912    318.01131  0.026660908  0.027021126            3 
  995000     1.078153   -7.2315243    317.70734  0.026608655  0.027011808            2 
  996000    1.1143319   -7.1992252    318.47815  0.026646432  0.027002736            6 
  997000    1.1161596   -7.2066769    318.32905  0.026607242  0.026993902            3 
  998000     1.118662   -7.2505782     317.9912  0.026552371  0.026984807            4 
  999000    1.0934918   -7.2259362    318.81142  0.026594212  0.026975753            2 
 1000000    1.1015637   -7.2425788    318.51284  0.026542737   0.02696635            8 
 1001000    1.0963748   -7.2482999    319.43353  0.026592868  0.026956923            3 
 1002000    1.0855333   -7.2407258    319.67588  0.026586484  0.026947806            2 
 1003000    1.1014827   -7.2325664    320.68306  0.026643657   0.02693871            4 
 1004000    1.0919402   -7.2736686    318.94889  0.026473181   0.02692933            2 
 1005000    1.0839391   -7.2102442    319.47166  0.026490187  0.026919882            4 
 1006000    1.0873855   -7.2528466    320.27698  0.026530565  0.026910518            3 
 1007000    1.0754673   -7.2461831    319.94185  0.026476485  0.026901172            3 
 1008000    1.0663814   -7.2483318    319.17025   0.02638643  0.026891577            4 
 1009000    1.0668021   -7.2396188    321.25567  0.026532513  0.026882148            4 
 1010000    1.0931056   -7.2673223    320.47753   0.02644204   0.02687252            4 
 1011000    1.1060932   -7.2798132    320.51591   0.02641905  0.026863023            3 
 1012000    1.1183566   -7.2259162    320.98228  0.026431347  0.026853515            1 
 1013000    1.0822039   -7.2481604    320.99618  0.026406399  0.026844099            4 
 1014000    1.0632889   -7.2614872    321.04133  0.026384067  0.026834554            3 
 1015000    1.0960368   -7.2566959    322.07539  0.026442972  0.026825115            5 
 1016000    1.0832083   -7.2316945    321.23551  0.026348057  0.026815598            3 
 1017000    1.0937315   -7.1942554    323.36061  0.026496281  0.026806124            3 
 1018000    1.1020594   -7.2631848    322.70408  0.026416509  0.026796763            2 
 1019000    1.0919639   -7.2829476    323.65976   0.02646874  0.026787269            2 
 1020000    1.1186916   -7.2769374    322.07373  0.026313213  0.026777754            3 
 1021000    1.0923633    -7.287671    322.32725  0.026308133   0.02676808            4 
 1022000    1.1112593   -7.2848732    322.60778  0.026305266  0.026758208            2 
 1023000    1.1180563   -7.2592882    322.98504  0.026310283  0.026748779            3 
 1024000     1.097448   -7.2762307    322.47881  0.026243392  0.026739361            2 
 1025000     1.073875   -7.2598116    324.00902  0.026342197  0.026729688            3 
 1026000    1.0742229   -7.2658924    324.02875  0.026318125  0.026720261            3 
 1027000    1.0907831   -7.2337483    324.68628  0.026345852  0.026710846            4 
 1028000    1.1122075   -7.2755526    325.18105  0.026360332  0.026701248            2 
 1029000     1.083553   -7.2770303    323.56933  0.026204189  0.026691789            4 
 1030000    1.0776795   -7.2706752    323.95573  0.026210011  0.026682445            3 
 1031000    1.0887829   -7.2493147    324.90128  0.026261015  0.026673102            2 
 1032000    1.1117225    -7.279505    324.96659  0.026240842   0.02666365            3 
 1033000    1.0529737   -7.2753314    325.13768  0.026229242  0.026654123            2 
 1034000    1.0977951   -7.2586574    325.81925  0.026258805  0.026644593            3 
 1035000    1.0710273    -7.296208     325.6602  0.026220628  0.026635069            3 
 1036000    1.0950767   -7.3179602     325.3958  0.026174051  0.026625369            2 
 1037000    1.0944484   -7.2610497     325.6512  0.026169335  0.026615618            2 
 1038000     1.075289   -7.2577047    326.17792   0.02618641  0.026605958            2 
 1039000    1.0959394    -7.213913    326.29722  0.026170775  0.026596388            2 
 1040000    1.0630637   -7.2631419    326.64329  0.026173341  0.026586871            4 
 1041000     1.081345   -7.2716977    326.89079  0.026168011  0.026577453            5 
 1042000    1.1023174   -7.2480699    326.76986  0.026133226  0.026568007            4 
 1043000    1.0757902   -7.2836156    326.84651  0.026114295  0.026558536            3 
 1044000    1.0871933   -7.3102826    327.42561  0.026135505  0.026549159            3 
 1045000    1.0713552   -7.3090993    327.73948  0.026135524  0.026539738            3 
 1046000    1.0917633   -7.3128926    326.96271  0.026048654   0.02653017            1 
 1047000    1.0729639   -7.2918245    327.69417  0.026081994  0.026520661            2 
 1048000     1.083437   -7.2663956    329.02432  0.026162875  0.026511257            2 
 1049000     1.106091   -7.2424365    329.83336  0.026202205   0.02650207            2 
 1050000    1.0865533   -7.2695969    329.55592  0.026155231  0.026492736            7 
 1051000    1.0777165   -7.2866593    328.30774  0.026031378  0.026483184            3 
 1052000    1.0785348   -7.2735183    328.82812  0.026047855  0.026473739           10 
 1053000    1.0681478   -7.3035929    328.11523  0.025966701  0.026464006            6 
 1054000    1.0770356   -7.3190142    328.72873   0.02599057  0.026454257            7 
 1055000    1.0802639   -7.2740616    329.26336  0.026008164  0.026444703            6 
 1056000    1.0797913   -7.2784245    330.17937  0.026055821  0.026434872            6 
 1057000    1.0831269   -7.2909857    330.16784  0.026030262  0.026425341            3 
 1058000    1.0794889   -7.2897381    329.80258  0.025976888  0.026415847            3 
 1059000    1.0807489   -7.2580294    330.30407  0.025991821  0.026406013            3 
 1060000    1.1068364   -7.2990899     330.2909  0.025966266  0.026396409            5 
 1061000    1.0728558   -7.2407467    330.93256   0.02599219  0.026386987            3 
 1062000    1.0806518   -7.2834375    330.63492   0.02594436  0.026377492            4 
 1063000    1.1021796   -7.2153785    331.69718  0.026003228  0.026368091            3 
 1064000    1.1053735   -7.2496796    332.53787  0.026044633  0.026359066            3 
 1065000    1.1130397   -7.2432154    331.79216  0.025961828  0.026349889            3 
 1066000    1.1039115   -7.3059536    330.89527   0.02586736  0.026340546            7 
 1067000    1.0948548   -7.2665338    333.00456  0.026007854  0.026331013            1 
 1068000    1.0964852   -7.2880578     332.3851  0.025935167  0.026321588            4 
 1069000    1.1139368   -7.2434495    333.15681  0.025971064  0.026312125            3 
 1070000    1.0880804   -7.2338224    332.66453  0.025908452  0.026302782            4 
 1071000    1.0569313   -7.2552889     334.2344  0.026006412   0.02629367            5 
 1072000    1.0966206   -7.2858649    333.31854  0.025910956   0.02628438            4 
 1073000    1.0586504   -7.2827414     333.6554   0.02591297  0.026274971            4 
 1074000    1.0830455   -7.2571078    334.07304  0.025921247  0.026265252            3 
 1075000    1.0822154   -7.3098048    333.11016  0.025822493   0.02625582            4 
 1076000    1.0903012   -7.2955452    332.28796  0.025734817  0.026246406            1 
 1077000    1.0853343   -7.2547066    333.59897  0.025812362  0.026236986            2 
 1078000    1.0810499   -7.2902242    333.67198  0.025794061  0.026227421            1 
 1079000    1.0717131   -7.2912601    334.10359   0.02580349  0.026217736            2 
 1080000    1.0857208   -7.2796623    335.07511  0.025854561  0.026208177            2 
 1081000    1.1011131   -7.3412855    333.08358  0.025677118   0.02619849            4 
 1082000    1.1024582   -7.2748669    334.45945  0.025759354  0.026188943            6 
 1083000    1.0778442   -7.2679923    334.96568  0.025774521  0.026179295            2 
 1084000    1.0736576   -7.2939071    336.28846  0.025852434  0.026169873            5 
 1085000    1.0677135   -7.3155152    335.51216  0.025768983  0.026160486            3 
 1086000    1.0539298   -7.3187825    334.90087  0.025698348  0.026150894            3 
 1087000     1.076846   -7.3129648     336.8266   0.02582234  0.026141424            5 
 1088000    1.0713872   -7.2862579    336.55836   0.02577806  0.026132044            3 
 1089000     1.091946   -7.2842511    337.14605  0.025799361  0.026122628            3 
 1090000    1.0841246   -7.2524892    338.10513  0.025849016  0.026113275            3 
 1091000    1.0864195   -7.2665998    337.53836  0.025782031  0.026104232            2 
 1092000    1.1080086   -7.2866226    337.85787  0.025782804  0.026095152            2 
 1093000    1.0852686   -7.2924698    337.73198  0.025749617  0.026085828           10 
 1094000    1.0467643   -7.2552012    338.67774  0.025798121   0.02607666            4 
 1095000    1.0791379   -7.2927459    337.84262  0.025711006   0.02606747            4 
 1096000    1.0626786   -7.2873868     338.4336  0.025732482  0.026058376            2 
 1097000     1.083091   -7.3240368    338.28726  0.025697908  0.026049405            3 
 1098000    1.0857215   -7.3000945    340.26022  0.025824243  0.026040235            2 
 1099000    1.0661118     -7.35441    338.31055  0.025652908  0.026031126            4 
 1100000    1.0730903   -7.2796749    338.82075  0.025668238  0.026021647            3 
 1101000    1.0469877   -7.2610298    339.56809   0.02570149   0.02601231            5 
 1102000    1.0844609   -7.3280059    339.24993  0.025654108  0.026003098            4 
 1103000    1.0660494   -7.2959331    339.44425  0.025645531  0.025993808            4 
 1104000     1.064219    -7.280448    339.56198  0.025631188  0.025984527            7 
 1105000    1.0731197   -7.2851415    341.14401  0.025727301  0.025975354            3 
 1106000    1.0705263   -7.3424815    339.76385  0.025600049  0.025966304            9 
 1107000     1.064311   -7.2788733    341.37864  0.025698483  0.025957164            1 
 1108000    1.0923084   -7.2893652    340.38231  0.025600354  0.025948089            3 
 1109000    1.0756934   -7.2979647    341.15657   0.02563545  0.025939067            2 
 1110000    1.0836959   -7.2753809    342.16783  0.025688276  0.025929837            3 
 1111000    1.0770585   -7.2993447    341.03164  0.025579931  0.025920868            2 
 1112000    1.0545945   -7.2863901    342.39738  0.025659276  0.025911855            4 
 1113000    1.0678913    -7.289894    342.09602  0.025613658  0.025902649            3 
 1114000    1.0552995   -7.2731767    342.88247  0.025649497  0.025893699            3 
 1115000    1.0675962   -7.2419995    343.92454  0.025704375  0.025884839            2 
 1116000    1.0913309   -7.2875345    342.66243  0.025587099  0.025875973            1 
 1117000    1.0509526   -7.3027737     342.0263  0.025516734  0.025866959            2 
 1118000    1.0980179     -7.30671    342.77865  0.025549989  0.025857801            3 
 1119000    1.0801953   -7.2905353    342.36817  0.025496587  0.025848571            3 
 1120000    1.0900183    -7.312725     341.8046   0.02543189  0.025839361            6 
 1121000    1.0653491   -7.3155335     341.9693  0.025421446  0.025830248            7 
 1122000    1.0794867   -7.2992516    343.33868  0.025500496  0.025821151            3 
 1123000    1.0813286   -7.3086016    342.84263  0.025440979   0.02581195            2 
 1124000    1.0529876   -7.3198318    343.45333  0.025463622  0.025802837            5 
 1125000    1.0494045   -7.2197779    344.53185  0.025520878  0.025793995            4 
 1126000    1.0731221   -7.3172231    344.11785  0.025467573  0.025785029            2 
 1127000    1.0743403   -7.3259503    345.09707  0.025517381  0.025775803            4 
 1128000    1.0762035   -7.2625017    345.49533  0.025524182  0.025766928            6 
 1129000    1.0881801   -7.2772915    345.41533  0.025495669  0.025757956            3 
 1130000    1.0534621   -7.2998966    343.83181  0.025356328  0.025748899            3 
 1131000    1.0719093    -7.281905    344.58089  0.025389102   0.02573992            3 
 1132000    1.0761319      -7.2834    346.26249  0.025490466  0.025731111            4 
 1133000     1.059801     -7.29864    344.76875  0.025358102  0.025722054            4 
 1134000    1.0833714   -7.2882201    345.61446  0.025397888  0.025713025            4 
 1135000     1.050552    -7.314324    345.50565  0.025367522  0.025704085            2 
 1136000    1.0758336   -7.3324579    345.39275  0.025336909  0.025695106            5 
 1137000    1.0692446   -7.3004762    347.24422  0.025450324  0.025686186            3 
 1138000    1.0511211   -7.2901905    347.69836  0.025461215  0.025677428            4 
 1139000    1.0711371   -7.3000019    347.81189  0.025447168  0.025668432            2 
 1140000    1.0373316    -7.329365    346.62235  0.025337891  0.025659505            3 
 1141000    1.0480958   -7.3275264    346.95408  0.025339913  0.025650492            4 
 1142000    1.0827071   -7.2838871    348.27392  0.025414034  0.025641633            2 
 1143000    1.0680058    -7.293544    348.49477  0.025407901  0.025632745            8 
 1144000    1.0893226   -7.3336215    348.41701  0.025380027  0.025623722            5 
 1145000    1.0790551   -7.3211733    348.54248  0.025366993  0.025614694            3 
 1146000    1.0551591   -7.3431834    346.89589  0.025225123  0.025605641            2 
 1147000    1.0523114    -7.347421    348.72523  0.025336038  0.025596491            5 
 1148000    1.0600116   -7.3130711    347.89527  0.025253722  0.025587321            5 
 1149000     1.077923   -7.2955663    349.07771  0.025317501  0.025578237            2 
 1150000    1.0563334   -7.2884135    349.92022  0.025356538  0.025569382            4 
 1151000    1.0492286   -7.3107688    350.06059  0.025344671   0.02556049            7 
 1152000    1.0710964   -7.2916842     349.4625  0.025279406  0.025551772            3 
 1153000    1.0596444   -7.2788881    349.94621   0.02529244  0.025542888            3 
 1154000    1.0672804   -7.3215571    350.46596  0.025308056  0.025533814            4 
 1155000     1.085392   -7.3285586    348.90982  0.025173868  0.025524915            3 
 1156000    1.0915633    -7.328553    349.84567  0.025219555  0.025515936            5 
 1157000    1.0579455   -7.3416809    350.92656  0.025275609  0.025507151            4 
 1158000    1.0533423   -7.3491871    350.08035  0.025192886  0.025498145            4 
 1159000    1.0521051   -7.3226045    350.39314   0.02519364   0.02548921            5 
 1160000    1.0642822   -7.3505704    350.90566   0.02520874  0.025480209            2 
 1161000     1.039485   -7.3278179    351.28849  0.025214505  0.025471167            2 
 1162000    1.0709045   -7.3102887    351.39194  0.025200225  0.025462156            5 
 1163000    1.0679209   -7.2847609    351.77315  0.025205872  0.025453105            2 
 1164000    1.0773696   -7.3070883    351.43588  0.025160072  0.025443953            3 
 1165000     1.075881    -7.319907    351.56972  0.025148049  0.025434989            4 
 1166000    1.0732579   -7.3524576    351.95677  0.025154143  0.025425969            6 
 1167000    1.0597178   -7.2694464    352.52327  0.025173042   0.02541706           14 
 1168000    1.0597605   -7.3583125    351.63866  0.025088375  0.025408103            5 
 1169000    1.0514451   -7.3344918      353.503  0.025199814  0.025398923            5 
 1170000    1.0631485   -7.3204504    352.54639  0.025110141  0.025389977            4 
 1171000    1.0565089    -7.324791    352.69641  0.025099374  0.025380925            6 
 1172000    1.0743781   -7.2964519    352.78882  0.025084529  0.025371832            2 
 1173000      1.04611   -7.3219047    353.40535  0.025106944  0.025362664            4 
 1174000    1.0836583   -7.2897143    352.74678  0.025038812   0.02535353            3 
 1175000    1.0883604   -7.3001223    352.62641  0.025008965  0.025344344            2 
 1176000    1.0687456   -7.3333224    352.68729  0.024992013  0.025335126            2 
 1177000    1.0565929   -7.3185216    353.60953  0.025036076  0.025325978            7 
 1178000    1.0685735    -7.355386    352.67656  0.024948823  0.025317007            5 
 1179000    1.0479997   -7.3341766    353.67593  0.024998298  0.025307854            2 
 1180000    1.0650219   -7.2897624    355.55333  0.025109698   0.02529893            3 
 1181000    1.0706473   -7.3052251    355.62327  0.025093372  0.025290117            6 
 1182000    1.0605877   -7.3512504    354.22283  0.024973409   0.02528117            9 
 1183000    1.0448459   -7.3702394    353.92618  0.024931402  0.025272096           14 
 1184000    1.0739348    -7.355174    354.96169  0.024983227  0.025263084            3 
 1185000    1.0508256   -7.3608207    355.20006  0.024978907  0.025254048            2 
 1186000    1.0579288   -7.3382332    355.55424  0.024982732  0.025245197            4 
 1187000    1.0738386   -7.2969049    356.60112  0.025035181  0.025236548            3 
 1188000    1.0490586   -7.3825974    355.35502  0.024926699  0.025227622            4 
 1189000    1.0676259   -7.3170183    355.28321  0.024900701  0.025218407            2 
 1190000    1.0488851   -7.3389913    355.29409  0.024880539  0.025209335            7 
 1191000    1.0513932   -7.3477741    355.30547  0.024860445  0.025200165            9 
 1192000    1.0706204   -7.3539585    355.90995  0.024881848  0.025190991            3 
 1193000    1.0655716   -7.3416919     356.2568  0.024885219  0.025181777            3 
 1194000    1.0560482   -7.3435966    356.55106  0.024884915  0.025172724            5 
 1195000    1.0588002   -7.3598165     355.5501  0.024794288   0.02516356            2 
 1196000     1.057393   -7.3328246    356.98541  0.024873565  0.025154362            4 
 1197000    1.0679029   -7.3566755    356.26098  0.024802352  0.025145168            3 
 1198000    1.0937005   -7.3265601    357.60205  0.024874934  0.025135912            5 
 1199000    1.0599053   -7.3866984    356.73555  0.024793963  0.025126651            3 
 1200000     1.059262    -7.340532    357.72372  0.024841925  0.025117331            5 
 1201000    1.0629844   -7.3694094    356.80943  0.024757801   0.02510811            3 
 1202000    1.0775837   -7.3441648     358.0284  0.024821714  0.025098834            6 
 1203000    1.0681528   -7.3643008      356.886  0.024721945  0.025089574            4 
 1204000     1.055063   -7.3420663    357.98038  0.024777158  0.025080397            4 
 1205000    1.0494601   -7.3526565    357.97652  0.024756329  0.025070934            5 
 1206000    1.0653819   -7.3545735    358.23003  0.024753318  0.025061505            2 
 1207000    1.0592919   -7.2962421    359.13194   0.02479508   0.02505217            6 
 1208000    1.0504592   -7.3546726    357.88805  0.024688745  0.025042893            2 
 1209000    1.0404188    -7.375697    358.80089  0.024731244  0.025033515            6 
 1210000     1.031231   -7.3383599    358.11127  0.024663311  0.025024192            6 
 1211000    1.0451478   -7.3616317    358.51722   0.02467088  0.025014729            2 
 1212000    1.0307234   -7.4027473    359.21905  0.024698779  0.025005346            5 
 1213000    1.0555994   -7.2920257    359.67739  0.024709906  0.024996145            3 
 1214000    1.0447004   -7.3342236    360.02831   0.02471364  0.024987049            6 
 1215000    1.0688982   -7.3492629    359.65184  0.024667479  0.024977897            3 
 1216000    1.0540942   -7.3598531    360.19929   0.02468471  0.024968579            1 
 1217000    1.0668588   -7.3446182    359.90336  0.024644163  0.024959214            3 
 1218000    1.0598411   -7.3853216    359.21291   0.02457669  0.024949832            4 
 1219000    1.0510366   -7.3697223    359.34798  0.024565763   0.02494042            2 
 1220000    1.0605921   -7.3478799    359.72353  0.024571279  0.024930917            3 
 1221000    1.0435291   -7.3288303    360.86745  0.024629228  0.024921541            4 
 1222000    1.0677707   -7.3276694    359.82433  0.024537939  0.024912166            4 
 1223000    1.0583352   -7.3627168    359.68637  0.024508474  0.024902752            3 
 1224000     1.083335   -7.3388903    361.94289  0.024642081  0.024893466            6 
 1225000    1.0596265   -7.3582077    361.28137  0.024576964  0.024884048            5 
 1226000      1.05558   -7.3987207    361.33736  0.024560723  0.024874711            3 
 1227000    1.0322784   -7.3746428    361.84202  0.024574981  0.024865375            1 
 1228000    1.0377992    -7.345942    361.64802  0.024541803  0.024855939            5 
 1229000    1.0511315    -7.350549    361.87916  0.024537508  0.024846457            4 
 1230000    1.0463261   -7.3998946     360.5459  0.024427229  0.024837018            6 
 1231000    1.0453991   -7.3291869    361.75142  0.024488994  0.024827474            7 
 1232000    1.0731387   -7.3552039    361.95337  0.024482777  0.024818036            8 
 1233000    1.0374087   -7.3112755    362.74539   0.02451645  0.024808626            4 
 1234000    1.0748196   -7.3680173    361.14504  0.024388509  0.024799221            3 
 1235000    1.0574106   -7.3470047    363.16117  0.024504802  0.024789759            9 
 1236000    1.0388103   -7.3488118    363.07971  0.024479484  0.024780331            2 
 1237000    1.0482902   -7.3951976    362.23954  0.024403095  0.024770837            4 
 1238000    1.0614959   -7.3592528    362.32749  0.024389304  0.024761403            1 
 1239000    1.0615908   -7.3972295    362.09883   0.02435424  0.024751848            4 
 1240000    1.0393005   -7.3648255    362.58277  0.024367122  0.024742324            6 
 1241000    1.0357952    -7.330485    364.77892  0.024494958  0.024732904            3 
 1242000     1.029298    -7.309845    364.48664  0.024455625  0.024723434            1 
 1243000    1.0688929   -7.3786531    363.35636  0.024360174   0.02471385            2 
 1244000    1.0356754   -7.3384726    365.10549  0.024457764  0.024704294            5 
 1245000    1.0538177   -7.3727978    364.06586  0.024368532  0.024694938            5 
 1246000    1.0384427   -7.3642779    364.53903   0.02438062  0.024685456            3 
 1247000    1.0334788   -7.3895998    364.07966   0.02433037  0.024675992            4 
 1248000    1.0514014   -7.4009033    363.72516  0.024287203  0.024666462            9 
 1249000      1.06111   -7.3847932    365.01343  0.024353711   0.02465688            6 
 1250000    1.0337709   -7.3678761    363.70908  0.024247272  0.024647379            2 
 1251000    1.0521741    -7.368394    364.38984  0.024273238  0.024637799            2 
 1252000    1.0639797   -7.3911995    364.46613  0.024258928  0.024628247           15 
 1253000    1.0584381    -7.325554    366.09888  0.024348156  0.024618887            3 
 1254000    1.0475875   -7.3313902     365.7245  0.024303861  0.024609548            5 
 1255000    1.0632834   -7.3664045    366.01062  0.024303494  0.024600127            2 
 1256000    1.0420711   -7.3363407    364.61267  0.024191393   0.02459066            8 
 1257000    1.0567536   -7.3628061    366.01946  0.024265411  0.024581219            4 
 1258000    1.0390325   -7.3619335    365.91872  0.024239449  0.024571725           10 
 1259000    1.0388114   -7.3836248    365.30822  0.024179787  0.024562162            5 
 1260000    1.0460764   -7.3928146    365.75149  0.024189913  0.024552396            6 
 1261000     1.046489   -7.3078993    367.56268  0.024290423  0.024542832            5 
 1262000     1.036995   -7.3304465    367.20564  0.024247599  0.024533444            7 
 1263000    1.0416851   -7.3464052    368.14124  0.024290132  0.024524073            5 
 1264000    1.0239682   -7.3504681    367.42014  0.024223374  0.024514771            4 
 1265000    1.0350212   -7.3261605     367.3841  0.024201851   0.02450555            2 
 1266000    1.0472561   -7.3419569    368.49328  0.024255745  0.024496116            2 
 1267000    1.0423402   -7.3678982    367.76611  0.024188773  0.024486785            5 
 1268000    1.0538532   -7.3952545    367.35167   0.02414246  0.024477356            5 
 1269000    1.0360078   -7.3526521    367.94553  0.024162433  0.024468038            6 
 1270000     1.037475   -7.3743288    367.27433  0.024099365  0.024458869           10 
 1271000    1.0489174   -7.3871227    367.90046  0.024121457   0.02444945            3 
 1272000    1.0503606   -7.3675373    368.28551  0.024127719  0.024439932            3 
 1273000    1.0542982   -7.3968741    369.17924  0.024167271  0.024430552            5 
 1274000    1.0726897   -7.3771759    368.16957  0.024082259  0.024421318            6 
 1275000    1.0510397    -7.361921    369.92197  0.024177906  0.024412111            2 
 1276000    1.0580579   -7.3663905    369.80646  0.024151415   0.02440279            7 
 1277000    1.0525598   -7.3272753    370.12402  0.024153225  0.024393563            6 
 1278000    1.0254296   -7.3449145    369.99062  0.024125627  0.024384243            5 
 1279000    1.0349828   -7.3835084    370.67746  0.024151515  0.024375096            2 
 1280000    1.0343024   -7.3354259    370.92632  0.024148849  0.024365926            8 
 1281000    1.0463499   -7.3561473    370.48164   0.02410107  0.024356834            2 
 1282000    1.0598555    -7.377287    369.48665  0.024017593  0.024347714            4 
 1283000    1.0636471   -7.3813344    371.65044  0.024139416  0.024338513            4 
 1284000    1.0149922   -7.3701326    371.35421   0.02410139  0.024329374            3 
 1285000    1.0559422   -7.3744311    371.82728  0.024113313  0.024320149            2 
 1286000      1.05352   -7.3993673    369.73828  0.023959194  0.024310919            4 
 1287000    1.0638888   -7.3828643    370.79616  0.024009075  0.024301656            6 
 1288000    1.0512963   -7.4116043    371.85115  0.024058692  0.024292408            4 
 1289000    1.0407405    -7.413231    371.55579  0.024020933  0.024283147            2 
 1290000    1.0629231   -7.3333758    372.46351   0.02406095  0.024274108            3 
 1291000    1.0512227   -7.4273306    371.69932  0.023992985  0.024265036            3 
 1292000    1.0242376   -7.3903323    371.04484  0.023932201   0.02425575            7 
 1293000    1.0764719   -7.3714664    372.90487   0.02403357  0.024246572            3 
 1294000    1.0646181   -7.3795187    372.87964  0.024013372  0.024237693            4 
 1295000    1.0526093   -7.3929041    372.66158  0.023980796  0.024228746            5 
 1296000    1.0318185   -7.3734876    373.00295  0.023984243  0.024219725            3 
 1297000     1.063439   -7.3529188    373.41665  0.023992332  0.024210682            5 
 1298000    1.0403172   -7.3957671    373.37624  0.023971253   0.02420171            3 
 1299000    1.0370705   -7.3565877    374.07856  0.023997855  0.024192862            3 
 1300000    1.0287841   -7.3649843    374.23353  0.023989329  0.024183896            5 
 1301000    1.0692764   -7.4048812    373.66565  0.023934515  0.024175051            4 
 1302000    1.0513252   -7.3903613    373.85942  0.023928534  0.024166089            2 
 1303000    1.0354677   -7.3372558    375.08063  0.023988273  0.024157095            3 
 1304000    1.0281155   -7.3934879    374.41203  0.023927149  0.024148087            5 
 1305000    1.0377885   -7.3457228    376.72199  0.024056321  0.024139222            9 
 1306000     1.060126   -7.3389823    376.15023  0.024001418  0.024130465            8 
 1307000    1.0153426   -7.3748937    375.52916  0.023943456  0.024121705            2 
 1308000    1.0584594   -7.4171413    375.18016  0.023902915  0.024112861            5 
 1309000     1.021653   -7.3620252    376.68414  0.023980401  0.024103974            3 
 1310000    1.0411189   -7.3675567    376.51114   0.02395109   0.02409519            3 
 1311000     1.050874   -7.4107693     375.5848  0.023873938  0.024086421            3 
 1312000    1.0251726   -7.3891884    376.92634  0.023940951  0.024077678            9 
 1313000    1.0665946   -7.3780363    376.12754  0.023872019  0.024068926            3 
 1314000    1.0641009   -7.3923888    377.77852  0.023958556  0.024060198            3 
 1315000    1.0341301   -7.3758053    378.29344  0.023972969  0.024051465            2 
 1316000    1.0290496   -7.3847205    377.90078  0.023929888  0.024042828            6 
 1317000    1.0299274   -7.4117726    376.79789  0.023841932    0.0240341            4 
 1318000    1.0440775   -7.3708608    377.50389  0.023868481  0.024025539            5 
 1319000    1.0303521   -7.4144915     377.4968  0.023849937  0.024016997            4 
 1320000    1.0697472   -7.3747879    378.40565  0.023889246  0.024008581            2 
 1321000    1.0269531   -7.3811306    378.98965  0.023908002  0.024000115            2 
 1322000    1.0436453   -7.3933271    378.61049  0.023866017  0.023991665            4 
 1323000    1.0345297   -7.4152524    379.49982  0.023903995  0.023983201            5 
 1324000     1.038604   -7.4102253    379.12629   0.02386243  0.023974648            2 
 1325000    1.0356245   -7.3923952    379.65236  0.023877507  0.023966239            8 
 1326000    1.0395413   -7.3810703    379.74968  0.023865616  0.023957707            4 
 1327000    1.0488266   -7.4121546    380.13532  0.023871849  0.023949279            4 
 1328000    1.0430004   -7.3948121    380.02267  0.023846804  0.023940824            2 
 1329000    1.0489823   -7.4107208    380.26167  0.023843847  0.023932297            1 
 1330000    1.0275891   -7.4113446    380.09675  0.023815586  0.023923684            3 
 1331000     1.025868   -7.4110193    381.43045  0.023881195  0.023915057            6 
 1332000    1.0536785   -7.3436386    381.84156  0.023888987  0.023906506            3 
 1333000    1.0287353    -7.340358    380.99578   0.02381819  0.023898212            3 
 1334000    1.0441482   -7.4021989    380.45176  0.023766352  0.023889793            3 
 1335000    1.0751865   -7.3716136    381.18447  0.023794286  0.023881327            2 
 1336000    1.0361421   -7.3768419     381.0315  0.023766935  0.023872834            3 
 1337000    1.0160001   -7.4161048    380.74746  0.023731455   0.02386421            9 
 1338000    1.0277655   -7.3296211    382.05196  0.023794965  0.023855725            5 
 1339000      1.05789   -7.3689961    381.99531  0.023773669  0.023847398            6 
 1340000    1.0604481   -7.3959953    382.66137  0.023797349  0.023839111            2 
 1341000    1.0579881   -7.3952161     382.1543  0.023748092  0.023830814            4 
 1342000    1.0181562   -7.4206289    382.96662  0.023780838  0.023822444            5 
 1343000    1.0170416   -7.4132197    383.15275   0.02377468  0.023813994            3 
 1344000    1.0408455   -7.3902559    382.39315  0.023709893  0.023805673            3 
 1345000    1.0230651   -7.3819715    382.82554  0.023719055  0.023797302            8 
 1346000    1.0368887   -7.3654243    383.72405  0.023757061  0.023789159            5 
 1347000    1.0352067   -7.4232983     381.6645  0.023612008  0.023780775            4 
 1348000    1.0222669   -7.4242623    382.76945    0.0236628  0.023772235            3 
 1349000    1.0323849   -7.4062996    383.65799  0.023700148   0.02376377            2 
 1350000    1.0355054   -7.4039476    383.54288  0.023675486  0.023755467            4 
 1351000    1.0386788   -7.4310046    382.83983  0.023614596  0.023747029            3 
 1352000    1.0319183   -7.3903371    383.65294  0.023647248  0.023738541            4 
 1353000     1.025217   -7.3757811    384.59463   0.02368777  0.023730223            3 
 1354000    1.0208729   -7.4049492    383.45637   0.02360022   0.02372167            4 
 1355000    1.0259258   -7.4165806    383.88256  0.023609013  0.023713011            8 
 1356000    1.0425722   -7.4152272    382.88205  0.023530116  0.023704362            2 
 1357000    1.0266884   -7.4222649     383.3111  0.023539124  0.023695647            4 
 1358000    1.0391564   -7.4308015    382.17677  0.023452183  0.023686924            5 
 1359000    1.0459452   -7.4632192    383.38579  0.023509062  0.023678165            8 
 1360000    1.0202935   -7.4209274    384.04378  0.023532094  0.023669466            4 
 1361000     1.020519   -7.4108479    384.42266  0.023538003  0.023660878            1 
 1362000    1.0202973   -7.4068389    383.75082  0.023479615  0.023652123            7 
 1363000    1.0376818   -7.4137987    384.14994   0.02348679  0.023643353            4 
 1364000     1.014895   -7.4391296    384.18569  0.023471755  0.023634471            2 
 1365000    1.0375478   -7.4299628    383.78861  0.023430318  0.023625599            2 
 1366000    1.0265017   -7.4306068    386.18346  0.023559264  0.023616828            5 
 1367000    1.0245842   -7.4032142    385.21742   0.02348314  0.023608123            6 
 1368000    1.0509834   -7.4270432    384.47352  0.023420658  0.023599398            6 
 1369000    1.0414489   -7.4524065    384.74081  0.023419821   0.02359059           18 
 1370000    1.0140911    -7.407461      385.457  0.023446289  0.023581722            8 
 1371000    1.0448492   -7.4327599    385.39103  0.023425178  0.023572894            3 
 1372000    1.0448915   -7.4234861    384.77962  0.023370968  0.023564003            4 
 1373000    1.0216319   -7.3753798    386.57509  0.023462922  0.023555358            5 
 1374000    1.0517004   -7.3836044    386.05434  0.023414261  0.023546835            4 
 1375000    1.0312345   -7.4097503    386.02266  0.023395313  0.023538241            3 
 1376000     1.026612   -7.4286903    385.59408  0.023352355  0.023529552            4 
 1377000    1.0507009   -7.4663965    386.27236  0.023376444  0.023520768            4 
 1378000    1.0292287   -7.4054549    386.98888  0.023402811  0.023512011            2 
 1379000    1.0180015   -7.4209813    386.56738  0.023360369  0.023503286            5 
 1380000     1.008017   -7.4104252    387.13347  0.023377625  0.023494614            7 
 1381000    1.0260749     -7.41439    387.22583   0.02336627  0.023486058            4 
 1382000     1.032828   -7.4045285    387.67988  0.023376741  0.023477339            4 
 1383000    1.0074416   -7.4165855     386.9007  0.023312889  0.023468662            7 
 1384000    1.0454924   -7.4176516    386.83143  0.023291873  0.023459759            4 
 1385000   0.99986232   -7.4377588    385.90151  0.023219104  0.023450913           12 
 1386000    1.0353587   -7.4404942    387.49746  0.023298308  0.023442002            5 
 1387000    1.0000166   -7.4327444    386.65182  0.023230703  0.023433245            7 
 1388000    1.0126391    -7.424463    387.55929  0.023268449  0.023424557            4 
 1389000     1.044697   -7.4552223    386.75457  0.023203418  0.023415796            5 
 1390000    1.0366534   -7.4219104    388.25885   0.02327691  0.023407129            3 
 1391000    1.0338089    -7.452018    387.98246  0.023243617  0.023398521            5 
 1392000    1.0309033   -7.4214392     387.7585  0.023213512   0.02338996            2 
 1393000    1.0322617   -7.4275156    389.16459  0.023280964  0.023381474            4 
 1394000    1.0140131   -7.4304021    388.32487  0.023214064  0.023372786            5 
 1395000    1.0260959     -7.37326    390.30383  0.023315641  0.023364195            3 
 1396000    1.0307769   -7.4120717    388.67347  0.023201616  0.023355568            7 
 1397000    1.0470909   -7.4214546     389.4643  0.023232182  0.023346888            3 
 1398000    1.0278716   -7.4198544    389.78701    0.0232348  0.023338283            2 
 1399000    1.0238521   -7.4062305     390.8637  0.023282326  0.023329816            2 
 1400000    1.0046784   -7.4468434    389.51239  0.023185261  0.023321282            2 
 1401000    1.0193439    -7.468387    391.25591  0.023272419  0.023312791            5 
 1402000    1.0111216   -7.3860134    392.03137  0.023301912  0.023304367            5 
 1403000    1.0300595   -7.4075557    391.09671  0.023229788  0.023295945            8 
 1404000    1.0233699   -7.4069749    391.75833  0.023252512  0.023287631            3 
 1405000    1.0238769    -7.394678    391.32673  0.023210364  0.023279304            6 
 1406000    1.0389402   -7.4345086    391.07097  0.023178697  0.023270921           10 
 1407000    1.0130038    -7.439087    390.34983  0.023119511  0.023262404            3 
 1408000    1.0418965   -7.4513095    392.04411  0.023203368    0.0232538            8 
 1409000     1.025712   -7.4696947     390.1705  0.023076088  0.023245204            2 
 1410000     1.042873    -7.473857    390.44701  0.023076065  0.023236685            4 
 1411000    1.0430027   -7.4408364    391.52938  0.023123635  0.023228164            4 
 1412000    1.0291049   -7.4158138    392.12056  0.023142148  0.023219823            7 
 1413000    1.0307702   -7.4196199    392.38337   0.02314127  0.023211464            6 
 1414000    1.0315625   -7.4598546    393.25108  0.023176042  0.023203104            4 
 1415000    1.0293845   -7.4171956    392.67689  0.023125847  0.023194813            3 
 1416000    1.0198506   -7.4193084    392.28172  0.023086259  0.023186555            6 
 1417000    1.0479993   -7.4521728    392.27314  0.023069463  0.023178151            3 
 1418000    1.0245823   -7.4361933    393.95028  0.023151756   0.02316971            5 
 1419000    1.0270213   -7.4214678    393.17507  0.023089915  0.023161319            5 
 1420000    1.0163096   -7.4364921    394.02492  0.023123528  0.023153098            4 
 1421000    1.0291404   -7.4391544    393.89067  0.023099382  0.023144897            1 
 1422000    1.0255039    -7.413893    394.30073  0.023107169  0.023136753            5 
 1423000    1.0418945   -7.3978231    395.37863  0.023154054  0.023128544            3 
 1424000    1.0206118   -7.4213589    393.67509  0.023038102  0.023120325            3 
 1425000    1.0574472   -7.3985312    395.61069  0.023135128  0.023112243            5 
 1426000    1.0099676   -7.4223737    394.05944  0.023028252  0.023104043            3 
 1427000    1.0131583   -7.4456178     394.6495  0.023046572  0.023095928            4 
 1428000    1.0094161   -7.4175321    396.53432  0.023140425  0.023087587            6 
 1429000    1.0231367    -7.446165    394.52664  0.023007152  0.023079254            4 
 1430000    1.0407976   -7.4383787    395.26789  0.023034259  0.023070974            3 
 1431000    1.0070149   -7.4307411    394.92999  0.022998485  0.023062783            3 
 1432000    1.0112582   -7.4712614    395.39144  0.023009278  0.023054454            3 
 1433000     0.992089   -7.4429134     395.4686  0.022997709  0.023046095            2 
 1434000    1.0237726   -7.4605245    395.13679  0.022962389   0.02303781            6 
 1435000    1.0275676   -7.4554197    396.12663  0.023003869  0.023029447            7 
 1436000    1.0340017   -7.4664723    393.76224  0.022850641  0.023020956            9 
 1437000   0.99145364   -7.4752134    395.56666  0.022939379  0.023012458            7 
 1438000    1.0181211   -7.4276687    396.06022  0.022952029  0.023003996            4 
 1439000     1.050464   -7.4263605    397.33023  0.023009626  0.022995701            2 
 1440000     1.004378   -7.4668241    396.95719   0.02297206  0.022987416            7 
 1441000   0.99426047   -7.4268802    397.77595  0.023003467   0.02297899            2 
 1442000    1.0286425   -7.4384735    397.15277  0.022951501  0.022970622            3 
 1443000    1.0226902   -7.4798952    395.38482  0.022833496  0.022962241            2 
 1444000    1.0192785   -7.4685417    395.41568  0.022819465  0.022953706            6 
 1445000    1.0102203   -7.4510229    397.20038  0.022906597  0.022945335            5 
 1446000    1.0150914   -7.4846874    395.94171  0.022818217  0.022936943            3 
 1447000    1.0316302   -7.4543223    397.96286  0.022918847  0.022928639            5 
 1448000    1.0493625   -7.4186124    397.77168  0.022892017  0.022920292           10 
 1449000    1.0284781    -7.403207    399.04563  0.022949484  0.022912068            2 
 1450000     1.028279   -7.4604273    398.68761  0.022913081  0.022903764            3 
 1451000    1.0229849   -7.4355511    397.85661  0.022849564  0.022895441            3 
 1452000    1.0465598   -7.4308187    398.94853  0.022896495  0.022887203            2 
 1453000    1.0107196   -7.4359845    398.64464  0.022863308  0.022879004            2 
 1454000    1.0331656   -7.4529098     399.1917  0.022878938  0.022870878            3 
 1455000    1.0234486   -7.4162086    399.17787  0.022862421  0.022862614            3 
 1456000    1.0143183   -7.4559101    397.98678  0.022778547    0.0228544            4 
 1457000    1.0191427   -7.4414125    399.19731   0.02283215  0.022846127            2 
 1458000    1.0187209   -7.4918629    398.60429  0.022782596  0.022837823            3 
 1459000    1.0267977   -7.4703611    399.57672  0.022822522  0.022829689            6 
 1460000     1.024529   -7.4746655    398.73348   0.02275876  0.022821525            4 
 1461000    1.0150797   -7.4302199     400.1547  0.022824247  0.022813371            3 
 1462000    1.0215925   -7.4563875    399.32681  0.022761446  0.022805125            3 
 1463000    1.0189468   -7.4669942    398.76796  0.022714056  0.022796916            8 
 1464000    1.0155277     -7.45482    398.79471  0.022700063  0.022788712            2 
 1465000    1.0095345    -7.488227    400.23729  0.022766626   0.02278044            3 
 1466000    1.0316618   -7.4761466    400.61443  0.022772535  0.022772323            3 
 1467000    1.0041622   -7.4573519    399.90057   0.02271646  0.022764064            6 
 1468000    1.0160469   -7.4866742    399.94441  0.022703475  0.022755877            2 
 1469000    1.0157658   -7.4584311    401.58538  0.022781109  0.022747765            3 
 1470000    1.0115577   -7.4791733    401.61512  0.022767297  0.022739466            2 
 1471000    1.0054454   -7.5288829     400.5725  0.022692754  0.022731218            6 
 1472000    1.0329655    -7.499911    400.69183  0.022684094  0.022722924            9 
 1473000     1.012705   -7.5178957    400.05632   0.02263274  0.022714663            3 
 1474000    1.0258441   -7.4575774    401.01416  0.022671538  0.022706534            2 
 1475000    1.0040741   -7.4274978    403.01576  0.022769252   0.02269852            5 
 1476000    1.0169459   -7.4618261    403.07958  0.022757429   0.02269044            2 
 1477000    1.0117153   -7.4412583    402.19341  0.022692023  0.022682344           11 
 1478000   0.99917603   -7.4953061    401.29814  0.022626192   0.02267421            3 
 1479000    1.0233708    -7.415054    403.65381  0.022743622  0.022666071            3 
 1480000    1.0233622   -7.4389709    402.72745  0.022676095  0.022657985            4 
 1481000    1.0169447   -7.4294298    402.76186   0.02266272  0.022649738            3 
 1482000    1.0100637   -7.4996641    401.54791  0.022579167  0.022641509            6 
 1483000    1.0182221   -7.5212288     401.5981  0.022566762   0.02263327            8 
 1484000    1.0181836   -7.4965665     402.4816  0.022601168  0.022625074            6 
 1485000    1.0154917   -7.4514451    404.24815  0.022685082  0.022616993            3 
 1486000    1.0251479   -7.4335995    402.71453  0.022583812  0.022608953            3 
 1487000    1.0313651   -7.4658482    402.98277  0.022583657  0.022600849            6 
 1488000    1.0061546   -7.5064748    403.29337  0.022585874  0.022592692            4 
 1489000    1.0217494   -7.4624231    403.09955  0.022559858  0.022584373            6 
 1490000     1.031993   -7.4744977     403.4533  0.022564502  0.022576057            6 
 1491000    1.0047698   -7.4811137    402.72605  0.022508722  0.022567722           12 
 1492000    1.0029209   -7.4646196    401.60244  0.022430878  0.022559453            8 
 1493000    1.0151639   -7.5032959    403.12251  0.022500698  0.022551161            5 
 1494000    1.0139797   -7.4748812    404.13675   0.02254221  0.022542928            1 
 1495000    1.0100672   -7.4520357    403.99652  0.022519316  0.022534712            1 
 1496000    1.0099317   -7.5290569    402.37132  0.022413732  0.022526372            3 
 1497000    1.0089961   -7.5144881    402.62394  0.022412822  0.022517977            5 
 1498000    1.0219279   -7.4468077    404.34731  0.022493731  0.022509524            5 
 1499000   0.99394423   -7.4511783    404.60179  0.022492872  0.022501168            2 
 1500000    1.0250561   -7.4516855    403.93507  0.022440837  0.022492828            6 
 1501000   0.99716369   -7.4712787    402.53906  0.022348382  0.022484315            3 
 1502000   0.99680897   -7.4896073    404.13607  0.022422108  0.022475925            4 
 1503000    1.0098718   -7.4580912    403.86746  0.022392297  0.022467705            2 
 1504000    1.0265273   -7.4719453    404.12497  0.022391676  0.022459453            3 
 1505000    1.0333622   -7.4608837    404.49861  0.022397487  0.022451061            6 
 1506000    1.0023833   -7.4406407    404.76044  0.022397103  0.022442746            6 
 1507000   0.99363722   -7.4747288    404.71691  0.022379833  0.022434398            8 
 1508000   0.98952914   -7.4939518    405.03173   0.02238239  0.022425987            4 
 1509000    1.0126224   -7.4514063    405.87949  0.022414374   0.02241762            9 
 1510000   0.99133397   -7.4725376    406.52564   0.02243519  0.022409281            7 
 1511000    1.0004634   -7.4907843    404.26945   0.02229591  0.022400834            8 
 1512000   0.99502696   -7.5148015    404.46033  0.022291685  0.022392261            3 
 1513000   0.98991855   -7.5149211    404.32285  0.022269379  0.022383772            4 
 1514000    1.0266087   -7.4687373    405.05739  0.022295101  0.022375294            4 
 1515000    1.0217011   -7.4752438     406.5953  0.022364978  0.022366857            1 
 1516000    1.0070716   -7.5136888     405.2611  0.022276886  0.022358456            8 
 1517000    1.0184888   -7.4780718    405.82453  0.022293152  0.022350056            3 
 1518000    1.0196171   -7.4483933    406.78817  0.022331366  0.022341691            5 
 1519000   0.99009781   -7.4572772    404.28034  0.022179084  0.022333272            8 
 1520000    1.0275595   -7.4705729    406.56936  0.022289987  0.022324824            3 
 1521000   0.98064164   -7.5051904    405.79325   0.02223281  0.022316369            3 
 1522000     1.004671   -7.4284153    408.86553  0.022386417  0.022308053            5 
 1523000    1.0166478   -7.4816055    406.29808  0.022231237  0.022299664            3 
 1524000    1.0055315   -7.4793623     406.3458  0.022219259  0.022291174            5 
 1525000    1.0216242   -7.4815762    405.95634  0.022183407  0.022282696            2 
 1526000    1.0108609   -7.4927018    405.75656   0.02215796  0.022274268            3 
 1527000    1.0065588   -7.5161115    406.51692  0.022184945   0.02226589            5 
 1528000    1.0000979   -7.5089778    406.80468  0.022186119  0.022257412            4 
 1529000    1.0121535   -7.4503215    407.61695  0.022215879  0.022248998            6 
 1530000   0.99632149   -7.4924578    406.10861  0.022119205   0.02224064            5 
 1531000    1.0103058    -7.542179    405.22605  0.022056719  0.022232098            3 
 1532000    0.9893302   -7.5252543    405.33791  0.022048407  0.022223393            8 
 1533000    1.0051549   -7.4984056    408.04686  0.022181282  0.022214791            4 
 1534000    1.0120621   -7.4736845    408.41053  0.022186578  0.022206313            3 
 1535000    1.0091955   -7.4819939    407.20124  0.022106473  0.022197858           16 
 1536000    0.9999282   -7.5219063    406.90923  0.022076238  0.022189312            3 
 1537000    1.0110094    -7.517806    407.73437  0.022106613  0.022180742            3 
 1538000    0.9997904   -7.4899793    407.86206  0.022099158  0.022172248           11 
 1539000    1.0106547   -7.5367949    407.50382  0.022065401  0.022163607            2 
 1540000    1.0062192    -7.511792    407.47589  0.022049561  0.022155032            6 
 1541000   0.98124959   -7.5347411    407.88508   0.02205738  0.022146489            8 
 1542000   0.99456288   -7.5260885    407.87652  0.022042613  0.022138012            3 
 1543000   0.99336563   -7.5019089    408.87192  0.022082087   0.02212943            3 
 1544000    1.0086183   -7.5216416    408.29336  0.022036558  0.022120932            4 
 1545000    1.0210158   -7.4936739    409.04215  0.022062683  0.022112469           13 
 1546000     1.005858   -7.5166444    407.53406  0.021967122  0.022104018            3 
 1547000    1.0092772   -7.5143338    409.26766  0.022046308  0.022095517            8 
 1548000   0.99028918   -7.5134781    407.84322  0.021955384  0.022087053            4 
 1549000    1.0095632   -7.5076432    408.47935  0.021975433  0.022078605            4 
 1550000    1.0138977   -7.5340869    409.21289  0.022000693  0.022070056            1 
 1551000    1.0196062   -7.5254011    409.44241   0.02199884   0.02206156            7 
 1552000    0.9860595   -7.5095004    408.86502  0.021953663  0.022053029            3 
 1553000    1.0061716   -7.5111944    409.17429  0.021956122  0.022044538            2 
 1554000    0.9834366   -7.5247264    410.01343  0.021986992  0.022036008            7 
 1555000   0.99794476   -7.5295409    409.97766  0.021970935  0.022027546            9 
 1556000    1.0138978   -7.4754637    409.05187  0.021907234  0.022019156            5 
 1557000   0.98781527   -7.4958254    410.79445   0.02198643  0.022010787            2 
 1558000    1.0112082   -7.5193836    409.97724  0.021928607  0.022002253            2 
 1559000    1.0342324   -7.5410602    410.63393  0.021949643  0.021993772            3 
 1560000    1.0015004   -7.5038955    410.69219  0.021938685  0.021985235            3 
 1561000   0.98528426   -7.5043935    409.58901  0.021865738  0.021976691            5 
 1562000    0.9951381   -7.5045962    410.19597  0.021884121  0.021968205            5 
 1563000   0.98583933   -7.5042144    410.48593  0.021885579  0.021959761            4 
 1564000   0.97827901   -7.5257742    409.93015  0.021841973  0.021951322            5 
 1565000    1.0095242   -7.5237657    409.54573  0.021807547  0.021942848            4 
 1566000   0.99518029   -7.5164325    409.19179  0.021774786  0.021934317            2 
 1567000     1.030928   -7.5508914    410.17209  0.021813023  0.021925819            5 
 1568000   0.98159063   -7.5244698    410.54283  0.021818815  0.021917324            3 
 1569000   0.99453875   -7.5244689    410.84103  0.021820747  0.021908844            5 
 1570000    1.0126636   -7.5290145    411.62024  0.021848208  0.021900368            5 
 1571000   0.99121807   -7.5258271    411.16996  0.021810416  0.021891963            6 
 1572000     0.991326   -7.5511132    410.44084   0.02175789   0.02188359            4 
 1573000    0.9866377   -7.5546313    410.96338  0.021771741  0.021875077            2 
 1574000   0.99223204   -7.5277354     411.9196  0.021808534  0.021866627            9 
 1575000   0.98008518   -7.5327568    410.65542    0.0217278  0.021858265            3 
 1576000    1.0032971   -7.5710096    411.74865   0.02177182  0.021849822            3 
 1577000    1.0126136   -7.5423571    411.43096  0.021741226  0.021841399            5 
 1578000   0.97787819   -7.5196684    411.69046  0.021741152  0.021832915            8 
 1579000    1.0168379   -7.5241536    412.56852  0.021773724  0.021824573            3 
 1580000    1.0026822   -7.5746281    412.30109  0.021745838  0.021816217            7 
 1581000    1.0168208   -7.5263333    412.57333  0.021746433  0.021807923            2 
 1582000    1.0097983    -7.523306    412.94188  0.021752101  0.021799603            9 
 1583000    1.0151508   -7.5213411    413.67016  0.021776698   0.02179132            4 
 1584000   0.98686492   -7.5166507    414.05864  0.021783388  0.021782914            3 
 1585000   0.96976713    -7.521616    413.66389   0.02174889  0.021774569            6 
 1586000    1.0160443   -7.5334577    414.55871  0.021782194  0.021766252            4 
 1587000    1.0008635   -7.4990294    414.21906  0.021750633   0.02175798            2 
 1588000    1.0193831   -7.4984974    413.19374  0.021683131  0.021749744            2 
 1589000   0.97564354   -7.4909418    414.89429  0.021758669  0.021741523            7 
 1590000   0.98835576   -7.5096599    415.43532   0.02177334  0.021733334            4 
 1591000   0.99759377   -7.5180343    414.33827  0.021702193   0.02172504            3 
 1592000    1.0004284    -7.500582     413.9405   0.02166774  0.021716819            7 
 1593000   0.99545698   -7.5220726    415.07067   0.02171326  0.021708562            7 
 1594000   0.97993474   -7.5122553    414.21824  0.021655073  0.021700218            5 
 1595000     1.000888   -7.5265344    413.92085  0.021625958  0.021691888            6 
 1596000    1.0319816   -7.5799731    412.99552  0.021564093  0.021683483            6 
 1597000    1.0031116   -7.5261245    414.75008  0.021642145  0.021675034            2 
 1598000   0.99954989   -7.5026642    414.77664  0.021629987  0.021666607            3 
 1599000   0.98078433   -7.4809839    414.42834  0.021598308  0.021658176            9 
 1600000   0.99735615    -7.557779    414.69202  0.021598542  0.021649787            1 
 1601000   0.97766758   -7.5275306    413.97039  0.021547491   0.02164131            6 
 1602000   0.97717463   -7.5452763    413.68516  0.021519203   0.02163284            6 
 1603000    1.0050169   -7.5038004    414.61597  0.021554168  0.021624383            4 
 1604000    1.0231166   -7.5443071    414.42396  0.021530754   0.02161591            5 
 1605000    1.0107873   -7.5337284    415.23783  0.021559597  0.021607433            4 
 1606000   0.99435763   -7.5534639    414.55425  0.021510702  0.021598941            6 
 1607000   0.98512569   -7.5157514    415.88321  0.021566232  0.021590537            5 
 1608000   0.99003764   -7.5104785    415.37937  0.021526708  0.021582105            3 
 1609000   0.99307689   -7.5603989    415.30338  0.021509394  0.021573641            8 
 1610000   0.97346722    -7.534646    414.62145  0.021460738   0.02156522            4 
 1611000    1.0004821    -7.584973    415.11165  0.021472773  0.021556779            5 
 1612000    1.0054426   -7.5473229    415.54204  0.021481702  0.021548345            5 
 1613000    1.0041983   -7.5596722    416.72661  0.021529583  0.021539882            7 
 1614000   0.99292455   -7.5423347    415.87694  0.021472374   0.02153148            4 
 1615000   0.97487173   -7.5141299    417.21521  0.021528133  0.021523261            2 
 1616000   0.99960944   -7.5197019    417.43873  0.021526337  0.021515096            3 
 1617000   0.98819127   -7.5161146    417.84502  0.021533963  0.021506928            6 
 1618000    1.0048779   -7.5434618     417.1376  0.021484219  0.021498818            7 
 1619000   0.99487683   -7.5538222    416.83025  0.021455129  0.021490634            3 
 1620000   0.98583966   -7.5148846      417.363   0.02146929   0.02148247            3 
 1621000   0.98751483   -7.5347519    417.12903  0.021444017  0.021474248            3 
 1622000   0.99445398   -7.5598147    417.78967  0.021464738  0.021466004            9 
 1623000    1.0012735   -7.5184569    417.32757  0.021427787   0.02145763           11 
 1624000     1.021923   -7.5658832    416.64638  0.021379638  0.021449192            4 
 1625000    1.0035198   -7.5652937    417.40998   0.02140564  0.021440921            5 
 1626000    1.0023878   -7.5739192    417.06569  0.021374831  0.021432668            5 
 1627000   0.99062396   -7.5557336    418.27217  0.021423487  0.021424306            6 
 1628000   0.98901461   -7.5344347    417.64379  0.021378163  0.021416113            5 
 1629000   0.99610563   -7.5300952    418.54864  0.021411328  0.021407962            7 
 1630000    0.9840194   -7.5102682    418.90055  0.021416184  0.021399748            3 
 1631000   0.97708685    -7.516318    418.23024  0.021368804  0.021391671            2 
 1632000    1.0137897   -7.5447947     418.9706  0.021393515  0.021383429            3 
 1633000   0.98258239    -7.496879    419.58072  0.021411549   0.02137524            4 
 1634000   0.96344745   -7.5526972     419.8651  0.021412949  0.021366996            6 
 1635000    1.0041034    -7.563222    418.90889  0.021351116  0.021358827            6 
 1636000   0.99414324   -7.5179418    419.82383   0.02138467  0.021350706            3 
 1637000    1.0012905   -7.5672164    418.72377  0.021315606  0.021342592            4 
 1638000   0.98653901   -7.5411557    418.88111  0.021310598  0.021334462            6 
 1639000   0.96405391   -7.5257854    419.45617  0.021326834   0.02132636            4 
 1640000   0.96790687   -7.5318541    419.54153  0.021318167  0.021318179           10 
 1641000   0.97810627   -7.5767957    419.44657  0.021300354  0.021309996            5 
 1642000   0.99676524   -7.5560864    419.64809  0.021297609  0.021301814            9 
 1643000    0.9987682   -7.5499075    420.19983  0.021312631  0.021293557            3 
 1644000   0.99223546   -7.5400955    421.02094  0.021341289  0.021285334            6 
 1645000    1.0009931   -7.5330699    420.24657  0.021289087  0.021277091            3 
 1646000   0.96827304   -7.5724189    418.91209  0.021208591  0.021268797            5 
 1647000   0.96749571   -7.5836174    420.61786  0.021282021  0.021260504            5 
 1648000   0.97828263   -7.5326195    420.16578  0.021246247  0.021252264            4 
 1649000   0.97768037   -7.5369263    419.83341  0.021216566  0.021244026           10 
 1650000   0.97362374   -7.5621367    420.16082  0.021220243   0.02123576            3 
 1651000   0.99348141   -7.5610037    420.98452  0.021248966  0.021227545            2 
 1652000   0.98389356   -7.5384169    421.71481  0.021272942  0.021219334            4 
 1653000    1.0027754   -7.5718314    421.24827  0.021236553  0.021211172            5 
 1654000    0.9782086   -7.5509985    420.94938  0.021208655  0.021203006            8 
 1655000   0.97738247   -7.5555127    422.04143  0.021250828  0.021194896            3 
 1656000   0.98703009   -7.5363518    421.72595  0.021222119  0.021186789           12 
 1657000   0.99651885   -7.5822972    421.95299   0.02122073  0.021178724            3 
 1658000   0.97671142   -7.5472921    422.74658  0.021247818   0.02117077            7 
 1659000   0.98715329   -7.5429142    422.50905  0.021223079  0.021162865            7 
 1660000   0.99169401   -7.5548464    423.69835  0.021269998  0.021155054            7 
 1661000   0.98487958    -7.556884    423.31062  0.021237739  0.021147106            3 
 1662000   0.99139517   -7.5553326    422.88346  0.021203543  0.021139188            3 
 1663000   0.99188162   -7.5635028    423.34052  0.021213696  0.021131272            8 
 1664000   0.98439754    -7.598086    422.25657  0.021146663  0.021123257            7 
 1665000   0.99679472   -7.5564947    423.33787  0.021188082  0.021115348            5 
 1666000    0.9663409    -7.587301    423.21038  0.021168986  0.021107415            3 
 1667000   0.96837963    -7.591103    422.65028  0.021128288  0.021099459            5 
 1668000   0.96665416   -7.5943475     422.9516  0.021130676  0.021091541            5 
 1669000   0.99744428   -7.5248955    424.31354  0.021186017  0.021083671            6 
 1670000   0.97191892    -7.538098    425.74404  0.021244712   0.02107584            5 
 1671000   0.99540334   -7.5317673     426.4104  0.021265231   0.02106805            3 
 1672000   0.98602958   -7.5461602    424.44469   0.02115454  0.021060359            7 
 1673000    1.0187815   -7.5763788    425.20496  0.021179765  0.021052702            8 
 1674000    0.9844817   -7.5858858    425.10698  0.021162235  0.021044976            6 
 1675000   0.99773358   -7.6000775    424.70922  0.021129812  0.021037117            4 
 1676000    1.0079413   -7.5909573    425.99691  0.021181231    0.0210293            4 
 1677000    1.0015084   -7.5948028    424.66279  0.021102305  0.021021472            5 
 1678000   0.98947261   -7.5613025    425.50242  0.021131427  0.021013689            4 
 1679000   0.96234393   -7.5928647     424.9012  0.021089001  0.021005987            6 
 1680000   0.97173663   -7.5350045    426.74151  0.021167734  0.020998265            4 
 1681000   0.99270457   -7.5617943    426.92539  0.021164257  0.020990568            5 
 1682000    1.0059676   -7.5703133    427.33773  0.021172103  0.020982933            2 
 1683000   0.97357548   -7.5460657    427.28529  0.021156927  0.020975213            3 
 1684000   0.98984506   -7.5691142     426.1209  0.021086743  0.020967508            3 
 1685000   0.98705283   -7.5612564     426.3327  0.021084703  0.020959787            5 
 1686000   0.97920236   -7.5761889    426.31303  0.021071225  0.020952088            7 
 1687000    0.9710309   -7.6298049    425.45833  0.021016515  0.020944315            6 
 1688000   0.98838501    -7.593674    426.69475  0.021065104  0.020936634            5 
 1689000   0.97578535   -7.5878849    426.79387  0.021057523   0.02092894            5 
 1690000   0.96158558   -7.5933282    426.99383  0.021054922  0.020921264            4 
 1691000   0.97443103   -7.5849715    425.88631  0.020987892  0.020913519            5 
 1692000   0.95451041   -7.5969161    427.13265  0.021036872  0.020905788            4 
 1693000   0.98531585   -7.6081056     426.8816  0.021012089  0.020898083            7 
 1694000   0.98908185   -7.5752952    427.30458  0.021020493  0.020890381            6 
 1695000   0.96822154   -7.5729588    428.44557  0.021064187  0.020882593            6 
 1696000   0.98994202   -7.5533485    427.75231  0.021017704  0.020874802            3 
 1697000   0.97056661   -7.5841913    427.45884  0.020990907  0.020867046            4 
 1698000   0.97905928   -7.5857686    427.21596  0.020966625   0.02085915            5 
 1699000   0.99283744   -7.5984145      426.481  0.020918236  0.020851313            1 
 1700000   0.99390906   -7.5887057    427.08619  0.020935598  0.020843482           11 
 1701000   0.97984257   -7.5533244    428.37315  0.020986339  0.020835696            3 
 1702000   0.99215947   -7.5540199    428.01194  0.020956323  0.020827987            5 
 1703000   0.97158645   -7.5591427    427.63552  0.020925598  0.020820259            5 
 1704000   0.97558482   -7.5886865    427.64431  0.020913748  0.020812402            7 
 1705000   0.97861327   -7.5826107    426.66684  0.020853707  0.020804548            5 
 1706000   0.95590479   -7.5931096    427.35588  0.020875141  0.020796694            4 
 1707000   0.99682505   -7.5472219    428.60419  0.020923852  0.020788863            2 
 1708000   0.97232792   -7.5920048    427.72638  0.020868773   0.02078111            5 
 1709000   0.99243004   -7.6019167    428.54332  0.020896397  0.020773237            6 
 1710000   0.97431782   -7.5711913    429.17351  0.020914889  0.020765454            5 
 1711000   0.99931515   -7.5627141    428.61129  0.020875282  0.020757708            5 
 1712000   0.97202544   -7.5501212    429.43719   0.02090329  0.020750008            4 
 1713000   0.99599587   -7.6131984     427.9083   0.02081671    0.0207422            4 
 1714000   0.98709919   -7.6025827    427.81235    0.0207999  0.020734411            3 
 1715000   0.97225296   -7.5862068     429.4608  0.020867872  0.020726542            5 
 1716000   0.97165892   -7.5799942    429.05635   0.02083607  0.020718825            2 
 1717000   0.97356387   -7.5811665    430.22939  0.020880867  0.020711081            6 
 1718000   0.97480776   -7.5741775    429.46939  0.020831849  0.020703368            6 
 1719000   0.96523108   -7.6024034    429.72416  0.020832081  0.020695663            7 
 1720000   0.96247558   -7.5820512    429.09927  0.020789693  0.020687867            9 
 1721000   0.97012749   -7.5693376    428.86909  0.020766467  0.020680146            4 
 1722000   0.98280709    -7.565081    429.65931   0.02079265  0.020672433            2 
 1723000   0.95951534   -7.6042664    429.47685  0.020771757  0.020664617            7 
 1724000   0.96168688   -7.6478733    428.06244   0.02069134  0.020656743            7 
 1725000   0.98289411   -7.5571614    430.63903  0.020803818  0.020648894            4 
 1726000   0.96852927   -7.5464817    430.56382  0.020788134  0.020641163            5 
 1727000   0.97529667    -7.546839    429.66543  0.020732746  0.020633433            7 
 1728000   0.98040861   -7.5989571    429.81908  0.020728158  0.020625641            2 
 1729000   0.98556201   -7.5572754    430.33165  0.020740874   0.02061788            4 
 1730000   0.98672544    -7.609254    430.73915  0.020748514  0.020610138            6 
 1731000     1.012815   -7.5992751    430.08237  0.020704909  0.020602385            6 
 1732000    0.9824829   -7.5805758    431.13106  0.020743411  0.020594587           12 
 1733000   0.98279604   -7.5848182    430.74517  0.020712886  0.020586784            5 
 1734000   0.95891573   -7.6096122    430.13755  0.020671739   0.02057891            5 
 1735000   0.94900239   -7.5816108    429.85141  0.020646081  0.020570985            3 
 1736000   0.99595261   -7.5814795    430.46628  0.020663704  0.020563169            7 
 1737000   0.97712478   -7.5939227    429.56787  0.020608706  0.020555278            3 
 1738000   0.95131702    -7.572232    431.32547  0.020681121  0.020547418            6 
 1739000   0.94499677   -7.5990795    430.45392  0.020627464  0.020539552            2 
 1740000   0.99319515   -7.6038859    430.70062  0.020627424  0.020531666            5 
 1741000   0.98411052   -7.6120209    430.88599  0.020624449  0.020523824            5 
 1742000   0.97405871   -7.5919956    430.95283  0.020615807  0.020515983            6 
 1743000   0.97418414    -7.599871    432.49502  0.020677712  0.020508206            6 
 1744000   0.97677911   -7.6005964     432.0451  0.020644357  0.020500471            5 
 1745000    0.9783962    -7.590046    431.57012  0.020609843  0.020492806            3 
 1746000   0.95856371   -7.5789146    433.13189   0.02067258  0.020485128            5 
 1747000   0.98428487   -7.5739524    433.53044  0.020679758  0.020477513            8 
 1748000   0.98147189    -7.598359      432.053  0.020597492  0.020469868            4 
 1749000   0.95120218   -7.5834251    432.79429  0.020621035  0.020462265            6 
 1750000   0.97468894   -7.6138596    432.48748  0.020594642  0.020454623            3 
 1751000   0.96930952   -7.6194503    431.95769  0.020557667  0.020446946            4 
 1752000   0.98041817   -7.5662111    433.31033   0.02061027   0.02043932            2 
 1753000   0.96108671   -7.5937608    434.60729  0.020660168   0.02043172            7 
 1754000   0.96663485   -7.6151655    432.59769  0.020552912  0.020424144            5 
 1755000   0.98439962   -7.5936743    433.29802  0.020574455  0.020416573            7 
 1756000   0.97347667   -7.6183871    432.53909  0.020526722  0.020408943            7 
 1757000   0.99221786   -7.6049594      433.762  0.020573041  0.020401274            4 
 1758000   0.96592772   -7.5857776    433.95569   0.02057052  0.020393721            3 
 1759000   0.98108751   -7.5697398    434.60219  0.020589454  0.020386149            2 
 1760000   0.97881268   -7.5938621    432.90221  0.020497264  0.020378542            3 
 1761000   0.96900711   -7.5782638    434.29942  0.020551742  0.020370982            5 
 1762000   0.95756117   -7.5622188     435.1125  0.020578533   0.02036348            4 
 1763000   0.96595513   -7.5568548    435.94312  0.020606122  0.020355882            4 
 1764000   0.98340896   -7.5936907    433.92988  0.020499333  0.020348304           12 
 1765000   0.96115394   -7.5739132    434.65732  0.020522064  0.020340722           10 
 1766000   0.99150205   -7.6055516    433.88778  0.020474131  0.020333155            5 
 1767000    0.9613053   -7.6241045    435.24582   0.02052659   0.02032553            3 
 1768000   0.98789058   -7.6052436    433.58853  0.020436865  0.020317884            3 
 1769000   0.97162894   -7.5881425    434.88439  0.020486357   0.02031029            4 
 1770000   0.96194158   -7.6217805    434.17648  0.020441454  0.020302698            4 
 1771000   0.94045042   -7.5984668    435.29236  0.020482419     0.020295            2 
 1772000   0.94806391   -7.6320014    433.88641  0.020404741  0.020287311            5 
 1773000   0.96696054   -7.6136015    433.70888  0.020384888  0.020279635            3 
 1774000   0.98124568   -7.5993111    434.88196  0.020428502  0.020272011            6 
 1775000   0.96576046   -7.6128645    434.68366  0.020407683  0.020264338            2 
 1776000   0.96920922   -7.5837373    434.90281  0.020406476  0.020256658           18 
 1777000   0.98445932   -7.6271754     435.0038  0.020399728  0.020249084            6 
 1778000   0.97425781   -7.5740193    435.77811  0.020424546  0.020241467            6 
 1779000    0.9579701   -7.5772887    436.43321  0.020443752  0.020233874            4 
 1780000   0.96504473   -7.6278292    436.54766  0.020437625  0.020226345            8 
 1781000   0.98630332   -7.6215743    436.16573  0.020408279  0.020218798            5 
 1782000   0.96678858   -7.5975967    436.04307   0.02039109  0.020211308            6 
 1783000   0.98336437   -7.5841806    438.15427  0.020478326  0.020203827            5 
 1784000   0.96678547   -7.6096933    437.00319  0.020413079  0.020196362            5 
 1785000   0.97378909   -7.6013283    438.14374   0.02045489  0.020188846            8 
 1786000   0.95064505   -7.6256705    436.29379   0.02035712  0.020181309            2 
 1787000   0.95602727   -7.6117944     436.9414  0.020375928  0.020173721            5 
 1788000   0.92613859   -7.6041585    436.69427  0.020353014  0.020166174            3 
 1789000   0.95708134   -7.5942601    436.72541  0.020343088   0.02015861            4 
 1790000   0.94193801   -7.6366853    435.80374  0.020288815  0.020150973            7 
 1791000    0.9739074   -7.6107274    435.69975  0.020272648  0.020143351            7 
 1792000   0.95791261   -7.6341843    435.72074  0.020262311  0.020135651            5 
 1793000   0.96111977   -7.6600917    434.77321  0.020206972  0.020127915            7 
 1794000    0.9568569    -7.619432    435.98326  0.020251916  0.020120216            9 
 1795000   0.94050074   -7.6529418    435.93872  0.020238567  0.020112555            5 
 1796000   0.97698494   -7.6095641    436.41947  0.020249604  0.020104805            6 
 1797000   0.97968293   -7.6414541    436.28023  0.020231879  0.020097049            3 
 1798000   0.95720137   -7.6061883    436.26891  0.020220102  0.020089343            3 
 1799000   0.97451961    -7.653149    435.78062  0.020186243  0.020081656            4 
 1800000   0.95503069    -7.576288    437.88242  0.020272334  0.020074004            6 
 1801000   0.96854745   -7.5792818    437.27841   0.02023313  0.020066425            3 
 1802000   0.96145545    -7.625275    436.77106   0.02019844   0.02005877            7 
 1803000   0.96370446   -7.5998193    437.68925  0.020229675  0.020051083            7 
 1804000   0.95551945   -7.6365335      436.345  0.020156365   0.02004336            2 
 1805000   0.95377584    -7.604879    436.63802  0.020158727  0.020035726            3 
 1806000   0.97909283   -7.6495632     436.6608  0.020148615  0.020028076            9 
 1807000   0.96917889   -7.6082188    438.70725  0.020231841  0.020020308            5 
 1808000   0.98336042   -7.6166301    438.11759  0.020193473  0.020012626            6 
 1809000   0.93846083   -7.6296947    437.79824  0.020167599  0.020004857            5 
 1810000   0.94513599   -7.6626654    437.79782  0.020156437  0.019997105            2 
 1811000   0.94548844   -7.6231316    436.59906  0.020090146  0.019989383            4 
 1812000    0.9472066   -7.6654873    437.42665   0.02011712  0.019981571            2 
 1813000   0.98265237   -7.6455762    437.28523  0.020099523  0.019973823            3 
 1814000   0.93297379   -7.6386245    437.40603  0.020093993  0.019966117            6 
 1815000   0.95699525     -7.65674    437.01679   0.02006505  0.019958369            5 
 1816000   0.96452081   -7.6339423     437.8077  0.020090295   0.01995063            2 
 1817000   0.94570801   -7.6164896     438.6208  0.020116529  0.019942998           11 
 1818000   0.94087637   -7.6194717    437.98913   0.02007651  0.019935362            9 
 1819000   0.97548026   -7.6086927    439.63895  0.020141055  0.019927736            2 
 1820000   0.96268319   -7.6069125    438.83886  0.020093355   0.01992016            2 
 1821000   0.94263692   -7.6248189    438.92004  0.020086035  0.019912611            3 
 1822000   0.94349497   -7.6288388    437.74381  0.020021213  0.019904967            6 
 1823000   0.95735795   -7.6252964    439.22122  0.020077766  0.019897377            7 
 1824000   0.94079048    -7.616098    439.01342  0.020057265  0.019889832            6 
 1825000   0.96931083   -7.6203178    440.33503  0.020106622  0.019882324            6 
 1826000   0.96430849   -7.6458922    439.02682  0.020035908  0.019874771            5 
 1827000   0.96085557   -7.6381812    439.16441  0.020031217  0.019867254            3 
 1828000   0.96620509   -7.6153374    439.04228  0.020014692  0.019859682            6 
 1829000   0.96366902   -7.6742608    438.49128  0.019978644  0.019852137            3 
 1830000   0.96255615   -7.6791033    438.52075  0.019969069  0.019844477            4 
 1831000    0.9608884   -7.6556472    440.13221  0.020031504   0.01983686            5 
 1832000   0.95699136   -7.6555743    438.66623  0.019953886  0.019829275            8 
 1833000   0.95799502   -7.6353901    439.76433  0.019992923  0.019821679            8 
 1834000   0.93369352   -7.6359423    438.57463  0.019927964  0.019814145            6 
 1835000   0.95512134   -7.6065776    440.73269  0.020015108  0.019806616            4 
 1836000   0.95660444   -7.6421717    440.33073  0.019985963  0.019799081            3 
 1837000   0.98560234   -7.6561763    439.83515  0.019952602  0.019791551           11 
 1838000   0.95022256   -7.6899376    439.35827  0.019920125  0.019783926            5 
 1839000   0.94096285   -7.6686233    439.84421  0.019931313  0.019776354            4 
 1840000   0.96584425   -7.6718393    440.19553  0.019936392  0.019768738            8 
 1841000   0.94500307   -7.6489102    441.41974  0.019980977  0.019761172            8 
 1842000   0.96629839   -7.6385304    440.80839  0.019942472   0.01975368            4 
 1843000   0.97154776   -7.5626158    441.96373  0.019983891  0.019746258            4 
 1844000   0.97576147   -7.6380898    441.11505  0.019934701  0.019738755            9 
 1845000   0.94773815   -7.6342395    441.10249  0.019923328   0.01973126            5 
 1846000   0.97362203   -7.6058918    441.36394  0.019924338  0.019723777            9 
 1847000   0.96530191   -7.5870683    441.54964  0.019921929  0.019716349            3 
 1848000   0.97021822   -7.6330621    442.23012  0.019941835  0.019708937            5 
 1849000   0.97217866   -7.6133758    441.84073    0.0199135  0.019701496            3 
 1850000   0.94612341   -7.6263461     441.5764  0.019890829   0.01969408            5 
 1851000   0.93711428   -7.6254018    442.10273  0.019903779  0.019686624            5 
 1852000   0.98134715   -7.6741853    441.57256  0.019869176  0.019679099            6 
 1853000   0.95251751   -7.6538574    442.94462  0.019920157  0.019671661            3 
 1854000   0.94457048   -7.5767355    443.31186  0.019925919  0.019664295            2 
 1855000   0.96661888   -7.6795226    441.82715  0.019848479  0.019656925           15 
 1856000   0.96412473   -7.7201037    441.90564  0.019841309  0.019649435            5 
 1857000   0.94990492    -7.669076    441.28872   0.01980294   0.01964191            5 
 1858000   0.93908086   -7.6381391    442.78053  0.019859191  0.019634337            6 
 1859000   0.96013276   -7.6573144    441.71923  0.019800934  0.019626823            5 
 1860000   0.94832336   -7.6735994    441.60802  0.019785306  0.019619378            2 
 1861000   0.94575851   -7.6696937    442.24687  0.019803281  0.019611891            6 
 1862000   0.96449111    -7.649646     442.7283  0.019814192  0.019604357           50 
 1863000   0.97521214   -7.6644315    442.55827  0.019795951  0.019596823            9 
 1864000   0.97156035   -7.6278697    443.40705  0.019823277  0.019589362            8 
 1865000   0.96168509   -7.6459995    441.95152   0.01974761  0.019581922            5 
 1866000   0.95469021   -7.6414831    442.40133  0.019757115  0.019574386           11 
 1867000   0.94345532   -7.6220295    443.67844  0.019803537  0.019566914            6 
 1868000   0.92767698   -7.6400884     444.4071  0.019825442  0.019559431            4 
 1869000   0.97296421   -7.6316833    443.44573  0.019771969  0.019551937            7 
 1870000   0.93251927   -7.6312908    443.52848  0.019765084  0.019544457            6 
 1871000   0.94473023   -7.6628391    442.99751  0.019730871  0.019537017            3 
 1872000   0.93737816   -7.6883802    442.42879  0.019695014  0.019529545            6 
 1873000   0.96847999   -7.6799516     442.4242  0.019684295  0.019521991            3 
 1874000   0.96128169    -7.674795    442.81694  0.019691255  0.019514515           10 
 1875000   0.98014976    -7.675695    443.13285  0.019694793  0.019507088            9 
 1876000   0.93934475   -7.6494816    444.03327  0.019724292  0.019499628            5 
 1877000   0.93356545   -7.6627893    443.20083  0.019676826  0.019492207            8 
 1878000   0.95828905   -7.6756559    443.28763    0.0196702  0.019484722            4 
 1879000   0.95651608   -7.6870528    443.61585  0.019674288  0.019477236            3 
 1880000   0.94965476   -7.6523578    443.61855  0.019663943   0.01946976            5 
 1881000   0.95636608   -7.6268608    446.16949  0.019766502  0.019462394            7 
 1882000   0.96875233   -7.6460492    444.52291   0.01968309  0.019455055            6 
 1883000   0.95876136   -7.6482152    445.60671  0.019720601  0.019447779            6 
 1884000   0.95128982   -7.6728422    443.78787  0.019629683  0.019440457           25 
 1885000   0.94296966   -7.6620578    445.43839  0.019692236  0.019433085            5 
 1886000   0.93829801   -7.6816986    444.74213  0.019651031  0.019425686            5 
 1887000   0.96044324   -7.6634975    445.50297  0.019674217  0.019418309            5 
 1888000   0.96838721   -7.7093236    442.91007   0.01954935  0.019410887            7 
 1889000   0.95505152   -7.6879137    444.98602  0.019630581  0.019403462           15 
 1890000   0.95085593   -7.6473534    446.58269  0.019690595  0.019396074            6 
 1891000   0.94179505   -7.6510311    446.93269  0.019695606  0.019388782            6 
 1892000   0.93298371   -7.6984221     445.5957  0.019626308  0.019381471            6 
 1893000   0.95568434   -7.6689013    445.92879  0.019630604  0.019374174            6 
 1894000   0.94673108   -7.7004396    445.08906  0.019583292  0.019366875            8 
 1895000   0.95796195    -7.679594     445.1694  0.019576491  0.019359469            4 
 1896000   0.95961342   -7.6712478     445.6722  0.019588265  0.019352085            7 
 1897000   0.94372337   -7.7003712    446.01536  0.019593013  0.019344754            3 
 1898000   0.93393148   -7.6764163    447.01654  0.019626648  0.019337459            6 
 1899000   0.95894784   -7.6725931     445.8035  0.019563081  0.019330129            5 
 1900000   0.95659996    -7.679237    445.79756  0.019552525  0.019322872            4 
 1901000   0.96387253   -7.6815212    446.03545  0.019552667  0.019315549            8 
 1902000    0.9481397   -7.7257839    445.21463  0.019506424  0.019308208            7 
 1903000   0.93566381    -7.713892    446.29412  0.019543446  0.019300785            4 
 1904000   0.96577022   -7.7104576    445.72269  0.019508171  0.019293377            5 
 1905000   0.93661619   -7.6911506    446.29603  0.019523011  0.019285997           14 
 1906000    0.9382604   -7.6836321    446.72823  0.019531664  0.019278696           16 
 1907000    0.9625273   -7.6582337    446.56866  0.019514449   0.01927142            5 
 1908000   0.93042666   -7.6858861    446.70626  0.019510231  0.019264161            5 
 1909000   0.93062079   -7.6667214    447.45784   0.01953282  0.019256954            8 
 1910000   0.91978996   -7.7251609    447.05461     0.019505  0.019249626           12 
 1911000   0.95749949   -7.7002416    447.44592  0.019511858  0.019242397           16 
 1912000   0.94428022   -7.7001989    447.32462  0.019496366   0.01923514           12 
 1913000    0.9385681   -7.6720716    448.03719  0.019517215  0.019227907           13 
 1914000   0.97039813   -7.7162699     447.9423  0.019502886  0.019220651            6 
 1915000    0.9407609   -7.6891013     448.5663  0.019519856  0.019213385            9 
 1916000   0.95140749   -7.6921327    447.69776  0.019471893  0.019206171            8 
 1917000    0.9356023   -7.6959713    447.50676  0.019453432   0.01919894            5 
 1918000   0.95568212   -7.6589017    448.84844  0.019501583  0.019191726            4 
 1919000   0.93360407   -7.6504286    449.24983  0.019508851  0.019184556            5 
 1920000   0.95925708   -7.6878243    449.54308  0.019511418  0.019177397            8 
 1921000   0.93046042   -7.6936289    448.46958  0.019454693  0.019170169            4 
 1922000   0.95131758   -7.6743989    448.43219   0.01944295  0.019162866            9 
 1923000   0.94506046   -7.6852518    447.97125  0.019412864  0.019155566            8 
 1924000    0.9346373   -7.6809905    448.10122  0.019408404  0.019148248           12 
 1925000   0.95495882   -7.6811294    448.43936  0.019412959  0.019140949            4 
 1926000   0.94281207   -7.6765372     449.8778  0.019465118  0.019133761            6 
 1927000   0.96159625   -7.6743316    448.30358  0.019386939  0.019126563            7 
 1928000   0.95041582   -7.6838364    448.45799  0.019383558  0.019119342            5 
 1929000   0.97526418   -7.7209529    447.95614  0.019351829  0.019112065            9 
 1930000   0.95033502   -7.7014038     448.1228  0.019348998  0.019104757           14 
 1931000   0.93977772   -7.6731422    448.77715  0.019367217  0.019097543            6 
 1932000   0.93424316   -7.6611527    449.82869  0.019402549  0.019090385            7 
 1933000   0.94675631   -7.6719815    448.42235  0.019331883  0.019083204            8 
 1934000   0.95845572   -7.6728304    450.69564   0.01941984  0.019076031           15 
 1935000    0.9580847   -7.6749169    450.57912  0.019404785  0.019068934           10 
 1936000   0.94154134   -7.6652818     449.6378  0.019354244  0.019061816            8 
 1937000   0.92016932   -7.6502348    449.71272  0.019347475  0.019054655            9 
 1938000   0.94602298   -7.6810492    449.16853  0.019314092  0.019047489            6 
 1939000   0.95599844   -7.6725029    448.96006  0.019295172  0.019040328            3 
 1940000   0.95399057   -7.7031645    448.33972  0.019258579  0.019033068            6 
 1941000   0.96143436   -7.6691861    450.72339  0.019350996  0.019025883            2 
 1942000   0.93205978   -7.6479651    449.68581  0.019296507  0.019018789            4 
 1943000   0.92497683   -7.7041098    449.88244  0.019295009   0.01901161            5 
 1944000   0.95616917   -7.7136893    448.93138  0.019244315  0.019004376            9 
 1945000   0.92655659   -7.6965021    448.88453  0.019232413  0.018997151            7 
 1946000   0.95280784   -7.7082744    448.73051  0.019215935  0.018989903            5 
 1947000   0.93724076   -7.6685828    451.25577  0.019314149  0.018982697            5 
 1948000    0.9497996   -7.6589149     450.4192  0.019268446  0.018975518            7 
 1949000   0.93977717   -7.6979932    449.87402   0.01923525  0.018968356            3 
 1950000   0.93670262   -7.7390445    448.44498  0.019164315  0.018961128            5 
 1951000   0.92038452   -7.6751232    450.68803    0.0192503  0.018953891            3 
 1952000   0.91808254   -7.6500339    451.28902  0.019266095  0.018946736            5 
 1953000   0.92412688    -7.690162    450.38283  0.019217564  0.018939551            5 
 1954000   0.92854223   -7.7185981    449.90965  0.019187549  0.018932342           10 
 1955000   0.94872968   -7.7006054     451.2153  0.019233389   0.01892511            6 
 1956000   0.93102533   -7.6903525    451.41464  0.019232048  0.018917904           13 
 1957000    0.9393464   -7.7066507    450.44879  0.019181093  0.018910694           16 
 1958000   0.93252888     -7.71678    450.63406  0.019179182  0.018903571           12 
 1959000   0.92188725   -7.6937073    451.47646  0.019205226  0.018896421            8 
 1960000   0.92994641   -7.6883144    451.20078  0.019183707  0.018889312            5 
 1961000   0.94967649   -7.6677329    452.46951  0.019227839   0.01888218            3 
 1962000   0.94264117   -7.7051139    451.12711  0.019161022  0.018875104            3 
 1963000   0.94720562   -7.7675486    450.64172  0.019130655  0.018867933            7 
 1964000   0.91656027   -7.7114479    451.00978  0.019136532  0.018860746            4 
 1965000   0.92590621   -7.7180506    451.49766  0.019147484  0.018853495            8 
 1966000   0.93844649   -7.7548908    449.54883  0.019055139   0.01884626           11 
 1967000   0.95522366   -7.7101742    451.90685   0.01914535  0.018839042           12 
 1968000    0.9615683   -7.7363685    450.59834  0.019080214  0.018831831            7 
 1969000   0.93317889   -7.7075422    452.11796  0.019134838  0.018824698            5 
 1970000   0.96400527   -7.7309284    452.36137  0.019135422   0.01881757            4 
 1971000   0.92748671   -7.6941786    451.97282  0.019109286  0.018810468           10 
 1972000   0.93073375   -7.6554356     453.0648   0.01914574  0.018803478            5 
 1973000   0.93922807   -7.6860174    453.11784  0.019138277  0.018796466            6 
 1974000   0.95070528   -7.6746335    453.79995  0.019157377  0.018789425            9 
 1975000   0.94110101   -7.7525072    452.52996  0.019094091  0.018782308           12 
 1976000    0.9526659   -7.6869909    452.85546  0.019098155   0.01877519            5 
 1977000   0.94063994   -7.7045486    453.42164   0.01911236  0.018768097            4 
 1978000   0.93463775   -7.6923052    451.55037  0.019023861  0.018761079            4 
 1979000    0.9231416   -7.7293335    452.61374  0.019059025  0.018754005            8 
 1980000    0.9323109   -7.7110902    452.48991  0.019044188  0.018746899            8 
 1981000   0.92199256   -7.7435426    452.88841  0.019051338  0.018739826            3 
 1982000    0.9422219   -7.6705738     454.4062  0.019105541  0.018732759            4 
 1983000   0.93955461   -7.7234577    453.71114  0.019066698  0.018725789            9 
 1984000   0.93219541   -7.7438362    453.15045  0.019033537  0.018718822            9 
 1985000   0.93220635   -7.7083287    454.26241   0.01907063  0.018711811            3 
 1986000   0.93713357   -7.7443007    454.08534  0.019053598  0.018704808           11 
 1987000   0.93082731   -7.6888197    453.84313   0.01903385  0.018697774            6 
 1988000   0.93179112   -7.7114905    454.46197  0.019050217   0.01869074            3 
 1989000   0.92041593   -7.7170084    454.29566  0.019033671  0.018683757            8 
 1990000   0.95105151    -7.714181    453.63423  0.018996408   0.01867679            5 
 1991000   0.93316886   -7.6935305    454.73551  0.019032961  0.018669823            3 
 1992000   0.93840813   -7.7176761    454.64476   0.01901961  0.018662897            2 
 1993000   0.95478622   -7.7039143    453.44574  0.018959932  0.018655928            7 
 1994000   0.93448732   -7.6596102     455.7418  0.019046381  0.018648985            5 
 1995000   0.92841732   -7.7020548    454.76648  0.018996094  0.018642018            9 
 1996000   0.91061704   -7.6873167    455.07325  0.018999384  0.018635069           12 
 1997000    0.9424878   -7.7108143    454.47375  0.018964854  0.018628055            5 
 1998000   0.91928836   -7.7219087     454.5776  0.018959693  0.018621042            2 
 1999000   0.92705448   -7.7267179    455.11398  0.018972569  0.018614092            4 
 2000000   0.94095466   -7.7176085    456.25076  0.019010448  0.018607128            4 
 2001000   0.91674195   -7.7023133    455.14114  0.018954737  0.018600199            5 
 2002000   0.94168344   -7.7223172    454.81533  0.018931707  0.018593298            8 
 2003000   0.92680946   -7.7294564    455.76716  0.018961856  0.018586403            5 
 2004000   0.93005395   -7.7336072    455.77458  0.018952702  0.018579461           10 
 2005000   0.93634727   -7.6816794    457.18587  0.019001906  0.018572626            7 
 2006000    0.9239162   -7.6808981    455.48012  0.018921574  0.018565775            7 
 2007000   0.92514166   -7.7355089    456.27921  0.018945325  0.018558872           13 
 2008000   0.91272107   -7.7093037    456.58055  0.018948396  0.018551938            7 
 2009000   0.91824413   -7.7185712    455.13632  0.018879058  0.018544999           23 
 2010000   0.91166017   -7.7154386    456.93613  0.018944284  0.018538063            3 
 2011000   0.93429177   -7.7262872    455.53494    0.0188768  0.018531112            7 
 2012000   0.92469834   -7.7264091    456.63142  0.018912832  0.018524195            7 
 2013000    0.9212451   -7.7150451    455.76141   0.01886742  0.018517265            7 
 2014000   0.94449738    -7.736409    456.24402  0.018878021  0.018510285           13 
 2015000   0.93381787   -7.7310973    456.03295  0.018859924  0.018503357           13 
 2016000   0.92830315    -7.731365    455.21557  0.018816781   0.01849638            4 
 2017000     0.907817    -7.759951    455.26301  0.018809412  0.018489382           17 
 2018000   0.92748609    -7.774122    455.34531   0.01880349  0.018482438            7 
 2019000   0.91618009   -7.7121551    455.38346  0.018795751  0.018475458           12 
 2020000   0.93285213   -7.7645385    455.56814  0.018794065  0.018468434            7 
 2021000   0.93144923   -7.7372328    456.98706  0.018843273  0.018461506            7 
 2022000   0.92302924   -7.7297481    456.34725  0.018807585  0.018454564            5 
 2023000    0.9292101    -7.717578    456.74076  0.018814498  0.018447628            2 
 2024000   0.93643093   -7.7527551    457.61838  0.018841336  0.018440657            4 
 2025000   0.92843028   -7.7256072    456.46987  0.018784768  0.018433715            3 
 2026000   0.93354453   -7.7358737    456.30089  0.018768546  0.018426784            9 
 2027000   0.94128224   -7.7251821    457.08618  0.018791571  0.018419879            4 
 2028000   0.92650202   -7.7199056    456.74254  0.018768185  0.018412959            9 
 2029000   0.93354982   -7.7415844    456.48185  0.018748228  0.018405976            4 
 2030000   0.92002023   -7.7375158    457.32782   0.01877372  0.018399064            3 
 2031000   0.91846717   -7.7263403    456.55957  0.018732955  0.018392207            5 
 2032000   0.93391719   -7.7670814    456.56462  0.018723943  0.018385358            6 
 2033000   0.92975781   -7.7306618    456.99922  0.018732547  0.018378454            3 
 2034000   0.94491265   -7.7249819    458.55535  0.018787092  0.018371559            5 
 2035000   0.92114798   -7.7488119    457.97138  0.018753947  0.018364664            2 
 2036000   0.93192635   -7.7428498    458.32782  0.018759325  0.018357826            4 
 2037000    0.9263668   -7.7153981    459.29232  0.018789573  0.018351016            6 
 2038000   0.92249376   -7.7364797    458.66487  0.018754697  0.018344165            5 
 2039000   0.91729999   -7.7005877    458.44141  0.018736366  0.018337375            6 
 2040000   0.92760634   -7.7358114    458.02221  0.018710057  0.018330524           22 
 2041000   0.93240657   -7.7596774    457.29451  0.018671179  0.018323638            5 
 2042000   0.90587475   -7.7625155    457.30581  0.018662496   0.01831676            5 
 2043000   0.91732661   -7.7460411    458.24018  0.018691474  0.018309828            5 
 2044000   0.91818926   -7.7258605    457.06383   0.01863437  0.018302935            5 
 2045000   0.93518386   -7.7327661    459.06251  0.018706704  0.018296039            6 
 2046000   0.94495799   -7.6906663     457.7678  0.018644827  0.018289156            3 
 2047000   0.92391113   -7.7387121     459.1889  0.018693572  0.018282288            7 
 2048000    0.9352497   -7.7411808     458.6525  0.018662618  0.018275403            5 
 2049000   0.92676047   -7.7467585    457.06359  0.018588889  0.018268521            6 
 2050000   0.89767082   -7.7073365    458.53694  0.018639713  0.018261635            7 
 2051000   0.91765312   -7.7245288    459.05624  0.018651724  0.018254747            8 
 2052000   0.94774435   -7.7140512    458.73033  0.018629399  0.018247884            5 
 2053000   0.91390289   -7.7310589    458.16339  0.018597313  0.018241048            4 
 2054000   0.92979384   -7.7098121    458.02801  0.018582766  0.018234145            5 
 2055000   0.92833342   -7.7262958    459.12011  0.018618009  0.018227169            5 
 2056000   0.92689463   -7.7671523    458.60337   0.01858801  0.018220218            6 
 2057000   0.92890723   -7.7579815    457.93462   0.01855188  0.018213256            8 
 2058000   0.94745313   -7.7577273    457.90114   0.01854151  0.018206336            4 
 2059000   0.93113485   -7.7249082    458.91674  0.018573609  0.018199457            4 
 2060000   0.92009094   -7.7624869    458.79298  0.018559587  0.018192593            3 
 2061000   0.92996998   -7.7760149    458.00385  0.018518674   0.01818571            8 
 2062000   0.94454532   -7.7499912    458.58357  0.018533122  0.018178813            3 
 2063000   0.92584944   -7.7830093    460.33524  0.018594896  0.018171933            5 
 2064000   0.91861384   -7.8056541    457.12932  0.018456449  0.018165011            9 
 2065000   0.92068563   -7.7514721    458.49889   0.01850278  0.018158119            3 
 2066000   0.91269114   -7.7758978    460.58019  0.018577775   0.01815129            7 
 2067000   0.91851828   -7.7471849    458.94773  0.018502972  0.018144435            8 
 2068000   0.92900256    -7.752944     458.9388  0.018493665  0.018137547            8 
 2069000   0.93108667   -7.8079205    458.62128  0.018471938  0.018130666            9 
 2070000   0.92094655    -7.779289    459.42627  0.018495421  0.018123718            7 
 2071000   0.91230801   -7.7216293    459.85958  0.018503927  0.018116799            8 
 2072000   0.92814232   -7.7397611    459.34947   0.01847448  0.018109927            5 
 2073000   0.89904773   -7.7354915     460.6673  0.018518544  0.018103027            5 
 2074000     0.925818   -7.7997871    458.22897  0.018411643  0.018096171           11 
 2075000   0.91430475   -7.7728941    459.11408  0.018438316  0.018089198            5 
 2076000   0.90418036   -7.7800257      459.999  0.018464957  0.018082302            5 
 2077000   0.92765881   -7.7549223    458.98925  0.018415553  0.018075422            4 
 2078000   0.92228106   -7.7564249    459.61311   0.01843171  0.018068553            5 
 2079000   0.92140462   -7.7695527    461.56213  0.018500967   0.01806175           15 
 2080000   0.93207693   -7.7473039    458.98231  0.018388714  0.018054962            7 
 2081000   0.92946391   -7.7635671    460.59849  0.018444597  0.018048203            6 
 2082000   0.93504804   -7.7786741    461.30431  0.018463989   0.01804147            5 
 2083000   0.89544158   -7.7828027    461.21395   0.01845151    0.0180347            5 
 2084000   0.91051011   -7.7412394     461.2068  0.018442371  0.018027899           12 
 2085000   0.89188484   -7.7543127    461.27377  0.018436202  0.018021135           11 
 2086000   0.92262835    -7.786222     460.5979  0.018400364  0.018014366           16 
 2087000   0.91944174   -7.8025035    462.03267  0.018448837  0.018007591           10 
 2088000   0.91886319   -7.7356639     460.9532  0.018396919  0.018000857           11 
 2089000   0.91100379   -7.7643698    461.22644  0.018399012  0.017994241            9 
 2090000    0.9008919   -7.7347715    461.48821  0.018400646  0.017987557            3 
 2091000    0.9214187   -7.7776505    461.19547   0.01838018  0.017980831            8 
 2092000   0.91593267   -7.7787063    460.99295  0.018363326  0.017974057            6 
 2093000   0.90380616   -7.7804727    462.22041  0.018403424  0.017967305            7 
 2094000   0.92138925    -7.794359    460.91319  0.018342613  0.017960534            9 
 2095000   0.91938438   -7.7763026     460.8637  0.018331889  0.017953742            4 
 2096000   0.90901884    -7.810091    460.63335  0.018313985  0.017946907            4 
 2097000   0.92598769   -7.7795701    461.58262  0.018342975  0.017940083           11 
 2098000   0.90882509   -7.8175473    461.86944  0.018345624  0.017933273            3 
 2099000   0.91435621   -7.7769419    460.43788  0.018280049   0.01792649            9 
 2100000   0.92026551   -7.7350688     462.1291  0.018338456  0.017919719            6 
 2101000   0.90336873   -7.7646751    462.27287   0.01833543  0.017913008            3 
 2102000    0.9153241   -7.7517784    463.15764  0.018361784  0.017906345            3 
 2103000   0.91576823    -7.765825    462.13529  0.018312541  0.017899675            5 
 2104000   0.93823354   -7.7661921     463.8652  0.018372354  0.017893044            3 
 2105000    0.9374017   -7.7717073     463.4177   0.01834591  0.017886438            4 
 2106000   0.90127519   -7.7611162    463.58441  0.018343796  0.017879821            6 
 2107000   0.92060925   -7.7932935    463.92003  0.018348364  0.017873236            4 
 2108000   0.91645468   -7.7561261    463.78122  0.018334172  0.017866619            8 
 2109000    0.8977585    -7.791887    463.18698  0.018301999  0.017860017            7 
 2110000   0.91458858   -7.7945825    462.11728  0.018251077  0.017853332            8 
 2111000   0.92704017   -7.7626051    462.72708  0.018266504   0.01784662           16 
 2112000   0.89896251   -7.7853482    462.99145  0.018268286   0.01783994            9 
 2113000   0.90014811   -7.7694151    464.44116  0.018316815  0.017833306           15 
 2114000   0.91246568   -7.7724273    463.01897  0.018252088  0.017826709            5 
 2115000   0.92955909   -7.7583176    465.08555  0.018324884  0.017820141            2 
 2116000   0.91025634   -7.7610565    463.96367  0.018272041  0.017813596            2 
 2117000   0.92534534    -7.782859     463.4757  0.018244202  0.017807043            3 
 2118000   0.91932139   -7.7872104    464.34335  0.018269726  0.017800487            7 
 2119000   0.91378057   -7.7919436    464.10416  0.018251697  0.017793869            3 
 2120000    0.8864389   -7.7613861    464.23319   0.01824816  0.017787295            6 
 2121000   0.90131206   -7.7768299    464.02796  0.018231493  0.017780695           13 
 2122000   0.91233625   -7.7504529    465.32022   0.01827365   0.01777409            5 
 2123000   0.93036602   -7.7796173    463.68359    0.0182008  0.017767453            5 
 2124000   0.91414338   -7.8007561    463.37726  0.018180213  0.017760845            6 
 2125000   0.93037956    -7.765382    464.56606  0.018218277  0.017754262            4 
 2126000   0.92952645   -7.7955746    464.78405  0.018218252  0.017747714            5 
 2127000   0.91481555    -7.768544    464.84334   0.01821201  0.017741146           14 
 2128000   0.90234076   -7.7795599    465.01934  0.018210344  0.017734588            6 
 2129000   0.90991366   -7.8322768    463.49835  0.018142256  0.017727966            6 
 2130000   0.90393868   -7.7894632    463.74955  0.018143566  0.017721312           10 
 2131000   0.91089027   -7.7840456    464.84383  0.018177844  0.017714691           15 
 2132000   0.90583413     -7.81174    464.57315  0.018158738   0.01770808           18 
 2133000   0.90835933    -7.771732    463.97703  0.018126935  0.017701419           10 
 2134000   0.91338355   -7.7859888    465.42773  0.018175091  0.017694828            6 
 2135000   0.90892157   -7.7716436    465.13953  0.018155329  0.017688237            4 
 2136000   0.90011253   -7.7911307    464.78752  0.018133096  0.017681637            6 
 2137000    0.9064332   -7.7700609    464.77111  0.018123971  0.017674976            9 
 2138000   0.91154269   -7.7806469    464.78637  0.018116089  0.017668293            4 
 2139000   0.91467415   -7.7832684    465.03416  0.018117273  0.017661598            7 
 2140000   0.90478184   -7.8017246      464.246  0.018078115  0.017654936            5 
 2141000   0.90680043   -7.8062935    464.06958  0.018062805  0.017648274           11 
 2142000    0.8861671   -7.7666665    464.90725  0.018086961  0.017641625            8 
 2143000   0.90534604   -7.7976028    464.35539  0.018057061  0.017634953           13 
 2144000   0.91451437   -7.8547887    463.87609   0.01803001  0.017628261           23 
 2145000   0.90118999   -7.8105375     464.2815  0.018037354  0.017621559           27 
 2146000   0.90968023   -7.8543378     464.6675  0.018043938  0.017614891           48 
 2147000   0.91118479   -7.8323285    463.94667  0.018007556  0.017608226           16 
 2148000   0.90823938   -7.7937381    465.05319  0.018042101  0.017601578           21 
 2149000   0.90209767   -7.7972952    465.98088  0.018069679  0.017594937            9 
 2150000   0.91641037   -7.7818748    465.08254  0.018026455  0.017588341            3 
 2151000   0.91507419   -7.7555024    465.78308  0.018045215  0.017581758            9 
 2152000   0.93158399   -7.7645404      465.447  0.018023815  0.017575149           10 
 2153000   0.90342123   -7.7599339    466.86476  0.018070319  0.017568585           13 
 2154000    0.8988112   -7.7801262    466.17681  0.018035314  0.017561998           20 
 2155000   0.91897261   -7.7723892    466.06846  0.018022756  0.017555375           42 
 2156000   0.88403488   -7.8090869    465.08302  0.017976307  0.017548757           16 
 2157000   0.92669567   -7.7801272    465.92509  0.018000506  0.017542102           15 
 2158000   0.90700918    -7.772517     464.1206  0.017922482  0.017535441            5 
 2159000   0.89590866   -7.7843977    466.24962  0.017996357  0.017528793            6 
 2160000   0.90202309   -7.8319981    465.99034  0.017978022  0.017522112           11 
 2161000   0.90248635   -7.8090308    465.31306  0.017943586   0.01751544            4 
 2162000    0.8985529   -7.8238646    465.03765   0.01792467  0.017508776            5 
 2163000   0.91124379   -7.8061933     465.6641  0.017940519  0.017502089            7 
 2164000    0.9134958   -7.8321374    465.98085  0.017944426  0.017495427            8 
 2165000   0.92349815    -7.802558    465.16695  0.017904809  0.017488778            6 
 2166000   0.89531969   -7.8153638    465.10294  0.017894081  0.017482122            6 
 2167000   0.89725227   -7.8903975    464.42284  0.017859669  0.017475441            5 
 2168000   0.89453679   -7.8107274     466.0249  0.017913011  0.017468774            7 
 2169000   0.90165627   -7.7818165    466.37712  0.017918285  0.017462148            3 
 2170000   0.91522321   -7.7941932     466.2745  0.017906087   0.01745556            5 
 2171000   0.89737164   -7.7953709    466.48198  0.017905803  0.017448906            6 
 2172000   0.91362641   -7.8130643    466.26679  0.017889303  0.017442263            8 
 2173000   0.90951005    -7.804482    466.68248  0.017897012  0.017435621           10 
 2174000   0.89497059   -7.8202887     466.1492  0.017868338  0.017428971            3 
 2175000   0.90869052   -7.8328867     465.7369  0.017844325  0.017422307            6 
 2176000   0.92846173   -7.7736115    467.07232  0.017887267   0.01741569            6 
 2177000   0.90280469   -7.8160203    467.32538  0.017888738  0.017409098            9 
 2178000   0.92722168   -7.7949962    466.92245  0.017865108  0.017402475           19 
 2179000   0.90931953    -7.778172    466.92509   0.01785701  0.017395844           10 
 2180000   0.91993933    -7.835658    465.91373  0.017810158  0.017389226            9 
 2181000   0.90098744   -7.7862874    467.07828  0.017846488  0.017382642           14 
 2182000   0.91387426   -7.8286218    466.15024  0.017802866  0.017376028           13 
 2183000   0.90628425   -7.8189735    467.71668  0.017854508  0.017369439            7 
 2184000   0.92908155    -7.806725     466.5174  0.017800572  0.017362807            7 
 2185000   0.89669769   -7.8297028    466.79898  0.017803165  0.017356221            4 
 2186000   0.88684922   -7.8139172    467.68373  0.017828749  0.017349674            5 
 2187000   0.91233195   -7.8346872    467.19401  0.017801936  0.017343064            7 
 2188000    0.8972106   -7.7965531    467.06391  0.017788845  0.017336505            8 
 2189000   0.90930222   -7.8369831    466.50813   0.01775956   0.01732993            5 
 2190000   0.88710121   -7.8584455    465.89286  0.017728039   0.01732335           11 
 2191000   0.89779757   -7.8375868    466.68512  0.017750081  0.017316719           13 
 2192000   0.89888261   -7.8151952    466.88299  0.017749505  0.017310071           13 
 2193000   0.90115672   -7.8684261    465.38414  0.017684456  0.017303426           11 
 2194000   0.91384531   -7.8428446    467.81207  0.017768614   0.01729684            7 
 2195000   0.90692489   -7.8799947    467.55604  0.017750799  0.017290234            8 
 2196000   0.88942671   -7.8268849    466.71913  0.017710957  0.017283607           11 
 2197000   0.89187626   -7.8337926    468.21024  0.017759454  0.017276955           17 
 2198000   0.87749183   -7.8269257    466.39058  0.017682385  0.017270407           15 
 2199000   0.88285053   -7.8242321    468.49422  0.017754063  0.017263844            5 
 2200000   0.88932428   -7.8054719    468.90315  0.017761483  0.017257341            7 
 2201000   0.90518665    -7.818079    466.74013  0.017671518  0.017250824            9 
 2202000   0.90922584   -7.8364778    468.00979  0.017711542  0.017244265            9 
 2203000   0.88724778   -7.8239307    467.62744  0.017689039  0.017237727            8 
 2204000   0.91808542   -7.8350655    466.40918  0.017634951  0.017231165            4 
 2205000   0.89475648   -7.8233463    468.72665  0.017714537  0.017224587            6 
 2206000   0.89278411   -7.8368449    467.23428  0.017650131  0.017218052           11 
 2207000   0.90070598   -7.8377592    467.36696  0.017647144  0.017211496            7 
 2208000   0.88316712   -7.7759628    468.11236  0.017667284  0.017204973            9 
 2209000   0.89479561   -7.8654309    466.89206  0.017613251  0.017198398            3 
 2210000   0.90430144   -7.8258888    468.16657   0.01765334  0.017191866            3 
 2211000   0.90716701   -7.8252371    467.67883  0.017626972  0.017185308            3 
 2212000   0.89943807   -7.8366351    468.76543  0.017659939  0.017178765            6 
 2213000   0.90373461   -7.8436216    468.02308  0.017624005  0.017172158            3 
 2214000   0.91191804   -7.8265916    467.19631  0.017584926  0.017165563           11 
 2215000   0.89521271   -7.8043626    467.98681  0.017606727  0.017159062            9 
 2216000   0.91053309   -7.8137001      468.619  0.017622555  0.017152565            7 
 2217000   0.88707868   -7.8245789    467.61274  0.017576783  0.017146066            9 
 2218000   0.91488965   -7.8154683    467.93386  0.017580924  0.017139555            5 
 2219000   0.90488604   -7.8080629    469.59304   0.01763531  0.017133051            5 
 2220000   0.88737199   -7.8280091    468.96445  0.017603771  0.017126562            6 
 2221000   0.92160928   -7.8294118    469.14195  0.017602505  0.017120052           14 
 2222000   0.88816968   -7.8343847    468.18067  0.017558531   0.01711353            4 
 2223000   0.89801375   -7.8659282     469.6358  0.017605181  0.017107026            9 
 2224000   0.89835764   -7.8105756    470.16455  0.017617077  0.017100549            6 
 2225000   0.89925202   -7.8043582    470.19219  0.017610194  0.017094137           10 
 2226000   0.88330672   -7.8295519    469.43345  0.017573879  0.017087664           11 
 2227000   0.89776728    -7.851722     469.5391  0.017569941  0.017081192           16 
 2228000   0.88793341   -7.8755064    469.65163  0.017566264  0.017074732           19 
 2229000   0.90949616   -7.8143039    469.64631  0.017558184   0.01706831            4 
 2230000   0.90037907   -7.8263783    468.92694  0.017523428    0.0170619            7 
 2231000   0.89295514   -7.8151202    470.02188  0.017556472  0.017055453            4 
 2232000   0.89840424   -7.8238098    470.50562  0.017566667  0.017049041            7 
 2233000   0.87260454   -7.8151135    470.58603  0.017561801   0.01704262            8 
 2234000   0.90506213   -7.8130765    470.39014  0.017546633   0.01703618           11 
 2235000   0.90109661   -7.8533451    470.10404  0.017528115   0.01702972           10 
 2236000   0.89029915   -7.8124553     470.7274  0.017543508  0.017023287            5 
 2237000   0.88300315   -7.8210182    471.23061  0.017554411  0.017016866           15 
 2238000   0.89770524   -7.8849178    469.24087  0.017472478  0.017010383           17 
 2239000   0.87888113   -7.8495775    469.88669  0.017488711  0.017003947            3 
 2240000   0.90073761   -7.8535631    470.54559  0.017505416  0.016997505            6 
 2241000   0.88707846   -7.8579018    470.05717  0.017479443  0.016991067            8 
 2242000   0.89205622   -7.8823455    469.40754    0.0174475  0.016984609            6 
 2243000    0.8986051   -7.8296017    470.18948  0.017468772  0.016978166            4 
 2244000   0.87879612   -7.8500273    470.69924  0.017479918  0.016971745           11 
 2245000   0.90986169   -7.8411777    471.96368  0.017519068  0.016965311            6 
 2246000   0.89211189   -7.8427121    470.01698  0.017439039  0.016958911           10 
 2247000   0.87850792   -7.8651832    469.59047   0.01741546  0.016952469            8 
 2248000   0.89428613   -7.8742505    469.14742  0.017391289  0.016946031            8 
 2249000   0.89530954   -7.8763062    470.97888  0.017451418  0.016939576            8 
 2250000   0.88274786   -7.8051438    473.09986  0.017522217   0.01693317           16 
 2251000   0.88618833   -7.8308451    472.22419  0.017482015   0.01692681           15 
 2252000   0.89654558    -7.839438    470.90951  0.017425604  0.016920392            6 
 2253000    0.8910325   -7.8558865    470.48056  0.017402003  0.016913984           10 
 2254000   0.89599603    -7.851022    471.58832  0.017435238  0.016907567           12 
 2255000    0.8955742   -7.8726811     472.1506  0.017448285  0.016901163           25 
 2256000   0.87635175   -7.8599613    471.15009  0.017403594  0.016894746            4 
 2257000   0.88229355   -7.8611472    471.20787  0.017398016  0.016888328            5 
 2258000   0.89208284   -7.8500426    471.82292   0.01741301  0.016881908            6 
 2259000   0.89608447   -7.8774545    470.05378  0.017340039  0.016875508            7 
 2260000   0.88412042   -7.8667882    471.47827  0.017384892  0.016869073           12 
 2261000   0.89899923   -7.8968289    471.03776  0.017360967  0.016862633            6 
 2262000   0.89487439   -7.8814784    471.70441  0.017377852  0.016856216            9 
 2263000   0.89774981   -7.8502478    471.44182  0.017360503  0.016849819            7 
 2264000   0.90148953   -7.8502754     471.7612  0.017364591  0.016843415            9 
 2265000    0.8918587   -7.8579901    472.40189  0.017380496  0.016837031            7 
 2266000   0.87904591   -7.8398758    471.58707  0.017342861  0.016830671           11 
 2267000   0.89026187   -7.8404651     470.8425  0.017307841  0.016824328            8 
 2268000   0.89052153   -7.8185509    472.45835  0.017359581  0.016817953            5 
 2269000   0.89530959   -7.8393902    472.28942  0.017345726  0.016811615            4 
 2270000   0.88419095   -7.8448958    472.39296  0.017341885  0.016805301            5 
 2271000    0.8991285   -7.8469302    471.59149   0.01730484  0.016799006           10 
 2272000   0.88343788   -7.8371146    473.08713  0.017352081  0.016792724            5 
 2273000   0.88466753   -7.8581259    471.97223  0.017303572  0.016786397            7 
 2274000   0.86314224   -7.8390021     472.0139   0.01729749  0.016780038            5 
 2275000   0.88668543   -7.8526246    472.29338  0.017300124  0.016773724           12 
 2276000   0.89327704   -7.8570597    472.17358  0.017288136   0.01676742            5 
 2277000   0.89797582   -7.8622213    471.36002  0.017250769  0.016761055            6 
 2278000   0.89165496   -7.8561751    471.42771  0.017245673   0.01675469           10 
 2279000   0.88691813   -7.8364476    471.23334  0.017230998  0.016748356            6 
 2280000   0.89499348   -7.8706023    472.04447  0.017253087  0.016742019            4 
 2281000   0.88140475    -7.855375    473.33384  0.017292629  0.016735649            8 
 2282000   0.90241253   -7.8666204    471.97132  0.017235295   0.01672927           10 
 2283000   0.88035052   -7.8280685    471.90001  0.017225143  0.016722887           11 
 2284000   0.89440402   -7.8713755    473.23597  0.017266344  0.016716559            3 
 2285000   0.89423518   -7.8813932    471.04254  0.017178794  0.016710218           12 
 2286000   0.87907743   -7.8358448    472.91367  0.017239489  0.016703859            4 
 2287000   0.88583953   -7.8696526    472.33782  0.017210968  0.016697538            6 
 2288000   0.88769276   -7.8390363    473.41089  0.017242529  0.016691252            9 
 2289000   0.89628443    -7.827522     473.2889  0.017230555  0.016684953            8 
 2290000   0.89491155   -7.8047433    474.12785  0.017253561  0.016678677           15 
 2291000   0.86038753   -7.8438851    473.79349  0.017233868  0.016672428            3 
 2292000   0.89504811   -7.8120665    474.01653  0.017234458  0.016666155            4 
 2293000   0.88239629    -7.850348    472.43842  0.017169589  0.016659871            7 
 2294000   0.88371665   -7.8689561    473.02331  0.017183352  0.016653585            4 
 2295000   0.88312811   -7.8538184    473.06356  0.017177326  0.016647298            3 
 2296000   0.87297697    -7.847176    473.22884  0.017175844  0.016640987            8 
 2297000   0.87616442   -7.8938179    472.86278  0.017155086  0.016634659            5 
 2298000   0.86973776   -7.8814452    472.12582  0.017120896  0.016628348           11 
 2299000   0.89326443   -7.9342571    471.80217  0.017101717  0.016621981           11 
 2300000   0.89033387   -7.8789609    472.82903  0.017131487  0.016615621            4 
 2301000   0.88454667   -7.8827062    472.08697  0.017097167  0.016609287            6 
 2302000   0.88735228   -7.8929207    473.10685   0.01712666  0.016602949           10 
 2303000   0.87709659   -7.8825768    473.34818  0.017127956  0.016596638            7 
 2304000   0.87960857   -7.8458453    474.39255  0.017158295  0.016590334            9 
 2305000     0.898916   -7.9075416    473.10855   0.01710443  0.016584023           12 
 2306000    0.8915569   -7.8455772    474.68123  0.017153846  0.016577757            7 
 2307000   0.89299319   -7.8663613     473.5718  0.017106336  0.016571495            9 
 2308000   0.88133043   -7.8648459    474.57906  0.017135293  0.016565249           10 
 2309000   0.88327161    -7.871801    474.09712  0.017110478   0.01655898           17 
 2310000    0.9028091   -7.8824178    475.22752   0.01714385  0.016552714           16 
 2311000   0.87596151   -7.8535958    474.87751   0.01712381   0.01654647            7 
 2312000   0.88728267   -7.8913654    474.58809  0.017105972  0.016540228           10 
 2313000   0.89131278   -7.8976392    473.66175  0.017065202  0.016534003           12 
 2314000   0.88143672   -7.8726889    475.37494  0.017119524  0.016527775            9 
 2315000   0.90025566   -7.8696788    475.58544  0.017119706  0.016521545            7 
 2316000   0.90068455   -7.8666643    474.18493  0.017061922    0.0165153            7 
 2317000   0.89068861    -7.905561    472.72684  0.017002116   0.01650906            9 
 2318000     0.882426   -7.8634753    474.78961  0.017068939  0.016502838            5 
 2319000   0.89020424   -7.8686378    475.37413  0.017082584  0.016496649           25 
 2320000   0.88816845   -7.8910401    474.98493   0.01706124  0.016490398           14 
 2321000   0.88384084   -7.8824427    474.02932  0.017019579  0.016484154           13 
 2322000   0.88641907   -7.9006289    474.25682  0.017020414  0.016477942            6 
 2323000   0.89498284   -7.8708686    474.47835  0.017021034   0.01647174           17 
 2324000   0.88868036   -7.8863122    474.56416  0.017016787  0.016465537            4 
 2325000   0.88185728   -7.8975629    473.92081  0.016986409  0.016459303            5 
 2326000     0.894823   -7.9163457    473.05196  0.016947978  0.016453028            7 
 2327000    0.8810055   -7.9092926    473.85221  0.016969353  0.016446748            6 
 2328000   0.88119584   -7.8990326    474.13715  0.016972264  0.016440467            7 
 2329000   0.88206194   -7.8704782     474.7702  0.016987627  0.016434191            3 
 2330000   0.87315128   -7.8827255     475.0989  0.016992092  0.016427927            7 
 2331000    0.8658445   -7.8970764    473.82059  0.016939103  0.016421678            7 
 2332000   0.88030626   -7.8908134    474.18152  0.016944737  0.016415402            6 
 2333000   0.86524101   -7.8909328    475.42354  0.016981838  0.016409122           13 
 2334000   0.84856569   -7.9041249    475.21248  0.016967027  0.016402868           11 
 2335000   0.88835389   -7.8842572    475.21789  0.016959953  0.016396657            8 
 2336000   0.86747599   -7.8795509    475.59036   0.01696598  0.016390447            9 
 2337000   0.87619869   -7.8949018    475.41765  0.016952562  0.016384228           12 
 2338000   0.85712933   -7.8788074    475.60233  0.016951894  0.016378059            5 
 2339000   0.89989084   -7.8681921     475.8478  0.016953392  0.016371893            9 
 2340000    0.8951337   -7.8739546    476.42707  0.016966776  0.016365684            9 
 2341000   0.87925925   -7.8909028    476.06051   0.01694648  0.016359484           10 
 2342000   0.86443322   -7.8666312    476.57472  0.016957541  0.016353286           15 
 2343000    0.8902537   -7.8762144     475.3951  0.016908348  0.016347088            6 
 2344000   0.88623106   -7.8682931     476.1801  0.016929042  0.016340865            6 
 2345000   0.86090667   -7.8964122     475.6432  0.016902743  0.016334664           14 
 2346000   0.87736894   -7.9133014     474.6338  0.016859683  0.016328437           19 
 2347000   0.86590587   -7.9485825    474.67373  0.016853918  0.016322179           14 
 2348000   0.89681244   -7.9520797    474.70428  0.016847824  0.016315907           12 
 2349000   0.88703495   -7.8989832    475.37802  0.016864553  0.016309674           15 
 2350000   0.89102688   -7.9189174    474.68977   0.01683297  0.016303445           17 
 2351000   0.86474781   -7.8525819    476.22393   0.01688019  0.016297257           16 
 2352000   0.88431772   -7.8867712    476.51543  0.016883341  0.016291084            7 
 2353000   0.87334283   -7.9131221     475.3119  0.016833542  0.016284872           11 
 2354000   0.86858279   -7.9453577    475.21481  0.016822954  0.016278658            7 
 2355000   0.86736946   -7.9101937    475.15603  0.016813731  0.016272415            4 
 2356000   0.88039878   -7.9369196    475.19504  0.016807974  0.016266183            4 
 2357000   0.87844076     -7.93924    475.99993    0.0168293  0.016259984           11 
 2358000   0.87753106   -7.9074144    475.58722  0.016807578  0.016253764            6 
 2359000   0.87447873   -7.8852119    475.67798  0.016803659  0.016247578            6 
 2360000    0.8524278    -7.888458    476.72293  0.016833437  0.016241414            6 
 2361000   0.86950556   -7.9239811    475.22151  0.016773313  0.016235218            7 
 2362000   0.86899531   -7.8878865    477.51475  0.016847119  0.016229035           12 
 2363000   0.87704486   -7.8664198    476.62187  0.016808501   0.01622288            9 
 2364000   0.89643885   -7.8975694    476.06692  0.016781829   0.01621673            7 
 2365000   0.87471427   -7.9002598    476.02465  0.016773243   0.01621059            8 
 2366000   0.89297407   -7.8517482    477.27324  0.016810131  0.016204454            9 
 2367000   0.86942087   -7.8920115    475.99151  0.016757904  0.016198305           13 
 2368000   0.87974631   -7.8833057    476.31812  0.016762321  0.016192123           16 
 2369000   0.85339601   -7.9045153    475.69683  0.016733391  0.016185946           24 
 2370000   0.85240094   -7.9387082    477.50538  0.016789922   0.01617974           14 
 2371000   0.87532949   -7.9039612    475.11872  0.016698957  0.016173597           12 
 2372000   0.88156569   -7.9401691    476.74703  0.016749123  0.016167405            8 
 2373000   0.86823318   -7.9282394    476.50782  0.016733664  0.016161206            6 
 2374000   0.87185171   -7.8791317    477.47196  0.016760459  0.016155043            7 
 2375000    0.8865431   -7.9077886    477.14605  0.016741967  0.016148863            4 
 2376000   0.87649258   -7.9014164    476.47986  0.016711555  0.016142697            9 
 2377000   0.88330555   -7.9406338    476.22709  0.016695663  0.016136538           10 
 2378000   0.86891166   -7.9134272    477.34085  0.016727672  0.016130352           11 
 2379000    0.8644965    -7.899484    476.69074  0.016697868  0.016124157            5 
 2380000    0.8690964   -7.9317806     476.5998  0.016687668  0.016117985            6 
 2381000   0.85789878   -7.9194362    476.63652  0.016681945   0.01611179            9 
 2382000   0.85215691   -7.9072781    476.40484  0.016666836  0.016105606           14 
 2383000   0.84343641   -7.9600595    476.83756  0.016674974  0.016099425            7 
 2384000   0.85434349   -7.8951771    477.63953  0.016696013  0.016093262            5 
 2385000   0.85121148   -7.9358847     475.9874  0.016631286   0.01608709           10 
 2386000   0.87119655   -7.9488346    477.22407  0.016667507  0.016080903           12 
 2387000   0.85703779   -7.9118373    476.47168  0.016634258  0.016074701           12 
 2388000   0.85886999   -7.9160945    475.67601  0.016599526   0.01606851            3 
 2389000   0.88425749    -7.965338    475.13332  0.016573647  0.016062296            4 
 2390000   0.86051577   -7.9404263    476.48308  0.016613776  0.016056083            4 
 2391000   0.87293575   -7.9574933    475.94354  0.016588023  0.016049869           11 
 2392000   0.85462467   -7.9569795    475.06818  0.016550591  0.016043631            7 
 2393000   0.84966696   -7.9300607    477.72847  0.016636317  0.016037417            4 
 2394000    0.8589753   -7.9149483    476.59576  0.016589939   0.01603127            9 
 2395000   0.88246232    -7.947498    477.15389  0.016602432  0.016025119           10 
 2396000   0.86435015   -7.9286535    477.64165  0.016612467   0.01601897            6 
 2397000   0.86733816   -7.9293139    476.45793  0.016564384  0.016012804            9 
 2398000   0.88101686   -7.9466648    476.01664  0.016542141  0.016006584            7 
 2399000   0.86670475   -7.9874973    475.06398  0.016502153  0.016000377           13 
 2400000   0.86271864   -7.9301418    477.61573   0.01658388  0.015994179            5 
 2401000   0.85283711   -7.9238267    478.91058  0.016621914  0.015988042           10 
 2402000   0.83818238   -7.9188416    476.63461  0.016536033  0.015981884            7 
 2403000   0.86032401   -7.8907468     477.0881  0.016544878  0.015975727           10 
 2404000   0.86755686   -7.9592652    477.58434  0.016555198  0.015969581            6 
 2405000    0.8828732   -7.8988226    476.99941  0.016528046  0.015963374           21 
 2406000   0.86632587   -7.9322618    476.50179  0.016503941  0.015957203            5 
 2407000    0.8682521   -7.9584302    476.40699  0.016493803  0.015951017           14 
 2408000   0.85090216   -7.9251222    478.24702  0.016550631  0.015944869           10 
 2409000   0.84996049     -7.95357    477.27869  0.016510263  0.015938707            6 
 2410000   0.86017599   -7.9455618    475.96376  0.016457945  0.015932491            3 
 2411000   0.86145946   -7.9384529    477.14607  0.016491984  0.015926321            9 
 2412000   0.86297528   -7.9563694    478.28644  0.016524545  0.015920138            4 
 2413000   0.85747106   -7.9117926    477.00269  0.016473363  0.015913956            4 
 2414000   0.85888837   -7.9174324     478.0073  0.016501219  0.015907829            7 
 2415000   0.87971596   -7.9520241    477.32494   0.01647084  0.015901667           13 
 2416000   0.86697661   -7.9485331    476.95012  0.016451094  0.015895498           13 
 2417000   0.86284136    -7.971451    476.86392  0.016441316  0.015889345           14 
 2418000   0.85778781   -7.9331171    478.29366   0.01648379   0.01588318           10 
 2419000   0.85646185   -7.9416806    478.13218  0.016471413  0.015877032           16 
 2420000   0.87988364   -7.9605421    477.39352  0.016439171  0.015870893           19 
 2421000   0.86680118   -7.9313948    476.36232  0.016396886  0.015864739           28 
 2422000   0.86502857     -7.92206    477.39619  0.016425688  0.015858581           21 
 2423000   0.84768598   -7.9571438    477.87653  0.016435429  0.015852441           18 
 2424000   0.85419703   -7.9385582    477.91969  0.016430132  0.015846299           16 
 2425000   0.85821028   -7.9263599    477.47178  0.016407965  0.015840182           15 
 2426000   0.85878959   -7.9423612    477.67354  0.016408132  0.015834081           12 
 2427000   0.87090728   -7.9346479    477.48013   0.01639473  0.015827936           11 
 2428000   0.86256082   -7.9690918    477.25816   0.01638036  0.015821814           16 
 2429000   0.84927422   -7.9305173    478.39358  0.016412569  0.015815677           19 
 2430000   0.83208853   -7.9711328    477.69646  0.016381909  0.015809528            7 
 2431000   0.85473164   -7.9306047    478.65699  0.016408097  0.015803371           21 
 2432000   0.84273989   -7.9684007    478.17738  0.016384916  0.015797249           11 
 2433000   0.88521062   -7.9101786    477.75299  0.016363645  0.015791147           13 
 2434000   0.87470097   -7.9390095    478.58174  0.016385296  0.015785058           25 
 2435000   0.84620203   -7.9252258    479.58249  0.016412816  0.015778974            9 
 2436000   0.86518865   -7.9194896    478.79282  0.016379065   0.01577293            8 
 2437000   0.87461392   -7.9474472    477.73789   0.01633627  0.015766839           13 
 2438000   0.85721352   -7.9455777     478.3416  0.016350205  0.015760712           28 
 2439000   0.87988568   -7.9344184    478.34712   0.01634369  0.015754602           27 
 2440000   0.86880266   -7.9390814    478.05693  0.016327081  0.015748513            9 
 2441000   0.87101496   -7.9625792    477.23766  0.016292423  0.015742397           14 
 2442000   0.85126177   -7.9758449    477.07525  0.016280209  0.015736245            9 
 2443000   0.86854004   -7.9599107    477.74093  0.016296252  0.015730082           10 
 2444000   0.86449322   -7.9736492    478.21121   0.01630562  0.015723949           14 
 2445000   0.88567814   -7.9293921     478.7156  0.016316142  0.015717841            7 
 2446000   0.87443569   -7.9577167    479.42156  0.016333523  0.015711735            8 
 2447000   0.86778575   -7.9488431    478.42057  0.016292759   0.01570565           17 
 2448000   0.86683688   -7.9363614    479.25262  0.016314427  0.015699555            5 
 2449000   0.85197061   -7.9416852    479.08315  0.016301999  0.015693486           12 
 2450000   0.86667915   -7.9770955    477.00246  0.016224574  0.015687392           16 
 2451000   0.85308674   -7.9679859    477.97535  0.016251032   0.01568127           19 
 2452000   0.84684021   -7.9644175    477.27783  0.016220698  0.015675145            9 
 2453000   0.85532066   -7.9800076    478.03733  0.016239888  0.015669012           13 
 2454000    0.8428439   -7.9621636    478.83895  0.016260491  0.015662903            5 
 2455000   0.85852946   -7.9613286    476.81886  0.016185297  0.015656794            6 
 2456000   0.85731916   -7.9025548    479.81091  0.016280229  0.015650735            3 
 2457000   0.85493419   -7.9466171    478.43208  0.016226837  0.015644656            4 
 2458000   0.85145116   -7.9477887    477.76642  0.016197668  0.015638534            6 
 2459000   0.85695985   -7.9354487    478.34915  0.016210829  0.015632434            9 
 2460000    0.8442755     -7.92626    478.39651  0.016205844  0.015626313           12 
 2461000   0.85654096   -7.9599179    478.35225   0.01619776  0.015620234           15 
 2462000   0.86502236   -7.9341836    479.85217   0.01624195  0.015614174            3 
 2463000   0.86707119   -7.9329065    479.50103  0.016223475  0.015608126           16 
 2464000   0.85582182   -7.8937398    479.73717  0.016224877  0.015602112            5 
 2465000   0.86374558   -7.9388089    478.48769  0.016176054  0.015596057           11 
 2466000   0.86018417   -7.9251933    479.81404  0.016214316  0.015590006            6 
 2467000   0.85529753   -7.9650809    477.74905   0.01613799  0.015583956            7 
 2468000   0.87710794   -7.9499987    478.16707  0.016145565  0.015577865           11 
 2469000   0.87459613   -7.9549363    478.67412   0.01615614  0.015571784           11 
 2470000   0.84383247   -7.9825725    478.23349  0.016134733  0.015565672           18 
 2471000    0.8543578   -7.9555006    478.97784  0.016153306  0.015559608           33 
 2472000    0.8655255   -8.0221514    480.21507   0.01618848  0.015553543           51 
 2473000   0.88124463    -7.937459    479.17146  0.016146767  0.015547472           34 
 2474000   0.87242157   -7.9580348    479.53676  0.016152545    0.0155414           57 
 2475000   0.87053826   -7.9791463    478.94984  0.016126257  0.015535306           40 
 2476000    0.8598013   -8.0050468    479.17949  0.016127473  0.015529181           28 
 2477000   0.86018535   -8.0108176    477.31099  0.016058101  0.015523073           40 
 2478000   0.87105002    -7.957634    477.85574   0.01606994  0.015516973           60 
 2479000   0.86290382   -7.9846457    477.34295   0.01604622  0.015510879           73 
 2480000   0.86451816   -7.9557103    478.68977  0.016085006  0.015504801           44 
 2481000   0.84046427   -7.9441685    478.88909  0.016085217  0.015498693           51 
 2482000   0.84558838   -7.9852586    480.03244  0.016117125  0.015492615           40 
 2483000   0.86816896   -7.9988618     479.0129  0.016076416  0.015486548           67 
 2484000   0.84558723   -7.9592386    479.36713  0.016081828  0.015480487           61 
 2485000   0.84465262   -7.9822111    478.67171  0.016052036  0.015474415           77 
 2486000    0.8557318    -7.998779     478.8625  0.016051974  0.015468328           50 
 2487000   0.83102203   -8.0047569    479.33313   0.01606129  0.015462239           60 
 2488000   0.84780738   -8.0082984    478.01032  0.016010528  0.015456126           17 
 2489000   0.84627024   -7.9792463     478.7347  0.016028348  0.015450014           16 
 2490000   0.88101915   -7.9880907    477.89916  0.015993948  0.015443932           62 
 2491000   0.86012024   -7.9787716    478.94139  0.016022394  0.015437819           56 
 2492000   0.86338957   -7.9901276    478.45339  0.015999645  0.015431693           48 
 2493000   0.83769856   -7.9866184    477.98386  0.015977532  0.015425592           49 
 2494000   0.85221263   -7.9494182    479.80781  0.016032071  0.015419539           80 
 2495000   0.86131479   -7.9472072    479.90107   0.01602876  0.015413494           59 
 2496000   0.85798195   -7.9827117    479.61034  0.016012632  0.015407437           64 
 2497000   0.87909403   -7.9912525    478.52254  0.015969915  0.015401353           65 
 2498000   0.83937234   -7.9623367    478.92296   0.01597688  0.015395256           83 
 2499000   0.85870335    -7.970719    479.46527  0.015988571  0.015389199           70 
 2500000   0.85022235   -8.0026973    478.54506  0.015951502  0.015383121           49 
 2501000   0.84223346   -8.0196029    478.43901   0.01594159  0.015377029           45 
 2502000   0.85715555   -8.0072785    478.54039  0.015938596  0.015370933           48 
 2503000   0.83010908   -7.9892257    478.79824  0.015940813   0.01536487           58 
 2504000   0.84989793   -8.0091155    478.46918  0.015923495  0.015358809           69 
 2505000    0.8344124   -7.9806883    479.63315   0.01595586  0.015352776           54 
 2506000   0.86832448   -8.0022774    479.30876  0.015938706   0.01534674           48 
 2507000   0.84627043   -7.9988204    478.94105  0.015920125  0.015340671           61 
 2508000   0.84907842   -7.9555695    479.97397  0.015948099  0.015334618           37 
 2509000   0.85010887   -8.0211229    479.99952  0.015942591   0.01532859           63 
 2510000   0.85276784   -7.9974143    479.94934  0.015934573  0.015322584           59 
 2511000   0.86292301   -7.9735425    480.00028  0.015929918  0.015316605           70 
 2512000   0.84698388   -8.0065057    479.80976  0.015917256  0.015310589           52 
 2513000   0.87220575   -7.9863066    478.64188  0.015872194  0.015304571           50 
 2514000   0.83845827   -8.0011647    478.70067  0.015867829  0.015298531           36 
 2515000   0.83340285   -8.0089008    479.00565  0.015871625  0.015292478           51 
 2516000   0.85035921   -7.9638638    479.77547  0.015890814  0.015286435           69 
 2517000   0.85857694   -7.9925066     479.7172  0.015882572  0.015280416           78 
 2518000    0.8536843   -8.0033585     478.9738  0.015851661  0.015274354           65 
 2519000   0.85131298   -7.9997608    479.23571  0.015854033   0.01526827           76 
 2520000   0.87145434   -8.0007594    479.25255  0.015848299  0.015262228           85 
 2521000   0.84901994   -7.9375896    479.57715  0.015852742  0.015256235           84 
 2522000   0.84087514    -7.992908    479.88829  0.015856737  0.015250228           81 
 2523000   0.84363707   -7.9751016    479.89167  0.015850564  0.015244213           90 
 2524000    0.8449312   -8.0021131    478.98667  0.015814404  0.015238171          106 
 2525000    0.8489563   -7.9804731    479.97067  0.015840616  0.015232107          119 
 2526000    0.8528611   -7.9788094    479.46467  0.015817652  0.015226042           77 
 2527000   0.84348108   -8.0245421    478.36636  0.015775173  0.015219985           89 
 2528000   0.83561938   -8.0097754    479.19762  0.015796335  0.015213893           86 
 2529000   0.82501967   -8.0150129    478.74861  0.015775293  0.015207776           61 
 2530000   0.85009057   -8.0153583    479.17959  0.015783254  0.015201703           77 
 2531000   0.84792356   -7.9992827    479.25815  0.015779604  0.015195634           73 
 2532000   0.85116738   -8.0256822    478.25365  0.015740312  0.015189586           63 
 2533000   0.84781052   -8.0278072    477.90469  0.015722618  0.015183501           99 
 2534000   0.83533453   -8.0064511    478.42761   0.01573361  0.015177419           83 
 2535000   0.84876202   -7.9916211    480.99961  0.015811953   0.01517136          108 
 2536000   0.85603756   -8.0539112    478.23392  0.015714837  0.015165298          110 
 2537000   0.84872512   -7.9949439    479.26408  0.015742481   0.01515923          141 
 2538000   0.85424608   -8.0230495    479.25059  0.015735835  0.015153172          139 
 2539000   0.86683402   -7.9973823      481.042  0.015788434  0.015147113          119 
 2540000   0.83495616   -8.0160169     479.0668  0.015717415  0.015141053          128 
 2541000   0.84249716   -8.0420868     477.8132  0.015670117  0.015134946          157 
 2542000   0.84136787   -8.0141968    478.59719  0.015689654  0.015128858          136 
 2543000   0.83760296   -8.0478841    478.78254  0.015689558  0.015122766          178 
 2544000   0.82862626   -8.0310249    478.59843   0.01567736  0.015116669          234 
 2545000   0.84848688   -8.0424102    478.97078  0.015683392  0.015110565          215 
 2546000   0.83552263   -8.0290945    479.83263  0.015705441  0.015104464          260 
 2547000   0.84035071   -8.0312457    478.99607  0.015671904  0.015098373          246 
 2548000   0.84561097   -8.0016719    479.06821  0.015668113  0.015092285          208 
 2549000   0.82763839   -8.0475196    478.37714  0.015639373  0.015086218          239 
 2550000    0.8326125   -8.0403891    477.80878  0.015614666  0.015080131          238 
 2551000   0.84127567   -8.0333824     479.4448  0.015661989  0.015074044          222 
 2552000   0.85404907   -8.0257041    479.55735  0.015659527  0.015067977          277 
 2553000   0.84416508   -8.0317951     478.2716  0.015611425  0.015061898          285 
 2554000   0.82742669   -8.0647122    478.04644  0.015597965   0.01505582          271 
 2555000   0.84504732   -8.0893995    477.31776  0.015568094  0.015049714          357 
 2556000   0.83537935     -8.08529    478.11444  0.015587977  0.015043589          323 
 2557000   0.85041634   -8.0537112    477.86773  0.015573841  0.015037466          334 
 2558000   0.84873382   -8.0758284    478.71384  0.015595317  0.015031364          382 
 2559000   0.83591679   -8.0546216    478.31819  0.015576338  0.015025224          383 
 2560000   0.84446243    -8.091969    478.17116  0.015565467  0.015019065          403 
 2561000   0.84344113    -8.077391    478.09211  0.015556817  0.015012896          428 
 2562000   0.81573083   -8.1144985    477.53904  0.015532756   0.01500674          436 
 2563000   0.84153382   -8.0995905     477.8123   0.01553558  0.015000557          466 
 2564000   0.85718745   -8.1192496    476.71844  0.015493969  0.014994371          480 
 2565000   0.86044846   -8.1092151    477.91899  0.015526933  0.014988148          499 
 2566000   0.83232663   -8.0902831    478.07931  0.015526088  0.014981937          523 
 2567000   0.84042157   -8.1444506    476.50148  0.015468818  0.014975722          553 
 2568000   0.83646376   -8.1156229    477.11537  0.015482716  0.014969506          504 
 2569000   0.84678295   -8.1168792    477.60796  0.015492668  0.014963267          595 
 2570000   0.84316862   -8.1184684    477.06182  0.015468931  0.014957035          607 
 2571000    0.8556626   -8.0892138    476.81784  0.015455006  0.014950803          653 
 2572000   0.84166876    -8.135929    477.09854  0.015458092  0.014944558          624 
 2573000   0.83075523   -8.1432985    476.13394  0.015420843  0.014938307          592 
 2574000   0.84904057   -8.1633967    475.66415  0.015399642  0.014932039          627 
 2575000   0.82934845   -8.1361286     475.2742  0.015381042   0.01492576          688 
 2576000   0.82137089   -8.1718266    475.39706  0.015379046  0.014919481          760 
 2577000   0.84686214   -8.1404585     476.1984  0.015398991   0.01491321          741 
 2578000   0.84588711   -8.1713977    476.17882  0.015392385   0.01490693          756 
 2579000   0.84807071   -8.1755292    476.43222  0.015394605  0.014900655          738 
 2580000   0.84118536   -8.1281193     477.7394  0.015430859  0.014894425          737 
 2581000   0.85451769   -8.1343324    476.18546  0.015374708  0.014888157          779 
 2582000    0.8228745   -8.1613736    475.93559  0.015360689   0.01488189          784 
 2583000   0.82688793   -8.2030019    476.27845  0.015365804  0.014875628          794 
 2584000   0.84591776   -8.1571087    476.20921  0.015357624  0.014869377          871 
 2585000   0.84851059   -8.1574439    475.70142  0.015335313  0.014863113          849 
 2586000   0.84739664   -8.1861937    476.32024  0.015349325  0.014856858          825 
 2587000   0.83565438   -8.1587002    476.64036  0.015353703  0.014850617          847 
 2588000    0.8274181   -8.1757418    476.79306  0.015352687  0.014844373          884 
 2589000   0.85748217    -8.199095    475.19838  0.015295429  0.014838158          948 
 2590000   0.85088713   -8.2074787    476.52845  0.015332318  0.014831905          886 
 2591000   0.83555374   -8.1895726    476.52398  0.015326257  0.014825635         1016 
 2592000   0.84373032    -8.225845    474.64263  0.015259858  0.014819387         1086 
 2593000   0.81551191    -8.216785    476.27426   0.01530641    0.0148131         1045 
 2594000    0.8561444   -8.2299675    475.75076  0.015283692  0.014806821         1069 
 2595000   0.81849651   -8.1926315    476.03723  0.015287002  0.014800555         1119 
 2596000   0.83530118   -8.2282306     475.9476  0.015278236  0.014794236         1233 
 2597000   0.83525335   -8.2111169    475.78043  0.015266988   0.01478792         1184 
 2598000   0.84928855   -8.2377003    474.02299  0.015204741  0.014781579         1301 
 2599000    0.8447774    -8.245557    474.93785  0.015228224  0.014775214         1313 
 2600000   0.82496338    -8.286241    473.85168  0.015187554  0.014768821         1398 
 2601000   0.83495299   -8.2738952    473.42386  0.015168008  0.014762413         1359 
 2602000   0.83267009   -8.2924534    474.24204  0.015188382  0.014755994         1442 
 2603000   0.83786287   -8.2991702    474.33574  0.015185547  0.014749562         1499 
 2604000    0.8401846   -8.3418909    472.63045  0.015125143  0.014743143         1554 
 2605000   0.84853853   -8.3230029    473.28992  0.015140432   0.01473671         1617 
 2606000   0.84601035   -8.3371103    473.33922  0.015136199   0.01473029         1647 
 2607000   0.84259335   -8.3504334    473.12869  0.015123664  0.014723836         1646 
 2608000   0.84760027   -8.3655357    473.59952  0.015132909  0.014717389         1772 
 2609000   0.84908922   -8.3526873    473.08806  0.015110772  0.014710926         1829 
 2610000   0.83484369   -8.3637615    472.26273  0.015078631  0.014704427         1951 
 2611000   0.83808976     -8.35821    472.91732  0.015093748  0.014697907         1906 
 2612000   0.82634432    -8.368035    470.97922  0.015026137  0.014691345         1986 
 2613000    0.8205019   -8.4004605    471.28372  0.015030097  0.014684767         2187 
 2614000   0.82899562   -8.4077393    471.62321   0.01503517  0.014678178         2161 
 2615000   0.83871226   -8.4510589    469.05831  0.014947684  0.014671549         2389 
 2616000   0.82485657   -8.4656092    469.41913  0.014953464  0.014664886         2458 
 2617000    0.8480679   -8.4976978    470.07733  0.014968709  0.014658184         2645 
 2618000   0.83143208   -8.5254386     468.1695  0.014902263  0.014651435         2671 
 2619000   0.83678047   -8.4961835    468.79822  0.014916578  0.014644652         2807 
 2620000   0.83469373   -8.5608125    466.60658  0.014841176  0.014637835         2901 
 2621000   0.83171132   -8.5653591    468.22677  0.014887027  0.014631004         2919 
 2622000   0.83772932   -8.5926161    466.93882  0.014840415  0.014624158         2958 
 2623000   0.84724032   -8.5926676    465.95019  0.014803348  0.014617314         3017 
 2624000   0.83687456   -8.5736182    468.03766  0.014864001  0.014610453         3050 
 2625000   0.82438102    -8.580123    466.77487   0.01481825  0.014603579         3106 
 2626000   0.83701669   -8.6231066    466.94898  0.014818132  0.014596685         3093 
 2627000   0.82472677   -8.6120233    467.16539  0.014819356  0.014589787         3142 
 2628000   0.82648123   -8.6385889     465.9733  0.014775916  0.014582858         3301 
 2629000   0.83152008   -8.6274142    465.51509  0.014755772  0.014575913         3322 
 2630000   0.83696204   -8.6655178    465.35546  0.014745103  0.014568943         3423 
 2631000   0.82224355   -8.6732153    465.11865  0.014731998  0.014561962         3454 
 2632000   0.82728006   -8.6543229    466.34705  0.014765294     0.014555         3422 
 2633000   0.82178949   -8.6836377    464.72083  0.014708217  0.014548009         3466 
 2634000   0.82386342   -8.6795184    464.78193  0.014704566  0.014541006         3499 
 2635000   0.83141404   -8.6539332    464.97123  0.014704973   0.01453401         3457 
 2636000   0.81911015   -8.6776929    464.92125  0.014697814  0.014527028         3440 
 2637000   0.82874099   -8.6835388    465.32096  0.014704872  0.014520038         3448 
 2638000   0.82142981   -8.6741414    465.02679  0.014690005  0.014513028         3496 
 2639000   0.82551555   -8.6876863    465.14645  0.014688217  0.014506028         3476 
 2640000   0.83957666     -8.71519    463.59126  0.014633562  0.014499003         3496 
 2641000   0.81575227   -8.6953972    463.52362  0.014625887  0.014491993         3483 
 2642000   0.85048725    -8.705091     464.5098  0.014651457  0.014484991         3513 
 2643000   0.82226166   -8.6805134    464.47065  0.014644679   0.01447798         3545 
 2644000   0.82058839   -8.7042175     463.6168  0.014612229  0.014470963         3546 
 2645000   0.82610748   -8.6995954    464.33987  0.014629486  0.014463943         3460 
 2646000   0.80695444   -8.7074451    463.63254   0.01460168  0.014456934         3547 
 2647000   0.82848754   -8.7422134    463.53412  0.014593065  0.014449913         3557 
 2648000    0.8236002   -8.7182819    463.74395  0.014594158    0.0144429         3513 
 2649000   0.84069823   -8.7098353    465.38728  0.014640345  0.014435888         3498 
 2650000   0.83739918   -8.7204046    463.94518  0.014589471  0.014428868         3584 
 2651000   0.82949733    -8.736292    463.58019  0.014572494  0.014421864         3571 
 2652000    0.8224026   -8.6915174    464.57778  0.014598346  0.014414861         3498 
 2653000   0.80725902   -8.6993185    464.48531  0.014589939  0.014407857         3582 
 2654000   0.82619429   -8.7296746    463.91566  0.014566556   0.01440086         3565 
 2655000   0.83486328   -8.7202581    463.62671     0.014552  0.014393869         3619 
 2656000   0.80126622   -8.7486215    464.04119  0.014559525  0.014386862         3631 
 2657000   0.82941601   -8.7526693    464.22826  0.014559913  0.014379861         3593 
 2658000   0.82246712   -8.7242222    462.84812  0.014511165  0.014372862         3577 
 2659000   0.84437443   -8.7206523      463.732  0.014533409  0.014365873         3597 
 2660000    0.8215973   -8.7546002    463.58817  0.014523439  0.014358874         3636 
 2661000    0.8272295   -8.7463106    462.68965  0.014489842  0.014351874         3647 
 2662000   0.81286137   -8.7328824    463.60467  0.014513044  0.014344881         3696 
 2663000   0.81733025   -8.7480011    462.87381  0.014484723  0.014337895         3641 
 2664000   0.83233927      -8.7347    463.79695  0.014508163  0.014330906         3640 
 2665000   0.82778442    -8.774477    463.72553  0.014500486  0.014323912         3623 
 2666000   0.81610767   -8.7148306    463.19577  0.014478488  0.014316931         3645 
 2667000      0.81079   -8.7261957    463.12859   0.01447096  0.014309949         3568 
 2668000   0.81232601   -8.7317942     463.7451  0.014484792  0.014302963         3584 
 2669000   0.81457868   -8.7447577    463.04809  0.014457602  0.014295985         3638 
 2670000   0.81865021   -8.7581039    463.17132  0.014456034  0.014289018         3651 
 2671000   0.82981702   -8.7411664    462.82603  0.014439849  0.014282046         3628 
 2672000   0.82500779   -8.7534635     463.5724  0.014457722  0.014275065         3643 
 2673000   0.82941378   -8.7319732     463.4604  0.014448822  0.014268081         3632 
 2674000   0.83644172   -8.7549699    463.32587  0.014439226  0.014261106         3656 
 2675000   0.81714494   -8.7598654    462.96044  0.014422444  0.014254137         3669 
 2676000   0.84131254   -8.7498529    463.99568  0.014449293  0.014247178         3632 
 2677000    0.8193597   -8.7699616    462.71934  0.014404163  0.014240202         3686 
 2678000   0.83129677   -8.7549427    462.96605  0.014406462  0.014233233         3668 
 2679000   0.82049959   -8.7971078    463.06819  0.014404261  0.014226268         3666 
 2680000   0.82718205   -8.7659526    463.20205  0.014403049  0.014219316         3703 
 2681000   0.81858241   -8.7901174     462.7727  0.014384331  0.014212366         3617 
 2682000   0.81284815   -8.7666041    463.54159  0.014402858  0.014205393         3602 
 2683000   0.84104804   -8.7524119    463.35104  0.014391572  0.014198433         3640 
 2684000   0.81896384   -8.7858908    462.52139   0.01436045  0.014191472         3635 
 2685000   0.79403775   -8.7577721    464.34262  0.014411627  0.014184504         3635 
 2686000   0.81007149   -8.7575113    463.35077  0.014375489  0.014177552         3682 
 2687000   0.82600769   -8.7688515    463.31502  0.014369031  0.014170605         3685 
 2688000   0.80873436   -8.8211617    461.54808  0.014308906   0.01416365         3659 
 2689000   0.82272137   -8.7884142    462.29733  0.014326805  0.014156706         3658 
 2690000   0.82347357   -8.7553425    462.52583  0.014328557  0.014149764         3615 
 2691000   0.81386179   -8.7812073    462.72974  0.014329547   0.01414282         3688 
 2692000   0.82922238   -8.7785765    462.40458  0.014314159  0.014135877         3609 
 2693000   0.84284808   -8.7579884    463.15033   0.01433192  0.014128946         3639 
 2694000   0.83917079   -8.7791905    462.42779   0.01430425  0.014122012         3683 
 2695000   0.83599716   -8.7886034    463.11472  0.014320183  0.014115084         3698 
 2696000   0.84527558   -8.7480171     463.4232  0.014324406  0.014108159         3674 
 2697000   0.80205234     -8.77851     462.6054  0.014293827  0.014101234         3716 
 2698000   0.80208048   -8.7688009    462.94852  0.014299126  0.014094318         3724 
 2699000   0.83618209   -8.7764748    462.27758  0.014273113  0.014087391         3642 
 2700000   0.81584573   -8.7924271     463.2627  0.014298231  0.014080469         3662 
 2701000    0.8163179   -8.7939152    463.27378   0.01429328  0.014073555         3665 
 2702000    0.8392672   -8.7736078    462.97997  0.014278928  0.014066644         3623 
 2703000   0.82671813   -8.8091111     462.0875  0.014246131  0.014059726         3679 
 2704000   0.80612246   -8.8044458    462.03779   0.01423933  0.014052786         3680 
 2705000   0.81034823   -8.7993018    461.15969  0.014207015  0.014045858         3632 
 2706000   0.81924201   -8.8038838    462.88461  0.014254885  0.014038945         3702 
 2707000   0.81449847   -8.8042372    462.73782    0.0142451  0.014032027         3702 
 2708000   0.79907167   -8.7869837    462.16694  0.014222272   0.01402512         3662 
 2709000   0.82329011   -8.7938609    461.84826  0.014207218  0.014018216         3745 
 2710000   0.83486312   -8.7869946    463.46436  0.014251672  0.014011322         3684 
 2711000   0.83313112   -8.7833703     462.2901  0.014210319  0.014004426         3696 
 2712000   0.80773004   -8.7746306    463.28005  0.014235498  0.013997527         3723 
 2713000   0.84101782   -8.7729986    461.91334  0.014188271  0.013990636         3662 
 2714000   0.82329928   -8.7955031    462.20603   0.01419203  0.013983758         3683 
 2715000   0.80535368   -8.8073106    462.69537  0.014201822  0.013976852         3723 
 2716000    0.8174999   -8.8257067    461.59511  0.014162835  0.013969958         3719 
 2717000   0.80364633   -8.8157555    461.89633  0.014166861  0.013963061         3700 
 2718000   0.81541502   -8.8117175    461.19172  0.014140046  0.013956174         3728 
 2719000   0.80983286   -8.8147354    461.29404  0.014137981   0.01394929         3697 
 2720000   0.81319069   -8.7951524     462.4946  0.014169565  0.013942407         3680 
 2721000   0.82781621   -8.8178411    461.48584  0.014133463  0.013935538         3666 
 2722000   0.81409669   -8.8051816    461.65902  0.014133573  0.013928666         3703 
 2723000   0.80970974   -8.7898904    462.20667  0.014145142  0.013921805         3703 
 2724000     0.810573   -8.8069439    463.66164   0.01418446  0.013914949         3663 
 2725000   0.80793397   -8.8135581    462.87776  0.014155283  0.013908091         3683 
 2726000   0.80550892   -8.8178735    462.46874  0.014137587  0.013901231         3702 
 2727000   0.82144135   -8.8100678    462.24624  0.014125603  0.013894381         3678 
 2728000   0.81313344   -8.8253977    462.21242  0.014119392  0.013887524         3702 
 2729000   0.81374068   -8.8068013    461.90018  0.014104684  0.013880676         3669 
 2730000   0.80402675   -8.8225258    461.69618   0.01409329  0.013873831         3746 
 2731000   0.82862201   -8.8239652    462.54573  0.014114053  0.013866988         3658 
 2732000   0.82054873   -8.8154643    462.74019  0.014114818  0.013860146         3675 
 2733000   0.80793194   -8.7869363    462.19883  0.014093147  0.013853299         3690 
 2734000   0.83452765   -8.8219407    461.52085  0.014067326  0.013846467         3695 
 2735000   0.82115334   -8.8499617    461.88493  0.014073276  0.013839623         3737 
 2736000   0.80267036   -8.8368885    461.80503  0.014065699   0.01383278         3668 
 2737000   0.83626814    -8.842179    462.78091  0.014090273  0.013825951         3670 
 2738000   0.79708071   -8.8130709    463.10336   0.01409494  0.013819121         3703 
 2739000   0.81034479   -8.7997907    461.78764  0.014049764  0.013812306         3754 
 2740000   0.82599331   -8.8456943    461.54581  0.014037281  0.013805491         3679 
 2741000   0.81915386   -8.8106496    461.14194  0.014019881  0.013798666         3729 
 2742000   0.81163589   -8.8432191    461.12523   0.01401426  0.013791852         3677 
 2743000   0.83018597   -8.8260746    461.68393  0.014026125   0.01378504         3690 
 2744000   0.80701165   -8.8207048    462.70814  0.014052118  0.013778219         3682 
 2745000    0.8177407   -8.8206073    461.37434  0.014006507  0.013771404         3695 
 2746000    0.8362322   -8.8290552     461.3134  0.013999557  0.013764602         3752 
 2747000   0.82170427   -8.8240885    460.95049  0.013983451  0.013757807         3684 
 2748000    0.8032745   -8.8068479    460.87884   0.01397619  0.013750998         3668 
 2749000   0.81288858   -8.8315775    461.93846  0.014003227  0.013744193         3668 
 2750000   0.80708012   -8.8525097    460.49233  0.013954313  0.013737411         3689 
 2751000    0.7893666   -8.8407699    460.67338  0.013954725  0.013730615         3700 
 2752000   0.81863359   -8.8201846      462.133  0.013993853  0.013723835         3669 
 2753000   0.81621271   -8.8247891    461.88049  0.013981126  0.013717075         3728 
 2754000   0.78858786   -8.8036238     462.5567  0.013996511  0.013710292         3711 
 2755000   0.79922672   -8.8236164     462.2759  0.013982937  0.013703526         3665 
 2756000   0.81814001   -8.8471743    461.44303   0.01395268  0.013696757         3707 
 2757000   0.80773546   -8.8149844    462.25549  0.013972176  0.013689998         3742 
 2758000   0.82228684    -8.836287    461.66802   0.01394936  0.013683238         3709 
 2759000   0.78191601   -8.8414569    461.36104  0.013935032   0.01367648         3736 
 2760000   0.79670935   -8.8482475    461.61756  0.013937728  0.013669724         3736 
 2761000    0.8168452    -8.808505    462.18896  0.013949926  0.013662968         3676 
 2762000   0.78706904   -8.8070072     462.0693  0.013941265  0.013656222         3729 
 2763000   0.81802302   -8.8364889    461.35334  0.013914626  0.013649472         3744 
 2764000   0.81188266   -8.8108973    461.51692  0.013914524  0.013642731         3697 
 2765000   0.80778235   -8.8327834    461.45057  0.013907492  0.013635984         3752 
 2766000   0.80439707   -8.8469754    460.89735  0.013885796  0.013629246         3756 
 2767000   0.81080091   -8.8173777    461.85299  0.013909559  0.013622516         3701 
 2768000   0.80905136   -8.8444388    461.82452  0.013903677  0.013615787         3708 
 2769000   0.81492429     -8.78679     461.6107   0.01389222  0.013609065         3716 
 2770000   0.80959044   -8.8327268    461.08089  0.013871266  0.013602347         3727 
 2771000   0.80464571   -8.8515056    460.75982  0.013856605  0.013595622         3715 
 2772000   0.81196943   -8.8373134    461.87662   0.01388518  0.013588916         3709 
 2773000   0.81746746   -8.8499073    462.43391   0.01389692  0.013582219         3731 
 2774000   0.83519634   -8.8549474    460.53235  0.013834786  0.013575527         3737 
 2775000    0.8016487   -8.8323969    461.91637  0.013871363  0.013568834         3745 
 2776000     0.800032   -8.8230886    462.21155  0.013875227  0.013562142         3693 
 2777000   0.81133891   -8.8440757    462.32157  0.013873532  0.013555454         3729 
 2778000   0.78758609   -8.8408767    461.23367  0.013835903  0.013548766         3747 
 2779000   0.80361707   -8.8444168    461.13692  0.013828023  0.013542086         3756 
 2780000    0.8060655   -8.8369889    461.30927  0.013828216  0.013535422         3726 
 2781000   0.79778301   -8.8475987    461.36781  0.013824997   0.01352875         3684 
 2782000   0.80966487   -8.8424674    461.41809  0.013821534  0.013522081         3706 
 2783000   0.81001479   -8.8344993    461.64039  0.013823224  0.013515411         3755 
 2784000   0.82031497    -8.848368    462.02012  0.013829625  0.013508748         3726 
 2785000   0.81583751    -8.831688    461.93552  0.013822128  0.013502085         3717 
 2786000   0.80660624   -8.8328869    461.32864  0.013799014   0.01349544         3683 
 2787000   0.80785472   -8.8407122    462.03036  0.013815045  0.013488784         3717 
 2788000   0.79286592   -8.8584854    460.97487  0.013778541  0.013482131         3738 
 2789000   0.80199562   -8.8471271    461.31936  0.013783894  0.013475484         3712 
 2790000   0.80342076    -8.815551    462.44784  0.013812659  0.013468843         3725 
 2791000   0.80328384   -8.8297731    461.39346  0.013776229  0.013462208         3638 
 2792000   0.78933325   -8.8223654    461.32798   0.01376934   0.01345557         3711 
 2793000   0.80597458   -8.8312551    461.36627  0.013765553  0.013448936         3737 
 2794000   0.78953853    -8.828609    460.73341  0.013741751  0.013442323         3704 
 2795000   0.81128196   -8.8363416    461.46693  0.013758704  0.013435699         3705 
 2796000   0.82635805   -8.8506561    461.33874  0.013749963  0.013429073         3687 
 2797000   0.79877925    -8.838705    461.42784  0.013747701  0.013422453         3720 
 2798000   0.81972956    -8.858424    461.39275  0.013741743  0.013415836         3703 
 2799000   0.78295483   -8.8437544    461.27296  0.013733267  0.013409228         3722 
 2800000   0.80728689   -8.8307271    461.81628  0.013744532  0.013402616         3702 
 2801000   0.79697293   -8.8501044    461.49178  0.013729971  0.013395998         3689 
 2802000   0.78653114   -8.8841682    460.80071  0.013704518   0.01338938         3770 
 2803000   0.79521504   -8.8131415    461.33723  0.013715579  0.013382766         3666 
 2804000   0.80529185   -8.8614225    461.19849  0.013706565  0.013376166         3707 
 2805000   0.79938367   -8.8391617    461.02525  0.013696531  0.013369569         3697 
 2806000    0.7959701   -8.8444533     461.5598  0.013707526  0.013362974         3708 
 2807000   0.80012519   -8.8397787    461.09208  0.013688757  0.013356389         3753 
 2808000   0.80184228    -8.844618    461.74808   0.01370335  0.013349804         3723 
 2809000   0.80334096   -8.8168424    462.46666  0.013719789  0.013343228         3698 
 2810000   0.80173247   -8.8318156    461.47123  0.013685386  0.013336655         3701 
 2811000   0.78081014   -8.8359638    461.61513  0.013684784  0.013330081         3722 
 2812000   0.79500243   -8.8214675    461.56738  0.013678502  0.013323493         3677 
 2813000   0.79672725   -8.8486245    461.69121  0.013677308  0.013316927         3739 
 2814000   0.79246882   -8.8192461    460.95602  0.013650676  0.013310368         3676 
 2815000   0.81076176   -8.8466789      461.935  0.013674808  0.013303816         3677 
 2816000   0.79363216   -8.8432877    461.63733  0.013661143   0.01329725         3702 
 2817000   0.78552172    -8.823986    461.32723   0.01364712  0.013290697         3757 
 2818000   0.80271589   -8.8600752    461.19765  0.013638445  0.013284149         3682 
 2819000   0.80081787   -8.8622258    461.42683  0.013640382  0.013277602         3733 
 2820000   0.78764408   -8.8467685    461.55422  0.013639309  0.013271061         3680 
 2821000   0.77745652   -8.8431759     461.5655  0.013634807  0.013264515         3703 
 2822000   0.78812047   -8.8486219    460.96506  0.013612245  0.013257977         3705 
 2823000   0.80197611   -8.8567926    461.52271  0.013623884   0.01325145         3716 
 2824000   0.79263088   -8.8613124    460.77401  0.013596967  0.013244921         3668 
 2825000   0.81163488   -8.8676423     461.3307  0.013608575  0.013238397         3744 
 2826000   0.78232502   -8.8443091    461.07955  0.013596354  0.013231863         3687 
 2827000   0.81797449   -8.8411261    461.50157  0.013603984  0.013225332         3672 
 2828000   0.79063429   -8.8654346    460.39552  0.013566582  0.013218806         3687 
 2829000   0.80552528   -8.8802847    461.08947  0.013582228  0.013212289         3701 
 2830000   0.78780334   -8.8436353    461.87739   0.01360063  0.013205771         3667 
 2831000   0.80577022   -8.8514076    461.32445  0.013579549  0.013199258         3699 
 2832000    0.7921376   -8.8576483    461.23262  0.013572052  0.013192746         3736 
 2833000   0.80846938   -8.8732497    461.22807  0.013567128  0.013186242         3720 
 2834000   0.79057724   -8.8407725     461.6544  0.013574877  0.013179736         3673 
 2835000   0.79768781   -8.8569812     460.8949  0.013547763  0.013173236         3711 
 2836000   0.79167056   -8.8762442    460.39187  0.013528205  0.013166735         3686 
 2837000   0.79727789    -8.861897    461.31483  0.013550547  0.013160232         3676 
 2838000   0.79256976   -8.8827647    461.16792  0.013541459  0.013153738         3693 
 2839000   0.80015264   -8.8437647    461.02943  0.013532624  0.013147254         3741 
 2840000   0.79034664   -8.8305286    462.19914  0.013562181  0.013140782         3718 
 2841000   0.78825886   -8.8312056    462.29134  0.013560112  0.013134309         3627 
 2842000   0.79590133   -8.8662723    460.74455  0.013509986  0.013127828         3713 
 2843000   0.79887734   -8.8374081    462.21066  0.013548208  0.013121353         3716 
 2844000    0.8008833   -8.8724178    461.52814  0.013523445  0.013114886         3735 
 2845000   0.80406084   -8.8484782    461.49414  0.013517696  0.013108415         3742 
 2846000   0.79585748   -8.8787569    460.59044  0.013486485  0.013101955         3723 
 2847000   0.79470035   -8.8768785    458.72295  0.013427086   0.01309549         3739 
 2848000   0.81109505    -8.863622    461.49724  0.013503547  0.013089026         3745 
 2849000    0.7893951   -8.8539928    461.15425  0.013488775  0.013082564         3673 
 2850000   0.77796445   -8.8631377    462.26575  0.013516543  0.013076108         3659 
 2851000   0.79926078   -8.8623575    460.74718  0.013467414  0.013069663         3735 
 2852000   0.79986601   -8.8610895    460.74326  0.013462578  0.013063218         3713 
 2853000   0.79975302   -8.8584734    461.08542  0.013467853  0.013056771         3742 
 2854000   0.81116612   -8.8541043    461.26491  0.013468375  0.013050336         3706 
 2855000   0.79736052   -8.8788367    460.18594  0.013432164  0.013043906         3707 
 2856000   0.77743639   -8.8394312     461.2699  0.013459089  0.013037473         3722 
 2857000   0.79937341    -8.868043    460.22895  0.013424016  0.013031043         3760 
 2858000   0.78280397   -8.9076409    459.86275  0.013408641  0.013024614         3726 
 2859000   0.80495372    -8.858228     460.8379  0.013432374   0.01301819         3743 
 2860000   0.79487655   -8.8710642    461.08016  0.013434736   0.01301177         3729 
 2861000   0.80610152   -8.8793469      460.198  0.013404346  0.013005355         3708 
 2862000   0.77093479   -8.8486303    461.39082  0.013434394  0.012998942         3754 
 2863000   0.79442411   -8.8532453    461.14433  0.013422527  0.012992542         3745 
 2864000   0.80399577   -8.8390875     460.7384  0.013406029   0.01298614         3695 
 2865000   0.78540159   -8.8624303    460.54949  0.013395855  0.012979741         3699 
 2866000   0.79794032   -8.8746352    460.67936  0.013394957  0.012973344         3763 
 2867000   0.79322607   -8.8567204    460.15315   0.01337499   0.01296695         3760 
 2868000   0.78788525   -8.8881376    460.57264  0.013382515  0.012960566         3731 
 2869000   0.78715006   -8.8505902    462.18042   0.01342455  0.012954182         3687 
 2870000   0.77888846   -8.8534313    461.27483  0.013393578  0.012947807         3742 
 2871000   0.79795816   -8.8665209    460.41995  0.013364099   0.01294144         3735 
 2872000   0.79816733   -8.8893905     460.8798  0.013372789  0.012935065         3742 
 2873000   0.80073423   -8.8316181    461.52402   0.01338682    0.0129287         3708 
 2874000   0.78664251   -8.8827834     460.7604  0.013360021  0.012922346         3706 
 2875000   0.78566863   -8.8825282    459.74461  0.013325931  0.012915983         3688 
 2876000   0.79420753   -8.9005915    460.87948  0.013354181  0.012909623         3717 
 2877000    0.8109022   -8.8979776    460.70857  0.013344588  0.012903263         3715 
 2878000   0.80591312   -8.8697137    460.52807  0.013334725  0.012896914         3742 
 2879000   0.79787063   -8.8758877     461.1106  0.013346955  0.012890553         3716 
 2880000   0.80054884   -8.8595904    461.50292  0.013353672  0.012884208         3703 
 2881000   0.78647838   -8.8869359    460.38722  0.013316765  0.012877863         3738 
 2882000   0.79146333   -8.8614803    460.95051  0.013328432   0.01287152         3730 
 2883000   0.79302535   -8.8950385     460.4739  0.013310033  0.012865191         3748 
 2884000   0.79928487   -8.8901665    460.98295  0.013320127  0.012858849         3729 
 2885000    0.7810769   -8.8717194     461.6714  0.013335396  0.012852514         3749 
 2886000   0.78739712   -8.8862444    460.59903   0.01329981   0.01284619         3709 
 2887000   0.78720132   -8.8618597    461.70941  0.013327255  0.012839872         3675 
 2888000   0.78813975   -8.8565671    460.59072   0.01329036  0.012833551         3704 
 2889000   0.79034559   -8.8708161    460.40199  0.013280316  0.012827237         3725 
 2890000   0.79993319   -8.9087638    460.69712  0.013284231  0.012820924         3740 
 2891000   0.78763589   -8.8467742    460.73673  0.013280778  0.012814616         3716 
 2892000   0.77051477   -8.8475916    461.48625  0.013297783  0.012808306         3722 
 2893000   0.79493023   -8.8564024    459.84006  0.013245767  0.012801995         3742 
 2894000     0.789831   -8.8606182    460.79658  0.013268734  0.012795696         3707 
 2895000   0.79880807   -8.8754425    460.46213  0.013254523  0.012789405         3698 
 2896000   0.78880465    -8.870962    460.43767  0.013249242  0.012783118         3721 
 2897000   0.79227731   -8.8656411    460.64385    0.0132506  0.012776819         3739 
 2898000   0.79207524   -8.8843245    460.78853  0.013250188  0.012770536         3744 
 2899000   0.78342433   -8.8239382    460.51611  0.013237786  0.012764253         3753 
 2900000   0.78806836   -8.9025922    460.35077   0.01322847  0.012757972         3720 
 2901000   0.76742012   -8.8859093    460.47598  0.013227507  0.012751698         3763 
 2902000   0.79415271   -8.8627942    461.24808  0.013245121  0.012745423         3701 
 2903000   0.78873796   -8.8652122    459.87098  0.013201027  0.012739165         3714 
 2904000   0.77828158   -8.8644023    460.51806   0.01321505  0.012732905         3788 
 2905000   0.78851194     -8.89456    460.71922  0.013216271  0.012726643         3741 
 2906000   0.79636885   -8.8803535    460.85883  0.013215727  0.012720393         3753 
 2907000   0.77746572   -8.8786208    460.88176  0.013211838  0.012714148         3747 
 2908000   0.77850309   -8.8420911    460.29129  0.013190374  0.012707911         3708 
 2909000   0.78764284    -8.875757    461.68352  0.013225723  0.012701671         3711 
 2910000   0.77158733   -8.8571466     461.4604  0.013214788  0.012695433         3733 
 2911000   0.79158736   -8.8797563    459.44373  0.013152517  0.012689192         3736 
 2912000    0.7876632   -8.8863936    460.76806  0.013185899  0.012682963         3690 
 2913000   0.78464236   -8.8866978    461.42053  0.013200038  0.012676733         3745 
 2914000   0.79734973   -8.8707158    460.02867  0.013155704   0.01267051         3654 
 2915000   0.79335766   -8.8951857    460.32263  0.013159595  0.012664295         3742 
 2916000   0.79120117   -8.8608294    460.06991   0.01314786  0.012658071         3713 
 2917000   0.78918699   -8.8986626    459.75821  0.013134448  0.012651849         3744 
 2918000    0.7864925   -8.9068964    460.88906  0.013162242  0.012645637         3764 
 2919000   0.79834131   -8.8875302    460.45326  0.013145291  0.012639433         3714 
 2920000   0.78444845   -8.8812477     459.3361  0.013108907  0.012633224         3741 
 2921000   0.79077738   -8.8811629    460.06028  0.013125079   0.01262702         3737 
 2922000   0.79292746   -8.8734123    460.20202   0.01312463   0.01262082         3740 
 2923000   0.78409958   -8.8780238    460.59407  0.013131317  0.012614621         3734 
 2924000    0.7859539   -8.9034693    459.66937  0.013100472  0.012608424         3699 
 2925000   0.78740284   -8.8897968    460.35073  0.013115405  0.012602238         3709 
 2926000   0.77454067   -8.9035633    458.80125  0.013066793   0.01259606         3730 
 2927000   0.78725107   -8.8529398     460.1836  0.013101686  0.012589887         3742 
 2928000   0.79034325   -8.8692949    461.01648  0.013120915   0.01258371         3726 
 2929000   0.77875404   -8.8863407    459.25396   0.01306629   0.01257754         3705 
 2930000   0.78775314   -8.8880049    460.67469  0.013102238  0.012571366         3761 
 2931000   0.78197979   -8.8931841    460.67357  0.013097736  0.012565211         3759 
 2932000   0.78629119   -8.8935472    460.38139  0.013084965  0.012559058         3707 
 2933000   0.77991172   -8.8981487    459.99185  0.013069435  0.012552895         3697 
 2934000   0.78271675   -8.8922491    460.09055  0.013067784  0.012546748         3741 
 2935000   0.78302603    -8.896541     459.1839  0.013037589   0.01254059         3751 
 2936000    0.7554467   -8.8865326    460.43757  0.013068732  0.012534435         3781 
 2937000   0.77864059   -8.8841011    460.30296  0.013060463  0.012528278         3733 
 2938000   0.76981929   -8.8900793    460.84858  0.013071494  0.012522133         3741 
 2939000   0.78889655   -8.8907436    460.10974  0.013046097  0.012515989         3735 
 2940000   0.77031357   -8.8958381     459.8829   0.01303523  0.012509851         3752 
 2941000   0.79754787   -8.8596777    461.25314  0.013069623  0.012503715         3769 
 2942000   0.78722355   -8.8868106    459.71739   0.01302168  0.012497584         3814 
 2943000   0.77990334   -8.8684176    460.48868  0.013039095  0.012491451         3784 
 2944000   0.78491704   -8.8856119    460.17961  0.013025917  0.012485326         3747 
 2945000   0.77818704    -8.907951    460.64615  0.013034696  0.012479198         3756 
 2946000   0.77200043   -8.8968493    460.06978  0.013013968  0.012473081         3755 
 2947000    0.7807024   -8.8953512    460.68192  0.013026861  0.012466957         3768 
 2948000     0.794201   -8.9035969    460.40031  0.013014482  0.012460833         3758 
 2949000   0.78652501   -8.8938083     461.3381  0.013036569  0.012454723         3767 
 2950000   0.79562526   -8.8826411    460.99974  0.013022591  0.012448621         3767 
 2951000   0.79759277   -8.8861621    460.47852   0.01300346  0.012442517         3754 
 2952000   0.76048937   -8.8883213    460.09761  0.012988302  0.012436416         3717 
 2953000   0.77761932   -8.9199005    460.35445  0.012991152   0.01243032         3739 
 2954000   0.77987297   -8.9074257    460.72432  0.012997188  0.012424225         3733 
 2955000   0.78246613   -8.9007603    460.05824  0.012974006  0.012418125         3711 
 2956000   0.76713854   -8.8961896    460.48216  0.012981568  0.012412039         3790 
 2957000   0.80199173   -8.9169711    459.79292  0.012957753   0.01240595         3772 
 2958000   0.79025724   -8.9036749    460.14444  0.012963276  0.012399871         3721 
 2959000   0.77385474   -8.8677472     461.6491   0.01300127  0.012393786         3754 
 2960000   0.77759025    -8.905557    460.09228  0.012953049   0.01238771         3745 
 2961000   0.77356677   -8.9030785    460.21231  0.012952052   0.01238164         3736 
 2962000    0.7734882   -8.9052711    460.68097  0.012960865  0.012375579         3767 
 2963000   0.78026115   -8.8814997    461.02109  0.012966056  0.012369523         3746 
 2964000   0.78125726   -8.9052337    460.47565  0.012946346  0.012363464         3740 
 2965000    0.7578368   -8.9024403    461.47881  0.012970174  0.012357416         3773 
 2966000   0.79435899   -8.9285642    459.54766  0.012911544   0.01235137         3740 
 2967000   0.76626532   -8.9086485    461.09358  0.012950612   0.01234533         3755 
 2968000   0.77229564    -8.912162    460.60749    0.0129326  0.012339289         3752 
 2969000   0.79026493   -8.8876605    460.59438  0.012927876  0.012333256         3754 
 2970000    0.7938886   -8.8874569     460.2812  0.012914736  0.012327229         3774 
 2971000   0.77191814   -8.9027231    460.63459  0.012920301  0.012321195         3733 
 2972000    0.7686253   -8.9184018    459.25497   0.01287727  0.012315168         3782 
 2973000   0.78691088   -8.9045993    459.48283  0.012879326  0.012309134         3804 
 2974000   0.77369918   -8.9153902    459.58952  0.012877985  0.012303112         3796 
 2975000   0.75012793   -8.8836244    460.18595  0.012890363  0.012297083         3756 
 2976000   0.77540181   -8.8853257    460.67842  0.012899821  0.012291065         3738 
 2977000   0.76355729   -8.9150874    459.77333  0.012870153   0.01228505         3759 
 2978000   0.77757933    -8.940735    459.82075  0.012867158  0.012279028         3794 
 2979000   0.76826809   -8.8826152    459.92718  0.012865816  0.012273014         3753 
 2980000   0.78616374   -8.9115352    460.23908   0.01287022  0.012267004         3756 
 2981000   0.78500289   -8.9118117    459.82537  0.012854338  0.012260996         3779 
 2982000   0.77478169   -8.9196477    459.89166  0.012851879  0.012254994         3782 
 2983000   0.78463428   -8.9205949    460.21863  0.012856705  0.012248989         3788 
 2984000   0.80017725    -8.910813    460.59649  0.012862949  0.012242982         3755 
 2985000   0.74498441    -8.923965    460.23773  0.012848625   0.01223699         3726 
 2986000   0.78300392   -8.9031034    460.13703  0.012841511  0.012230994         3775 
 2987000   0.76117502   -8.9097157    460.31796   0.01284226  0.012225009         3738 
 2988000   0.76350094    -8.901972    460.74014  0.012849736  0.012219023         3767 
 2989000    0.7744082   -8.9259599    459.54009   0.01281198  0.012213034         3768 
 2990000    0.7599658    -8.921471    460.46107  0.012833363  0.012207066         3760 
 2991000   0.77086415   -8.9362839    459.85465  0.012812177   0.01220109         3755 
 2992000   0.78596121   -8.9333405    459.28395     0.012792  0.012195114         3721 
 2993000   0.77664191   -8.9092385     459.5156  0.012794175  0.012189149         3798 
 2994000   0.77814862   -8.9285068    460.00242  0.012803452  0.012183186         3743 
 2995000   0.77005439   -8.9241115    460.14725  0.012803207  0.012177233         3728 
 2996000   0.76670074   -8.9267146    459.79015  0.012789001  0.012171279         3778 
 2997000   0.76723431   -8.9119972    459.08672  0.012765174  0.012165319         3788 
 2998000    0.7644604   -8.9232096    460.37188  0.012796639  0.012159371         3754 
 2999000   0.76030833   -8.9298969    459.26893  0.012761724  0.012153416         3740 
 3000000   0.76997362   -8.9517436    458.44352  0.012734542   0.01214747         3783 
 3001000   0.78413446   -8.9371093    459.99838  0.012773475  0.012141534         3726 
 3002000   0.77281573   -8.9183455    460.07737  0.012771413  0.012135594         3732 
 3003000   0.76821053    -8.909287    459.98513    0.0127646  0.012129669         3736 
 3004000   0.76300451    -8.914498    459.71378  0.012752823  0.012123743         3785 
 3005000   0.77672953   -8.9312505    459.55114  0.012744069   0.01211782         3771 
 3006000   0.76540385   -8.9155673    459.61506  0.012741602  0.012111904         3733 
 3007000   0.77645382   -8.9190561    461.10494  0.012778654  0.012105997         3739 
 3008000   0.76724774   -8.9115887     460.7202  0.012763747  0.012100086         3768 
 3009000    0.7698805   -8.9016158    460.74408  0.012760166  0.012094175         3763 
 3010000   0.76103392   -8.9513181     458.0166  0.012680415   0.01208827         3720 
 3011000   0.77004718   -8.9090931    460.45782  0.012743768  0.012082364         3788 
 3012000   0.76968731   -8.9442124    459.45692  0.012711845  0.012076464         3790 
 3013000   0.75244062    -8.927831    459.87667  0.012719235  0.012070568         3748 
 3014000    0.7533286   -8.9201955    459.88463  0.012715235  0.012064668         3793 
 3015000   0.74780479   -8.9391161    460.02751  0.012714967  0.012058766         3766 
 3016000   0.77284687   -8.9586452    459.29107  0.012690403  0.012052866         3785 
 3017000    0.7776295   -8.9377948    459.92423  0.012703686  0.012046972         3764 
 3018000    0.7683096   -8.9356335    460.18677  0.012706726  0.012041083         3746 
 3019000   0.78021463   -8.9149392    460.26427  0.012704656  0.012035191         3799 
 3020000    0.7674585   -8.9409708    460.03308   0.01269407  0.012029304         3781 
 3021000   0.76475744   -8.9297748     460.1257  0.012692422  0.012023403         3766 
 3022000   0.75053792   -8.9452523    459.82508  0.012679933  0.012017506         3786 
 3023000   0.78367182   -8.9794684    458.40451  0.012636578  0.012011619         3793 
 3024000   0.75254396   -8.9166874    459.45706  0.012661405  0.012005729         3786 
 3025000   0.77593279   -8.9493652    459.80211  0.012666725  0.011999851         3765 
 3026000   0.75972441   -8.9385634    458.56295  0.012628413  0.011993974         3728 
 3027000   0.75587855   -8.9438859    458.84331   0.01263196  0.011988109         3766 
 3028000   0.77684173   -8.9417418      459.124  0.012635513  0.011982247         3784 
 3029000   0.77081368   -8.9565989    458.54345   0.01261537  0.011976387         3796 
 3030000   0.77723878   -8.9349616    459.20671  0.012629447   0.01197052         3793 
 3031000   0.78421696   -8.9786619     459.3631   0.01262958  0.011964666         3822 
 3032000   0.76288221   -8.9393646    460.58378  0.012658965  0.011958814         3757 
 3033000   0.77383485    -8.952678    460.54863  0.012653825  0.011952965         3814 
 3034000   0.74623621   -8.9398327    458.66645  0.012597958  0.011947118         3781 
 3035000   0.77961037   -8.9194936    460.23033  0.012636747  0.011941273         3766 
 3036000   0.75642108   -8.9699311    458.45056  0.012583733  0.011935433         3795 
 3037000   0.75276922   -8.9753018    458.96142  0.012593607  0.011929594         3774 
 3038000   0.77571454   -8.9414875     459.5478  0.012605546  0.011923762         3739 
 3039000   0.76800073   -8.9594907    459.45995   0.01259899  0.011917947         3791 
 3040000   0.76192321   -8.9794286    459.18181  0.012587221   0.01191213         3785 
 3041000   0.75157707   -8.9375548    459.27487  0.012585632  0.011906312         3814 
 3042000   0.76881006   -8.9479838    459.58519  0.012589995  0.011900494         3779 
 3043000   0.76489097   -8.9583152    458.78367  0.012563908  0.011894686         3775 
 3044000   0.76923654   -8.9594709    458.38576  0.012548887  0.011888872         3801 
 3045000   0.75104118   -8.9250278    458.99891  0.012561546  0.011883058         3783 
 3046000   0.78599566   -8.9572022    459.69348  0.012576425  0.011877252         3774 
 3047000   0.75142113   -8.9459596    458.15337  0.012530176  0.011871454         3767 
 3048000   0.77903834   -8.9576632    459.60399  0.012565726  0.011865662         3783 
 3049000   0.76670002   -8.9501125     459.8731   0.01256896  0.011859865         3751 
 3050000   0.75899728   -8.9351963    459.04345  0.012542171  0.011854071         3810 
 3051000   0.77466469   -8.9700495    459.81789  0.012559213  0.011848286         3765 
 3052000   0.76728223   -8.9557578    459.21686  0.012538687  0.011842504         3763 
 3053000   0.75925967    -8.961165    459.41672  0.012540035  0.011836721         3772 
 3054000    0.7800488   -8.9705081    459.12668  0.012528015  0.011830934         3788 
 3055000   0.75549739   -8.9551739    458.90883  0.012517971  0.011825149         3809 
 3056000   0.76024378   -8.9638198     458.6133  0.012505816  0.011819372         3753 
 3057000   0.76205972     -8.95741    458.97808  0.012511669  0.011813603         3774 
 3058000   0.76342077   -8.9307367    459.51933  0.012522327   0.01180783         3778 
 3059000   0.77195771   -8.9399636    459.52399  0.012518361  0.011802064         3780 
 3060000   0.77430318   -8.9658336    458.50598  0.012486546  0.011796304         3773 
 3061000   0.76211556   -8.9363525    459.46554   0.01250859  0.011790548         3785 
 3062000   0.76205097   -8.9700649    458.48322  0.012477771  0.011784791         3808 
 3063000   0.77273856   -8.9613254    459.42134   0.01249922  0.011779042         3783 
 3064000   0.76357946   -8.9761045    459.15432  0.012487879  0.011773288         3789 
 3065000    0.7706805   -8.9772725    459.66336  0.012497644  0.011767543         3798 
 3066000   0.76256788   -8.9762518    459.45396  0.012487877    0.0117618         3758 
 3067000   0.76016146   -8.9577108    460.30983   0.01250706   0.01175606         3773 
 3068000   0.75380656   -8.9161794    459.14696  0.012471397  0.011750331         3761 
 3069000   0.77053599   -8.9468886    460.43147  0.012502212  0.011744612         3795 
 3070000   0.77174622   -8.9869554    458.20947  0.012437825  0.011738891         3824 
 3071000   0.75289922   -8.9711889     459.0558  0.012456741  0.011733172         3771 
 3072000    0.7598275   -8.9550989    459.60277  0.012467523   0.01172745         3723 
 3073000   0.76180623   -8.9859457    458.88947  0.012444123  0.011721729         3766 
 3074000    0.7662768   -8.9483631    459.56276  0.012458327  0.011716011         3774 
 3075000   0.76608591   -8.9700211    458.21204   0.01241767  0.011710305         3786 
 3076000   0.76247525   -8.9698967    458.10206  0.012410654  0.011704594         3747 
 3077000   0.76924323   -8.9666055    458.74844  0.012424126  0.011698893         3757 
 3078000    0.7609501   -8.9527996    458.60135  0.012416108  0.011693192         3716 
 3079000   0.75676322   -8.9792991     459.3076   0.01243119  0.011687499         3783 
 3080000   0.76538624   -8.9816396    458.50415  0.012405415  0.011681808         3753 
 3081000    0.7846041   -8.9475202    459.35091  0.012424291  0.011676122         3766 
 3082000   0.75054362    -8.969003    458.43501  0.012395496  0.011670438         3718 
 3083000   0.74860476   -8.9828139    458.80334  0.012401431  0.011664747         3768 
 3084000   0.74777668   -8.9594498    458.59771  0.012391853  0.011659064         3756 
 3085000   0.76990516   -8.9760796    458.78124  0.012392794  0.011653383         3808 
 3086000   0.76012135   -8.9774152     458.7626  0.012388275  0.011647705         3784 
 3087000   0.75538151   -8.9578007    458.96235  0.012389654  0.011642028         3791 
 3088000   0.74629573   -8.9741417    457.20792  0.012338297  0.011636358         3774 
 3089000    0.7612423   -8.9417863    459.50776  0.012396346  0.011630695         3790 
 3090000   0.76454757    -8.950992    458.28035  0.012359233  0.011625039         3796 
 3091000   0.76118757     -8.95951    459.48902   0.01238782  0.011619378         3799 
 3092000   0.77635584   -8.9634165    459.10691  0.012373515  0.011613725         3780 
 3093000   0.73955232   -8.9916348    458.45869   0.01235205  0.011608083         3803 
 3094000   0.74915589   -8.9923234    458.68004   0.01235402  0.011602442         3796 
 3095000    0.7570518   -8.9622045    458.17923  0.012336544  0.011596801         3770 
 3096000   0.76575753   -8.9487707    458.34846  0.012337114  0.011591171         3805 
 3097000   0.75718709   -8.9511258    459.22538  0.012356726  0.011585534         3787 
 3098000   0.74860157   -8.9819369     457.9268  0.012317807  0.011579896         3775 
 3099000   0.73280345   -8.9762315    458.74893   0.01233594  0.011574267         3810 
 3100000   0.74833146   -8.9772357    458.71065  0.012330932  0.011568646         3800 
 3101000   0.75484727   -8.9718233    459.50474  0.012348295  0.011563022         3801 
 3102000   0.73862979   -8.9585851    458.99029  0.012330494  0.011557409         3828 
 3103000   0.75629311   -8.9774706    458.12157   0.01230319  0.011551793         3782 
 3104000   0.76194491    -8.971012    458.25756  0.012302877  0.011546182         3767 
 3105000   0.76269473   -8.9438448    460.00759  0.012345883   0.01154058         3802 
 3106000   0.75098616   -8.9854403    458.98593  0.012314497  0.011534971         3791 
 3107000   0.74416592   -8.9851154    458.10982  0.012287035  0.011529366         3788 
 3108000   0.76237455   -8.9838854    459.04011  0.012308025  0.011523756         3820 
 3109000     0.745484   -8.9359721    458.72531  0.012295628   0.01151815         3790 
 3110000   0.74890853   -8.9745667    459.18233  0.012303921  0.011512557         3814 
 3111000   0.76446548   -8.9704753    457.93488  0.012266551  0.011506957         3756 
 3112000   0.75299835   -8.9675424    459.75808  0.012311431  0.011501364         3748 
 3113000   0.74952135    -8.955603    458.81675  0.012282277  0.011495776         3770 
 3114000   0.74733836    -8.993507    459.06347  0.012284935  0.011490193         3801 
 3115000   0.75315428   -8.9754252     459.1788  0.012284077  0.011484607         3798 
 3116000   0.75344755   -8.9944977    459.29257  0.012283177  0.011479033         3799 
 3117000   0.74953568   -8.9741852    458.37988  0.012254836  0.011473457         3812 
 3118000   0.74615584   -8.9822292    458.75963  0.012261055  0.011467881         3797 
 3119000   0.75191333   -8.9762047    458.56836  0.012252013  0.011462315         3788 
 3120000   0.74176755   -8.9822752    458.63034  0.012249742  0.011456746         3776 
 3121000   0.76576227   -8.9756904    458.84205   0.01225147  0.011451192         3798 
 3122000    0.7452836    -9.002894    458.55482  0.012239879  0.011445633         3835 
 3123000   0.75701739   -9.0054689    458.67198  0.012239086  0.011440079         3779 
 3124000   0.74669347    -8.983922    457.73566  0.012210191  0.011434525         3791 
 3125000   0.73673445   -8.9930542    458.42037  0.012224543  0.011428979         3775 
 3126000   0.74163437   -8.9831087    459.24984  0.012242745  0.011423436         3796 
 3127000   0.73800755   -8.9859737    458.01557  0.012205937  0.011417898         3821 
 3128000   0.76298834   -8.9940522    458.56066  0.012216556  0.011412355         3792 
 3129000   0.73796742   -8.9744104    457.67966  0.012189189  0.011406815         3818 
 3130000   0.74539915   -9.0063375    457.78116  0.012187997  0.011401283         3805 
 3131000   0.75791319    -8.992668    458.57495  0.012205231  0.011395755         3778 
 3132000   0.74189951    -8.996053    459.43428  0.012224199  0.011390233         3786 
 3133000   0.75527254   -8.9825681    459.17687   0.01221345  0.011384711         3791 
 3134000   0.74594782    -8.961945     458.2903  0.012185979  0.011379188         3804 
 3135000   0.75324042   -8.9821528    459.24795  0.012207548  0.011373673         3809 
 3136000   0.76510675   -8.9979577    458.50993  0.012184044  0.011368157         3789 
 3137000   0.73719766   -9.0014909    457.94593  0.012165177   0.01136265         3796 
 3138000   0.74927704   -8.9982502    458.04907  0.012164039  0.011357142         3773 
 3139000   0.76203824   -8.9898594    458.81682  0.012180546   0.01135164         3845 
 3140000   0.73993922   -8.9791242    458.82254  0.012176819  0.011346146         3769 
 3141000   0.75362027   -9.0029604    458.13548  0.012154714  0.011340655         3834 
 3142000   0.74496043   -9.0033084    458.61414  0.012163541  0.011335165         3835 
 3143000   0.74635132   -8.9777788    459.62687  0.012186522  0.011329681         3814 
 3144000   0.72332997    -8.988081    458.82986  0.012161521  0.011324193         3848 
 3145000   0.75887768   -8.9759716    459.32643  0.012170812  0.011318712         3784 
 3146000   0.76483771   -8.9876109    459.43399  0.012169792  0.011313236         3821 
 3147000   0.75531774   -8.9780939    459.01261  0.012154767   0.01130777         3795 
 3148000   0.75588995   -8.9764069     458.9604  0.012149524  0.011302296         3810 
 3149000   0.76197895   -8.9944001    458.34942  0.012129497  0.011296824         3804 
 3150000   0.74510789   -8.9802534    458.06784  0.012118197  0.011291357         3784 
 3151000   0.73589939   -8.9511259     459.0758  0.012141008  0.011285899         3815 
 3152000   0.74936553   -8.9860921    457.62043  0.012098679   0.01128044         3819 
 3153000   0.75986608   -9.0022527    458.99603  0.012131199  0.011274982         3799 
 3154000   0.75332579   -8.9962994    458.82665  0.012122877  0.011269528         3820 
 3155000   0.74798668   -8.9977137    458.43701  0.012108743  0.011264081         3790 
 3156000    0.7331594   -8.9760368    458.92864  0.012117888   0.01125864         3782 
 3157000   0.74579638   -9.0083177    458.34799  0.012098722  0.011253192         3814 
 3158000   0.75880175   -8.9908481    458.23331  0.012091865  0.011247756         3824 
 3159000   0.75240258      -8.9954    458.65245  0.012099094  0.011242318         3789 
 3160000    0.7266979   -9.0032447    457.82174  0.012073358  0.011236882         3803 
 3161000   0.75333664   -8.9879998    459.48936  0.012113502  0.011231449         3806 
 3162000   0.75292697   -8.9815283    458.20462  0.012075812  0.011226028         3862 
 3163000   0.72980344   -9.0051653    457.66547   0.01205779  0.011220602         3847 
 3164000   0.73294685   -8.9904802    458.12466  0.012066073  0.011215183         3835 
 3165000   0.75407409   -8.9965735    458.14176  0.012062711  0.011209774         3792 
 3166000   0.73098934   -8.9662782    457.60061  0.012044657  0.011204359         3757 
 3167000   0.73145484   -8.9852219    458.63702  0.012068125  0.011198954         3818 
 3168000   0.72725959   -9.0079245     458.4533  0.012059483  0.011193548         3827 
 3169000   0.76579005   -9.0035871    457.57903  0.012032687  0.011188144         3839 
 3170000   0.75641087   -9.0055667    458.17789  0.012044634  0.011182748         3822 
 3171000   0.75213017   -8.9865528    458.13904  0.012039815  0.011177354         3790 
 3172000    0.7501211   -8.9885578    458.19945  0.012037606  0.011171956         3826 
 3173000   0.74356296   -9.0165096     458.4542  0.012040503  0.011166559         3830 
 3174000   0.74265147    -8.980622    459.46981  0.012063375  0.011161174         3804 
 3175000   0.74335375   -8.9892965    459.16138   0.01205148  0.011155789         3810 
 3176000   0.73969228   -8.9980168    458.33817  0.012026086  0.011150405         3818 
 3177000   0.73310868     -8.97515    458.15004  0.012017366   0.01114503         3806 
 3178000   0.75075447    -8.983306    458.42946  0.012020911  0.011139658         3834 
 3179000   0.74775011   -8.9709178    458.03312   0.01200674  0.011134288         3792 
 3180000   0.75025257   -8.9947864    458.08434  0.012004307  0.011128927         3796 
 3181000   0.75213556   -8.9727421    457.98813  0.011998013   0.01112356         3822 
 3182000   0.74135619    -9.024027    458.21106   0.01200008  0.011118202         3853 
 3183000   0.75327085   -9.0111104    457.82517  0.011986207  0.011112848         3806 
 3184000   0.75254016   -9.0166966     458.4368  0.011998451   0.01110749         3785 
 3185000   0.74657598   -8.9927499    458.15548  0.011987323   0.01110214         3793 
 3186000   0.74857376   -9.0070088    457.63929  0.011970059  0.011096792         3799 
 3187000   0.73867564   -9.0064529    457.84668  0.011971726  0.011091451         3799 
 3188000   0.74133902   -9.0103596    458.15574  0.011976049  0.011086104         3809 
 3189000   0.73823097   -9.0087189    457.63128  0.011958589  0.011080765         3752 
 3190000   0.73721411    -8.976633    459.00231  0.011990656  0.011075425         3789 
 3191000   0.75270057   -9.0117728    458.02206  0.011961299  0.011070089         3807 
 3192000   0.74412253   -9.0182315    457.56324  0.011945573  0.011064755         3799 
 3193000   0.73444557   -8.9778679    458.08151  0.011955358  0.011059429         3808 
 3194000   0.75145156    -8.996296    458.44627  0.011961132  0.011054107         3757 
 3195000   0.72536116   -9.0013043     458.2123  0.011951286  0.011048783         3799 
 3196000   0.76251586   -9.0193113    458.11682  0.011945057  0.011043466         3812 
 3197000    0.7366725   -9.0123308     458.2195  0.011943997  0.011038157         3804 
 3198000   0.73410358   -9.0158761    458.66936  0.011951984  0.011032847         3795 
 3199000   0.74027487   -8.9864162    458.15906  0.011934955  0.011027537         3768 
 3200000   0.74765277   -9.0148188    457.98206  0.011926616  0.011022234         3787 
 3201000   0.74050637   -9.0197675    458.20351  0.011928655   0.01101694         3798 
 3202000   0.75508025    -9.009969    458.30693  0.011927621  0.011011649         3782 
 3203000   0.74118986   -9.0073962    458.27243     0.011923  0.011006354         3792 
 3204000   0.72770452   -9.0356905    457.68031  0.011903878  0.011001065         3816 
 3205000    0.7289397   -9.0036576    457.58215  0.011897612  0.010995777         3800 
 3206000   0.74040611   -9.0104987    458.45599  0.011916614  0.010990494         3793 
 3207000   0.73765147   -9.0060685     457.8167  0.011896287  0.010985212         3788 
 3208000   0.73870936   -8.9908761     458.6741  0.011914851  0.010979926         3761 
 3209000   0.73936624   -9.0043924     458.5343  0.011907507  0.010974644         3789 
 3210000   0.74350216    -8.991084    458.37904  0.011899767  0.010969371         3779 
 3211000   0.73587012   -9.0259045    457.70915  0.011878676  0.010964102         3824 
 3212000   0.72628463   -9.0123509    458.88879  0.011905583  0.010958837         3786 
 3213000   0.74077826   -9.0094374    457.70531  0.011871182  0.010953569         3787 
 3214000   0.73539897   -9.0204798    457.47007  0.011861389  0.010948312         3807 
 3215000   0.72543794   -9.0061256    458.18349  0.011876192  0.010943054         3806 
 3216000   0.74147742   -9.0168829    458.15407  0.011871737  0.010937798         3808 
 3217000   0.75218368   -9.0374573    457.61511  0.011854085  0.010932545         3820 
 3218000   0.73657528   -9.0059817    457.23857  0.011840651    0.0109273         3789 
 3219000   0.74364247   -9.0278595    457.78537  0.011851128  0.010922044         3784 
 3220000   0.74219151   -9.0282477    458.24102   0.01185924  0.010916799         3794 
 3221000   0.74194025   -9.0415823    458.04168  0.011850401  0.010911557         3826 
 3222000   0.73703891   -9.0331687    458.28188  0.011852935   0.01090632         3807 
 3223000   0.73170891   -9.0328099    457.89606  0.011839282  0.010901084         3784 
 3224000   0.74009643   -9.0340696    457.20855  0.011817839   0.01089585         3756 
 3225000   0.72845157   -9.0162028    457.99129    0.0118344  0.010890623         3779 
 3226000   0.72960747   -9.0127781    457.29159  0.011812657  0.010885397         3788 
 3227000   0.73851612   -9.0218015    458.12836  0.011830605  0.010880175         3777 
 3228000   0.73180782   -9.0224482    456.76255  0.011791681  0.010874952         3753 
 3229000   0.73921754   -9.0359005    457.31974  0.011802409  0.010869731         3759 
 3230000   0.72581213   -9.0152698    456.54947  0.011778882  0.010864511         3777 
 3231000     0.747247   -9.0331196    457.97143  0.011811912  0.010859301         3785 
 3232000   0.72199629   -9.0396937    457.70053  0.011801272  0.010854091         3817 
 3233000   0.73685587   -8.9878881    458.28432  0.011812669  0.010848885         3805 
 3234000   0.73390037   -9.0062257    458.44732  0.011813217  0.010843684         3776 
 3235000    0.7314613   -9.0186075    457.51702  0.011785601  0.010838491         3813 
 3236000   0.72051587   -9.0294757    457.53401  0.011782396  0.010833304         3789 
 3237000   0.74364704   -8.9997779    457.86313  0.011787229  0.010828113         3820 
 3238000   0.74079244   -9.0152038    457.62801  0.011777538  0.010822929         3787 
 3239000   0.74966978   -9.0082229      457.724  0.011776371  0.010817747         3772 
 3240000   0.73580825   -8.9949942    458.16758  0.011784145  0.010812575         3770 
 3241000   0.72539054   -9.0395837    457.25103  0.011756943  0.010807394         3788 
 3242000   0.73268225   -9.0085735    458.15513  0.011776556  0.010802218         3816 
 3243000   0.73714798   -9.0394649    456.41199  0.011728132  0.010797044         3759 
 3244000   0.72109414   -9.0040441    457.99225  0.011765111  0.010791869         3782 
 3245000   0.74231545   -9.0314363    457.62966  0.011752174  0.010786705         3741 
 3246000   0.73729858   -9.0204879    457.95104  0.011756804  0.010781544         3782 
 3247000   0.73425658   -9.0349946     458.3643   0.01176379  0.010776377         3799 
 3248000   0.73833235   -8.9988047    457.83598  0.011746613  0.010771224         3777 
 3249000   0.74824571   -9.0017814    458.19467  0.011752197  0.010766073         3798 
 3250000    0.7324608   -9.0177435    457.01068  0.011718223  0.010760928         3792 
 3251000   0.73863311   -9.0384868     456.8184  0.011709689   0.01075578         3796 
 3252000   0.75181222   -9.0000515    458.14078  0.011739975  0.010750637         3756 
 3253000    0.7358029   -9.0570955    457.05133  0.011708457  0.010745492         3809 
 3254000   0.73072239   -9.0205074    458.13621  0.011732642  0.010740351         3791 
 3255000   0.72075371   -9.0200812    457.27248  0.011706925  0.010735219         3799 
 3256000   0.72517401   -9.0142746    457.97007  0.011721183  0.010730088         3809 
 3257000   0.74486943   -9.0065691    458.08876  0.011720621  0.010724963         3811 
 3258000   0.72408132   -9.0292027    457.76544  0.011708754  0.010719843         3822 
 3259000   0.73237103   -9.0321955    458.31437  0.011719197  0.010714724         3821 
 3260000   0.72437422   -8.9993316    458.36637  0.011716932  0.010709611         3780 
 3261000   0.74425727   -9.0495602    457.14141  0.011682035    0.0107045         3807 
 3262000   0.74342716   -9.0263467    457.76543  0.011694396  0.010699386         3763 
 3263000    0.7346444   -9.0147465    458.01731  0.011697245  0.010694278         3795 
 3264000   0.73526037   -9.0124296    457.52425  0.011681072  0.010689169         3801 
 3265000   0.73980428   -9.0242787    458.06628  0.011691329  0.010684063         3784 
 3266000   0.72782897   -9.0141423    457.85739   0.01168242  0.010678963         3837 
 3267000   0.73048565   -9.0306676    457.59233  0.011672083  0.010673869         3799 
 3268000   0.73495105   -9.0391506    457.35712  0.011662513  0.010668775         3802 
 3269000   0.73401805   -9.0402361    456.80516  0.011644875  0.010663692         3791 
 3270000   0.72460538   -9.0315598    458.35426  0.011680792   0.01065861         3788 
 3271000   0.72175148   -9.0351826    457.99896  0.011668169  0.010653532         3797 
 3272000    0.7078144   -9.0236101    458.04525  0.011665782  0.010648454         3796 
 3273000   0.72149008   -9.0221154    457.10607  0.011638305  0.010643378         3782 
 3274000   0.71072252   -9.0145617    457.86868  0.011654161  0.010638307         3805 
 3275000   0.73043648    -9.022141    457.29234  0.011635938  0.010633237         3762 
 3276000   0.73746035   -9.0164494    457.49718  0.011637596  0.010628172         3806 
 3277000   0.73759701   -9.0118758    457.70389  0.011639301  0.010623105         3786 
 3278000   0.73110464   -9.0434801    457.50431  0.011630677  0.010618041         3790 
 3279000   0.71896015   -9.0491379    457.56733  0.011628732  0.010612981         3808 
 3280000   0.75430586   -9.0264808    457.39144  0.011620718  0.010607923         3790 
 3281000     0.723499   -9.0209461    457.70713  0.011625194  0.010602864         3790 
 3282000   0.72583443   -9.0365471    457.48156  0.011615924  0.010597813         3813 
 3283000   0.72425501   -9.0620487    456.64809   0.01159123  0.010592764         3783 
 3284000   0.71138991   -9.0268917    458.39342  0.011631989  0.010587717         3778 
 3285000   0.74145383   -9.0352182    457.96181  0.011617499  0.010582671         3803 
 3286000   0.72554471   -9.0258422    457.97105  0.011614198  0.010577625         3785 
 3287000   0.71821661   -9.0296281    458.27873  0.011618465  0.010572582         3783 
 3288000   0.73249402   -9.0639518    458.01718  0.011608302   0.01056755         3772 
 3289000   0.72435356   -9.0499909    456.90221  0.011576523  0.010562516         3762 
 3290000   0.72484935   -9.0228549    456.97831  0.011574932  0.010557487         3770 
 3291000   0.74375141   -9.0262268    457.09068   0.01157426  0.010552458         3752 
 3292000   0.74242333   -9.0283302    457.52004  0.011581613  0.010547437         3788 
 3293000   0.72743038    -9.042297    456.71022  0.011557603  0.010542421         3826 
 3294000   0.71813916   -9.0330151     457.6353  0.011577497  0.010537401         3791 
 3295000   0.71107524   -9.0256508    457.03782  0.011558873  0.010532386         3764 
 3296000   0.71004813   -9.0421688    457.88502  0.011576785  0.010527375         3761 
 3297000   0.72994852   -9.0485057    458.30142  0.011583799  0.010522368         3820 
 3298000   0.73086904    -9.037772    457.79185  0.011567411  0.010517362         3796 
 3299000   0.71794057   -9.0242909    457.81851  0.011564578  0.010512361         3769 
 3300000    0.7205712   -9.0239062    457.41576  0.011550903  0.010507362         3794 
 3301000    0.7117839   -9.0312555    457.32063  0.011545002  0.010502361         3798 
 3302000    0.7325034   -9.0401106    458.31574   0.01156662  0.010497366         3798 
 3303000   0.72984388   -9.0446158     457.7731  0.011549427  0.010492373         3833 
 3304000   0.71606146    -9.016113    457.75469  0.011545467  0.010487388         3792 
 3305000   0.72455607   -9.0554438    457.69527  0.011540476  0.010482406         3801 
 3306000   0.72684573    -9.044855    457.23872  0.011525477   0.01047743         3830 
 3307000   0.71379042   -9.0387005    458.22456  0.011546834  0.010472455         3804 
 3308000   0.70269232   -9.0376699    457.62179  0.011528159  0.010467478         3805 
 3309000   0.71968911   -9.0200947    457.05981  0.011510522  0.010462509         3807 
 3310000   0.72240198   -9.0271818    456.91358  0.011503363  0.010457539         3830 
 3311000   0.72669439   -9.0346393    458.10364  0.011529841  0.010452575         3806 
 3312000   0.73607294   -9.0437349    456.48138  0.011485542  0.010447611         3816 
 3313000   0.72043721   -9.0167769    457.52399    0.0115083  0.010442649         3760 
 3314000   0.71778575   -9.0337929    458.18774  0.011521518  0.010437695         3771 
 3315000   0.71758628   -9.0381848     456.8596  0.011484656  0.010432748         3808 
 3316000   0.71350959   -9.0336089    457.66625  0.011501464  0.010427805         3776 
 3317000     0.717779   -9.0395718    457.59773  0.011496275  0.010422867         3800 
 3318000   0.71243233   -9.0362406    458.19789  0.011507883  0.010417922         3782 
 3319000   0.71599542   -9.0260135    458.06923  0.011501186  0.010412985         3817 
 3320000   0.71667975    -9.066706    457.52814   0.01148414   0.01040805         3795 
 3321000   0.73105376   -9.0267992    457.37657  0.011476879  0.010403124         3803 
 3322000   0.71220412    -9.023029    457.44996  0.011475265  0.010398194         3804 
 3323000   0.70123936   -9.0257775    456.89746  0.011457956  0.010393272         3786 
 3324000   0.72626177    -9.054353      457.312  0.011464902  0.010388357         3809 
 3325000   0.71957372   -9.0363248      457.442  0.011464712  0.010383436         3794 
 3326000   0.70224984   -9.0553597    456.82533  0.011445814  0.010378514         3845 
 3327000   0.69978548   -9.0650411    456.57778  0.011436173  0.010373605         3792 
 3328000   0.73319508    -9.060634    456.59439  0.011433153  0.010368684         3797 
 3329000   0.72352107   -9.0608433    457.58147  0.011454428  0.010363784         3767 
 3330000   0.71988767   -9.0547436    456.52227  0.011424481  0.010358876         3797 
 3331000   0.72569323   -9.0439289    457.40928  0.011443242  0.010353974         3788 
 3332000   0.71897793   -9.0725955    456.61902  0.011420044  0.010349071         3815 
 3333000   0.72396752   -9.0404675    458.26699  0.011457821  0.010344172         3797 
 3334000   0.70803595   -9.0570156     457.0262   0.01142337  0.010339279         3798 
 3335000   0.73154678   -9.0311758    456.87163  0.011416083  0.010334384         3793 
 3336000   0.71914636   -9.0404481    457.29212  0.011423165  0.010329493         3792 
 3337000   0.71867812   -9.0368912    458.07511  0.011439294  0.010324609         3786 
 3338000     0.720368   -9.0408627    456.45389  0.011395394  0.010319726         3801 
 3339000   0.71025492   -9.0397358    456.63656   0.01139654  0.010314846         3792 
 3340000   0.72562991   -9.0462964    457.84973  0.011423397  0.010309978         3804 
 3341000   0.73056427   -9.0514119     457.0027   0.01139885  0.010305107         3783 
 3342000   0.72572722   -9.0433959    456.37944  0.011379898   0.01030024         3812 
 3343000   0.71680378   -9.0664241    456.93811   0.01139042  0.010295374         3828 
 3344000   0.72073204   -9.0678678    456.75549  0.011382463   0.01029051         3823 
 3345000   0.72575075   -9.0331449      457.226  0.011390782  0.010285647         3827 
 3346000   0.72478471   -9.0261312    458.24567  0.011412773  0.010280793         3812 
 3347000   0.71252478   -9.0321121    457.22742  0.011384011  0.010275941         3794 
 3348000   0.72652561   -9.0459649    457.46124  0.011386431  0.010271092         3787 
 3349000   0.72076945   -9.0302087    457.84367  0.011392547   0.01026624         3805 
 3350000   0.71171654   -9.0570421    457.26639  0.011374786  0.010261395         3792 
 3351000   0.71548752   -9.0479702    456.57671   0.01135424  0.010256547         3798 
 3352000   0.71611061   -9.0695906    457.13987  0.011364853  0.010251704         3830 
 3353000   0.71902058   -9.0290511    458.32193  0.011390842  0.010246869         3762 
 3354000   0.73339253   -9.0650741    456.82132  0.011350162  0.010242029         3788 
 3355000   0.71681136   -9.0502597    456.64749  0.011342461  0.010237202         3781 
 3356000    0.7221305   -9.0521926    457.12271  0.011350882   0.01023237         3841 
 3357000   0.71850519   -9.0553538    457.35786  0.011353338  0.010227548         3793 
 3358000   0.71888793   -9.0576127    457.08779  0.011343255  0.010222723         3795 
 3359000   0.72146103   -9.0475727    457.96546  0.011361652  0.010217902         3752 
 3360000   0.71205832   -9.0490274    456.73369   0.01132772  0.010213083         3804 
 3361000   0.71608732   -9.0432445    457.07975   0.01133293  0.010208266         3808 
 3362000   0.71731583   -9.0635795    456.75412  0.011321488  0.010203451         3779 
 3363000   0.72523312   -9.0622021    457.26769  0.011330848  0.010198643         3758 
 3364000   0.70169241   -9.0457335    456.41399  0.011306332  0.010193835         3829 
 3365000   0.71392082    -9.058241    456.73602  0.011310946  0.010189029         3803 
 3366000   0.71651688   -9.0363605    457.15091  0.011317858  0.010184228         3819 
 3367000    0.7116024   -9.0472375     457.0859  0.011312887  0.010179433         3827 
 3368000    0.7110447   -9.0431492    456.93674  0.011305838  0.010174638         3805 
 3369000   0.72212064    -9.054643    456.62203  0.011294698  0.010169839         3831 
 3370000   0.70978719   -9.0620957     456.6459  0.011291936  0.010165044         3828 
 3371000   0.73068642   -9.0529435    457.38734  0.011306915  0.010160255         3821 
 3372000   0.72011906   -9.0610826    457.30088  0.011301425  0.010155466         3798 
 3373000   0.69985739   -9.0545333    456.37989  0.011275321   0.01015068         3827 
 3374000   0.70483522   -9.0637454    456.19898  0.011267511  0.010145899         3842 
 3375000   0.70952717    -9.069095    457.12204  0.011286964  0.010141116         3843 
 3376000   0.70196973   -9.0493183    456.79955   0.01127566  0.010136338         3816 
 3377000    0.6905742   -9.0772485    456.91887  0.011275266  0.010131561         3825 
 3378000    0.7207923   -9.0680972    457.24725  0.011280029  0.010126792         3796 
 3379000   0.69701943   -9.0493256    456.98378  0.011270193  0.010122023         3822 
 3380000   0.70287808   -9.0726069    456.71875  0.011260324  0.010117256         3804 
 3381000   0.70715699   -9.0313643    457.14112  0.011267404  0.010112493         3843 
 3382000   0.70477168   -9.0461429    457.01997  0.011261087  0.010107731         3819 
 3383000   0.71590435   -9.0489761    455.51188   0.01122061  0.010102973         3823 
 3384000   0.70450457   -9.0569611    456.85855  0.011250457  0.010098223         3838 
 3385000   0.72034947   -9.0534037    457.48708  0.011262607  0.010093473         3792 
 3386000   0.70311455   -9.0529104    457.12759  0.011250433  0.010088723         3828 
 3387000   0.69801079    -9.048642    457.22424  0.011249489  0.010083978         3846 
 3388000    0.7027806   -9.0373685    457.42279  0.011251053  0.010079234         3790 
 3389000   0.69433757   -9.0830648    457.10188  0.011239842  0.010074495         3835 
 3390000   0.69812402   -9.0588856    457.45319  0.011245162  0.010069761         3806 
 3391000   0.71504741   -9.0663312    457.15205  0.011234445  0.010065028         3846 
 3392000   0.70302657   -9.0416746    457.72157  0.011245125  0.010060303         3816 
 3393000   0.70528897   -9.0797288    457.46808  0.011235585   0.01005558         3815 
 3394000   0.69224195    -9.053539    457.35075  0.011229394  0.010050862         3824 
 3395000   0.70806487   -9.0857373    456.09295  0.011195212  0.010046138         3822 
 3396000   0.70565582   -9.0733576     457.3115  0.011221817   0.01004142         3816 
 3397000   0.70024185   -9.0466612    457.17526  0.011215172  0.010036703         3784 
 3398000   0.69482485   -9.0641844    456.69683  0.011200138  0.010031996         3782 
 3399000   0.70119941   -9.0614117    457.32609  0.011212271   0.01002729         3798 
 3400000   0.72355122   -9.0572166    457.12284  0.011203991  0.010022585         3838 
 3401000   0.70322715   -9.0423868    456.11591  0.011176024  0.010017883         3835 
 3402000   0.69719204   -9.0824625    456.07368  0.011171705  0.010013179         3822 
 3403000   0.69800276   -9.0451693    456.78447  0.011185828  0.010008487         3799 
 3404000   0.70434869   -9.0622737    456.63062  0.011178775  0.010003795         3811 
 3405000   0.70314152   -9.0417085    457.79456  0.011203978 0.0099991032         3802 
 3406000    0.7001103   -9.0281901    456.91609  0.011179196 0.0099944178         3777 
 3407000   0.70326611   -9.0765445    456.25002  0.011159623 0.0099897348         3845 
 3408000   0.69504324   -9.0702123    456.90914  0.011172465 0.0099850523         3797 
 3409000    0.7113206   -9.0794113    456.24971  0.011153068 0.0099803723         3841 
 3410000   0.71470813   -9.0635857    456.08565  0.011145788 0.0099756931         3785 
 3411000   0.70549129   -9.0732458    457.03683  0.011165759 0.0099710211         3847 
 3412000    0.7106285   -9.0683664    456.74948  0.011155468 0.0099663534         3823 
 3413000   0.72255069     -9.08203    456.71413  0.011151336 0.0099616885         3833 
 3414000   0.70514428   -9.0696133    456.25062  0.011136756 0.0099570291         3815 
 3415000   0.71182611   -9.0623207    456.52701  0.011140239  0.009952366         3764 
 3416000   0.70277128   -9.0734352    456.60489  0.011138878 0.0099477148         3826 
 3417000   0.71706114   -9.0661143     456.1352  0.011124164 0.0099430609         3832 
 3418000   0.69192383   -9.0600054    457.42095  0.011152257 0.0099384087         3815 
 3419000   0.71401846   -9.0595363    457.43543  0.011149347 0.0099337621         3798 
 3420000   0.69605685   -9.0835804    456.34987  0.011119636 0.0099291198         3816 
 3421000    0.6996061   -9.0651693    456.24491  0.011113829 0.0099244736         3815 
 3422000   0.70888995   -9.0504235    457.55709  0.011142536 0.0099198364         3812 
 3423000   0.70426671   -9.0697365    457.56684  0.011139518  0.009915202         3853 
 3424000   0.70196781   -9.0876111    456.75344  0.011116468 0.0099105651         3854 
 3425000   0.69251643   -9.0643662     457.1118  0.011121941 0.0099059343         3817 
 3426000   0.68960986   -9.0782688    456.40396  0.011101478 0.0099013024         3827 
 3427000   0.70544101   -9.0638198    456.85644  0.011109241 0.0098966744         3854 
 3428000   0.69862769   -9.0823354    456.46344  0.011096447 0.0098920519         3828 
 3429000   0.69965142    -9.074754    456.97028  0.011105528 0.0098874297         3852 
 3430000   0.70171364   -9.0611314    456.90697  0.011100752 0.0098828062         3843 
 3431000   0.69333872   -9.0608719    457.02303  0.011100336 0.0098781877         3828 
 3432000   0.70527543   -9.0789577    456.93575  0.011094982 0.0098735733         3856 
 3433000   0.71482733   -9.0780623    457.17213  0.011097488 0.0098689622         3848 
 3434000   0.71006123   -9.0733559    457.30086  0.011097381 0.0098643553         3816 
 3435000   0.70508057   -9.0987543    455.46657   0.01104965 0.0098597453         3853 
 3436000   0.71676932   -9.0702385    456.81544  0.011079148 0.0098551345         3827 
 3437000   0.70211452    -9.072525    457.05247  0.011081672 0.0098505353         3839 
 3438000   0.69762921   -9.0947121    456.03143    0.0110537 0.0098459419         3845 
 3439000   0.69681827   -9.0833072    456.03289  0.011050521 0.0098413459         3850 
 3440000   0.69504319   -9.0434925    456.86536  0.011067475 0.0098367604         3808 
 3441000   0.70068835   -9.0883184    456.53323  0.011056215 0.0098321749         3835 
 3442000   0.69688531   -9.0728925    456.66307  0.011056146 0.0098275833         3844 
 3443000   0.69180466   -9.0823998    456.56899  0.011050658 0.0098230015         3818 
 3444000   0.69539946   -9.0721777    456.60888  0.011048415 0.0098184226         3804 
 3445000    0.7024053   -9.0729893    457.17799  0.011058974 0.0098138424         3806 
 3446000   0.69138346   -9.0797439    457.37605  0.011060555 0.0098092708         3845 
 3447000   0.71000692   -9.0961183    456.30006  0.011031333 0.0098046973         3817 
 3448000   0.69959221   -9.0930269    455.30211  0.011004015 0.0098001247         3834 
 3449000   0.69343247   -9.0638771    456.52755  0.011030433 0.0097955533         3820 
 3450000    0.7021471   -9.0455635     456.8209  0.011034321 0.0097909907         3837 
 3451000    0.7057002   -9.0605435    457.57555  0.011049347 0.0097864328         3827 
 3452000    0.6877755   -9.0763703    455.85783  0.011004679 0.0097818731         3827 
 3453000   0.70999415   -9.0706659     456.1672  0.011008958  0.009777322         3825 
 3454000   0.70442309   -9.0883349    456.09085  0.011003929 0.0097727687         3835 
 3455000   0.70682215   -9.0773397    456.71953  0.011015908 0.0097682171         3819 
 3456000   0.70264098   -9.0932904    457.17582  0.011023723 0.0097636617         3831 
 3457000   0.69723234   -9.0799573    456.33194  0.011000191  0.009759114         3828 
 3458000    0.6991772   -9.0850311    455.80943  0.010984419 0.0097545697         3845 
 3459000   0.68477516   -9.0572475    456.55901  0.010999302 0.0097500272         3828 
 3460000   0.68671604   -9.0652667    457.01956  0.011007215 0.0097454835         3864 
 3461000   0.69452776   -9.0825037    456.74135  0.010997336 0.0097409445         3830 
 3462000   0.69317045   -9.0519549    456.97852  0.010999868 0.0097364089         3815 
 3463000   0.71998875   -9.0585877    456.14164  0.010976553 0.0097318818         3840 
 3464000    0.7030485   -9.0700338    456.93609  0.010992496 0.0097273553         3812 
 3465000   0.68851116   -9.0644997    456.20527  0.010971748 0.0097228257         3830 
 3466000   0.68255559   -9.0540792    456.76385  0.010982012 0.0097183048         3834 
 3467000   0.70369718   -9.1041546    456.37685  0.010969543 0.0097137893         3854 
 3468000   0.69666283   -9.0825075    456.94458  0.010980022 0.0097092737         3857 
 3469000   0.70116515   -9.0785304    457.22693  0.010983639 0.0097047607         3848 
 3470000   0.68410468   -9.0561541    456.89892  0.010972597 0.0097002536         3845 
 3471000   0.68936613    -9.109433    456.91304  0.010969774  0.009695744         3846 
 3472000   0.69506655   -9.0918155    456.08611  0.010946767 0.0096912351         3865 
 3473000   0.69866902   -9.0851151    456.09296   0.01094378 0.0096867298         3831 
 3474000   0.68638162   -9.0908964      456.991  0.010962171 0.0096822236         3861 
 3475000   0.68370807   -9.0829182    455.79768    0.0109304 0.0096777222         3830 
 3476000   0.70938071   -9.0968829    456.13599  0.010935366 0.0096732274         3836 
 3477000   0.68613355   -9.0836715     456.4116  0.010938827 0.0096687333         3841 
 3478000   0.72575519   -9.0997371    455.93908   0.01092436 0.0096642405         3858 
 3479000   0.70061059    -9.087641    456.44155  0.010933255 0.0096597501         3830 
 3480000   0.69247813   -9.0869247    456.35358  0.010928007 0.0096552582         3853 
 3481000   0.67597311   -9.0995955    456.70419  0.010933261 0.0096507725         3865 
 3482000   0.69067403   -9.0763789    456.74918  0.010931198 0.0096462925         3872 
 3483000   0.68383772   -9.1042085    455.78179  0.010904914 0.0096418123         3867 
 3484000   0.70605364   -9.0894336    455.99188  0.010906809 0.0096373404         3832 
 3485000   0.70980485   -9.1031753    456.28817  0.010910764  0.009632867         3853 
 3486000   0.68532174   -9.0959442    455.54802  0.010889941 0.0096283957         3874 
 3487000   0.69081402   -9.0895509    456.60731  0.010912133 0.0096239224         3817 
 3488000   0.69807184   -9.0926944     456.7053  0.010911346 0.0096194524         3836 
 3489000   0.68683683   -9.0840461    455.98921  0.010891115 0.0096149793         3855 
 3490000   0.69006116    -9.091919     457.0123  0.010912424 0.0096105141         3844 
 3491000   0.70352152   -9.0870175    456.61932  0.010899917 0.0096060535         3841 
 3492000   0.68620639   -9.1091282    455.95328  0.010880901 0.0096016031         3860 
 3493000   0.67921312   -9.0984881    455.84789  0.010875272 0.0095971475         3849 
 3494000   0.70926993   -9.0945362    456.13659  0.010879045 0.0095926961         3848 
 3495000   0.68980584   -9.0932491    456.43222  0.010882981 0.0095882573         3851 
 3496000   0.71040713   -9.0977444    456.41517  0.010879462  0.009583814         3864 
 3497000   0.68909444   -9.1084645    455.84853  0.010862848 0.0095793743         3837 
 3498000   0.68551778   -9.0650422    455.64608  0.010854919 0.0095749328         3858 
 3499000    0.6906071    -9.086135    456.26587  0.010866578 0.0095704979         3832 
 3500000   0.68683704   -9.0960115     457.4073   0.01089065 0.0095660633         3835 
 3501000    0.6893806   -9.0791518      456.898  0.010875417 0.0095616324         3844 
 3502000   0.68664374   -9.1282841    456.29141  0.010857877 0.0095572044         3867 
 3503000   0.67657522   -9.0940708    455.79122  0.010842878 0.0095527795         3833 
 3504000   0.71205419   -9.0904503    456.26074   0.01085095 0.0095483575         3864 
 3505000   0.68392855   -9.0976823    456.00572  0.010841791 0.0095439377         3846 
 3506000   0.68452028   -9.1033273    456.13049  0.010841664 0.0095395204         3881 
 3507000   0.68932969   -9.1220416    456.76184  0.010853575 0.0095351061         3870 
 3508000   0.68788646   -9.1040323    456.83867  0.010852306 0.0095306938         3875 
 3509000   0.69606455   -9.1010604    456.25106  0.010835258  0.009526286         3848 
 3510000   0.68020139   -9.0802346    456.19697  0.010830887 0.0095218728         3830 
 3511000   0.69113235   -9.1038504      456.596  0.010837273  0.009517472         3850 
 3512000   0.69627043   -9.1065425    456.64079   0.01083525 0.0095130721         3838 
 3513000   0.68868827   -9.1028081    455.64186   0.01080847 0.0095086789         3866 
 3514000   0.69271047    -9.110912    455.91208  0.010811802 0.0095042791         3861 
 3515000    0.6947422   -9.0925585     456.0103  0.010811055  0.009499885         3821 
 3516000   0.69920626   -9.0984941    456.34165  0.010815833 0.0094954926         3843 
 3517000   0.68795698   -9.0935305    455.86897  0.010801558 0.0094911014         3841 
 3518000   0.68235076   -9.1003594    455.75308  0.010795743 0.0094867124         3822 
 3519000   0.69625364   -9.1000878     456.1794  0.010802771 0.0094823262         3856 
 3520000   0.69461886   -9.1179469    455.92994  0.010793796 0.0094779454         3846 
 3521000   0.67520132   -9.0934404    456.22514  0.010797717 0.0094735577         3853 
 3522000    0.6854601   -9.1340071    455.38295  0.010774724 0.0094691765         3854 
 3523000   0.68465786   -9.1029785    456.48331  0.010797694 0.0094647994         3840 
 3524000   0.68984919   -9.1224107    456.39468  0.010792534 0.0094604284         3869 
 3525000    0.6896336   -9.0998331    456.49829  0.010791922 0.0094560616         3834 
 3526000   0.69088463    -9.084759    456.03518  0.010777916 0.0094516962         3824 
 3527000   0.70458387   -9.0957851    456.02354  0.010774585 0.0094473322         3874 
 3528000   0.67223092   -9.1009111    456.37952   0.01077994 0.0094429692         3872 
 3529000   0.69836201   -9.1160055    456.00132  0.010767954 0.0094386101         3846 
 3530000   0.69487059   -9.1057509    455.67305  0.010757154 0.0094342544         3865 
 3531000   0.66683216   -9.1040782    456.03205   0.01076258 0.0094299005         3864 
 3532000   0.68307564   -9.1020456    455.97014  0.010758072 0.0094255482         3855 
 3533000   0.67516135   -9.1027563    456.54295  0.010768538 0.0094211976         3836 
 3534000   0.68248923   -9.1129161    456.01325  0.010753001 0.0094168465         3867 
 3535000   0.67999765   -9.1231384    455.13897  0.010729349  0.009412503         3870 
 3536000   0.69210828   -9.1105289     456.8814  0.010767378 0.0094081603         3825 
 3537000   0.68220602   -9.0804022    456.89568  0.010764671 0.0094038238         3851 
 3538000   0.68972508   -9.1060374    455.42518  0.010726992 0.0093994863         3852 
 3539000   0.67459535   -9.0942938    456.93925  0.010759613 0.0093951497         3847 
 3540000   0.67566844   -9.0948939    456.43683  0.010744746 0.0093908149         3864 
 3541000   0.68175837   -9.1248509    456.51526  0.010743558 0.0093864873         3866 
 3542000   0.68949793    -9.102244    456.47202  0.010739507 0.0093821672         3852 
 3543000   0.70061568      -9.1037    456.27604  0.010731867 0.0093778483         3851 
 3544000   0.66663584   -9.1232011    455.95273  0.010721236  0.009373531         3845 
 3545000    0.6801053   -9.1235322     454.9412  0.010694433 0.0093692149         3892 
 3546000   0.68151121   -9.1152478    455.73695  0.010710118 0.0093649015         3858 
 3547000   0.67564451   -9.1102958    456.52503  0.010725614  0.009360588         3855 
 3548000   0.68918218   -9.0877629    456.02378  0.010710818 0.0093562798         3855 
 3549000   0.67213925   -9.1022369    456.55055  0.010720169 0.0093519721         3868 
 3550000    0.6886519   -9.1047793    455.80501  0.010699648  0.009347665         3870 
 3551000   0.67651573   -9.1022753    456.66769   0.01071688 0.0093433645         3866 
 3552000   0.68620046   -9.1009288    456.65938  0.010713668 0.0093390652         3864 
 3553000   0.68279497   -9.1105395    455.68616  0.010687826  0.009334772         3827 
 3554000   0.69075462   -9.0965332    455.33252  0.010676527 0.0093304747         3860 
 3555000   0.67714802   -9.1234642    455.57642  0.010679241 0.0093261816         3823 
 3556000    0.6706166     -9.11715    456.10251  0.010688566 0.0093218933         3864 
 3557000   0.67634799   -9.1126856    456.78781  0.010701617 0.0093176044         3849 
 3558000    0.6749188   -9.1096452    454.91951  0.010654851  0.009313323         3832 
 3559000   0.68152813   -9.1123192    455.73158  0.010670871 0.0093090392         3845 
 3560000   0.67283078   -9.1076084    455.64574  0.010665865 0.0093047635         3833 
 3561000   0.65936746    -9.123563    456.20381  0.010675929 0.0093004846         3879 
 3562000   0.68594856   -9.0933017    456.41503  0.010677874 0.0092962158         3864 
 3563000   0.68102612   -9.1174955    457.10325  0.010690973 0.0092919475         3842 
 3564000   0.67749526   -9.1238106    455.77133  0.010656831  0.009287678         3834 
 3565000   0.67946518   -9.1040713    456.28161  0.010665769 0.0092834146         3841 
 3566000    0.6776407   -9.0979355    456.48899  0.010667625 0.0092791546         3838 
 3567000   0.67700675   -9.1171975    455.66698   0.01064543 0.0092748987         3868 
 3568000   0.68728444   -9.1127145    455.92187  0.010648399 0.0092706416         3894 
 3569000   0.67512828   -9.1055137    455.98533  0.010646898 0.0092663851         3883 
 3570000   0.68355697    -9.110454    455.66608  0.010636463  0.009262137         3872 
 3571000   0.68317916   -9.1145639     455.7994  0.010636596 0.0092578854         3874 
 3572000   0.68084677   -9.1074321     455.4949  0.010626514 0.0092536377         3872 
 3573000   0.67338943   -9.1211454    455.15528  0.010615619 0.0092493984         3883 
 3574000      0.69038   -9.1472275    455.92122  0.010630508 0.0092451547         3860 
 3575000   0.67584951   -9.1325148    455.65026  0.010621218 0.0092409123         3832 
 3576000   0.66354893   -9.1151209    455.56038  0.010616153 0.0092366749         3835 
 3577000   0.66272269   -9.1095131    455.35264  0.010608346 0.0092324372         3879 
 3578000   0.68837238   -9.1332525     455.5061  0.010608955 0.0092282044         3820 
 3579000   0.67302898   -9.1091141     456.1141  0.010620148 0.0092239763         3853 
 3580000   0.67004785   -9.0945633    455.63481  0.010606024 0.0092197482         3835 
 3581000   0.67577689   -9.0999317    455.35337  0.010596513 0.0092155262         3821 
 3582000    0.6777913   -9.1031962    455.80664    0.0106041  0.009211303         3826 
 3583000   0.68418397   -9.1214098    455.26075  0.010588444 0.0092070874         3851 
 3584000   0.67723278   -9.1357223    454.86844  0.010576368 0.0092028771         3864 
 3585000   0.68018623   -9.1147775    456.06334  0.010601193  0.009198664         3849 
 3586000   0.68022637   -9.1220524    456.12596  0.010599692 0.0091944545         3844 
 3587000   0.69105578   -9.1106761    456.05624  0.010595118 0.0091902475         3848 
 3588000   0.67198385   -9.1232208    455.90321   0.01058861 0.0091860455         3843 
 3589000   0.67476803   -9.1265827    456.11913  0.010590674  0.009181845         3867 
 3590000   0.68005679    -9.109504    455.28504  0.010568362 0.0091776453         3833 
 3591000   0.68898522   -9.0986674    455.52477  0.010570982 0.0091734512         3858 
 3592000   0.68808698   -9.1372616    455.36812  0.010564405 0.0091692592         3876 
 3593000   0.66862967   -9.1040041    456.19509  0.010580645 0.0091650682         3830 
 3594000   0.64993322   -9.1087306    456.32114  0.010580624 0.0091608776         3847 
 3595000   0.66825213   -9.1378891    456.01023  0.010570474 0.0091566878         3854 
 3596000    0.6620593    -9.114832    455.68872  0.010560083  0.009152499         3867 
 3597000    0.6747556   -9.1157421    456.83052    0.0105836 0.0091483161         3844 
 3598000   0.68370595   -9.1334785    454.73789  0.010532191 0.0091441357         3877 
 3599000   0.66729487   -9.1263002    456.19166  0.010562926 0.0091399563         3837 
 3600000   0.66952286   -9.1148784    455.44242  0.010542649  0.009135783         3875 
 3601000   0.66502738   -9.1295877    455.97599  0.010552069 0.0091316085         3842 
 3602000   0.67236627   -9.1206053    456.35224  0.010557844 0.0091274358         3849 
 3603000   0.65586469   -9.1330541    455.83326   0.01054291 0.0091232684         3866 
 3604000   0.66954216   -9.1161436    455.67205  0.010536257 0.0091191018         3856 
 3605000   0.66530166   -9.1177624    455.38783  0.010526764  0.009114938         3859 
 3606000   0.67219029   -9.1500193    454.57679  0.010505102 0.0091107776         3885 
 3607000   0.65523605    -9.140212    455.38067  0.010520762 0.0091066161         3859 
 3608000   0.66531042   -9.1300897    455.83377  0.010528311 0.0091024598         3866 
 3609000   0.67487355   -9.1203278     454.9577  0.010505165 0.0090983067         3858 
 3610000   0.66359415   -9.1386498    455.49094  0.010514565  0.009094158         3876 
 3611000   0.66191887   -9.1388376    455.48856  0.010511598 0.0090900075         3864 
 3612000   0.68213286   -9.1271719    455.45036  0.010507806 0.0090858655         3869 
 3613000   0.67778528   -9.1175167    455.39727  0.010503673 0.0090817225         3877 
 3614000   0.66740077   -9.1468512    455.75885  0.010509105 0.0090775849         3878 
 3615000   0.66956252   -9.1428588    455.33282  0.010496377 0.0090734479         3869 
 3616000   0.66262556   -9.1418511    455.38958  0.010494782 0.0090693085         3865 
 3617000   0.65848511   -9.1376294    455.19395  0.010487373 0.0090651734         3854 
 3618000   0.67121181   -9.1336055    455.07656  0.010481771 0.0090610403         3862 
 3619000   0.65787327   -9.1327382    455.49933  0.010488609 0.0090569115         3858 
 3620000   0.66597065   -9.1284991    455.61301  0.010488329 0.0090527864         3842 
 3621000   0.67595827   -9.1485915    454.95163  0.010470212 0.0090486646         3867 
 3622000    0.6614371   -9.1314064    455.15548  0.010472011  0.009044546         3845 
 3623000   0.66413108   -9.1132797    455.45326   0.01047597 0.0090404324         3851 
 3624000   0.67020045   -9.1329584    456.15348   0.01048918 0.0090363154         3831 
 3625000   0.66137556   -9.1442723    454.71431  0.010453203 0.0090321989         3873 
 3626000   0.65813718   -9.1435703    456.06945  0.010481464 0.0090280865         3841 
 3627000   0.65504114   -9.1137698    455.22492   0.01045917 0.0090239779         3851 
 3628000   0.67012675   -9.1400964    455.23753  0.010456577 0.0090198719         3856 
 3629000   0.68083004   -9.1213322    454.85639  0.010444943 0.0090157675         3838 
 3630000   0.67335449   -9.1190747    455.13043  0.010448357 0.0090116656         3810 
 3631000   0.68547026   -9.1375957    455.16789  0.010446339 0.0090075674         3844 
 3632000   0.67688049    -9.125292    455.84419   0.01045898 0.0090034693         3811 
 3633000   0.66872929   -9.1275276    455.28206  0.010443207  0.008999374         3847 
 3634000   0.68923729   -9.1255912    454.37103  0.010419442 0.0089952788         3832 
 3635000   0.66334234   -9.1395969    454.80979  0.010426634 0.0089911876         3863 
 3636000   0.67431951   -9.1563046    455.28322  0.010434617 0.0089870988         3876 
 3637000   0.67609071   -9.1606856    454.88042  0.010422519 0.0089830141         3834 
 3638000   0.66635142   -9.1573309     455.2401  0.010427893 0.0089789294         3851 
 3639000   0.66997564   -9.1557604    454.87277  0.010416616 0.0089748496         3864 
 3640000   0.67132508   -9.1465167    455.29916  0.010423516 0.0089707726         3865 
 3641000    0.6577133   -9.1225854    455.35496   0.01042193 0.0089666991         3826 
 3642000   0.66130398   -9.1491388    455.32613  0.010418409 0.0089626264         3833 
 3643000    0.6593025   -9.1524567    454.41992  0.010394819 0.0089585542         3860 
 3644000   0.67644401   -9.1424232    454.43856  0.010392393  0.008954486         3842 
 3645000   0.65790991   -9.1430462    455.30557  0.010409364 0.0089504233         3810 
 3646000   0.66896581   -9.1405922    455.10641  0.010401957 0.0089463599         3869 
 3647000   0.66234254   -9.1508363    455.10617  0.010399099 0.0089422961         3873 
 3648000   0.66947085   -9.1411747    454.92256  0.010392054 0.0089382376         3864 
 3649000   0.67577516   -9.1486834    455.01619  0.010391345 0.0089341843         3819 
 3650000   0.66056724   -9.1426671    455.38701  0.010396964 0.0089301326         3834 
 3651000   0.68322174   -9.1404045    455.08171  0.010387148 0.0089260791         3857 
 3652000   0.65636668   -9.1419112    456.02537  0.010405836   0.00892203         3867 
 3653000   0.67557213   -9.1412825    455.08129  0.010381451  0.008917983         3859 
 3654000   0.67500847    -9.138435    454.91868  0.010374902  0.008913934         3868 
 3655000   0.65484345   -9.1489547    455.10634  0.010376342 0.0089098885         3861 
 3656000   0.66678326   -9.1466602    455.40929  0.010380409 0.0089058432         3847 
 3657000   0.67704313   -9.1381375    455.26851  0.010374362  0.008901805         3829 
 3658000   0.67179728   -9.1216157    455.42786  0.010375156 0.0088977701         3878 
 3659000   0.66572161   -9.1261882    455.41787  0.010372093  0.008893739         3866 
 3660000   0.67074982   -9.1200768    455.65781  0.010374722  0.008889709         3841 
 3661000   0.65577713   -9.1471781      454.381  0.010342825 0.0088856838         3852 
 3662000   0.66814382   -9.1306315    455.45431  0.010364425 0.0088816553         3860 
 3663000   0.66227751    -9.142713    456.11108  0.010376537 0.0088776303         3850 
 3664000   0.66593739    -9.128088    455.63868  0.010362961 0.0088736078         3829 
 3665000   0.65525237   -9.1421952    455.01885   0.01034604 0.0088695863         3862 
 3666000   0.65842998   -9.1469572    454.91314  0.010340815 0.0088655696         3855 
 3667000   0.66136373   -9.1592417    455.05419  0.010341201 0.0088615597         3853 
 3668000    0.6648724   -9.1548287    455.65017  0.010351921 0.0088575511         3880 
 3669000    0.6687347   -9.1566045    455.49315  0.010345534 0.0088535422         3828 
 3670000   0.67249789   -9.1536949    454.93214  0.010329976 0.0088495411         3842 
 3671000   0.66366952   -9.1456821    455.60783    0.0103425  0.008845538         3860 
 3672000   0.65300221   -9.1437718    455.24854   0.01033153 0.0088415401         3888 
 3673000   0.65813022   -9.1405775    455.16545  0.010326832 0.0088375424         3853 
 3674000   0.65353545   -9.1480753    455.19634  0.010324722 0.0088335441         3901 
 3675000   0.67870599    -9.148969    455.07461  0.010319152 0.0088295495         3835 
 3676000   0.67133894   -9.1410553    455.27047  0.010320785 0.0088255598         3847 
 3677000   0.66160804   -9.1402506    455.35837   0.01031997 0.0088215739         3860 
 3678000   0.65343579   -9.1487755    454.47242  0.010297091 0.0088175926         3826 
 3679000   0.67201863   -9.1101011    454.53745  0.010295765 0.0088136116         3851 
 3680000   0.66478261   -9.1294174     455.4283  0.010313141 0.0088096316         3824 
 3681000   0.67059237   -9.1422356    455.09658  0.010302829  0.008805654         3798 
 3682000    0.6621764   -9.1517347    453.87702  0.010272429 0.0088016792         3848 
 3683000    0.6528455   -9.1378903    454.95774  0.010294093 0.0087977028         3865 
 3684000   0.65054366   -9.1280305    454.71323  0.010285768 0.0087937271         3826 
 3685000   0.66446649   -9.1612137    454.81721  0.010285328  0.008789761         3854 
 3686000   0.66923666   -9.1445567    454.39057  0.010272892 0.0087857912         3839 
 3687000   0.65471917   -9.1762965    454.89823   0.01028158 0.0087818243         3856 
 3688000   0.65988398   -9.1395992    455.05958  0.010282438 0.0087778586         3836 
 3689000    0.6635816   -9.1566876    454.67333  0.010270926 0.0087738986         3833 
 3690000   0.65167932   -9.1567995    454.17833  0.010256963 0.0087699402         3862 
 3691000   0.66430513   -9.1539583    455.18902  0.010277003 0.0087659875         3838 
 3692000   0.65486387   -9.1366496    454.79468  0.010265319 0.0087620333         3838 
 3693000   0.66312692   -9.1621067    455.26452  0.010273141 0.0087580824         3844 
 3694000    0.6650635   -9.1447186    455.09994  0.010266647 0.0087541333         3812 
 3695000   0.65862911    -9.136404    454.40866  0.010248278 0.0087501882         3838 
 3696000   0.67410781   -9.1332817    455.84567  0.010277906 0.0087462465         3844 
 3697000   0.67000596   -9.1493401    454.83887  0.010252431 0.0087423044         3828 
 3698000   0.65515864   -9.1503292    454.42691  0.010240376 0.0087383682         3825 
 3699000   0.66426874   -9.1365051    455.58312  0.010263655 0.0087344332         3830 
 3700000   0.66042853   -9.1567936    454.91828  0.010245907 0.0087304989         3844 
 3701000   0.64969759    -9.156759    455.07545  0.010246678 0.0087265677         3834 
 3702000   0.63695101   -9.1560197    454.82286  0.010238224 0.0087226362         3837 
 3703000   0.68276063   -9.1278177     455.1004  0.010241705 0.0087187058         3845 
 3704000   0.64591687   -9.1632096    454.84057  0.010233094 0.0087147779         3849 
 3705000   0.66819512   -9.1326893    455.81594   0.01025227 0.0087108583         3858 
 3706000   0.65817352   -9.1580325    453.98891  0.010208421 0.0087069368         3858 
 3707000   0.66429039   -9.1647404    454.22882  0.010211061 0.0087030214         3847 
 3708000   0.66766781   -9.1623964    454.31664   0.01021028 0.0086991056         3821 
 3709000   0.67090356   -9.1393605    454.66261  0.010215301 0.0086951907         3811 
 3710000   0.65815637   -9.1494368    455.52576  0.010231935 0.0086912777         3837 
 3711000   0.67139009   -9.1612774    455.16066  0.010220979 0.0086873663         3880 
 3712000   0.66420768    -9.146013     454.4943  0.010203266 0.0086834575         3830 
 3713000   0.65769683    -9.179646    455.50074  0.010223107 0.0086795519         3829 
 3714000   0.64462532   -9.1551939    455.46071  0.010219456 0.0086756497         3788 
 3715000   0.66247995   -9.1701516    454.86015  0.010203234 0.0086717493         3834 
 3716000   0.66647964   -9.1473264    455.06982   0.01020519 0.0086678498         3832 
 3717000   0.66520081   -9.1482793    455.30543  0.010207727 0.0086639541         3815 
 3718000    0.6620426   -9.1755191    454.80898  0.010193854 0.0086600598         3810 
 3719000    0.6647896    -9.173855    454.75784  0.010189967 0.0086561669         3847 
 3720000   0.66385541   -9.1607405    454.25315  0.010175922 0.0086522779         3804 
 3721000   0.65713359   -9.1477966    454.57185  0.010180324 0.0086483894         3853 
 3722000    0.6539383   -9.1695315    454.73402   0.01018122 0.0086445011         3830 
 3723000   0.64811103   -9.1544004     454.8475  0.010181026 0.0086406135         3827 
 3724000   0.64848785   -9.1801299    454.55989  0.010171856 0.0086367287         3849 
 3725000   0.64899298   -9.1649578    454.78789  0.010174226 0.0086328466         3828 
 3726000   0.65286982   -9.1527979    454.44115   0.01016374 0.0086289683         3815 
 3727000   0.66275622   -9.1690289    454.71055  0.010167037 0.0086250898         3853 
 3728000   0.65045344   -9.1588641    454.66771  0.010163352 0.0086212116         3834 
 3729000   0.65876077   -9.1596464    455.55711  0.010180502 0.0086173429         3831 
 3730000    0.6505851   -9.1610444     454.3946  0.010151801 0.0086134726         3809 
 3731000   0.64579383   -9.1779532    454.47095  0.010150785 0.0086096064         3844 
 3732000   0.64531384   -9.1678137    454.72976  0.010153844 0.0086057418         3829 
 3733000   0.66265421   -9.1647484    454.89381  0.010154786 0.0086018766         3820 
 3734000   0.66822831   -9.1731681    453.79239  0.010127486 0.0085980162         3857 
 3735000   0.65665009   -9.1761032    455.18098  0.010155756 0.0085941572         3828 
 3736000   0.65757299    -9.164642     455.2899  0.010155467 0.0085902967         3837 
 3737000   0.65129773   -9.1563979    455.67377   0.01016131 0.0085864486         3852 
 3738000   0.64879599   -9.1683602    454.73942  0.010137761 0.0085825982         3847 
 3739000   0.65871285   -9.1480053     455.2774   0.01014704 0.0085787476         3810 
 3740000   0.65276971   -9.1642551     455.9465  0.010159236 0.0085749009         3845 
 3741000   0.66097445   -9.1607389    454.78144  0.010130568 0.0085710548         3836 
 3742000   0.66011347   -9.1806931    454.76081  0.010127401 0.0085672104         3798 
 3743000   0.65614169   -9.1700615    454.82948  0.010126224 0.0085633717         3807 
 3744000    0.6472338   -9.1706674    454.77383  0.010122281 0.0085595332         3815 
 3745000   0.66618758   -9.1583249     455.3798  0.010133062 0.0085556981         3819 
 3746000   0.64321713    -9.159674    455.03829   0.01012276  0.008551866         3838 
 3747000   0.66811864    -9.162039    453.58846  0.010087814 0.0085480291         3844 
 3748000   0.65388722   -9.1662511    455.15836  0.010120028 0.0085442015         3817 
 3749000   0.65680876   -9.1544188    453.95566  0.010090594 0.0085403761         3827 
 3750000   0.65705275   -9.1559739    453.92175   0.01008715 0.0085365532         3826 
 3751000   0.64660879   -9.1739517    454.59134  0.010099337 0.0085327322         3794 
 3752000    0.6476702   -9.1779676    454.93941  0.010104376 0.0085289124         3833 
 3753000   0.63631418   -9.1711152    454.77857  0.010098112 0.0085251004         3842 
 3754000   0.64914857   -9.1906433    454.31871  0.010085214 0.0085212868         3845 
 3755000   0.65184023   -9.1591655    454.69662  0.010090915 0.0085174751         3826 
 3756000   0.65427081    -9.191866    454.23647  0.010078019  0.008513669         3818 
 3757000   0.65777132   -9.1582486    455.04194  0.010093203 0.0085098615         3858 
 3758000    0.6596264   -9.1642659    454.64238  0.010081657 0.0085060568         3812 
 3759000   0.64450825   -9.1644215     454.0796  0.010066498 0.0085022494         3834 
 3760000   0.63768634   -9.1738988    454.51257  0.010073417 0.0084984499         3793 
 3761000   0.64056205   -9.1719581    455.03385  0.010082289  0.008494654         3826 
 3762000   0.64503709    -9.191265    454.65288   0.01007117 0.0084908576         3834 
 3763000   0.65254119   -9.1578845    455.23856  0.010081463 0.0084870661         3867 
 3764000   0.65018755   -9.1825575     454.2765  0.010057485   0.00848327         3851 
 3765000   0.63904617   -9.1466028    455.21643  0.010075618 0.0084794811         3837 
 3766000   0.64844396   -9.1982919    453.22816  0.010028947 0.0084756904         3864 
 3767000   0.64357459   -9.1676672    454.84221   0.01006199  0.008471903         3829 
 3768000   0.64296329    -9.149725      455.944  0.010083687  0.008468119         3808 
 3769000   0.64850191   -9.1715809    454.62421  0.010051831 0.0084643375         3828 
 3770000   0.63544049    -9.174029    453.71262  0.010029014 0.0084605603         3839 
 3771000   0.63765914   -9.1592178    454.42989  0.010042206 0.0084567765         3844 
 3772000   0.64674005   -9.1897037    453.41308  0.010017079 0.0084529974         3838 
 3773000   0.65556132   -9.1569928    454.30513  0.010034127 0.0084492239         3849 
 3774000   0.63951656   -9.1798691    454.26398  0.010030559  0.008445452         3866 
 3775000   0.64424517   -9.1756624    454.64118  0.010036229 0.0084416818         3852 
 3776000   0.65810742   -9.1669879    454.85763  0.010038348 0.0084379133         3839 
 3777000   0.65248254   -9.1762987    453.62183  0.010008425 0.0084341484         3856 
 3778000   0.64511367   -9.1821157    454.63586  0.010028142 0.0084303837         3845 
 3779000   0.65676296   -9.1850302    454.21812  0.010016277 0.0084266238         3842 
 3780000   0.63936723   -9.1803184    454.90212  0.010028706  0.008422867         3803 
 3781000   0.64064227   -9.1748767    454.52447  0.010017731  0.008419109         3844 
 3782000   0.64770734   -9.1839325     454.5464  0.010015565 0.0084153565         3817 
 3783000   0.65000779   -9.1662206    454.38777  0.010009423 0.0084116046         3841 
 3784000     0.642522   -9.1729324    454.41093  0.010007288 0.0084078563         3850 
 3785000   0.65492801   -9.1613008    454.65644  0.010010049 0.0084041115         3849 
 3786000   0.64290491   -9.1975938    454.57309  0.010005571 0.0084003703         3829 
 3787000   0.65099982   -9.1748724    454.86026  0.010009248 0.0083966259         3825 
 3788000   0.65581419   -9.1634213    453.58778 0.0099786117 0.0083928862         3818 
 3789000   0.64716422   -9.1803326    453.83467 0.0099814083 0.0083891512         3852 
 3790000   0.64495374   -9.1726039      454.245 0.0099877968 0.0083854166         3812 
 3791000   0.63237177   -9.1687732    454.39108 0.0099883734 0.0083816806         3815 
 3792000   0.62830876   -9.1886366    453.40079 0.0099639767 0.0083779474         3820 
 3793000   0.65555354   -9.1878021    454.11945 0.0099771388 0.0083742169         3807 
 3794000   0.64690417   -9.1898756    454.11657 0.0099744459  0.008370487         3858 
 3795000     0.660933   -9.1884985    453.42323 0.0099565927 0.0083667643         3845 
 3796000   0.64485388   -9.1910436    453.95632 0.0099656726 0.0083630399         3816 
 3797000   0.65397709   -9.1881348    453.84455  0.009960595 0.0083593195         3823 
 3798000   0.64138096   -9.2115178    453.17687 0.0099433226 0.0083556025         3848 
 3799000    0.6573901   -9.1713316    454.49607 0.0099696428  0.008351882         3854 
 3800000   0.64496647   -9.1810889    453.37842 0.0099425093 0.0083481701         3842 
 3801000   0.64393997   -9.1853271    453.52382 0.0099430811 0.0083444602         3820 
 3802000   0.64103193   -9.1819814     454.3814 0.0099592627 0.0083407523         3843 
 3803000   0.62412525   -9.1676515    454.28969 0.0099546342  0.008337042         3803 
 3804000   0.64578434    -9.189603    453.81997 0.0099417273 0.0083333361         3854 
 3805000   0.64735155   -9.2079414    453.48169  0.009931706 0.0083296313         3804 
 3806000   0.64399893   -9.1707486    454.19605 0.0099447375 0.0083259283         3854 
 3807000   0.64805471   -9.1999811     454.3813 0.0099461803 0.0083222276         3825 
 3808000   0.65805178   -9.1848298    454.65051 0.0099494596 0.0083185304         3830 
 3809000    0.6313296   -9.1939676    454.09097 0.0099346059 0.0083148334         3806 
 3810000   0.64159574   -9.1776108    454.60062 0.0099431457  0.008311141         3836 
 3811000   0.65374922   -9.1956773    454.29662 0.0099338891 0.0083074524         3838 
 3812000   0.65958372   -9.1705923    454.29591 0.0099312676 0.0083037645         3849 
 3813000   0.64752559   -9.1890269    453.52623 0.0099118418 0.0083000809         3831 
 3814000   0.64905992   -9.1806215    454.47836 0.0099300463 0.0082964037         3832 
 3815000   0.64691744   -9.1921322    453.87606  0.009914287 0.0082927215         3826 
 3816000   0.63564954   -9.1966066    454.37173 0.0099225133 0.0082890465         3809 
 3817000   0.64738261   -9.1847169    454.67586 0.0099265535 0.0082853702         3835 
 3818000   0.64258803    -9.179588    453.59024 0.0099002585 0.0082817038         3840 
 3819000   0.64962853   -9.1740999    454.40881 0.0099155279 0.0082780349         3828 
 3820000   0.63558003   -9.2006523    453.95812 0.0099031003 0.0082743666         3828 
 3821000   0.64090911   -9.1827367    453.38582 0.0098880272  0.008270703         3814 
 3822000   0.64540764   -9.1546077    454.83382 0.0099170117 0.0082670407         3828 
 3823000   0.64729808   -9.1718956     454.7782 0.0099132051 0.0082633825         3814 
 3824000   0.65055947   -9.1956289    454.07271 0.0098952385 0.0082597235         3833 
 3825000   0.64936332   -9.1834823    453.87855 0.0098884216 0.0082560647         3851 
 3826000   0.63961592   -9.2137044    453.19006 0.0098708412 0.0082524045         3835 
 3827000   0.64121274     -9.17442    453.59068 0.0098769855 0.0082487516         3847 
 3828000   0.64447079   -9.2062071    454.07748 0.0098850026 0.0082450987         3846 
 3829000   0.64807654   -9.1915732    454.68006 0.0098955355 0.0082414488         3841 
 3830000   0.63988469   -9.1874598    454.35998 0.0098859874 0.0082378012         3847 
 3831000   0.64157326   -9.1891166    454.96535  0.009896575 0.0082341595         3811 
 3832000   0.64384055    -9.173286    454.32667 0.0098801032 0.0082305147         3832 
 3833000    0.6133073   -9.2053849    453.88918 0.0098680141 0.0082268721         3851 
 3834000   0.64002198   -9.1815022    454.30666 0.0098745145 0.0082232308         3799 
 3835000   0.63308117   -9.2153859    453.56477 0.0098558185 0.0082195959         3863 
 3836000   0.63647051   -9.2063749    453.76967 0.0098577006 0.0082159615         3883 
 3837000   0.64612393   -9.1792425    453.20644 0.0098428989  0.008212325         3860 
 3838000   0.63140417   -9.2039417    454.08068 0.0098593165  0.008208693         3850 
 3839000   0.63568662   -9.1958962    453.51668 0.0098445056 0.0082050617         3865 
 3840000   0.63096544   -9.1804209    454.05716 0.0098536711 0.0082014344         3851 
 3841000   0.61677527   -9.1942171    454.09957 0.0098520257 0.0081978085         3879 
 3842000   0.63618458   -9.2163959    453.50167  0.009836493 0.0081941853         3874 
 3843000   0.62364934   -9.1808739    454.82312 0.0098625884 0.0081905627         3845 
 3844000   0.63732946   -9.1818641    453.10068 0.0098226821 0.0081869435         3861 
 3845000   0.64596402   -9.1959329    453.36792 0.0098259195 0.0081833294         3843 
 3846000   0.64119277   -9.1846243    453.76154 0.0098318932 0.0081797159         3866 
 3847000   0.62912516   -9.1813512    453.47572 0.0098231461 0.0081761039         3877 
 3848000   0.63183448   -9.2033094    453.83227 0.0098283149 0.0081724946         3872 
 3849000    0.6362537   -9.1763995    453.83771 0.0098258791 0.0081688863         3883 
 3850000   0.62876326   -9.1962332    454.83526 0.0098449191 0.0081652838         3880 
 3851000   0.63655668   -9.1816624    454.11802  0.009826842 0.0081616811         3851 
 3852000   0.64342079   -9.1842312    454.12092 0.0098243536 0.0081580813         3852 
 3853000   0.63348448   -9.2014126    454.57892 0.0098317095 0.0081544842         3904 
 3854000   0.64151851    -9.202954    454.12275 0.0098192949  0.008150887         3848 
 3855000   0.63887284   -9.1881482    453.76251 0.0098089605  0.008147291         3865 
 3856000   0.64393429   -9.2061168     454.2027 0.0098159296 0.0081436964         3891 
 3857000    0.6301735   -9.2086792    453.71134 0.0098027685 0.0081401047         3871 
 3858000   0.64543494   -9.1888172    454.45091 0.0098162024  0.008136517         3851 
 3859000   0.64272458   -9.2100354    453.20362 0.0097867242 0.0081329307         3876 
 3860000   0.64179659   -9.1728902    453.96083 0.0098005361 0.0081293472         3841 
 3861000   0.64568597   -9.1940113    454.05339 0.0097999954 0.0081257663         3830 
 3862000   0.63623955   -9.1917339    453.52747 0.0097861098 0.0081221842         3846 
 3863000   0.64233508   -9.1866827    454.48573 0.0098042483 0.0081186081         3883 
 3864000   0.63584001   -9.1849935    453.85758 0.0097881638 0.0081150338         3848 
 3865000   0.63370655   -9.1883094    453.87882 0.0097860894 0.0081114569         3869 
 3866000   0.64367854   -9.1832988    454.14047 0.0097891979  0.008107883         3839 
 3867000    0.6400567   -9.1990903    454.36517 0.0097915087 0.0081043142         3843 
 3868000   0.62640911   -9.1855487    454.22362 0.0097859277 0.0081007452         3873 
 3869000   0.64261537   -9.2038051    453.12874  0.009759816 0.0080971813         3871 
 3870000   0.62264608   -9.2087105    453.33037 0.0097616359 0.0080936184         3882 
 3871000   0.62547271   -9.1911669    453.68256  0.009766696 0.0080900575         3864 
 3872000   0.63604486   -9.2050768    453.86993 0.0097682061 0.0080864969         3869 
 3873000   0.62192674   -9.2005938    453.11924 0.0097495317 0.0080829407         3857 
 3874000   0.62688057   -9.1880828    454.38516 0.0097742463 0.0080793883         3873 
 3875000   0.62961325   -9.2094499    453.69117 0.0097567993 0.0080758338         3863 
 3876000   0.62446412   -9.1867451    453.94278 0.0097596918 0.0080722842         3853 
 3877000   0.63205285   -9.2122582    454.36801 0.0097663144  0.008068731         3859 
 3878000   0.63487824   -9.2061622    453.97469  0.009755344 0.0080651806         3874 
 3879000   0.62258677   -9.1765488    453.65102 0.0097458756 0.0080616371         3892 
 3880000   0.61813594    -9.193309    453.41467 0.0097382875 0.0080580951         3858 
 3881000   0.63050201   -9.2112137    453.83814 0.0097448712 0.0080545553         3853 
 3882000   0.62712796    -9.192501    453.92311 0.0097441849 0.0080510125         3850 
 3883000   0.61741929   -9.2025809    453.94919 0.0097422351 0.0080474732         3884 
 3884000   0.63565213   -9.1967246    452.90339 0.0097172886 0.0080439392         3873 
 3885000   0.62282087    -9.210021    453.63625 0.0097305073 0.0080404072         3885 
 3886000   0.63653771   -9.1997681    453.47037 0.0097244461 0.0080368755         3858 
 3887000   0.62741067   -9.2038831    454.31152 0.0097399776  0.008033342         3850 
 3888000   0.62694976   -9.1857434    454.34098  0.009738104 0.0080298148         3852 
 3889000   0.62915264   -9.2229334    453.65691 0.0097209418  0.008026291         3868 
 3890000   0.63827553   -9.2007529    453.35755 0.0097120297 0.0080227671         3858 
 3891000   0.64322622   -9.1999702    453.30175 0.0097083388 0.0080192483         3869 
 3892000   0.62387002   -9.2007911    453.18882 0.0097034262 0.0080157296         3869 
 3893000   0.64139436   -9.2079087    453.26329 0.0097025279 0.0080122122         3870 
 3894000   0.64642324    -9.189034     454.0243 0.0097163222  0.008008698         3866 
 3895000    0.6400327   -9.2168962    453.69971  0.009706883 0.0080051878         3862 
 3896000   0.62441664   -9.2097953    453.64531 0.0097032279 0.0080016803         3862 
 3897000   0.64854853   -9.2234322    453.88224 0.0097058044 0.0079981742         3890 
 3898000   0.62454091   -9.2091498    453.44221 0.0096939073 0.0079946712         3862 
 3899000   0.63373515    -9.203686    453.76221 0.0096982605 0.0079911654         3895 
 3900000   0.61737549   -9.2142466    453.23554 0.0096845201 0.0079876629         3876 
 3901000   0.63873784   -9.1937877    454.00344 0.0096984413 0.0079841632         3850 
 3902000   0.62029958   -9.2067445    454.26847 0.0097016161  0.007980669         3886 
 3903000   0.62011532   -9.2001415    454.05653 0.0096946052 0.0079771756         3871 
 3904000   0.61375442   -9.2071364    453.28617 0.0096756782 0.0079736841         3851 
 3905000   0.63101066    -9.201713    454.16527 0.0096919605 0.0079701926         3852 
 3906000   0.61808233    -9.189891    453.59426 0.0096772969 0.0079667051         3868 
 3907000   0.62854837   -9.2109265    452.78379 0.0096575332 0.0079632152         3858 
 3908000   0.62190808   -9.2165228     453.5581 0.0096715733 0.0079597314         3864 
 3909000   0.62541763   -9.2142896    453.49235 0.0096676975 0.0079562484         3843 
 3910000   0.62551235   -9.2131849    453.59174 0.0096673431 0.0079527696         3855 
 3911000   0.62705022   -9.2160598    453.78571 0.0096690042 0.0079492896         3875 
 3912000   0.61288885   -9.2214742    453.13615 0.0096526959 0.0079458113         3854 
 3913000   0.63665828    -9.208225    454.40911 0.0096773385 0.0079423359         3883 
 3914000    0.6325657   -9.2199107    453.89838 0.0096639921 0.0079388642         3846 
 3915000   0.61294611    -9.213182    453.92702 0.0096621333 0.0079353952         3871 
 3916000   0.61838467   -9.2019602    453.98223 0.0096608409 0.0079319253         3853 
 3917000   0.62472673   -9.2375727    453.47034 0.0096474841 0.0079284595         3886 
 3918000   0.64631029   -9.1970951     453.9091 0.0096543539  0.007924997         3868 
 3919000   0.62927287   -9.2199937    453.09171 0.0096345095 0.0079215323         3870 
 3920000   0.63938092   -9.2151323    453.72244 0.0096454601 0.0079180704         3873 
 3921000   0.61365256   -9.2028663    453.45843  0.009637389 0.0079146109         3876 
 3922000    0.6243776   -9.2139431    454.61167 0.0096594355 0.0079111547         3879 
 3923000   0.62541078   -9.2182478     453.5344 0.0096340896 0.0079076978         3852 
 3924000   0.62236066   -9.1993687     453.1844 0.0096242016 0.0079042497         3841 
 3925000   0.62507605   -9.2113387    454.26931 0.0096447837 0.0079008034         3857 
 3926000    0.6384716   -9.2046169    454.41786   0.00964548 0.0078973553         3864 
 3927000   0.63296174   -9.1877473    452.59626 0.0096043684 0.0078939121         3867 
 3928000   0.61235278   -9.2172955    453.77237 0.0096268748 0.0078904714         3857 
 3929000   0.61167111    -9.204543    453.85713 0.0096262222 0.0078870274         3869 
 3930000   0.62285556   -9.2065548    453.84554 0.0096235272 0.0078835869         3872 
 3931000   0.62661903   -9.2045268     453.9673 0.0096236602 0.0078801463         3851 
 3932000   0.62612375   -9.2245122     453.6596 0.0096146913 0.0078767102         3852 
 3933000   0.60962551   -9.2156185    454.36083 0.0096271045 0.0078732794         3852 
 3934000   0.63184043   -9.2121216    453.14611 0.0095989262 0.0078698477         3885 
 3935000   0.62133738   -9.2120655    453.30747 0.0095999041 0.0078664186         3874 
 3936000   0.62069329   -9.2057459    453.12786 0.0095936624 0.0078629907         3843 
 3937000   0.62118133   -9.2033728    453.21242 0.0095930154 0.0078595631         3875 
 3938000   0.61800172   -9.2175427    453.02863 0.0095866902 0.0078561371         3879 
 3939000   0.61220834   -9.2203721    452.95074 0.0095826085 0.0078527131         3889 
 3940000   0.61777537   -9.2134668    453.03522 0.0095819632 0.0078492937         3857 
 3941000   0.61083874   -9.2027483    453.25673 0.0095842158 0.0078458733         3889 
 3942000   0.63303355   -9.2174761    453.27308 0.0095821301 0.0078424524         3876 
 3943000   0.62988348   -9.2361281    453.14119 0.0095769125 0.0078390369         3865 
 3944000   0.61237402   -9.2227196    452.59246 0.0095628901 0.0078356232         3865 
 3945000   0.62153587   -9.2359847     453.3348 0.0095761471 0.0078322118         3872 
 3946000   0.62492555   -9.1954982    454.06417 0.0095891234 0.0078288039         3870 
 3947000   0.61165003    -9.236809    453.64505  0.009577845 0.0078253963         3869 
 3948000   0.61977379    -9.239374    453.20117 0.0095660497 0.0078219911         3896 
 3949000    0.6241695   -9.2180315    453.50178 0.0095699709 0.0078185865         3874 
 3950000   0.60526494   -9.2261763    453.26539 0.0095625609 0.0078151856         3880 
 3951000   0.61724897   -9.2083291     453.3438 0.0095617944 0.0078117869         3839 
 3952000   0.61743482   -9.2225804    452.81949 0.0095483191 0.0078083888         3889 
 3953000   0.61388844   -9.2292627    452.92762 0.0095481833 0.0078049928         3853 
 3954000   0.61882688   -9.2298982    453.36598 0.0095550072 0.0078015979         3857 
 3955000   0.62603538   -9.2279479    452.58121 0.0095360558 0.0077982059         3879 
 3956000   0.60355209   -9.2191635    453.25417 0.0095478213 0.0077948191         3855 
 3957000   0.61215815   -9.2112724    454.32037 0.0095678621 0.0077914301         3852 
 3958000   0.62638677   -9.2349612    452.79997 0.0095334337 0.0077880472         3852 
 3959000   0.62620516   -9.1876821    453.34173 0.0095424293 0.0077846643         3832 
 3960000   0.61233275   -9.2127505    453.03311  0.009533525 0.0077812885         3889 
 3961000   0.62301468   -9.2226828    453.81793 0.0095476296 0.0077779085         3876 
 3962000   0.62328686   -9.2087673    453.90636 0.0095470798  0.007774531         3878 
 3963000   0.62074981   -9.2502129    453.10058  0.009527727 0.0077711544         3865 
 3964000   0.61628344   -9.2080697    453.55408  0.009534857 0.0077677822         3873 
 3965000   0.61810088    -9.221576    454.02076 0.0095422606 0.0077644121         3873 
 3966000   0.61101852   -9.2047036    453.28067 0.0095243039 0.0077610454         3879 
 3967000   0.61500037   -9.2309963    452.98482 0.0095156882 0.0077576775         3901 
 3968000   0.61694016   -9.2220665    452.97105 0.0095130009  0.007754314         3868 
 3969000   0.61742297   -9.2196265    453.05038 0.0095122697 0.0077509512         3887 
 3970000   0.62959178   -9.2231693    453.41046  0.009517432 0.0077475914         3867 
 3971000   0.62885819   -9.2140141    453.09252 0.0095083631 0.0077442308         3843 
 3972000   0.62088619   -9.2110444    453.73937 0.0095195404 0.0077408725         3879 
 3973000   0.61007908   -9.2125534    453.51073 0.0095123487 0.0077375166         3862 
 3974000   0.61642177   -9.2111244    453.49932 0.0095097157 0.0077341597         3863 
 3975000   0.61118402   -9.2068056    453.61918 0.0095098361 0.0077308064         3854 
 3976000   0.60140053   -9.2276212    453.30363 0.0095008306 0.0077274576         3882 
 3977000   0.60378311   -9.2267656    453.14839 0.0094951889   0.00772411         3884 
 3978000   0.60755275   -9.2258551    452.88482 0.0094872804 0.0077207638         3852 
 3979000   0.62064075    -9.222638    454.38716 0.0095163602 0.0077174196         3853 
 3980000   0.60950466   -9.2252905    452.75404 0.0094797748 0.0077140768         3861 
 3981000   0.61401554   -9.2289676     453.2149 0.0094870405 0.0077107377         3874 
 3982000   0.60915939   -9.2293208    453.14709  0.009483239 0.0077074013         3863 
 3983000   0.61835907   -9.2198599    453.21374 0.0094822525 0.0077040674         3865 
 3984000   0.60696548    -9.214737    452.87957 0.0094728825 0.0077007296         3881 
 3985000    0.6091271   -9.2283944    453.23166 0.0094778682    0.0076974         3878 
 3986000   0.62260737   -9.2449478    452.99798  0.009470605 0.0076940701         3858 
 3987000   0.62303851   -9.2209836    453.25707 0.0094736449 0.0076907414         3872 
 3988000   0.63206489   -9.2282286    453.64362 0.0094793467 0.0076874196         3887 
 3989000   0.61961637   -9.2101591    453.36112 0.0094710689  0.007684098         3873 
 3990000   0.60778826   -9.2280918    453.72415 0.0094762771 0.0076807749         3875 
 3991000   0.62104812   -9.2099986     453.7245 0.0094739101 0.0076774545         3869 
 3992000   0.62562691    -9.219408    452.94598 0.0094552852 0.0076741405         3881 
 3993000   0.60798145   -9.2220288    452.88021 0.0094515446 0.0076708271         3861 
 3994000   0.61740282   -9.2243397    453.27776 0.0094574728 0.0076675171         3830 
 3995000   0.60543248   -9.2082105      453.419 0.0094580517 0.0076642031         3862 
 3996000   0.61608744   -9.2260147    453.61131 0.0094596954 0.0076608913         3848 
 3997000   0.61071066   -9.2105957    453.60304 0.0094571563 0.0076575856         3849 
 3998000   0.62124033   -9.2157918    453.27839 0.0094480238 0.0076542818         3894 
 3999000   0.60861705   -9.2058025    452.95528 0.0094389282 0.0076509775         3863 
 4000000    0.5997479     -9.22999    453.60219 0.0094500455 0.0076476768         3890 
 4001000   0.60690279   -9.2287136    453.91917 0.0094542858 0.0076443766         3867 
 4002000    0.6033482   -9.2426659    452.79196 0.0094284517  0.007641081         3838 
 4003000   0.62457837   -9.2410486    452.78881 0.0094260307 0.0076377825         3859 
 4004000   0.61134834   -9.2100357     453.5028 0.0094385365 0.0076344897         3850 
 4005000   0.61466128   -9.2173224    454.21304 0.0094509579 0.0076311991         3882 
 4006000   0.61161736   -9.2451348    452.91645  0.009421627 0.0076279097         3864 
 4007000   0.59993059    -9.223345    453.15338 0.0094242031 0.0076246209         3856 
 4008000   0.62190192   -9.2413832    453.75116 0.0094342806 0.0076213328         3899 
 4009000   0.61997668   -9.2350913    452.94996 0.0094152731 0.0076180513         3886 
 4010000   0.60819787   -9.2281245    453.32725 0.0094207657 0.0076147688         3878 
 4011000   0.61216855   -9.2193758    453.14498 0.0094146301 0.0076114887         3878 
 4012000   0.60788335   -9.2180611    453.41573 0.0094179072 0.0076082094         3872 
 4013000   0.61256183   -9.2414024    452.51703 0.0093968981 0.0076049347         3858 
 4014000   0.61938787   -9.2307847    453.25212 0.0094098181 0.0076016566         3876 
 4015000   0.60271237   -9.2204715    453.23045 0.0094070246 0.0075983829         3855 
 4016000   0.61978569   -9.2406839    453.84276  0.009417388 0.0075951135         3866 
 4017000   0.61365289   -9.2190846    453.08015 0.0093992231 0.0075918425         3848 
 4018000   0.61104057    -9.223539    452.40338 0.0093828475 0.0075885747         3862 
 4019000   0.60251587    -9.241857    452.65415 0.0093857127 0.0075853091         3857 
 4020000   0.60698714    -9.235058    453.29038 0.0093965667 0.0075820415         3875 
 4021000   0.60687551   -9.2300927    453.07457 0.0093897573 0.0075787818         3867 
 4022000   0.61968861   -9.2297112    453.27735 0.0093916241 0.0075755186         3867 
 4023000   0.61267484   -9.2332411    453.00138 0.0093835731 0.0075722604         3865 
 4024000   0.60366532   -9.2432027    452.61767 0.0093732951 0.0075690077         3854 
 4025000   0.60765003   -9.2313236    453.28567 0.0093847964 0.0075657504         3846 
 4026000   0.59682631   -9.2325614    452.78067 0.0093720126 0.0075624991         3859 
 4027000   0.62501622   -9.2187986    452.93695 0.0093729193 0.0075592497         3873 
 4028000   0.61016031   -9.2531808    452.45344 0.0093605892 0.0075560015         3862 
 4029000   0.61435012   -9.2315014    452.55884 0.0093604459 0.0075527549         3890 
 4030000   0.61781186    -9.228923    452.59249  0.009358819 0.0075495076         3863 
 4031000   0.60814947   -9.2388661    453.47894 0.0093748231 0.0075462641         3877 
 4032000   0.61064612   -9.2784527    453.00917 0.0093627888 0.0075430191         3873 
 4033000   0.61480858   -9.2330487    452.89569 0.0093581223 0.0075397782         3862 
 4034000   0.59888377   -9.2346762    453.28785 0.0093639036  0.007536538         3871 
 4035000   0.61344676   -9.2200823    454.11354 0.0093786356 0.0075333058         3880 
 4036000   0.60321054   -9.2202334    452.99052 0.0093531244 0.0075300721         3872 
 4037000   0.60580944   -9.2511361    452.93669 0.0093496963 0.0075268415         3874 
 4038000   0.60717834   -9.2498392    452.93833 0.0093474147 0.0075236139         3882 
 4039000   0.60517188   -9.2456001     452.8305 0.0093428756 0.0075203849         3891 
 4040000   0.59202868   -9.2255734    452.76199 0.0093391499 0.0075171576         3884 
 4041000   0.60548432   -9.2449041    452.56776 0.0093328334 0.0075139303         3876 
 4042000   0.60595018   -9.2520884    452.78379 0.0093349783 0.0075107074         3877 
 4043000   0.60348466   -9.2334079    453.03747 0.0093378981 0.0075074856         3873 
 4044000   0.60217037   -9.2409478    453.05462 0.0093359425 0.0075042656         3847 
 4045000   0.60272263   -9.2322678    452.52919 0.0093228099 0.0075010475         3836 
 4046000   0.59239177   -9.2446863     452.7915 0.0093259083 0.0074978295         3867 
 4047000   0.61963209    -9.240048    452.37882 0.0093151062 0.0074946149         3842 
 4048000   0.60938939   -9.2299316    452.39541 0.0093131466 0.0074914033         3848 
 4049000   0.58570519   -9.2714378    452.85063 0.0093202154 0.0074881926         3882 
 4050000   0.59734533   -9.2493013    453.21024 0.0093253136 0.0074849809         3863 
 4051000   0.59731926   -9.2379052    453.14514 0.0093216725 0.0074817737         3895 
 4052000   0.60385001   -9.2590197    453.08684 0.0093181729 0.0074785697         3892 
 4053000   0.60102075   -9.2364754    453.75815 0.0093296765 0.0074753647         3883 
 4054000   0.59187792   -9.2462071     452.8328 0.0093083538 0.0074721603         3876 
 4055000   0.59989043   -9.2654899    453.54468  0.009320688 0.0074689594         3841 
 4056000   0.60067769   -9.2324033    452.65512 0.0093001135 0.0074657614         3889 
 4057000   0.58844115    -9.242674    452.31937 0.0092909245 0.0074625633         3887 
 4058000   0.59687571   -9.2311301    452.45943 0.0092915111 0.0074593698         3878 
 4059000    0.6022482   -9.2438705     453.3817 0.0093081567 0.0074561746         3870 
 4060000   0.59554371   -9.2463925    452.77014 0.0092933116 0.0074529837         3900 
 4061000    0.6068541   -9.2406455    453.92041 0.0093146271 0.0074497959         3875 
 4062000   0.58360848   -9.2403957    453.44526 0.0093025862 0.0074466116         3847 
 4063000   0.60507958   -9.2543935    452.08184 0.0092723325 0.0074434275         3876 
 4064000   0.60211798   -9.2218189    452.93682 0.0092875825 0.0074402417         3889 
 4065000   0.58926077   -9.2516556    452.61017 0.0092786012 0.0074370585         3873 
 4066000   0.59928293    -9.240774    452.59034 0.0092759128 0.0074338767         3861 
 4067000   0.60747426   -9.2523603    452.95244 0.0092810515 0.0074306973         3901 
 4068000   0.60364686   -9.2403548    452.71557 0.0092739177 0.0074275184         3891 
 4069000   0.61024561   -9.2561011    453.04911 0.0092784696 0.0074243433         3881 
 4070000    0.5944341   -9.2384076    453.00494 0.0092752855 0.0074211714         3874 
 4071000   0.59497185   -9.2438793    453.12835 0.0092755332 0.0074179987         3836 
 4072000   0.58891815   -9.2376344    453.05909 0.0092718379 0.0074148297         3874 
 4073000   0.59854857   -9.2430774    453.18466 0.0092721307 0.0074116627         3874 
 4074000   0.59898401   -9.2323368    452.89607 0.0092639517 0.0074084936         3875 
 4075000   0.60336367   -9.2441815    452.32794 0.0092500601 0.0074053274         3861 
 4076000   0.59218597   -9.2458713    452.83194 0.0092580949 0.0074021619         3867 
 4077000   0.58892436    -9.246533    454.00014 0.0092797021 0.0073990021         3885 
 4078000    0.6032105   -9.2638853    452.52241 0.0092472293 0.0073958435         3874 
 4079000   0.58898329    -9.253781     452.5209 0.0092449314 0.0073926859         3892 
 4080000    0.5998298   -9.2543888    453.01643 0.0092527865 0.0073895309         3861 
 4081000   0.59729743    -9.243125    452.83322 0.0092467781 0.0073863786         3871 
 4082000   0.60162961   -9.2386165    453.66965 0.0092615885 0.0073832277         3878 
 4083000   0.60311403   -9.2415222    452.94728 0.0092445768 0.0073800769         3881 
 4084000    0.5978097   -9.2504513    452.11916 0.0092254155 0.0073769268         3880 
 4085000   0.59827736   -9.2578953     453.7215 0.0092558445 0.0073737827         3877 
 4086000   0.60048399   -9.2723923    452.55087 0.0092297044 0.0073706405         3883 
 4087000   0.60170692   -9.2400616    452.97007 0.0092359935 0.0073674975         3902 
 4088000   0.59965839   -9.2487497    452.60714  0.009226336 0.0073643583         3872 
 4089000   0.57975536   -9.2755574    452.62868 0.0092245187 0.0073612183         3898 
 4090000   0.60302611   -9.2491214    452.50116  0.009219665 0.0073580802         3906 
 4091000   0.59710653   -9.2401208    452.46173 0.0092166082 0.0073549439         3866 
 4092000   0.60608939   -9.2453079    451.87264 0.0092023591 0.0073518129         3871 
 4093000   0.59167859   -9.2559959     452.2095 0.0092069692 0.0073486821         3869 
 4094000   0.60142018   -9.2541957    452.48643 0.0092103573 0.0073455553         3874 
 4095000   0.59543902   -9.2695248    451.73944 0.0091929069 0.0073424266         3894 
 4096000   0.58806992    -9.258183    452.23382 0.0092007206 0.0073392987         3890 
 4097000   0.58923049   -9.2505735    453.22174 0.0092185694 0.0073361723         3853 
 4098000   0.59596959   -9.2459172    452.44476 0.0092005198 0.0073330491         3887 
 4099000   0.60546826   -9.2550874    453.07906 0.0092111707 0.0073299281         3880 
 4100000   0.59787893   -9.2770188    453.77623 0.0092230942 0.0073268113         3872 
 4101000   0.60241156   -9.2328249    452.97412 0.0092045461 0.0073236956         3869 
 4102000   0.58679678   -9.2632075    453.34592 0.0092098553 0.0073205802         3884 
 4103000   0.59117686   -9.2439851    452.64874 0.0091934507  0.007317463         3873 
 4104000   0.60077097   -9.2694702     452.1306 0.0091806896 0.0073143526         3901 
 4105000   0.59309904   -9.2549401    453.30341 0.0092022617 0.0073112416         3874 
 4106000   0.60294911   -9.2625044    451.70362  0.009167552 0.0073081328         3841 
 4107000   0.59841358   -9.2320518    452.57356 0.0091829713 0.0073050271         3856 
 4108000   0.59002396   -9.2503292    452.76134 0.0091845452 0.0073019233         3854 
 4109000   0.59571452   -9.2323413    452.64313 0.0091799125 0.0072988241         3843 
 4110000   0.59157323   -9.2768937    452.23525 0.0091694089 0.0072957252         3858 
 4111000   0.58716871   -9.2656556    452.77582 0.0091781363 0.0072926276         3898 
 4112000   0.59183665   -9.2633625    452.41243 0.0091685399 0.0072895289         3868 
 4113000   0.59137348   -9.2495273    453.06062 0.0091794437 0.0072864307         3896 
 4114000   0.59330675    -9.260854    452.32952 0.0091624031 0.0072833339         3863 
 4115000   0.59114129   -9.2763817    452.10034 0.0091555355 0.0072802422         3861 
 4116000   0.59518831   -9.2514314    452.67008 0.0091648461 0.0072771494         3893 
 4117000   0.59463606   -9.2744558    451.66665 0.0091423093 0.0072740594         3883 
 4118000   0.59877996   -9.2629993    452.44007 0.0091557404 0.0072709725         3881 
 4119000   0.59820141   -9.2651608    451.80983  0.009140767 0.0072678842         3871 
 4120000   0.59744139   -9.2428164    452.74624 0.0091574887 0.0072647999         3869 
 4121000   0.60216589   -9.2566261    452.48487 0.0091499813 0.0072617174         3875 
 4122000   0.58675351   -9.2779286    452.34947 0.0091450241 0.0072586386         3883 
 4123000   0.58385138   -9.2571837    452.95267 0.0091549977 0.0072555606         3860 
 4124000   0.60244126   -9.2718871    452.68903 0.0091474505 0.0072524833         3871 
 4125000    0.6017393    -9.262211    452.75926 0.0091466518 0.0072494061         3873 
 4126000   0.59529666   -9.2412587    452.40175 0.0091372143 0.0072463333         3874 
 4127000   0.58042938   -9.2609399    452.44238 0.0091358205 0.0072432596         3870 
 4128000   0.58335774   -9.2729969    452.07418 0.0091261746 0.0072401897         3865 
 4129000    0.5730064   -9.2409884      452.707 0.0091367361 0.0072371182         3876 
 4130000   0.58533041   -9.2658706    451.94975 0.0091192444 0.0072340526         3882 
 4131000   0.60600204   -9.2687673    453.42335 0.0091467632 0.0072309851         3886 
 4132000   0.59195932   -9.2828265    452.20518 0.0091199819 0.0072279204         3871 
 4133000   0.57742056   -9.2550151     452.0525 0.0091146967 0.0072248598         3899 
 4134000    0.5815095   -9.2678851    452.53556 0.0091222294 0.0072217984         3877 
 4135000   0.59424019   -9.2527216     452.0519 0.0091102761 0.0072187388         3870 
 4136000   0.59471716   -9.2642882      452.175 0.0091105537 0.0072156805         3867 
 4137000   0.60004725    -9.259857     451.7555 0.0090999014 0.0072126248         3886 
 4138000   0.58615338   -9.2729936    452.51328 0.0091129629 0.0072095726         3856 
 4139000   0.58433771   -9.2785719    452.46879 0.0091098654 0.0072065229         3871 
 4140000   0.58511005   -9.2596322    452.04642  0.009099163 0.0072034746         3890 
 4141000   0.58422283   -9.2718477    452.46937  0.009105477 0.0072004259         3858 
 4142000    0.5900417   -9.2550054    452.22797  0.009098422 0.0071973805         3881 
 4143000   0.59421359   -9.2678148    452.17063 0.0090950726 0.0071943355         3887 
 4144000   0.58068534   -9.2545358    451.85364 0.0090865034 0.0071912948         3869 
 4145000   0.59655175   -9.2813742    452.11429 0.0090895514 0.0071882534         3868 
 4146000   0.59383754    -9.283384    451.53206 0.0090756565 0.0071852149         3887 
 4147000   0.58931165   -9.2737901    451.72291  0.009077303 0.0071821744         3858 
 4148000   0.58589662    -9.257209    452.55958 0.0090919235 0.0071791385         3852 
 4149000   0.59574017   -9.2647238    452.63762 0.0090912996 0.0071761031         3853 
 4150000   0.58524976   -9.2651216    452.34011 0.0090831347   0.00717307         3840 
 4151000   0.59783089   -9.2603504    452.27485 0.0090796365 0.0071700399         3894 
 4152000   0.59801466   -9.2653713    452.49892 0.0090819468 0.0071670135         3870 
 4153000   0.60342262   -9.2599364    452.14651 0.0090726886 0.0071639863         3874 
 4154000   0.60739619   -9.2817749    452.68811 0.0090813695   0.00716096         3863 
 4155000   0.60490852    -9.264961    452.88643 0.0090831614 0.0071579355         3887 
 4156000   0.58566551   -9.2610245    453.08401 0.0090849376 0.0071549128         3867 
 4157000   0.57364704   -9.2617081    451.73441 0.0090556973 0.0071518902         3884 
 4158000   0.57576535   -9.2994953    452.25144 0.0090638817 0.0071488703         3884 
 4159000   0.58429514   -9.2607401    451.87289 0.0090541175 0.0071458528         3870 
 4160000   0.57609711   -9.2912765    451.50357 0.0090445427  0.007142836         3881 
 4161000   0.59370693   -9.2560089    452.07949 0.0090539032   0.00713982         3875 
 4162000   0.59285915   -9.2593542    452.17597 0.0090536596 0.0071368061         3841 
 4163000   0.58476682   -9.2712845    452.35963 0.0090551612 0.0071337949         3875 
 4164000   0.57540788   -9.2809989    452.08065 0.0090474034 0.0071307869         3881 
 4165000   0.59047385   -9.2538796    452.12693 0.0090461571 0.0071277794         3873 
 4166000   0.58461632   -9.2676143    451.96635 0.0090407735 0.0071247717         3880 
 4167000   0.58645016   -9.2650305    452.23256 0.0090439277 0.0071217684         3883 
 4168000   0.57295853   -9.2591493    452.35871 0.0090442799 0.0071187667         3894 
 4169000     0.595207   -9.2562979    452.77469 0.0090504255 0.0071157673         3888 
 4170000   0.59319697   -9.2774421    452.05235 0.0090338199 0.0071127693         3882 
 4171000   0.58737047   -9.2739294    452.53287 0.0090412545 0.0071097724         3873 
 4172000   0.59100844    -9.252067    452.37059 0.0090358459 0.0071067793         3880 
 4173000   0.58725855   -9.2784088    451.99259 0.0090261321 0.0071037873         3884 
 4174000   0.57880799   -9.2872277    451.59387 0.0090160093 0.0071007953         3887 
 4175000   0.57855732   -9.2812962    451.88483 0.0090196572 0.0070978044         3901 
 4176000    0.5834357   -9.2610085    452.69924 0.0090337492 0.0070948173         3885 
 4177000   0.58421293   -9.2568621    452.73996 0.0090323989 0.0070918311         3835 
 4178000   0.58221627   -9.2752338    452.76501 0.0090307365 0.0070888477         3867 
 4179000   0.57167327   -9.2868426    452.31577 0.0090196174 0.0070858633         3882 
 4180000   0.58005605   -9.2731322    452.26349 0.0090164172 0.0070828811         3895 
 4181000   0.56902984   -9.2761463    452.50819 0.0090191379 0.0070799035         3862 
 4182000   0.60122405   -9.2744763    452.04829  0.009007817 0.0070769274         3877 
 4183000    0.5712444   -9.2789474    451.74707 0.0089996627 0.0070739526         3879 
 4184000   0.58259755   -9.2581827    452.39711 0.0090104587 0.0070709785         3896 
 4185000   0.58387133   -9.2829787    452.04529 0.0090013001 0.0070680058         3855 
 4186000   0.59557003   -9.2682342    452.42031 0.0090066156 0.0070650357         3883 
 4187000    0.5795033    -9.282058    452.01868 0.0089964707 0.0070620635         3884 
 4188000   0.58363245    -9.275441    452.14297 0.0089967959 0.0070590955         3842 
 4189000   0.56962175   -9.2676574    452.36516 0.0089990682 0.0070561278         3903 
 4190000   0.58501991   -9.2765103     452.2285 0.0089942024  0.007053164         3862 
 4191000    0.5908571   -9.2723985    452.00836 0.0089876792 0.0070502022         3861 
 4192000   0.58665351   -9.2881765    451.46967 0.0089748265 0.0070472398         3866 
 4193000   0.57293308   -9.2945709    451.57244 0.0089747286 0.0070442816         3851 
 4194000   0.57033413   -9.2811498    451.64698 0.0089740697  0.007041321         3875 
 4195000   0.58421232   -9.2788151    450.82681 0.0089556378 0.0070383644         3908 
 4196000    0.5888297   -9.2835985    452.06011 0.0089779971 0.0070354089         3854 
 4197000   0.57957387   -9.2659884    452.03018 0.0089752637  0.007032456         3877 
 4198000   0.59502552   -9.2856232    452.23622 0.0089772157 0.0070295052         3887 
 4199000   0.56842825   -9.2857002    452.24495  0.008975251 0.0070265549         3882 
 4200000   0.57515248   -9.2820033    452.22441 0.0089727065 0.0070236076         3882 
 4201000   0.57070757    -9.275058    452.34577  0.008972978 0.0070206603         3868 
 4202000   0.57534826   -9.2899666    451.28427 0.0089497912 0.0070177122         3879 
 4203000   0.58884217   -9.2890411    451.53754 0.0089526835 0.0070147685         3867 
 4204000   0.58342233   -9.2827776    452.05884 0.0089608872  0.007011828         3862 
 4205000   0.57947193    -9.264384    452.06106 0.0089588003 0.0070088886         3888 
 4206000    0.5860627   -9.2813657    451.81505 0.0089517961 0.0070059498         3877 
 4207000   0.57200093   -9.2870982    452.41338 0.0089615201 0.0070030101         3872 
 4208000   0.57352155   -9.2814817    451.90119 0.0089492473  0.007000074         3854 
 4209000   0.58521072   -9.2861507    451.18023 0.0089328469  0.006997141         3880 
 4210000   0.58143435   -9.2949917    451.87995 0.0089445754  0.006994211         3889 
 4211000   0.59052435   -9.2799412    451.91902 0.0089432244  0.006991282         3871 
 4212000   0.58401408   -9.2912975    451.89997 0.0089407244 0.0069883552         3871 
 4213000   0.58529919   -9.2826933    452.08374 0.0089422371 0.0069854282         3863 
 4214000   0.58033368   -9.2662724    452.20304 0.0089424744  0.006982504         3834 
 4215000   0.58326731   -9.2783565    451.61513 0.0089287293 0.0069795808         3891 
 4216000   0.56420089   -9.2879085    452.06931 0.0089355889 0.0069766584         3897 
 4217000   0.58256731   -9.3065057    451.96798 0.0089314675  0.006973739         3895 
 4218000   0.57110662   -9.2886066    451.24706 0.0089151071  0.006970821         3861 
 4219000   0.57949167    -9.267653    452.18957 0.0089316104 0.0069679024         3881 
 4220000   0.58841565   -9.2684259    450.52515 0.0088966261 0.0069649878         3872 
 4221000   0.58338664   -9.2781522    451.60815 0.0089158997 0.0069620742         3881 
 4222000   0.58100628   -9.2912892    452.25876 0.0089266295 0.0069591602         3860 
 4223000   0.58432589   -9.2879306    451.21246 0.0089038689 0.0069562498         3861 
 4224000   0.56749223   -9.2878041    451.62824 0.0089099637 0.0069533406         3851 
 4225000   0.59411467   -9.2737313    451.37426 0.0089028454  0.006950433         3885 
 4226000   0.57964957   -9.3030696    451.56979 0.0089045943 0.0069475264         3858 
 4227000   0.57376409   -9.2974901     452.0278 0.0089115172 0.0069446215         3879 
 4228000   0.56874356   -9.2680917    452.74759 0.0089235965 0.0069417196         3882 
 4229000   0.57026088   -9.3056968    452.03034 0.0089073528 0.0069388178         3868 
 4230000   0.56694273   -9.2901483    451.59121  0.008896596 0.0069359165         3885 
 4231000   0.58407566   -9.3040966    451.03555 0.0088835491  0.006933018         3854 
 4232000   0.56263827   -9.2899487    452.02281 0.0089008902 0.0069301223         3868 
 4233000   0.58174259   -9.3009101    451.75716 0.0088935578 0.0069272272         3875 
 4234000   0.56332392   -9.3052644    451.59762 0.0088883171 0.0069243347         3893 
 4235000   0.56220007   -9.2880686    451.45991 0.0088835087 0.0069214404         3894 
 4236000   0.57917531   -9.2871291    451.61447 0.0088844522 0.0069185523         3846 
 4237000   0.58796615   -9.2963681    451.88973 0.0088877691 0.0069156658         3881 
 4238000   0.56917162   -9.2651998    452.07534 0.0088893217 0.0069127823         3848 
 4239000   0.57713792   -9.2929045    452.14822 0.0088886573 0.0069098961         3871 
 4240000   0.58575075   -9.2783029    452.06285  0.008884883 0.0069070127         3873 
 4241000   0.56936816   -9.2874985    451.30755 0.0088679468 0.0069041316         3883 
 4242000   0.57275955   -9.2783049    451.71159 0.0088737935 0.0069012529         3880 
 4243000   0.56370312   -9.2787087    451.64985 0.0088704896 0.0068983757         3889 
 4244000    0.5712679   -9.3047514    451.40121 0.0088635172 0.0068954979         3854 
 4245000   0.58304064   -9.3045155    452.09456 0.0088750405 0.0068926232         3886 
 4246000   0.56992899   -9.2939387    451.72384 0.0088656744  0.006889749         3883 
 4247000   0.57028743   -9.2884104    452.78668 0.0088844416 0.0068868789         3868 
 4248000   0.57544275   -9.2989885    451.69471 0.0088609289  0.006884007         3852 
 4249000   0.57362279     -9.27604     451.9673 0.0088641897 0.0068811368         3866 
 4250000   0.57818524   -9.2962323    450.93056 0.0088417756 0.0068782686         3876 
 4251000   0.57345627    -9.299516    451.63165 0.0088534394 0.0068754038         3894 
 4252000   0.56856239   -9.3070306    452.60435 0.0088704208  0.006872543         3865 
 4253000   0.57556303   -9.2956949    451.56074 0.0088478867 0.0068696805         3866 
 4254000   0.56364291   -9.3197456    451.24878 0.0088396957 0.0068668179         3894 
 4255000   0.57440316   -9.2957162    451.36005 0.0088397973 0.0068639578         3865 
 4256000   0.57323097   -9.2950626    450.78899 0.0088265388 0.0068611025         3868 
 4257000    0.5773305   -9.2819542    452.10669 0.0088502602 0.0068582445         3861 
 4258000   0.55951691   -9.3001965    451.62631 0.0088387801 0.0068553911         3870 
 4259000   0.57196557   -9.2980691    451.14958 0.0088273769 0.0068525374         3888 
 4260000   0.56281581   -9.3079988    451.16724 0.0088256502 0.0068496874         3866 
 4261000   0.56142193    -9.289481     451.5159 0.0088303978 0.0068468357         3845 
 4262000    0.5681726   -9.2910415    451.87652  0.008835377 0.0068439855         3893 
 4263000   0.56274317   -9.2991649    451.05121 0.0088171712 0.0068411345         3879 
 4264000   0.56970323   -9.3004973    450.58061 0.0088059062  0.006838288         3864 
 4265000   0.56411598   -9.3042452    451.81868  0.008828032  0.006835445         3861 
 4266000   0.56588853   -9.3050616    451.89184 0.0088273918 0.0068326014         3870 
 4267000    0.5636208   -9.2955841    452.09099 0.0088292124 0.0068297607         3859 
 4268000   0.56879137   -9.2971403     452.0286 0.0088259254 0.0068269259         3890 
 4269000   0.56446251   -9.3081337    451.77338 0.0088188761 0.0068240878         3853 
 4270000    0.5774249   -9.3176302    451.55844  0.008812616 0.0068212519         3882 
 4271000   0.56086346   -9.2995613    452.66558 0.0088321544 0.0068184201         3871 
 4272000   0.57577454   -9.2965637     451.0084 0.0087977606 0.0068155906         3861 
 4273000    0.5712841   -9.3059513    451.04328  0.008796382 0.0068127587         3848 
 4274000   0.57003574   -9.2994751    451.97792 0.0088125472 0.0068099326         3872 
 4275000   0.56373017   -9.2941556    451.46463 0.0088004801 0.0068071071         3874 
 4276000   0.56406427   -9.3075415    451.59909 0.0088010424 0.0068042824         3869 
 4277000   0.56423246   -9.2892955    450.79549 0.0087833273  0.006801458         3896 
 4278000   0.55734038     -9.29858     451.5903 0.0087967567 0.0067986354         3854 
 4279000   0.56100444   -9.3069195    451.27169 0.0087884959 0.0067958137         3877 
 4280000   0.56613308   -9.3074349    451.13669  0.008783814 0.0067929943         3872 
 4281000   0.55625225   -9.3070706    451.89161 0.0087964574 0.0067901776         3893 
 4282000   0.57248755   -9.2956822    451.09852 0.0087789685 0.0067873621         3873 
 4283000   0.56922057   -9.3160794    451.68509 0.0087883315  0.006784544         3874 
 4284000   0.58422323   -9.2964014    451.59402 0.0087845087 0.0067817314         3895 
 4285000   0.56265731   -9.2933724    452.10905 0.0087924746 0.0067789192         3900 
 4286000   0.56770744   -9.3132298    451.41232 0.0087768766 0.0067761113         3858 
 4287000    0.5802165    -9.306877    451.21008 0.0087708981 0.0067733012         3873 
 4288000   0.55969848   -9.3033497     451.5693 0.0087758337 0.0067704933         3858 
 4289000   0.56626597   -9.3007476    451.21527 0.0087669089 0.0067676902         3885 
 4290000    0.5675868   -9.3081658    451.72547  0.008774776 0.0067648882         3858 
 4291000   0.56343195   -9.2914957    451.39701 0.0087663522 0.0067620859         3876 
 4292000   0.56732452   -9.2977795    451.47441 0.0087658125  0.006759286         3846 
 4293000   0.56629401   -9.3062262    451.02327 0.0087550133 0.0067564882         3885 
 4294000   0.56259668    -9.300413    451.02889 0.0087530835   0.00675369         3871 
 4295000   0.56841513   -9.2924346    451.23669 0.0087550775 0.0067508922         3869 
 4296000   0.55422932   -9.3143735    451.80699 0.0087641022 0.0067480951         3868 
 4297000   0.56354372    -9.295579    451.20628 0.0087504128 0.0067453008         3846 
 4298000    0.5534693   -9.3055538    450.92806 0.0087429824 0.0067425071         3879 
 4299000   0.57014674   -9.2810706    452.76035 0.0087764664  0.006739717         3899 
 4300000   0.55754766   -9.2984889    451.71103 0.0087540897 0.0067369299         3876 
 4301000   0.56825427   -9.2988087    452.02158 0.0087580714 0.0067341444         3875 
 4302000   0.56281222   -9.3094238    451.11416  0.008738458 0.0067313593         3856 
 4303000   0.55708916   -9.2936599    450.86108  0.008731526 0.0067285733         3866 
 4304000   0.56424156   -9.3249675    450.71969 0.0087267598 0.0067257931         3857 
 4305000   0.55197398   -9.3124948    451.14192 0.0087329059 0.0067230119         3899 
 4306000    0.5626909   -9.3155254    451.63145 0.0087403516 0.0067202318         3863 
 4307000   0.56096857    -9.293729    451.09902 0.0087280207 0.0067174549         3868 
 4308000   0.57070629   -9.3076772    450.73126 0.0087188808 0.0067146804         3876 
 4309000   0.55939591   -9.3098596    451.55082 0.0087327072 0.0067119055         3866 
 4310000   0.58093844   -9.3068393    451.46234 0.0087289702  0.006709131         3874 
 4311000   0.55568817   -9.3224855    451.49956 0.0087276649 0.0067063599         3899 
 4312000   0.55982706    -9.309106     451.7165 0.0087298334 0.0067035905         3871 
 4313000    0.5549452   -9.3116366    451.08211 0.0087155521 0.0067008224         3854 
 4314000   0.55647335   -9.3114165    450.51355 0.0087025489 0.0066980537         3868 
 4315000   0.55266484   -9.3052911    451.33934   0.00871648 0.0066952879         3881 
 4316000   0.56085898   -9.3109875    451.49972 0.0087175571 0.0066925244         3861 
 4317000    0.5581829   -9.3242473    451.09443 0.0087077143 0.0066897595         3877 
 4318000   0.56955502   -9.3155087     451.1502  0.008706774 0.0066869962         3863 
 4319000     0.566307   -9.3177095    451.61766 0.0087137775 0.0066842355         3853 
 4320000   0.57253061   -9.3191363    450.85316 0.0086970131 0.0066814769         3887 
 4321000   0.56849951   -9.3121782    451.38763  0.008705308 0.0066787203         3881 
 4322000   0.57013914   -9.3194728    451.86239 0.0087124478 0.0066759642         3856 
 4323000   0.54669448   -9.3105969    450.60607 0.0086862147 0.0066732109         3873 
 4324000    0.5626772   -9.3069247    451.17658 0.0086952008 0.0066704593         3841 
 4325000   0.56475491    -9.315215    451.71071 0.0087034818 0.0066677069         3887 
 4326000    0.5557822   -9.3020014    450.89529 0.0086857622 0.0066649579         3878 
 4327000   0.55582987   -9.3240862     451.3363 0.0086922482 0.0066622099         3881 
 4328000   0.54873044   -9.3045291     451.2611  0.008688792 0.0066594634         3866 
 4329000   0.55684288   -9.3068849      451.855 0.0086982175 0.0066567202         3857 
 4330000    0.5677121    -9.296659    452.01637 0.0086993143 0.0066539768         3832 
 4331000   0.55914778   -9.3012558    451.64229  0.008690108 0.0066512374         3872 
 4332000   0.55982521   -9.3098318    451.66378 0.0086885153 0.0066484967         3878 
 4333000   0.56217564   -9.3089769    451.88437 0.0086907526 0.0066457581         3855 
 4334000    0.5549316   -9.3192462    450.52126 0.0086625377 0.0066430213         3861 
 4335000    0.5551132   -9.3169328    450.90328  0.008667883 0.0066402865         3865 
 4336000   0.56441147   -9.3191875    451.13247  0.008670289 0.0066375519         3856 
 4337000    0.5552015   -9.3202598    451.17172 0.0086690438 0.0066348201         3838 
 4338000   0.56293658    -9.304047    450.68254 0.0086576482 0.0066320874         3883 
 4339000    0.5488646   -9.2901321    452.03476 0.0086816232 0.0066293588         3863 
 4340000   0.55761788   -9.3044698    451.78545 0.0086748358 0.0066266298         3857 
 4341000   0.55721482   -9.3058314    450.56178  0.008649347 0.0066239014         3872 
 4342000   0.55278427   -9.3122483    452.65182 0.0086874677 0.0066211752         3852 
 4343000   0.55979994   -9.3233867    451.28485  0.008659238 0.0066184516         3860 
 4344000   0.54504915   -9.3119038    451.30139  0.008657562 0.0066157291         3842 
 4345000   0.54769936   -9.3099134    450.92152 0.0086482839  0.006613008         3885 
 4346000   0.57624161   -9.3042525    450.85241 0.0086449688 0.0066102874         3864 
 4347000   0.55523812   -9.3308211    450.93253  0.008644516 0.0066075701         3833 
 4348000   0.55951478   -9.2946693    451.35352 0.0086505964  0.006604855         3861 
 4349000   0.56226389   -9.3239732    450.92157 0.0086403306 0.0066021433         3869 
 4350000   0.56567884   -9.3063086    451.41631  0.008647822 0.0065994301         3862 
 4351000   0.56247153   -9.3280654    450.35358 0.0086254804 0.0065967205         3871 
 4352000   0.55884584   -9.3195581    450.71729 0.0086304629 0.0065940115         3880 
 4353000   0.56053277   -9.3316708    450.91178 0.0086322034  0.006591303         3862 
 4354000   0.56043856   -9.3136449    451.05074 0.0086328805 0.0065885962         3865 
 4355000   0.55943876   -9.3195061     451.9751 0.0086485858 0.0065858933         3853 
 4356000    0.5493064   -9.3219932    450.65963 0.0086214346 0.0065831891         3850 
 4357000   0.55273048   -9.3140943    450.72547 0.0086207151 0.0065804876         3872 
 4358000   0.54836734   -9.3140214    450.84042 0.0086209351 0.0065777903         3862 
 4359000    0.5577563   -9.3087113    452.08564 0.0086427629 0.0065750932         3855 
 4360000   0.54685027   -9.3263449    450.96943 0.0086194463 0.0065723976         3867 
 4361000   0.56265819   -9.3341282    450.79817 0.0086141972 0.0065697016         3878 
 4362000    0.5564875   -9.2992882    450.42021 0.0086050017 0.0065670071         3841 
 4363000   0.56527259   -9.3155437     450.8509 0.0086112556 0.0065643133         3851 
 4364000    0.5466043   -9.3209448    450.87171 0.0086096797 0.0065616227         3835 
 4365000   0.54272318   -9.3150457    451.18976 0.0086137794 0.0065589343         3831 
 4366000   0.55648553   -9.3356387    450.79618 0.0086042941 0.0065562468         3864 
 4367000   0.55043623   -9.3269438    450.64652 0.0085994679 0.0065535599         3865 
 4368000   0.54667681   -9.3211338    451.53148 0.0086143826 0.0065508726         3854 
 4369000   0.55238105   -9.3125133    451.43807 0.0086106292 0.0065481886         3866 
 4370000   0.55078874   -9.3088345    451.77389 0.0086150628 0.0065455068         3879 
 4371000   0.55234255   -9.3139918    450.85229 0.0085955215 0.0065428255         3844 
 4372000   0.56262058   -9.2991204    451.08903 0.0085980679  0.006540146         3863 
 4373000   0.54074023   -9.3148399    451.23769 0.0085989345 0.0065374679         3850 
 4374000   0.55949736   -9.3332313     450.9013 0.0085905598 0.0065347924         3880 
 4375000   0.55319904   -9.3263013    450.60835 0.0085830161 0.0065321156         3858 
 4376000    0.5416646   -9.3189527    451.20175  0.008592355 0.0065294452         3898 
 4377000   0.55943705   -9.3065309    451.49936 0.0085960583 0.0065267743         3863 
 4378000   0.54928922   -9.3296253    451.19465 0.0085882948  0.006524104         3870 
 4379000   0.55561328   -9.3313364    450.56249 0.0085743033 0.0065214356         3848 
 4380000   0.54896911   -9.3102098    451.35037 0.0085873358 0.0065187678         3847 
 4381000   0.54888571   -9.3151956    450.78395 0.0085746015 0.0065161003         3866 
 4382000   0.56166283   -9.3190793    451.23792 0.0085812779 0.0065134368         3859 
 4383000   0.54295727   -9.3284019    450.77494 0.0085705175 0.0065107743         3884 
 4384000   0.55561372   -9.3065359    451.06177 0.0085740148 0.0065081137         3875 
 4385000   0.56183012   -9.3129397    450.90258 0.0085690342 0.0065054552         3881 
 4386000      0.54742   -9.3298478    451.43853 0.0085772634 0.0065027957         3865 
 4387000   0.55733899   -9.3148499    450.58162 0.0085590308 0.0065001391         3836 
 4388000    0.5508636   -9.3336498    450.98521 0.0085647449 0.0064974849         3837 
 4389000   0.53610875   -9.3273781    451.45678 0.0085717471 0.0064948273         3861 
 4390000   0.56606786   -9.3188429    450.75228 0.0085564214 0.0064921768         3871 
 4391000   0.55832276   -9.3371652    451.35385 0.0085658894 0.0064895262         3839 
 4392000   0.55366304   -9.3163166    449.89845 0.0085363246 0.0064868756         3869 
 4393000    0.5484338   -9.3197756    451.18764 0.0085588368 0.0064842275         3892 
 4394000   0.54670267   -9.3265334    450.63042 0.0085463211 0.0064815814         3875 
 4395000   0.55004199   -9.3291305    450.53702 0.0085426057  0.006478935         3837 
 4396000    0.5505309   -9.3378379    450.39925 0.0085380507 0.0064762907         3864 
 4397000   0.54061592   -9.3300918    451.40152 0.0085551043  0.006473649         3862 
 4398000   0.54433095    -9.328002    450.65119 0.0085389418 0.0064710105         3861 
 4399000   0.54186761    -9.314071    451.32501 0.0085497652 0.0064683706         3856 
 4400000   0.54501521   -9.3147876    451.90919 0.0085588861 0.0064657361         3871 
 4401000   0.53396687   -9.3451025    450.61777 0.0085324883 0.0064630995         3870 
 4402000   0.55291787   -9.3336673     450.8956 0.0085358095 0.0064604651         3857 
 4403000   0.53893108   -9.3227253    450.74549 0.0085310298 0.0064578325         3863 
 4404000   0.54986007   -9.3305121     450.1991 0.0085187537 0.0064552011         3873 
 4405000   0.54101282    -9.336743    451.06887 0.0085332741 0.0064525699         3866 
 4406000    0.5519993   -9.3154424    450.66658 0.0085237287 0.0064499399         3867 
 4407000   0.54727732   -9.3280983    450.60248 0.0085205823 0.0064473111         3852 
 4408000   0.55581324   -9.3239069    450.46883 0.0085161228 0.0064446863         3889 
 4409000   0.54977839   -9.3266598     451.2585 0.0085291166 0.0064420604         3853 
 4410000   0.54734745   -9.3271554    451.46308 0.0085310484 0.0064394362         3885 
 4411000   0.53500955    -9.320192    450.95057 0.0085194319 0.0064368153         3872 
 4412000    0.5426101   -9.3324368    450.64565 0.0085117416  0.006434195         3882 
 4413000   0.54693431   -9.3335581    451.70446  0.008529807 0.0064315782         3867 
 4414000   0.55653134   -9.3518967    450.58903  0.008506816 0.0064289596         3877 
 4415000   0.54306261   -9.3338853    450.45998 0.0085024533 0.0064263459         3872 
 4416000   0.55356693   -9.3236813    450.29242  0.008497366 0.0064237328         3880 
 4417000   0.54693307   -9.3280736     451.1521 0.0085116614 0.0064211201         3883 
 4418000    0.5365931   -9.3330324    450.19453 0.0084916728 0.0064185083         3879 
 4419000   0.55338962   -9.3394244    451.50504 0.0085144649 0.0064158956         3874 
 4420000   0.55502504   -9.3205607    451.32935  0.008509226 0.0064132868         3884 
 4421000   0.53527783   -9.3321592    451.57376 0.0085119083 0.0064106814         3862 
 4422000   0.53595022   -9.3247694    450.77974   0.00849502 0.0064080748         3877 
 4423000   0.55406031   -9.3164155    450.88202 0.0084950264 0.0064054725         3888 
 4424000   0.54996941   -9.3344442    450.07533 0.0084779108 0.0064028718         3878 
 4425000   0.53886725   -9.3424605     450.5782 0.0084854652  0.006400271         3874 
 4426000    0.5399744   -9.3348655    451.08989 0.0084931821 0.0063976735         3882 
 4427000    0.5371071   -9.3338282    450.68718  0.008483683 0.0063950748         3867 
 4428000   0.54475699   -9.3290858    451.03886 0.0084883856 0.0063924762         3880 
 4429000   0.54261718   -9.3316631    450.08784 0.0084685753 0.0063898804         3883 
 4430000   0.55218137   -9.3295747    450.63834 0.0084770191 0.0063872861         3874 
 4431000   0.54968157   -9.3302022    450.46402 0.0084718276 0.0063846953         3870 
 4432000   0.54430829   -9.3526409    450.46201 0.0084698784 0.0063821038         3875 
 4433000   0.55966457   -9.3391316     450.9241 0.0084766543 0.0063795122         3891 
 4434000   0.55043283   -9.3213308    451.77097 0.0084906587 0.0063769238         3884 
 4435000   0.53498347   -9.3472483    450.60419 0.0084668206 0.0063743364         3888 
 4436000   0.54472201   -9.3234647    451.37848 0.0084794575  0.006371752         3876 
 4437000   0.55351458   -9.3349092    450.66966 0.0084642337 0.0063691686         3882 
 4438000   0.54234671   -9.3293174     451.0107 0.0084687303 0.0063665846         3872 
 4439000   0.53782442   -9.3378581    450.97617 0.0084661743  0.006364005         3873 
 4440000   0.53520113   -9.3387087    450.93764 0.0084635443 0.0063614267         3881 
 4441000   0.54228396   -9.3299052    451.18151 0.0084662147 0.0063588469         3871 
 4442000   0.53277929   -9.3466565    450.51858 0.0084518719 0.0063562677         3885 
 4443000   0.53547876   -9.3384005    450.55118 0.0084505811 0.0063536903         3864 
 4444000   0.54113124   -9.3216396    451.35003 0.0084636594 0.0063511168         3901 
 4445000   0.53019815   -9.3172787    450.38522 0.0084436674 0.0063485458         3879 
 4446000   0.52683082   -9.3329411    450.24555 0.0084391503 0.0063459716         3889 
 4447000   0.53572964   -9.3593699    450.45928 0.0084412578 0.0063434018         3874 
 4448000   0.54259093   -9.3254191    451.19111 0.0084530709 0.0063408316         3873 
 4449000   0.54480724   -9.3271839    450.60963 0.0084402793 0.0063382644         3884 
 4450000    0.5306835   -9.3343646    451.27145 0.0084507762 0.0063356998         3888 
 4451000   0.53296922   -9.3492261    450.59396 0.0084361934 0.0063331345         3909 
 4452000   0.53950959    -9.363454    450.59612 0.0084343389 0.0063305699         3879 
 4453000   0.54152972   -9.3344137    450.42127 0.0084291727 0.0063280096         3888 
 4454000   0.54093051   -9.3297991    451.24816 0.0084427511 0.0063254494         3903 
 4455000   0.53883819   -9.3280429    450.84532 0.0084333206 0.0063228898         3887 
 4456000   0.54366168   -9.3304306    450.72505 0.0084291788 0.0063203327         3865 
 4457000   0.54312091   -9.3578298    450.71658 0.0084271293 0.0063177758         3880 
 4458000   0.53901955   -9.3189997    450.55264 0.0084221743 0.0063152241         3879 
 4459000   0.53810798   -9.3459553    450.56395  0.008420497  0.006312672         3871 
 4460000    0.5385114   -9.3314403    450.38979 0.0084153548 0.0063101198         3873 
 4461000   0.54592207   -9.3578893    450.69052 0.0084190862 0.0063075693         3881 
 4462000    0.5473206   -9.3515259    450.46366 0.0084129624 0.0063050214         3895 
 4463000   0.53139723   -9.3373855    450.91886 0.0084195768 0.0063024718         3895 
 4464000   0.53498646    -9.338713    450.92016 0.0084177151 0.0062999262         3893 
 4465000    0.5436153   -9.3502378    450.94548 0.0084163023 0.0062973826         3875 
 4466000   0.52930417   -9.3432271    450.51048 0.0084063009 0.0062948392         3866 
 4467000   0.53299895   -9.3467166    450.84682 0.0084106936 0.0062922994         3872 
 4468000   0.54234149   -9.3229634    450.89868 0.0084097784 0.0062897603         3884 
 4469000    0.5333917   -9.3354927    450.62961 0.0084028793  0.006287221         3882 
 4470000    0.5399697    -9.355324    450.46961 0.0083980167 0.0062846829         3872 
 4471000   0.53768042   -9.3570426    451.02924  0.008406569 0.0062821457         3883 
 4472000   0.54128978   -9.3493345    450.91502 0.0084025607 0.0062796084         3865 
 4473000   0.54110572   -9.3478912    451.03607 0.0084029374 0.0062770749         3884 
 4474000   0.52435234     -9.34244    451.23535  0.008404771 0.0062745418         3859 
 4475000   0.52984761   -9.3363933    450.94294 0.0083974478 0.0062720114         3845 
 4476000   0.54171731   -9.3394456    449.87111 0.0083756164 0.0062694813         3847 
 4477000    0.5311193   -9.3340695    450.64364 0.0083881253 0.0062669513         3856 
 4478000    0.5383004    -9.335886    450.64107 0.0083862042 0.0062644246         3872 
 4479000   0.53991454   -9.3455861    450.02845 0.0083729339 0.0062618981         3863 
 4480000   0.52691808   -9.3557435    450.42235 0.0083783919 0.0062593752         3905 
 4481000    0.5293242      -9.3491    450.51287 0.0083782055 0.0062568525         3889 
 4482000   0.52226471   -9.3468886     450.3477 0.0083732653 0.0062543298         3886 
 4483000   0.53217575   -9.3434972    450.25213  0.008369621 0.0062518088         3879 
 4484000   0.53440762   -9.3274415    450.61849  0.008374563  0.006249289         3886 
 4485000   0.53655231   -9.3555798    449.77043 0.0083569386 0.0062467729         3893 
 4486000   0.52921416   -9.3505877    450.04548  0.008360185 0.0062442568         3872 
 4487000   0.52869696   -9.3552373    449.79186 0.0083536115 0.0062417401         3894 
 4488000   0.53971934   -9.3605784    450.81869 0.0083708163 0.0062392268         3856 
 4489000   0.52849353   -9.3301042    450.19808 0.0083574307 0.0062367119         3872 
 4490000    0.5242551   -9.3478467    450.05647 0.0083529413 0.0062342016         3844 
 4491000   0.53227668   -9.3472598    450.27005 0.0083550443 0.0062316929         3902 
 4492000   0.52691199   -9.3425606    450.76756 0.0083624139 0.0062291862         3849 
 4493000   0.53826198   -9.3478953    450.91678 0.0083633204 0.0062266805         3888 
 4494000    0.5429669   -9.3443199    450.37346 0.0083513844 0.0062241758         3892 
 4495000   0.53322402   -9.3494588    450.69514 0.0083554901  0.006221671         3868 
 4496000   0.52976596   -9.3497196    450.40162 0.0083481914  0.006219169         3883 
 4497000   0.52587886    -9.354032     450.5283 0.0083486825 0.0062166682         3860 
 4498000   0.53937397   -9.3474207    449.95993 0.0083362963 0.0062141691         3860 
 4499000   0.52717718   -9.3326738    450.46732 0.0083438415  0.006211671         3850 
 4500000   0.53390974   -9.3455964    450.64315 0.0083452436 0.0062091752         3857 
 4501000   0.54080556   -9.3564149    450.73213 0.0083450369 0.0062066806         3870 
 4502000   0.53014848   -9.3526993    450.03161 0.0083302164 0.0062041883         3891 
 4503000   0.53112408   -9.3443526    449.99521 0.0083276928 0.0062016975         3871 
 4504000   0.53130986   -9.3510595    450.17199 0.0083291146 0.0061992057         3905 
 4505000   0.53362888   -9.3581038    450.50317  0.008333392 0.0061967154         3874 
 4506000   0.53101261   -9.3424867    450.01541  0.008322522  0.006194225         3866 
 4507000   0.53255837   -9.3620415    450.22007 0.0083244595 0.0061917376         3877 
 4508000   0.53012843   -9.3728838    450.16784 0.0083216475 0.0061892498         3889 
 4509000   0.53026161   -9.3575178    450.31745 0.0083225668 0.0061867651         3883 
 4510000   0.52816891   -9.3630507    449.45843 0.0083048491 0.0061842809         3889 
 4511000   0.51681095   -9.3544322    450.48039 0.0083218871 0.0061817973         3889 
 4512000   0.53439799   -9.3541783    449.97404 0.0083106908 0.0061793161         3901 
 4513000   0.53019239   -9.3709037    450.18297 0.0083127073 0.0061768371         3873 
 4514000   0.53518667   -9.3568971    450.65618 0.0083196015 0.0061743594         3873 
 4515000   0.51393788    -9.346642    450.77667 0.0083199828 0.0061718799         3884 
 4516000   0.53213219   -9.3644754    449.57521 0.0082959701 0.0061694021         3883 
 4517000   0.52620761   -9.3365575    450.03869 0.0083026841 0.0061669285         3891 
 4518000   0.54363749   -9.3530407    450.90968 0.0083169115 0.0061644561         3882 
 4519000   0.52382764    -9.370024    449.78067 0.0082942515 0.0061619835         3870 
 4520000   0.53239043   -9.3541917    450.32029 0.0083023653 0.0061595133         3862 
 4521000   0.53075014   -9.3629911    449.77779 0.0082905291 0.0061570434         3870 
 4522000   0.52971322   -9.3532368    450.31481 0.0082985923 0.0061545749         3865 
 4523000   0.52384625   -9.3671524    450.07685 0.0082923733 0.0061521069         3872 
 4524000    0.5270009   -9.3402983    450.27829 0.0082942509 0.0061496425         3866 
 4525000   0.53594144   -9.3634141     450.3341 0.0082934457 0.0061471784         3870 
 4526000   0.53108886   -9.3667044    449.40784 0.0082745589 0.0061447154         3871 
 4527000   0.53221503   -9.3637751    450.21657 0.0082876182 0.0061422525         3862 
 4528000   0.52479704   -9.3675907    449.02837 0.0082639202  0.006139791         3914 
 4529000   0.53770942   -9.3645965     450.7427 0.0082936392 0.0061373345         3884 
 4530000   0.52280121   -9.3650292    449.08595 0.0082613309 0.0061348761         3869 
 4531000   0.52450236   -9.3661137    450.18216 0.0082796689 0.0061324211         3866 
 4532000   0.52839674   -9.3689899    449.56174 0.0082664338 0.0061299663         3875 
 4533000   0.53263885    -9.358985    450.71246 0.0082857648 0.0061275137         3864 
 4534000   0.52405591   -9.3529792    450.44478 0.0082790174 0.0061250622         3883 
 4535000   0.50919324     -9.36168    450.48999 0.0082780226 0.0061226126         3899 
 4536000   0.52349084   -9.3615143    450.10345 0.0082690963  0.006120164         3873 
 4537000   0.51606961   -9.3751508     449.6806  0.008259507 0.0061177164         3890 
 4538000   0.52677825   -9.3626861    449.99465 0.0082634541  0.006115271         3886 
 4539000   0.52040936   -9.3712396    450.37547 0.0082686251 0.0061128247         3895 
 4540000   0.53228007   -9.3631454    450.76434 0.0082739415 0.0061103818         3875 
 4541000   0.51611035   -9.3525917    450.15665 0.0082609677 0.0061079391         3867 
 4542000   0.52933063   -9.3626334    449.74122 0.0082515268 0.0061054979         3859 
 4543000   0.52586613   -9.3661451    449.98851 0.0082542466  0.006103059         3875 
 4544000   0.52462485   -9.3492142    449.98872 0.0082524339 0.0061006222         3883 
 4545000   0.52266356   -9.3684289    450.04222 0.0082515992 0.0060981832         3867 
 4546000   0.53423183   -9.3595478    449.95883 0.0082482555 0.0060957474         3878 
 4547000   0.51658476   -9.3649096    449.80601 0.0082436406 0.0060933132         3867 
 4548000   0.52267412   -9.3569262    450.12557 0.0082476833 0.0060908786         3890 
 4549000   0.51641384   -9.3571976    450.57767 0.0082541524 0.0060884456         3900 
 4550000   0.52215372   -9.3704314    449.56499  0.008233791 0.0060860129         3891 
 4551000   0.50684594   -9.3709825    450.28804 0.0082452215 0.0060835833         3862 
 4552000   0.52451217   -9.3770876    450.51578 0.0082475794 0.0060811556         3879 
 4553000   0.53077711   -9.3562006    450.64082 0.0082480566 0.0060787309         3865 
 4554000   0.52914917   -9.3646635    449.81641 0.0082311597 0.0060763059         3880 
 4555000   0.52683648   -9.3566379    450.28454 0.0082379169 0.0060738818         3890 
 4556000   0.53200609   -9.3613139    449.41209 0.0082201508 0.0060714575         3891 
 4557000   0.52340129   -9.3587635    450.53478 0.0082388776 0.0060690359         3901 
 4558000   0.52078852    -9.354704    450.12243 0.0082295311 0.0060666151         3864 
 4559000   0.52514004   -9.3538779    449.40994 0.0082147025 0.0060641957         3878 
 4560000   0.52013216   -9.3685351    450.02616 0.0082241623 0.0060617774         3867 
 4561000   0.51590514   -9.3693527    450.35188 0.0082283103  0.006059361         3889 
 4562000   0.52555948    -9.368362    450.45289 0.0082283518 0.0060569451         3872 
 4563000   0.53222448   -9.3692576    449.58287 0.0082106594 0.0060545299         3910 
 4564000   0.52124866   -9.3785991    449.83084 0.0082133881 0.0060521166         3910 
 4565000   0.51044189   -9.3493018    450.26844 0.0082195773 0.0060497056         3853 
 4566000   0.51743482   -9.3679754    450.66767 0.0082250633 0.0060472968         3879 
 4567000   0.51361072   -9.3615985    449.98893 0.0082108775 0.0060448862         3856 
 4568000   0.53247514   -9.3870144    449.63249 0.0082025776 0.0060424787         3867 
 4569000   0.52431107   -9.3551087     449.7772 0.0082034216 0.0060400715         3868 
 4570000   0.51597265   -9.3697241     450.1642 0.0082086835 0.0060376677         3878 
 4571000   0.52429537   -9.3753116     450.5482 0.0082138883  0.006035265         3876 
 4572000   0.51384274    -9.370486    449.57879 0.0081944224  0.006032863         3861 
 4573000   0.52536639   -9.3804799    449.95318 0.0081994529 0.0060304633         3859 
 4574000    0.5194933   -9.3812933    449.79874 0.0081948467 0.0060280654         3892 
 4575000   0.51592811   -9.3601795    449.57061    0.0081889 0.0060256698         3866 
 4576000   0.52762843   -9.3918487    449.52645 0.0081863063 0.0060232743         3887 
 4577000   0.51539662   -9.3770512    450.08336 0.0081946574 0.0060208781         3876 
 4578000   0.51925371   -9.3751353    450.36086 0.0081979187  0.006018486         3891 
 4579000   0.51265703    -9.377972    449.73016 0.0081846502  0.006016094         3881 
 4580000   0.52636828   -9.3661807    450.14911 0.0081904861 0.0060137034         3891 
 4581000   0.51874481   -9.3764237    450.20426 0.0081897014 0.0060113128         3873 
 4582000   0.51866287   -9.3756502    450.64401 0.0081959118 0.0060089235         3872 
 4583000    0.5142521   -9.3472985    449.88751 0.0081803678 0.0060065351         3884 
 4584000   0.51809425   -9.3761683    449.86616 0.0081781952 0.0060041481         3891 
 4585000   0.51718246   -9.3736965    449.77154 0.0081746918 0.0060017633         3873 
 4586000   0.52537936    -9.389969    450.53377 0.0081867599 0.0059993785         3866 
 4587000   0.51382142   -9.3680678     449.5088 0.0081663542 0.0059969963         3896 
 4588000   0.51530395   -9.3765683    449.78386 0.0081695703 0.0059946141         3880 
 4589000   0.51778824   -9.3723059    450.21865 0.0081756855 0.0059922355         3877 
 4590000   0.51826728   -9.3737791    449.58385 0.0081623793 0.0059898577         3876 
 4591000   0.51018072   -9.3737683    450.75766 0.0081819077 0.0059874798         3875 
 4592000   0.51848191   -9.3430648    450.35955 0.0081729012 0.0059851067         3893 
 4593000   0.52172271   -9.3770625    449.81494 0.0081612407 0.0059827326         3876 
 4594000   0.52223083   -9.3488277    450.20426 0.0081665263 0.0059803591         3891 
 4595000   0.52286258   -9.3652845    449.66893 0.0081550405  0.005977986         3890 
 4596000     0.518764    -9.380297    449.84129 0.0081563912 0.0059756156         3873 
 4597000   0.51727362   -9.3588576    450.79486  0.008171903 0.0059732471         3872 
 4598000   0.52249657   -9.3607467    449.99524 0.0081556336   0.00597088         3863 
 4599000   0.51485587   -9.3932093     450.9049 0.0081703432 0.0059685127         3882 
 4600000   0.51184468   -9.3753448    450.19775 0.0081557563 0.0059661479         3887 
 4601000   0.52444589    -9.372312     449.9712 0.0081498805 0.0059637843         3879 
 4602000   0.51478559   -9.3554759    450.58457 0.0081592165 0.0059614195         3888 
 4603000   0.51286827   -9.3695574    449.68005 0.0081410683  0.005959058         3893 
 4604000   0.51169351   -9.3669459     450.4865 0.0081538971 0.0059566997         3867 
 4605000   0.50958679   -9.3919821    449.73915  0.008138602  0.005954341         3881 
 4606000   0.52779837   -9.3706998    450.09305 0.0081432379 0.0059519853         3878 
 4607000   0.51610817   -9.3676102    450.11963 0.0081419512  0.005949629         3895 
 4608000   0.51651783   -9.3873895    449.87765 0.0081358081 0.0059472737         3903 
 4609000   0.51364026   -9.3791469    449.73947 0.0081315446 0.0059449196         3899 
 4610000     0.514636   -9.3742365    449.58419 0.0081269738 0.0059425678         3898 
 4611000   0.51979945   -9.3868072    449.75446 0.0081282886 0.0059402179         3889 
 4612000   0.51254743   -9.3701801    449.52188 0.0081223236 0.0059378702         3864 
 4613000   0.51316173   -9.3777881    449.41235 0.0081185843 0.0059355227         3876 
 4614000   0.51483769   -9.3811041    449.65314 0.0081211736  0.005933175         3895 
 4615000   0.50731861   -9.3786719    449.83752 0.0081227431 0.0059308304         3875 
 4616000   0.52568599   -9.3906204    449.61909 0.0081170402 0.0059284863         3877 
 4617000   0.50934925   -9.3922694     450.0018 0.0081221898 0.0059261412         3876 
 4618000   0.51410496   -9.3756109    449.11255 0.0081043841 0.0059237977         3882 
 4619000   0.50585036   -9.3857891    449.59912  0.008111408 0.0059214556         3880 
 4620000   0.50906022   -9.3788675    449.69282 0.0081113423 0.0059191129         3879 
 4621000   0.50923264   -9.3811184    449.24509 0.0081015128 0.0059167745         3867 
 4622000   0.51793606   -9.3732272    450.61647 0.0081244856 0.0059144382         3871 
 4623000   0.50582594   -9.3674646    449.63976 0.0081051223  0.005912103         3886 
 4624000   0.51908365   -9.3617799    449.42223  0.008099449 0.0059097685         3906 
 4625000   0.51006669   -9.3766006    449.51818 0.0080994266 0.0059074343         3875 
 4626000   0.51409818    -9.368452    449.65156 0.0081000786 0.0059051008         3891 
 4627000   0.51420685   -9.3897716    449.11995 0.0080887535 0.0059027675         3875 
 4628000   0.50524455   -9.3770818    449.86772 0.0081004703 0.0059004387         3865 
 4629000   0.51891136   -9.3634886    450.25424 0.0081056787 0.0058981096         3881 
 4630000   0.51567518   -9.3809319    449.27786 0.0080863545 0.0058957827         3877 
 4631000   0.52080451   -9.3732136    449.97282  0.008097114 0.0058934569         3891 
 4632000   0.52007146    -9.393985    449.18456 0.0080811846 0.0058911314         3903 
 4633000   0.50028209   -9.3928888    449.50261  0.008085161 0.0058888073         3896 
 4634000   0.51830974   -9.3626014    449.88147 0.0080902293 0.0058864842         3868 
 4635000   0.50813869   -9.3873711    449.26547 0.0080774088 0.0058841634         3907 
 4636000    0.5104056   -9.3796456    449.62793 0.0080821817 0.0058818459         3883 
 4637000   0.51002701   -9.3666428    450.23817 0.0080914056 0.0058795296         3889 
 4638000   0.52357145     -9.38742    449.68841 0.0080797832  0.005877213         3869 
 4639000   0.51841797   -9.3840264    449.83853 0.0080807381 0.0058748963         3889 
 4640000   0.51557977    -9.379245    449.42064 0.0080714914   0.00587258         3892 
 4641000   0.50570956   -9.3788609     449.9295 0.0080788892 0.0058702675         3913 
 4642000   0.50907719   -9.3925875    450.01606 0.0080787028 0.0058679556         3890 
 4643000   0.51092978    -9.381573    448.96045 0.0080580166 0.0058656439         3866 
 4644000   0.50273464   -9.3722916    449.81716 0.0080716544 0.0058633331         3882 
 4645000   0.51276918   -9.3801995    449.63138 0.0080665838 0.0058610227         3868 
 4646000   0.51252865   -9.3770456    449.58644 0.0080640415 0.0058587147         3880 
 4647000   0.50397766   -9.3780782     449.6099 0.0080627269 0.0058564074         3907 
 4648000   0.50747119   -9.3697908    450.10306  0.008069834 0.0058541023         3892 
 4649000   0.50526864   -9.3931628    449.70833 0.0080610227 0.0058517984         3880 
 4650000    0.5112419   -9.3912076    449.34243 0.0080527317 0.0058494936         3869 
 4651000   0.50985846   -9.3911624    449.88248 0.0080606765 0.0058471912         3861 
 4652000   0.50720631   -9.3775318     449.8843 0.0080589764 0.0058448902         3888 
 4653000   0.50785093   -9.3692935    449.24708  0.008045832 0.0058425897         3864 
 4654000    0.5154208   -9.3856584    449.43988 0.0080475556 0.0058402912         3880 
 4655000   0.51500715   -9.3924162    449.96853 0.0080552906 0.0058379927         3873 
 4656000   0.49499247   -9.4035214     448.9946  0.008036129 0.0058356956         3895 
 4657000   0.48978721   -9.3971502    450.10684 0.0080543061 0.0058333981         3883 
 4658000   0.51272791   -9.3825293    449.89863  0.008048852 0.0058311034         3878 
 4659000   0.50388401   -9.3783426    449.63285 0.0080423704 0.0058288112         3883 
 4660000   0.51279148   -9.3894624    450.50746 0.0080562851 0.0058265199         3873 
 4661000   0.51157103   -9.3925418     449.2913  0.008032813 0.0058242292         3873 
 4662000    0.5025995   -9.3705935    450.14962 0.0080464326 0.0058219403         3874 
 4663000   0.50343995   -9.3768673    450.32497 0.0080478406 0.0058196526         3832 
 4664000   0.49860188   -9.3838471    449.47586 0.0080309437 0.0058173658         3872 
 4665000   0.51139549   -9.3977005    449.77007 0.0080344779 0.0058150812         3877 
 4666000   0.50251829   -9.3870516    449.23794 0.0080232522 0.0058127964         3870 
 4667000   0.50987286   -9.4015234    449.47446 0.0080257563 0.0058105129         3904 
 4668000   0.49743568   -9.3896204    450.21651 0.0080372841 0.0058082309         3872 
 4669000   0.50075857   -9.3841773    449.47711 0.0080223659 0.0058059498         3864 
 4670000   0.49567226    -9.406242    449.62059 0.0080232082 0.0058036717         3877 
 4671000   0.51086359   -9.3887995    450.01062 0.0080284489 0.0058013931         3878 
 4672000   0.50621408   -9.3882276    450.01123 0.0080267414 0.0057991165         3867 
 4673000   0.51013226   -9.3878376    448.99073 0.0080068253 0.0057968408         3878 
 4674000   0.49749128   -9.3763112    449.90724 0.0080214527  0.005794567         3885 
 4675000   0.50708996   -9.4090373    449.79041 0.0080176543 0.0057922954         3887 
 4676000   0.50558807   -9.4089065    449.48629 0.0080105199 0.0057900239         3890 
 4677000   0.49788307   -9.3829079    449.56931 0.0080102863  0.005787751         3900 
 4678000   0.50628304   -9.3999845    449.00834  0.007998581 0.0057854806         3868 
 4679000   0.51012383   -9.3732203    449.11055 0.0079986919 0.0057832139         3877 
 4680000   0.50111036   -9.3846974    450.24023 0.0080170981 0.0057809467         3870 
 4681000   0.51136079   -9.4046685    449.84882 0.0080084173 0.0057786802         3908 
 4682000   0.50836391   -9.3917206    449.90288 0.0080076691 0.0057764136         3873 
 4683000   0.49553824   -9.4097274    449.91592 0.0080061912   0.00577415         3894 
 4684000   0.50138172   -9.4033367    449.29098 0.0079933636  0.005771888         3888 
 4685000   0.50809756   -9.4008866    449.73426 0.0079995422 0.0057696262         3857 
 4686000   0.50448519    -9.394692    449.39028 0.0079917179 0.0057673658         3889 
 4687000   0.50937634   -9.3837932    449.01562 0.0079833514 0.0057651086         3896 
 4688000   0.50848968   -9.3983696    449.28275  0.007986397 0.0057628517         3867 
 4689000   0.50799233   -9.3882745    449.12578  0.007981904 0.0057605947         3874 
 4690000   0.50248986   -9.4003056    448.81017 0.0079745944 0.0057583397         3872 
 4691000   0.50133381   -9.3915725    449.29322 0.0079814755 0.0057560847         3879 
 4692000   0.50833298   -9.3826566    449.49852 0.0079834208 0.0057538335         3880 
 4693000   0.50312103   -9.3909076    448.79083 0.0079691532 0.0057515817         3870 
 4694000   0.49333705   -9.3915217    449.07862 0.0079725647 0.0057493325         3869 
 4695000   0.49794463   -9.4064425    449.16768 0.0079724472 0.0057470826         3861 
 4696000   0.48850232   -9.3799097    449.77049 0.0079814469 0.0057448335         3880 
 4697000   0.50087975   -9.3966303    449.44879 0.0079740399 0.0057425853         3883 
 4698000   0.51176641   -9.3981895    449.99938 0.0079821091 0.0057403397         3881 
 4699000   0.49632875   -9.3948602    449.09723 0.0079644114 0.0057380956         3870 
 4700000   0.49171663   -9.4096321    449.59157 0.0079714817 0.0057358517         3881 
 4701000   0.50345889   -9.4086072    449.19501 0.0079627564 0.0057336088         3881 
 4702000   0.49987059   -9.3713032    449.82444 0.0079722182  0.005731369         3881 
 4703000   0.50414616   -9.3965683    448.93706 0.0079547994 0.0057291289         3900 
 4704000   0.50049236     -9.40549    448.51963 0.0079457134 0.0057268898         3878 
 4705000   0.50606386   -9.3798173    449.38079 0.0079592773  0.005724652         3862 
 4706000   0.49955318   -9.3848897     449.2483 0.0079552398 0.0057224164         3877 
 4707000   0.50001601   -9.4102844     449.6931 0.0079614244 0.0057201816         3898 
 4708000   0.49274627   -9.3916973    449.18996 0.0079508277 0.0057179464         3863 
 4709000   0.50659301   -9.3979334    448.96148 0.0079450959 0.0057157121         3868 
 4710000   0.48647374   -9.4126865    449.55611 0.0079539298 0.0057134807         3900 
 4711000   0.49872884   -9.4010556    449.12374 0.0079445931 0.0057112503         3884 
 4712000   0.49629268   -9.4103907    448.46297 0.0079312212 0.0057090206         3873 
 4713000   0.49397432    -9.394454    449.37719 0.0079457031 0.0057067926         3878 
 4714000   0.49594018   -9.3946919    449.54925 0.0079470593  0.005704566         3874 
 4715000   0.49151251   -9.4087008    448.95915 0.0079349444  0.005702342         3890 
 4716000   0.49874749   -9.4029092    448.86919 0.0079316722 0.0057001173         3903 
 4717000   0.49410918   -9.3988297    450.13077 0.0079522785 0.0056978943         3879 
 4718000   0.49509419   -9.4062737    449.31303 0.0079361494 0.0056956713         3864 
 4719000   0.50186361   -9.4071776    448.91835 0.0079274979 0.0056934509         3883 
 4720000   0.50383863   -9.3934225    449.16942 0.0079302511  0.005691232         3893 
 4721000   0.51143561    -9.395687    449.32648 0.0079313436 0.0056890145         3886 
 4722000   0.49961612   -9.4016472    449.48082 0.0079323878 0.0056867982         3877 
 4723000   0.49327849    -9.404073    449.38187 0.0079289623 0.0056845831         3869 
 4724000   0.49985595   -9.4145912    449.72395 0.0079333183 0.0056823662         3892 
 4725000   0.48774674   -9.4057564    449.16206 0.0079217294 0.0056801527         3854 
 4726000   0.48680421   -9.3898871    448.83354 0.0079142605 0.0056779385         3876 
 4727000   0.49413674   -9.4151938    449.38011 0.0079222219 0.0056757277         3875 
 4728000   0.49134542   -9.4035066    449.67193 0.0079256897 0.0056735188         3898 
 4729000   0.49761286   -9.3943365    449.03113 0.0079127216  0.005671309         3886 
 4730000   0.49909244   -9.4054665    449.36482 0.0079169278 0.0056690985         3887 
 4731000   0.49395033   -9.4114179    449.57546 0.0079189647 0.0056668921         3895 
 4732000   0.50427113   -9.4115951    448.90664 0.0079055129 0.0056646847         3867 
 4733000   0.50444318   -9.4160726    448.74669 0.0079010264 0.0056624786         3895 
 4734000   0.49064131   -9.4297848    448.28888 0.0078912984 0.0056602737         3903 
 4735000   0.50777942   -9.4055402    449.05881 0.0079031822 0.0056580694         3878 
 4736000    0.4979956   -9.3927828    448.25239 0.0078873239 0.0056558676         3893 
 4737000   0.49269327   -9.4131333     449.2988 0.0079040673 0.0056536682         3896 
 4738000   0.50326792   -9.4091589    448.49156 0.0078882011 0.0056514699         3885 
 4739000   0.48935871   -9.3825145    448.83223 0.0078925271 0.0056492719         3864 
 4740000   0.49812709   -9.4009279    450.10505 0.0079132392 0.0056470761         3879 
 4741000   0.48549602   -9.4121821    448.97888 0.0078917752 0.0056448802         3882 
 4742000   0.49231544   -9.3972451    449.29003 0.0078955791 0.0056426875         3866 
 4743000   0.49188557   -9.4225413    449.24038  0.007893042 0.0056404948         3894 
 4744000   0.49887523   -9.4033033    448.84453 0.0078844247 0.0056383029         3862 
 4745000   0.50034307   -9.4028681    449.11887 0.0078875811 0.0056361121         3886 
 4746000   0.49583043   -9.4077713    449.07148 0.0078850872 0.0056339209         3853 
 4747000   0.48628535   -9.4118242    449.60099 0.0078927215 0.0056317343         3871 
 4748000   0.48405995   -9.3939618    448.52451 0.0078721657 0.0056295481         3870 
 4749000   0.48956764   -9.4255947    448.60222 0.0078718716 0.0056273621         3878 
 4750000   0.48322841   -9.3982405    449.45973 0.0078852585  0.005625177         3878 
 4751000   0.49007168   -9.4041945    449.44802 0.0078833932 0.0056229931         3890 
 4752000   0.48185772   -9.3968678    449.19172 0.0078772398 0.0056208098         3852 
 4753000   0.48434713   -9.4042217    449.03822 0.0078728911 0.0056186294         3874 
 4754000   0.48895216   -9.4098431    448.91124 0.0078690093 0.0056164517         3876 
 4755000   0.48495274   -9.4215534    449.10641 0.0078707747 0.0056142728         3883 
 4756000    0.4863032   -9.4067971    448.81506 0.0078640149 0.0056120952         3885 
 4757000   0.49437768   -9.4272179    448.05818 0.0078491027 0.0056099189         3888 
 4758000   0.48265699   -9.4090394    449.24403 0.0078682225 0.0056077426         3879 
 4759000   0.49626341   -9.4088752     449.1567 0.0078650399 0.0056055686         3877 
 4760000   0.48701036   -9.4036108    449.58406 0.0078708694 0.0056033941         3886 
 4761000   0.48812069   -9.4124983     449.3409   0.00786496 0.0056012204         3874 
 4762000   0.49389328   -9.4206438    448.82532  0.007854286 0.0055990492         3855 
 4763000   0.48607743   -9.4131225    449.13127 0.0078579898 0.0055968794         3884 
 4764000   0.47966898    -9.394659    449.30993 0.0078594656  0.005594711         3915 
 4765000   0.49151717   -9.4333643    448.72529 0.0078475916 0.0055925423         3870 
 4766000   0.48602116   -9.4130349     448.9121 0.0078492114 0.0055903769         3904 
 4767000   0.48993059   -9.4208116    448.47916 0.0078399966 0.0055882117         3887 
 4768000   0.49026965   -9.4015615     449.3602 0.0078537506 0.0055860464         3866 
 4769000   0.48467191   -9.4198727    449.03623 0.0078464428 0.0055838837         3890 
 4770000   0.48786913    -9.424631    449.39765 0.0078511119 0.0055817209         3860 
 4771000   0.47869878   -9.4358785    448.86712 0.0078401997 0.0055795607         3871 
 4772000    0.4830784   -9.4152648    448.22606 0.0078273621 0.0055773994         3888 
 4773000   0.49109258   -9.4035616    449.12028 0.0078413346 0.0055752405         3878 
 4774000   0.48227899   -9.4293757    449.03175 0.0078381467 0.0055730828         3872 
 4775000   0.49284344   -9.4089416    449.11701 0.0078379932 0.0055709269         3890 
 4776000   0.48258134   -9.4051974    449.69226 0.0078463892 0.0055687715         3873 
 4777000   0.48898379   -9.4132858    449.76869   0.00784608 0.0055666167         3852 
 4778000   0.49306424   -9.4079272    449.12023  0.007833128 0.0055644621         3871 
 4779000    0.4982544   -9.4133106      449.217 0.0078331764 0.0055623105         3902 
 4780000   0.49584994   -9.4029404    448.78763 0.0078240521 0.0055601601         3878 
 4781000   0.48627529   -9.4313829    448.64463 0.0078199231 0.0055580094         3898 
 4782000   0.49795295   -9.4192933    448.45208 0.0078149325 0.0055558611         3914 
 4783000   0.48154579   -9.4193329    448.46202 0.0078134717 0.0055537134         3879 
 4784000   0.48699115   -9.4277932    448.52636 0.0078129591 0.0055515676         3912 
 4785000   0.48477945   -9.4230131    449.30447 0.0078248776 0.0055494232         3889 
 4786000   0.48392568   -9.4115162    448.94131 0.0078169192 0.0055472787         3843 
 4787000   0.48772701   -9.3900305    448.98018  0.007815963 0.0055451367         3834 
 4788000   0.48809343   -9.4111323    448.97606 0.0078142589  0.005542995         3869 
 4789000   0.48547611   -9.4089563      448.764 0.0078089371 0.0055408536         3885 
 4790000   0.49384593   -9.4039269    448.29734 0.0077991883 0.0055387123         3885 
 4791000   0.48904323   -9.4237625    448.90255 0.0078080872 0.0055365742         3876 
 4792000   0.49577155   -9.4158218    448.52396  0.007799874 0.0055344364         3903 
 4793000   0.48916867   -9.4331542    449.27956  0.007811384 0.0055323019         3868 
 4794000   0.47845147   -9.4351286     448.8309 0.0078019556 0.0055301667         3910 
 4795000   0.48361812   -9.4392972    448.87341 0.0078010673 0.0055280321         3858 
 4796000   0.48421951   -9.4275245    448.75542 0.0077973905 0.0055258977         3899 
 4797000   0.47759622   -9.4152423     449.3727 0.0078064885 0.0055237649         3851 
 4798000   0.48537813   -9.4269448    449.08008 0.0077997791 0.0055216332         3871 
 4799000   0.48382338   -9.4172195    448.65489 0.0077907705 0.0055195032         3899 
 4800000   0.47262033   -9.4312477    448.35435 0.0077839296 0.0055173735         3899 
 4801000   0.48233459   -9.4195356    448.34413 0.0077821309 0.0055152459         3868 
 4802000   0.48230569    -9.418747     449.1781  0.007794983   0.00551312         3882 
 4803000   0.48463261   -9.4239858     448.6111 0.0077835224 0.0055109951         3871 
 4804000   0.47604977   -9.4250911    449.30544 0.0077939466 0.0055088711         3889 
 4805000   0.48734366     -9.41558    449.17704 0.0077900979 0.0055067484         3890 
 4806000   0.48937884   -9.4266824    448.33999  0.007773963 0.0055046271         3852 
 4807000   0.48157979   -9.4169083    447.98361 0.0077661675 0.0055025067         3866 
 4808000   0.47974888   -9.4354097    449.06439 0.0077832846 0.0055003868         3913 
 4809000   0.48162711   -9.4184988    448.63879  0.007774291 0.0054982665         3878 
 4810000    0.4833176   -9.4280327    448.38857 0.0077683398 0.0054961486         3882 
 4811000   0.49506152   -9.4185293    448.90696 0.0077757042 0.0054940316         3878 
 4812000   0.49507978   -9.4205386    449.20852 0.0077793107 0.0054919174         3869 
 4813000   0.49033089   -9.4169577    448.88333  0.007772064 0.0054898039         3897 
 4814000     0.485855   -9.4237691    449.53151   0.00778167 0.0054876917         3863 
 4815000   0.47709379   -9.4244876    449.10245 0.0077726281 0.0054855802         3886 
 4816000   0.49579752   -9.4210818    448.58712 0.0077620973 0.0054834694         3894 
 4817000   0.49374813   -9.4240495    448.35868 0.0077565338 0.0054813598         3871 
 4818000   0.49223249   -9.4242456    448.53938 0.0077580494 0.0054792505         3853 
 4819000   0.48896466   -9.4132066    448.91807  0.007762988 0.0054771438         3866 
 4820000   0.47734236   -9.4232559    448.83142 0.0077598792 0.0054750361         3878 
 4821000   0.47791682   -9.4141755    449.45429 0.0077690364 0.0054729298         3880 
 4822000   0.47906842   -9.4254269    448.16319 0.0077451124 0.0054708263         3881 
 4823000   0.48128886   -9.4410491    449.01974 0.0077583064 0.0054687237         3879 
 4824000   0.48802476   -9.4311973    448.73657 0.0077518064 0.0054666202         3892 
 4825000   0.47711483   -9.4212433    449.69885 0.0077668196 0.0054645198         3866 
 4826000   0.47800872   -9.4301871    448.91613 0.0077516945 0.0054624184         3877 
 4827000    0.4795945   -9.4321697    448.68625   0.00774612 0.0054603188         3861 
 4828000   0.47347054   -9.4309018    449.35483 0.0077560556 0.0054582202         3876 
 4829000   0.47321943    -9.432675    448.24971 0.0077353784 0.0054561236         3865 
 4830000   0.48162799   -9.4386383    448.37527 0.0077359433 0.0054540271         3878 
 4831000   0.47577453   -9.4205455    448.99352 0.0077450065 0.0054519337         3880 
 4832000   0.47149041   -9.4237398    448.00264 0.0077263149 0.0054498396         3892 
 4833000   0.47019722   -9.4365739     448.4173 0.0077318661 0.0054477467         3869 
 4834000   0.47776337   -9.4161407    448.48659 0.0077314611 0.0054456557         3870 
 4835000   0.47222943      -9.4425    448.58138 0.0077314956 0.0054435651         3897 
 4836000   0.48002957   -9.4339436    449.53778 0.0077463775 0.0054414756         3887 
 4837000   0.47859725   -9.4194118    448.07012 0.0077194908 0.0054393886         3869 
 4838000   0.48051473   -9.4341603    448.41386  0.007723816 0.0054373004         3876 
 4839000   0.46718551   -9.4289278    448.69334 0.0077270327 0.0054352153         3893 
 4840000   0.48027573   -9.4422784    447.77567 0.0077096363 0.0054331289         3888 
 4841000   0.48550361   -9.4435361    448.60345 0.0077222931 0.0054310449         3880 
 4842000   0.48014007   -9.4242072    449.51091 0.0077363162 0.0054289625         3876 
 4843000   0.47718257   -9.4406758    448.24746 0.0077129784  0.005426881         3875 
 4844000   0.47643621   -9.4378259    448.47682 0.0077153321  0.005424801         3883 
 4845000   0.47790592    -9.440852    448.94653 0.0077218186 0.0054227216         3882 
 4846000   0.48621018   -9.4314337    448.48205 0.0077122377 0.0054206432         3874 
 4847000     0.478597   -9.4258874    448.52258 0.0077113434 0.0054185652         3882 
 4848000   0.47514169   -9.4456444    449.99212  0.007735013 0.0054164897         3881 
 4849000   0.47465268   -9.4287114     449.0609 0.0077174142 0.0054144148         3908 
 4850000   0.46998815   -9.4242629    448.52698 0.0077066491 0.0054123391         3888 
 4851000    0.4845902   -9.4245942    448.53422 0.0077051849 0.0054102674         3878 
 4852000   0.49290108    -9.432977    448.79488 0.0077080736 0.0054081959         3871 
 4853000   0.47054325   -9.4403738    448.50027 0.0077014264  0.005406126         3884 
 4854000   0.46800804   -9.4319229    448.03682 0.0076918833 0.0054040564         3872 
 4855000   0.46476386   -9.4406401    448.51179 0.0076984516 0.0054019866         3901 
 4856000   0.49205079   -9.4422029    448.12325 0.0076901986 0.0053999189         3859 
 4857000   0.46403602   -9.4242991    448.90994 0.0077021128 0.0053978517         3884 
 4858000   0.46400805   -9.4254825    448.98182 0.0077017603 0.0053957852         3875 
 4859000   0.47178245   -9.4303267    447.65995 0.0076775048 0.0053937207         3880 
 4860000   0.46649035   -9.4394588    448.91112 0.0076973786  0.005391659         3867 
 4861000   0.47326241   -9.4444734    448.22348 0.0076840067 0.0053895962         3875 
 4862000   0.47506911   -9.4396681    448.91491 0.0076942773 0.0053875351         3868 
 4863000   0.46499675   -9.4413893    448.59323 0.0076871827 0.0053854737         3878 
 4864000   0.46592271    -9.427081    448.74607 0.0076882207 0.0053834143         3890 
 4865000   0.49883969   -9.4203673    448.60648 0.0076842494 0.0053813565         3876 
 4866000   0.46760663   -9.4460457    448.85719 0.0076869638 0.0053793014         3893 
 4867000   0.46710169   -9.4435104    447.96299 0.0076700737 0.0053772454         3870 
 4868000   0.46920679   -9.4389444    449.21918 0.0076900025 0.0053751909         3867 
 4869000   0.46460207   -9.4261094    448.16677  0.007670411 0.0053731362         3892 
 4870000   0.46690247   -9.4409221    449.38015 0.0076895987 0.0053710844         3878 
 4871000   0.47890948   -9.4312298    448.77688 0.0076776994 0.0053690323         3882 
 4872000    0.4753166   -9.4442256    448.79529 0.0076764383 0.0053669816         3888 
 4873000   0.45169257   -9.4426765    447.96475   0.00766066 0.0053649311         3876 
 4874000   0.46659895   -9.4454854    448.70257  0.007671703 0.0053628818         3876 
 4875000    0.4659744   -9.4512856    448.19342 0.0076614261 0.0053608336         3872 
 4876000   0.47372835   -9.4349257    448.53271 0.0076656533 0.0053587867         3862 
 4877000   0.46086777   -9.4447461    448.66807 0.0076663946 0.0053567431         3886 
 4878000   0.47419056   -9.4296972    448.16393 0.0076562103 0.0053546979         3887 
 4879000   0.46611434   -9.4346338    448.48187 0.0076600715 0.0053526541         3895 
 4880000   0.46789516   -9.4237549    448.41601 0.0076573771 0.0053506107         3864 
 4881000     0.478231   -9.4344067    448.34323 0.0076545659 0.0053485691         3874 
 4882000   0.47540352   -9.4444583    448.75154 0.0076599676 0.0053465301         3887 
 4883000   0.47757755   -9.4270165    448.34835 0.0076515181   0.00534449         3853 
 4884000   0.47406743   -9.4432648    448.82693 0.0076581172 0.0053424515         3871 
 4885000    0.4727506   -9.4348082    449.03122 0.0076600344 0.0053404146         3874 
 4886000   0.46108766     -9.44956    448.15805 0.0076435744  0.005338378         3902 
 4887000   0.46331425   -9.4316785    448.40571 0.0076462334 0.0053363414         3874 
 4888000   0.47260571   -9.4314962     448.4265 0.0076450235 0.0053343069         3883 
 4889000   0.47956644   -9.4491921    448.38655 0.0076427788 0.0053322739         3902 
 4890000   0.46363131   -9.4366643    448.28995 0.0076395697 0.0053302419         3872 
 4891000   0.47292682   -9.4385659    448.56855 0.0076427545 0.0053282121         3860 
 4892000   0.46633482   -9.4385444    448.12083 0.0076335655  0.005326182         3880 
 4893000   0.46646517    -9.453829    448.27228 0.0076345848 0.0053241536         3886 
 4894000   0.47029612   -9.4555627     447.5459 0.0076206563 0.0053221244         3874 
 4895000   0.46610539   -9.4307138    448.26973 0.0076314221 0.0053200966         3877 
 4896000    0.4703646   -9.4461519     448.7094 0.0076373468   0.00531807         3872 
 4897000   0.45845019   -9.4386392    448.35914 0.0076298268 0.0053160465         3884 
 4898000    0.4716988   -9.4506682    448.89301 0.0076373521 0.0053140249         3878 
 4899000   0.46865098    -9.432542    448.35875 0.0076267053 0.0053120021         3875 
 4900000   0.46167004   -9.4434239    448.74944 0.0076317932  0.005309982         3870 
 4901000   0.47505563   -9.4510806    447.98972 0.0076173183 0.0053079616         3865 
 4902000   0.46886121   -9.4296707    448.15871 0.0076186372 0.0053059417         3876 
 4903000   0.47384215   -9.4333801    448.10648 0.0076161955 0.0053039235         3877 
 4904000   0.46555385   -9.4384661    448.07874  0.007614171 0.0053019061         3886 
 4905000    0.4697466   -9.4559707    447.95673 0.0076105459 0.0052998906         3894 
 4906000   0.46213544   -9.4382016    448.39377 0.0076164182 0.0052978759         3887 
 4907000    0.4747256   -9.4429983    448.00727 0.0076083022 0.0052958621         3880 
 4908000    0.4631771   -9.4473515    448.64025 0.0076174995 0.0052938499         3867 
 4909000    0.4760199   -9.4459476     447.8493 0.0076025209 0.0052918378         3903 
 4910000   0.46542275   -9.4531433    448.19771 0.0076068858 0.0052898267         3884 
 4911000    0.4645607   -9.4471553    448.13616 0.0076042924 0.0052878184         3878 
 4912000    0.4678568   -9.4470849    447.92148 0.0075991021 0.0052858089         3854 
 4913000   0.47146828   -9.4439095    449.47274 0.0076238677 0.0052838019         3870 
 4914000    0.4615773   -9.4519901    448.10381 0.0075991014 0.0052817959         3850 
 4915000   0.45613255   -9.4522354     448.3066 0.0076009935 0.0052797893         3883 
 4916000   0.46127341   -9.4503991    447.77585 0.0075904503 0.0052777856         3914 
 4917000    0.4602389   -9.4438404    448.01054 0.0075928842 0.0052757824         3865 
 4918000   0.47244052   -9.4463761    448.23696 0.0075951769 0.0052737782         3871 
 4919000   0.46406257   -9.4374995    447.88023 0.0075875894 0.0052717772         3895 
 4920000   0.45465631   -9.4470489    448.30079 0.0075931705 0.0052697777         3888 
 4921000   0.46529321   -9.4618327    448.09654 0.0075881688 0.0052677789         3881 
 4922000   0.46861533   -9.4407461    447.62362 0.0075786202 0.0052657807         3855 
 4923000    0.4588554   -9.4583065    447.84246 0.0075807851 0.0052637833         3870 
 4924000   0.45344348   -9.4404037    448.34672 0.0075877795 0.0052617877         3877 
 4925000   0.45642768   -9.4448511    448.06542 0.0075814792 0.0052597921         3887 
 4926000   0.45815125   -9.4504909    447.96163 0.0075781842 0.0052577987         3851 
 4927000   0.45988277   -9.4433147    447.59919 0.0075705161 0.0052558033         3868 
 4928000   0.46265989    -9.463735    448.60923 0.0075860598 0.0052538105         3887 
 4929000   0.46060082    -9.455414    448.41968 0.0075813161 0.0052518196         3888 
 4930000   0.45954935   -9.4701987     448.2139 0.0075762999 0.0052498287         3863 
 4931000   0.46004111   -9.4340516    447.94826 0.0075702741 0.0052478387         3867 
 4932000   0.46535009   -9.4558606    448.00516 0.0075697005 0.0052458507         3880 
 4933000   0.46230661   -9.4649594    448.13727 0.0075703978 0.0052438636         3867 
 4934000   0.45752154   -9.4640122    448.29527 0.0075715321 0.0052418774         3869 
 4935000   0.47014785   -9.4458018    448.62182  0.007575512  0.005239893         3883 
 4936000   0.46390385   -9.4480242    448.03827 0.0075641254 0.0052379092         3874 
 4937000   0.45454874   -9.4633947    448.18538 0.0075650763 0.0052359259         3874 
 4938000   0.46514481   -9.4552603    447.55465 0.0075529001 0.0052339436         3904 
 4939000   0.46911719   -9.4438017    448.13553 0.0075611718 0.0052319625         3867 
 4940000   0.46351572   -9.4562565    447.85614 0.0075549281 0.0052299827         3888 
 4941000   0.46123837   -9.4512233    448.24066 0.0075598843 0.0052280046         3860 
 4942000   0.46614013   -9.4595701     448.1538   0.00755689 0.0052260267         3881 
 4943000   0.45699628   -9.4583516    448.28111 0.0075575073 0.0052240503         3894 
 4944000   0.47040119   -9.4516956     447.3023 0.0075394806 0.0052220735         3884 
 4945000   0.46372977   -9.4692556    447.92022  0.007548369 0.0052200997         3860 
 4946000   0.46198901   -9.4567361    448.04565 0.0075489562  0.005218127         3863 
 4947000   0.46436516   -9.4660619     447.4819 0.0075379338 0.0052161542         3884 
 4948000   0.46137392   -9.4552974    448.14921  0.007547649 0.0052141821         3873 
 4949000   0.46903773   -9.4669463    448.28502 0.0075484107 0.0052122097         3877 
 4950000   0.45113508   -9.4487844    448.19228 0.0075453246 0.0052102401         3876 
 4951000   0.46657813   -9.4543411    447.65186 0.0075347044 0.0052082705         3871 
 4952000    0.4686251   -9.4489859     448.0329 0.0075395951 0.0052063019         3871 
 4953000    0.4509489    -9.453645    447.84311 0.0075348798 0.0052043338         3878 
 4954000   0.46433766   -9.4360712    448.04327 0.0075367257  0.005202369         3876 
 4955000   0.46328645   -9.4598447    448.10607 0.0075362609 0.0052004039         3875 
 4956000    0.4517213   -9.4688215    448.01749 0.0075332507 0.0051984387         3892 
 4957000   0.46141105   -9.4687285    447.50634  0.007523138 0.0051964743         3865 
 4958000   0.46836399   -9.4569511    448.19243 0.0075331522 0.0051945123         3888 
 4959000   0.45893635    -9.466747    448.02151 0.0075287611 0.0051925521         3891 
 4960000   0.46256728   -9.4586673    447.63054 0.0075206744 0.0051905925         3894 
 4961000   0.45330174   -9.4471077    447.48538 0.0075167201 0.0051886322         3882 
 4962000   0.45110235   -9.4625435    447.95382 0.0075230724 0.0051866728         3891 
 4963000   0.45736818   -9.4615134    447.94981 0.0075214892 0.0051847155         3889 
 4964000   0.45723774    -9.453603    447.49183 0.0075122856 0.0051827601         3847 
 4965000   0.46268266   -9.4532174    447.86303 0.0075170029 0.0051808056         3872 
 4966000   0.46252688   -9.4521206    448.33167 0.0075233533  0.005178851         3883 
 4967000   0.45417378   -9.4526724    448.90316 0.0075314267 0.0051768986         3879 
 4968000   0.46286913   -9.4653029    448.03014 0.0075152667 0.0051749462         3859 
 4969000   0.46984251   -9.4598476    447.57127 0.0075060587 0.0051729951         3881 
 4970000   0.46251937   -9.4600991    447.86437 0.0075094629 0.0051710451         3871 
 4971000    0.4589609   -9.4615971    448.02787 0.0075106931 0.0051690963         3874 
 4972000   0.45369029   -9.4481752    447.44734 0.0074994525 0.0051671473         3878 
 4973000   0.45741636   -9.4553639    448.37868 0.0075135512 0.0051652001         3867 
 4974000   0.45429854   -9.4529048    447.56126 0.0074983457 0.0051632534         3879 
 4975000   0.46004756    -9.456611      447.933 0.0075030653 0.0051613083         3866 
 4976000    0.4561731   -9.4455242    447.77665 0.0074989391  0.005159364         3879 
 4977000   0.47538752   -9.4576383    447.99416 0.0075010743 0.0051574207         3865 
 4978000   0.45614578    -9.476994    448.12684 0.0075017886 0.0051554784         3877 
 4979000   0.44666398   -9.4630132    448.18882 0.0075013191 0.0051535368         3867 
 4980000   0.45606641   -9.4688769    447.87514 0.0074945639 0.0051515958         3874 
 4981000    0.4622906   -9.4706632    448.34455 0.0075009126 0.0051496554         3868 
 4982000   0.45806354   -9.4552184    447.71471 0.0074888717 0.0051477163         3869 
 4983000   0.45422911   -9.4642811    447.70466 0.0074872007 0.0051457773         3864 
 4984000   0.45449713   -9.4724939    447.96485  0.007490049 0.0051438402         3856 
 4985000   0.46126381   -9.4862653    447.69445 0.0074840262 0.0051419036         3880 
 4986000   0.45798545   -9.4621225    447.65289 0.0074818306 0.0051399678         3895 
 4987000   0.44607032   -9.4606498    447.86292   0.00748384 0.0051380348         3881 
 4988000   0.45926466   -9.4683737    447.82976 0.0074817856 0.0051361021         3879 
 4989000   0.45761188   -9.4713789    447.76786 0.0074792521 0.0051341687         3872 
 4990000   0.45821577   -9.4678184    447.56968 0.0074744436 0.0051322382         3874 
 4991000   0.45624491   -9.4609866    447.68487 0.0074748693 0.0051303081         3899 
 4992000   0.45955332   -9.4667261    447.87719 0.0074765823 0.0051283804         3911 
 4993000   0.44146578   -9.4629118    447.97483 0.0074767146 0.0051264533         3882 
 4994000   0.45045213   -9.4659891    447.17607 0.0074618887 0.0051245259         3894 
 4995000   0.46049191   -9.4728736    447.82746 0.0074712623  0.005122599         3871 
 4996000   0.45040821     -9.48295    448.05114 0.0074734979 0.0051206736         3881 
 4997000   0.45124874   -9.4623322    447.82683 0.0074682615 0.0051187497         3883 
 4998000   0.45125382   -9.4520582    447.49887 0.0074612991 0.0051168274         3887 
 4999000   0.46008049   -9.4414994    448.15338 0.0074707171  0.005114905         3876 
 5000000   0.45127064   -9.4724018    448.02208 0.0074670346 0.0051129837         3869 
 5001000   0.45040534   -9.4613609    447.47283 0.0074563892 0.0051110628         3883 
 5002000   0.45335352   -9.4676339    447.83427 0.0074609202 0.0051091437         3877 
 5003000   0.44770995   -9.4737476    447.84751 0.0074596494 0.0051072244         3882 
 5004000   0.44883219   -9.4561601    447.71596 0.0074559679 0.0051053068         3891 
 5005000   0.45159553   -9.4864894    448.10094 0.0074608882 0.0051033907         3875 
 5006000   0.44693749    -9.483031    447.90732 0.0074561746 0.0051014741         3874 
 5007000   0.44914186   -9.4682174    447.45807 0.0074472084 0.0050995602         3905 
 5008000   0.44942768   -9.4665569    447.23738 0.0074420491 0.0050976476         3891 
 5009000   0.45362392   -9.4750761    447.39907 0.0074432533 0.0050957359         3906 
 5010000   0.44500943    -9.479247    447.53493 0.0074440275 0.0050938259         3874 
 5011000   0.44690511   -9.4718919    447.12835 0.0074357804 0.0050919148         3883 
 5012000    0.4468249   -9.4710644    448.71968 0.0074607556  0.005090007         3873 
Loop time of 13588.7 on 48 procs for 5000000 steps with 4000 atoms

Performance: 63582.433 tau/day, 367.954 timesteps/s
99.4% CPU use with 48 MPI tasks x no OpenMP threads

MPI task timing breakdown:
Section |  min time  |  avg time  |  max time  |%varavg| %total
---------------------------------------------------------------
Pair    | 1036.7     | 1126.3     | 1216.3     | 168.5 |  8.29
Neigh   | 96.67      | 99.914     | 103.37     |  17.4 |  0.74
Comm    | 841.59     | 938.57     | 1065       | 196.7 |  6.91
Output  | 18.572     | 18.576     | 18.663     |   0.3 |  0.14
Modify  | 11221      | 11282      | 11341      |  25.8 | 83.02
Other   |            | 123.4      |            |       |  0.91

Nlocal:        83.3333 ave          89 max          77 min
Histogram: 1 4 2 4 8 15 2 5 4 3
Nghost:        2452.02 ave        2482 max        2429 min
Histogram: 3 10 4 9 4 2 7 3 3 3
Neighs:        17036.2 ave       18962 max       15171 min
Histogram: 6 3 9 5 2 0 9 3 6 5
FullNghs:      34073.2 ave       36890 max       30964 min
Histogram: 1 3 3 7 9 7 5 8 3 2

Total # of neighbors = 1635514
Ave neighs/atom = 408.87850
Neighbor list builds = 265799
Dangerous builds = 0

#clear
#
#next RN
#
#jump SELF
Total wall time: 3:46:32
