
units lj                  # Use reduced LJ style units
atom_style atomic         # Uncharged point particles
atom_modify map hash      # Needed for indexing of clusters etc
                          # Used to be able to find where atoms are in relation to each other.

lattice fcc 1.0 spacing 1 1 1
Lattice spacing in x,y,z = 1.5874011 1.5874011 1.5874011
region box block 0 10 0 10 0 10 units lattice
create_box 2 box
Created orthogonal box = (0.0000000 0.0000000 0.0000000) to (15.874011 15.874011 15.874011)
  3 by 4 by 4 MPI processor grid
create_atoms 1 box
Created 4000 atoms
  using lattice units in orthogonal box = (0.0000000 0.0000000 0.0000000) to (15.874011 15.874011 15.874011)
  create_atoms CPU = 0.003 seconds
set type 1 type/fraction 2 0.68 78393
Setting atom values ...
  2740 settings made for type/fraction
mass 1 1.0
mass 2 1.0
pair_style lj/cut  3.5
pair_modify tail  yes
pair_coeff 1  1  1.0  1.0   # Intearaction between 1 and 1 set with epsilon = 1 and sigma = 1
pair_coeff 1  2  1.5  0.8
pair_coeff 2  2  0.5  0.88

write_data data.0
System init for write_data ...
Neighbor list info ...
  update every 1 steps, delay 10 steps, check yes
  max neighbors/atom: 2000, page size: 100000
  master list distance cutoff = 3.8
  ghost atom cutoff = 3.8
  binsize = 1.9, bins = 9 9 9
  1 neighbor lists, perpetual/occasional/extra = 1 0 0
  (1) pair lj/cut, perpetual
      attributes: half, newton on
      pair build: half/bin/atomonly/newton
      stencil: half/bin/3d
      bin: standard
WARNING: Not all mixed pair coeffs generated from mixing. Use write_data with 'pair ij' option to store all pair coeffs. (../write_data.cpp:312)


#############################
#   M E L T   S Y S T E M   #
#############################

velocity all create 2.4 1741580 mom yes dist gaussian # Assign velocities
                                                    # Temperature 2.4, random number seed, zero linear momentum
                                                                                # Gaussian distribution

timestep 0.002   # simulation timestep
thermo 1000       # output thermodynamic data every 1000 steps bf 100

# Define a fix  in this case with index 1 applied to all
# particles in the simulation. This fix is for simulations
# in the anisotropic NPT ensemble. Note that we use the MTK
# correction.
fix 1 all npt temp 2.4 2.4 0.1 iso 5.68 5.68 0.5 mtk yes tchain 5 pchain 5 # Use NPT ensemble
                                                                         # Set temperature and pressure and damping
                                                                         # Numbers of thermostats in chain and in barostat
run 10000          # run for 10000 steps
Per MPI rank memory allocation (min/avg/max) = 3.642 | 3.644 | 3.648 Mbytes
Step Temp E_pair E_mol TotEng Press Volume 
       0          2.4   -4.2819815            0  -0.68288149   -3.8317514         4000 
    1000    2.4200893   -3.8922868            0  -0.26306041    5.7399931    3666.4535 
    2000    2.4045504   -3.9513672            0  -0.34544326    5.4992544    3651.0374 
    3000    2.4095508    -3.989553            0  -0.37613039    5.6410847    3627.2168 
    4000     2.375055   -4.0308808            0  -0.46918889    5.4280752    3611.8742 
    5000    2.4320586   -3.9731704            0  -0.32599454     5.595857     3629.032 
    6000    2.4251858   -3.9425764            0   -0.3057071    5.6169027    3651.7694 
    7000    2.3909064   -3.9378252            0  -0.35236216    5.7824134    3628.0152 
    8000    2.4091805   -3.8943375            0  -0.28147016    5.8477088     3650.773 
    9000    2.4088649   -3.9369833            0  -0.32458936    5.6230699    3637.6198 
   10000    2.3865504   -3.9805629            0  -0.40163222    5.2830658    3660.6577 
Loop time of 2.71164 on 48 procs for 10000 steps with 4000 atoms

Performance: 637252.916 tau/day, 3687.806 timesteps/s
99.6% CPU use with 48 MPI tasks x no OpenMP threads

MPI task timing breakdown:
Section |  min time  |  avg time  |  max time  |%varavg| %total
---------------------------------------------------------------
Pair    | 1.191      | 1.2681     | 1.4545     |   3.8 | 46.76
Neigh   | 0.21811    | 0.22499    | 0.25529    |   1.3 |  8.30
Comm    | 0.74314    | 0.92335    | 1.0405     |   5.1 | 34.05
Output  | 0.00026622 | 0.00027242 | 0.00042831 |   0.0 |  0.01
Modify  | 0.23636    | 0.27904    | 0.31968    |   4.6 | 10.29
Other   |            | 0.0159     |            |       |  0.59

Nlocal:        83.3333 ave          95 max          74 min
Histogram: 4 4 5 7 7 9 4 6 1 1
Nghost:        1738.40 ave        1766 max        1715 min
Histogram: 3 7 2 5 5 14 7 4 0 1
Neighs:        10433.5 ave       12233 max        8641 min
Histogram: 1 3 4 8 8 7 9 5 2 1

Total # of neighbors = 500810
Ave neighs/atom = 125.20250
Neighbor list builds = 905
Dangerous builds = 214

# Equilibrate just above the melting temperature to avoid step fn in T

fix 1 all npt temp 1.25 1.25 0.1 iso 5.68 5.68 0.5 mtk yes tchain 5 pchain 5
run 2000
Per MPI rank memory allocation (min/avg/max) = 3.644 | 3.646 | 3.649 Mbytes
Step Temp E_pair E_mol TotEng Press Volume 
   10000    2.3865504   -3.9805629            0  -0.40163222    5.2830658    3660.6577 
   11000    1.2597954   -5.7798585            0   -3.8906379    5.7260657    2786.3576 
   12000    1.2445395   -5.8818096            0   -4.0154671    5.5330295    2759.8322 
Loop time of 0.667394 on 48 procs for 2000 steps with 4000 atoms

Performance: 517834.656 tau/day, 2996.728 timesteps/s
99.7% CPU use with 48 MPI tasks x no OpenMP threads

MPI task timing breakdown:
Section |  min time  |  avg time  |  max time  |%varavg| %total
---------------------------------------------------------------
Pair    | 0.30084    | 0.32545    | 0.35098    |   2.1 | 48.76
Neigh   | 0.041429   | 0.044059   | 0.047889   |   0.7 |  6.60
Comm    | 0.21751    | 0.24767    | 0.2774     |   2.8 | 37.11
Output  | 5.4028e-05 | 5.561e-05  | 7.1301e-05 |   0.0 |  0.01
Modify  | 0.040823   | 0.045202   | 0.048904   |   1.1 |  6.77
Other   |            | 0.004959   |            |       |  0.74

Nlocal:        83.3333 ave          91 max          77 min
Histogram: 3 3 13 2 7 8 0 7 1 4
Nghost:        2114.08 ave        2143 max        2090 min
Histogram: 1 5 5 9 7 11 3 5 1 1
Neighs:        13870.6 ave       15320 max       12604 min
Histogram: 3 6 7 5 4 7 5 6 2 3

Total # of neighbors = 665788
Ave neighs/atom = 166.44700
Neighbor list builds = 143
Dangerous builds = 13

#############################
# L I N E A R  Q U E N C H  #
#############################

# Define solid atoms. This closely follows ten Wolde  Ruiz-Montero and Frenkel  Faraday Discuss  1996  104  93-110
# Compute components of the per-atom q6 vector
compute q6 all orientorder/atom degrees 1 6 components 6 nnn NULL cutoff 1.3 # compute the Q6 parameter.
                                                                             # Use all neighbours within 1.3 unit cell.

# get number of connections
compute coord_number all coord/atom orientorder q6 0.5

# An atom is solid if it has 8 or more connections (of a possible 14)
variable is_solid atom c_coord_number>=8
group solid dynamic all var is_solid    # Must be dynamic to update
dynamic group solid defined

# do clustering
compute cluster solid cluster/atom 1.3 # Create a cluster where all atoms within are solid and max 1.3 units from another member

# define chunks one chunk per cluster
compute clus_chunks solid chunk/atom c_cluster nchunk every compress yes  # Says which atoms are in which chunk

# count the size of each chunk
compute size_chunks solid property/chunk clus_chunks count


# Find the maximum entry in the vector of chunk sizes
variable max_n equal max(c_size_chunks)


# Thermo style which includes this variable
# thermo_style custom step temp pe vol v_max_n

thermo ${N}  # Print the thermo information every 100 steps
thermo 1000  

# Reset the npt fix at a lower temperature (below freezing)
fix 1  all npt temp  ${temp} ${temp}  0.1  iso  5.68  5.68  0.5  mtk yes tchain  5  pchain  5
fix 1  all npt temp  0.45 ${temp}  0.1  iso  5.68  5.68  0.5  mtk yes tchain  5  pchain  5
fix 1  all npt temp  0.45 0.45  0.1  iso  5.68  5.68  0.5  mtk yes tchain  5  pchain  5

dump dmp2 all dcd ${N} traj.dcd
dump dmp2 all dcd 1000 traj.dcd


compute msd all msd com yes
variable twopoint equal c_msd[4]/6/(step*dt+1.0e-6)
fix 9 all vector 10 c_msd[4]
variable fit equal slope(f_9)/6/(10*dt)
thermo_style custom step temp pe c_msd[4] v_twopoint v_fit v_max_n

fix 1 all npt temp 1.25 ${temp} 0.1 iso 5.68 5.68 0.5 mtk yes tchain 5 pchain 5
fix 1 all npt temp 1.25 0.45 0.1 iso 5.68 5.68 0.5 mtk yes tchain 5 pchain 5
run 5000000 # 5000000  # Run for this many steps
Neighbor list info ...
  update every 1 steps, delay 10 steps, check yes
  max neighbors/atom: 2000, page size: 100000
  master list distance cutoff = 3.8
  ghost atom cutoff = 3.8
  binsize = 1.9, bins = 8 8 8
  4 neighbor lists, perpetual/occasional/extra = 1 3 0
  (1) pair lj/cut, perpetual
      attributes: half, newton on
      pair build: half/bin/atomonly/newton
      stencil: half/bin/3d
      bin: standard
  (2) compute orientorder/atom, occasional
      attributes: full, newton on
      pair build: full/bin/atomonly
      stencil: full/bin/3d
      bin: standard
  (3) compute coord/atom, occasional
      attributes: full, newton on
      pair build: full/bin/atomonly
      stencil: full/bin/3d
      bin: standard
  (4) compute cluster/atom, occasional
      attributes: full, newton on
      pair build: full/bin/atomonly
      stencil: full/bin/3d
      bin: standard
Per MPI rank memory allocation (min/avg/max) = 9.846 | 9.851 | 9.854 Mbytes
Step Temp PotEng c_msd[4] v_twopoint v_fit v_max_n 
   12000    1.2445395   -5.8818096 5.9164568e-34 4.1086504e-36 8.3333333e+20            3 
   13000    1.2479162   -5.8524163   0.57354246 0.0036765541  0.046628646            2 
   14000    1.2328612   -5.8863108    1.1705399 0.0069674994  0.048113397            1 
   15000    1.2547276    -5.895323     1.738189 0.0096566053  0.048767375            2 
   16000    1.2636563   -5.8272808    2.3129478  0.012046603  0.047781954            1 
   17000    1.2623021   -5.8543021    2.8504419  0.013972754  0.047569914            2 
   18000    1.2345267   -5.8496838    3.4236586  0.015850271  0.047365761            3 
   19000     1.234396   -5.8447196    3.9152516  0.017172156  0.047020621            3 
   20000    1.2281635   -5.8725496    4.4040975  0.018350406  0.046309154            3 
   21000     1.229824    -5.887494     4.906315  0.019469504  0.045679849            2 
   22000    1.2534925   -5.8520206    5.5251848   0.02092873  0.045398666            3 
   23000    1.2318714   -5.8548462    6.2369173  0.022597526  0.045654371            1 
   24000    1.2622188   -5.8518292    6.9141721  0.024007541  0.046282786            2 
   25000    1.2373226   -5.8154996    7.4794611  0.024931536  0.046873949            5 
   26000    1.2492799   -5.9289174    8.0243697  0.025719133  0.047226787            2 
   27000    1.2557328    -5.821053    8.7490718  0.027003308  0.047560557            1 
   28000    1.2324227   -5.8646291    9.3228725  0.027746644  0.047939843            2 
   29000    1.2420616   -5.8840367    9.9938222  0.028717879  0.048297427            2 
   30000    1.2324334    -5.872079    10.612986  0.029480516  0.048667016            7 
   31000    1.2431907   -5.8824553    11.156064  0.029989419  0.048932099            3 
   32000    1.2477409   -5.8049766    11.652482  0.030345005  0.049020463            3 
   33000    1.2346315   -5.8649604    12.089881  0.030530001   0.04895386            5 
   34000    1.2492957   -5.8329023    12.729126  0.031198839  0.048824827            2 
   35000    1.2366322   -5.8379428    13.250763  0.031549435  0.048722053            2 
   36000    1.2444896   -5.9010623    13.768347  0.031871174  0.048597356            2 
   37000    1.2424695   -5.8297499      14.4568  0.032560359     0.048508            7 
   38000    1.2452134   -5.8751117    15.100622  0.033115398  0.048496414            2 
   39000    1.2324336   -5.8991454    15.718778  0.033587132  0.048542405            4 
   40000    1.2225059   -5.8932848    16.340245  0.034042177  0.048617752            4 
   41000    1.2534502   -5.8505761    16.942314  0.034435596  0.048675306            2 
   42000    1.2570791   -5.8574901    17.529369  0.034780494  0.048735723            2 
   43000    1.2467814   -5.9065578    18.032421  0.034946551  0.048781302            1 
   44000    1.2285623   -5.8589965    18.665142  0.035350647  0.048812823            3 
   45000     1.241679   -5.8929355    19.161979  0.035485146  0.048804188            2 
   46000    1.2688102   -5.8584606    19.741652  0.035763862  0.048783369            2 
   47000    1.2280816   -5.8738307    20.255649  0.035914271  0.048728167            1 
   48000    1.2288589   -5.8815215    20.786557  0.036087773  0.048682469            4 
   49000    1.2489912   -5.8612173    21.311104  0.036243374  0.048633352            3 
   50000    1.2621191   -5.9317966    21.766299  0.036277165  0.048572025            3 
   51000    1.2106468   -5.8810004    22.493108  0.036753443  0.048490165            3 
   52000    1.2399109   -5.8798708    23.071887  0.036974177  0.048428396            3 
   53000     1.249234   -5.8326999    23.776756  0.037384836  0.048399378            3 
   54000    1.2196535   -5.9059032     24.39756  0.037650556  0.048391298            4 
   55000    1.2474865   -5.8231129    25.251125   0.03825928  0.048435033            3 
   56000    1.2432908   -5.8498119    25.866486  0.038491794  0.048506742            3 
   57000    1.2511453   -5.8853947    26.399545  0.038595825  0.048572189            3 
   58000    1.2150238   -5.8599321    27.037139  0.038846463  0.048627339            1 
   59000    1.2611901   -5.8452417    27.603473  0.038987955  0.048669977            2 
   60000    1.2600006   -5.8482263    28.078405  0.038997784  0.048696296            1 
   61000    1.2305787   -5.8768315    28.806581  0.039353252  0.048723385            3 
   62000    1.2381509   -5.8500182    29.126685   0.03914877  0.048749107            1 
   63000    1.2623281   -5.8780218    29.560353  0.039100996  0.048732997            4 
   64000    1.2306694   -5.8567322    30.362436  0.039534422  0.048722926            2 
   65000    1.2418102   -5.8331662    30.985128  0.039724522    0.0487225            4 
   66000    1.2586109   -5.8633207    31.453391  0.039713877  0.048729899            2 
   67000    1.2385353   -5.8960795    31.929385  0.039713165  0.048727407            3 
   68000    1.2473461   -5.8920723     32.48946  0.039815514  0.048706494            4 
   69000     1.236471   -5.8768283    32.947799  0.039792027  0.048670489            2 
   70000     1.233633   -5.9196779    33.440945  0.039810648  0.048639649            2 
   71000    1.2415017    -5.912481    34.053855  0.039969313  0.048600739            2 
   72000    1.2671204   -5.8620884    34.680399   0.04013935  0.048566467            6 
   73000    1.2573402   -5.8347649    35.489742  0.040513403  0.048538731            3 
   74000    1.2683242   -5.8933813    35.892916   0.04041995  0.048520773            5 
   75000    1.2243481   -5.8569451    36.391864  0.040435404  0.048496518            3 
   76000    1.2595738   -5.8748033    36.732081  0.040276404  0.048447683            2 
   77000    1.2476479     -5.85286    37.306531  0.040375033  0.048397925            2 
   78000    1.2159731   -5.8953086    38.001904  0.040600325  0.048357008            3 
   79000    1.2259013   -5.8502898    38.568193  0.040683748  0.048324021            3 
   80000    1.2239489    -5.826887    39.455588   0.04109957  0.048316696            2 
   81000    1.2907458   -5.9036957    39.798828  0.040945296  0.048298371            2 
   82000    1.2160956   -5.9148661    40.284418  0.040939449  0.048265599            1 
   83000    1.2552979   -5.9155817     40.84214  0.041006164  0.048239072            3 
   84000    1.2171399   -5.8273589    41.690897  0.041360016  0.048231506            3 
   85000    1.2259501   -5.9156942    42.017569  0.041193695  0.048217954            1 
   86000    1.2313137   -5.9074161    42.641914  0.041319684  0.048192995            2 
   87000    1.2587229   -5.8673545    43.399308  0.041570218  0.048186251            2 
   88000    1.2208095   -5.8590704    43.981204  0.041648867  0.048185957            5 
   89000    1.2307747   -5.9446923    44.185168   0.04137188  0.048177012            2 
   90000    1.2524067   -5.9571604    44.912385  0.041585542  0.048156574            2 
   91000    1.2681403   -5.8962856    45.464001  0.041633701  0.048141929            2 
   92000    1.2550731    -5.934442    46.127217  0.041781899  0.048134469            4 
   93000    1.2322373   -5.8885255    46.984753  0.042101033  0.048133917            1 
   94000    1.2325863   -5.8953491    47.284863  0.041919204  0.048132096            1 
   95000    1.2522195   -5.8699938    47.705348  0.041846796   0.04812385            4 
   96000    1.2594393    -5.906564    48.073501  0.041730469  0.048093667            2 
   97000    1.2358085   -5.8981264    48.364069  0.041549887  0.048051899            5 
   98000    1.2415228   -5.9172331    48.830073   0.04152217  0.047998778            2 
   99000    1.2230347   -5.8943365    49.107919  0.041336632  0.047937759            4 
  100000    1.2341577   -5.9039693    49.787372  0.041489476  0.047879305            1 
  101000    1.2312458   -5.8909325    50.216209  0.041432516  0.047821824            3 
  102000    1.2367174   -5.9131342    50.819135  0.041518901  0.047764859            1 
  103000    1.2582124   -5.8962606    51.631155  0.041772779  0.047712298            2 
  104000     1.210844    -5.913727    51.888938  0.041577675  0.047663302            2 
  105000     1.262656   -5.8838767     52.61311  0.041756436  0.047618017            3 
  106000    1.2244694   -5.9084359    53.356305  0.041946781   0.04757899            2 
  107000    1.2501066   -5.8748241    54.072304  0.042112386   0.04754351            4 
  108000    1.2324338   -5.8563043    54.625946  0.042149649  0.047517768            1 
  109000    1.2393252   -5.9355234    55.185808  0.042190984  0.047495328            2 
  110000    1.2279859   -5.9484245    55.688586  0.042188323  0.047472614            4 
  111000    1.2247531   -5.9063394    55.890346  0.041959719  0.047451676            2 
  112000    1.1951369   -5.8911709    56.791175  0.042255338  0.047429252            2 
  113000    1.2237663   -5.9187039    57.102906  0.042111287  0.047402885            2 
  114000    1.2118072   -5.9166309    57.613394  0.042115054  0.047371259            2 
  115000    1.2278772   -5.8780013    58.108751   0.04210779  0.047343589            2 
  116000    1.2469729   -5.9125997    58.478568  0.042010466  0.047314877            1 
  117000    1.2254498   -5.9050335     58.95135  0.041988141  0.047279536            1 
  118000    1.2270296   -5.8866644    59.792871  0.042226604  0.047250677            4 
  119000    1.2480627    -5.901487    60.501714  0.042368147  0.047226423            2 
  120000    1.2181028   -5.9280847    60.822501  0.042237848  0.047198535            4 
  121000    1.2184769   -5.8912912    61.291199  0.042211569  0.047163056            3 
  122000    1.2070272   -5.9195506    61.839715  0.042240242  0.047133947            2 
  123000    1.2473812   -5.8968421     62.50621  0.042348381  0.047097851            3 
  124000    1.2443762   -5.9114941    62.818236  0.042216557  0.047061613            3 
  125000    1.2598365    -5.876278    63.019677  0.042013118  0.047019518            2 
  126000    1.2473502   -5.9396383    63.302426  0.041866684  0.046972897            3 
  127000    1.2452172   -5.9073647    64.399331  0.042256779  0.046932905            1 
  128000    1.2209383   -5.8929604    64.751656  0.042156026  0.046895256            3 
  129000    1.2052502   -5.9022817    65.334034  0.042205448  0.046859206            4 
  130000    1.2522284   -5.9098374     65.81466  0.042188884  0.046825374            2 
  131000    1.2611354   -5.8775997    67.014449  0.042630057  0.046793047            2 
  132000     1.221622   -5.9050308    67.141666  0.042387415  0.046766144            1 
  133000    1.2191704   -5.8734365    67.435963  0.042253109  0.046734986            2 
  134000    1.2404888   -5.8849193    67.897323  0.042224703  0.046703358            1 
  135000    1.2017243   -5.9286802    68.519307  0.042295868  0.046665114            3 
  136000    1.2055112   -5.9150829    68.909133  0.042223734  0.046630023            2 
  137000    1.2348146   -5.8983965    69.449995  0.042244522  0.046596473            2 
  138000    1.2373797   -5.8847084    70.107273  0.042335309   0.04655879            2 
  139000     1.216254   -5.9185989    70.212521  0.042093838  0.046522102            2 
  140000    1.2331567   -5.8744644    71.141395  0.042346068  0.046482122            2 
  141000    1.2196087   -5.9214721    71.334013  0.042159582  0.046443602            5 
  142000    1.2231578   -5.9101253     71.60808  0.042023521  0.046405701            1 
  143000    1.2671045   -5.9544044    72.144462  0.042042227  0.046363696            4 
  144000    1.2409265   -5.8885684    72.965626  0.042225478  0.046325478            2 
  145000    1.2280325   -5.9517776    72.964107  0.041933395  0.046284682            3 
  146000     1.237396   -5.9054636    73.753755  0.042096892  0.046238141            4 
  147000    1.2710282   -5.9207864    73.897584  0.041892054  0.046191431            6 
  148000     1.252697   -5.9444379    74.530155  0.041965177  0.046145514            3 
  149000    1.2294658   -5.8498553    75.599734  0.042281731   0.04610002            3 
  150000    1.1764669   -5.8843305    75.542805  0.041968225  0.046056678            2 
  151000    1.2386493   -5.8598241    76.188898  0.042046853  0.046011126            2 
  152000     1.233758   -5.9334798    76.465153  0.041921685  0.045962185            4 
  153000    1.2292137   -5.9195126    76.904914  0.041887208  0.045911229            4 
  154000    1.2045857   -5.9054391    77.275358   0.04181567  0.045862185            3 
  155000    1.2367935   -5.9352841    77.773225  0.041813562  0.045816172            2 
  156000    1.2144017   -5.9284179    78.482132  0.041924215  0.045775405            2 
  157000     1.237441   -5.9014592    79.073755  0.041971207  0.045736577            2 
  158000    1.2456683   -5.9262164    79.703924  0.042037934  0.045699454            2 
  159000    1.2452245   -5.9253906    80.399161  0.042137925  0.045669701            2 
  160000    1.2196463   -5.9060328    80.864591  0.042116974  0.045633323            2 
  161000    1.2272852   -5.9162504    81.254549   0.04205722   0.04560165            2 
  162000    1.2443876   -5.8993666    82.032868  0.042197977  0.045569929            3 
  163000    1.2096725   -5.9459346    82.411479  0.042132658  0.045540703            3 
  164000    1.2340114   -5.9184752    83.134251  0.042243014   0.04551239            2 
  165000    1.2231587   -5.9008478    83.373927  0.042108044  0.045482553            4 
  166000    1.2275556   -5.9345043    83.577584  0.041956618  0.045447187            3 
  167000    1.2164387   -5.9576076     84.03563  0.041933947  0.045407699            2 
  168000    1.2257097    -5.930649    84.573946  0.041951362  0.045372799            2 
  169000    1.2163549   -5.9140799    85.535207  0.042177124  0.045342281            2 
  170000    1.2354919   -5.9361705    85.801318   0.04205947  0.045316711            3 
  171000    1.2332731   -5.8925128    86.858973  0.042328934  0.045290679            2 
  172000    1.2353114   -5.9017653    87.294606  0.042293898  0.045261808            4 
  173000    1.2226816   -5.8919233    87.666614  0.042228619  0.045235774            6 
  174000      1.23145   -5.9015908    88.247919  0.042264329  0.045213948            5 
  175000    1.1961081   -5.9039147    88.302075  0.042048607  0.045188653            2 
  176000    1.2027434   -5.9170159    88.903755  0.042094581  0.045162005            1 
  177000    1.2275226   -5.8994915    89.584644  0.042177328  0.045132291            1 
  178000    1.2145436   -5.9449015     89.74158  0.042013848  0.045104706            2 
  179000    1.2093145   -5.9406727    90.217322  0.042000616  0.045073673            3 
  180000    1.2350832   -5.9493528    90.651235  0.041968164  0.045038071            1 
  181000    1.2100402   -5.8762019       91.591  0.042168969  0.045007125            2 
  182000    1.2190816   -5.9537395    91.374825   0.04183829  0.044976841            5 
  183000     1.260973   -5.9318003    92.045267  0.041914967  0.044944883            2 
  184000    1.2493654   -5.8995839    92.758121  0.042010018  0.044919007            3 
  185000    1.2188412   -5.8996928    93.314654  0.042033628  0.044889946            4 
  186000     1.256998   -5.9539512    93.554135  0.041914935   0.04485954            2 
  187000    1.2108189   -5.9248945    94.265603  0.042007845  0.044828097            2 
  188000    1.2207775    -5.927601    94.767325  0.042006793  0.044802753            3 
  189000    1.2059777   -5.8809268    95.492435  0.042104248  0.044775548            2 
  190000     1.195472   -5.8803315    95.636707  0.041945924   0.04474717            3 
  191000    1.2100614   -5.9084673    96.087311  0.041922911  0.044717471            4 
  192000    1.2141761   -5.9222337    96.203354  0.041754928  0.044684716            2 
  193000    1.2250878   -5.9754174    96.456177  0.041647745  0.044655649            5 
  194000    1.2066007   -5.9281506    97.576954  0.041914499  0.044624117            3 
  195000    1.2298566   -5.9176416    97.916848  0.041844807  0.044595944            8 
  196000    1.2130648   -5.9127065    98.414088  0.041842724  0.044568706            7 
  197000    1.1955967   -5.9230012     98.99871  0.041877627  0.044542358            3 
  198000      1.21787   -5.9026837    99.475576  0.041866825  0.044516139            2 
  199000    1.2149125   -5.9247523    100.23532  0.041974589  0.044492443            5 
  200000    1.2549125    -5.912405    100.57542  0.041906427  0.044466612            2 
  201000    1.2152477   -5.9541864     100.9562  0.041855803     0.044443            2 
  202000    1.2187139   -5.9536371    101.40783  0.041834913  0.044416734            2 
  203000    1.2359128   -5.9242208    101.59486  0.041705608      0.04439            1 
  204000    1.2240478   -5.9527111    102.67316  0.041941648  0.044364652            7 
  205000    1.2367288   -5.9357121    103.01513  0.041876068  0.044341733            2 
  206000    1.2137137   -5.9462704     103.5338  0.041882606   0.04431798            2 
  207000    1.2065208   -5.9162144    103.94146  0.041844388  0.044295218            3 
  208000    1.2075023   -5.9826942    104.63914  0.041922734  0.044273136            2 
  209000    1.2219181   -5.9619121    105.08131  0.041898448  0.044250444            2 
  210000    1.1911993   -5.9230896    105.69355  0.041941884  0.044230489            4 
  211000    1.2160139     -5.96175    105.80031  0.041785274  0.044206532            3 
  212000    1.2198228   -5.9144831    106.68522  0.041936014  0.044184792            4 
  213000    1.2015676   -5.9493455    107.13197  0.041913917  0.044166826            1 
  214000    1.2185691   -5.8956895    108.08487  0.042089123  0.044154336            2 
  215000    1.2191545    -5.942055    108.58889  0.042088716  0.044139243            3 
  216000    1.2006359   -5.9742513    108.80201  0.041976085  0.044123819            3 
  217000     1.206078   -5.9139694    109.77589   0.04215664  0.044109049            2 
  218000    1.2454462   -5.9522212      110.026  0.042058869  0.044092942            2 
  219000    1.2164219   -5.8916687     111.1265   0.04228558  0.044078872            1 
  220000    1.1961348   -5.9469262    111.27377  0.042149156  0.044067722            3 
  221000    1.2317577    -5.914038    112.21665  0.042313972  0.044056442            3 
  222000    1.2268265   -5.9299223    112.35743  0.042176214  0.044044294            2 
  223000    1.2020426    -5.932974    113.18674  0.042296989  0.044033149            2 
  224000    1.2168879    -5.960343    113.14798  0.042093744  0.044024611            3 
  225000     1.239765   -5.9112499     114.2699  0.042322185  0.044016587            3 
  226000    1.2033248   -5.9952444    114.18995  0.042105439  0.044005759            4 
  227000    1.1985189   -5.9071451     114.9978   0.04221652  0.043993614            1 
  228000     1.210524    -5.976713    115.35755  0.042162849  0.043979769            4 
  229000    1.2099593   -5.9568826    115.72772  0.042113434  0.043966934            4 
  230000     1.247756   -5.9399113    116.43839  0.042187824  0.043956084            4 
  231000    1.2450415   -5.9556726    116.50904  0.042030676  0.043946034            2 
  232000    1.2245647   -5.9963967    117.30323  0.042134783  0.043934748            3 
  233000    1.2107062   -5.9496259    117.91528  0.042172847  0.043923657            2 
  234000    1.2014794   -5.9404349    118.66704  0.042260342  0.043914378            3 
  235000    1.2098251   -5.9418638    119.36677  0.042328642   0.04390603            2 
  236000    1.2396594   -5.9037311    120.18072  0.042436695  0.043900087            1 
  237000    1.2162505   -5.9347738    120.53635  0.042382684  0.043897136            3 
  238000     1.224217    -5.893786    121.48825  0.042537904  0.043892899            2 
  239000     1.222996   -5.9263703    121.38617  0.042324326  0.043885248            3 
  240000    1.2258073   -5.9009447     121.5377   0.04220059  0.043880157            4 
  241000    1.1770563   -5.9639971    122.01936  0.042192032    0.0438719            2 
  242000    1.2286681   -5.9647498    122.48776  0.042178982  0.043862063            1 
  243000    1.2003647   -5.9940693      122.626  0.042052813  0.043851364            3 
  244000    1.2134121   -5.9364627     123.7449  0.042262601  0.043842623            2 
  245000    1.1994488   -5.9558214    124.18292  0.042239087  0.043836747            8 
  246000    1.2268738   -5.9119495    124.89189  0.042307551  0.043829805            3 
  247000    1.2053438   -5.9354285    124.80226  0.042106027  0.043823319            2 
  248000    1.2058387   -5.9303272     126.0334  0.042349934  0.043816423            4 
  249000    1.2212054   -5.9160327    126.32085  0.042276055  0.043810287            1 
  250000    1.1827424   -5.9367641    126.52128   0.04217376    0.0438009            2 
  251000    1.1987998   -5.9371956    126.75595  0.042083648  0.043789621            3 
  252000    1.1942231   -5.9845453    126.36833   0.04178847  0.043775715            6 
  253000    1.2179748   -5.9186506    127.80565  0.042096721  0.043761721            2 
  254000    1.2047028   -5.9433742    127.87463  0.041953619  0.043748166            1 
  255000    1.2024271   -5.9539664    128.31927  0.041934402  0.043734128            2 
  256000    1.2153606    -5.944358    128.91712  0.041965207  0.043721411            1 
  257000     1.221883   -5.9800467     128.7549  0.041749318  0.043705689            2 
  258000    1.1767187   -5.9489828      129.753  0.041909885  0.043689819            4 
  259000    1.2196208   -5.9024478    130.97088  0.042139924  0.043676109            2 
  260000    1.1980477   -5.9525028    130.33565  0.041774248  0.043661809            3 
  261000    1.2222365   -5.9911387    131.11961  0.041864498  0.043646608            2 
  262000    1.2121479   -5.9390948    132.43334  0.042122563  0.043633435            2 
  263000    1.1950308   -5.9408977    132.13153   0.04186677  0.043619788            1 
  264000    1.2146688   -5.9383592    133.17408  0.042037274  0.043607478            4 
  265000    1.1964187   -5.9626556    133.39203  0.041947178  0.043595577            2 
  266000    1.2140463   -5.9733638    134.46991  0.042127164  0.043586347            2 
  267000    1.2006595   -5.9801255    134.44191  0.041960647  0.043576444            1 
  268000    1.2229772   -5.9064827    136.03065  0.042298087  0.043567671            2 
  269000    1.2100871   -5.9185114    135.90976  0.042103396  0.043559893            2 
  270000    1.2137423   -5.9579602    137.12414  0.042322266  0.043554329            3 
  271000    1.1884067   -5.9415194    137.73278  0.042353253  0.043548911            2 
  272000    1.2176214   -5.9479964     138.1326  0.042320037  0.043541994            2 
  273000    1.2404445   -5.9626843    138.48517  0.042272642  0.043536545            4 
  274000    1.2099351   -5.9648018    139.23889  0.042347593  0.043531336            3 
  275000    1.2099904   -5.9586602    139.62649  0.042311058  0.043527054            7 
  276000    1.2178707   -5.9991931     139.6444  0.042163165  0.043524422            2 
  277000    1.2042858   -5.9697783    140.75961  0.042346453  0.043521493            2 
  278000    1.2111825   -5.9451506    141.42424  0.042393358  0.043519227            3 
  279000    1.2026045   -5.9498363    142.23885  0.042484721  0.043516519            3 
  280000    1.1895159   -5.9647731    142.56386  0.042429719  0.043515095            4 
  281000    1.1850949   -5.9597409    143.15759  0.042454801  0.043512043            2 
  282000    1.1955949   -5.9365141    143.86722  0.042513954  0.043509498            3 
  283000    1.2135071   -5.9138438    144.44075  0.042532613  0.043509752            2 
  284000    1.2049355   -5.9573575    144.60498  0.042431038  0.043508185            2 
  285000     1.223171   -5.9677165    144.84755  0.042353084  0.043506104            3 
  286000    1.1919395   -5.9941284    145.01213  0.042252953  0.043502415            2 
  287000    1.2125213   -5.9664385    145.59822  0.042275906    0.0434986            5 
  288000    1.2122811   -5.9273306    146.62034  0.042424867  0.043494131            1 
  289000    1.1940897   -5.9455697    146.63928   0.04228353  0.043487936            6 
  290000    1.2066203   -5.9510642    147.28355  0.042322859  0.043481073            3 
  291000     1.211899   -5.9412998     147.6988  0.042296335  0.043474202            3 
  292000    1.2166056   -5.9682329     147.6721  0.042143863  0.043466641            2 
  293000    1.2068149   -5.9691462    147.95372  0.042080125  0.043457808            3 
  294000     1.213694   -5.9599609    148.20689  0.042008755   0.04344876            2 
  295000    1.1945343   -5.9566055    149.42198    0.0422096  0.043440328            1 
  296000    1.2020687    -6.010811       149.56  0.042105856  0.043432766            2 
  297000    1.1864174   -5.9427494    150.88053  0.042334605  0.043426791            4 
  298000     1.198987   -5.9486989     151.2033  0.042282802  0.043421566            4 
  299000    1.2151254    -5.978991    150.95638  0.042072569  0.043415034            2 
  300000    1.2050338    -5.956639    151.78158  0.042161551  0.043411181            5 
  301000    1.1968764   -5.9910794    152.40683  0.042194582  0.043406509            6 
  302000    1.2109345   -5.9508126    153.32008  0.042306865  0.043399671            4 
  303000    1.2136219   -6.0060009    153.29002  0.042158973  0.043394962            3 
  304000    1.1876289   -5.9510753    154.64501  0.042391724  0.043389564            1 
  305000    1.2080834   -5.9554921    155.15106     0.042391  0.043385973            3 
  306000    1.2068524   -5.9733276    155.19898  0.042265517  0.043380782            4 
  307000    1.1873227   -6.0108127    155.06695  0.042092006  0.043374913            4 
  308000    1.2020052   -5.9778242    155.65642  0.042114831  0.043368879            2 
  309000    1.2209673   -5.9848091    156.58334  0.042228516  0.043362159            2 
  310000     1.209133   -5.9573105    157.53464   0.04234802  0.043356217            4 
  311000    1.1907109   -5.9398537    158.04203   0.04234781   0.04334995            1 
  312000    1.2088271   -6.0127225    158.14081  0.042238464  0.043343686            1 
  313000    1.1967169    -5.967998    158.49391  0.042197526  0.043338158            3 
  314000    1.1946809   -5.9785145    159.28236  0.042272388  0.043334015            2 
  315000    1.1721038   -5.9838127    159.26014  0.042132313  0.043328321            5 
  316000     1.163398   -5.9722449    159.82105  0.042146901  0.043320598            2 
  317000     1.192348   -5.9686059    160.24586   0.04212562  0.043313032            2 
  318000    1.2242503   -6.0045359    160.53681  0.042069393  0.043306916            4 
  319000      1.17164    -5.972739    161.19942  0.042110612  0.043299135            3 
  320000    1.2054386   -5.9781846    162.25421  0.042253701  0.043290983            2 
  321000    1.2073322   -5.9539102    162.30489  0.042135226  0.043282852            4 
  322000    1.2044101   -5.9756547     162.4041  0.042030046  0.043273798            4 
  323000    1.2155463   -5.9619043    162.76926  0.041994134  0.043265478            3 
  324000    1.1875213   -6.0090454    162.62217   0.04182669  0.043254007            2 
  325000    1.2080837   -5.9827169    162.91299  0.041772561  0.043243257            3 
  326000    1.2251308   -5.9892274    164.44991  0.042037299  0.043233538            5 
  327000    1.1979881    -5.980843    164.50167  0.041921934  0.043223026            1 
  328000    1.1628303   -6.0099817    164.40213  0.041768834  0.043213296            3 
  329000    1.1951087   -5.9341123    166.26652  0.042114114  0.043205808            5 
  330000    1.1994623   -5.9892689    166.31682  0.041999197  0.043198607            2 
  331000    1.1911895   -5.9172548    166.77731  0.041988246  0.043191347            1 
  332000    1.2146768   -5.9654643    167.06125  0.041933044  0.043184496            2 
  333000    1.2136607   -5.9984287    168.06763  0.042058967  0.043175227            2 
  334000    1.1885384   -5.9709604    168.17178  0.041959026  0.043167418            2 
  335000    1.1880693   -5.9972512    168.45764  0.041904886  0.043159097            2 
  336000    1.2115586   -5.9690136    168.67139  0.041833183  0.043148636            2 
  337000    1.2224375   -6.0092567    169.41787  0.041893637   0.04313867            2 
  338000    1.1795839    -6.022326    169.87506  0.041882412   0.04312905            2 
  339000    1.2145691   -5.9983174    169.93536  0.041773687  0.043117576            3 
  340000    1.2080698   -6.0259266    170.38779  0.041761713  0.043106568            1 
  341000    1.1727477   -5.9682225    171.87336  0.042002288  0.043096011            3 
  342000    1.2045874   -5.9635755    172.78598  0.042101848  0.043086685            4 
  343000    1.2199581   -5.9804542    172.05533  0.041801587  0.043078987            3 
  344000    1.1897499   -6.0072798    172.90422  0.041885712  0.043070331            3 
  345000    1.1765442   -5.9530678    174.13135  0.042060712   0.04306289            2 
  346000    1.2017318    -5.980896    174.28841  0.041976977  0.043055701            3 
  347000    1.1959185   -5.9786265    174.80608  0.041980326  0.043049333            1 
  348000    1.1932112   -5.9777399    174.52712  0.041792892  0.043042123            2 
  349000    1.1885527   -5.9731883    176.16664  0.042064624   0.04303374            4 
  350000    1.2076452   -6.0013559    175.86177   0.04187185  0.043025089            3 
  351000    1.1835873     -5.89577    177.34777  0.042105359  0.043018757            2 
  352000    1.1967218   -5.9611182    177.25741  0.041964348  0.043010476            2 
  353000    1.2242693   -5.9675094    177.24256  0.041841965  0.043001596            2 
  354000    1.1774655   -6.0337161    176.85687  0.041632973  0.042992018            2 
  355000    1.2209152   -5.9614743    179.03276  0.042026468  0.042982732            1 
  356000    1.2022746   -5.9961156    178.12363  0.041695607  0.042974451            3 
  357000    1.2082242   -5.9480767    179.69163  0.041944824  0.042965555            2 
  358000    1.2059848   -5.9677731      179.341  0.041746043  0.042957209            2 
  359000    1.2113235   -5.9551659    180.48223  0.041894669  0.042948454            1 
  360000     1.193893   -5.9613948    180.31686  0.041740014  0.042939399            5 
  361000    1.2230794    -6.026221    180.31853  0.041624775  0.042928919            1 
  362000    1.2047508   -5.9745603    181.11349  0.041692792  0.042917337            1 
  363000    1.1903727   -5.9353079     182.6314  0.041926401  0.042907944            5 
  364000    1.2088995   -5.9619171    182.69912  0.041826721  0.042899337            3 
  365000    1.1955739   -5.9606505    183.86646  0.041978644  0.042889921            2 
  366000    1.2103228    -6.000129     183.1336  0.041697085  0.042880802            2 
  367000    1.2147142   -5.9875441    183.89575  0.041756527   0.04287144            1 
  368000    1.2024238   -5.9539275    184.75192  0.041836938  0.042863093            5 
  369000    1.1835137   -5.9916172    184.48798  0.041663952  0.042854674            3 
  370000    1.1769761   -6.0295361    184.66448  0.041591099  0.042843248            2 
  371000    1.1962766   -5.9219759    186.65118  0.041925243   0.04283258            1 
  372000    1.2072378   -6.0144491    185.91429  0.041647465  0.042823105            4 
  373000    1.1581485    -5.991535    186.51035  0.041668979  0.042813221            2 
  374000    1.1813576   -6.0172949    187.05237  0.041678335  0.042804344            4 
  375000    1.1661296   -5.9687605    187.56722  0.041681605  0.042794656            1 
  376000    1.1941432   -6.0223397    188.21973  0.041715366  0.042784493            3 
  377000    1.2051431   -6.0318827    187.67839  0.041485055  0.042774513            2 
  378000    1.2090677   -5.9981252    189.12277  0.041693733  0.042763163            2 
  379000    1.1840684   -5.9862272    189.69118  0.041708704  0.042753388            3 
  380000    1.1775656   -5.9779503    189.54609  0.041567125  0.042742899            3 
  381000    1.1916258   -6.0007997    190.68161  0.041706388  0.042732638            1 
  382000    1.1881731   -6.0143973    190.78767  0.041620348  0.042722998            3 
  383000    1.2192894   -5.9969448    190.79689  0.041513684  0.042713512            3 
  384000    1.1982762   -5.9844914    192.34062  0.041740587  0.042704549            2 
  385000    1.2173052   -5.9569403    192.60704  0.041689835  0.042695713            2 
  386000    1.1789425   -5.9641236    191.94177  0.041438205  0.042685306            2 
  387000    1.1717213   -6.0095937    192.76831   0.04150911  0.042674329            3 
  388000    1.1909709   -6.0169176    193.56765  0.041573807  0.042662057            1 
  389000    1.1994629   -6.0058771    193.35991  0.041422432  0.042650425            2 
  390000    1.1870441   -6.0302886    194.41811   0.04154233  0.042640064            2 
  391000    1.1884147   -6.0130534    194.88477  0.041535543  0.042629489            3 
  392000    1.1873665   -5.9507891    196.22338  0.041714154  0.042619975            3 
  393000      1.19216   -6.0180601    195.18826   0.04138852  0.042610849            2 
  394000    1.1643685   -5.9860231    195.92641  0.041439596  0.042600602            5 
  395000    1.1909903   -5.9751242    196.45605  0.041446424  0.042589658            3 
  396000    1.1711718   -5.9783083    197.96934  0.041660216  0.042578792            2 
  397000    1.1872013   -6.0013638    197.24311  0.041402835  0.042569314            2 
  398000    1.1852513   -5.9447947    198.80265  0.041625346   0.04255985            2 
  399000    1.1973646    -6.010959    198.71524  0.041502765  0.042549516            5 
  400000    1.1573178   -6.0092992    199.41107  0.041543973  0.042539825            2 
  401000    1.1658796   -6.0184274    199.02365   0.04135986  0.042528114            3 
  402000     1.181008   -6.0261279     199.2061  0.041294796  0.042516317            4 
  403000    1.2052583    -6.034533    199.67241  0.041288752  0.042504365            1 
  404000    1.1964064   -5.9940201    199.67382  0.041186844  0.042491195            2 
  405000    1.1659168   -6.0285316    200.38785  0.041232069  0.042478589            2 
  406000    1.1732034   -5.9550605    201.33298  0.041324503  0.042467171            2 
  407000    1.1919279   -6.0256896    202.42541  0.041446643  0.042455292            1 
  408000    1.1575324   -6.0077571    203.06966  0.041476647  0.042444008            4 
  409000    1.1934452   -6.0233638    202.92931   0.04134664  0.042432526            1 
  410000    1.2097028   -6.0047714    203.22619  0.041306137  0.042420947            2 
  411000    1.2096087   -5.9762034    203.87972  0.041338143  0.042410823            4 
  412000    1.1801248   -6.0374093    203.44655  0.041150191  0.042399365            5 
  413000    1.1802018   -5.9757011    205.17495  0.041399304  0.042386962            2 
  414000    1.1567095    -6.000716    204.54464  0.041172431  0.042375204            3 
  415000    1.1897452   -6.0178571    205.84275  0.041333886  0.042364099            3 
  416000    1.2025604   -6.0118656     206.3797  0.041342087  0.042352478            3 
  417000     1.176331   -5.9977796    205.74235  0.041115577  0.042340741            3 
  418000    1.2116487   -6.0162356    206.14148  0.041096787  0.042328975            3 
  419000    1.1787697   -6.0088263    207.87832  0.041344136  0.042317146            2 
  420000    1.1951987   -6.0174381    207.61936  0.041194317   0.04230477            2 
  421000    1.1826461   -5.9942677    208.77166  0.041324556  0.042292919            4 
  422000    1.2131912   -6.0311355    208.98817  0.041269385  0.042281083            2 
  423000    1.1677661   -5.9926549    209.24808  0.041223027  0.042269514            5 
  424000    1.1786092    -5.993266    210.46972  0.041365904  0.042259308            4 
  425000     1.195774   -5.9928877    210.71064  0.041315812  0.042250548            2 
  426000    1.1662835   -6.0266562    210.68879  0.041214552  0.042240896            2 
  427000    1.1921599   -5.9879277     211.6462  0.041304879  0.042231936            2 
  428000    1.1774891    -6.051871    211.98019  0.041273402   0.04222283            2 
  429000     1.179948   -6.0460691    211.93254  0.041167937  0.042212552            4 
  430000    1.1947384   -6.0080354    212.53017  0.041188017  0.042202079            4 
  431000    1.2063374     -6.02467    213.25528  0.041232653  0.042192265            2 
  432000    1.2029595   -6.0064584    213.23451  0.041133199  0.042182206            3 
  433000    1.2012595   -6.0000158     213.6961  0.041127041  0.042172472            1 
  434000    1.1702218    -5.958774    215.22633    0.0413261  0.042162676            4 
  435000    1.2153912   -6.0354274    214.22705  0.041039665  0.042153237            4 
  436000    1.1782747   -6.0535046    215.27677  0.041146172   0.04214253            3 
  437000    1.1589218   -6.0109931    215.72927  0.041138304  0.042132495            5 
  438000     1.195578   -6.0205391     215.5154   0.04100369  0.042122756            2 
  439000    1.1639569   -6.0429793    217.05758  0.041203034  0.042113847            2 
  440000    1.1937091   -6.0443455    217.70524  0.041232053  0.042105663            2 
  441000      1.18093   -6.0099746    218.46359  0.041281857  0.042098445            3 
  442000    1.1786205   -6.0111074    219.60768  0.041404163  0.042091954            3 
  443000    1.1931571   -5.9856526    219.84724  0.041355763  0.042084803            4 
  444000    1.1648157    -5.991651    221.01004  0.041480864  0.042078944            4 
  445000    1.1896071     -6.00526    221.21351  0.041425751  0.042072117            2 
  446000    1.1666694   -6.0401506    220.62326  0.041222582   0.04206551            3 
  447000    1.1758631   -6.0108507    221.68854   0.04132896   0.04205867            2 
  448000    1.1702695   -6.0173819    223.38114  0.041551551  0.042053103            5 
  449000    1.1655807   -6.0625592    223.07759  0.041402671   0.04204657            4 
  450000    1.1737518   -6.0408551    223.42463  0.041374931  0.042039353            4 
  451000    1.1808738   -6.0483916    223.38592  0.041276038  0.042032598            6 
  452000    1.2009592   -6.0121803     224.1561  0.041326714  0.042025592            3 
  453000    1.1942488   -6.0114662    224.73092   0.04134123  0.042017907            2 
  454000    1.1971762   -6.0191782    224.34835  0.041179947  0.042010855            2 
  455000    1.1889111    -5.965357    226.06821  0.041404434  0.042004319            4 
  456000    1.1705243   -5.9879552    226.47219  0.041387462  0.041997901            2 
  457000    1.2011479   -6.0313934    227.04674  0.041401666  0.041991655            2 
  458000    1.1882951   -6.0055501    227.96397   0.04147816  0.041984714            3 
  459000    1.1996055   -6.0410247    227.65322  0.041331377  0.041978084            2 
  460000    1.1778935    -6.084059    226.70394  0.041069554  0.041971285            2 
  461000    1.1688811    -6.027337    228.08332  0.041229813  0.041964616            3 
  462000    1.1793312   -5.9977235    229.41117  0.041380081  0.041957533            2 
  463000    1.1776491   -6.0267594    228.79133  0.041179144  0.041949657            4 
  464000    1.1470303   -6.0062959    230.28565  0.041358774   0.04194318            2 
  465000    1.1859551   -6.0360218    229.85418  0.041192505  0.041935957            5 
  466000    1.2052635   -6.0484847    230.17005  0.041160596  0.041929309            2 
  467000    1.1556433   -6.0184503    231.46267  0.041303117  0.041922222            4 
  468000    1.1871961   -6.0558504    231.60186  0.041239648  0.041916012            4 
  469000     1.179139   -6.0422516    232.28867   0.04127375  0.041909063            6 
  470000    1.1779169   -6.0401258    232.50971  0.041225126  0.041901865            4 
  471000    1.1800883   -6.0283182     232.6791  0.041167568  0.041894123            4 
  472000    1.1591861   -5.9839666    233.74552   0.04126863  0.041886926            3 
  473000     1.173023   -6.0259448    233.35095  0.041111866  0.041880999            2 
  474000    1.1595757    -6.031665    234.10385  0.041157499  0.041874801            5 
  475000    1.1707795   -5.9676874    236.05416   0.04141301  0.041867938            4 
  476000    1.1704322   -6.0414764    236.02437  0.041320793  0.041861918            3 
  477000    1.1717507   -5.9878821    236.67943  0.041348607  0.041855727            2 
  478000    1.2107213   -5.9900817    237.15041  0.041344213  0.041850392            4 
  479000    1.1760724   -5.9907283    237.37188   0.04129643  0.041844485            6 
  480000    1.1448744   -6.0282721    237.61713  0.041252974  0.041838259            4 
  481000    1.1889592   -6.0764269    237.68606   0.04117915  0.041830751            3 
  482000    1.1492376    -6.059526    238.65395  0.041261056  0.041823912            4 
  483000    1.1922608   -6.0538583    238.70799  0.041184954  0.041817231            1 
  484000    1.1777609   -6.0466083    239.98764  0.041320186  0.041811638            3 
  485000    1.1604175   -6.0709425    240.10306  0.041254821   0.04180574            3 
  486000    1.1824195   -6.0535039    240.34882  0.041212075  0.041799659            2 
  487000    1.1707946   -6.0158104    241.25199  0.041281997  0.041793537            2 
  488000    1.1576109   -6.0240773    241.56016  0.041250027  0.041787639            3 
  489000    1.1494572   -6.0481322    241.05144  0.041078978  0.041781896            3 
  490000    1.1690349   -6.0653784    242.13343  0.041179155  0.041775343            3 
  491000    1.1659964   -6.0607808     242.0778  0.041085845  0.041768517            2 
  492000    1.1491242    -5.998682    242.95474   0.04115087  0.041761275            3 
  493000    1.1475994   -6.0268344    243.73953  0.041200056  0.041754113            5 
  494000    1.1745215   -6.0148788    244.16351  0.041188177  0.041746837            4 
  495000    1.1917829   -6.0053234    244.21645   0.04111388  0.041740296            2 
  496000    1.1623866   -6.0600804    243.59123  0.040925947  0.041733549            4 
  497000    1.1770696    -6.004321    245.45277  0.041155729  0.041725963            1 
  498000    1.1575942   -6.0491483    245.44925  0.041072498  0.041718702            4 
  499000    1.1824641   -6.0076874    246.15356  0.041107808  0.041711198            3 
  500000    1.1444378    -6.013891    246.59484   0.04109914  0.041704069            2 
  501000      1.18347   -6.0346159     247.0059   0.04108548   0.04169698            3 
  502000    1.1767521   -6.0773525    246.22218  0.040873536  0.041689491            2 
  503000    1.1944762   -6.0149162    249.20772  0.041286899  0.041683036            5 
  504000    1.1618497   -6.1086268    248.38736  0.041069339  0.041676298            4 
  505000    1.1647214   -6.0773436    248.19472  0.040956225  0.041669111            5 
  506000    1.1601154   -6.0539686    248.66478  0.040952697  0.041661806            5 
  507000    1.1748356    -6.036605    249.36131  0.040986409  0.041654997            3 
  508000    1.1690567   -6.0356571    249.34932  0.040903759  0.041647333            5 
  509000    1.1623414   -6.0475703    250.23311  0.040968093  0.041640564            3 
  510000    1.1376814   -6.0451845    250.87719  0.040993005  0.041633694            1 
  511000    1.1553306   -6.0982101     250.7482  0.040891748  0.041626061            2 
  512000    1.1898208   -6.0141854    252.33234  0.041069717  0.041618567            2 
  513000    1.1651089   -6.0189989    252.58097  0.041030048   0.04161196            3 
  514000    1.1743141    -6.018815    252.58976  0.040951648  0.041604671            3 
  515000    1.1493565   -6.0262928    254.19754  0.041132289  0.041597305            3 
  516000    1.1542432   -6.0513766    254.01465  0.041023038  0.041589818            1 
  517000    1.1793461   -6.0062926    254.43606  0.041011616  0.041582868            5 
  518000     1.154305   -6.0535271    253.84046  0.040836625  0.041575663            4 
  519000    1.1597466   -6.0803156    254.36308  0.040841856  0.041567929            2 
  520000    1.1762952   -6.0466132     256.0444  0.041032757  0.041559977            2 
  521000     1.177001   -6.0905798    255.18426   0.04081642  0.041553384            2 
  522000    1.1654923   -6.0346232    256.44947  0.040940209  0.041545813            3 
  523000    1.1597103   -6.0229406    256.84142  0.040924382  0.041538101            5 
  524000    1.1819022   -6.0476265    257.32105  0.040922559  0.041529687            6 
  525000    1.1762863   -6.0380918    256.99668  0.040793124  0.041522182            2 
  526000    1.1710976   -6.0577862    257.22825  0.040752258  0.041513806            2 
  527000    1.1721013   -6.0347186    257.77214  0.040760933  0.041505505            2 
  528000    1.1709809   -6.0778819    257.24143  0.040599973  0.041496111            3 
  529000    1.1861479   -6.1166219    258.24906  0.040681957  0.041486839            1 
  530000    1.1516647   -6.0850582    258.90155  0.040707791  0.041476441            9 
  531000    1.1781026    -6.074083    258.62379  0.040587537  0.041466363            1 
  532000    1.1655543   -6.0600878    259.69259  0.040678663  0.041456558            3 
  533000    1.1774074    -6.054314    260.11445    0.0406683  0.041446022            8 
  534000    1.1527756   -6.0515885    259.70207  0.040527788  0.041436423            2 
  535000    1.1796981   -6.0459776    261.65241  0.040755827  0.041427228            2 
  536000    1.1424434   -6.0228766    262.28309  0.040777843  0.041418759            3 
  537000    1.1577472   -6.0625014    262.49747  0.040735175  0.041410047            2 
  538000    1.1421194   -6.0700605    263.17709  0.040764728  0.041402026            3 
  539000    1.1531365   -6.0648941    263.16885  0.040687825  0.041394076            2 
  540000    1.1737747    -6.078201    263.92786  0.040729609  0.041386358            3 
  541000    1.1665021   -6.0232719    264.88531  0.040801804   0.04137896            2 
  542000    1.1791405   -6.0704789    265.08728  0.040757577  0.041372501            6 
  543000    1.1839509   -6.0603567    265.54568  0.040752867   0.04136458            4 
  544000    1.1716853    -6.028472    266.34968  0.040801115  0.041357651            4 
  545000    1.1848666    -6.067833    266.39515  0.040733204  0.041349895            2 
  546000     1.186116   -6.0468608    267.42214  0.040815345  0.041342681            4 
  547000    1.1754138    -6.064315    267.19244  0.040705734  0.041334949            4 
  548000    1.1700888    -6.051238    268.45735  0.040823807  0.041326901            4 
  549000    1.1831947   -6.0424804    268.45861  0.040749638  0.041319669            4 
  550000    1.1671096   -6.0570402    268.24662  0.040643427  0.041312142            1 
  551000    1.1739721   -6.0625718    268.80677  0.040654381   0.04130361            2 
  552000    1.1592284   -6.0800014    269.23033  0.040644675  0.041296256            6 
  553000    1.1604042   -6.0411412    269.57474  0.040623077   0.04128836            5 
  554000    1.1477021   -6.0640196    269.72546  0.040572422  0.041279389            1 
  555000    1.1596096   -6.0953897    270.48465   0.04061331  0.041270428            2 
  556000    1.1715834    -6.054904    270.63791  0.040563235  0.041261523            4 
  557000    1.1640131   -6.0439633    270.92952  0.040534039  0.041253078            6 
  558000    1.1483341   -6.0613453    271.66547  0.040571307   0.04124493            2 
  559000    1.1708766   -6.0897849    271.83041  0.040523316  0.041236062            2 
  560000    1.1706974   -6.0731437    271.93983  0.040467236  0.041227486            2 
  561000    1.1569032   -6.0634973    272.96772  0.040547789  0.041219618            7 
  562000     1.159275   -6.0069906    273.93165  0.040618572  0.041211321            2 
  563000    1.1765867    -6.054917    275.05095    0.0407121  0.041203384            7 
  564000    1.1670847   -6.0945046    275.36563  0.040686411  0.041195118            1 
  565000    1.1541715   -6.0801377    274.87405  0.040541896  0.041187305            4 
  566000    1.1527723   -6.0280693    275.38071  0.040544863   0.04117936            3 
  567000     1.150498   -6.0659593    276.73907  0.040672997  0.041171072            2 
  568000    1.1696363   -6.0747671    276.08984  0.040506138  0.041162508            3 
  569000    1.1331691    -6.040766    276.14579  0.040443145  0.041154498            5 
  570000    1.1643966   -6.0443606    277.51298  0.040572073  0.041146046            2 
  571000    1.1266009   -6.1063181     274.9689  0.040129729  0.041136624            2 
  572000    1.1313618   -6.0957659     277.2787   0.04039608  0.041126905            3 
  573000    1.1382189   -6.0585029    277.68953  0.040385331  0.041117464            6 
  574000    1.1628773   -6.0979878    277.86278  0.040340125  0.041108365            2 
  575000    1.1804481   -6.0641679    278.72014  0.040394222     0.041099            2 
  576000    1.1640961   -6.0764502    279.04254  0.040370737   0.04108967            2 
  577000     1.169112   -6.0538908    280.59073  0.040524368  0.041080149            3 
  578000    1.1497197   -6.0787618    279.58772  0.040309648  0.041070502            2 
  579000    1.1858178   -6.0654407    280.74057  0.040405955  0.041061711            4 
  580000      1.14681   -6.0381041    280.85564  0.040352821  0.041053069            3 
  581000    1.1482414   -6.0636514    280.60399  0.040247273  0.041044415            2 
  582000    1.1482348   -6.0830021    280.17333  0.040116456  0.041035214            2 
  583000    1.1498452    -6.043375    282.29903  0.040351491  0.041025815            1 
  584000    1.1670142   -6.0520536    282.07952  0.040251073  0.041016122            3 
  585000    1.1869003   -6.0685078    281.69926    0.0401281  0.041006815            3 
  586000    1.1430333   -6.0603066    283.15077  0.040266037  0.040997632            1 
  587000    1.1427584   -6.0787342    283.72218   0.04027856  0.040988119            4 
  588000     1.187121    -6.087509    284.13564  0.040268657  0.040977814            2 
  589000    1.1549208   -6.0532719    284.90356  0.040308935  0.040967955            5 
  590000    1.1245885   -6.0344195    285.39303   0.04030975  0.040959683            2 
  591000    1.1781798   -6.0327365    286.25368  0.040362899  0.040951656            3 
  592000     1.160432    -6.072617    286.88497  0.040383582  0.040943462            1 
  593000    1.1555368   -6.0420075    286.92999  0.040321809  0.040935447            1 
  594000     1.152504   -6.0610668    286.87795  0.040246626  0.040927017            3 
  595000    1.1558328   -6.0671906    287.49993  0.040266096  0.040918176            2 
  596000    1.1445718   -6.0955014    288.19127    0.0402952  0.040908737            2 
  597000    1.1708071   -6.0705522    288.73331  0.040303366  0.040899696            3 
  598000    1.1649244   -6.0619888    289.29888  0.040314783  0.040891064            2 
  599000    1.1490739   -6.0711349    289.93081  0.040335393  0.040883207            4 
  600000    1.1690339    -6.085253    290.56023  0.040355588   0.04087461            4 
  601000    1.1557411   -6.0804907    291.40343  0.040405356  0.040866191            3 
  602000    1.1652654   -6.0764262    292.08705   0.04043287  0.040858513            3 
  603000    1.1346254   -6.1057652    291.59881  0.040298343  0.040850445            4 
  604000    1.1652728      -6.0709    292.86666  0.040406547  0.040843256            3 
  605000     1.146819   -6.0349992    294.29973  0.040537153  0.040836009            3 
  606000    1.1743127   -6.0618579    293.54423  0.040366368  0.040828891            3 
  607000    1.1489218   -6.0380188    294.77629  0.040469012  0.040820479            2 
  608000    1.1714343   -6.0679469    293.80013  0.040268658  0.040813047            2 
  609000    1.1590576    -6.044177     295.2345   0.04039881   0.04080561            1 
  610000    1.1442157    -6.039531    294.99585  0.040299979  0.040798003            2 
  611000    1.1601653   -6.0626116    294.92517  0.040224382  0.040790986            1 
  612000    1.1550345    -6.101613    295.90723  0.040292379  0.040782907            3 
  613000    1.1588157   -6.0608683    295.66088   0.04019316  0.040774737            5 
  614000    1.1809056    -6.109512     294.2294  0.039933414  0.040766023            7 
  615000    1.1330309   -6.0688362    296.81406  0.040218708  0.040757678            6 
  616000    1.1742732   -6.0810877    297.43701  0.040237691  0.040749486            4 
  617000    1.1662933   -6.1010076    297.45352  0.040174705  0.040741151            3 
  618000    1.1424525   -6.0827075    298.20815  0.040211455  0.040732908            4 
  619000    1.1950462   -6.0724199    298.42214  0.040175302  0.040724884            2 
  620000    1.1626633   -6.1017404    299.05824     0.040196  0.040716153            3 
  621000    1.1555079   -6.1052309    299.07108  0.040132995  0.040708305            4 
  622000    1.1472062   -6.1045797     299.4322  0.040116854  0.040699778            2 
  623000    1.1493089   -6.0857017    299.55293   0.04006861  0.040691391            2 
  624000    1.1545098   -6.0919192    299.73153   0.04002825  0.040682643            2 
  625000      1.14258   -6.1145233    299.76725  0.039968967  0.040673985            2 
  626000    1.1590102   -6.0496496    301.76056  0.040170469  0.040665106            2 
  627000    1.1473087   -6.0552112    301.17585  0.040028688  0.040656518            6 
  628000    1.1577218   -6.0570505    301.55762  0.040015607  0.040647311            2 
  629000    1.1517681     -6.07787    301.45935  0.039938971  0.040637202            7 
  630000    1.1465641   -6.1161584    300.34823  0.039728602  0.040626701            3 
  631000    1.1698625   -6.0981254    301.20451  0.039778726  0.040615744            4 
  632000    1.1943208    -6.063774    303.76337  0.040053187  0.040605614            3 
  633000    1.1482215   -6.0643523    303.47415  0.039951836  0.040596156            2 
  634000    1.1480482   -6.0953385     304.3209  0.040000118   0.04058617            6 
  635000    1.1394818   -6.0612683      305.088  0.040037795   0.04057601            3 
  636000    1.1269413   -6.0650033    304.85196  0.039943914  0.040566395            3 
  637000    1.1556719   -6.1219861    304.60109   0.03984839  0.040556957            2 
  638000    1.1297497   -6.0773785    305.06929  0.039847085  0.040546861            5 
  639000    1.1359337   -6.0958654    305.94385  0.039898781  0.040537107            3 
  640000    1.1602028   -6.1051876    306.13858  0.039861794  0.040528081            3 
  641000    1.1431512    -6.050879    307.42207  0.039966467  0.040518743            3 
  642000    1.1190379   -6.0784467    306.73879  0.039815523  0.040509167            6 
  643000    1.1504281   -6.1110041    307.75899   0.03988582  0.040499266            2 
  644000    1.1511514    -6.062974    309.33636  0.040027997  0.040490179            5 
  645000    1.1434707   -6.0845765    309.66271  0.040008102  0.040481521            4 
  646000    1.1504158   -6.1091573    309.57368  0.039934685  0.040472863            3 
  647000    1.1395713   -6.0545622     309.9078  0.039915997  0.040464465            2 
  648000     1.140373   -6.1260705    308.85103  0.039718497  0.040455085            3 
  649000    1.1473326   -6.1201967    309.55445  0.039747619  0.040445704            8 
  650000    1.1411612   -6.0885621    309.26594   0.03964948  0.040436144            4 
  651000      1.13033     -6.09741    311.33072  0.039852882  0.040426513            5 
  652000    1.1431577   -6.0511249    312.13538  0.039894603  0.040417857            3 
  653000    1.1743321   -6.0941577    312.54636  0.039885957   0.04040971            4 
  654000     1.150509   -6.0949285    313.33249  0.039925139  0.040401801            1 
  655000    1.1357096   -6.0469831    313.78464   0.03992171   0.04039373            2 
  656000    1.1404077   -6.1435996    313.25858  0.039794027  0.040386098            3 
  657000     1.133413   -6.1012484    315.54083  0.040022937  0.040378164            2 
  658000    1.1608689   -6.0742937    316.08416  0.040030922  0.040370493            4 
  659000    1.1620221   -6.0767215    315.90594   0.03994764  0.040362715            3 
  660000    1.1319044   -6.0878924     315.6602  0.039856086  0.040355148            2 
  661000    1.1627785   -6.1026048    316.20888  0.039864962  0.040347323            2 
  662000    1.1611785   -6.1203737    316.65599  0.039861026  0.040339704            4 
  663000    1.1405678   -6.1367976    316.40031  0.039768767  0.040331132            6 
  664000    1.1465509    -6.104294     316.8127  0.039760629  0.040322323            1 
  665000    1.1708718   -6.1113161    316.99943  0.039724239  0.040313328            6 
  666000    1.1519224    -6.098729    317.68988  0.039750986  0.040304351            5 
  667000    1.1668614   -6.0931214    317.67841  0.039689956   0.04029577            2 
  668000    1.1494177   -6.1047606    318.53695  0.039737644    0.0402874            4 
  669000    1.1443079   -6.1068131    319.21555  0.039762774  0.040278819            4 
  670000     1.153381   -6.1245833    319.55185  0.039745255  0.040270335            3 
  671000    1.1590991   -6.0822473    319.99344  0.039740864  0.040261893            3 
  672000    1.1213867   -6.1078804    321.02208  0.039809285  0.040253669            3 
  673000     1.129257   -6.1070931      321.003  0.039747771  0.040245127            4 
  674000     1.139711   -6.1275118    320.51965  0.039629036  0.040236461            2 
  675000    1.1249578   -6.0854324    321.96105  0.039748278  0.040228149            3 
  676000    1.1361633   -6.0770227    323.72696  0.039907169  0.040220086            2 
  677000     1.148101   -6.0809813    323.91885  0.039871843  0.040212663            4 
  678000    1.1457431    -6.129479    323.02447  0.039703106  0.040205423            2 
  679000    1.1638693   -6.1058145     323.6444  0.039720717  0.040198249            4 
  680000    1.1563375   -6.1157971    325.11838  0.039842938  0.040191343            5 
  681000    1.1526151   -6.1236483    325.72064   0.03985813  0.040184467            2 
  682000    1.1335919   -6.0864608    326.18557  0.039856497  0.040177352            3 
  683000    1.1366506   -6.1130308     325.5227  0.039717264  0.040169915            2 
  684000    1.1543618   -6.0997283    325.46807  0.039652543  0.040162454            3 
  685000    1.1421702   -6.0658639     326.7527  0.039750937  0.040154692            2 
  686000    1.1406216   -6.1052263    326.74518  0.039692077  0.040146925            2 
  687000    1.1420101   -6.1076068    326.91812  0.039655279  0.040138493            2 
  688000    1.1182133   -6.0932581    326.66961   0.03956754   0.04013082            2 
  689000    1.1359771   -6.1375069    326.48681  0.039488003  0.040121505            4 
  690000     1.150802    -6.066782    328.66805  0.039694208  0.040112125            2 
  691000    1.1458046   -6.0929219    327.06538  0.039443486  0.040102677            4 
  692000    1.1453093   -6.1011897    327.22902  0.039406192  0.040093064            4 
  693000    1.1349082   -6.0991888    327.98318  0.039440017  0.040083297            3 
  694000    1.1660082   -6.1261182    326.64862  0.039222937  0.040073085            3 
  695000    1.1331754   -6.1201294    328.58391  0.039398551  0.040062695            4 
  696000    1.1576014   -6.0739553    329.94332  0.039504708  0.040052788            2 
  697000    1.1545212   -6.0727672    330.61009  0.039527749  0.040043387            4 
  698000    1.1473618   -6.0441136    331.01714  0.039519715  0.040034601            4 
  699000    1.1457876   -6.1073256    330.61159  0.039414829  0.040025102            4 
  700000    1.1327594   -6.1160264    331.05894  0.039411779  0.040015577            2 
  701000    1.1504467   -6.1101705    330.65258  0.039307249  0.040005997            3 
  702000    1.1489133   -6.1187577     331.6452  0.039369088  0.039996868            4 
  703000    1.1253292    -6.108682    332.80602  0.039450689  0.039987729            2 
  704000    1.1586564   -6.1060662    333.16728  0.039437415  0.039978726            2 
  705000    1.1306637    -6.108198     332.4984  0.039302411  0.039969756            6 
  706000    1.1173984   -6.0786263     333.0035  0.039306362  0.039960138            2 
  707000    1.1224525    -6.133873    332.56718  0.039199338  0.039950096            1 
  708000    1.1413085   -6.0993371    333.59836  0.039265344  0.039939919            2 
  709000    1.1309285   -6.1006056    333.87986  0.039243048  0.039930324            3 
  710000    1.1478564    -6.125557    334.09324  0.039212822  0.039920756            4 
  711000    1.1264583   -6.0642563    336.95683    0.0394933  0.039911349            6 
  712000    1.1552224   -6.0956448    334.97588  0.039205979  0.039902038            3 
  713000     1.140814   -6.1067237    336.04723  0.039276207  0.039892387            1 
  714000    1.1234485   -6.1113003     337.0619  0.039339624  0.039882726            3 
  715000    1.1745403    -6.109914    337.22438  0.039303541  0.039873252            3 
  716000    1.1666282   -6.1471192    337.04327  0.039227568  0.039863729            3 
  717000    1.1390683   -6.1396297    338.65351  0.039360008  0.039854046            3 
  718000    1.1494898   -6.1641675    337.35207   0.03915414  0.039844636            5 
  719000    1.1359147   -6.1098747    340.80087  0.039499406  0.039835714            2 
  720000    1.1201372   -6.1465356    340.06074  0.039358882  0.039826861            4 
  721000    1.1199182   -6.1159745    341.30728  0.039448368  0.039818487            3 
  722000    1.1469585   -6.0997016    341.25882  0.039388137  0.039810352            3 
  723000    1.1498158   -6.1502799    339.93427   0.03918099  0.039802572            8 
  724000    1.1161849   -6.1014062    342.19623  0.039387227  0.039794485            2 
  725000    1.1563158    -6.062412    344.90963  0.039644785  0.039786593            4 
  726000     1.112276   -6.1329212    342.78808  0.039346658  0.039778383            2 
  727000    1.1343734   -6.1147482    342.30601  0.039237277  0.039769641            5 
  728000    1.1638875   -6.1135854    342.58345  0.039215138  0.039760869            4 
  729000    1.1421261   -6.1288309    345.03161  0.039441199  0.039752799            4 
  730000    1.1356629   -6.1035125    345.69517  0.039462919  0.039745125            2 
  731000    1.1605771   -6.1504194    344.89776   0.03931803  0.039736927            2 
  732000     1.138601   -6.1087515    345.08613  0.039285761  0.039728842            2 
  733000    1.1416776   -6.1244882    345.71103  0.039303209  0.039720838            4 
  734000    1.1309805    -6.106521    346.77507  0.039370466  0.039713586            2 
  735000    1.1427572   -6.1511955    346.86997  0.039327661  0.039705383            3 
  736000     1.116644   -6.1571862     347.1098  0.039301382  0.039697254            3 
  737000     1.115873   -6.1063388    349.30812  0.039496621  0.039689417            4 
  738000    1.1004499   -6.1570587    348.62228  0.039365659  0.039682196            2 
  739000    1.1097594    -6.149289    348.45803  0.039293869  0.039674034            4 
  740000     1.131001   -6.1044639    347.53975  0.039137359  0.039666055            2 
  741000    1.1205372   -6.1370197    348.22239  0.039161313  0.039657458            2 
  742000    1.1354365   -6.1462696    348.13313   0.03909851  0.039649193            4 
  743000    1.1242263   -6.0913753    349.56181  0.039206125  0.039641012            3 
  744000    1.1226604   -6.1426354    348.91672  0.039081174  0.039633138            2 
  745000    1.1215627   -6.1167075     350.4802  0.039203602  0.039624087            4 
  746000     1.120169   -6.1332846    349.63747  0.039056912  0.039615395            1 
  747000    1.1243999   -6.1460423    350.58819  0.039110686  0.039606768            2 
  748000     1.126643   -6.1154799    351.59488  0.039170553  0.039599058            3 
  749000    1.1423972   -6.1059381    353.24237  0.039301555  0.039590805            2 
  750000     1.112643   -6.1157434    353.07434  0.039230483  0.039582574            2 
  751000    1.1509273   -6.1294503    353.96607  0.039277193  0.039574388            2 
  752000    1.1389121   -6.1779557    351.61002  0.038963876  0.039566142            2 
  753000    1.1369311   -6.1002247    354.20712  0.039199549  0.039558202            2 
  754000    1.1455327   -6.1022805    353.96952    0.0391213  0.039550516            2 
  755000    1.1467894   -6.0778769    355.58366  0.039247644  0.039542591            4 
  756000    1.1595472   -6.1301475    354.99313  0.039130636  0.039534323            6 
  757000    1.1338167   -6.1781704    353.75887  0.038943073  0.039525877            3 
  758000    1.1461118   -6.1637522    356.67193  0.039211954  0.039517585            1 
  759000    1.1199889   -6.1755216     355.7385  0.039057807  0.039509059            3 
  760000    1.1343803   -6.1391424    357.37652  0.039186022  0.039500627            4 
  761000    1.1408019    -6.150519    355.79788   0.03896166  0.039492281            4 
  762000    1.1596075   -6.1283507    357.23826  0.039068051  0.039483849            1 
  763000    1.1336677   -6.1645181    356.70322  0.038958412  0.039475462            2 
  764000    1.1316587   -6.1817721    356.50606  0.038885914  0.039466381            3 
  765000    1.1230533   -6.1699055    357.36144  0.038928262  0.039457953            6 
  766000    1.1279364   -6.1390811    358.49179  0.039000412  0.039448659            2 
  767000    1.0996347   -6.1645818    358.59053  0.038960292  0.039439919            2 
  768000    1.1476401   -6.1694762    359.71663  0.039031753  0.039431547            5 
  769000    1.1588933   -6.1519633    359.88937  0.038999715  0.039422958            6 
  770000    1.1096918   -6.1837701    359.56577  0.038914044  0.039414857            3 
  771000    1.1284363   -6.1340687    360.92882  0.039010897  0.039407055            3 
  772000    1.1284838   -6.1255397    362.76801  0.039158896  0.039399067            3 
  773000    1.1574817   -6.1280977    362.25118  0.039052521  0.039391703            4 
  774000    1.1395798   -6.1539813    360.95498  0.038862508  0.039383493            4 
  775000    1.1257486    -6.156665    361.63049  0.038884999  0.039375251            8 
  776000    1.1186143   -6.1080075    362.49094  0.038927292  0.039367637            2 
  777000    1.1078576   -6.1520522    362.41668  0.038869228  0.039359269            1 
  778000    1.1223481   -6.1558669    364.24528  0.039015133  0.039351038            1 
  779000    1.1199915   -6.1699604    363.10463  0.038843028  0.039343111            3 
  780000    1.1229376   -6.1704241     364.4294  0.038934765  0.039335114            2 
  781000    1.1061734   -6.1577622    365.96415  0.039048671  0.039327169            4 
  782000    1.1243392   -6.1058487    365.30728  0.038928738  0.039319208            7 
  783000    1.1286475   -6.1370189    366.70609  0.039027894  0.039310676            3 
  784000    1.1099616   -6.1741025    365.74205  0.038875643  0.039301962            2 
  785000    1.1208979    -6.162092    366.03709  0.038857441  0.039293556            2 
  786000    1.1424587   -6.1502661    364.81874  0.038678831  0.039285004            5 
  787000    1.1175703   -6.1701933    366.81717  0.038841293  0.039276527            2 
  788000    1.1309546    -6.137966    367.23117  0.038835784  0.039268055            2 
  789000    1.1087931   -6.1536843    367.95937  0.038863473  0.039259732            3 
  790000    1.0823647   -6.1275059    367.81671  0.038799231  0.039251476            4 
  791000    1.1055279   -6.1602901      368.421  0.038813843  0.039243314            2 
  792000     1.148622   -6.1045462    367.97375  0.038717776  0.039234659            5 
  793000    1.1473519   -6.1613223     369.5025  0.038829602  0.039226022            4 
  794000    1.1031396   -6.1503984     368.6882  0.038695235  0.039217354            4 
  795000    1.1496138   -6.1149593    370.58456  0.038845342  0.039209247            2 
  796000    1.1105278   -6.1521993    371.23592  0.038864732  0.039200927            2 
  797000    1.1117482   -6.1366071    371.21344  0.038813618  0.039192913            2 
  798000    1.1071189   -6.1206535    371.59567  0.038804895  0.039185296            3 
  799000    1.1087999   -6.1460897     371.4488  0.038741009  0.039177345            4 
  800000    1.1397998   -6.1764153    371.72696  0.038721558  0.039169172            2 
  801000    1.1158627   -6.1561146    373.68214  0.038876627   0.03916148            2 
  802000    1.1225642   -6.1714683    371.48295  0.038599641  0.039153207            3 
  803000    1.1119552   -6.2011834    371.99163  0.038604362  0.039144748            3 
  804000    1.1288513   -6.1124858    374.30393  0.038796013  0.039136127            3 
  805000    1.1358033     -6.17388    372.60247  0.038571684  0.039126888            5 
  806000     1.130163   -6.1897934    371.97972  0.038459441  0.039117726            3 
  807000    1.1188212   -6.1422689     373.8185  0.038601663  0.039108694            1 
  808000    1.1240153   -6.1707389    374.35253  0.038608966  0.039099532            5 
  809000    1.1154434    -6.183169    374.07142  0.038532285  0.039090556            2 
  810000    1.1166785   -6.1385632     375.4408  0.038625597  0.039081469            4 
  811000    1.1101471   -6.1220756    376.96685  0.038734777  0.039072955            4 
  812000    1.1200857   -6.1649456    375.32014  0.038518077  0.039063958            2 
  813000    1.1230444   -6.1425991    377.95403  0.038740676  0.039055097            5 
  814000    1.0996779   -6.1610403    376.48822   0.03854302  0.039046162            2 
  815000    1.1043212   -6.1139782     378.9474  0.038747178   0.03903753            5 
  816000    1.1216707   -6.1637329    378.18089  0.038621415  0.039028543            2 
  817000    1.1242705   -6.1464118    378.48754   0.03860542   0.03901987            2 
  818000    1.1169277   -6.1530217    378.70251  0.038580125  0.039011338            7 
  819000    1.1251768   -6.1492065     379.7515  0.038639753  0.039002757            5 
  820000    1.0870624   -6.1679187    379.82968  0.038600577  0.038994168            2 
  821000     1.121736   -6.1725072    380.42614  0.038614103  0.038985706            2 
  822000    1.0947367   -6.1779576    378.14751  0.038336122  0.038977081            3 
  823000    1.0886687    -6.134817    380.89664  0.038567906  0.038968168            1 
  824000    1.0990138   -6.1608814    381.62313  0.038594572  0.038959687            5 
  825000    1.1308972   -6.1025147    383.30154  0.038717327   0.03895142            2 
  826000    1.1255967   -6.1605125    382.19619  0.038558938  0.038943313            6 
  827000    1.1068172   -6.1334155    383.73459   0.03866733  0.038935219            4 
  828000    1.1400093   -6.1377021    383.71411   0.03861857  0.038927409            3 
  829000    1.1481766   -6.1613548    382.98679  0.038498873  0.038919579            3 
  830000    1.1341914   -6.1923632    383.21251  0.038475152  0.038910958            3 
  831000    1.1072008   -6.1418981    384.04801  0.038512636   0.03890263            2 
  832000    1.1230823   -6.1370168    386.90047   0.03875205  0.038894902            3 
  833000    1.1175637   -6.1605037    384.05374  0.038420742  0.038887036            2 
  834000    1.1079588   -6.2170019    383.57668  0.038327007  0.038878686            3 
  835000    1.1405973   -6.1313549    386.57696  0.038580535  0.038870578            2 
  836000    1.1370072   -6.1806029    386.19585  0.038496396  0.038862524            1 
  837000    1.0825388   -6.1648653    386.93757   0.03852425  0.038854234            7 
  838000    1.1681925   -6.1741385    387.43573  0.038527817  0.038845997            3 
  839000    1.1276695   -6.1220684    387.74508  0.038512622  0.038837758            2 
  840000    1.1353143   -6.1704904    387.26704  0.038419349  0.038829579            2 
  841000    1.1138609   -6.2143395    387.10511   0.03835762  0.038820857            9 
  842000    1.1098675   -6.1741302     386.8503  0.038286847  0.038812085            2 
  843000    1.1371702   -6.1808975    388.35548  0.038390221  0.038803888            1 
  844000    1.1324384   -6.1177007    391.18999  0.038624605  0.038796408            3 
  845000    1.1059548   -6.1636399    390.40019  0.038501005  0.038788875            9 
  846000    1.1086353   -6.1284144    391.43697  0.038557621  0.038781363            4 
  847000    1.1418087    -6.219985    390.00372  0.038371086  0.038773263            2 
  848000    1.1727572   -6.1446823    393.19146  0.038639098  0.038765281            3 
  849000    1.1244653   -6.1999038    390.57311  0.038336583   0.03875747            2 
  850000    1.1371529     -6.16358    392.90197  0.038519801  0.038749536            3 
  851000    1.1360899   -6.1346124    392.87072  0.038471477  0.038741455            3 
  852000    1.1047263   -6.2024583    391.99785  0.038340948   0.03873389            3 
  853000     1.118688   -6.1718679    394.51817   0.03854222  0.038726103            5 
  854000    1.0980916   -6.1631919    393.46931  0.038394741  0.038718318            4 
  855000    1.1155651   -6.1729949     394.2453  0.038425467  0.038710339            2 
  856000    1.1205972   -6.1779419    393.60699  0.038318438  0.038702752            3 
  857000    1.1183332   -6.2079527    393.71124  0.038283862  0.038694572            5 
  858000    1.1041543    -6.117917    395.54233  0.038417087  0.038686152            3 
  859000    1.0894561   -6.1689699    394.70591  0.038291221  0.038677633            6 
  860000    1.0801924   -6.1757199    395.43517  0.038317361  0.038669482            2 
  861000    1.1229811   -6.1983052    394.33353  0.038166234  0.038661038            9 
  862000    1.1426944   -6.2113476    395.43259  0.038228208  0.038652386            5 
  863000    1.1186159   -6.1819154    395.10388   0.03815217  0.038643851            4 
  864000    1.1365916   -6.2013736    396.64555  0.038256708  0.038635175            6 
  865000    1.1269103   -6.1714319    397.38042  0.038283277  0.038626931            3 
  866000    1.1293723   -6.1877057    396.55918  0.038160044  0.038618585            3 
  867000    1.1034287   -6.1824758    397.17416   0.03817514  0.038609694            5 
  868000    1.1193158    -6.155751    397.64276  0.038176148  0.038601095            4 
  869000    1.1019482   -6.1804317    396.56561  0.038028923    0.0385924            2 
  870000    1.0967683   -6.1711542    397.79637  0.038103101  0.038583873            4 
  871000    1.1138797   -6.2226202    397.71521  0.038051589  0.038575076            2 
  872000    1.1101968   -6.2065891    399.32388  0.038161686  0.038566013            5 
  873000    1.1404734   -6.1419179    400.50619  0.038230831  0.038557473            3 
  874000    1.1142174   -6.1850414    399.28998  0.038071127  0.038548895            4 
  875000    1.1308468   -6.1786526       401.34  0.038222857  0.038540057            5 
  876000     1.120291   -6.1554105    400.93225  0.038140435  0.038531082            2 
  877000    1.1214527   -6.1648971     400.7754  0.038082041  0.038522345            3 
  878000    1.1233732   -6.1822133     399.8607   0.03795185  0.038513659            2 
  879000    1.1058664   -6.1673947    402.05048  0.038116276  0.038504656            2 
  880000    1.1105053   -6.2006015    400.94455  0.037968234  0.038495812            5 
  881000    1.1123901   -6.1986938    402.26128  0.038049686  0.038486746            2 
  882000    1.1072697   -6.1669438    403.18792  0.038094097   0.03847741            3 
  883000     1.107061   -6.2336307    401.80378  0.037920326  0.038468182            2 
  884000    1.0889006   -6.1697959    402.50605  0.037943632  0.038458914            2 
  885000    1.1174155   -6.1838712    403.57518  0.038001429  0.038449505            5 
  886000    1.1014893   -6.1901133    403.74929  0.037974914  0.038440452            2 
  887000    1.1221627   -6.2084214    404.94235  0.038044189  0.038431623            6 
  888000    1.1115547   -6.1613152    405.69041  0.038071547  0.038422796            3 
  889000    1.1019687   -6.1569547    406.61653  0.038115535  0.038413707            2 
  890000    1.1205575   -6.1996829    405.72724  0.037989442  0.038404562            4 
  891000    1.1057266   -6.1798496    405.16931  0.037894623  0.038395345            2 
  892000    1.1214591   -6.2159542    405.56078  0.037888713  0.038386345            3 
  893000    1.1078254   -6.1746734    407.15151  0.037994728  0.038377018            5 
  894000    1.1052815   -6.2141258    406.08659  0.037852963  0.038367538            3 
  895000    1.0806059   -6.2030048    406.36034  0.037836158  0.038357884            2 
  896000    1.1266325   -6.1352204    408.46268   0.03798946  0.038348651            8 
  897000    1.1190389   -6.2018824    406.46363  0.037761393  0.038339228            2 
  898000     1.089881   -6.1802842    408.93115  0.037948325  0.038329519            5 
  899000    1.1182331   -6.1847383    408.62685  0.037877906  0.038319998            5 
  900000    1.0715693   -6.2215014    408.62754  0.037835883  0.038310525            2 
  901000    1.1063599   -6.1649261    409.13499  0.037840824  0.038301039            3 
  902000    1.1041981    -6.156122     409.1707  0.037802171  0.038291739            4 
  903000    1.0942333    -6.214709    409.88321  0.037826062  0.038282468            2 
  904000    1.1229025   -6.2339952    409.24045  0.037724968  0.038273107            2 
  905000    1.1208868   -6.2015087    410.13851  0.037765977  0.038264433            1 
  906000    1.1111578   -6.2401603    410.96138   0.03779998  0.038255561            5 
  907000     1.108629   -6.2107342    411.92029  0.037846407  0.038247056            2 
  908000     1.111952   -6.1755283    413.94601   0.03799064  0.038238394            2 
  909000    1.1203483   -6.2249186    412.11789  0.037781252  0.038229968            3 
  910000     1.111615   -6.2087766    413.35661  0.037853169  0.038220973            3 
  911000    1.0999634   -6.2201934    413.70395  0.037843391  0.038212334            4 
  912000    1.1093626   -6.2137112    413.37078  0.037771453   0.03820362            7 
  913000    1.1088679   -6.2585192    413.58376  0.037749522  0.038194743            3 
  914000    1.1120614    -6.157504    415.87672  0.037917279  0.038186373            2 
  915000    1.0964735   -6.2246696    414.16419  0.037719871  0.038178222            2 
  916000    1.0883522   -6.2355998    415.22754  0.037775432   0.03816973            4 
  917000    1.0996685   -6.1517305    418.34928  0.038017928  0.038161162            3 
  918000    1.1066604   -6.1767618    417.36325  0.037887006   0.03815321            4 
  919000    1.1101598   -6.1490699    419.08414  0.038001827  0.038145618            3 
  920000     1.114969   -6.1811218    418.45184  0.037903247  0.038137574            2 
  921000    1.1051653   -6.2255696    416.75086  0.037708185  0.038129269            3 
  922000     1.086181   -6.1862397    419.51168  0.037916819  0.038121331            3 
  923000    1.1048483   -6.2255753    417.98317  0.037737737  0.038113262            5 
  924000     1.085005   -6.1649006    418.81886  0.037772264  0.038105221            3 
  925000    1.1100585   -6.2326048    418.84931  0.037734172  0.038097254            2 
  926000     1.077115   -6.2443167    418.94354  0.037701903  0.038088969            3 
  927000    1.1208142   -6.1972987    420.87675  0.037835019  0.038080961            4 
  928000    1.0963854   -6.2048604    420.92968  0.037799002  0.038073084            4 
  929000    1.0940521   -6.1757269    421.59189  0.037817716  0.038064986            7 
  930000    1.1041394   -6.2539696    420.39095   0.03766944  0.038056343            5 
  931000    1.1146354   -6.1927672      422.024  0.037775152  0.038047967            2 
  932000    1.0896661   -6.1886884    421.53548   0.03769094  0.038039688            2 
  933000    1.1116193   -6.1883831    422.25894   0.03771516  0.038031406            3 
  934000    1.1025237   -6.1903792    422.39185  0.037686639  0.038022682            3 
  935000    1.1121783   -6.1459269    423.73639  0.037766167  0.038014375            4 
  936000    1.1030049   -6.1931333     423.7054  0.037723059  0.038006144            3 
  937000    1.1008513   -6.1956845    423.41549  0.037657016  0.037997611            4 
  938000    1.1152842   -6.1811125     423.6442  0.037637189  0.037989209            2 
  939000    1.0935964    -6.209989     422.3803  0.037484939  0.037980494            3 
  940000    1.1065351   -6.2080659    424.42752  0.037626553   0.03797172            5 
  941000    1.0762425   -6.1565771    425.50002  0.037681546  0.037963181            6 
  942000    1.0887767   -6.1762062    424.86319  0.037585207  0.037954755            4 
  943000    1.0913124    -6.200567    425.12088  0.037568123  0.037946131            3 
  944000    1.1121075   -6.1620899    426.53908   0.03765352   0.03793749            2 
  945000    1.1219503   -6.1434458    428.38563   0.03777651  0.037929051            3 
  946000    1.0952247   -6.2330667    425.10336  0.037447442  0.037920599            2 
  947000    1.0730351   -6.1472813    428.31044  0.037690113  0.037912354            3 
  948000    1.0973013   -6.1683856    427.45965  0.037575567  0.037903594            3 
  949000    1.0963115   -6.1936112    426.83662  0.037481263  0.037895021            4 
  950000    1.0870647   -6.1896392    427.13664  0.037468126  0.037886547            2 
  951000    1.0898595   -6.1892358    426.79249  0.037398571  0.037877295           10 
  952000    1.0781544    -6.215963    428.69799  0.037526084  0.037868048            2 
  953000    1.1083689   -6.1866766    428.66875  0.037484151  0.037858792            3 
  954000     1.113935   -6.2188322      427.857  0.037373952  0.037849779            3 
  955000    1.0958932    -6.202125     428.7786  0.037415236  0.037840547            1 
  956000    1.0828102     -6.24135    427.21377  0.037239694  0.037831436            8 
  957000    1.1071285    -6.239319    428.11018  0.037278838   0.03782228            2 
  958000    1.0906538   -6.1921902    429.00984  0.037318184  0.037812781            4 
  959000    1.1033484   -6.2469361    430.25984   0.03738789  0.037803625            4 
  960000    1.0796725   -6.1625821     430.8158  0.037397205  0.037794701            4 
  961000     1.090291   -6.1913472    431.73657  0.037438135  0.037785681            2 
  962000    1.1161549   -6.2341803    431.06757  0.037341266  0.037776949            2 
  963000     1.082029   -6.2061482    431.20734  0.037314585  0.037767831            3 
  964000    1.0884681   -6.1968642    432.45069  0.037383359  0.037758893            2 
  965000    1.1081367   -6.2098511    432.35341  0.037336218  0.037750138            4 
  966000    1.0874009   -6.1700034     434.4522  0.037478623   0.03774144            2 
  967000     1.075645   -6.2386073    433.14389  0.037327119  0.037733075            5 
  968000      1.08498     -6.26395     433.2037  0.037293707  0.037723977            3 
  969000    1.0976628   -6.2445057    434.14373  0.037336062  0.037714971            6 
  970000    1.0927499   -6.2608394    433.50641  0.037242818  0.037705934            5 
  971000    1.0912484    -6.194279    435.73878  0.037396051  0.037697193            3 
  972000    1.0824821   -6.2013545    437.40117    0.0375001  0.037688633            3 
  973000    1.1153314   -6.2331615    435.42908  0.037292658  0.037680013            3 
  974000    1.0911479   -6.2539674    433.87976  0.037121814  0.037671124            3 
  975000     1.083674   -6.2338297    436.71985  0.037326483  0.037661976            4 
  976000    1.1060406   -6.2352458    436.30545  0.037252856  0.037653163            3 
  977000    1.0851349   -6.1885795    438.05515  0.037363967  0.037644583            3 
  978000    1.0820964   -6.2313476    436.79177  0.037218112   0.03763595            3 
  979000     1.102316   -6.1750893    438.50441  0.037325877  0.037627379            4 
  980000     1.062639   -6.2055375    438.14758  0.037257447  0.037618992            3 
  981000    1.0764504   -6.2063098     438.3435  0.037236111  0.037610152            5 
  982000    1.1023207   -6.2577486    435.48074  0.036955256  0.037601004            3 
  983000    1.1123633   -6.1867009    439.29294   0.03724084   0.03759206            3 
  984000    1.0944826     -6.24811    438.53825  0.037139079  0.037583114            4 
  985000     1.115155   -6.2353413    440.14292  0.037237134  0.037574303            3 
  986000    1.0891491   -6.2032995    439.44786  0.037140624  0.037565425            3 
  987000    1.1144631   -6.2185715    439.66004  0.037120909  0.037556482            3 
  988000    1.0712395   -6.2282806    440.54832  0.037158259  0.037547539            3 
  989000     1.090419   -6.1858414    442.91566   0.03732016  0.037538634            2 
  990000    1.0913066   -6.2371047    439.86193  0.037025415  0.037529687            3 
  991000    1.1013725    -6.229851     441.7762  0.037149024  0.037520627            3 
  992000    1.1125695   -6.1957238    443.91859  0.037291548  0.037511813            3 
  993000    1.0801061   -6.1695124    443.35407  0.037206619  0.037503103            2 
  994000    1.1084189   -6.2448215    442.34938  0.037084958  0.037494464            4 
  995000    1.0976427   -6.2432637    442.17525  0.037033103  0.037485578            3 
  996000    1.0801176    -6.226871    442.08951  0.036988747  0.037476605            4 
  997000    1.0826972   -6.2357411    442.30108  0.036969331  0.037466987            2 
  998000    1.0917943   -6.2346382    445.05464  0.037162211  0.037457887            4 
  999000    1.0812194   -6.2317846     444.0669  0.037042618  0.037448869            3 
 1000000    1.0859716   -6.2146487    446.50016  0.037208347  0.037440061            2 
 1001000     1.099145   -6.2537988    443.33363  0.036907562  0.037430946            4 
 1002000    1.0906376    -6.200588    445.16148  0.037022744  0.037421663            5 
 1003000    1.0855383   -6.1769969    446.64959  0.037109471  0.037412559            2 
 1004000    1.0879293   -6.2098939    445.27116  0.036958098  0.037403711            3 
 1005000    1.0787755   -6.2246501    447.89815   0.03713915  0.037394848            4 
 1006000    1.0822628   -6.2447313    446.39798  0.036977964  0.037386029            3 
 1007000    1.0554003   -6.2567339    446.39188  0.036940738   0.03737689            2 
 1008000    1.0950654   -6.2092489     448.3492  0.037065906  0.037367966            3 
 1009000    1.0961593   -6.2727571    446.59694  0.036884452  0.037359272            2 
 1010000    1.0711707   -6.2652336    447.94991  0.036959563  0.037350128            6 
 1011000    1.0976135   -6.2516759    448.79213  0.036992427  0.037341384            5 
 1012000    1.0839922   -6.2427627    448.33888   0.03691855  0.037332573            2 
 1013000    1.1002894   -6.1981847    448.85744  0.036924765   0.03732406            3 
 1014000    1.0927296   -6.2466895    449.62199  0.036951182  0.037315005            2 
 1015000    1.0851253   -6.1916856    451.04313  0.037031456   0.03730648            5 
 1016000    1.0880243   -6.2436711    451.30847  0.037016771  0.037297863            2 
 1017000    1.0866271   -6.2173089    452.38167  0.037068311  0.037289322            3 
 1018000    1.0785338   -6.2433693    452.54273  0.037045083  0.037280624            4 
 1019000    1.0988249   -6.2180598     452.0533  0.036968703  0.037272281            2 
 1020000    1.1014115   -6.2039635    451.97451  0.036926022  0.037263645            4 
 1021000    1.0844443   -6.2729841    451.92065   0.03688546  0.037255189            3 
 1022000    1.0983873   -6.2241356    454.62244  0.037069671  0.037246443            2 
 1023000    1.0871387   -6.2379847    453.15662  0.036914029  0.037238041            9 
 1024000    1.0979963   -6.2437562    452.02177  0.036785626  0.037229385           12 
 1025000    1.1021274   -6.2171091    454.55944  0.036956052  0.037221369            6 
 1026000    1.0754834   -6.2314633     453.6411  0.036845443  0.037213425            2 
 1027000    1.0655573   -6.2439703    456.73013  0.037060218  0.037205214            7 
 1028000    1.0720121   -6.2570752    455.53006  0.036926886  0.037197156            3 
 1029000    1.0867868   -6.2227381    456.71031  0.036986581  0.037188833            4 
 1030000    1.0853344    -6.230473    456.35937  0.036922279  0.037180617            1 
 1031000     1.093712   -6.2659833    456.31894  0.036883199  0.037172067            3 
 1032000    1.0989521   -6.2121399    457.09015  0.036909734  0.037163507            8 
 1033000    1.0782279   -6.2245029    456.92963  0.036861054  0.037154968            3 
 1034000    1.0818522   -6.1815728    459.00196  0.036992421  0.037146562            4 
 1035000    1.1028158   -6.2334481    457.69242  0.036851242  0.037138178            1 
 1036000    1.0865436   -6.1953907    458.81423  0.036905906   0.03713012            4 
 1037000    1.0992974   -6.2233671     459.9529  0.036961821  0.037122167            2 
 1038000    1.0831221   -6.2519208    458.45853   0.03680624  0.037113886            1 
 1039000    1.0823531   -6.2036652    459.42152  0.036848052  0.037105876            3 
 1040000    1.0757074   -6.1998427    462.32209  0.037045039   0.03709806            3 
 1041000    1.0909358   -6.2255014      462.059  0.036988392  0.037090424            3 
 1042000    1.0901052   -6.2589879     461.7647  0.036929358  0.037082547            5 
 1043000     1.110289   -6.2823187    459.51873  0.036714504  0.037074387            3 
 1044000    1.0819845   -6.2003203    462.92221  0.036951007  0.037066489            2 
 1045000    1.0906549      -6.2071    463.51428  0.036962862  0.037058385            5 
 1046000    1.0694783   -6.2260714    463.02754  0.036888746  0.037050695            3 
 1047000    1.0875675   -6.2278644    462.72311  0.036829283  0.037042722            7 
 1048000    1.0818875   -6.2670006    462.59258  0.036783761  0.037034911            4 
 1049000    1.0894585   -6.2057944    464.92063  0.036933638  0.037027141            2 
 1050000    1.0824293   -6.2282888    464.54312  0.036868502  0.037019545            4 
 1051000    1.0808193   -6.2102448    463.90206  0.036782593  0.037011817            2 
 1052000    1.0959666   -6.1997187    466.36625  0.036942827  0.037003826            4 
 1053000    1.0867488   -6.2710496    464.39996  0.036752134  0.036995484            4 
 1054000    1.0825485   -6.2438004     465.6011  0.036812231  0.036987368            6 
 1055000    1.0684809   -6.2101677    466.47186  0.036846119  0.036979248            3 
 1056000    1.0699155   -6.2264575    465.76752  0.036755644  0.036970949            3 
 1057000    1.0580913   -6.2434576    466.64001  0.036789657  0.036962966            4 
 1058000    1.0915867   -6.2967562    464.35228  0.036574691  0.036954805            9 
 1059000     1.070302   -6.2149478    467.46817  0.036785345  0.036946689            4 
 1060000    1.0930416   -6.2745219    467.97345  0.036790365  0.036938377            4 
 1061000    1.0865029   -6.2769024    465.00776  0.036522759  0.036929506            3 
 1062000    1.0831885    -6.276561    464.83539  0.036474843  0.036920585            9 
 1063000    1.0656927   -6.2944035    466.43974  0.036566301  0.036911777            3 
 1064000    1.0777173   -6.2310372    468.52404  0.036695179  0.036903207            3 
 1065000    1.0619123   -6.2049974    469.08653  0.036704737  0.036894976            2 
 1066000    1.0857983   -6.2673283    467.42625  0.036540514  0.036886669            3 
 1067000    1.1066721   -6.2934095    467.09895  0.036480705  0.036877808            3 
 1068000    1.0697537   -6.2807972    466.61233  0.036408578  0.036868747            3 
 1069000    1.0744815   -6.2709281    467.17505  0.036418385  0.036859636            4 
 1070000    1.1001092   -6.2788317    468.10494  0.036456771  0.036850175            5 
 1071000     1.071424   -6.2947145    467.90832  0.036407432  0.036841152            5 
 1072000    1.0804205   -6.2656442    467.28043  0.036324661  0.036832074            6 
 1073000     1.076357   -6.3065219    466.25029  0.036210803  0.036822736            1 
 1074000    1.1131593    -6.274949    468.78876   0.03637405  0.036813298            4 
 1075000    1.0801003   -6.2889065    468.77055  0.036338802  0.036804123            3 
 1076000     1.094353    -6.273926    469.34249  0.036349326  0.036794912            4 
 1077000    1.0907841   -6.2354532      470.805  0.036428737  0.036785808            2 
 1078000    1.0709709   -6.2304373    471.68774  0.036463183  0.036776785            4 
 1079000    1.0768218   -6.2576453    469.70116  0.036275962  0.036767586            3 
 1080000    1.0690377   -6.2501959    471.70594  0.036397063   0.03675841            6 
 1081000    1.0963032   -6.2905821    470.72549  0.036287812  0.036749484            2 
 1082000     1.060752   -6.2586666    471.49281  0.036313371  0.036740355            5 
 1083000    1.0724261   -6.2174147    473.99354  0.036472264  0.036731164            4 
 1084000    1.0666222   -6.2466993    472.36515  0.036313434  0.036721981            2 
 1085000    1.0902076   -6.2658276    473.93207  0.036400312  0.036713019            4 
 1086000    1.0927686   -6.2370774     474.4817   0.03640897  0.036704189            5 
 1087000    1.0618989   -6.2412373    473.69062  0.036314829   0.03669517            4 
 1088000    1.0628123   -6.2239565    475.45077  0.036416266  0.036686323            6 
 1089000    1.0999386   -6.2662337    476.23386   0.03644275  0.036677397            9 
 1090000    1.0778663   -6.2797779     475.0414   0.03631815  0.036668284            7 
 1091000    1.0798846   -6.2664975    476.35271  0.036385022  0.036659551            7 
 1092000    1.0706048   -6.2527994    475.21868  0.036265162  0.036650818            5 
 1093000    1.0915837   -6.2812999    474.60337  0.036185069  0.036642039            8 
 1094000    1.0690108   -6.2629738    477.85593  0.036399751  0.036633155            3 
 1095000    1.0611401    -6.269367    476.06612  0.036230298  0.036624256            2 
 1096000    1.0679811   -6.2709443    476.33026  0.036217325  0.036615373            3 
 1097000    1.0679707   -6.2394178    477.80057  0.036296002  0.036606737            2 
 1098000    1.0763759   -6.2366405    478.79864  0.036338695  0.036598103            6 
 1099000    1.0830496    -6.250836    478.31606  0.036269037  0.036589576            2 
 1100000    1.0668335   -6.2559569    480.44202  0.036397123  0.036580702            6 
 1101000    1.0656725   -6.2233985    479.46709  0.036290273  0.036571955            6 
 1102000    1.0983719   -6.2628212    478.14913  0.036157678  0.036563293            4 
 1103000    1.0579194   -6.2713118    479.69579  0.036241749  0.036554342            3 
 1104000    1.1094333   -6.2891066    477.96877  0.036078561  0.036545453            2 
 1105000    1.0874174   -6.2582028    478.97534   0.03612182   0.03653673            3 
 1106000    1.0838486    -6.301372    479.47562  0.036126855  0.036527678            3 
 1107000    1.0887957   -6.2681189    479.31211  0.036081911   0.03651893            5 
 1108000    1.0683172   -6.2703496    481.05396  0.036180352  0.036510154            2 
 1109000    1.1055787    -6.268259      481.788  0.036202886   0.03650119            6 
 1110000    1.0842043   -6.2779726    481.25397  0.036130178  0.036492378            2 
 1111000    1.0755774   -6.2618133    480.61403  0.036049657  0.036483492            4 
 1112000    1.0540209   -6.2863354    480.88104  0.036037248  0.036474433            3 
 1113000     1.052673   -6.3045033    480.14851  0.035950023  0.036465005            4 
 1114000    1.0895567    -6.305211    480.83699  0.035969254  0.036455919            5 
 1115000    1.0724819   -6.2902039    481.57374  0.035992058  0.036446763            2 
 1116000    1.0708963   -6.2606416    482.66932  0.036041616  0.036437356            5 
 1117000    1.0724082   -6.2472746    484.35757  0.036135301  0.036428529            3 
 1118000    1.0603234   -6.2416367     483.8364  0.036064132   0.03641938            3 
 1119000    1.0888339   -6.2782453    484.18154  0.036057607   0.03641019            3 
 1120000    1.0778293   -6.2933229    484.03314  0.036014371  0.036400965            3 
 1121000     1.054428   -6.2795477    484.49562  0.036016624  0.036391522            2 
 1122000    1.0885685   -6.2876714     484.1368  0.035957873  0.036382202            2 
 1123000    1.0642481   -6.2871201    484.21308  0.035931514   0.03637261            2 
 1124000    1.0536511   -6.2918801    484.88566  0.035949411  0.036363097            6 
 1125000    1.0577076   -6.2412834    486.05879  0.036004355  0.036353925            2 
 1126000    1.0717055   -6.3021774    484.29312  0.035841705  0.036344611            3 
 1127000    1.0731397   -6.2621874    485.79722  0.035921119  0.036335544            4 
 1128000    1.0762735   -6.3126677    484.68521  0.035807122  0.036326438            2 
 1129000    1.0770157   -6.3449353    484.78726  0.035782939  0.036317195            4 
 1130000    1.0643022   -6.2889369    486.26276  0.035860086  0.036307575            2 
 1131000    1.0627743   -6.2848221    486.38085   0.03583708  0.036298261            2 
 1132000    1.0621359   -6.2565055    488.55444  0.035965433  0.036288944            3 
 1133000    1.0617992   -6.3015159    487.21958  0.035835509   0.03627963            4 
 1134000    1.0447511   -6.2678972    488.64402  0.035908585  0.036270404            3 
 1135000    1.0760456   -6.3310084    488.16534  0.035841802   0.03626123            3 
 1136000    1.0662473   -6.2891746    488.86013  0.035861219  0.036251929            2 
 1137000    1.0817545   -6.2853286    489.84102   0.03590157  0.036243048            4 
 1138000    1.0667721   -6.2518952    490.50389  0.035918563  0.036234098            2 
 1139000    1.0825087   -6.2331109    492.37334  0.036023803  0.036225334            3 
 1140000    1.0835639   -6.3156449    489.65757  0.035793682    0.0362164            5 
 1141000    1.0519452   -6.3002736    490.10355  0.035794884  0.036207438            4 
 1142000    1.0734996   -6.2808381    490.89773  0.035821492  0.036198334            4 
 1143000    1.0712991   -6.2750702    491.50957   0.03583476  0.036189599            2 
 1144000    1.0639769   -6.2986581     491.8282  0.035826646  0.036180843            2 
 1145000    1.0479858   -6.3216455     490.8769  0.035726121  0.036171662            3 
 1146000    1.0685117   -6.3073113    493.24951  0.035867475  0.036162679            2 
 1147000    1.0732011    -6.292926    493.09705  0.035825127   0.03615362            4 
 1148000    1.0523141   -6.2342794    496.55677  0.036045062   0.03614528            4 
 1149000    1.0653264   -6.3012519    493.43965  0.035787616  0.036136546            3 
 1150000    1.0596572   -6.2809969    494.36384  0.035823467  0.036127896            5 
 1151000    1.0686868   -6.2670366    494.16474  0.035777928  0.036119015            2 
 1152000    1.0690111   -6.2752217    493.72165  0.035714818  0.036110057            3 
 1153000    1.0808616   -6.3032893    495.22067  0.035792185  0.036101118            3 
 1154000    1.0617752   -6.2917231    496.48775  0.035852668  0.036092552            3 
 1155000    1.0860525   -6.2380925    497.23417  0.035875481  0.036083984            2 
 1156000    1.0529595   -6.3066956    496.13481  0.035765197  0.036075137            3 
 1157000    1.0813127   -6.2653543    497.33551  0.035820766  0.036066141            8 
 1158000    1.0626525   -6.2982518    494.22982  0.035566337  0.036056949            3 
 1159000      1.06403   -6.3122713    496.47299  0.035696936   0.03604801            5 
 1160000    1.0756719     -6.30835    497.65183   0.03575085  0.036039138            5 
 1161000    1.0542351   -6.2912062    498.32759  0.035768561   0.03603036            3 
 1162000    1.0730924   -6.3011551    498.60242  0.035757489  0.036021848            3 
 1163000    1.0474439    -6.267283    499.29832  0.035776606  0.036013175            3 
 1164000    1.0665355   -6.2747738    497.56016  0.035621432  0.036004231            4 
 1165000    1.0717711   -6.2796459    499.21556  0.035709267  0.035995301            5 
 1166000    1.0422373   -6.2940315    498.84652  0.035652267  0.035986549            3 
 1167000     1.062337   -6.3120575    498.60407  0.035604404  0.035977559            4 
 1168000    1.0500637   -6.2825708    500.26776   0.03569262  0.035968727            4 
 1169000    1.0550387   -6.2918703    498.50432  0.035536378   0.03595965            2 
 1170000    1.0649217   -6.3025993    499.96623  0.035610131  0.035950727            2 
 1171000    1.0691343   -6.3168446    500.34569  0.035606724  0.035941801            3 
 1172000    1.0511257   -6.2606271    500.11145  0.035559688  0.035932933            3 
 1173000    1.0808558   -6.2514671    501.11861  0.035600924  0.035924021            6 
 1174000    1.0820852   -6.3044588    501.55543  0.035601606  0.035914786            2 
 1175000     1.068442   -6.3125855    501.20496  0.035546451  0.035905594            4 
 1176000     1.055878   -6.2985917    501.56554  0.035541776    0.0358963            4 
 1177000    1.0777301   -6.3080441    500.43901  0.035431819  0.035887186            5 
 1178000    1.0832146   -6.2681662    504.89038  0.035716637  0.035878113            4 
 1179000    1.0650761   -6.2939075     502.7892  0.035537828  0.035869113            4 
 1180000    1.0635755   -6.3456827    502.24299  0.035469137  0.035860165            8 
 1181000    1.0611982   -6.2717989    505.37272  0.035659943   0.03585133            3 
 1182000    1.0668679   -6.2700793    505.11217  0.035611405  0.035842382            3 
 1183000      1.07019   -6.2944121    502.96791  0.035430255  0.035833645            3 
 1184000    1.0652039   -6.2755182    505.05072  0.035546925  0.035824661            5 
 1185000    1.0633327   -6.2978449    504.41676  0.035472346   0.03581564            3 
 1186000     1.049056    -6.300063    504.70582  0.035462747   0.03580677            3 
 1187000    1.0806484   -6.2796742    506.11035  0.035531477  0.035797837            4 
 1188000    1.0871296    -6.348116    505.06503  0.035428243  0.035788881            5 
 1189000    1.0477935   -6.3209912    506.11832  0.035472268  0.035780166            5 
 1190000    1.0743486    -6.300353    507.85814  0.035564295  0.035771623            4 
 1191000    1.0588446   -6.3154263     506.8258  0.035462202  0.035762909            5 
 1192000    1.0706344    -6.307726    508.69659   0.03556324  0.035754222            6 
 1193000    1.0712265   -6.3231786    508.81048  0.035541386  0.035745689            4 
 1194000    1.0491786   -6.3298339    507.46758  0.035417894  0.035737151            6 
 1195000    1.0612502   -6.3147697    508.28668  0.035445375  0.035728384            2 
 1196000    1.0438475   -6.2818955    510.84542  0.035594023  0.035720039            2 
 1197000    1.0651942   -6.3464214    509.13906  0.035445493  0.035711603            2 
 1198000    1.0539286   -6.2929848    509.87574  0.035467149  0.035702998            2 
 1199000    1.0359345   -6.2768896    511.07841  0.035521158  0.035694443            2 
 1200000    1.0706204   -6.3454429    509.19657  0.035360873  0.035685882            3 
 1201000    1.0658771   -6.3030985    510.78504  0.035441648  0.035677283            2 
 1202000    1.0510231   -6.2683241    510.22063  0.035373033  0.035668669            6 
 1203000    1.0475039   -6.3207095    511.09953  0.035404512  0.035660271            5 
 1204000    1.0596658   -6.3387498    511.39585  0.035395615   0.03565148            2 
 1205000    1.0360545   -6.2902633    511.62823  0.035382312  0.035642751            9 
 1206000    1.0359258   -6.3204121    512.29885  0.035399312  0.035634122            3 
 1207000    1.0723532   -6.3227875    511.60556  0.035322118  0.035625615            3 
 1208000    1.0564515   -6.2915058    514.48676  0.035491636  0.035617178            4 
 1209000    1.0481656   -6.2916173    514.53555  0.035465643   0.03560894            3 
 1210000    1.0548024   -6.3035719    514.07503  0.035404616  0.035600561            6 
 1211000     1.051377   -6.2756729    516.00942  0.035508493  0.035592246            5 
 1212000    1.0443593   -6.3133407    514.29915  0.035361603  0.035583926            3 
 1213000    1.0633644   -6.3335248    512.94853  0.035239663  0.035575602            3 
 1214000    1.0566856   -6.3350038    514.83644  0.035340228  0.035567035            2 
 1215000    1.0619643   -6.3325152    512.69219  0.035164073  0.035558156            3 
 1216000    1.0380637   -6.3214792    513.47175  0.035188579  0.035549205            7 
 1217000     1.055276   -6.3193769    513.72912  0.035177288  0.035540306            3 
 1218000    1.0831632   -6.3377236    513.62609  0.035141358  0.035531291            5 
 1219000    1.0320669   -6.3405271    515.62417  0.035249123  0.035522406            5 
 1220000    1.0432031   -6.3125533    514.64393  0.035153274   0.03551312            3 
 1221000     1.060213   -6.3364536    514.83808  0.035137734    0.0355039            5 
 1222000    1.0494961   -6.2965484    517.07363  0.035261431  0.035494727            3 
 1223000    1.0649099   -6.3305766    514.60734   0.03506455  0.035485601            2 
 1224000    1.0463209   -6.2947042     516.3812  0.035156672  0.035476416            3 
 1225000     1.052324   -6.2862363    515.50095  0.035068092  0.035467363            4 
 1226000    1.0597712   -6.3814964    516.07019  0.035078181   0.03545792            4 
 1227000    1.0476417   -6.3285984     516.2648  0.035062809   0.03544858            2 
 1228000     1.062858   -6.3258654    517.37007  0.035109261  0.035439416            3 
 1229000    1.0578045   -6.2948451    518.58225  0.035162886  0.035430293            3 
 1230000    1.0469193   -6.3651138    516.59006  0.034999327  0.035421124            4 
 1231000    1.0327755   -6.2999477    517.66204  0.035043463  0.035412068            5 
 1232000    1.0730212   -6.3144482     520.1726  0.035184835  0.035402835            2 
 1233000     1.025719   -6.3416398    517.83991  0.034998642  0.035393551            3 
 1234000    1.0743429   -6.3103752    518.26873  0.034999239  0.035384123            3 
 1235000    1.0748299   -6.3414508    516.25117  0.034834762  0.035374902            4 
 1236000    1.0678901   -6.3504956    517.99893  0.034924416  0.035365474            3 
 1237000    1.0479406   -6.3034002    522.19486  0.035178851   0.03535604            7 
 1238000    1.0701399   -6.2542355    521.99386  0.035136905  0.035347045            2 
 1239000    1.0535749   -6.3055142    520.84142  0.035031034  0.035337977            5 
 1240000    1.0513763     -6.32257    520.54442  0.034982824  0.035329109            2 
 1241000    1.0555334   -6.3146774     520.5742  0.034956635  0.035319798            6 
 1242000    1.0366827   -6.3284784    521.14825  0.034967005  0.035310743            4 
 1243000    1.0615084   -6.3290812    521.85105  0.034985992  0.035301616            6 
 1244000    1.0350077   -6.2805682    521.97129  0.034965922  0.035292433            4 
 1245000    1.0746489   -6.3165763    521.06351  0.034877076  0.035283427            5 
 1246000    1.0629428   -6.2708383    522.08283  0.034917257  0.035274252            4 
 1247000    1.0541123   -6.3157923    521.93249  0.034879209  0.035265127            4 
 1248000    1.0615326   -6.3176153    525.21413  0.035070388  0.035256543            6 
 1249000    1.0508668   -6.2970839    525.04789  0.035031218  0.035247726            4 
 1250000    1.0473809   -6.3122721    524.99276  0.034999517  0.035238645            3 
 1251000    1.0141567   -6.3645518    522.87187   0.03483026  0.035229362            3 
 1252000    1.0597849    -6.332117     524.9653   0.03494178  0.035220239            4 
 1253000    1.0392855   -6.3021366     527.6793  0.035094394  0.035211319            4 
 1254000    1.0552562   -6.3171366      527.299  0.035041135  0.035202413            2 
 1255000    1.0629824   -6.3272279    525.73491  0.034909357  0.035193646            4 
 1256000    1.0507161   -6.3181136    525.89416  0.034892128  0.035184708            6 
 1257000    1.0651202   -6.3139742    526.80224  0.034924572    0.0351759            2 
 1258000    1.0649954   -6.2446833    528.39504  0.035002321  0.035167178            3 
 1259000    1.0643126   -6.3186873    527.05092  0.034885552  0.035158361            4 
 1260000    1.0428559   -6.3615991     526.0967  0.034794755  0.035149187            8 
 1261000    1.0627807   -6.3349226    526.74889  0.034810263  0.035139996            3 
 1262000    1.0560181   -6.3029456    528.15482  0.034875517  0.035130888            4 
 1263000    1.0383562   -6.3357104     527.4719  0.034802844  0.035121799            3 
 1264000    1.0341808   -6.3267733    528.34207  0.034832678  0.035112742            4 
 1265000    1.0448448   -6.3716329    525.56466  0.034622178  0.035103676            3 
 1266000    1.0449334   -6.2981799    528.47084  0.034786127  0.035094651            5 
 1267000    1.0688064   -6.3595295    528.79742  0.034780151  0.035085741            2 
 1268000    1.0615302    -6.323607    529.29569  0.034785469  0.035076503            3 
 1269000    1.0552217   -6.3146706     531.0505  0.034873293  0.035067395            5 
 1270000    1.0531199   -6.3265706    529.20664  0.034724845  0.035058314            2 
 1271000    1.0736427   -6.3463262      529.566  0.034721086  0.035049247            3 
 1272000    1.0429225   -6.3676405    529.51495  0.034690445  0.035039922            5 
 1273000    1.0442713   -6.3141591    532.23549  0.034841286  0.035030763            3 
 1274000    1.0259954   -6.2960028    530.87723  0.034725093  0.035021882            2 
 1275000    1.0649695   -6.3109891    532.01551  0.034772256   0.03501295            8 
 1276000    1.0436684   -6.3598781    529.87707  0.034605347  0.035003966            3 
 1277000    1.0529184     -6.31249    531.02509  0.034653165  0.034995009            3 
 1278000     1.044328   -6.3412388    532.94902  0.034751501  0.034985994            3 
 1279000    1.0249133   -6.3075228    532.13196  0.034671094  0.034976849            4 
 1280000    1.0610783   -6.3145251    532.17322  0.034646694  0.034967811            3 
 1281000    1.0396472   -6.3227927    532.24817  0.034624523  0.034958767            3 
 1282000    1.0254648   -6.3380077     533.5174  0.034680018  0.034949707            5 
 1283000    1.0475408   -6.3455525    535.61773  0.034789408  0.034940713            4 
 1284000    1.0639471   -6.3683723    535.11515  0.034729696  0.034931951            5 
 1285000    1.0386781   -6.3767397    534.71047  0.034676425  0.034923276            2 
 1286000    1.0449728   -6.3575349    534.39694  0.034629143  0.034914409            2 
 1287000     1.043687   -6.2845196    537.14943  0.034780461  0.034905816            5 
 1288000     1.036046   -6.3701565    534.45635  0.034579215  0.034897068            2 
 1289000    1.0539334    -6.384088    534.45501  0.034552302  0.034888083            3 
 1290000    1.0701509   -6.3259515    535.72211  0.034607372  0.034879267            5 
 1291000    1.0628087   -6.3236507    537.10814  0.034670032  0.034870581            4 
 1292000    1.0701273    -6.365705    535.61715   0.03454703  0.034861836            4 
 1293000    1.0281289    -6.333906    536.44856  0.034573895  0.034853044            4 
 1294000    1.0185578   -6.3556328    535.71927   0.03450021  0.034844077            3 
 1295000    1.0422845   -6.3185961    538.59175  0.034658414  0.034835232            4 
 1296000    1.0460155   -6.3651749    537.48159  0.034560287  0.034826736            3 
 1297000    1.0136797    -6.307637    540.64457  0.034736865  0.034818273            3 
 1298000    1.0279659   -6.3440183    539.36729    0.0346281  0.034810012            5 
 1299000    1.0423227   -6.3709904    537.86152  0.034504845  0.034801291            4 
 1300000    1.0413203   -6.3488299    538.43687  0.034515184  0.034792715            5 
 1301000    1.0642059   -6.3316267    540.56685  0.034625086  0.034784345            5 
 1302000    1.0392465   -6.3460112    540.40172  0.034587924  0.034775799           10 
 1303000    1.0472213   -6.3333343    540.51619    0.0345687  0.034767255            3 
 1304000    1.0352422   -6.3579956    541.11188  0.034580258  0.034758618            7 
 1305000    1.0575326   -6.3062285    541.36686  0.034570042   0.03475011            3 
 1306000    1.0466058   -6.3488228    542.28928   0.03460243  0.034741661            4 
 1307000    1.0360017   -6.3336928    542.64913  0.034598899  0.034733248            7 
 1308000    1.0640794   -6.3128556    543.27455  0.034612293  0.034724733            4 
 1309000    1.0251125   -6.3160392    543.45917  0.034597605  0.034716396            6 
 1310000    1.0306177   -6.3325117    542.79933  0.034529219   0.03470806            5 
 1311000    1.0411402   -6.3365589    542.60497  0.034490527  0.034699646            5 
 1312000    1.0496736   -6.3543074    543.59552  0.034527155  0.034691307            6 
 1313000     1.044087   -6.3829446    543.79374  0.034513439   0.03468299            4 
 1314000    1.0434325   -6.3405225    545.09679  0.034569812  0.034674559            5 
 1315000    1.0566366   -6.3516754    543.40598  0.034436374  0.034666014            5 
 1316000    1.0582355   -6.3973248    542.66905  0.034363542  0.034657436            6 
 1317000    1.0358896   -6.3647662    544.15007  0.034431161  0.034648655            7 
 1318000    1.0559928   -6.3374195    546.07467  0.034526724  0.034640177            6 
 1319000    1.0279038   -6.3668222    546.03003  0.034497727  0.034631791            4 
 1320000    1.0463806   -6.3617329    544.42408  0.034370207  0.034623075            4 
 1321000    1.0557466   -6.3243942    546.94709  0.034503349  0.034614527            3 
 1322000     1.043425   -6.3519992    545.83492  0.034407143  0.034605997            2 
 1323000    1.0610408   -6.3649443     544.9309  0.034324194  0.034597516            5 
 1324000    1.0406599   -6.3637431    544.99559  0.034302341   0.03458862            3 
 1325000     1.050511   -6.3891407     544.9421  0.034273088  0.034579906            5 
 1326000    1.0633734   -6.3962331    544.66392  0.034229758  0.034571061            3 
 1327000    1.0339912    -6.328157    546.53975  0.034321763   0.03456217            6 
 1328000    1.0415405   -6.3723598    544.32951  0.034157223  0.034553341            5 
 1329000    1.0489166    -6.337851    549.16236   0.03443456  0.034544549            7 
 1330000    1.0264549   -6.3611601    545.69319  0.034191302  0.034535784            6 
 1331000    1.0639834   -6.3800331    546.15509  0.034194533  0.034526784            3 
 1332000    1.0219473   -6.3792026    547.80671  0.034272191  0.034518004            4 
 1333000    1.0518041   -6.3677032    547.33428  0.034216947  0.034509302            7 
 1334000     1.026506   -6.3302197    550.11313  0.034364888  0.034500614            2 
 1335000    1.0536535   -6.3540753    548.64408  0.034247446  0.034491785            3 
 1336000    1.0391886   -6.3569347    547.60988  0.034157303  0.034483035            6 
 1337000    1.0004795   -6.3655272    549.00571  0.034218755  0.034474017            2 
 1338000    1.0466392   -6.3533971    549.76224  0.034240299  0.034464758            4 
 1339000    1.0557467   -6.3667014    547.66405  0.034084145  0.034455871            5 
 1340000    1.0691318   -6.3550956    549.30093  0.034160506  0.034447014            2 
 1341000    1.0286979   -6.3781102    548.54666  0.034088159  0.034438067            3 
 1342000    1.0339981   -6.3712666    548.57124  0.034064285  0.034428946            2 
 1343000    1.0262536   -6.3644551    552.07219  0.034256155  0.034420182            2 
 1344000     1.064345   -6.3604277    551.62758  0.034203099  0.034411418           11 
 1345000    1.0455579   -6.3288785    551.52301   0.03417119  0.034402668            3 
 1346000    1.0376613   -6.4018039    549.86864  0.034043378  0.034393731            7 
 1347000    1.0392203   -6.3567545    550.16733  0.034036583  0.034384829            4 
 1348000    1.0400167   -6.3611056    551.92384  0.034119921  0.034375974            6 
 1349000    1.0540565   -6.3872448    552.10651  0.034105912  0.034367079            7 
 1350000    1.0550785   -6.3565448    553.48712  0.034165871   0.03435837            4 
 1351000    1.0209059    -6.372979    551.48082  0.034016829  0.034349664            3 
 1352000    1.0367482   -6.3870034        551.7  0.034005177  0.034340905            4 
 1353000    1.0316205   -6.3820454    553.19037  0.034071838  0.034331972            9 
 1354000    1.0423157   -6.3548847      554.471  0.034125492  0.034323127            6 
 1355000    1.0309005   -6.3859391    553.41189  0.034035171  0.034314315            8 
 1356000    1.0385129   -6.4011363    552.04369  0.033925989  0.034305377            4 
 1357000    1.0335697   -6.3651901    553.00742  0.033960171  0.034296294            4 
 1358000    1.0478324    -6.360657    554.76366  0.034042934  0.034287356            3 
 1359000    1.0391642   -6.3361428    554.94627  0.034029082  0.034278549            3 
 1360000    1.0186083   -6.3384584    555.58274   0.03404306  0.034269697            3 
 1361000    1.0481117   -6.3640662    555.54602  0.034015798  0.034260889            4 
 1362000    1.0519115   -6.3991626    553.77078  0.033882206  0.034251954            4 
 1363000    1.0399014   -6.3762166    555.35388  0.033954138  0.034242898            3 
 1364000     1.048527   -6.3849409    554.84642  0.033898242  0.034233754            9 
 1365000    1.0263569   -6.3410859    555.74987  0.033928563  0.034224683            4 
 1366000     1.020394   -6.3905394    554.78649  0.033844955  0.034215345            5 
 1367000    1.0380226   -6.3387586    559.17806  0.034087909  0.034206235            4 
 1368000    1.0245518   -6.3833716    556.31257  0.033888437  0.034197276            6 
 1369000    1.0442273   -6.3907985    559.67535   0.03406838  0.034188402            4 
 1370000    1.0306667   -6.3732333    556.52126  0.033851658  0.034179451            6 
 1371000    1.0437121   -6.3750961    558.20284  0.033929178  0.034170381            6 
 1372000    1.0335449   -6.3953321    557.68148  0.033872782  0.034161316            3 
 1373000    1.0339821    -6.376064     558.8508  0.033919082  0.034152386            5 
 1374000    1.0477844   -6.3598638    558.86317  0.033895146  0.034143508            2 
 1375000     1.030821   -6.3430239    560.83261  0.033989855  0.034134756            4 
 1376000    1.0242646   -6.4072388    559.94603   0.03391146  0.034126019            2 
 1377000    1.0318087   -6.3853943    559.42912  0.033855551  0.034117236            2 
 1378000    1.0161325   -6.3802417    560.59709  0.033901614  0.034108379            8 
 1379000    1.0525595   -6.3666432    559.96845  0.033839041  0.034099838            2 
 1380000    1.0538383   -6.3620728    562.37177  0.033959648  0.034091199            4 
 1381000    1.0313346   -6.3645434     563.4372  0.033999348   0.03408267            6 
 1382000    1.0309364   -6.3759684    561.86449  0.033879914  0.034073979            3 
 1383000    1.0267211   -6.3397575    563.69307  0.033965599  0.034065543            2 
 1384000    1.0371483   -6.3998194    561.15724  0.033788369  0.034056993            4 
 1385000    1.0163984   -6.3836965    562.48892  0.033844099  0.034048409            3 
 1386000    1.0390774   -6.3377812    565.33774  0.033990966  0.034039888            4 
 1387000    1.0445063   -6.3743997    564.94143  0.033942648  0.034031323            4 
 1388000    1.0400118   -6.3962654    563.69621  0.033843433  0.034022772            4 
 1389000    1.0500919   -6.3948907    566.17648  0.033967871  0.034014395            8 
 1390000    1.0417491   -6.4138346    564.77311  0.033859299  0.034006158           10 
 1391000    1.0303324   -6.3909684    566.74719  0.033953223  0.033997782            3 
 1392000    1.0340872   -6.4019978    563.87903  0.033757126  0.033989413            6 
 1393000    1.0414919   -6.3714817     565.8091  0.033848355  0.033981244            4 
 1394000    1.0204689   -6.3675458    567.39706  0.033919001  0.033973084            2 
 1395000    1.0184987   -6.4066949    565.22775  0.033765099  0.033964637            5 
 1396000    1.0224419   -6.3779572    566.24294  0.033801512  0.033956328            3 
 1397000    1.0330343   -6.3654677    569.02502  0.033943273  0.033948189            2 
 1398000    1.0530649   -6.4062868    567.27047  0.033814406   0.03394013            2 
 1399000    1.0286471   -6.3886435    568.04005  0.033836076  0.033932027            4 
 1400000    1.0211031   -6.3907857     567.6494  0.033788655  0.033923739            3 
 1401000    1.0377502   -6.3743768    569.75305  0.033889665  0.033915643            9 
 1402000    1.0039585    -6.344291    571.14261  0.033948087  0.033907798           12 
 1403000    1.0132975   -6.3875614    572.07519  0.033979282  0.033899813            8 
 1404000    1.0141867   -6.4099284    569.64479  0.033810826  0.033891758            2 
 1405000     1.033249   -6.3613126    572.36205  0.033947927   0.03388396            5 
 1406000    1.0154864   -6.3801696    572.53689  0.033934145  0.033875949            2 
 1407000     1.018619   -6.4260883     569.3447  0.033720961  0.033867907            2 
 1408000    1.0285283   -6.3889256    571.00559  0.033795312  0.033859852            3 
 1409000    1.0226288   -6.3949473    571.65276  0.033809603  0.033851723            4 
 1410000    1.0280403   -6.3920239    569.75195  0.033673283  0.033843654            4 
 1411000    1.0392953   -6.4031893    570.35271  0.033684899  0.033835409            4 
 1412000    1.0151195   -6.3945164    572.43503  0.033783937  0.033827253            3 
 1413000    1.0349999   -6.4041246    572.81841  0.033782638  0.033819292            5 
 1414000    1.0245704   -6.3435635    574.57373  0.033862195  0.033811214            5 
 1415000    1.0155167   -6.3925574    573.81658  0.033793674  0.033803019            2 
 1416000    1.0262422   -6.3769745     572.7873  0.033709234  0.033794876            2 
 1417000    1.0160571   -6.4389328    571.39549  0.033603593  0.033786564            2 
 1418000    1.0386663   -6.3814061    573.23288  0.033687875  0.033778418            7 
 1419000      1.05331   -6.3953586      574.898  0.033761922  0.033770467            4 
 1420000    1.0244327   -6.3597258    574.91769  0.033739301  0.033762471            3 
 1421000    1.0153538   -6.4132765    574.53418  0.033693067  0.033754548            7 
 1422000    1.0104839   -6.4282188    573.78713  0.033625594  0.033746592            4 
 1423000    1.0355746    -6.433309    573.52071  0.033586362  0.033738417            5 
 1424000    1.0323109   -6.4317984    575.04891  0.033652207  0.033730237            4 
 1425000    1.0164947   -6.4144162    576.37389  0.033706075  0.033722273            3 
 1426000    1.0187487   -6.4118137    574.79857  0.033590379  0.033714131            6 
 1427000     1.015856   -6.3885225    576.37009  0.033658613  0.033706158            3 
 1428000    1.0037066   -6.3720044    575.79294  0.033601362  0.033698049            5 
 1429000    1.0302194   -6.3825579    578.67628  0.033745993  0.033689969            8 
 1430000    1.0260271   -6.3729267    578.72429  0.033725192   0.03368194            3 
 1431000    1.0234476    -6.390617    575.93454  0.033539165  0.033673957            2 
 1432000    1.0416075   -6.3958875    575.70244  0.033502237   0.03366584            1 
 1433000    1.0180477   -6.4017347    576.72088  0.033538084  0.033657712            3 
 1434000    1.0157751   -6.4265123    577.57132  0.033564116   0.03364939            3 
 1435000    1.0435641   -6.4133708    577.20939  0.033519709  0.033641066            8 
 1436000    1.0159284   -6.4273605    577.77127  0.033528974  0.033632738            3 
 1437000    1.0426496   -6.3940685    577.93725  0.033515266   0.03362452            3 
 1438000    1.0357706   -6.4200144    578.24168  0.033509601  0.033616279            6 
 1439000    1.0366951   -6.3816367    577.69782  0.033454819   0.03360805            4 
 1440000    1.0145826   -6.3969287    578.07637  0.033453493  0.033599783            4 
 1441000    1.0207125   -6.3763927    581.06468  0.033603093  0.033591462            7 
 1442000    1.0454159   -6.3974835    580.08018  0.033522895  0.033583104            4 
 1443000     1.023184   -6.4333555    579.98094  0.033493933  0.033574645            6 
 1444000    1.0037631   -6.4187634    576.47527  0.033268425  0.033566046            3 
 1445000    1.0269387   -6.4200107    579.23315  0.033404449  0.033557456            7 
 1446000    1.0353972   -6.4003561     578.9834  0.033366955  0.033548874            3 
 1447000    1.0368803   -6.3917194    578.83602  0.033335408  0.033540334            3 
 1448000    1.0221552    -6.430068    579.27407  0.033337596  0.033531926            5 
 1449000    1.0145485    -6.378092    582.72777  0.033513214  0.033523424            2 
 1450000    1.0058818   -6.3939171    581.62948  0.033426982  0.033515042            4 
 1451000    1.0226666   -6.4018283    582.48286  0.033452956  0.033506674            4 
 1452000    1.0052095   -6.4234582    580.63894   0.03332409  0.033498167            4 
 1453000    1.0154723   -6.3875003    580.46242  0.033291031  0.033489713            5 
 1454000    1.0229016    -6.425464    581.01849  0.033300005  0.033481444            8 
 1455000   0.99878182   -6.3995957    582.79445  0.033378834  0.033473105            4 
 1456000   0.99459007   -6.4324572    581.97572   0.03330905  0.033464844            3 
 1457000    1.0244883    -6.375274    585.75487  0.033502337  0.033456657            5 
 1458000    1.0079962   -6.4212741    582.70629  0.033305115  0.033448558            5 
 1459000    1.0213685   -6.3819073    583.32619  0.033317694  0.033440441            3 
 1460000    1.0175078   -6.3977583    584.89856  0.033384621  0.033432336            3 
 1461000    1.0207182   -6.4161688    584.00395  0.033310743  0.033424159            5 
 1462000    1.0098549   -6.4074988    586.04331  0.033404201  0.033416121            5 
 1463000    1.0357524   -6.4200994    584.19676  0.033276188  0.033407873            3 
 1464000    1.0176346   -6.4006113     583.6492  0.033222291    0.0333996            3 
 1465000    1.0327776   -6.4345662    583.27671  0.033178425  0.033391341            6 
 1466000    1.0151306   -6.4105763    585.33545   0.03327282  0.033383032            5 
 1467000    1.0288493   -6.4144966    586.05426  0.033290971  0.033374591            2 
 1468000     1.009751   -6.4555825     583.1071  0.033100994  0.033366229            3 
 1469000    1.0124525   -6.4149524    585.77098  0.033229577  0.033358015            4 
 1470000    1.0088826   -6.3951688     584.7799  0.033150788  0.033349635            4 
 1471000    1.0249671   -6.4029589    588.61343  0.033345424  0.033341364            6 
 1472000    1.0019813    -6.412482    587.29269  0.033248001  0.033333097            2 
 1473000     1.007962   -6.4607891    585.68697  0.033134588  0.033324908            2 
 1474000    1.0247027   -6.3978996    587.88558  0.033236408  0.033316489            4 
 1475000     1.003583    -6.416917    586.78628  0.033151767  0.033308251            3 
 1476000    1.0232324   -6.4117023    589.32249  0.033272498  0.033299936            3 
 1477000   0.99589667   -6.4392677    586.64346  0.033098818  0.033291674            3 
 1478000    1.0277974   -6.4023801    588.04679  0.033155548  0.033283203            5 
 1479000    1.0126884    -6.405318    589.69514  0.033226005  0.033274914            5 
 1480000    1.0097202   -6.4188499    587.99265  0.033107694  0.033266679            5 
 1481000    1.0059834   -6.4411726    588.84716  0.033133421  0.033258486            7 
 1482000    0.9898824   -6.4520475    587.13922  0.033015026  0.033250008            9 
 1483000    1.0261323   -6.4087194    589.85205  0.033145204  0.033241493            4 
 1484000    1.0411843   -6.4274815    589.56127   0.03310654  0.033233035            6 
 1485000    1.0131922   -6.4175058    590.73805  0.033150283  0.033224692            3 
 1486000    1.0267741   -6.4345031    592.00755  0.033199167  0.033216426            6 
 1487000    1.0132085   -6.4215292    592.77309  0.033219743  0.033208059            3 
 1488000    1.0292336   -6.4476353    592.57465  0.033186304  0.033199686            4 
 1489000   0.99762828   -6.4183191    592.93032  0.033183922  0.033191422            5 
 1490000   0.99217602   -6.4053402    592.93227   0.03316176  0.033183244            4 
 1491000    1.0132467   -6.4290379     592.1508  0.033095842  0.033175073            3 
 1492000   0.99938893   -6.4226132    591.00774  0.033009816  0.033166846            5 
 1493000   0.98999473   -6.3952609     593.8934  0.033148772   0.03315872            4 
 1494000    1.0186091    -6.434187    590.66321  0.032946408  0.033150486            6 
 1495000    1.0093199   -6.4057482    592.95247  0.033051977  0.033142045            6 
 1496000    1.0275151   -6.4316648     592.5176  0.033005659  0.033133787            4 
 1497000    1.0031844   -6.3700203    592.62881  0.032989802  0.033125817            3 
 1498000    1.0125946   -6.4259683    592.74424  0.032974201  0.033117418            5 
 1499000    1.0164271   -6.4379407    592.19565  0.032921706  0.033109086            3 
 1500000    1.0105373   -6.4239576    591.14327  0.032841293    0.0331009            4 
 1501000    1.0084276   -6.4242107    594.41676  0.033001153  0.033092523            4 
 1502000    0.9957084   -6.4218326    594.74674  0.032997489  0.033084168            6 
 1503000   0.98978467   -6.4139466    596.33051  0.033063346  0.033076047            7 
 1504000    1.0032128    -6.426753    595.95452   0.03302053  0.033067809           10 
 1505000    1.0025964   -6.4307091    597.90843  0.033106779  0.033059793            5 
 1506000    1.0057863   -6.3918602    600.39196   0.03322222  0.033051944            3 
 1507000   0.98848016   -6.4558604    597.77395  0.033055406  0.033044136            6 
 1508000    1.0385428   -6.4749036    596.72779  0.032975674  0.033036122            3 
 1509000    1.0160696   -6.4150274    598.89522  0.033073515  0.033028215            9 
 1510000    1.0154231   -6.4277704    599.76553  0.033099643  0.033020391            3 
 1511000    1.0187543    -6.440266    599.55541  0.033066149  0.033012754            4 
 1512000    1.0038943   -6.3943438    600.85265  0.033115777  0.033005015            2 
 1513000    1.0067151   -6.4278369    599.68242  0.033029435  0.032997217            2 
 1514000   0.98948579   -6.4348078    599.19238  0.032980646  0.032989478            6 
 1515000   0.99686577   -6.4460142    597.49122  0.032865304  0.032981629            6 
 1516000   0.99334287   -6.4324297    600.23184  0.032994275  0.032973776            3 
 1517000    1.0226787   -6.4616103     599.1988  0.032915777  0.032965942            4 
 1518000    1.0285162   -6.4350996    600.05144    0.0329409  0.032958198            4 
 1519000    1.0116737   -6.4334727    601.54752   0.03300129  0.032950288            4 
 1520000    1.0166948   -6.4203243    603.31186  0.033076308  0.032942464            5 
 1521000    1.0008753   -6.4935153    599.85479  0.032865154  0.032934636            3 
 1522000    1.0183109   -6.4347659    601.57499  0.032937746  0.032926657            5 
 1523000    1.0071364   -6.4823749    600.04286  0.032832286  0.032918709            4 
 1524000    0.9980353   -6.4586802    599.67681  0.032790727  0.032910516            6 
 1525000    1.0072897   -6.4682026    599.21571  0.032744028  0.032902515           11 
 1526000   0.99552287   -6.4675208    600.76442  0.032807144   0.03289444            2 
 1527000    1.0054554   -6.4451176    600.98038  0.032797445  0.032886283            6 
 1528000    1.0165515   -6.4459099    602.40167  0.032853494  0.032878151            3 
 1529000    1.0111731   -6.4252581    604.69408  0.032956948  0.032870032            3 
 1530000    1.0111438        -6.42     602.1655  0.032797685  0.032861942            2 
 1531000    1.0245224   -6.4264143    604.29502  0.032892174   0.03285401            7 
 1532000    1.0158448   -6.4049915    603.80317   0.03284395  0.032846025            5 
 1533000    1.0166215   -6.4300355     604.0392  0.032835355  0.032838094            2 
 1534000    1.0193212   -6.4136388    604.84242  0.032857585  0.032830084            4 
 1535000    1.0021676   -6.4234888    605.65184  0.032880122  0.032822153            3 
 1536000    1.0036926   -6.4381879    604.62288  0.032802891  0.032814215            3 
 1537000    1.0116834   -6.4608151    606.38753  0.032877225  0.032806173            4 
 1538000    1.0163957   -6.4471489    604.32407  0.032744044  0.032798138            3 
 1539000    1.0224978   -6.4614404    603.88602  0.032699048  0.032790181            3 
 1540000     1.003325   -6.4678588    604.59525  0.032716193  0.032782241            5 
 1541000     1.000252    -6.401561    610.20526  0.032998337  0.032774334            7 
 1542000   0.97558724    -6.412255    607.74395  0.032843923  0.032766512            2 
 1543000   0.99436566   -6.4280644    606.10551   0.03273415  0.032758451            3 
 1544000    1.0094497     -6.41929    606.52098  0.032735372  0.032750423            2 
 1545000   0.98735214   -6.4330496    604.79376  0.032621023  0.032742433            5 
 1546000   0.98289868   -6.4476792    607.12251  0.032725448  0.032734601            5 
 1547000    1.0263783   -6.4464187    608.97322  0.032803988    0.0327267            4 
 1548000    1.0112219   -6.4534615    606.56698  0.032653261     0.032719            5 
 1549000   0.99460904   -6.4971673    607.81105   0.03269911  0.032711219            5 
 1550000    1.0082856   -6.4297977    610.49037  0.032822063  0.032703434            3 
 1551000    1.0038302   -6.4873561     609.6662  0.032756619  0.032695656           10 
 1552000    1.0047946   -6.4513927    608.45398  0.032670424  0.032687994            4 
 1553000    1.0122688   -6.4266484    610.97988  0.032784926  0.032680318            3 
 1554000   0.99964776   -6.4730391    608.91607  0.032653157  0.032672695            3 
 1555000   0.98780898   -6.4382289    610.38287  0.032710765  0.032664941            3 
 1556000    1.0016095    -6.461743    610.69789  0.032706614  0.032657321            3 
 1557000    1.0113086   -6.4618699    611.61144  0.032734502  0.032649544            7 
 1558000   0.98879151   -6.4536488    610.72657  0.032666162  0.032641842            4 
 1559000    1.0011218   -6.4612092    610.20737  0.032617456  0.032634063            3 
 1560000    1.0083645   -6.4243949    611.40438   0.03266049  0.032626307            2 
 1561000   0.97155257   -6.4202523    610.79286  0.032606922  0.032618651            7 
 1562000    1.0076331   -6.4094986    613.20176  0.032714562  0.032610961            7 
 1563000    1.0088841   -6.4971834     610.5111  0.032550176  0.032603199            4 
 1564000      1.00962   -6.4379319    612.45325  0.032632846   0.03259548            4 
 1565000    1.0022067   -6.4360686    613.80883  0.032684176  0.032587898            4 
 1566000   0.97208593   -6.4217528    613.17472  0.032629561  0.032580349            2 
 1567000   0.99625269    -6.438204    614.46007  0.032677094   0.03257259            5 
 1568000   0.99207519    -6.472981    612.08052  0.032529789  0.032564746            4 
 1569000    1.0005692   -6.4327122    615.07903  0.032668315  0.032556968            3 
 1570000   0.97875711    -6.468312    613.28781  0.032552432    0.0325491            3 
 1571000   0.99751419    -6.457985    612.85839  0.032508932  0.032541215            4 
 1572000   0.99694385   -6.4564127    612.84537  0.032487562  0.032533284            4 
 1573000    1.0105663   -6.4435201    614.47539  0.032553263  0.032525342            4 
 1574000    0.9892519   -6.4557875    614.82375  0.032551025  0.032517538            3 
 1575000    1.0040145   -6.4345275    615.64765  0.032573949  0.032509662            6 
 1576000   0.98949344   -6.4226123    614.28911  0.032481446  0.032501888            4 
 1577000   0.98519218   -6.4891358    614.09266  0.032450468  0.032494082            5 
 1578000    0.9984498   -6.4481017    616.77841  0.032571737  0.032486203            4 
 1579000    1.0054481   -6.4660596    615.85637  0.032502447  0.032478329            6 
 1580000   0.96810202   -6.4650775    617.75729  0.032582135   0.03247054            4 
 1581000   0.99795215   -6.5088195    614.01434  0.032364239   0.03246272            5 
 1582000    1.0097278   -6.5052904    615.62442  0.032428593  0.032454853           10 
 1583000    1.0223968   -6.4448101      617.241  0.032493209  0.032447134            4 
 1584000   0.98104599   -6.4649787    617.19147   0.03247009  0.032439497            3 
 1585000   0.98134793   -6.4553676    616.70411  0.032423981  0.032431971            4 
 1586000    1.0068257   -6.4981399    615.64476  0.032347875  0.032424392            3 
 1587000    1.0079804   -6.4430846     617.6603  0.032433328  0.032416795            2 
 1588000   0.99481989   -6.4786309    617.32738  0.032395433  0.032409028            4 
 1589000   0.99177661   -6.4199399    620.76706  0.032555436  0.032401267            2 
 1590000   0.98982657   -6.4435511    618.96616  0.032440574   0.03239358            6 
 1591000   0.99628731    -6.420204    618.96582  0.032420167  0.032385869            9 
 1592000     1.004917   -6.4367652    619.94741  0.032451184  0.032378059            3 
 1593000   0.98582826   -6.4594566    619.12231  0.032387649  0.032370349            6 
 1594000   0.99090935   -6.4600641    619.63137  0.032393944  0.032362352            3 
 1595000    1.0117884   -6.4789543    619.30024  0.032356334  0.032354313            7 
 1596000   0.99751873   -6.4485373    618.51931  0.032295285  0.032346328            3 
 1597000    1.0007253   -6.4548974     621.2914  0.032419714  0.032338356            3 
 1598000   0.99539236   -6.4320431    620.99059  0.032383739  0.032330512            6 
 1599000      1.01192   -6.4450615    618.91306  0.032255215  0.032322529            4 
 1600000    0.9931639   -6.4610899    618.27682  0.032201918  0.032314305            2 
 1601000    0.9982189   -6.4762887    620.23116  0.032283529  0.032306149            3 
 1602000    1.0085834   -6.4694145    619.67271  0.032234328  0.032298036            2 
 1603000    1.0100124   -6.4705234    620.30535  0.032247107  0.032289966            2 
 1604000    1.0203079   -6.4280964    622.54093  0.032343149   0.03228206            6 
 1605000   0.98660217   -6.5164837    619.03242  0.032140832  0.032273929            5 
 1606000     1.012797   -6.4709927    621.34769  0.032240955  0.032265675            7 
 1607000   0.98074293   -6.5257739    620.45902  0.032174809  0.032257635            6 
 1608000   0.99770012   -6.5170429    621.36322  0.032201659  0.032249419            7 
 1609000    0.9971515   -6.4579834    622.57766  0.032244544   0.03224118            1 
 1610000   0.99908753   -6.4278201    624.61396  0.032329915  0.032233313            5 
 1611000   0.97887745   -6.4344454    624.76596  0.032317709   0.03222565            4 
 1612000    0.9868866   -6.4296122     623.8637  0.032251018  0.032218058            5 
 1613000   0.97681734   -6.4719558    624.35081   0.03225619  0.032210275            6 
 1614000   0.99509523    -6.444162    624.42755  0.032240167  0.032202606            6 
 1615000   0.99401115   -6.4663686     625.0334  0.032251465  0.032195033            8 
 1616000    1.0075217    -6.511458    624.75505  0.032217154  0.032187144            3 
 1617000    0.9984321   -6.4615758    626.60221  0.032292425  0.032179434            4 
 1618000   0.97383672   -6.4879122    625.50296  0.032215851  0.032171603            5 
 1619000   0.98538205   -6.4655701    627.19907  0.032283254   0.03216395            5 
 1620000   0.99523372   -6.4192996     626.8143  0.032243534  0.032156214            2 
 1621000   0.97668659   -6.4755704    626.59506  0.032212372   0.03214845            5 
 1622000   0.98306389   -6.4975412      624.076  0.032063091  0.032140571            2 
 1623000    1.0093288     -6.46868    627.42399  0.032215239  0.032132548            3 
 1624000   0.99265016    -6.484618     626.3062  0.032138044  0.032124619            3 
 1625000   0.98982894   -6.4900258    626.97659  0.032152646  0.032116606            2 
 1626000    0.9781753   -6.4914215     625.7476  0.032069885  0.032108628            6 
 1627000   0.98165079   -6.4636302    625.56761  0.032040955  0.032100581            6 
 1628000   0.99856367   -6.4594242     627.5885  0.032124719  0.032092572            7 
 1629000   0.97766117   -6.4664882    625.87937  0.032017565  0.032084622            3 
 1630000   0.97842314   -6.4546956    625.08296  0.031957206  0.032076528            3 
 1631000    1.0021843   -6.5018478    626.92414  0.032031685   0.03206836            3 
 1632000   0.98098204   -6.4790674    626.08602  0.031969262  0.032060183            7 
 1633000   0.99984698   -6.4444938    628.85096  0.032090782  0.032051963            6 
 1634000    1.0073982   -6.4892433    626.15239  0.031933517  0.032043566            6 
 1635000   0.97243038   -6.4892207    626.41963  0.031927606  0.032035155            3 
 1636000   0.99675421   -6.4528378     626.9206  0.031933608  0.032026843            7 
 1637000    1.0046415   -6.4396426    626.94369  0.031915276  0.032018517            9 
 1638000    0.9915735   -6.4591662    625.37834  0.031816155  0.032010286            4 
 1639000   0.96892439   -6.5162686    626.17018  0.031837003  0.032001838            5 
 1640000    1.0097071   -6.4813356    628.55033  0.031938533  0.031993423            4 
 1641000    0.9978958    -6.486979    626.70119  0.031825167  0.031985154            5 
 1642000   0.98575828   -6.4839501     628.7258  0.031908537  0.031977017            3 
 1643000   0.99473233   -6.4757868    626.59519   0.03178105  0.031968837            3 
 1644000    1.0335902   -6.4813403    628.38232  0.031852307  0.031960688            7 
 1645000    1.0033498   -6.5099443    627.47935  0.031787201  0.031952531            5 
 1646000    0.9901434   -6.4945041    631.53017  0.031972974  0.031944331            6 
 1647000    1.0247353   -6.4576912    632.46715  0.032000969  0.031936394            6 
 1648000   0.99987668   -6.4925595    630.29264  0.031871594  0.031928446            6 
 1649000   0.99019991   -6.4742338     632.8609  0.031982055  0.031920509            2 
 1650000   0.98368186    -6.475848    632.02171  0.031920289   0.03191247            3 
 1651000    1.0005881   -6.5005738    631.98551  0.031899128  0.031904473            4 
 1652000   0.96325292   -6.4747963    631.86572  0.031873775  0.031896397            3 
 1653000   0.99163079   -6.4976236    632.17467  0.031870068  0.031888451            3 
 1654000   0.99856706   -6.4546044     632.8984  0.031887263  0.031880499            4 
 1655000   0.99534448   -6.4820642    633.29966    0.0318882   0.03187261            4 
 1656000   0.96835721   -6.4676468    631.13976  0.031760254  0.031864643            3 
 1657000   0.96857284   -6.5101421    632.32885  0.031800888  0.031856587            3 
 1658000   0.98519683   -6.4702065    633.54544  0.031842855  0.031848568            4 
 1659000   0.98680361   -6.5297924    631.41066  0.031716428  0.031840466           10 
 1660000   0.99829522    -6.515067    633.78552  0.031816542  0.031832416            6 
 1661000   0.97184755   -6.4842064    634.91608  0.031854108  0.031824616            3 
 1662000    1.0018841   -6.4506535    635.14488  0.031846414  0.031816583            4 
 1663000    0.9869087   -6.5096765    633.54876  0.031747282  0.031808598            2 
 1664000   0.99171782    -6.504754    634.27786  0.031764717  0.031800524            7 
 1665000   0.99159515   -6.4739336    635.98987  0.031831325  0.031792493            4 
 1666000    1.0036307   -6.4902415    636.33033  0.031829248  0.031784595            6 
 1667000   0.97413741   -6.4906673    637.79228  0.031883237  0.031776805            7 
 1668000   0.98303571   -6.4976493     636.8609  0.031817591  0.031768944            7 
 1669000   0.99545637   -6.5014746    637.58241  0.031834552  0.031761197            5 
 1670000   0.98175682   -6.4677744    637.77456  0.031825078  0.031753415            4 
 1671000   0.99404404   -6.5014574    636.53181  0.031744056   0.03174574            3 
 1672000   0.99681049   -6.4568556     638.9159  0.031843895  0.031737918            4 
 1673000   0.97478929   -6.5557368    634.95117  0.031627374  0.031729999            4 
 1674000    0.9771725   -6.5283999    635.93169  0.031657292  0.031721921            3 
 1675000   0.96805434   -6.4891337    636.92767  0.031687944  0.031714003            4 
 1676000   0.99019021   -6.4874909    638.00341  0.031722524  0.031706031            2 
 1677000    1.0073877   -6.5099297     638.4399  0.031725298  0.031698156            4 
 1678000   0.97291478   -6.5152976    637.50225  0.031659825  0.031690258            6 
 1679000    0.9749485   -6.5082847    638.28624  0.031679881  0.031682363            7 
 1680000   0.98776363   -6.5015558    639.20145  0.031706421  0.031674511            4 
 1681000   0.96624567   -6.4806317    639.56175  0.031705421  0.031666588            5 
 1682000   0.97835424   -6.5256112    638.17841  0.031618034  0.031658712            2 
 1683000   0.99703289   -6.4796993    640.56145  0.031717243  0.031650896            4 
 1684000   0.99757137   -6.4649489    639.63574    0.0316526  0.031643111            3 
 1685000   0.99745492   -6.4643805    640.77563  0.031690189   0.03163533            3 
 1686000    1.0098067   -6.4944106    641.84371  0.031724185  0.031627524            4 
 1687000   0.97534222   -6.5048355    639.80369  0.031604608  0.031619743            4 
 1688000   0.97521092    -6.524604    639.21096  0.031556623  0.031611833            4 
 1689000   0.99481308   -6.4957645    639.40807  0.031547665  0.031603857            2 
 1690000   0.96352031   -6.5066449    641.51333  0.031632807  0.031595797            2 
 1691000   0.97445162   -6.5354159    639.99122   0.03153909  0.031587751           10 
 1692000   0.98885174   -6.5220001    639.88043  0.031514993   0.03157965            3 
 1693000   0.95960312   -6.4669685     642.8756  0.031643808  0.031571702            7 
 1694000   0.97180024   -6.5151412    638.40953  0.031405428  0.031563727            4 
 1695000   0.98002983    -6.481128    644.28495  0.031675759  0.031555729            7 
 1696000   0.98804185   -6.5182629    642.34749  0.031561885  0.031547753            5 
 1697000   0.98883281   -6.5294012    641.47479  0.031500432  0.031539588            9 
 1698000   0.96948353   -6.5095079    641.48364  0.031482314  0.031531695           13 
 1699000   0.98519252   -6.5390518    639.29782  0.031356573   0.03152356            4 
 1700000   0.95641069   -6.4920537    642.99214  0.031519223  0.031515396            2 
 1701000   0.98104074   -6.5322629    641.50009  0.031427596  0.031507296            4 
 1702000   0.98639488   -6.5337244     642.7498  0.031470319  0.031498973            4 
 1703000   0.98537015   -6.5468674    640.01499  0.031318017  0.031490697            6 
 1704000   0.98672351   -6.5445789    641.85048  0.031389402  0.031482489            4 
 1705000   0.96921174   -6.5187979    641.42658  0.031350273  0.031474277            7 
 1706000   0.98983534   -6.4941126    643.62154  0.031439114  0.031466123            5 
 1707000   0.96618147   -6.5144257    643.76495  0.031427697  0.031458048           10 
 1708000   0.95913772   -6.5178739    644.18765  0.031429921  0.031449897            5 
 1709000   0.97706142   -6.5067574    645.13871  0.031457905  0.031441694            2 
 1710000   0.97945708   -6.5235082    644.16053  0.031391839  0.031433523           10 
 1711000   0.98176041    -6.542059    643.57063  0.031344761  0.031425368            5 
 1712000   0.96936784   -6.5048062    644.46124  0.031369803  0.031417362            2 
 1713000   0.96528821   -6.5221499     645.7274  0.031413086  0.031409232           16 
 1714000   0.97215432   -6.5310679    644.69815  0.031344717  0.031401007            3 
 1715000   0.97160309   -6.5422452    644.95434  0.031338889   0.03139275            6 
 1716000   0.97443107   -6.5447489    643.75888  0.031262572  0.031384658            3 
 1717000   0.98023108   -6.5416818    646.53603  0.031379151  0.031376478            4 
 1718000   0.99308343   -6.5133819    645.38215  0.031304916   0.03136836            3 
 1719000   0.95091958   -6.5479925    645.47384   0.03129115  0.031360121           13 
 1720000    1.0039639   -6.5518099    645.18022  0.031258732   0.03135186            8 
 1721000   0.95346523   -6.5254233    645.83313  0.031272183  0.031343733            7 
 1722000    0.9874902   -6.5157788    647.25485  0.031322825  0.031335565            4 
 1723000   0.96946424    -6.521768    646.04987  0.031246366  0.031327459            5 
 1724000    1.0018938   -6.5365932    645.46817  0.031200124  0.031319245            6 
 1725000    0.9821665   -6.5113453     648.2702  0.031317401  0.031311048            2 
 1726000   0.97974654   -6.4889614    649.10882  0.031339746  0.031302966            4 
 1727000   0.97659197   -6.5338355    647.11143  0.031225219  0.031294803            4 
 1728000   0.98538508   -6.5347577    647.79538  0.031240132  0.031286436            3 
 1729000   0.97570774   -6.5754072    645.38311  0.031105799  0.031278111            3 
 1730000   0.94700251   -6.5202343    646.24287  0.031129233  0.031269779            8 
 1731000   0.98318837   -6.5463391    648.02111  0.031196857  0.031261578            4 
 1732000   0.99520777   -6.5194684    646.90048  0.031124927  0.031253534            4 
 1733000   0.97723688   -6.5148913    648.71659  0.031194296  0.031245513            3 
 1734000   0.96839527    -6.530473    650.36877  0.031255708  0.031237364            6 
 1735000   0.98580465   -6.5232012    647.07812  0.031079641  0.031229112            8 
 1736000   0.97140617    -6.544093     648.1514  0.031113259  0.031220802           25 
 1737000    0.9611587   -6.5343405    649.72829  0.031170998  0.031212719            6 
 1738000   0.97916573   -6.5172389    648.94114  0.031115321  0.031204585           13 
 1739000    0.9820889   -6.5083811    652.00871  0.031244427  0.031196488            5 
 1740000   0.97970114   -6.5219046    649.31841  0.031097625  0.031188375            3 
 1741000   0.99346018   -6.4996184    652.83416  0.031248045  0.031180238            6 
 1742000   0.96990809   -6.5117246    649.79968  0.031084944  0.031172037            2 
 1743000   0.98537605   -6.5234348    650.95826  0.031122502  0.031163654            5 
 1744000   0.98568048   -6.5168052    651.31399  0.031121655  0.031155514            9 
 1745000   0.96676041   -6.5464293    649.99295  0.031040733  0.031147333            6 
 1746000   0.95738777   -6.5366268    651.89262  0.031113623  0.031139097            4 
 1747000   0.97509687    -6.541553    650.24224  0.031017088  0.031130971            4 
 1748000   0.95819658   -6.5152413    652.36067  0.031100337  0.031122872            6 
 1749000   0.98102747   -6.5305342    650.32504  0.030985565  0.031114709            3 
 1750000   0.97630687    -6.547432    649.29123   0.03091863   0.03110639            6 
 1751000   0.96807545   -6.5183736    654.67936  0.031157403  0.031098181            4 
 1752000   0.95268174   -6.5373674    650.78534  0.030954402  0.031090002            3 
 1753000   0.98150239   -6.5587301    653.78373   0.03107928  0.031081763            5 
 1754000   0.94639785   -6.5284251    651.69158  0.030962162  0.031073424            5 
 1755000   0.96036495   -6.4915221    654.19117  0.031063208  0.031065216            4 
 1756000   0.95965254   -6.5306169    653.48206  0.031011867  0.031056942            6 
 1757000   0.95393664   -6.5385786     653.3791  0.030989333  0.031048656            4 
 1758000   0.97064615   -6.5189927     652.2405  0.030917733  0.031040372            9 
 1759000   0.96605176   -6.5248748     654.5183  0.031008068  0.031031988            4 
 1760000   0.97046895   -6.5006731    654.41996  0.030985794  0.031023888            4 
 1761000   0.98120152   -6.5235775    655.30889  0.031010263  0.031015797            3 
 1762000   0.99383775   -6.5166833    654.55679  0.030957094  0.031007681            6 
 1763000   0.97475581   -6.5432715    653.93308  0.030910053  0.030999525            3 
 1764000   0.96102657   -6.5465461    652.81894  0.030839897  0.030991393            8 
 1765000   0.96475702   -6.5095879    653.72904  0.030865394   0.03098315            6 
 1766000   0.98647214   -6.5066144    655.45561  0.030929389  0.030975021            7 
 1767000   0.97001999   -6.5289969    655.20487   0.03090006  0.030966798            4 
 1768000   0.98707266   -6.5107323    655.17366  0.030881111  0.030958538            5 
 1769000   0.97914418   -6.5487222    654.59926  0.030836596  0.030950243            4 
 1770000   0.96281412   -6.5456373    653.48822  0.030766865  0.030941858            4 
 1771000   0.95430112   -6.5169672    655.91791  0.030863821  0.030933578            3 
 1772000   0.96817393   -6.5259673    653.26565  0.030721673  0.030925212            3 
 1773000   0.96085426    -6.532215    654.98722  0.030785261  0.030916916            3 
 1774000    0.9540577   -6.5633209     654.7616  0.030757309  0.030908604            6 
 1775000   0.95349445   -6.5219677    656.72017  0.030831933  0.030900225            3 
 1776000   0.98379965   -6.5282168    655.38898  0.030752111  0.030891923            4 
 1777000   0.95732584   -6.5737786    653.08962  0.030626975  0.030883539            4 
 1778000   0.98814597   -6.5529001    654.68414  0.030684483  0.030875187            8 
 1779000   0.97558568   -6.5322883    657.64268  0.030805822  0.030866903            7 
 1780000   0.97027574   -6.5384774    655.38312   0.03068273  0.030858608           10 
 1781000   0.93726737   -6.5301831    657.15367  0.030748347  0.030850212            4 
 1782000   0.99115646   -6.5450109    655.58393  0.030657685  0.030841695            2 
 1783000   0.96854169   -6.5367455    655.50356  0.030636734  0.030833216            4 
 1784000      0.97666   -6.5493415     656.1773  0.030651032  0.030824743            5 
 1785000   0.98028422   -6.5757369    655.82081  0.030617218  0.030816316            3 
 1786000   0.96282835   -6.5175901     654.8772  0.030556047   0.03080776            3 
 1787000   0.97636524   -6.5812855     654.9802  0.030543751  0.030799304            4 
 1788000     0.959524   -6.5429574    656.59987  0.030602157  0.030790648           10 
 1789000   0.95866691   -6.5168803    657.62241  0.030632682   0.03078193            2 
 1790000   0.95453819   -6.5571678    655.83008  0.030532127  0.030773326            5 
 1791000   0.95533686   -6.5665005    656.93717  0.030566591   0.03076461            5 
 1792000   0.95444887   -6.5113303     657.6812  0.030584133  0.030755992            2 
 1793000   0.95691642   -6.5716646    656.23141  0.030499694  0.030747274            3 
 1794000   0.95906112   -6.5603503    657.18439   0.03052696  0.030738428            4 
 1795000   0.98899164   -6.5570421    657.95702  0.030545822  0.030729753            6 
 1796000   0.94089444   -6.5299999    658.60231  0.030558756  0.030721122            6 
 1797000    0.9821201   -6.5142249     658.2439   0.03052513  0.030712519            4 
 1798000   0.96827389   -6.5988004    656.13086  0.030410218  0.030703742            3 
 1799000   0.96109378   -6.5452184    659.22326   0.03053656  0.030694993            4 
 1800000   0.96450238   -6.5366096    658.55787   0.03048879  0.030686296            7 
 1801000   0.96719605   -6.5618468    658.65863  0.030476523  0.030677529            7 
 1802000   0.98331687   -6.5600164    656.45877  0.030357879  0.030668716            4 
 1803000   0.96496613   -6.5532192    658.19225  0.030421161  0.030660047            6 
 1804000   0.96093069   -6.5320695    660.35589  0.030504245  0.030651286           10 
 1805000   0.99047342   -6.5567671    659.58002  0.030451524  0.030642567            4 
 1806000   0.97281689   -6.5509503    658.53625  0.030386501  0.030633878            6 
 1807000   0.96531605   -6.5179903    661.85812  0.030522879  0.030625244            4 
 1808000    0.9552042   -6.5807042     658.1863  0.030336758  0.030616717            3 
 1809000   0.94990654   -6.5368048    659.30474   0.03037151  0.030608071            6 
 1810000   0.96478736   -6.5381338    662.39611  0.030497059  0.030599503            5 
 1811000   0.95800462   -6.5568668    660.88581  0.030410722  0.030591035            6 
 1812000   0.95034161   -6.5460814    661.45875  0.030420288  0.030582407            6 
 1813000   0.96990689   -6.5315841    661.76291   0.03041749  0.030573814            4 
 1814000   0.95719513   -6.5524378    662.93119  0.030454391  0.030565277           12 
 1815000   0.94854089   -6.5562916    662.28904  0.030408129  0.030556786            3 
 1816000   0.94839316   -6.5640724     662.4241  0.030397582  0.030548336            5 
 1817000   0.98282118   -6.5713068    661.83009  0.030353609  0.030539711           10 
 1818000   0.95216032    -6.564935    662.39582  0.030362844  0.030531001            5 
 1819000   0.95398915   -6.5631768    663.41129  0.030392674  0.030522352            7 
 1820000   0.96328832   -6.5675707     661.5913  0.030292642  0.030513601            4 
 1821000   0.95103223   -6.5325096    663.86895  0.030380238  0.030504877            3 
 1822000   0.95895862   -6.5672267    661.21575  0.030242213  0.030496233            6 
 1823000   0.96502516   -6.5724442    662.30084  0.030275226  0.030487506            2 
 1824000   0.96742808   -6.5637635    660.36395  0.030170136  0.030478841            4 
 1825000    0.9625964   -6.5959454    660.07102  0.030140229  0.030470027            7 
 1826000   0.95077509    -6.584298     660.8819  0.030160729  0.030461204            6 
 1827000   0.96440743   -6.5678856     662.8528  0.030234118  0.030452587            5 
 1828000   0.95560099   -6.6052899    660.67398  0.030118252  0.030443844            5 
 1829000   0.93583198   -6.5767751    664.60511  0.030280896  0.030435088            7 
 1830000     0.967816    -6.543858    665.12482  0.030288015  0.030426347            4 
 1831000   0.93473686   -6.5679844     665.4539  0.030286451  0.030417595            4 
 1832000   0.98100957   -6.5494447    663.09331  0.030162542  0.030408845            6 
 1833000   0.97517029   -6.6074536    664.35889  0.030203623  0.030400185            3 
 1834000   0.96747906   -6.5441867    666.21291  0.030271397  0.030391559            3 
 1835000   0.95727026   -6.5341118    666.25237  0.030256693  0.030383008            6 
 1836000   0.94853163   -6.5915337    665.85265   0.03022207  0.030374507            5 
 1837000   0.96584035   -6.5595102    664.31562  0.030135893  0.030365831            2 
 1838000   0.96898602   -6.5953093    665.09398  0.030154787  0.030357153            7 
 1839000   0.93913364   -6.5498615    668.07318   0.03027339  0.030348545            3 
 1840000    0.9673276   -6.5877192    664.76172  0.030106962  0.030339904            7 
 1841000   0.94353729   -6.5492502    668.23226  0.030247703  0.030331309            3 
 1842000   0.97366654   -6.5476692    666.20949   0.03013977  0.030322799            3 
 1843000   0.94119132   -6.5637614    667.61689  0.030187054   0.03031414            5 
 1844000   0.96566959   -6.5273489    668.77516  0.030223028  0.030305713            6 
 1845000   0.94391774   -6.5437271    668.30137  0.030185247  0.030297163            3 
 1846000   0.94578538   -6.5465827    667.54905  0.030134934  0.030288643            4 
 1847000    0.9604203   -6.5619109    667.90467  0.030134663  0.030279967           15 
 1848000   0.95681063   -6.5336496    667.06951  0.030080696  0.030271295            3 
 1849000   0.95413712   -6.5805053    667.96533  0.030104801  0.030262706            7 
 1850000   0.97324363   -6.5291983    668.81791  0.030126933  0.030254074            4 
 1851000   0.94785604   -6.5622539     668.0528  0.030076211   0.03024547            3 
 1852000   0.95184675    -6.567599    667.40398  0.030030777  0.030236806            7 
 1853000   0.93548249   -6.5738145    668.99413  0.030086083  0.030228156            4 
 1854000   0.94372631   -6.5755745    668.42706  0.030044366   0.03021948            7 
 1855000   0.95457976   -6.5637401    667.85479  0.030002461  0.030210757            7 
 1856000   0.95351042   -6.5634438    667.37943  0.029964953  0.030201975            5 
 1857000    0.9578584   -6.5879874    666.47904  0.029908412  0.030193223            5 
 1858000    0.9434285   -6.6126707    668.80252  0.029996525  0.030184452            8 
 1859000   0.95686027   -6.5419191    668.19614  0.029953207  0.030175703           15 
 1860000   0.96137023   -6.5685703    669.51525  0.029996203  0.030166993            5 
 1861000   0.95514698    -6.535037    669.74755  0.029990487  0.030158406            4 
 1862000    0.9338031   -6.5537142      669.625  0.029968895  0.030149753            7 
 1863000   0.95761669   -6.5590573    670.58994  0.029995972   0.03014121            7 
 1864000   0.94951664   -6.5742916    668.86071  0.029902571  0.030132674            4 
 1865000   0.95191725   -6.5849127    669.77534  0.029927406  0.030123984           12 
 1866000    0.9441958   -6.6004768     668.8037  0.029867975  0.030115317            3 
 1867000   0.95073231   -6.5543836    672.85724  0.030032907  0.030106677            3 
 1868000    0.9533276   -6.5644842    672.83266  0.030015732  0.030098091            3 
 1869000   0.94621622   -6.5264225    673.55734  0.030031984  0.030089375            5 
 1870000   0.96851983    -6.612635    669.38428  0.029829959  0.030080743            8 
 1871000   0.96546005   -6.5665476    670.50547  0.029863953  0.030072037            3 
 1872000   0.93899992   -6.5966268    669.85522  0.029819053  0.030063242            3 
 1873000   0.95280331   -6.5782944    670.53826  0.029833523  0.030054494            5 
 1874000   0.96076929   -6.6093727    670.88027  0.029832812  0.030045653            8 
 1875000   0.95156993   -6.6083101    666.73751  0.029632778  0.030036769            3 
 1876000   0.94254921    -6.579323    671.99946  0.029850722  0.030027959            5 
 1877000   0.97313916   -6.6151917     670.9811  0.029789607  0.030019236           11 
 1878000   0.94954535   -6.5583225    671.87037  0.029813204  0.030010523            4 
 1879000   0.92994715   -6.6001695    669.78368  0.029704794  0.030001734            5 
 1880000   0.96248262   -6.5815202    671.11896  0.029748181   0.02999293            4 
 1881000   0.93119626   -6.6056362    670.98811  0.029726569    0.0299841            4 
 1882000   0.93382351   -6.5838701    670.89178  0.029706508  0.029975305            8 
 1883000   0.94365396   -6.5418665    674.52099  0.029851345  0.029966518            4 
 1884000   0.94383662   -6.6094373    671.10295  0.029684313  0.029957677            5 
 1885000   0.95642338   -6.5912343    672.18341  0.029716331  0.029948804            4 
 1886000   0.96568059   -6.5817016     671.4055  0.029666203  0.029939972            5 
 1887000   0.96014003   -6.5676281    672.31795  0.029690777  0.029931176            3 
 1888000   0.97063443   -6.5725341     672.4803  0.029682217  0.029922406            7 
 1889000   0.94671876   -6.5548112     672.5758  0.029670717  0.029913537            5 
 1890000   0.94439126   -6.5910407    672.03143  0.029631015  0.029904621            5 
 1891000   0.98456215   -6.5695896    671.37868   0.02958658   0.02989576           20 
 1892000   0.96932105   -6.5897571    673.15521   0.02964919  0.029886924            8 
 1893000    0.9488797   -6.5883915    673.35225  0.029642202  0.029877999            6 
 1894000   0.95281078   -6.5724299    673.60877  0.029637838  0.029869253            3 
 1895000   0.96031015   -6.6119441    674.27496  0.029651493  0.029860474           12 
 1896000   0.95843195   -6.5686357    676.14946  0.029718243  0.029851753            5 
 1897000   0.94963554   -6.5766363    674.39665  0.029625578  0.029842933            5 
 1898000   0.95474927    -6.553796    673.38666  0.029565624  0.029834167            3 
 1899000   0.95026053   -6.6356529    672.03597  0.029490783  0.029825374            7 
 1900000   0.92558548   -6.5696202    674.79923  0.029596457  0.029816642            5 
 1901000   0.94937297   -6.5428268    677.15293  0.029684067  0.029807902            2 
 1902000   0.95254665   -6.5918962    676.58779  0.029643699  0.029799147            6 
 1903000   0.92093088   -6.6400074    673.71939  0.029502513  0.029790356            5 
 1904000   0.93438847   -6.5898166    676.44879  0.029606477  0.029781616            6 
 1905000   0.94667847   -6.6243339    675.07881  0.029531006  0.029772908            3 
 1906000   0.93856366   -6.6349359    676.67324  0.029585224  0.029764195            8 
 1907000   0.94002536   -6.5933455     676.4534  0.029560103  0.029755487            7 
 1908000   0.97125038   -6.5724502    678.89373  0.029651194  0.029746882            3 
 1909000    0.9375609    -6.621297    677.27926  0.029565185  0.029738254            5 
 1910000   0.93467024   -6.6443417    676.02837   0.02949513   0.02972953            7 
 1911000   0.95146786   -6.5763721    678.06738  0.029568611  0.029720729            3 
 1912000   0.93363093   -6.6137838    677.24606  0.029517349  0.029711968            6 
 1913000   0.94438207   -6.6273105    674.69307  0.029390707  0.029703197            8 
 1914000    0.9315327   -6.5844831    679.15765  0.029569734  0.029694375            3 
 1915000   0.94958028    -6.578451    680.23427  0.029601143  0.029685775            4 
 1916000   0.93429561   -6.6276289    678.02908  0.029489783  0.029677179            4 
 1917000   0.93088961   -6.6341447    677.13568  0.029435563  0.029668408           13 
 1918000   0.94355227   -6.6210208    678.91105  0.029497352  0.029659672            6 
 1919000   0.93638912   -6.5800927    679.95431  0.029527285  0.029651038            4 
 1920000   0.95551056    -6.621017    678.64928  0.029455264  0.029642378            6 
 1921000   0.92007076    -6.596371    679.56793  0.029479782  0.029633725            2 
 1922000   0.94762058   -6.5908529    678.34838  0.029411567  0.029625064            8 
 1923000   0.93372215   -6.5810532    679.25599  0.029435604   0.02961641            3 
 1924000    0.9556827   -6.5816621    679.20148  0.029417943  0.029607828            8 
 1925000   0.94002472   -6.5907399    681.21429  0.029489796  0.029599213            3 
 1926000   0.95036808   -6.6654832     677.2983  0.029305049  0.029590486            5 
 1927000   0.94753292   -6.5948111    680.57752  0.029431652  0.029581769            2 
 1928000   0.94327821   -6.5918829    678.95349  0.029346191  0.029573236            2 
 1929000    0.9345213   -6.5716556    682.13978  0.029468627  0.029564604            7 
 1930000   0.96030345   -6.6080113    680.54271    0.0293844  0.029555852            4 
 1931000    0.9630177   -6.6210813    679.14864  0.029309021  0.029547157            9 
 1932000   0.94644315   -6.6063791    680.91317  0.029369961  0.029538396            4 
 1933000   0.92739589   -6.6116656    680.37063  0.029331377  0.029529748            4 
 1934000   0.96228502   -6.5784047    681.24134  0.029353729  0.029521133            3 
 1935000   0.93030546   -6.5763893    681.90085  0.029366962  0.029512437            6 
 1936000   0.93772445   -6.6109123    680.04534  0.029271924  0.029503761           15 
 1937000   0.93542909   -6.6309446    680.76213   0.02928765   0.02949522            4 
 1938000   0.94316858   -6.5795309     681.3089  0.029296048  0.029486633            4 
 1939000   0.94795657   -6.5795369    684.10395  0.029401064  0.029478108            6 
 1940000   0.95384626   -6.6237729    681.88524  0.029290603  0.029469489            8 
 1941000   0.93186912   -6.5527901    682.80943  0.029315191  0.029460797            4 
 1942000   0.93288491   -6.6123391    679.63269  0.029163779  0.029452031            6 
 1943000   0.92284836   -6.6272204    682.96198  0.029291559  0.029443169            5 
 1944000   0.93855137   -6.6075343    681.67323  0.029221246  0.029434342            6 
 1945000   0.94293083   -6.5882649    683.56681  0.029287352  0.029425658           11 
 1946000   0.95216523   -6.5892844    683.10416   0.02925249  0.029416922            6 
 1947000   0.92233576   -6.5991319    684.07343  0.029278952  0.029408155            5 
 1948000   0.94131315   -6.6322993    682.98392  0.029217313  0.029399462            3 
 1949000   0.94789448   -6.5931324    683.26457  0.029214322  0.029390749            2 
 1950000   0.96230495   -6.6150505    682.04783  0.029147343   0.02938206            9 
 1951000   0.94092247    -6.606944     684.4908   0.02923675   0.02937336            4 
 1952000   0.92433292   -6.5972955    682.50874  0.029137156  0.029364633            7 
 1953000   0.94508881   -6.6295626    684.04428  0.029187757  0.029355868            4 
 1954000   0.94067727   -6.5976198    684.02547  0.029172018  0.029347156           10 
 1955000   0.95129121   -6.5783131    683.24822  0.029123965  0.029338505            3 
 1956000   0.94559883   -6.6034057    683.16258  0.029105427  0.029329842            5 
 1957000   0.94192004   -6.6200349    682.99415  0.029083382  0.029321099            4 
 1958000   0.93230471   -6.6108873    683.31069  0.029082001  0.029312356            5 
 1959000   0.94754429   -6.6302361    685.47574  0.029159254  0.029303595            3 
 1960000   0.94868941   -6.6371323    685.18027  0.029131814   0.02929491            3 
 1961000   0.95046301   -6.6270755    684.86994  0.029103771  0.029286281            5 
 1962000   0.93998571   -6.6181256    686.34836  0.029151731  0.029277539            4 
 1963000   0.93195931   -6.6356429    685.50215  0.029100957   0.02926884            3 
 1964000   0.94970006   -6.6335275     685.0025   0.02906494  0.029260059            5 
 1965000   0.94671192   -6.6284748    685.84025  0.029085677  0.029251264            3 
 1966000   0.94583611   -6.6081899    684.57583  0.029017287  0.029242525            4 
 1967000   0.93479561   -6.6295368    685.96024  0.029061186  0.029233864            3 
 1968000   0.94733791   -6.6304117    686.99799  0.029090362   0.02922526            3 
 1969000    0.9555845   -6.6214677    688.16269  0.029124881  0.029216643            4 
 1970000    0.9417752   -6.6057711    687.67617  0.029089517  0.029208132            3 
 1971000   0.94375931    -6.656494    685.45262  0.028980747  0.029199482            5 
 1972000   0.94753519   -6.6704997    683.53139  0.028884862  0.029190672            9 
 1973000   0.93366638   -6.6125965    686.30114  0.028987208     0.029182            2 
 1974000   0.95109704   -6.6125808    686.88542  0.028997189  0.029173359            4 
 1975000   0.94878104   -6.6247987    686.83349  0.028980316   0.02916471            3 
 1976000   0.92851299   -6.6311591    687.39083  0.028989154  0.029156019            6 
 1977000   0.93313121   -6.6229894    688.49016  0.029020829  0.029147341            7 
 1978000   0.95223958   -6.6583673    685.84034  0.028894521  0.029138608           12 
 1979000    0.9362483   -6.6306759    687.63382  0.028955441  0.029129901            7 
 1980000   0.93561821   -6.6884953    685.14631  0.028836124  0.029121066            3 
 1981000   0.91971432   -6.6296914    686.22413  0.028866908  0.029112167            4 
 1982000   0.92409841   -6.6541806    686.59914  0.028868111  0.029103405            5 
 1983000   0.93763336   -6.6260199    687.07481  0.028873542  0.029094569            5 
 1984000   0.93103027    -6.640309    688.00746  0.028898163  0.029085747            7 
 1985000   0.91411444   -6.6153378    688.67968  0.028911825  0.029076998            5 
 1986000   0.93672176   -6.6371022    689.56254  0.028934313   0.02906823            5 
 1987000   0.94334671   -6.6291226    688.85308  0.028889997  0.029059595            7 
 1988000   0.91740964   -6.6512352     688.7787  0.028872347  0.029050876            5 
 1989000   0.93496352    -6.638443    686.21412  0.028750382  0.029042176           11 
 1990000    0.9296982   -6.6447024    689.48611  0.028872953   0.02903346            4 
 1991000   0.90844388   -6.6163597    689.44378  0.028856679  0.029024738            6 
 1992000   0.91806151   -6.6438113     687.4056  0.028756928  0.029015908            4 
 1993000   0.95328006   -6.6518421    687.94646  0.028765114  0.029007157           23 
 1994000   0.92972664   -6.6779228      688.369  0.028768347  0.028998378            4 
 1995000   0.93352962   -6.6241316    689.81948  0.028814515  0.028989644            7 
 1996000    0.9401494   -6.6401129    689.36743  0.028781205  0.028980935            3 
 1997000   0.92176679   -6.6744068     687.6186  0.028693816  0.028972114           13 
 1998000    0.9350631   -6.6107022    689.78618  0.028769861  0.028963325            9 
 1999000   0.93041511   -6.6470214    692.69468  0.028876717  0.028954648            8 
 2000000   0.92537694   -6.6417738    691.06765  0.028794486  0.028945927            4 
 2001000   0.91973511   -6.6379979    690.75559    0.0287671   0.02893722            4 
 2002000   0.95327202   -6.6503363      690.747  0.028752373  0.028928467            3 
 2003000    0.9067346   -6.6292875    691.15341  0.028754926  0.028919663            3 
 2004000   0.92873983   -6.6461068    691.37476  0.028749782  0.028910901            8 
 2005000   0.92454168   -6.6227466    690.44419  0.028696766  0.028902027            6 
 2006000   0.92900218   -6.6327279      690.611   0.02868939   0.02889314            4 
 2007000    0.9251977   -6.6375738    689.75187  0.028639423  0.028884355            9 
 2008000   0.93876061   -6.6655764    692.54044  0.028740888   0.02887545            5 
 2009000    0.9116511   -6.6520409    690.54616  0.028643859  0.028866574            3 
 2010000   0.92532054   -6.6145384    691.58057  0.028672495  0.028857774            3 
 2011000   0.93037742   -6.6374086    690.31196  0.028605667  0.028848919            1 
 2012000   0.94008581   -6.6456443    691.70258  0.028649047  0.028840047           10 
 2013000    0.9135125   -6.6030494     692.4497  0.028665744    0.0288313            3 
 2014000   0.91282967   -6.6571893    690.20993  0.028558835   0.02882255            4 
 2015000   0.93338641   -6.6190639    692.26545  0.028629671   0.02881378            4 
 2016000   0.94491433   -6.6549386    691.43304  0.028581061  0.028805001            4 
 2017000   0.93219004   -6.6455581    691.40072  0.028565556  0.028796135            5 
 2018000    0.9369146   -6.6484329      690.725  0.028523497  0.028787086            3 
 2019000   0.93027633   -6.6282693    692.60663  0.028587033  0.028778122            5 
 2020000   0.92095619    -6.620842    692.58802  0.028572113  0.028769245            7 
 2021000   0.91870783   -6.6015641    690.25333  0.028461708   0.02876037           10 
 2022000   0.93457334   -6.6489889     690.6544  0.028464161  0.028751396            9 
 2023000   0.90095648    -6.638888    692.17112  0.028512569  0.028742443            5 
 2024000   0.92496121   -6.6373125    692.21602   0.02850033  0.028733518            6 
 2025000   0.91971493   -6.6396774    691.64938  0.028462938  0.028724675            4 
 2026000   0.91478434   -6.6170189    693.06065  0.028506937  0.028715902           10 
 2027000   0.92587637   -6.6331308    694.15453  0.028537845  0.028707169            6 
 2028000   0.93126048   -6.6078044    694.24541  0.028527507  0.028698487            4 
 2029000   0.94951951   -6.6209885    693.22145  0.028471392  0.028689762            7 
 2030000     0.940084    -6.619543    694.87042  0.028525058  0.028681107            8 
 2031000   0.92510449    -6.617713    696.24407  0.028567375  0.028672489            3 
 2032000   0.89844875   -6.6598323    696.34007  0.028557254  0.028663783            8 
 2033000   0.92916273    -6.652456    696.28745   0.02854105  0.028655106           13 
 2034000   0.93164173   -6.6541474     694.9198  0.028470985  0.028646489            6 
 2035000    0.9322323   -6.6419151    695.81323   0.02849358  0.028637943            4 
 2036000   0.91551223   -6.6706464    694.08577   0.02840888  0.028629245            5 
 2037000     0.925741   -6.6306696    696.49021  0.028493299  0.028620518            9 
 2038000   0.90196386   -6.6575502    694.97949  0.028417545  0.028611828            4 
 2039000   0.93708191   -6.6511194    698.08132  0.028530379  0.028603126            5 
 2040000   0.94162595   -6.6523721    697.64297  0.028498487  0.028594468            8 
 2041000   0.93390033   -6.6454783    696.55117  0.028439947  0.028585787            6 
 2042000    0.9408304   -6.6290263    695.89766   0.02839935  0.028577091            4 
 2043000   0.90934446   -6.6183816    696.71592  0.028418825  0.028568445            2 
 2044000   0.91723379   -6.6586393    696.38305  0.028391351  0.028559819            7 
 2045000    0.9122207   -6.6578815    695.84299   0.02835546  0.028551062            8 
 2046000    0.9268682   -6.6400361    695.61263  0.028332219  0.028542341            5 
 2047000   0.93147347    -6.671777    695.69142  0.028321585  0.028533639            3 
 2048000   0.91669566   -6.6508199    695.87415  0.028315191  0.028524833            5 
 2049000   0.91075721   -6.6567549     694.8183  0.028258431  0.028516053            5 
 2050000   0.91720501   -6.6695591    696.76451  0.028323761  0.028507258            6 
 2051000   0.92542837   -6.6267054    696.67154  0.028306173  0.028498441            6 
 2052000   0.91868849   -6.6265048    697.21976  0.028314642   0.02848969            7 
 2053000   0.94324459   -6.6563633    696.33921  0.028265108  0.028480929            8 
 2054000   0.92446238   -6.6696508    697.52005  0.028299256   0.02847215            8 
 2055000   0.91501946   -6.6581164    699.60347  0.028369971  0.028463368            4 
 2056000   0.93780342   -6.6360805    698.03515  0.028292605  0.028454592            7 
 2057000   0.92331141   -6.6597828    696.11827  0.028201194  0.028445783            5 
 2058000   0.91792108    -6.658552    697.57246  0.028246374  0.028436944            4 
 2059000   0.94334413   -6.6689378    696.54942   0.02819125  0.028428196            3 
 2060000   0.91802812   -6.6457114    697.64019   0.02822169  0.028419376            4 
 2061000   0.91829113   -6.6565327    697.98377  0.028221889   0.02841065            5 
 2062000   0.91559001   -6.6840955    695.81437  0.028120529  0.028401833            3 
 2063000   0.92161631   -6.6520129    698.32074  0.028208141  0.028392985            7 
 2064000   0.89695349   -6.6401915    698.20413  0.028189766  0.028384144            5 
 2065000   0.90527095   -6.6565769    697.47056  0.028146512  0.028375218            9 
 2066000   0.90612085   -6.6390276    699.50853  0.028215091  0.028366333            5 
 2067000   0.90435182   -6.6461593    699.34075  0.028194676  0.028357465            4 
 2068000   0.92150076   -6.6294502    699.73557  0.028196952  0.028348601            8 
 2069000   0.92969015   -6.7050737    695.62027  0.028017572  0.028339683            7 
 2070000   0.90632674   -6.6681468    699.07125  0.028142965  0.028330801            6 
 2071000   0.91133936   -6.6781821    694.56759  0.027948157  0.028321931            5 
 2072000    0.9384554   -6.6986781    698.28722  0.028084267  0.028312974            8 
 2073000   0.90860666   -6.6496446    699.99373   0.02813932  0.028304108           10 
 2074000    0.9211947   -6.6682827    699.39071  0.028101523  0.028295276            8 
 2075000   0.93019477   -6.6846965    697.81073  0.028024527  0.028286438            3 
 2076000   0.93882855   -6.7058696    698.33257  0.028031975  0.028277498           14 
 2077000   0.91905224   -6.6512945    701.33311  0.028138866  0.028268759            4 
 2078000   0.92159921   -6.6311549     703.1222  0.028197073  0.028260108           17 
 2079000    0.9044227   -6.6311475    700.65662  0.028084681  0.028251552            3 
 2080000   0.93398441   -6.6332569    701.89196  0.028120671  0.028242859            5 
 2081000   0.91766298   -6.6942693     700.4671    0.0280501  0.028234113            4 
 2082000   0.92512161   -6.6851574     699.6711  0.028004767  0.028225252            8 
 2083000   0.92123443   -6.6517701    701.45262  0.028062595  0.028216463            7 
 2084000   0.93164978   -6.6876682    700.45747  0.028009336   0.02820771            6 
 2085000   0.90151047   -6.7015128    702.53047  0.028078756  0.028198868            5 
 2086000   0.91138915   -6.6436107    701.24052  0.028013763  0.028190047            4 
 2087000   0.91046941   -6.6681872    701.70357   0.02801883  0.028181321            3 
 2088000   0.90721331   -6.6732529    699.08567  0.027900929    0.0281725            6 
 2089000    0.9234964   -6.6651922     700.5847  0.027947371  0.028163695            6 
 2090000   0.90997526    -6.677608     700.3084  0.027922982  0.028154821            4 
 2091000   0.91550681   -6.6781309    702.54822  0.027998893   0.02814602            4 
 2092000   0.93077005   -6.6582301    702.28115  0.027974871  0.028137242            5 
 2093000   0.92836584    -6.660604    702.61822  0.027974925  0.028128474            8 
 2094000   0.91752292   -6.6705253    703.13478  0.027982123   0.02811974            4 
 2095000   0.92090923   -6.6724853    701.55214  0.027905813  0.028110918            4 
 2096000    0.9163285   -6.6816515    700.03903  0.027832341  0.028102073            3 
 2097000   0.91983474   -6.6615487    701.05782  0.027859554  0.028093247            5 
 2098000   0.92467812   -6.6712896    701.37558  0.027858897  0.028084368            5 
 2099000   0.92863875    -6.688965    700.60105  0.027814874  0.028075402            5 
 2100000   0.92358863    -6.689488     699.4712  0.027756794  0.028066408            3 
 2101000   0.92275878   -6.6877937    699.38617   0.02774021  0.028057364           12 
 2102000    0.9284214   -6.6794539     701.8725  0.027825583  0.028048464            6 
 2103000   0.91743459   -6.6870207    700.88027  0.027773033  0.028039605            4 
 2104000   0.90882224    -6.668555    703.55587  0.027865806  0.028030811            2 
 2105000   0.90915213   -6.6748624    702.14391  0.027796671  0.028022003            7 
 2106000   0.91290022   -6.7176138    700.34479  0.027712282   0.02801313           14 
 2107000   0.89467577   -6.6476315    703.47308  0.027822856  0.028004309            5 
 2108000   0.90319831   -6.6898934    704.44263  0.027847985  0.027995644            7 
 2109000   0.91691354   -6.6647542    702.58445  0.027761358  0.027986873            8 
 2110000   0.93522035   -6.6628782    703.83878   0.02779774  0.027978074           11 
 2111000   0.90684873   -6.6585478    704.16483  0.027797443  0.027969273            5 
 2112000   0.89820532   -6.6846714    701.02039  0.027660211  0.027960393           12 
 2113000   0.90906812   -6.7034443    705.65116  0.027829751  0.027951466            8 
 2114000   0.89764036   -6.6997216    703.06305  0.027714564  0.027942547            6 
 2115000   0.90133032    -6.701816    701.30406  0.027632154  0.027933545            6 
 2116000   0.90162261   -6.6597677    702.33263  0.027659603  0.027924727            7 
 2117000   0.91400463   -6.6858919    704.60024  0.027735799  0.027915866            6 
 2118000   0.92558062   -6.6731549    704.64019  0.027724276  0.027907074            2 
 2119000    0.9163178   -6.6924776    704.67981   0.02771275  0.027898341            3 
 2120000   0.92543194   -6.7034496    703.66155  0.027659652  0.027889436            4 
 2121000   0.91993525   -6.7112631    703.81755  0.027652741  0.027880563            4 
 2122000   0.92004216   -6.6611118    705.39522  0.027701666  0.027871772            7 
 2123000   0.90600076   -6.7080443    702.25004  0.027565161  0.027862928           12 
 2124000    0.8984904   -6.7006558    705.50188  0.027679766  0.027854092            5 
 2125000   0.90579321   -6.6866652    702.66605  0.027555531  0.027845341            7 
 2126000   0.92462777   -6.6487294    707.00991  0.027712838  0.027836543            9 
 2127000   0.91849487   -6.6810034    703.43065  0.027559577  0.027827716            8 
 2128000   0.89834071   -6.6867383    705.63759  0.027633051  0.027818876            4 
 2129000   0.90662493   -6.6711551    705.27252  0.027605782  0.027810011            5 
 2130000   0.91922901   -6.6399885    704.12816   0.02754805  0.027801147            5 
 2131000   0.92120877   -6.6900226       704.48  0.027548881  0.027792253            6 
 2132000   0.92480653   -6.6776228     704.9344  0.027553721   0.02778339            5 
 2133000   0.91910375   -6.6778687    704.97609  0.027542432  0.027774435            7 
 2134000   0.92503686   -6.6904636    706.29198  0.027580911  0.027765587            4 
 2135000   0.90867167   -6.6880621    705.89633   0.02755255  0.027756709            8 
 2136000   0.90883915   -6.6829808    706.12359  0.027548517  0.027747926            7 
 2137000   0.90225381    -6.681147    704.82723  0.027485074  0.027739004            5 
 2138000   0.91391415   -6.7041244    706.62061  0.027542119  0.027730191            6 
 2139000   0.92701361   -6.7122506    704.26176  0.027437344  0.027721324            7 
 2140000   0.89973491   -6.7370397    705.19494  0.027460862  0.027712412            6 
 2141000   0.91489214   -6.6740723    706.35939  0.027493359  0.027703517            9 
 2142000   0.92988477   -6.6951064    704.78671   0.02741934  0.027694687            6 
 2143000    0.9168156   -6.7193771    704.80223  0.027407149  0.027685801            4 
 2144000    0.9067667   -6.6538583    706.65465  0.027466366  0.027677017            8 
 2145000   0.88317588   -6.6915541    706.63755  0.027452896  0.027668207            4 
 2146000   0.90272255    -6.702079    705.27408  0.027387157  0.027659331            6 
 2147000   0.92872995   -6.7004558    707.10824  0.027445592  0.027650472            2 
 2148000   0.91412963   -6.6834362    707.52196  0.027448866  0.027641701            5 
 2149000   0.89878127   -6.7102826    706.82175   0.02740894  0.027632796            4 
 2150000   0.89948948   -6.6846079    706.45338  0.027381914   0.02762392            6 
 2151000   0.89730482   -6.6715712    708.74558  0.027457988  0.027614965            4 
 2152000   0.91262289   -6.6761909    708.31814  0.027428677  0.027606062            6 
 2153000    0.9137979   -6.7311391    705.32898  0.027300239  0.027597076            8 
 2154000    0.8951529   -6.6904673    706.33393  0.027326444  0.027588087           12 
 2155000   0.89757039   -6.7264358    705.79361   0.02729287  0.027579024            7 
 2156000   0.90261875   -6.7221102    705.23408  0.027258584  0.027569956           11 
 2157000   0.91416614   -6.7250804    706.30006  0.027287129  0.027561002            9 
 2158000   0.90807353   -6.6798826    705.68927  0.027250898  0.027552118            4 
 2159000    0.9050282   -6.6808429    708.59237  0.027350331   0.02754326            4 
 2160000   0.89062345   -6.7169764    705.97654  0.027236749  0.027534325            6 
 2161000   0.92466031   -6.7157291    707.09191  0.027267157  0.027525404            5 
 2162000    0.8979182   -6.6913643    708.43437  0.027306289  0.027516499            6 
 2163000    0.8804605     -6.69839    706.47927  0.027218341  0.027507554            5 
 2164000   0.91167167   -6.7332267    705.92472  0.027184408  0.027498682            5 
 2165000   0.91162355   -6.6702712    710.89192  0.027363046   0.02748978            4 
 2166000   0.90209998   -6.6795241    710.27539  0.027326692  0.027480959            5 
 2167000   0.89494515   -6.6527114    710.72131   0.02733123  0.027472122            7 
 2168000   0.91167317    -6.758123    708.26837  0.027224338  0.027463134            7 
 2169000   0.89814931   -6.7272374    706.37218  0.027138934  0.027454152            6 
 2170000   0.89891458   -6.7233973    708.62128  0.027212799  0.027445166            7 
 2171000   0.89589168   -6.7099684    708.81696  0.027207775  0.027436261            3 
 2172000   0.89272778   -6.7048846    707.87817   0.02715923  0.027427375            4 
 2173000   0.90345782   -6.7276868    709.62968  0.027213901  0.027418464            3 
 2174000   0.92214028   -6.7260882    710.32427  0.027228008  0.027409538            4 
 2175000   0.90013119   -6.7238971    709.75482  0.027193671   0.02740062            7 
 2176000   0.90332841    -6.642622     712.0036  0.027267295  0.027391757            4 
 2177000   0.90682477    -6.712008    710.05112  0.027180031  0.027382969            4 
 2178000   0.89466339   -6.7117751    710.98996  0.027203473  0.027374007            5 
 2179000   0.91528297   -6.6925997    710.09325  0.027156695  0.027365105            5 
 2180000   0.92664081   -6.7024483    709.66201  0.027127753  0.027356138            3 
 2181000    0.8702715   -6.6741441    713.53397  0.027263257   0.02734722            8 
 2182000   0.90550322   -6.7059324    710.95013  0.027152082  0.027338267            9 
 2183000   0.88419089   -6.7389773    709.97761   0.02710252  0.027329252            8 
 2184000    0.8994518   -6.7496989    708.43855  0.027031385  0.027320232            5 
 2185000   0.89654056   -6.7246122    708.60819  0.027025484  0.027311176            4 
 2186000   0.90585964   -6.7231375     708.7162  0.027017238  0.027302197            5 
 2187000   0.90321364   -6.6982405    709.63347  0.027039836  0.027293188            5 
 2188000   0.88404072   -6.7586366    707.22937  0.026935914  0.027284145            5 
 2189000   0.89942386   -6.7202969    710.18976  0.027036309  0.027275116            7 
 2190000   0.88385691   -6.7136009    710.39616  0.027031817  0.027266161            7 
 2191000   0.86813664   -6.7138568    709.79095  0.026996461  0.027257117           11 
 2192000   0.90083453   -6.7158581     709.1513  0.026959827  0.027248086            9 
 2193000   0.90376467   -6.7211593    710.88037  0.027013238  0.027239115            5 
 2194000    0.9093566   -6.7056143    709.47292  0.026947467  0.027230104            7 
 2195000   0.90007037   -6.7171265    710.16187  0.026961347  0.027221212            4 
 2196000    0.9058415   -6.7189013    711.24072  0.026990009  0.027212256            3 
 2197000   0.87876742   -6.7264102    709.36673  0.026906643  0.027203237            4 
 2198000   0.89963448   -6.7201337     711.3651  0.026970166  0.027194193            6 
 2199000   0.88437755   -6.7306442     709.8484  0.026900424  0.027185141            4 
 2200000   0.88869487   -6.7001793    711.42258  0.026947825  0.027176085            5 
 2201000   0.89191122   -6.7654208    710.67652  0.026907335  0.027167077            8 
 2202000   0.89759806   -6.7170983     712.1853  0.026952214  0.027158207            7 
 2203000   0.90452012   -6.6763906    715.03143  0.027047641   0.02714944            3 
 2204000   0.89272182   -6.7281468     711.5675  0.026904397  0.027140602            6 
 2205000   0.91508638   -6.7269212    715.32775  0.027034307  0.027131837            9 
 2206000   0.89042585   -6.6982821    714.60371    0.0269947  0.027123053            4 
 2207000   0.89070079   -6.7431936    713.88025  0.026955152  0.027114256           14 
 2208000   0.91508736   -6.7280391    713.05459  0.026911783  0.027105421            6 
 2209000    0.9023622   -6.7351853    714.76947  0.026964293  0.027096628            6 
 2210000   0.88847667   -6.7615703    712.06771  0.026850215   0.02708774            4 
 2211000   0.87619733   -6.7617432    710.39938  0.026775192  0.027078783            3 
 2212000   0.94143458   -6.7173276     712.9583   0.02685949  0.027069982            7 
 2213000   0.88583429   -6.7140676    716.78146  0.026991319  0.027061265            9 
 2214000   0.89913092   -6.7021487    714.69306  0.026900522   0.02705257            5 
 2215000   0.90248907   -6.7553121    711.88289  0.026782652  0.027043801            5 
 2216000   0.89266776   -6.7160668    714.19213  0.026857406  0.027035045            3 
 2217000    0.8965609   -6.7136105    715.98821  0.026912803  0.027026346            9 
 2218000   0.88762934    -6.711828    716.95341  0.026936933  0.027017673            5 
 2219000    0.8904488   -6.6841249    714.56683  0.026835167  0.027008969            6 
 2220000   0.88838855   -6.7426594    713.63313   0.02678803  0.027000205            7 
 2221000   0.89295416   -6.7364437    712.13273  0.026719673  0.026991308            8 
 2222000   0.89231462   -6.7384429    713.54371  0.026760565  0.026982443            4 
 2223000   0.88769164    -6.712296    715.91731  0.026837506   0.02697363            5 
 2224000   0.88297034    -6.708935    715.12542  0.026795767   0.02696489            3 
 2225000   0.90974901     -6.74654    715.17474  0.026785571  0.026956185            7 
 2226000   0.89658956   -6.7624095    714.96936  0.026765849  0.026947453            7 
 2227000   0.91087287   -6.7324544    716.23469  0.026801178  0.026938674            5 
 2228000   0.91658171   -6.7537945    715.90339  0.026776757  0.026929922            6 
 2229000    0.9140024   -6.7192009    716.93947  0.026803479  0.026921226            4 
 2230000   0.89917801   -6.7193699    714.61088  0.026704443  0.026912481            7 
 2231000   0.88686349   -6.7083644    716.36812   0.02675811  0.026903705            9 
 2232000    0.9297449   -6.7310634    717.27691  0.026780052  0.026894945            7 
 2233000   0.89962935   -6.6858071    719.23353  0.026841078  0.026886255           11 
 2234000   0.90380096   -6.7424835    716.35202  0.026721576  0.026877501            4 
 2235000   0.87589038   -6.7550708    716.31885  0.026708384  0.026868678            6 
 2236000   0.91023716   -6.7319201    716.51765  0.026703848  0.026859922           11 
 2237000   0.87390199   -6.7010315    719.46405  0.026801671  0.026851247            8 
 2238000   0.88712031   -6.7357752    717.95328   0.02673344  0.026842551            6 
 2239000   0.89013005    -6.724316    717.67228  0.026711042  0.026833887            6 
 2240000   0.91355041   -6.7526472    716.26578  0.026646792   0.02682517            8 
 2241000   0.89010057   -6.7667723     718.2145  0.026707366  0.026816491            6 
 2242000   0.88680211   -6.7647538    717.24761  0.026659516   0.02680772           12 
 2243000   0.90538458    -6.765171    716.48828  0.026619419  0.026798928            6 
 2244000   0.89286193   -6.7390677    716.79156  0.026618819  0.026790092            3 
 2245000   0.89663686   -6.7444813    717.03633  0.026616048  0.026781399            9 
 2246000    0.8945755   -6.7515444     719.1617  0.026683055  0.026772647            6 
 2247000   0.89055587   -6.7307877     717.2903  0.026601777  0.026763912            4 
 2248000   0.89439357   -6.7475532    718.08872   0.02661954  0.026755167            4 
 2249000   0.88854735   -6.7532731     716.8992  0.026563628  0.026746489            6 
 2250000   0.89245801   -6.7451587    718.46853  0.026609946  0.026737727            7 
 2251000   0.89809766   -6.7609396    717.43262  0.026559774  0.026728985            4 
 2252000   0.90426785    -6.731459    718.99993  0.026605977  0.026720294           10 
 2253000   0.90256594   -6.7126592    719.74468  0.026621715   0.02671159           11 
 2254000   0.88947958   -6.7706878    716.57985  0.026492896  0.026702874            5 
 2255000   0.86769222   -6.7311701    716.88754  0.026492518  0.026694124            3 
 2256000    0.8709875   -6.7461522    717.29325  0.026495761  0.026685402            5 
 2257000    0.8823421   -6.7526057    717.29746  0.026484177  0.026676602            7 
 2258000   0.89401948   -6.7226334     717.8199  0.026491729  0.026667839           10 
 2259000   0.87667727   -6.7530997    717.77355  0.026478292  0.026659117            7 
 2260000   0.87830793   -6.7243716    720.51886  0.026567805   0.02665035           10 
 2261000   0.88539413   -6.7434742    719.97323  0.026535944  0.026641651            6 
 2262000   0.88669423   -6.7570893    718.45622  0.026468325  0.026633034            8 
 2263000   0.88967972   -6.7424641    718.90654  0.026473212  0.026624356            3 
 2264000   0.87185758   -6.7373611    720.92914  0.026535967  0.026615684            6 
 2265000   0.88976879   -6.7497749    720.28531  0.026500563  0.026606998            7 
 2266000   0.91162203   -6.7489975    719.24028  0.026450437  0.026598319            3 
 2267000   0.90121001   -6.8006719    717.60576  0.026378686   0.02658956            6 
 2268000   0.90267696   -6.7927709    719.10759  0.026422237  0.026580742            7 
 2269000   0.89051503   -6.7880468    718.98332  0.026406028  0.026571913            6 
 2270000    0.8898176   -6.7613455     720.5143  0.026450598  0.026563079           11 
 2271000   0.89675793   -6.7738793    717.69719  0.026335579  0.026554216            6 
 2272000   0.87898617   -6.7895482    718.29955  0.026346081   0.02654548            4 
 2273000   0.87598798   -6.7208295    719.90553  0.026393369  0.026536778            5 
 2274000   0.88760982   -6.7470359    719.63914     0.026372  0.026528183            9 
 2275000   0.90088428   -6.7275278     720.2754  0.026383714  0.026519566            5 
 2276000   0.90314445   -6.7615454    720.98288  0.026398026  0.026510857           13 
 2277000   0.90046955   -6.7637602    721.73857  0.026414089  0.026502187            8 
 2278000   0.88489389   -6.7588532    720.22387  0.026347083    0.0264935           10 
 2279000   0.90910356   -6.8002564    719.27309  0.026300756  0.026484777            7 
 2280000    0.8844974   -6.7796239    719.67852   0.02630404  0.026476111            4 
 2281000   0.86305228   -6.7342782    721.97619   0.02637645  0.026467488            5 
 2282000   0.89096152   -6.7367885    722.84691  0.026396688  0.026458877            9 
 2283000   0.87866744   -6.7335037    722.70432  0.026379921  0.026450281            8 
 2284000   0.88041928   -6.7403121    722.16704  0.026348768  0.026441672            2 
 2285000    0.8867661   -6.7630209    721.11235  0.026298773  0.026433092            8 
 2286000   0.88755813    -6.764627     720.6324  0.026269773  0.026424461           16 
 2287000   0.87993661   -6.7653522    721.24319  0.026280542  0.026415862            5 
 2288000   0.86490453   -6.7429135    723.12211  0.026337489  0.026407264            4 
 2289000   0.89690232   -6.7464048    721.51032  0.026267305  0.026398673            8 
 2290000    0.8866433   -6.7729684    724.19036  0.026353361  0.026390099            4 
 2291000   0.89734559   -6.7638563    721.13814  0.026230836  0.026381416            9 
 2292000   0.85946827   -6.7600893    721.48644  0.026232055  0.026372692            5 
 2293000   0.88777165   -6.7798343    723.00419  0.026275774  0.026364007            3 
 2294000   0.88696697   -6.7672444    722.56139  0.026248234  0.026355348            5 
 2295000    0.8875202    -6.751001    722.67066  0.026240765  0.026346766            4 
 2296000   0.88252698   -6.7670414    723.33649  0.026253502   0.02633809            9 
 2297000   0.88947704   -6.7676459    722.53443  0.026212975  0.026329402            3 
 2298000   0.88510929    -6.749891    724.22299  0.026262801  0.026320765            4 
 2299000   0.87793549   -6.7497638     722.7822  0.026199152  0.026312141           10 
 2300000    0.8770581    -6.743006    724.06955  0.026234404   0.02630355            4 
 2301000   0.87779685   -6.7483096    723.47256  0.026201382  0.026295032           15 
 2302000    0.8927236   -6.7693955    723.92635  0.026206427  0.026286464            5 
 2303000   0.88022385   -6.7895376    721.33342  0.026101224  0.026277799           15 
 2304000   0.88653625   -6.7638664     723.9419  0.026184241  0.026269182            4 
 2305000    0.8903845   -6.7409147    724.79333  0.026203663  0.026260671            8 
 2306000   0.87584436   -6.7476783    721.84664  0.026085814  0.026252015            5 
 2307000   0.87588044   -6.7404951    724.14736  0.026157613  0.026243395            5 
 2308000   0.87715588   -6.7441321    723.72536  0.026131043  0.026234775            6 
 2309000   0.88707394   -6.7994183    722.16622  0.026063455  0.026226172            7 
 2310000   0.88150646    -6.759444    724.44272  0.026134297  0.026217464            8 
 2311000   0.88800837    -6.771992    724.05183  0.026108893  0.026208811            4 
 2312000   0.88964711    -6.725559    724.60327  0.026117477  0.026200276            3 
 2313000   0.88654034   -6.7255808    726.84782  0.026187052  0.026191843            2 
 2314000   0.87976766   -6.7716275     725.0885  0.026112378  0.026183327            3 
 2315000   0.88642933   -6.7588612    725.89701  0.026130202  0.026174785           12 
 2316000   0.89825673   -6.7410154    724.92522  0.026083953   0.02616619           12 
 2317000   0.86813282   -6.7416876    724.88221  0.026071148  0.026157684            3 
 2318000   0.87164783   -6.7408025    724.59193  0.026049466  0.026149141            3 
 2319000   0.88167716    -6.784752    723.63428  0.026003819  0.026140566            8 
 2320000   0.88819536   -6.7755446    724.77599   0.02603362  0.026131986            8 
 2321000   0.88793083   -6.7615711    725.62989  0.026053062  0.026123462            6 
 2322000   0.85476965   -6.7925796    723.53899  0.025966803  0.026114838            6 
 2323000   0.88649345   -6.7390754    723.46485  0.025952965   0.02610622            5 
 2324000   0.89163955   -6.7845775    725.03249  0.025998009  0.026097605            4 
 2325000    0.8857118    -6.763647    724.57472   0.02597042  0.026088974            6 
 2326000   0.87524675   -6.7586827    726.06211  0.026012543  0.026080396            6 
 2327000   0.86688248   -6.7773307    723.82499   0.02592125  0.026071817            5 
 2328000   0.88277467   -6.7395327    726.66284    0.0260117  0.026063229            6 
 2329000   0.87465447   -6.7853104    724.04575   0.02590689  0.026054674            5 
 2330000   0.87184813   -6.7654391    728.25296  0.026046243  0.026046103            7 
 2331000    0.8905705    -6.790166    725.41236  0.025933518  0.026037474            4 
 2332000   0.87632296   -6.8039218    724.60134  0.025893416  0.026028834            7 
 2333000   0.86866397   -6.7565104    724.03623  0.025862131  0.026020258            7 
 2334000   0.89070448   -6.7677891    727.08182  0.025959791  0.026011721            6 
 2335000   0.87612748   -6.8082326    723.81089  0.025831938  0.026003068           11 
 2336000   0.89464385   -6.7676819    724.34656  0.025839988  0.025994441            8 
 2337000   0.86689364   -6.7823904    726.50893  0.025906038  0.025985885            8 
 2338000   0.87578748   -6.7972107    726.31755  0.025888136  0.025977325            6 
 2339000   0.88438478      -6.7751    727.46036  0.025917784   0.02596875           10 
 2340000   0.86673207   -6.7712089    724.93989  0.025816948  0.025960182            6 
 2341000   0.88340288   -6.7934963     725.7371  0.025834298   0.02595158            9 
 2342000   0.87874874   -6.7843159    727.65966  0.025891676  0.025943066            3 
 2343000   0.87333379   -6.7695159    727.42396  0.025872242  0.025934565            5 
 2344000   0.88010664   -6.7842427     729.3186  0.025928562   0.02592605            3 
 2345000   0.87757167   -6.7911605    727.47316  0.025851925  0.025917563           10 
 2346000   0.86930302   -6.7794542    727.07831  0.025826879  0.025909034            3 
 2347000    0.8988775   -6.7865819    728.92588  0.025881476  0.025900566            6 
 2348000    0.8956714   -6.7865259     728.3563  0.025850238  0.025892068            6 
 2349000   0.88266963    -6.780662    728.83618  0.025856257  0.025883589           21 
 2350000   0.86500213   -6.7932513    729.41861  0.025865908   0.02587514            4 
 2351000   0.87004145   -6.7979213    728.84152  0.025834451  0.025866663           10 
 2352000   0.87528895   -6.7747382    728.32201   0.02580506  0.025858231            6 
 2353000   0.87927456   -6.7944773    728.84967   0.02581278  0.025849792            3 
 2354000    0.8821747   -6.7785874    729.04736  0.025808813  0.025841367           15 
 2355000   0.87978066   -6.7890137    729.61479  0.025817933  0.025832977            9 
 2356000    0.8653219   -6.7803102       730.97   0.02585491  0.025824523            4 
 2357000   0.87997527   -6.7955014    728.26636  0.025748351   0.02581602            5 
 2358000   0.87749557   -6.7907199    726.89664  0.025689025  0.025807541            4 
 2359000   0.87994129   -6.8150357    728.48495  0.025734243  0.025799058            5 
 2360000   0.88439275   -6.8230035    728.72494  0.025731813  0.025790625            8 
 2361000   0.88210383   -6.7953341    729.13414  0.025735357  0.025782138           14 
 2362000   0.90104031   -6.8212211    728.49914  0.025702058   0.02577365            8 
 2363000   0.84945602   -6.7794364    730.95031  0.025777624  0.025765241            5 
 2364000   0.86647001   -6.7959651    729.84819  0.025727869  0.025756939            9 
 2365000   0.86723765   -6.7874228     729.1044  0.025690782  0.025748563           13 
 2366000   0.87159713   -6.8371694    729.12431  0.025680625  0.025740102            7 
 2367000   0.87628659   -6.7820352     730.8227   0.02572957  0.025731705            5 
 2368000   0.87832934   -6.7953493    731.21751  0.025732598  0.025723372            4 
 2369000   0.86424496   -6.8102574    730.00515  0.025679089  0.025714957            5 
 2370000   0.86323473   -6.7871321    730.15765  0.025673616  0.025706483            4 
 2371000   0.86303274   -6.7698585    732.97322  0.025761747  0.025698116            4 
 2372000   0.88410804    -6.809323    731.71989  0.025706854  0.025689766            4 
 2373000   0.87563898   -6.8178626    729.99453  0.025635431  0.025681391            6 
 2374000   0.88898813    -6.787134    732.09009  0.025698192  0.025672994            4 
 2375000   0.86265185   -6.8306266    731.05664   0.02565111  0.025664601            5 
 2376000   0.88277446   -6.8359311    729.82298  0.025597046  0.025656237            6 
 2377000   0.86614962   -6.7816554    734.30612  0.025743448  0.025647828            5 
 2378000   0.86308354   -6.7804152     731.4427  0.025632279  0.025639505           12 
 2379000   0.90180318   -6.8265383    731.45538  0.025621948  0.025631233            6 
 2380000   0.86946906   -6.7883718    732.47451  0.025646867  0.025622921           14 
 2381000   0.84967729   -6.8189567    730.62605    0.0255714  0.025614633           15 
 2382000   0.86356991   -6.8300121    731.35783  0.025586266  0.025606286           10 
 2383000   0.87055722   -6.8067983    733.23684  0.025641238  0.025597958            4 
 2384000   0.86951809   -6.8262717    731.57606  0.025572429  0.025589662            5 
 2385000   0.86943662   -6.8122928    732.84174  0.025605931  0.025581383            5 
 2386000   0.88528711   -6.7953556    733.19155  0.025607417   0.02557313            3 
 2387000   0.87200843   -6.8055382    733.09277   0.02559324  0.025564838            3 
 2388000   0.86831912   -6.7856909    733.13514  0.025584001   0.02555665           17 
 2389000   0.86200047   -6.7832008    734.37312  0.025616475  0.025548453            7 
 2390000   0.85831205   -6.8386315     733.9772  0.025591953  0.025540192            4 
 2391000   0.86289286   -6.8086222    734.19762  0.025588931  0.025532035            6 
 2392000   0.86752605   -6.8051582    734.55772  0.025590779  0.025523894            4 
 2393000   0.86889203   -6.7870564    733.50295  0.025543354  0.025515768            8 
 2394000   0.85962248   -6.8116668     734.1577  0.025555475  0.025507621            8 
 2395000   0.87579223   -6.8196213    733.38365  0.025517872   0.02549944           13 
 2396000   0.84559761   -6.7698708    736.09025  0.025601358   0.02549133            5 
 2397000   0.86166486   -6.8035053      737.629  0.025644173  0.025483252            9 
 2398000   0.90250422   -6.7839529    736.25801  0.025585836  0.025475167            6 
 2399000   0.86664743   -6.7623874    736.53665  0.025584849  0.025467096            6 
 2400000   0.86838257   -6.8229027    735.16049  0.025526406  0.025458943           14 
 2401000   0.86815761    -6.817958    735.10867  0.025513976  0.025450807            8 
 2402000   0.88095435   -6.7994117    736.89745  0.025565413  0.025442719           13 
 2403000   0.86415027   -6.8083848    738.07824  0.025595722  0.025434629            8 
 2404000   0.88671927   -6.8283916    735.62687    0.0255001  0.025426507            3 
 2405000   0.85283921   -6.8247843    735.40302   0.02548174  0.025418341            6 
 2406000   0.87732218   -6.8181297    736.21683  0.025499336  0.025410135            7 
 2407000   0.84832139   -6.7936276    737.29352  0.025526019  0.025402006           11 
 2408000   0.86038894   -6.8786226    734.60636  0.025422424  0.025393839           10 
 2409000   0.87112097   -6.8176159    737.57669  0.025514622  0.025385672            3 
 2410000   0.88071315   -6.7912153    737.63418  0.025506023  0.025377528            8 
 2411000   0.87719971   -6.7921186    738.77792  0.025534976  0.025369469            8 
 2412000   0.87118607   -6.8283686     734.0878  0.025362348  0.025361363            5 
 2413000   0.86603987   -6.8426146    736.90763  0.025449221  0.025353283            6 
 2414000    0.8879121   -6.7708729    739.17196  0.025516845  0.025345192           15 
 2415000   0.87308442   -6.8147853    736.13435  0.025401461  0.025337098            8 
 2416000   0.86513249   -6.8410929    735.86175  0.025381545   0.02532902           10 
 2417000   0.87217466   -6.8348526     737.2226  0.025417963   0.02532087            9 
 2418000   0.85535576   -6.8183618    737.95454  0.025432677  0.025312799            7 
 2419000   0.86697096   -6.7730574    738.55203  0.025442746  0.025304661            5 
 2420000    0.8557403   -6.7888803    739.28576  0.025457499  0.025296566            7 
 2421000   0.84577071   -6.8151844    737.32502  0.025379493  0.025288455            9 
 2422000   0.83682772     -6.83281    736.13854  0.025328191  0.025280404            3 
 2423000   0.85401589   -6.8394039    736.53433   0.02533135  0.025272262            9 
 2424000   0.85773035   -6.8388469    740.09594  0.025443342   0.02526411            8 
 2425000   0.86361531   -6.8572645    736.91739  0.025323622  0.025255992           11 
 2426000   0.85518062   -6.8109337    738.24104  0.025358651  0.025247868            4 
 2427000   0.85632019   -6.8256491     737.7706  0.025332049   0.02523976            8 
 2428000   0.87599261   -6.8187859    740.35319  0.025410255  0.025231701            6 
 2429000   0.85568553   -6.8602164    736.95016  0.025283044  0.025223579            9 
 2430000   0.85667635   -6.8535198     738.2735  0.025318021  0.025215484            8 
 2431000   0.84164207   -6.8613151    736.61466  0.025250743  0.025207394           11 
 2432000   0.85355053   -6.8401857    739.33018  0.025333408  0.025199314            7 
 2433000    0.8562947   -6.8354929    737.35929   0.02525549  0.025191273           10 
 2434000   0.85296231   -6.8379612    737.47056  0.025248924  0.025183229            5 
 2435000    0.8707028   -6.8289328     739.5987  0.025311386  0.025175195            7 
 2436000   0.87347277   -6.8332306    739.06942  0.025282889  0.025167175            7 
 2437000   0.86121349   -6.8423242    740.76672  0.025330554  0.025159174            6 
 2438000   0.84919149    -6.818532    740.65004  0.025316176  0.025151255            9 
 2439000    0.8651223   -6.8067884    740.57709  0.025303303  0.025143318            3 
 2440000    0.8720779   -6.8238899     741.2055  0.025314396  0.025135347            4 
 2441000   0.86995193   -6.8457999    737.65309  0.025182749  0.025127366            9 
 2442000     0.873959   -6.8090117    742.02557  0.025321648  0.025119449           11 
 2443000   0.85915619   -6.8391021    739.90851  0.025239068  0.025111463            6 
 2444000   0.86127086   -6.8452535    740.92676   0.02526346  0.025103397            7 
 2445000   0.86207321   -6.8341335    739.74818  0.025212958  0.025095393            3 
 2446000   0.85466718   -6.8474885    741.74916  0.025270822  0.025087362            6 
 2447000   0.86411516   -6.8564972    740.27829  0.025210404  0.025079283           15 
 2448000   0.85965453   -6.8354886    743.18854  0.025299174  0.025071253            4 
 2449000   0.86174109   -6.8085669    744.09836  0.025319803  0.025063343            5 
 2450000   0.85140344   -6.8466476    741.33052  0.025215324   0.02505536            5 
 2451000   0.84994651   -6.8269202     743.0193  0.025262454  0.025047414            8 
 2452000    0.8621335   -6.8623843        740.4  0.025163132  0.025039444            6 
 2453000   0.84398581   -6.8656297    739.83454  0.025133664  0.025031431            7 
 2454000   0.86020582   -6.8215499    741.88034  0.025192894  0.025023369            4 
 2455000   0.83835202   -6.8279889    740.26278  0.025127725  0.025015267            3 
 2456000   0.84528219   -6.8536404    741.18333  0.025148729  0.025007252            6 
 2457000   0.86212613   -6.8430434    741.94853  0.025164446  0.024999267            4 
 2458000   0.85830893    -6.828671    741.15916  0.025127446  0.024991259            6 
 2459000   0.85579515    -6.866143    740.65999  0.025100311  0.024983213            6 
 2460000   0.88208153   -6.8349216    741.65356  0.025123766  0.024975133            3 
 2461000   0.86129462   -6.8585612    741.00703  0.025091664  0.024967047            5 
 2462000   0.84094149   -6.8395656    739.68468  0.025036714  0.024958927           10 
 2463000   0.85479812   -6.8072059    742.91142  0.025135723  0.024950809            7 
 2464000   0.87264164   -6.8491336    741.13085  0.025065302  0.024942791            5 
 2465000   0.86098345   -6.8316638     739.7616  0.025008844  0.024934703            5 
 2466000   0.85560657    -6.845045    741.71842  0.025064829  0.024926601           11 
 2467000   0.87998593   -6.8440525    741.94152  0.025062205  0.024918492            6 
 2468000   0.85790079   -6.8527281    740.58154   0.02500613  0.024910379           11 
 2469000   0.85324366   -6.8207841    741.81905   0.02503777  0.024902329            3 
 2470000   0.86537343   -6.8102254    740.14631  0.024971198  0.024894263            6 
 2471000   0.86300101   -6.8406533    742.97249  0.025056404  0.024886251            5 
 2472000   0.86471775    -6.843358    741.81569  0.025007271  0.024878229           10 
 2473000   0.86886418     -6.81703    741.68029  0.024992596  0.024870152            5 
 2474000   0.85075567   -6.8547409      740.609  0.024946409  0.024862092            7 
 2475000   0.83280415   -6.8160826    742.79208  0.025009834  0.024854038            6 
 2476000   0.87915125   -6.8537358    741.29274  0.024949271  0.024845996            6 
 2477000   0.83871881   -6.8251659     740.1864  0.024901978  0.024837886            6 
 2478000   0.86045452   -6.8268236    741.37694  0.024931966  0.024829808           10 
 2479000   0.85612738   -6.8110558    742.81586  0.024970279  0.024821755            4 
 2480000   0.84669874   -6.8309222    740.52461   0.02488322  0.024813717            6 
 2481000   0.86988531   -6.8510176    739.74196  0.024846902  0.024805675            3 
 2482000   0.85618443   -6.8622335    740.75615  0.024870942   0.02479756            8 
 2483000    0.8610013   -6.8791566    740.66885  0.024857996  0.024789477            3 
 2484000    0.8422094   -6.8661101    742.35608  0.024904592  0.024781358            8 
 2485000   0.84504463     -6.87213    743.76586  0.024941847  0.024773263           14 
 2486000   0.86783375   -6.8824476    741.83541  0.024867103  0.024765159           11 
 2487000   0.83200303   -6.8707844    741.17347  0.024834924  0.024757041            7 
 2488000   0.84771964   -6.8673363     741.9065  0.024849494  0.024748976            8 
 2489000   0.84676586    -6.837766    740.57481  0.024794925   0.02474088           11 
 2490000   0.86020446   -6.8468309     740.0513  0.024767447  0.024732784            5 
 2491000   0.86928054   -6.8552531    742.46695  0.024838316  0.024724727           11 
 2492000   0.85195885   -6.8638959    740.58984  0.024765578  0.024716629            7 
 2493000   0.86405913   -6.8592709    741.45301  0.024784497   0.02470854            3 
 2494000   0.85625447   -6.8445261    742.19751  0.024799435  0.024700403            6 
 2495000   0.83853052   -6.8720029    740.40683  0.024729687  0.024692291            5 
 2496000   0.85018064   -6.8692563    742.87992  0.024802348  0.024684151            8 
 2497000   0.84669863   -6.8578024    743.62901  0.024817415  0.024676045           15 
 2498000   0.85254235   -6.8611845    743.24418  0.024794642   0.02466799            4 
 2499000   0.85243559   -6.8344533    744.65594  0.024831798  0.024660005           10 
 2500000   0.84727433   -6.8492232    742.22976  0.024740992  0.024651946            7 
 2501000    0.8645691   -6.8852453    740.83742  0.024684707  0.024643828            9 
 2502000    0.8649813   -6.8896011    742.91014  0.024743876  0.024635744            7 
 2503000   0.83374454   -6.8711281    740.85769  0.024665658  0.024627589            7 
 2504000   0.86866322   -6.8239322    745.00833  0.024793941  0.024619535            9 
 2505000   0.85835016   -6.8728648    741.89491  0.024680469  0.024611502            6 
 2506000   0.86609585   -6.8603155    742.50333  0.024690853  0.024603407           12 
 2507000   0.86425154   -6.8431373     744.5637  0.024749491  0.024595414            7 
 2508000   0.84766702   -6.8639733    745.28845  0.024763705  0.024587346            5 
 2509000   0.84511828   -6.8653298    744.66821  0.024733234  0.024579284            4 
 2510000   0.85470556   -6.8649983    745.57635  0.024753531  0.024571295            8 
 2511000    0.8486268   -6.8821826    744.29376  0.024701107  0.024563222            6 
 2512000    0.8460117   -6.8404853    743.36028  0.024660306  0.024555121           10 
 2513000   0.86435827   -6.8770018    744.40165  0.024685026  0.024547125            7 
 2514000   0.86004334   -6.8411311    746.64641  0.024749616  0.024539118           10 
 2515000   0.83050939   -6.9127898    741.27411  0.024561766  0.024531061            8 
 2516000   0.84847005   -6.8767808    744.55229  0.024660582  0.024522969            6 
 2517000   0.84680712   -6.8550163    744.92126     0.024663  0.024514927           11 
 2518000   0.82804677   -6.8616474    744.41375  0.024636409  0.024506928            5 
 2519000   0.86431545   -6.8994519    744.57558  0.024631983  0.024498901            4 
 2520000   0.84513798   -6.8901778    744.25908  0.024611742  0.024490823           17 
 2521000   0.84841989   -6.8853866    742.63444  0.024548276  0.024482796           10 
 2522000   0.84931202   -6.8506079    746.55879  0.024668213  0.024474751            8 
 2523000    0.8434499   -6.8726843    745.92997  0.024637666  0.024466791            3 
 2524000   0.84246534   -6.8700341    746.66132  0.024652051  0.024458849            5 
 2525000   0.83781232   -6.8307101    746.82507  0.024647692  0.024450988            7 
 2526000   0.83125478   -6.8754854    745.29378  0.024587417  0.024443053            8 
 2527000     0.868734   -6.8515644    746.23929  0.024608867  0.024435095            9 
 2528000   0.83579615   -6.8827283    746.50939  0.024608036  0.024427127            3 
 2529000   0.84376154   -6.8539461    746.19225  0.024587856  0.024419145           12 
 2530000   0.85168264   -6.8629749     746.0597  0.024573771  0.024411223            7 
 2531000   0.85042252     -6.88924    745.91936  0.024559442  0.024403319            7 
 2532000   0.83519022   -6.8719572    746.55409  0.024570632  0.024395393            8 
 2533000   0.84683568   -6.8926567     744.3811  0.024489443  0.024387463            9 
 2534000   0.84822021   -6.8628869     748.3679  0.024610888  0.024379557            9 
 2535000   0.85554689   -6.8612205    748.31816  0.024599545  0.024371666           18 
 2536000   0.82836166     -6.87964    746.25496  0.024522048  0.024363775            5 
 2537000   0.84853593   -6.9146041    747.06365  0.024538945  0.024355899           15 
 2538000   0.85384606   -6.8873315    747.90131  0.024556781  0.024348015            9 
 2539000   0.84873992   -6.8836406     747.1195  0.024521449  0.024340203            4 
 2540000   0.85091598   -6.8410199    747.78992   0.02453379  0.024332411            8 
 2541000    0.8606386   -6.8647217    748.23109  0.024538603  0.024324611            9 
 2542000   0.82423364   -6.8799059    746.50349  0.024472315  0.024316752            5 
 2543000   0.85564057    -6.869307    746.61863  0.024466464  0.024308929            7 
 2544000   0.84816843   -6.8760612    750.01478  0.024568094  0.024301112           18 
 2545000   0.83039173   -6.8703683    747.62634  0.024480234   0.02429328            3 
 2546000   0.84688514   -6.8799472    748.44053  0.024497268  0.024285443            7 
 2547000    0.8264928   -6.8760647    749.18822  0.024512113  0.024277582            5 
 2548000   0.84087894   -6.9022805    747.86109  0.024459088  0.024269641           10 
 2549000   0.84177461   -6.8589783    749.26035  0.024495238   0.02426176            7 
 2550000   0.84614153   -6.8568222    747.52252  0.024428841  0.024253955            3 
 2551000   0.83599177   -6.8981504    749.66912  0.024489387  0.024246202            7 
 2552000   0.84003889   -6.8878518    750.24564  0.024498617  0.024238439           11 
 2553000   0.84383701   -6.8750235    750.71812  0.024504443  0.024230684           12 
 2554000    0.8615386   -6.8736569    750.43106  0.024485482  0.024222968            6 
 2555000     0.837839   -6.8553972    749.51772   0.02444611  0.024215197           12 
 2556000   0.85743422   -6.8795438    749.94072  0.024450336  0.024207422            6 
 2557000   0.83983268   -6.8652105    750.84328  0.024470189  0.024199668            5 
 2558000   0.85141143   -6.8515658     751.0495  0.024467341  0.024191932            6 
 2559000   0.83914926   -6.8606271    751.04545  0.024457648  0.024184206           13 
 2560000   0.83474119   -6.8568831    750.80014  0.024440109  0.024176449            5 
 2561000   0.83671134   -6.8824853    750.81839  0.024431159  0.024168725           10 
 2562000   0.84372618   -6.9002506    749.55294  0.024380462   0.02416097            6 
 2563000   0.84912698   -6.9086808    749.68185  0.024375141  0.024153187            6 
 2564000   0.83197218    -6.854036    749.55119  0.024361388  0.024145427            8 
 2565000     0.845357   -6.9049759    749.52379     0.024351  0.024137622           10 
 2566000   0.85778294   -6.9016925    751.05711  0.024391307  0.024129785            6 
 2567000   0.84179248    -6.898032    749.60078  0.024334527  0.024121999           10 
 2568000    0.8401985   -6.9008255    749.94521  0.024336228  0.024114157            8 
 2569000   0.82910897   -6.8957091    749.71862  0.024319405  0.024106298            6 
 2570000   0.85034367   -6.8796865    750.76404   0.02434384  0.024098466            6 
 2571000   0.83650719   -6.8893262    749.15256  0.024282139  0.024090647            7 
 2572000   0.84918622   -6.8901327    749.09389  0.024270797  0.024082866            9 
 2573000   0.84282605    -6.866819    751.70421  0.024345907  0.024075105            8 
 2574000   0.85135463   -6.8781126       752.05  0.024347643  0.024067349            6 
 2575000   0.84212228   -6.8853771    748.60023  0.024226545  0.024059533            8 
 2576000   0.82969053   -6.9075814    748.27282  0.024206548  0.024051736           11 
 2577000   0.84772129   -6.9360204     750.9732  0.024284478  0.024043872            4 
 2578000   0.85887844   -6.8834225    749.81023  0.024237465  0.024036056           11 
 2579000   0.84801673   -6.8668084     750.8181  0.024260634  0.024028264           10 
 2580000   0.83610082   -6.8807237    749.40687  0.024205648  0.024020478            7 
 2581000   0.85611464   -6.8639405    751.29433  0.024257211  0.024012724            5 
 2582000   0.81733871   -6.8771486    752.11782  0.024274394  0.024004998            7 
 2583000    0.8365724   -6.8846975    751.80559  0.024254923  0.023997285            7 
 2584000   0.84812098   -6.8644471    751.61931  0.024239529  0.023989601           13 
 2585000   0.82518716   -6.9159944    749.69878  0.024168239  0.023981879            5 
 2586000   0.84694312   -6.9450043    750.13871   0.02417307  0.023974118            4 
 2587000   0.82246738   -6.9071434     751.0134  0.024191902  0.023966346            5 
 2588000   0.84496207   -6.9369885    748.95309  0.024116212   0.02395856            6 
 2589000   0.85111596   -6.9205759    749.67709  0.024130201  0.023950709           10 
 2590000   0.82425402   -6.9173678    749.62024  0.024119055  0.023942911            5 
 2591000   0.82298334    -6.903519    751.39077  0.024166691   0.02393513            3 
 2592000   0.83374549   -6.8996698    753.05395  0.024210839   0.02392739            8 
 2593000   0.83498677   -6.9005698      751.936  0.024165574  0.023919675            7 
 2594000   0.83321081   -6.9029557    751.84396  0.024153301  0.023911978            4 
 2595000   0.83975738   -6.8775058    752.55549  0.024166843   0.02390431            5 
 2596000   0.82325044   -6.8806038    752.62565  0.024159786  0.023896622            5 
 2597000   0.83862119   -6.8972964    753.30531  0.024172292  0.023888944            8 
 2598000   0.85302246    -6.895683    753.95829  0.024183933  0.023881276            6 
 2599000    0.8461384   -6.9069084    752.26942  0.024120477  0.023873568            6 
 2600000   0.82255244   -6.8896098    752.74702  0.024126507  0.023865893           13 
 2601000   0.82453775   -6.8866488    753.82137  0.024151652  0.023858134            7 
 2602000   0.84095079   -6.9080367    753.23194  0.024123493  0.023850376           10 
 2603000   0.83686861   -6.9295952    753.31105  0.024116758  0.023842673            7 
 2604000    0.8265237   -6.8729964    755.18347  0.024167418   0.02383499            9 
 2605000   0.82317555   -6.9177407    754.44225  0.024134429  0.023827306            9 
 2606000   0.82778052   -6.9318628    753.92129  0.024108509  0.023819638           16 
 2607000   0.80824702   -6.9081571    753.02445  0.024070594  0.023811997            7 
 2608000   0.82923059   -6.8909024    754.19611  0.024098802  0.023804352           12 
 2609000   0.84805668   -6.8818978    755.39836  0.024127966  0.023796719           18 
 2610000   0.83300198   -6.8874941    755.86772  0.024133708  0.023789108           14 
 2611000   0.82511752   -6.9016549    753.82737  0.024059344  0.023781499            8 
 2612000   0.84097074   -6.9516789    753.42147  0.024037183  0.023773843            8 
 2613000   0.83171729   -6.9625909    751.01611  0.023951273  0.023766148           12 
 2614000   0.85421467   -6.9230819    755.82893  0.024095541  0.023758515           10 
 2615000   0.81984973   -6.9323653    755.17109  0.024065363  0.023750882            9 
 2616000   0.83339002   -6.9076988    755.54444  0.024068057  0.023743285           20 
 2617000    0.8500618   -6.9118991    753.85623  0.024005102  0.023735669           10 
 2618000   0.83678136   -6.9075037    755.66368  0.024053466  0.023728042           12 
 2619000   0.82073216   -6.9596184    754.18302  0.023997169  0.023720391            9 
 2620000   0.82657891   -6.9216581    753.01069  0.023950722  0.023712754            5 
 2621000   0.83992124   -6.9119252    754.80127  0.023998514  0.023705142            6 
 2622000   0.81880749   -6.9101032    753.13619  0.023936441  0.023697498            7 
 2623000   0.82957126   -6.9238287    755.32555  0.023996872  0.023689891           10 
 2624000   0.83886773   -6.9135187    754.44821  0.023959864  0.023682294            8 
 2625000   0.85699416   -6.8901993    756.90195  0.024028633  0.023674707            5 
 2626000   0.82183715   -6.9216461    755.37433  0.023971006  0.023667163           15 
 2627000   0.83772205    -6.897884    755.21392  0.023956792  0.023659526            7 
 2628000   0.83208189   -6.9300132    754.50554  0.023925214  0.023651864            5 
 2629000   0.82862725   -6.9209123    754.08112   0.02390266  0.023644216            9 
 2630000   0.82887932   -6.9293162    755.95435  0.023952926  0.023636585            9 
 2631000   0.81970351   -6.9121802    755.57324  0.023931751   0.02362897           10 
 2632000   0.83572159   -6.9260011    756.83647  0.023962654  0.023621316            7 
 2633000   0.81167511   -6.9174656    754.18772  0.023869722  0.023613678            9 
 2634000   0.84314298   -6.9141823    756.28801  0.023927107  0.023606101            8 
 2635000   0.83391369   -6.9216061    755.17484  0.023882822  0.023598485            4 
 2636000   0.82610569   -6.9539061    754.30054  0.023846122  0.023590835            4 
 2637000   0.83191504   -6.9235475    756.76716  0.023915028  0.023583197           18 
 2638000   0.81784745   -6.9013408    758.73213  0.023968035  0.023575623            6 
 2639000   0.81584746   -6.9115948    757.36902  0.023915909  0.023568064            7 
 2640000   0.81039241   -6.9201388    755.69126  0.023853891  0.023560453           16 
 2641000   0.82017964   -6.9027991      757.605  0.023905244  0.023552909            4 
 2642000    0.8425149   -6.9207781    756.77919  0.023870149  0.023545346            4 
 2643000   0.82817825   -6.9263438    755.98415   0.02383605  0.023537782           15 
 2644000   0.83936551   -6.9281369    757.33362  0.023869567  0.023530187            7 
 2645000   0.83492451   -6.9516929    757.15763  0.023854998  0.023522556            9 
 2646000   0.80917798   -6.9300395    757.27324  0.023849623  0.023514963           14 
 2647000   0.81796065   -6.8853946    757.86233  0.023859159  0.023507417           11 
 2648000   0.83988759   -6.8994516    758.44951  0.023868628  0.023499921           13 
 2649000   0.81550639   -6.9364573    757.46911  0.023828775  0.023492384            6 
 2650000   0.84290848   -6.9181548    759.57195   0.02388591  0.023484864           11 
 2651000   0.81907008   -6.8817014    759.03303   0.02385996  0.023477306            5 
 2652000    0.8221448   -6.8962415    760.13514  0.023885594  0.023469798            8 
 2653000   0.83225933   -6.9050836    759.54573  0.023858077  0.023462292            4 
 2654000   0.81466252   -6.8974013    758.86692  0.023827773  0.023454808           13 
 2655000   0.82920689   -6.9174167    758.27276  0.023800149  0.023447344            7 
 2656000   0.82366218   -6.9385752    758.30592  0.023792229  0.023439842            9 
 2657000   0.83035536   -6.9294045    758.23758  0.023781131  0.023432356            7 
 2658000   0.81595753   -6.9100528     759.9859  0.023826997   0.02342487           14 
 2659000    0.8039532   -6.9108159    757.78525  0.023749068  0.023417394           10 
 2660000   0.83364385   -6.9254682    758.09836  0.023749949  0.023409918           16 
 2661000   0.82620237   -6.9404819    758.57767  0.023756034  0.023402397           10 
 2662000   0.84290793   -6.9369546    757.26157  0.023705909  0.023394864           20 
 2663000   0.82582387   -6.9338708    759.08376  0.023754029  0.023387379            6 
 2664000   0.83369287    -6.961078    756.28047  0.023657422  0.023379901            5 
 2665000    0.8175181   -6.9308035    758.64163  0.023722377  0.023372431           10 
 2666000   0.80816022   -6.9149481    759.35031  0.023735631   0.02336499           14 
 2667000   0.82475412   -6.9087493    759.47464  0.023730616  0.023357538           13 
 2668000   0.82254855   -6.9346513    759.34246  0.023717593  0.023350075           14 
 2669000   0.82913392   -6.9501237    760.63506  0.023749065  0.023342615            6 
 2670000   0.82975808    -6.938164     758.3895  0.023670084  0.023335121            7 
 2671000   0.83478432   -6.9836116    758.40911  0.023661834  0.023327599            6 
 2672000   0.82903358   -6.9559768    757.76692   0.02363295  0.023320116            4 
 2673000   0.83709731   -6.9267004    759.47483  0.023677355  0.023312643            7 
 2674000   0.83078117   -6.9456348     760.3449  0.023695615   0.02330515            8 
 2675000     0.824629   -6.9368518    759.97137  0.023675121  0.023297694            9 
 2676000   0.82623466   -6.9374549    760.47446   0.02368194  0.023290291           11 
 2677000   0.84360957   -6.9277862     760.9551  0.023688056  0.023282869           13 
 2678000   0.81903425   -6.9262166    759.33708  0.023628861  0.023275449           16 
 2679000   0.83867305   -6.9696226    758.07354  0.023580737  0.023268066           10 
 2680000    0.8291366   -6.9676655     759.3348  0.023611157  0.023260634           13 
 2681000   0.82824684   -6.9463023    760.68894  0.023644441   0.02325322           14 
 2682000   0.82637233   -6.9364314    762.22876  0.023683469  0.023245831            5 
 2683000   0.82276187   -6.9405445    760.78707  0.023629863  0.023238427           12 
 2684000   0.83100783   -6.9481062    760.90506  0.023624722  0.023231061           14 
 2685000   0.82323191   -6.9317319    760.76586  0.023611603  0.023223675            5 
 2686000   0.82115402   -6.9430436    761.13806   0.02361436  0.023216283           16 
 2687000   0.82507153   -6.9038879    762.13226  0.023636405  0.023208887            3 
 2688000     0.824056   -6.9791076    760.07077  0.023563702   0.02320152           14 
 2689000   0.82085144   -6.9315211    760.87147  0.023579753  0.023194119            5 
 2690000   0.81529974   -6.9096316    764.08537   0.02367055  0.023186816           14 
 2691000   0.83031614   -6.9152729    762.34012  0.023607708  0.023179479           12 
 2692000   0.82359693   -6.9027693    760.37912  0.023538234   0.02317216            5 
 2693000   0.83114897   -6.9446716    761.26489  0.023556903   0.02316483           11 
 2694000     0.808518    -6.944262    762.08579  0.023573552  0.023157518            5 
 2695000   0.81773584    -6.948722    763.22146  0.023599921  0.023150159           16 
 2696000   0.82988165   -6.9219852    762.58882  0.023571613   0.02314283            7 
 2697000   0.82838714   -6.9398664    760.73494  0.023505591  0.023135476           11 
 2698000   0.79991131    -6.929061    760.77584  0.023498142  0.023128125            8 
 2699000   0.81319178   -6.9445761    759.00266  0.023434688  0.023120748           16 
 2700000   0.82012906   -6.9447652    761.84548   0.02351375  0.023113394            6 
 2701000   0.83107883   -6.9645485    762.63569  0.023529424  0.023105959            9 
 2702000   0.83198567   -6.9296735    762.88568  0.023528426  0.023098614            8 
 2703000   0.81302016   -6.9345807    763.68743  0.023544439  0.023091252           14 
 2704000   0.82464248   -6.9155662    764.54527  0.023562169   0.02308393            7 
 2705000   0.82326218   -6.9403419    762.57272   0.02349269   0.02307667           11 
 2706000   0.83296321   -6.9605363    763.69071  0.023518438  0.023069369            9 
 2707000   0.80385992    -6.968226    761.80092  0.023451574  0.023062067           12 
 2708000   0.81934949   -6.9734367    762.18259  0.023454659  0.023054719            5 
 2709000   0.83685457   -6.9713497    760.40059  0.023391183   0.02304739           11 
 2710000   0.81291239   -6.9399062    760.77996  0.023394218  0.023040067            9 
 2711000   0.82085054   -6.9562409    762.25668  0.023430981  0.023032775            8 
 2712000   0.84121991    -6.954473    764.05888  0.023477719  0.023025435           15 
 2713000   0.81270205   -6.9621604    762.94669  0.023434903  0.023018098           16 
 2714000   0.82290817   -6.9681739    761.70976  0.023388288  0.023010752           20 
 2715000   0.81408738   -6.9593134    764.62529  0.023469162  0.023003351            6 
 2716000   0.81690938   -6.9912334    760.91883  0.023346798  0.022995942            4 
 2717000   0.81040373   -6.9820208    761.02958  0.023341602  0.022988532            8 
 2718000    0.8094264   -6.9840232    762.49696  0.023378003  0.022981115            8 
 2719000   0.83388115   -6.9298759    764.56476   0.02343278  0.022973785           19 
 2720000   0.82261851   -6.9845056    762.59185  0.023363721  0.022966437            9 
 2721000   0.82593299   -6.9388368    764.53191  0.023414551  0.022959143           12 
 2722000   0.82113688   -6.9518131    764.88247  0.023416681  0.022951865            5 
 2723000   0.80426191   -6.9573596    763.92956  0.023378919  0.022944608            7 
 2724000   0.82936632   -6.9537552     765.2055   0.02340937  0.022937306            9 
 2725000    0.8094049   -6.9599128    764.85721  0.023390129   0.02293004           19 
 2726000   0.81780843    -6.905291    764.57597  0.023372951  0.022922842            6 
 2727000   0.83390372   -6.9494224    764.52945  0.023362958  0.022915604            4 
 2728000   0.79231561   -6.9657406    763.19556  0.023313647  0.022908327           11 
 2729000   0.81325432   -6.9886994    763.63367  0.023318483  0.022900996            7 
 2730000   0.80939607   -6.9847742      764.359  0.023332082  0.022893692           10 
 2731000   0.81023144    -6.990951    763.19195  0.023287927  0.022886391           10 
 2732000   0.81546939   -6.9618514    763.48027  0.023288197  0.022879066           12 
 2733000   0.82061322   -6.9955398    764.25881  0.023303415  0.022871779            9 
 2734000   0.82181575   -6.9357068    765.20329   0.02332368  0.022864548            9 
 2735000   0.82268974   -6.9714772    764.36242  0.023289532  0.022857319            6 
 2736000   0.81260494   -6.9498166    766.21661  0.023337494  0.022850084            4 
 2737000    0.7971214   -6.9484341    764.17069  0.023266676  0.022842794           13 
 2738000   0.82829954   -6.9523503     765.4517  0.023297166  0.022835523            8 
 2739000   0.81361287   -6.9714904    763.23921  0.023221346  0.022828223            4 
 2740000   0.81322943   -6.9831462    765.43805  0.023279746  0.022820934            6 
 2741000   0.82357458    -6.992796    763.79379  0.023221263   0.02281364            7 
 2742000   0.81290061   -6.9634854    763.24457  0.023196103  0.022806315            8 
 2743000   0.82973897   -6.9901217    763.77859   0.02320387  0.022798973            8 
 2744000   0.80918222   -6.9866155    764.43473   0.02321534  0.022791631           14 
 2745000   0.81103735    -6.952957    764.51215  0.023209233  0.022784301            8 
 2746000    0.8162168   -6.9669041    763.54695   0.02317149   0.02277696            5 
 2747000   0.82862722   -6.9878846    762.26995  0.023124316  0.022769653           10 
 2748000   0.81002313   -6.9576746    764.44568   0.02318188   0.02276233            7 
 2749000   0.80648346   -7.0111841    763.68566  0.023150408  0.022755003            7 
 2750000   0.82176461   -7.0067211    763.67091  0.023141543  0.022747641           17 
 2751000   0.80956198   -6.9844108     764.7907  0.023167051  0.022740313            9 
 2752000   0.81510294   -6.9695352    764.50199  0.023149891  0.022732999            4 
 2753000   0.78896044   -7.0029519    763.73117  0.023118149  0.022725707           17 
 2754000   0.80175697   -6.9419447    766.00781  0.023178644  0.022718416           11 
 2755000   0.81342143   -6.9835525    765.62275  0.023158583  0.022711108           10 
 2756000   0.79257679   -6.9751753    764.99607  0.023131231  0.022703816           11 
 2757000   0.80600317    -6.953504    768.32926   0.02322359  0.022696562           15 
 2758000   0.80341056   -6.9659204    765.14329  0.023118905  0.022689323            7 
 2759000   0.81255282   -6.9833399    766.12106  0.023140059  0.022682082           12 
 2760000   0.81143651   -6.9627484    768.12413  0.023192154  0.022674855            6 
 2761000   0.82351581    -6.976079    767.33418  0.023159911  0.022667692            3 
 2762000   0.81024549   -6.9703735    766.90316  0.023138522  0.022660529            8 
 2763000   0.82377456   -7.0003745    765.30752  0.023082022  0.022653373           23 
 2764000   0.81993827   -6.9512123    768.18678  0.023160479  0.022646216            5 
 2765000   0.79859973   -6.9525462    768.18025  0.023151906  0.022639039           10 
 2766000   0.80728971    -6.954604    767.34771  0.023118454  0.022631864           21 
 2767000   0.79347883   -6.9411831    767.78785  0.023123354  0.022624691           13 
 2768000    0.7954344   -6.9878342    765.26457  0.023039034  0.022617504           12 
 2769000   0.80245562   -6.9554282    767.62032  0.023101611  0.022610305           13 
 2770000   0.81979656   -6.9567823     767.7671  0.023097687  0.022603114           21 
 2771000    0.7867753   -7.0006262    766.37374  0.023047448  0.022595913           12 
 2772000   0.77783798   -6.9893693    768.40729  0.023100267  0.022588673           28 
 2773000    0.8282957   -7.0036786    768.23424  0.023086736  0.022581487            8 
 2774000   0.79745237   -6.9625447    769.01611  0.023101902  0.022574325            6 
 2775000   0.80782653   -6.9465933    769.20988  0.023099396  0.022567181            5 
 2776000   0.81039393   -6.9792861    766.19209  0.023000483   0.02256001           21 
 2777000   0.79471332   -6.9692496    768.15299  0.023051044  0.022552832           52 
 2778000   0.81497026   -6.9655394     767.8941   0.02303498  0.022545655           17 
 2779000   0.80135251   -6.9801677    769.21876  0.023066414  0.022538488           14 
 2780000   0.78841317   -6.9709507    768.58476  0.023039112  0.022531345            8 
 2781000   0.80743934   -6.9802948    769.33068  0.023053179  0.022524202           13 
 2782000   0.81418666   -6.9979131    766.30756  0.022954336  0.022517051           21 
 2783000   0.80662207   -6.9984855    767.41317  0.022979194  0.022509901           13 
 2784000   0.82120525   -7.0132236    768.18676  0.022994096  0.022502734            8 
 2785000   0.79790624   -6.9665984    767.69366  0.022971085  0.022495556           14 
 2786000   0.82079398   -7.0121333    765.99145  0.022911924  0.022488329            9 
 2787000   0.78865455   -7.0032536    769.15226  0.022998214   0.02248114            4 
 2788000   0.82906186   -7.0081678    768.73823  0.022977589  0.022473982            8 
 2789000   0.84161563   -7.0180028    766.44474  0.022900823  0.022466816            6 
 2790000   0.80699488   -6.9854913    769.34104  0.022979123  0.022459653           23 
 2791000   0.79856262   -6.9922523    768.56497  0.022947718   0.02245251            8 
 2792000   0.78875606   -6.9966221    766.84068  0.022888034  0.022445332           12 
 2793000   0.80208455   -7.0111228    767.79941  0.022908444  0.022438127           15 
 2794000   0.80871305   -7.0006599    768.83282  0.022931067  0.022430963           12 
 2795000   0.78283789   -6.9751241    769.73663   0.02294981  0.022423854           17 
 2796000   0.80304078   -7.0159318    769.20139  0.022925649  0.022416729           21 
 2797000   0.80998724   -6.9899793    767.98143  0.022881106  0.022409592           19 
 2798000   0.80825749   -7.0158093    769.34139  0.022913432  0.022402435           19 
 2799000   0.79863482    -6.966443    769.72782  0.022916751  0.022395313           69 
 2800000   0.81575055   -7.0089831    770.57549  0.022933794  0.022388212           10 
 2801000   0.78738646   -7.0360122    767.18627  0.022824773  0.022381082           15 
 2802000   0.81632746   -7.0089056    770.06028  0.022902102  0.022374006           18 
 2803000   0.80038321    -6.991289    770.68804  0.022912595  0.022366913           21 
 2804000   0.80351758   -6.9919098    770.61356   0.02290221  0.022359844           12 
 2805000   0.78217262   -6.9676278    771.19947  0.022911452  0.022352761           12 
 2806000   0.80333366   -6.9720884     770.7897  0.022891117  0.022345673            8 
 2807000   0.80156104   -7.0031096    770.24276  0.022866725  0.022338603           24 
 2808000   0.80040124   -6.9929339    770.12187  0.022854994  0.022331524           12 
 2809000   0.77876406   -7.0034552    771.22746  0.022879657  0.022324479           28 
 2810000    0.7978343   -7.0151607    768.95147  0.022804017   0.02231736           13 
 2811000   0.79820004   -6.9859095    769.16135  0.022802127  0.022310259           19 
 2812000   0.80967721   -7.0296149     770.3641  0.022829662  0.022303145           10 
 2813000   0.80940169   -7.0363152    770.01638  0.022811245  0.022295997           18 
 2814000   0.80081665   -7.0281391    766.96029  0.022712636  0.022288802           18 
 2815000   0.80513502   -7.0300439    768.95894  0.022763734  0.022281648           11 
 2816000   0.80939184   -7.0200588    768.62597  0.022745797  0.022274532           14 
 2817000   0.79691581   -6.9864956    768.45407  0.022732637  0.022267453           11 
 2818000   0.79555763   -7.0061007    770.97598  0.022799148  0.022260334           10 
 2819000   0.78605521    -6.994941    771.28119  0.022800082  0.022253244            6 
 2820000   0.78830952   -6.9979476    770.99525  0.022783548  0.022246174           17 
 2821000   0.80078251   -6.9890715    771.23176  0.022782458  0.022239097            7 
 2822000   0.81427584   -7.0291572    768.94986     0.022707  0.022231997           10 
 2823000   0.78633977   -7.0108185    771.18637  0.022764977  0.022224938            8 
 2824000   0.79575767   -6.9918704    770.59359  0.022739424  0.022217886            7 
 2825000   0.79153109   -6.9928366     771.0735  0.022745531  0.022210877            8 
 2826000   0.79887083   -6.9738294    769.89491  0.022702728  0.022203802            9 
 2827000   0.78648765   -7.0162965    770.62894  0.022716335  0.022196709           11 
 2828000   0.80182744   -7.0118632    771.96455  0.022747659  0.022189628            7 
 2829000   0.80242024   -6.9979487    770.26539  0.022689566  0.022182592            9 
 2830000   0.80054627   -7.0277908    770.54343  0.022689736  0.022175545           14 
 2831000   0.79552921   -6.9880237    770.55714  0.022682125  0.022168461           10 
 2832000    0.7856949   -6.9963253    771.50011  0.022701863   0.02216139           10 
 2833000     0.806009   -7.0171477    771.09883  0.022682046  0.022154283           16 
 2834000   0.81128125   -6.9954912    770.90573  0.022668364  0.022147225            9 
 2835000   0.79366237    -7.022042    769.86564  0.022629795  0.022140173           12 
 2836000   0.79076873    -7.033974    770.58132  0.022642846  0.022133057           23 
 2837000   0.82648935   -7.0333591    769.33064  0.022598127  0.022125982           10 
 2838000    0.7868855   -7.0323579    770.97761  0.022638525  0.022118869           19 
 2839000    0.7961311   -7.0212422    770.82082  0.022625949  0.022111781           15 
 2840000   0.80376175   -7.0398069    770.10231  0.022596899  0.022104673           31 
 2841000   0.81406142   -7.0022961    772.22477  0.022651202  0.022097538           16 
 2842000   0.81899747   -7.0178215    768.02558  0.022520103  0.022090467            7 
 2843000   0.80967143   -7.0449535    769.93279  0.022568085  0.022083365           10 
 2844000   0.78975439   -6.9924177    771.64696  0.022610377  0.022076295            9 
 2845000   0.79477334   -6.9905297    770.45683   0.02256757  0.022069272            8 
 2846000   0.81416815    -6.996924    770.25193  0.022553641  0.022062202           13 
 2847000   0.79856563   -6.9949443    770.96728  0.022566657  0.022055172           10 
 2848000    0.7937515   -6.9761282    773.08049  0.022620567   0.02204813           10 
 2849000   0.81348896   -7.0222144    771.41083  0.022563789  0.022041094            9 
 2850000   0.79635387   -7.0171483    770.06438  0.022516502  0.022034022           15 
 2851000   0.80518428   -7.0434782    770.55409  0.022522919  0.022026939            4 
 2852000   0.80357333   -7.0166201    770.98996  0.022527757  0.022019833           13 
 2853000   0.80118164   -7.0592636    769.79631  0.022484996  0.022012743           19 
 2854000   0.79438228   -7.0473584    770.19535  0.022488769  0.022005592           13 
 2855000   0.80647948   -7.0155026    772.04562  0.022534898  0.021998426           10 
 2856000   0.78657513   -7.0514103     769.7098  0.022458853  0.021991233           11 
 2857000   0.79666714   -7.0300455    769.10835  0.022433449  0.021984088           19 
 2858000   0.79098243   -7.0442542    769.64498  0.022441246  0.021976905           12 
 2859000   0.79649774   -7.0606906    770.93953   0.02247113  0.021969749           19 
 2860000   0.79593427   -7.0390063    769.18697  0.022412208  0.021962626           25 
 2861000   0.79086971   -7.0396714    771.81768     0.022481  0.021955548           21 
 2862000   0.78874705   -7.0303854    772.53409  0.022494004  0.021948438            9 
 2863000   0.78754724   -7.0250246    772.15528  0.022475122  0.021941383           17 
 2864000   0.79465353   -7.0225144    772.92329  0.022489621  0.021934333            7 
 2865000   0.80301561   -7.0244438     771.7596  0.022447923  0.021927302            7 
 2866000   0.79109713   -7.0337781    770.90545  0.022415255  0.021920219            6 
 2867000    0.7971757   -7.0132002    771.99186  0.022439015  0.021913151            6 
 2868000   0.78120609    -7.029881    771.07854  0.022404653  0.021906037           11 
 2869000    0.7840417   -7.0342831    771.18042  0.022399803  0.021898947           10 
 2870000   0.78661346   -7.0475588    772.76924  0.022438131  0.021891845           12 
 2871000   0.80850381   -7.0390157    770.64951  0.022368789  0.021884753           14 
 2872000   0.79794252   -7.0285233    771.89038  0.022397005  0.021877673           14 
 2873000   0.80514621    -6.998709    772.02473  0.022393106  0.021870643           17 
 2874000    0.7824931   -7.0382293    772.12408  0.022388195  0.021863602            8 
 2875000   0.77690191    -7.039281    773.64003  0.022424349  0.021856565           22 
 2876000   0.80011712   -7.0053095    772.96516  0.022396997  0.021849555           10 
 2877000   0.79738404   -6.9917915    772.78844  0.022384093  0.021842555            7 
 2878000   0.77570998   -7.0505003    769.58545  0.022283572  0.021835469           15 
 2879000   0.78446499    -7.050383     772.2631  0.022353337  0.021828442            8 
 2880000   0.79534207   -7.0222243    774.70241  0.022416158  0.021821402           12 
 2881000   0.77054637   -7.0273728    773.76327  0.022381212  0.021814364           13 
 2882000    0.7975043   -7.0586213    771.44926  0.022306537  0.021807291           11 
 2883000   0.79718168   -6.9863757    772.21369  0.022320895  0.021800224            8 
 2884000   0.78205161   -7.0270411    771.91732  0.022304592  0.021793134           31 
 2885000   0.78115217    -7.049462    770.04854  0.022242881  0.021786036           18 
 2886000   0.79581205   -7.0437429    772.82287  0.022315283  0.021778918           16 
 2887000   0.77745006   -7.0564293    771.14863  0.022259226   0.02177181           30 
 2888000   0.79226951   -7.0352429    770.82986   0.02224232  0.021764743           16 
 2889000   0.76876266   -7.0386724    771.55419  0.022255515   0.02175771           11 
 2890000   0.79120205   -7.0110171    773.16133  0.022294156  0.021750638           14 
 2891000   0.79812281   -7.0197807    772.52493    0.0222681  0.021743589            5 
 2892000   0.79005617   -7.0273966    771.95815  0.022244068  0.021736547           13 
 2893000   0.79102836   -7.0445198     770.8652  0.022204897  0.021729492           21 
 2894000   0.78217885   -7.0462082    771.87717  0.022226364  0.021722362           13 
 2895000   0.78005695   -7.0283557    771.01111  0.022193757  0.021715249           16 
 2896000   0.77502344    -7.077157    770.22702  0.022163531  0.021708143           11 
 2897000    0.7778182    -7.056741    773.08898  0.022238206  0.021701037            6 
 2898000   0.78867127     -7.03535    772.34616  0.022209172  0.021693917            7 
 2899000   0.77926663   -7.0370552    773.70781  0.022240652  0.021686853           13 
 2900000   0.78585507   -7.0382151    772.06985  0.022185915  0.021679781           11 
 2901000   0.78543608    -7.046949    772.19819  0.022181954  0.021672711            9 
 2902000   0.79145812   -7.0219029    775.75919  0.022276567  0.021665651           14 
 2903000   0.78797917   -7.0692815    770.44243  0.022116271  0.021658633           15 
 2904000   0.79590369   -7.0291524    772.58881  0.022170248  0.021651603           14 
 2905000   0.77939997   -7.0207405    772.55113  0.022161536  0.021644551           14 
 2906000   0.78719679   -7.0358293    772.73846  0.022159281  0.021637494           17 
 2907000   0.78629174   -7.0391258    774.37155  0.022198473  0.021630479            8 
 2908000   0.78451081   -7.0505674    771.08415  0.022096634  0.021623431           27 
 2909000   0.78316325   -7.0389394    772.49407  0.022129428  0.021616353            7 
 2910000    0.7898347    -7.040625    771.94985  0.022106239  0.021609281           10 
 2911000   0.77563279   -7.0637768    773.06402   0.02213054  0.021602219            6 
 2912000   0.77872079   -7.0325903    772.29682  0.022100985  0.021595127           11 
 2913000   0.78150191    -7.066105    770.44112  0.022040311  0.021588063            5 
 2914000   0.78540943   -7.0599365    772.41896  0.022089309   0.02158099           10 
 2915000   0.79001915   -7.0518769    774.05659  0.022128547  0.021573874           13 
 2916000   0.79493165   -7.0283585    771.60815  0.022050987   0.02156677           13 
 2917000   0.78204295   -7.0500769    770.97794  0.022025424    0.0215597            6 
 2918000   0.79795749   -7.0420064    771.27789  0.022026442  0.021552587           10 
 2919000   0.76422981   -7.0473463    772.44614  0.022052248  0.021545539            8 
 2920000   0.77769612    -7.045079    772.99365  0.022060321  0.021538457            4 
 2921000   0.79007498   -7.0252561    773.81962  0.022076333  0.021531424           10 
 2922000   0.80242586   -7.0318729    771.92429  0.022014724  0.021524379            8 
 2923000     0.787958   -7.0351313    772.04458  0.022010622  0.021517308           15 
 2924000   0.79098785   -7.0638703     772.8528  0.022026129  0.021510285            8 
 2925000   0.77360616   -7.0349931    774.93587  0.022077945  0.021503239            6 
 2926000    0.7774811   -7.0410976    773.30949   0.02202408  0.021496201           20 
 2927000    0.7962286    -7.063205    771.70457  0.021970862  0.021489135           41 
 2928000   0.79034877   -7.0562194    772.30763  0.021980522  0.021482078           22 
 2929000   0.79254097   -7.0337245    773.65753  0.022011424  0.021475033            9 
 2930000   0.78927246   -7.0453005    774.10859   0.02201674  0.021467997           21 
 2931000    0.7777239   -7.0427779    773.16179  0.021982309   0.02146094            9 
 2932000   0.80707085   -7.0307955    774.95821   0.02202587  0.021453918           11 
 2933000   0.75697809   -7.0689131    772.23162  0.021940892  0.021446892           13 
 2934000   0.77328862   -7.0836383    773.39761  0.021966531  0.021439817           27 
 2935000   0.78058805   -7.0545367     773.3058  0.021956439  0.021432775           14 
 2936000   0.77262326   -7.0959032    773.83456  0.021963969  0.021425759           16 
 2937000   0.79759685   -7.0447859    775.79945  0.022012242   0.02141871            8 
 2938000   0.78638313   -7.0318557    776.09777  0.022013211  0.021411698            7 
 2939000   0.78584534   -7.0826047    773.05269   0.02191938  0.021404667           23 
 2940000   0.80368938   -7.0664031    773.86809  0.021935037  0.021397615           23 
 2941000   0.79460475   -7.0554497    774.71474  0.021951568  0.021390557            7 
 2942000   0.77169013   -7.0901275    772.26948  0.021874844   0.02138349            9 
 2943000   0.77556339   -7.0572472    774.65876  0.021935065  0.021376432           16 
 2944000   0.77336074   -7.0689439    774.51813  0.021923634  0.021369458            5 
 2945000   0.78731896   -7.0828269    773.10263  0.021876136  0.021362467           11 
 2946000   0.79936873   -7.1023501    772.77789  0.021859524   0.02135549            9 
 2947000   0.76559169   -7.0927626    775.16235  0.021919533  0.021348469            6 
 2948000   0.76205326   -7.0577979    775.58342     0.021924  0.021341484           10 
 2949000   0.80194411   -7.0670189    774.25214  0.021878946  0.021334505            8 
 2950000   0.78615828   -7.0397838    775.36895  0.021903078  0.021327505           22 
 2951000   0.78428688   -7.0715775    772.18337  0.021805698  0.021320523            8 
 2952000   0.76777842   -7.0652323    775.59564  0.021894638  0.021313559           20 
 2953000   0.79078088   -7.0737679    774.60257  0.021859199  0.021306576           23 
 2954000   0.79007209   -7.0585268     773.9454   0.02183326  0.021299629           18 
 2955000   0.79080301   -7.0691091    774.82359  0.021850637   0.02129266           15 
 2956000   0.78491125   -7.1047658     773.0116  0.021792163  0.021285654           14 
 2957000   0.77386607   -7.1185025    772.42799  0.021768346  0.021278605           21 
 2958000   0.79597325   -7.0871242     773.7141  0.021797219   0.02127157           13 
 2959000   0.78616904   -7.0660103    774.08836  0.021800393  0.021264587           11 
 2960000   0.77732077    -7.074035    773.34314  0.021772048  0.021257627           11 
 2961000      0.77886   -7.0874551    774.76192  0.021804625  0.021250626            5 
 2962000   0.76108352   -7.0929605    774.04475  0.021777086  0.021243596            8 
 2963000   0.76713525   -7.0777226    774.02947  0.021769307  0.021236622            8 
 2964000   0.77367772   -7.0934115    775.83824  0.021812816  0.021229692           14 
 2965000   0.77274032    -7.106854    775.33846  0.021791413  0.021222752           10 
 2966000   0.77235973   -7.0762956     776.5027  0.021816776  0.021215801           16 
 2967000   0.76207868   -7.0754608    775.98523  0.021794889  0.021208862           12 
 2968000   0.77084995    -7.065644     776.5877  0.021804462  0.021201953           12 
 2969000   0.78641897   -7.0904131    775.96478  0.021779634  0.021195048           19 
 2970000   0.78291806   -7.0797667     775.8363  0.021768695  0.021188127           19 
 2971000   0.78512822    -7.072393    776.68114  0.021785065  0.021181207           13 
 2972000   0.76068504   -7.0914599    776.16709  0.021763321  0.021174279           32 
 2973000   0.75445083   -7.0502231    775.53976  0.021738417  0.021167393           12 
 2974000   0.79227802   -7.0792679    774.31458  0.021696777  0.021160507            8 
 2975000   0.77033235   -7.0931996    775.76839  0.021730207  0.021153605           11 
 2976000   0.76772498   -7.0673739    774.48109  0.021686859  0.021146685            8 
 2977000   0.78512936   -7.1016678    776.04281   0.02172329  0.021139804           22 
 2978000   0.77001901   -7.1068037    774.17976  0.021663862  0.021132875            8 
 2979000   0.77548269   -7.0811649     773.7843  0.021645527  0.021125928           20 
 2980000   0.76999857   -7.0861309    777.25128  0.021735215  0.021119012           11 
 2981000   0.78534987   -7.0827462    775.20591  0.021670745  0.021112147           12 
 2982000   0.76437852   -7.1145223    774.74941  0.021650721   0.02110524           10 
 2983000   0.77379617   -7.0628535    776.68181  0.021697447  0.021098376           15 
 2984000   0.76234026   -7.1059652    776.63673  0.021688917  0.021091525           13 
 2985000   0.77700899   -7.0651851    776.60591   0.02168079  0.021084669           10 
 2986000   0.77398881   -7.0640022    777.81625  0.021707308  0.021077801            8 
 2987000   0.75633994   -7.0364523    779.12556  0.021736569  0.021070952            9 
 2988000   0.78374172   -7.0692814    778.03597  0.021698906  0.021064079           17 
 2989000   0.78801015   -7.0813759    778.16247  0.021695173  0.021057208           16 
 2990000   0.77705234    -7.078045    775.90322   0.02162495  0.021050335            9 
 2991000   0.77774742   -7.0958473    776.63893  0.021638218  0.021043453           11 
 2992000    0.7761526   -7.1102103    775.43098  0.021597342  0.021036553           12 
 2993000   0.75680101    -7.091555    776.58019  0.021622124  0.021029622           10 
 2994000   0.76909036   -7.0654013    776.13963  0.021602639  0.021022749           17 
 2995000   0.77713721   -7.0575611    777.67449  0.021638133  0.021015875            8 
 2996000    0.7744676    -7.085622    777.01393  0.021612537  0.021009011            8 
 2997000   0.77787467   -7.1128593    775.80037  0.021571582  0.021002129           19 
 2998000   0.77928466   -7.1098391     775.5214  0.021556632  0.020995227           35 
 2999000   0.77401056   -7.0855352    777.68115  0.021609457  0.020988326           21 
 3000000   0.75479177   -7.0699956    777.56443  0.021599012   0.02098147           37 
 3001000   0.78975836   -7.0899994    777.21264  0.021582046  0.020974588           23 
 3002000   0.76801587   -7.1158654    775.74508  0.021534118  0.020967679           30 
 3003000   0.77194221   -7.0620954    777.43349  0.021573801  0.020960807           35 
 3004000   0.78886172    -7.113444    774.44617  0.021483749  0.020953932           31 
 3005000   0.76392303   -7.0679409    777.81059    0.0215699   0.02094708           12 
 3006000    0.7686963   -7.0648346    778.11593  0.021571189  0.020940279            9 
 3007000   0.76821003   -7.0806354    778.83125  0.021583839  0.020933446           15 
 3008000   0.76271468   -7.0977256    777.81418  0.021548487   0.02092663            6 
 3009000   0.77447857   -7.0973769    775.71498  0.021483189  0.020919781           25 
 3010000   0.76777091   -7.0995365    776.75722  0.021504906  0.020912926           13 
 3011000   0.77103577   -7.1096373    775.77677  0.021470629  0.020906049            7 
 3012000   0.76617312    -7.121599    776.50308  0.021483595  0.020899162           10 
 3013000   0.75131642   -7.1082508    775.60315  0.021451575   0.02089229            7 
 3014000   0.78192359    -7.105871     775.6384  0.021445433  0.020885369           13 
 3015000   0.75085705   -7.1271374    776.68897  0.021467357  0.020878456           12 
 3016000   0.78373708   -7.1003189     776.8343  0.021464254  0.020871566           11 
 3017000   0.78875521    -7.123497     774.4644  0.021391681  0.020864693           15 
 3018000   0.76964921   -7.0830203    777.18646  0.021459754  0.020857832           20 
 3019000   0.76008741    -7.108695    776.84098   0.02144311  0.020850955           12 
 3020000   0.76973807   -7.0997902    776.23885  0.021419394  0.020844085           13 
 3021000   0.76883664   -7.1150285     779.4975  0.021502193  0.020837244           18 
 3022000   0.77805387   -7.1128623    776.42262  0.021410286  0.020830411           14 
 3023000   0.77949515   -7.1199299    779.63577  0.021491779   0.02082358            9 
 3024000   0.77729643   -7.1089281    777.40986  0.021423332  0.020816722           13 
 3025000   0.77209654   -7.1048177    776.68893  0.021396389  0.020809836           19 
 3026000   0.75756581   -7.1101825    777.59318  0.021414221  0.020802929           13 
 3027000   0.76700351   -7.0955363    778.33362   0.02142753  0.020796093            8 
 3028000   0.78277308   -7.1106116    778.47194  0.021424261  0.020789248           13 
 3029000   0.75636807   -7.0830716    778.39658  0.021415115  0.020782405           29 
 3030000    0.7736402   -7.1050753     776.9603  0.021368545  0.020775572            7 
 3031000   0.77431682   -7.1021682    778.32597  0.021399042  0.020768756           15 
 3032000   0.76944614    -7.081183    778.60032  0.021399525  0.020761936           29 
 3033000   0.75615281   -7.0953722    779.39159   0.02141421  0.020755137            6 
 3034000   0.77701503   -7.0709185      778.713  0.021388513   0.02074836            9 
 3035000   0.76907146   -7.1137645    777.62832  0.021351684   0.02074154           17 
 3036000   0.76204456   -7.0925528    779.11516  0.021385462  0.020734765           13 
 3037000   0.77308756   -7.0643044    779.40576  0.021386394   0.02072801           13 
 3038000   0.75596616   -7.0933474    778.94728  0.021366779  0.020721268           13 
 3039000   0.76205777     -7.10985    779.99691   0.02138853  0.020714501           11 
 3040000   0.75991315   -7.0795878    779.52132  0.021368457  0.020707746           11 
 3041000   0.75766943   -7.0911151    778.97171  0.021346369  0.020700987           16 
 3042000   0.77235037    -7.106805    777.76218  0.021306218  0.020694193           13 
 3043000   0.75321073   -7.1245318    777.43167  0.021290165    0.0206874           16 
 3044000   0.76784837    -7.121638    778.13373  0.021302391  0.020680604           20 
 3045000   0.75480963   -7.1072021    779.23229  0.021325459  0.020673785           16 
 3046000   0.76369663   -7.0815764    779.05128  0.021313506  0.020666995           10 
 3047000   0.76997421   -7.1180863    777.39323  0.021261165  0.020660208            8 
 3048000   0.77828622   -7.1147978    778.78058   0.02129212  0.020653434           14 
 3049000   0.74980541   -7.1079815    778.98776  0.021290799  0.020646629           12 
 3050000   0.75403902   -7.0996411    778.20791  0.021262511  0.020639857           11 
 3051000   0.76210089   -7.0941061     778.2277  0.021256083   0.02063307           14 
 3052000   0.75263178   -7.1451851    777.06539  0.021217382  0.020626298           10 
 3053000   0.76816141   -7.1139351    775.49408  0.021167542  0.020619504           13 
 3054000   0.79449224   -7.1373461    779.20284  0.021261811  0.020612739            7 
 3055000   0.74839635   -7.0855588    778.53639  0.021236672  0.020605979           12 
 3056000   0.76117489   -7.1038799    779.30608  0.021250711  0.020599238           15 
 3057000   0.77851994   -7.0901447     779.6953   0.02125437  0.020592488            9 
 3058000   0.78138104   -7.1105363    779.90189  0.021253049  0.020585731            9 
 3059000   0.77245833   -7.1275598    777.51894  0.021181185  0.020578928           14 
 3060000   0.78521782   -7.1327065    777.23785  0.021166608  0.020572088           15 
 3061000   0.75624155   -7.1335027    776.38878  0.021136578  0.020565278           23 
 3062000   0.76526541   -7.1070596    779.71348  0.021220158  0.020558484           13 
 3063000   0.76380796   -7.1533212    777.52618  0.021153721  0.020551662           20 
 3064000   0.76215153   -7.1193275    779.07614  0.021188973  0.020544851           10 
 3065000   0.76959328   -7.1355088    777.73621  0.021145628  0.020538026           22 
 3066000   0.76902636   -7.1445153    778.19417  0.021151179  0.020531183           17 
 3067000    0.7607995   -7.1195861    781.22879  0.021226736  0.020524383           13 
 3068000   0.77182644   -7.1446991    777.20285  0.021110464  0.020517575           21 
 3069000    0.7661546   -7.1404166    778.75516  0.021145736  0.020510757           15 
 3070000   0.74555568   -7.1226231    777.06452  0.021092957  0.020503971            9 
 3071000   0.74804055   -7.1142958    777.94633  0.021110016  0.020497173           16 
 3072000   0.75847057   -7.1081963    779.26928  0.021139032  0.020490421            7 
 3073000   0.76114249   -7.1117988    778.13599  0.021101421  0.020483647           20 
 3074000   0.77878191    -7.108318    779.28337  0.021125661  0.020476893           27 
 3075000    0.7687512   -7.1138061    780.48247  0.021151286  0.020470127           20 
 3076000   0.76011864   -7.1312151    779.30547  0.021112524  0.020463366           17 
 3077000   0.75461358   -7.0859599    779.51541  0.021111348  0.020456657            6 
 3078000   0.76306266   -7.1088329    780.89975  0.021141968   0.02044995           24 
 3079000   0.75860909   -7.1179339    779.32438  0.021092465  0.020443262           22 
 3080000   0.76893514   -7.1222491    777.88711  0.021046729  0.020436524           15 
 3081000   0.76954127   -7.1103926    779.02194  0.021070592  0.020429807            8 
 3082000   0.75412169   -7.1263902    779.14475  0.021067076  0.020423065            8 
 3083000   0.76339725   -7.1239777    779.29469  0.021064296  0.020416351           13 
 3084000   0.75898074   -7.1215547    779.38651  0.021059947  0.020409598            9 
 3085000   0.75652928   -7.1868262    777.32826  0.020997522  0.020402809           27 
 3086000   0.74614854   -7.1168063    781.26517  0.021097029  0.020396058           17 
 3087000   0.77259754   -7.1069231    781.23239   0.02108931  0.020389386           26 
 3088000   0.75373446   -7.1139379    781.01665  0.021076658  0.020382699           11 
 3089000   0.76393604   -7.1197754    779.27629  0.021022885  0.020376014            9 
 3090000   0.78010385   -7.1267779    780.74672  0.021055737  0.020369298           22 
 3091000   0.76612212   -7.1546518    778.68335  0.020993296  0.020362574           22 
 3092000   0.76296272   -7.1207596    779.90166  0.021019342  0.020355879           19 
 3093000   0.76347802   -7.0946072    780.45049  0.021027333  0.020349176           47 
 3094000   0.75922051   -7.1416679    779.56138   0.02099659  0.020342469           12 
 3095000   0.75849019   -7.1429062    779.04793  0.020975981  0.020335726           13 
 3096000   0.75470968   -7.1397475    779.28063  0.020975469  0.020328971            8 
 3097000   0.76229386     -7.13599    777.16707  0.020911825  0.020322206           12 
 3098000    0.7515132   -7.1333317    779.77495  0.020975225  0.020315456           19 
 3099000   0.75867193   -7.1553759    779.65123  0.020965129  0.020308739            8 
 3100000   0.75865644   -7.1457532    779.40619  0.020951779  0.020301983            9 
 3101000   0.74516628   -7.1454671    779.79126  0.020955371  0.020295236           20 
 3102000   0.76718018   -7.1201308    780.34601  0.020963518  0.020288502           15 
 3103000   0.75690485   -7.1569748    778.99739  0.020920544  0.020281755           31 
 3104000   0.75254746   -7.1216402    780.58378  0.020956394  0.020275044           18 
 3105000   0.74528704   -7.1139426    778.51294  0.020894067   0.02026835           11 
 3106000   0.74794913   -7.1389933    780.47671  0.020940028   0.02026166           16 
 3107000   0.74992648    -7.138048     780.7961  0.020941854  0.020255003           16 
 3108000   0.74579162   -7.1235541    781.27952  0.020948078   0.02024832            8 
 3109000   0.73980828   -7.1232408    780.62857  0.020923892  0.020241577           19 
 3110000   0.76951229   -7.1526346    779.54331  0.020888085   0.02023489           13 
 3111000   0.75907465   -7.1651104    776.82274  0.020808495   0.02022818           17 
 3112000   0.76008523   -7.1576847    776.67497  0.020797851   0.02022146           16 
 3113000   0.76203955   -7.1256342    779.90701  0.020877691  0.020214754           13 
 3114000   0.75993317   -7.1595981    777.92658  0.020817988  0.020208031           21 
 3115000   0.73700873   -7.1510526    778.77179  0.020833916  0.020201322           16 
 3116000   0.76359424    -7.138644    779.74567  0.020853275  0.020194603           24 
 3117000   0.75219906   -7.1715985    779.46395  0.020839053  0.020187877           14 
 3118000   0.75095482     -7.13957    779.96173  0.020845674   0.02018116           13 
 3119000     0.746488   -7.1868621    777.64992  0.020777223  0.020174444           18 
 3120000   0.74075074   -7.1491578    779.35118  0.020816004  0.020167696           24 
 3121000   0.75707141   -7.1447225    778.89121  0.020797053  0.020160988           20 
 3122000   0.74503797   -7.1438291    779.12404  0.020796606  0.020154254           27 
 3123000   0.73539061   -7.1387521     780.1611  0.020817619   0.02014756           20 
 3124000   0.76125055   -7.1339867    779.09614  0.020782547  0.020140846           31 
 3125000   0.76308596   -7.1820845    775.81079  0.020688288   0.02013412           26 
 3126000    0.7556426   -7.1632197    779.49395  0.020779856  0.020127397           43 
 3127000   0.75689438   -7.1908948    778.73348  0.020752944  0.020120669           44 
 3128000   0.75812556   -7.1497754    776.89551  0.020697344  0.020113945           31 
 3129000   0.72663146   -7.1520993    778.41543  0.020731209  0.020107198           17 
 3130000   0.75773882   -7.1827024    779.08004   0.02074228  0.020100424           45 
 3131000   0.76183707   -7.1542029    780.61317   0.02077646  0.020093681           13 
 3132000   0.75876924   -7.1569513     779.1032  0.020729651  0.020086947           24 
 3133000   0.74473925   -7.1753644    778.84406  0.020716142  0.020080212           25 
 3134000   0.75185062   -7.1781092    778.68653  0.020705343  0.020073442           39 
 3135000   0.74732295   -7.1390536     779.5013  0.020720396  0.020066694           15 
 3136000     0.752926   -7.1853359    779.81827  0.020722212  0.020059955           15 
 3137000   0.75847008    -7.165017    778.17002  0.020671821  0.020053226           21 
 3138000   0.76813096   -7.1306618    779.82026  0.020709057  0.020046533           38 
 3139000   0.74999767   -7.1510692    779.35901  0.020690215  0.020039847           23 
 3140000   0.75678618   -7.1368855    779.83161  0.020696168  0.020033154           19 
 3141000   0.75265126   -7.1534912    779.50051  0.020680795  0.020026456           22 
 3142000   0.76227873   -7.1476922    779.11082  0.020663877  0.020019744           14 
 3143000   0.75832367   -7.1828527    778.34851  0.020637091  0.020013033           10 
 3144000   0.75160456   -7.1670284    780.28858  0.020681949  0.020006365           10 
 3145000   0.75300982   -7.1216829    780.48911  0.020680686  0.019999712           13 
 3146000   0.74980786   -7.1636349    780.52268  0.020675002  0.019993081           11 
 3147000   0.75212263    -7.141549    780.89041   0.02067817  0.019986385           23 
 3148000   0.73360947   -7.1634425    780.93991  0.020672912  0.019979716           21 
 3149000   0.76001522   -7.1607347    779.98763  0.020641146  0.019973061           11 
 3150000   0.76177338   -7.1680717    779.70737  0.020627179  0.019966406            9 
 3151000   0.74566895   -7.1752512    777.71078   0.02056783   0.01995972           10 
 3152000   0.74430198   -7.1506014    781.18134   0.02065306   0.01995303           15 
 3153000   0.75164658    -7.163478    780.87138  0.020638318  0.019946347           13 
 3154000   0.75853532   -7.1465326    780.81908  0.020630392  0.019939676           19 
 3155000   0.73963035   -7.1413126    780.97759   0.02062804  0.019933017           15 
 3156000   0.73697538   -7.1876419    778.63067  0.020559534  0.019926336           16 
 3157000   0.74902384   -7.1650284    779.59544  0.020578488  0.019919619           18 
 3158000    0.7503159   -7.1754756     776.8661   0.02049995  0.019912874           35 
 3159000   0.75255028   -7.1449876    779.64296  0.020566713   0.01990613           23 
 3160000   0.75182238   -7.1604856     779.7816  0.020563861  0.019899426           11 
 3161000   0.74572209   -7.1699077    778.56883  0.020525383  0.019892728           22 
 3162000   0.74132131    -7.134631    778.14398  0.020507695  0.019886011           24 
 3163000   0.76201016   -7.1531171    776.89879  0.020468405   0.01987931           19 
 3164000   0.74106528   -7.1894909    777.83227  0.020486522  0.019872593           14 
 3165000   0.73825821   -7.1687214    779.68537  0.020528841  0.019865885           25 
 3166000   0.74012044   -7.1426329    780.41663  0.020541604  0.019859201            9 
 3167000   0.74365877   -7.1450373    779.71533  0.020516665  0.019852523           10 
 3168000    0.7470663   -7.1430476    780.49704  0.020530751  0.019845883           15 
 3169000   0.73167336   -7.1453098     780.7499  0.020530922  0.019839253           10 
 3170000   0.74638033   -7.1637186    780.73036  0.020523932   0.01983261           17 
 3171000   0.74359172    -7.162076    780.39004  0.020508516  0.019825953           18 
 3172000   0.73345198   -7.1615826    780.25679   0.02049855  0.019819327           17 
 3173000   0.74550885   -7.1917734    779.19534  0.020464212  0.019812687           13 
 3174000   0.74381022   -7.1569538    781.19708   0.02051032  0.019806054            7 
 3175000    0.7385027   -7.1594645    781.77305  0.020518978  0.019799438           10 
 3176000   0.75021043    -7.155907    781.02796  0.020492967  0.019792805           12 
 3177000   0.73241566   -7.1631238    782.52269  0.020525724  0.019786197           11 
 3178000   0.74178789   -7.1755493    779.74046   0.02044631  0.019779585           15 
 3179000   0.74440357   -7.1440596    781.59291  0.020488437  0.019772966           14 
 3180000   0.73922876   -7.1663908    780.71588  0.020459011  0.019766344           11 
 3181000   0.73927152      -7.1522    780.33496  0.020442601  0.019759725           11 
 3182000   0.74921823   -7.1631429    780.25202  0.020434004  0.019753101            8 
 3183000   0.74248679    -7.143886    783.31892  0.020507878  0.019746496            9 
 3184000   0.74643272   -7.1839958    781.20998  0.020446241  0.019739879           28 
 3185000   0.74451185   -7.1814296    782.39247  0.020470761  0.019733261            9 
 3186000   0.74565489   -7.1676827    782.44374  0.020465676  0.019726656            7 
 3187000   0.73766374   -7.1769119    780.41169  0.020406121  0.019720062           13 
 3188000   0.73165851    -7.190199     782.5244  0.020454946  0.019713447           20 
 3189000   0.73899259   -7.1715667    781.55657  0.020423241  0.019706811           18 
 3190000   0.72687509   -7.1745854    781.29766  0.020410075  0.019700192           44 
 3191000    0.7520797   -7.1735345    780.42514  0.020380893  0.019693581           24 
 3192000   0.73816781   -7.1935364    780.55186  0.020377816  0.019686972           23 
 3193000   0.72545828    -7.147771    781.77413  0.020403333  0.019680332            9 
 3194000   0.75265021   -7.2023251    780.13252  0.020354115  0.019673684           13 
 3195000   0.73635352   -7.1838915    778.54104  0.020306235  0.019667072           13 
 3196000   0.73526932   -7.1713642    778.94072  0.020310303  0.019660454           21 
 3197000   0.73510536   -7.2053868    779.97859  0.020331003  0.019653843            7 
 3198000   0.73982041   -7.1694398    782.07417  0.020379252  0.019647254            9 
 3199000   0.74683562   -7.1968683    780.65276  0.020335854  0.019640675           16 
 3200000   0.73905652    -7.181902    782.80656  0.020385588  0.019634089            8 
 3201000   0.74466322   -7.1768731    780.90724  0.020329773  0.019627505           13 
 3202000   0.75390309   -7.1784923    781.22874  0.020331791  0.019620924           10 
 3203000    0.7238082   -7.1886751    781.67794   0.02033713  0.019614358           14 
 3204000    0.7409787   -7.1825264     781.2524  0.020319715  0.019607772           13 
 3205000   0.74698358   -7.1740053    782.11444  0.020335789  0.019601208           17 
 3206000   0.74769553   -7.1666095    782.92767  0.020350584   0.01959467           19 
 3207000   0.74920119   -7.1540994    782.83493  0.020341829  0.019588145           19 
 3208000   0.73887434   -7.1693384    781.23399    0.0202939  0.019581624           19 
 3209000   0.75820441   -7.1681131    782.55809  0.020321961   0.01957507           18 
 3210000   0.72806008   -7.1788361    782.26119  0.020307923  0.019568497           16 
 3211000   0.73414169   -7.1877637    781.42312  0.020279849  0.019561933           11 
 3212000   0.73886152   -7.1916966      782.543  0.020302589  0.019555374           45 
 3213000   0.73238793   -7.2225326    780.01237  0.020230635  0.019548806           24 
 3214000   0.73064672   -7.2337804    781.51486  0.020263297   0.01954226           22 
 3215000   0.72679097   -7.1911139    780.97023  0.020242878  0.019535692           19 
 3216000    0.7402368   -7.1898591    781.41107  0.020248007  0.019529132            6 
 3217000    0.7389519   -7.1937385    781.70487  0.020249323   0.01952257           14 
 3218000    0.7405788   -7.1744307    782.23844  0.020256848  0.019516004            6 
 3219000    0.7346532   -7.1693334    781.89821  0.020241747  0.019509489           13 
 3220000   0.72048503   -7.1864636    782.60219   0.02025368   0.01950293           14 
 3221000   0.74368628   -7.1949451    782.83168  0.020253329  0.019496404           11 
 3222000   0.74116891   -7.1612228    781.90394  0.020223048  0.019489874           11 
 3223000   0.73476515   -7.2050976    780.39587  0.020177781  0.019483305           22 
 3224000   0.73442056   -7.1959075    782.54186  0.020226992  0.019476749           19 
 3225000   0.74916087    -7.178787    781.52889  0.020194545  0.019470179           24 
 3226000   0.72283735   -7.1937011    781.73907  0.020193714  0.019463626           13 
 3227000   0.72256964   -7.2224998    778.90716  0.020114326  0.019457046           14 
 3228000   0.74021403   -7.2163847     779.8584  0.020132652  0.019450509           16 
 3229000   0.73556945   -7.2053865     780.6526  0.020146913  0.019443968           18 
 3230000   0.73708852   -7.1889907     780.7696  0.020143694  0.019437386            9 
 3231000   0.73419876   -7.2048112    781.08824  0.020145678  0.019430813           40 
 3232000   0.74268884   -7.1941726    780.56322  0.020125908  0.019424286           14 
 3233000   0.73982356    -7.195195    781.17171  0.020135367  0.019417758           12 
 3234000   0.72098003   -7.1980161    780.89949  0.020122127  0.019411221           11 
 3235000   0.73330691   -7.1890468     782.2078  0.020149608  0.019404698           10 
 3236000   0.73971269   -7.1843013     782.6611  0.020155055  0.019398163            9 
 3237000   0.74426637   -7.2118044    781.62252  0.020122091  0.019391638           15 
 3238000   0.74574735    -7.180876    782.66884  0.020142805   0.01938511           11 
 3239000   0.74736054   -7.2145972    781.56225  0.020108116  0.019378591           41 
 3240000   0.73914854   -7.1999229    782.15132  0.020117061  0.019372091           16 
 3241000   0.72691395    -7.189156    781.37834  0.020090979  0.019365571            9 
 3242000   0.71224839   -7.2034025    783.20469  0.020131727  0.019359059           20 
 3243000   0.74626083   -7.2289949    780.82926  0.020064479  0.019352557           25 
 3244000   0.73674187   -7.2293603    780.99876  0.020062648  0.019346026           26 
 3245000    0.7446288    -7.189109    781.81143  0.020077335  0.019339522           12 
 3246000   0.71398757    -7.234576    779.78686  0.020019174  0.019332988           21 
 3247000   0.72090908   -7.1999424    780.20897  0.020023842  0.019326473           18 
 3248000   0.74578225   -7.1992046    782.78995  0.020083896  0.019319974           25 
 3249000   0.74550012   -7.2092641    779.93583   0.02000451  0.019313461           41 
 3250000   0.73116533   -7.2099988    782.39608  0.020061438  0.019306974           23 
 3251000   0.71967602   -7.1969835    782.72906  0.020063802   0.01930047           19 
 3252000   0.73828767   -7.2066805    781.10382  0.020015985   0.01929398           39 
 3253000   0.71954018    -7.179809     782.7047  0.020050843  0.019287498           19 
 3254000   0.73353155   -7.2248593    781.36099  0.020010269  0.019281009           21 
 3255000   0.72936884   -7.2368849    780.25288  0.019975752  0.019274486           23 
 3256000   0.73458908   -7.2032862    781.51275  0.020001862  0.019267985           11 
 3257000   0.72617578   -7.2086336     782.0977  0.020010687    0.0192615           19 
 3258000   0.73247171   -7.2140216    782.09955  0.020004593  0.019254992           23 
 3259000   0.71408159   -7.1901093    780.68621  0.019962315  0.019248502           12 
 3260000   0.74548316    -7.214521    782.59105  0.020004884  0.019242019           10 
 3261000   0.72769761   -7.2071859    782.82901   0.02000483  0.019235531           15 
 3262000   0.72661581   -7.2179455    781.14535  0.019955685  0.019229078           10 
 3263000   0.73765067   -7.2195498    782.91347  0.019994726  0.019222616           18 
 3264000   0.71084797   -7.1941493    783.18316  0.019995485  0.019216153           18 
 3265000   0.73060943   -7.1685992    781.22407  0.019939359  0.019209688           23 
 3266000    0.7133623   -7.2196383    783.46845   0.01999052  0.019203251           12 
 3267000    0.7260637   -7.2331886    782.04682  0.019948139  0.019196809           32 
 3268000   0.71749809   -7.1720424    783.99669  0.019991756  0.019190376           18 
 3269000   0.73192328   -7.2247977    783.42537  0.019971076  0.019183937           27 
 3270000   0.72170419   -7.1955499    783.07749  0.019956103  0.019177481           23 
 3271000   0.72728189   -7.1871456    782.33179  0.019931004  0.019171059           15 
 3272000   0.73658188    -7.216487    781.93756  0.019914873  0.019164628           17 
 3273000   0.71795477   -7.2281696    782.21029  0.019915732  0.019158199           32 
 3274000   0.72385054   -7.1850899    784.18003  0.019959785  0.019151768           18 
 3275000   0.73239473   -7.2023307    783.02314  0.019924253  0.019145354           33 
 3276000   0.75926868   -7.1911865    783.52799  0.019931013  0.019138959           20 
 3277000   0.72287739   -7.1893426    784.37282  0.019946415  0.019132603           22 
 3278000   0.72037521   -7.2129311    782.75832  0.019899286  0.019126218           18 
 3279000   0.72660861   -7.2269932    781.76218  0.019867901  0.019119818           23 
 3280000   0.72509684   -7.2011582    783.57032  0.019907783  0.019113399           13 
 3281000   0.72486391   -7.2059103    782.64959   0.01987833  0.019106991           22 
 3282000   0.72366407   -7.2269381    782.09788  0.019858264  0.019100577           13 
 3283000   0.72835765   -7.2269559    782.36634   0.01985903   0.01909417            9 
 3284000   0.71839118   -7.2189187    784.42624  0.019905254  0.019087769           32 
 3285000   0.73726116   -7.2125243     784.4758  0.019900452  0.019081359           30 
 3286000   0.74486681   -7.2414067    783.99608   0.01988223  0.019074955           18 
 3287000   0.72534777   -7.2327517     782.8662  0.019847536  0.019068551           31 
 3288000   0.72032695   -7.2354365    782.78226  0.019839372  0.019062167           18 
 3289000   0.72368881   -7.2461115    782.62319   0.01982931  0.019055734           22 
 3290000   0.72827387   -7.2140905    783.58689  0.019847692  0.019049314           24 
 3291000   0.72895152   -7.2485923    782.09633  0.019803918  0.019042911           22 
 3292000   0.72658183   -7.2080739    783.91815   0.01984402  0.019036519           18 
 3293000   0.71718046   -7.2348317    782.72701   0.01980785  0.019030141           15 
 3294000    0.7218783   -7.2297345    784.58088  0.019848737  0.019023752           29 
 3295000   0.72349483   -7.2679993    782.18431  0.019782102  0.019017363           23 
 3296000   0.71879323   -7.2346785    783.09611  0.019799153  0.019010961           28 
 3297000   0.73018738   -7.2447721    781.78676  0.019760053   0.01900457           50 
 3298000   0.73834072    -7.237522    783.69452  0.019802267  0.018998164           26 
 3299000   0.72455232    -7.230785     781.9068  0.019751106  0.018991794           47 
 3300000   0.72751039   -7.2481023    783.98851   0.01979769   0.01898541           45 
 3301000   0.71621507   -7.2834499    782.03837  0.019742461  0.018979001           49 
 3302000   0.71991833   -7.2351161    783.56128  0.019774916    0.0189726           19 
 3303000   0.71793283   -7.2505482    782.66323  0.019746272  0.018966224           37 
 3304000   0.71770727   -7.2684646    783.38468  0.019758492  0.018959831           34 
 3305000   0.71606219   -7.2497708    782.40191  0.019727733  0.018953433           37 
 3306000   0.72333516   -7.2378686    783.25891  0.019743368  0.018947051           38 
 3307000   0.72735698   -7.2387905    782.30675  0.019713405   0.01894067           36 
 3308000   0.71915017   -7.2287691    782.89836  0.019722349  0.018934292           46 
 3309000   0.71471085   -7.2537612    781.36598  0.019677797  0.018927921           49 
 3310000   0.72402124   -7.2480535    782.83951  0.019708951  0.018921549           37 
 3311000   0.71768974   -7.2940179    781.05438  0.019658068  0.018915176           21 
 3312000   0.73583369   -7.2443159    782.79314  0.019695882  0.018908792           22 
 3313000   0.72350191   -7.2596252    783.87839  0.019717235  0.018902414           41 
 3314000   0.71384114   -7.2334123    785.48831  0.019751768  0.018896075           38 
 3315000   0.70666429   -7.2673444    782.05469  0.019659494  0.018889705           17 
 3316000   0.72388624   -7.2342352    782.38652  0.019661905  0.018883356           18 
 3317000   0.72936493   -7.2560324    782.96351  0.019670473  0.018876997           56 
 3318000   0.71728185   -7.2615373     783.7682  0.019684755  0.018870651           29 
 3319000   0.70785473   -7.2464591    785.88999  0.019732098  0.018864306           28 
 3320000   0.72320653   -7.2529605    782.32018  0.019636551  0.018857967           27 
 3321000   0.71360983   -7.2725072    782.43315  0.019633473  0.018851618           43 
 3322000   0.71952965   -7.2309066    783.94803  0.019665564  0.018845262           35 
 3323000   0.72022456   -7.2658517    781.08504  0.019587848  0.018838908           20 
 3324000   0.71416455   -7.2493337     782.1287   0.01960812  0.018832567           33 
 3325000   0.72193292   -7.2586519    782.92232  0.019622113   0.01882621           16 
 3326000   0.71588731   -7.2686539    783.84613   0.01963936  0.018819856           21 
 3327000   0.72262813   -7.2553916    783.23431  0.019618132  0.018813486           32 
 3328000   0.72421499   -7.2452701    781.56824  0.019570519  0.018807104           15 
 3329000   0.70736328   -7.2602657    784.24047  0.019631533   0.01880072           37 
 3330000   0.71257427   -7.2678499    782.69858  0.019587052  0.018794342           25 
 3331000   0.71369699   -7.2779605    782.62897   0.01957943  0.018787982           31 
 3332000   0.71587132   -7.2633773    781.25735  0.019539249  0.018781613           25 
 3333000   0.71320502   -7.2843804    781.80073  0.019546973  0.018775248           19 
 3334000   0.69828311   -7.2901099    782.27383  0.019552935  0.018768898           20 
 3335000   0.71194437   -7.2368872    784.17454  0.019594566  0.018762556           19 
 3336000   0.73039035    -7.243239    783.00604  0.019559503   0.01875623           14 
 3337000   0.70899123    -7.256945    781.51861  0.019516497  0.018749899           30 
 3338000   0.72866867   -7.2488657    783.33876   0.01955609  0.018743576           40 
 3339000    0.7196466   -7.2301717    783.58495  0.019556378  0.018737253           31 
 3340000   0.72586312   -7.2637079    783.56623  0.019550056  0.018730917           89 
 3341000   0.72489682   -7.2485065    784.30525  0.019562637   0.01872458           21 
 3342000   0.72581471   -7.2602012    783.44869  0.019535425  0.018718242           26 
 3343000   0.72574833   -7.2392397    781.43732  0.019479443  0.018711921           34 
 3344000   0.71814398   -7.2551578    784.91129   0.01956019  0.018705616           22 
 3345000   0.72074324   -7.2545085    784.70757  0.019549267  0.018699327           20 
 3346000   0.70997274   -7.2590481    783.66164  0.019517375   0.01869302           25 
 3347000   0.72927663   -7.2616398    781.76252   0.01946426  0.018686694           18 
 3348000   0.72044972   -7.2638393    782.63431  0.019480145  0.018680364            9 
 3349000   0.71099861   -7.2508654    783.58242   0.01949792  0.018674038           14 
 3350000   0.71206885   -7.2579736     783.3375  0.019486007  0.018667722           30 
 3351000   0.71585333   -7.2543663    783.18359  0.019476365  0.018661375           30 
 3352000   0.71859206   -7.2658198    783.82026  0.019486383   0.01865503           13 
 3353000   0.70463537   -7.2307681    781.90468  0.019432962   0.01864873           14 
 3354000   0.72376078   -7.2817762    783.06061  0.019455889  0.018642418           41 
 3355000   0.69790329    -7.274095    784.54837  0.019487044  0.018636096           18 
 3356000   0.70963693   -7.2521272    784.57856  0.019481987   0.01862977           37 
 3357000   0.71552469    -7.254479    782.74069   0.01943056  0.018623479           33 
 3358000   0.72085286   -7.2379943    783.86076   0.01945257  0.018617175           16 
 3359000   0.73751338   -7.2609551     781.4952  0.019388092  0.018610857           20 
 3360000   0.72207393   -7.2630462     783.5734  0.019433864  0.018604515           37 
 3361000   0.71416752    -7.257588    782.71457  0.019406788  0.018598182           64 
 3362000   0.69774791   -7.2478164    784.37226  0.019442104  0.018591844           17 
 3363000   0.72318216   -7.2647925    781.36422  0.019361786  0.018585512           20 
 3364000   0.70227443   -7.2416107    781.48044  0.019358909  0.018579181           35 
 3365000   0.72395256   -7.2857429    782.38075  0.019375452  0.018572854           22 
 3366000   0.71372512   -7.2498978     782.7591  0.019379063  0.018566537           19 
 3367000   0.70394147   -7.2991522    781.67958  0.019346589  0.018560214           76 
 3368000   0.70784967    -7.263478    784.42353  0.019408737  0.018553883           44 
 3369000   0.70868169   -7.2584015    781.87326  0.019339895  0.018547567           15 
 3370000   0.71377452   -7.2889007     780.9971   0.01931249  0.018541253           25 
 3371000   0.70690142   -7.2926081    783.72664  0.019374237  0.018534908           12 
 3372000   0.71338739   -7.2418252    783.11854  0.019353463  0.018528582           20 
 3373000   0.71163508   -7.2495509    780.16198  0.019274681  0.018522266            9 
 3374000   0.72296667   -7.2861867    782.83799  0.019335062  0.018515942           17 
 3375000   0.73340442   -7.2563013    783.35686  0.019342145  0.018509612           23 
 3376000   0.71289677   -7.2944317    782.16587  0.019307017  0.018503287           13 
 3377000   0.70312143   -7.2771672     782.0957  0.019299568  0.018496981           19 
 3378000   0.70581723    -7.225593    785.18592  0.019370089   0.01849069           22 
 3379000    0.7077497    -7.267377    783.27683  0.019317274  0.018484432           50 
 3380000   0.72076177   -7.2701209    783.14582  0.019308329  0.018478159           28 
 3381000   0.70633677   -7.2848321    782.28792  0.019281473  0.018471863           31 
 3382000   0.71361288   -7.2514442    782.19903  0.019273581  0.018465587           32 
 3383000   0.71286691   -7.2601001    782.71952  0.019280706  0.018459322           33 
 3384000   0.72226803   -7.2388936    783.63866  0.019297642  0.018453054           44 
 3385000   0.71465901   -7.2772464    784.26496   0.01930736  0.018446799           95 
 3386000   0.70789795   -7.2736336    782.99278  0.019270348   0.01844052           94 
 3387000   0.72104089   -7.2939191    783.15077  0.019268546  0.018434224           38 
 3388000   0.72355648   -7.2851497     783.0549    0.0192605  0.018427946           24 
 3389000   0.69985227    -7.270601      783.123  0.019256491  0.018421696           40 
 3390000   0.72306105   -7.2687332    784.84731  0.019293198  0.018415438           49 
 3391000   0.72146313   -7.2992483    783.96079  0.019265723  0.018409185           46 
 3392000   0.69702797   -7.2619809    783.09795  0.019238845  0.018402916           52 
 3393000   0.69659723   -7.2705798    782.98245  0.019230338  0.018396635           22 
 3394000   0.71800648   -7.3004639    781.92942  0.019198817  0.018390348           18 
 3395000   0.71055751   -7.2951027    780.73139  0.019163755  0.018384027           18 
 3396000   0.70862854   -7.2893582    782.65172  0.019205235  0.018377714           39 
 3397000   0.71120826   -7.3114394     783.0216  0.019208655  0.018371415           45 
 3398000   0.70795097   -7.2968176    782.16658  0.019182033  0.018365128           14 
 3399000   0.70756024   -7.2921997    782.46035  0.019183592  0.018358826           32 
 3400000   0.72121773   -7.3067748    781.85762  0.019163177  0.018352523           43 
 3401000   0.68720108   -7.3146157    781.10483  0.019139097  0.018346225           33 
 3402000   0.70793282    -7.294969    781.83441  0.019151343   0.01833992           41 
 3403000   0.69064243   -7.2898523    782.82507  0.019169974  0.018333641           14 
 3404000    0.7019107    -7.283057     782.8522  0.019165007  0.018327364           56 
 3405000   0.71024376    -7.305311    782.10398  0.019141066  0.018321079           80 
 3406000   0.69978634   -7.2868943    784.67631  0.019198383  0.018314794           26 
 3407000   0.71973235     -7.30571    781.48888  0.019114785  0.018308527           70 
 3408000   0.71243857   -7.3003406    782.58291  0.019135928  0.018302281           31 
 3409000   0.69484539   -7.2931071    783.42281  0.019150846   0.01829604           28 
 3410000   0.69921637   -7.2829656    783.38641  0.019144341  0.018289786           35 
 3411000   0.71726373   -7.2785852    782.90513   0.01912697  0.018283553           27 
 3412000   0.71989939   -7.2660189    785.36522  0.019181448  0.018277335           30 
 3413000   0.71523483   -7.2810523    783.59137  0.019132517  0.018271131           33 
 3414000   0.71788914   -7.2765554    782.22135  0.019093472  0.018264902           37 
 3415000    0.7080484   -7.3076938    783.14331  0.019110378  0.018258686           29 
 3416000   0.69430272   -7.2782256    782.24096  0.019082771   0.01825247           26 
 3417000   0.69075577   -7.3024212    783.83426  0.019116044   0.01824626           18 
 3418000    0.6857952   -7.2850624    782.99598  0.019090013  0.018240042           18 
 3419000    0.7033499    -7.296102    783.83662  0.019104919  0.018233841           19 
 3420000   0.71580104   -7.2929178     783.7917  0.019098238   0.01822763           11 
 3421000   0.69162904   -7.2882171    785.20918  0.019127185  0.018221437           31 
 3422000   0.69102646   -7.2932873    782.95529  0.019066708  0.018215237           33 
 3423000   0.70989024   -7.3147814    784.96149  0.019109979  0.018209031           25 
 3424000   0.71130804   -7.2891814    783.07952  0.019058594  0.018202842           20 
 3425000   0.69249058    -7.288796    785.89933  0.019121638  0.018196659           22 
 3426000   0.68932206   -7.2886013     785.3338  0.019102301  0.018190481           15 
 3427000    0.7225848   -7.3096885    783.78495  0.019059064   0.01818429           29 
 3428000   0.69874173   -7.2920143    784.49753  0.019070827  0.018178104           19 
 3429000   0.72226336   -7.3156063    782.11158   0.01900728  0.018171899           65 
 3430000   0.71979184    -7.298998     783.3124  0.019030914  0.018165686           33 
 3431000   0.70394809   -7.3190078    782.12928  0.018996631  0.018159488           27 
 3432000   0.71094186   -7.2928701    784.02361  0.019037092  0.018153303           38 
 3433000   0.70596988   -7.2930592    782.64117  0.018997989  0.018147114           49 
 3434000    0.6862608   -7.3034221    783.31899  0.019008906  0.018140937           16 
 3435000   0.70220405   -7.2845829    784.05208  0.019021157  0.018134736           36 
 3436000   0.71447152   -7.3033171    783.54376  0.019003293  0.018128545           36 
 3437000   0.70527722   -7.2852034    784.24068  0.019014661  0.018122345           41 
 3438000   0.69852693   -7.3017842    782.32469  0.018962689   0.01811615           29 
 3439000   0.70298749   -7.3030452    783.96134  0.018996834  0.018109947           13 
 3440000   0.69550845   -7.3073782    781.28931  0.018926582  0.018103754           43 
 3441000   0.69764807    -7.304833    784.61504  0.019001623  0.018097577           33 
 3442000   0.69979222   -7.2925861    783.76297  0.018975474  0.018091393           15 
 3443000   0.71509701   -7.2998212    783.44979  0.018962382  0.018085226           11 
 3444000   0.69713712   -7.3109354    783.33626  0.018954129   0.01807907           18 
 3445000   0.71292456   -7.2992253    783.21089  0.018945595  0.018072898           15 
 3446000   0.70009905   -7.2936897    782.97139  0.018934305  0.018066732           55 
 3447000   0.70542604   -7.3002678    782.61848   0.01892028  0.018060554           14 
 3448000   0.69972013   -7.3226593    782.45511  0.018910845  0.018054394           22 
 3449000   0.69688363   -7.3043403    782.87196  0.018915434  0.018048225           34 
 3450000   0.69504173   -7.3075891    783.17124   0.01891718  0.018042084           33 
 3451000   0.71777191   -7.2978265    783.53291  0.018920432  0.018035939           34 
 3452000   0.70764749   -7.3203929    783.16708  0.018906119  0.018029787           30 
 3453000   0.69200955   -7.3102455    784.51797  0.018933246  0.018023626           39 
 3454000   0.69612789   -7.3224326    783.87621  0.018912281  0.018017459           29 
 3455000    0.6938048   -7.3366507    782.92854  0.018883949  0.018011295           61 
 3456000   0.70109941   -7.3017578    782.82595  0.018876012  0.018005148           38 
 3457000   0.70363617   -7.3160401    784.27318  0.018905438  0.017998996           34 
 3458000   0.69938196   -7.2980631    783.93724  0.018891875  0.017992836           27 
 3459000   0.69564047   -7.3495346    782.53708  0.018852681  0.017986693           59 
 3460000   0.69919715   -7.3203208    784.96573  0.018905726  0.017980543           45 
 3461000    0.6880655   -7.3213619    782.08871  0.018830991  0.017974374           45 
 3462000   0.69554457   -7.3271571    783.52092  0.018860026  0.017968235           19 
 3463000   0.70010519   -7.3449014    782.07598  0.018819809  0.017962111           38 
 3464000   0.70534752   -7.3321326    782.32694  0.018820413  0.017955991           31 
 3465000   0.68262987    -7.335411    782.57191  0.018820873   0.01794986           45 
 3466000   0.69367171   -7.3073332    783.31862  0.018833396  0.017943753           27 
 3467000   0.67681511   -7.3055425    782.91881  0.018818354  0.017937639           31 
 3468000   0.69643286   -7.3114394    782.60064  0.018805283   0.01793153           46 
 3469000   0.70886661    -7.303167    784.56956   0.01884716  0.017925424           38 
 3470000   0.69404633   -7.2981997    783.16813  0.018808072  0.017919327           33 
 3471000   0.69546925   -7.2784576    785.29769  0.018853781  0.017913239           30 
 3472000   0.70212379   -7.3271503    784.86468  0.018837958  0.017907143           24 
 3473000   0.69720776   -7.2983532    784.95915  0.018834801  0.017901048           29 
 3474000   0.69581704   -7.3126819    783.68393  0.018798789  0.017894959           25 
 3475000   0.70087964   -7.3535875    782.81218  0.018772474  0.017888847           37 
 3476000    0.7057621   -7.3427856    783.92938  0.018793857  0.017882722           33 
 3477000   0.69826877    -7.311371    783.12261  0.018769116  0.017876602           38 
 3478000   0.69856083   -7.3288456     783.7146  0.018777904  0.017870471           33 
 3479000   0.69821458    -7.339515    783.39595  0.018764874  0.017864348           17 
 3480000   0.69856342   -7.2814127    784.71984  0.018791184  0.017858245           26 
 3481000   0.69217287   -7.3232423    783.79572  0.018763663  0.017852151           19 
 3482000   0.68764576   -7.3419387    782.83198  0.018735209  0.017846032           12 
 3483000   0.68594696   -7.3252716     784.5112  0.018770007  0.017839942           16 
 3484000   0.70032135   -7.3187683    783.30973  0.018735881  0.017833821           35 
 3485000   0.68943633   -7.3226038    784.45321  0.018757848  0.017827731           14 
 3486000   0.70604913   -7.3057185    782.70303  0.018710629  0.017821675           17 
 3487000   0.70235845   -7.2960582    784.64495  0.018751672  0.017815617           38 
 3488000   0.70074631   -7.3135114    785.56024  0.018768163  0.017809519           12 
 3489000   0.69216087   -7.3422662    783.19085  0.018706192  0.017803424           21 
 3490000   0.69456035   -7.3343599    784.27818  0.018726795  0.017797327           23 
 3491000   0.67930311   -7.3112806    784.87306  0.018735631  0.017791232           38 
 3492000   0.68810639   -7.3210759    783.06807  0.018687192   0.01778515           18 
 3493000   0.69728058   -7.3393534    784.42798  0.018714285  0.017779065           10 
 3494000   0.67695854   -7.3266397    783.05704  0.018676232  0.017772947           26 
 3495000   0.69181554   -7.3450293    783.35252  0.018677933  0.017766855           31 
 3496000   0.69551434   -7.3375844     784.4867  0.018699626  0.017760761           31 
 3497000   0.68631537   -7.3537216    784.50957  0.018694823  0.017754656           56 
 3498000   0.67753753   -7.3570085     782.4427   0.01864024  0.017748525           24 
 3499000   0.69906195   -7.3602982    782.10385  0.018626842  0.017742403           10 
 3500000    0.6815015   -7.3545273    783.10442  0.018645343    0.0177363           36 
 3501000   0.70315141   -7.3298365    783.94394      0.01866  0.017730192           33 
 3502000    0.7110618   -7.3411126    783.20731  0.018637143  0.017724079           22 
 3503000   0.69278312   -7.3416468    782.71951  0.018620219  0.017717981           42 
 3504000   0.68458125   -7.3419405    781.70908  0.018590874   0.01771189           25 
 3505000   0.67179877   -7.3529354    782.72056  0.018609619  0.017705769           25 
 3506000    0.6790322   -7.3521612     782.3105  0.018594564  0.017699658           32 
 3507000   0.67720019   -7.3641337    782.70243  0.018598575  0.017693545           28 
 3508000   0.69856979   -7.3554725    783.22254  0.018605629  0.017687429           34 
 3509000   0.70089299   -7.3448593    783.48416  0.018606539  0.017681331           36 
 3510000   0.66984286   -7.3647053    782.17293  0.018570107  0.017675233           20 
 3511000   0.67402005   -7.3716248    780.92869  0.018535287  0.017669121           14 
 3512000   0.67129927   -7.3664541    780.76161  0.018526044  0.017663003           44 
 3513000   0.68826507   -7.3400884    782.64269  0.018565392  0.017656896           17 
 3514000   0.69459168   -7.3361196    784.23234  0.018597807  0.017650795            9 
 3515000   0.71586446   -7.3629786    780.78199  0.018510716  0.017644677           51 
 3516000   0.68406475   -7.3748191    783.20639  0.018562912  0.017638562           34 
 3517000   0.68511609   -7.3508822     783.0165  0.018553135  0.017632447           30 
 3518000   0.69302795   -7.3660532    780.99689  0.018500021  0.017626347           29 
 3519000   0.69014008   -7.3352286    782.89169  0.018539635  0.017620276           41 
 3520000   0.67983951   -7.3213833     782.8458  0.018533281  0.017614212           26 
 3521000    0.6851598    -7.352973    781.85591  0.018504589  0.017608155           41 
 3522000   0.68519859    -7.350563    781.29564  0.018486079  0.017602091           23 
 3523000   0.68923589   -7.3374382    782.55408  0.018510599  0.017596029           34 
 3524000   0.69822253   -7.3326881    782.35725  0.018500692   0.01758998           21 
 3525000   0.68701323    -7.354647    783.03681  0.018511509  0.017583926           31 
 3526000   0.68258519   -7.3638904    782.37697  0.018490664  0.017577867           43 
 3527000   0.68504646   -7.3394901     784.0959  0.018526035  0.017571796           47 
 3528000    0.6921386   -7.3393206    784.10956  0.018521106  0.017565741           53 
 3529000   0.69256803   -7.3651777    781.56576  0.018455789  0.017559692           41 
 3530000   0.68936355    -7.327822    783.25128  0.018490351  0.017553627           34 
 3531000   0.68495053   -7.3643271    782.69292  0.018471937  0.017547561           28 
 3532000   0.67969266   -7.3474653    782.00274  0.018450423  0.017541486           28 
 3533000   0.67885919    -7.355885    783.46887  0.018479783  0.017535435           34 
 3534000   0.67702981   -7.3446058    781.35346  0.018424671  0.017529387           74 
 3535000   0.69917075   -7.3440969     783.4623  0.018469172   0.01752334           21 
 3536000   0.69700842   -7.3555035    782.58391  0.018443248  0.017517301           55 
 3537000   0.69941345   -7.3355389    782.98838  0.018447563  0.017511266           42 
 3538000    0.6856606   -7.3261403    783.33028  0.018450402  0.017505245           16 
 3539000   0.67515979   -7.3331929    783.76289  0.018455376  0.017499239            7 
 3540000   0.66694925   -7.3251283    782.96188  0.018431306  0.017493225           14 
 3541000    0.6787907   -7.3600666    781.65874  0.018395433  0.017487197           55 
 3542000   0.69786457   -7.3608227    782.78059  0.018416633  0.017481144           51 
 3543000   0.67683135   -7.3493171    784.48161  0.018451444   0.01747512           62 
 3544000   0.68235268   -7.3485658    782.75545  0.018405649  0.017469083           28 
 3545000   0.68527561   -7.3437714     783.1701  0.018410205  0.017463047           37 
 3546000   0.68347911     -7.35315    780.65157  0.018345826  0.017457003           28 
 3547000   0.69496357   -7.3811232    781.39884   0.01835821  0.017450965           58 
 3548000   0.68608874   -7.3596188    783.04774  0.018391764  0.017444916           37 
 3549000   0.66940841   -7.3861246    781.41251  0.018348185  0.017438863           27 
 3550000   0.67914232   -7.3775365    783.37402  0.018389062  0.017432803           75 
 3551000   0.68136529   -7.3765705    781.68359  0.018344213  0.017426763           90 
 3552000   0.67702534   -7.3616308    782.98682  0.018369623  0.017420723           27 
 3553000   0.68488739   -7.3859466    782.06514  0.018342836  0.017414696           36 
 3554000   0.69109455   -7.3692664    783.53501   0.01837214  0.017408668           41 
 3555000   0.70195188   -7.3929504    781.60661  0.018321768  0.017402617           55 
 3556000   0.69583519   -7.3790663    781.40639  0.018311923  0.017396556           41 
 3557000   0.68299484   -7.3799706    781.84875  0.018317139  0.017390502           47 
 3558000   0.69016769   -7.3766107     781.0471  0.018293215  0.017384478           83 
 3559000   0.68815099   -7.3991609    781.47785  0.018298161  0.017378437           51 
 3560000   0.67422703   -7.3680557    780.79668  0.018277076  0.017372396           79 
 3561000   0.67606543   -7.3734875     782.4236  0.018310016  0.017366361           68 
 3562000   0.68753106   -7.3725213    783.50067  0.018330074  0.017360345           72 
 3563000   0.68886184   -7.3832107    780.61728  0.018257491  0.017354326           46 
 3564000   0.68601727   -7.3655333    780.45195  0.018248502  0.017348303           28 
 3565000   0.67779953   -7.3817227    782.08029  0.018281447  0.017342277           63 
 3566000   0.68618301   -7.3891762    781.08566  0.018253077  0.017336255           67 
 3567000    0.6834865   -7.3781263    782.10055   0.01827167  0.017330236           69 
 3568000   0.69719872   -7.3761739    783.59725  0.018301505  0.017324214           62 
 3569000    0.6647805   -7.3803736    781.37129  0.018244403    0.0173182           57 
 3570000    0.6826843   -7.3640971    781.88471  0.018251277  0.017312177           91 
 3571000   0.69652355   -7.3711475     782.8561  0.018268835  0.017306154           50 
 3572000   0.67992661   -7.3876465    781.60918   0.01823463  0.017300133           54 
 3573000   0.67738625   -7.3861208    782.55938  0.018251688  0.017294092          180 
 3574000   0.67923495   -7.4062804    782.90353  0.018254606  0.017288057           65 
 3575000   0.67372359   -7.4120901    780.54791   0.01819459  0.017282013           70 
 3576000   0.67652194   -7.3872601    781.53648  0.018212539  0.017275978           63 
 3577000   0.67303171   -7.3706657    781.43437  0.018205069  0.017269946           77 
 3578000   0.68608621   -7.3600026    782.57896  0.018226639   0.01726396           24 
 3579000   0.68974056   -7.3951121    780.55851  0.018174502  0.017257953           36 
 3580000   0.68308214   -7.4097096    782.37914  0.018211805  0.017251946          150 
 3581000   0.66009994   -7.3826087    780.95045  0.018173472  0.017245923           90 
 3582000   0.67853799   -7.3773233    782.68324  0.018208711  0.017239915          104 
 3583000   0.65781736   -7.3962716    781.50303   0.01817618  0.017233899           81 
 3584000   0.67065272   -7.3944379    780.27502  0.018142555  0.017227864          114 
 3585000   0.67285573   -7.3824127    779.82117  0.018126945  0.017221834          110 
 3586000   0.69217199   -7.4031332     783.6986  0.018211996  0.017215833           64 
 3587000     0.685194   -7.3692125    781.76742  0.018162053  0.017209825          136 
 3588000   0.66885363   -7.3785165    782.23788  0.018167918   0.01720382           67 
 3589000   0.66911969   -7.3718477    781.03441  0.018134913  0.017197821           56 
 3590000   0.68197362   -7.3940907    779.39885  0.018091895  0.017191814           67 
 3591000    0.6746529   -7.4209728    780.38952  0.018109847  0.017185799           69 
 3592000   0.67410828   -7.3931383    779.67289  0.018088179   0.01717978           68 
 3593000   0.66759243   -7.3971448    780.86273  0.018110741   0.01717378           63 
 3594000   0.67500806   -7.3721351    781.63545  0.018123619  0.017167784           82 
 3595000   0.67544892   -7.4166236    780.49762  0.018092202  0.017161782           50 
 3596000   0.68802093   -7.3917435    781.73282  0.018115796  0.017155788           70 
 3597000    0.6898063   -7.3796996    780.30252  0.018077623  0.017149818           89 
 3598000    0.6905805   -7.3968371    781.54926  0.018101474  0.017143827          109 
 3599000   0.68067655   -7.3977663    781.16853  0.018087629  0.017137823          154 
 3600000   0.66392245   -7.3917966    781.40435  0.018088064  0.017131816           51 
 3601000   0.68363879   -7.3886904    781.60271  0.018087631  0.017125829           55 
 3602000   0.67557379   -7.3852227    780.43956    0.0180557  0.017119853          103 
 3603000   0.67093478   -7.3944542     779.7387  0.018034478  0.017113885           70 
 3604000    0.6801448   -7.3887729     781.1551  0.018062225  0.017107936           65 
 3605000   0.68734216   -7.3982913    781.50864  0.018065387  0.017101976           80 
 3606000    0.6667319   -7.4020371    780.04764  0.018026614  0.017096011          149 
 3607000   0.67161877   -7.4051481    781.17964  0.018047769  0.017090056          100 
 3608000   0.66507489   -7.3998077    781.51932  0.018050612  0.017084089          113 
 3609000   0.67766962   -7.3943039    781.26013  0.018039626  0.017078122          101 
 3610000   0.69116975    -7.409988    781.47241  0.018039529  0.017072147           59 
 3611000   0.66920795   -7.4143107    782.33956  0.018054545  0.017066196          128 
 3612000    0.6804709   -7.3729919    781.98003  0.018041252  0.017060239          102 
 3613000   0.67830663   -7.3842162    781.29374  0.018020429  0.017054284           99 
 3614000   0.68268063     -7.39781    781.13146  0.018011701  0.017048323           88 
 3615000   0.66608616   -7.4205893    781.19683  0.018008226  0.017042369           72 
 3616000   0.68406347   -7.3830658    779.96584  0.017974877  0.017036421          111 
 3617000    0.6608561   -7.4215001    781.24641   0.01799941  0.017030462           72 
 3618000   0.66863951   -7.4176261    780.23953  0.017971244  0.017024511          133 
 3619000   0.67486927   -7.3866676     780.9711  0.017983124  0.017018561           98 
 3620000   0.66802288    -7.424082    780.84664  0.017975291  0.017012617          132 
 3621000   0.68868657   -7.3994671    782.63647  0.018011518  0.017006673          144 
 3622000   0.66333128   -7.4267833    780.32505  0.017953365  0.017000726          148 
 3623000   0.70156499   -7.4246954    781.77167  0.017981683  0.016994766           60 
 3624000   0.65444105    -7.400888    781.45521  0.017969445  0.016988829           78 
 3625000   0.67264386   -7.4043684    781.64146  0.017968769  0.016982882           42 
 3626000   0.65786553   -7.3916992    781.20737  0.017953837  0.016976954          114 
 3627000   0.68185321   -7.4059106    781.76437  0.017961685  0.016971025           88 
 3628000   0.66244515   -7.3845135    783.48308  0.017996212  0.016965096          117 
 3629000   0.66203669   -7.4053899    780.56658  0.017924281  0.016959186           60 
 3630000   0.66979803   -7.4027721    781.51691   0.01794116  0.016953254           89 
 3631000   0.65884187   -7.4193941    779.71731  0.017894917  0.016947313           83 
 3632000   0.67174323   -7.3930612    781.99386  0.017942223  0.016941394           49 
 3633000   0.67769872   -7.4079621    779.80455  0.017887067  0.016935476           67 
 3634000   0.65931191   -7.4099051    780.48688  0.017897791  0.016929563           48 
 3635000   0.66221797    -7.398978    782.39948  0.017936714  0.016923646           56 
 3636000   0.67360651   -7.3979785    779.32648  0.017861351  0.016917731          104 
 3637000   0.67936572   -7.4005634    781.59555  0.017908431  0.016911828          154 
 3638000   0.66715874   -7.4164841    779.51795  0.017855918  0.016905916           37 
 3639000   0.66923512    -7.383636    783.52723  0.017942824  0.016900034          176 
 3640000   0.65930761   -7.4034505    779.70752  0.017850447  0.016894141          102 
 3641000   0.66535859    -7.403614    780.88677  0.017872534  0.016888243           68 
 3642000   0.66069208   -7.4161777    778.25304  0.017807364   0.01688233           86 
 3643000   0.66475925   -7.3920985    781.26669  0.017871413  0.016876422          135 
 3644000   0.66181701   -7.3956707    781.26129  0.017866385   0.01687052          115 
 3645000   0.67307147    -7.372164    781.31556  0.017862724  0.016864616           42 
 3646000   0.65563313   -7.4291038    780.41283  0.017837192  0.016858712           57 
 3647000    0.6669859   -7.4038619    780.36839  0.017831286  0.016852814          121 
 3648000   0.67793905   -7.4100336    780.58442  0.017831333  0.016846901          136 
 3649000   0.67748492   -7.4262395    780.26161  0.017819074  0.016840989           95 
 3650000   0.66708852   -7.4067499    779.50337  0.017796881  0.016835086           72 
 3651000   0.68373879   -7.4117467    780.97936  0.017825695  0.016829174          205 
 3652000   0.66232648   -7.4208777     780.0518  0.017799649  0.016823268          101 
 3653000   0.66683264   -7.4056457    779.45039  0.017781057  0.016817367           46 
 3654000   0.66379475   -7.4243565    778.90823  0.017763826  0.016811457          115 
 3655000   0.66670882   -7.4179091    780.46395  0.017794436  0.016805554          125 
 3656000   0.67070001   -7.4270669    779.36562  0.017764534  0.016799646           73 
 3657000   0.67656541   -7.4189633    780.95198  0.017795825  0.016793748          160 
 3658000   0.65875789   -7.3984756    780.12775  0.017772183  0.016787852           65 
 3659000   0.65533276   -7.4266195    778.91342   0.01773967   0.01678195          186 
 3660000   0.64699666   -7.4170553    779.54601  0.017749226  0.016776042           93 
 3661000   0.67331514   -7.4154442    778.95812  0.017730996  0.016770123           55 
 3662000   0.67069466   -7.4191296    778.83016  0.017723242  0.016764199           84 
 3663000   0.66583155   -7.4203525    779.25676  0.017728109  0.016758293          109 
 3664000   0.67805858   -7.4218102     780.4628  0.017750701   0.01675239          205 
 3665000   0.65755825   -7.4486658    778.87147  0.017709674    0.0167465           84 
 3666000   0.66169913   -7.4288467    780.03802  0.017731361  0.016740614           50 
 3667000   0.66408043   -7.4116078    780.14274  0.017728905  0.016734722          131 
 3668000   0.66955884   -7.4250719    780.20267  0.017725433  0.016728815           81 
 3669000   0.65487326    -7.426545     778.2477  0.017676199  0.016722933          132 
 3670000   0.65809219   -7.4291796    778.83856  0.017684799  0.016717045          105 
 3671000   0.68630101   -7.4133114    781.54867  0.017741503  0.016711175          125 
 3672000   0.67852578   -7.4404843    779.75808  0.017696035  0.016705307          167 
 3673000   0.65691482   -7.4459263    779.43522  0.017683892  0.016699441          140 
 3674000   0.66486687   -7.4151282    780.38412  0.017700602   0.01669358          143 
 3675000   0.66872411   -7.4308464    780.69763  0.017702894  0.016687727          186 
 3676000   0.66430841     -7.42138    781.09123  0.017707001   0.01668187          118 
 3677000   0.65768287   -7.4349594    779.53594  0.017666937  0.016676016          132 
 3678000   0.65454134   -7.4292298    778.10884    0.0176298  0.016670173          180 
 3679000   0.65807765   -7.4454594    779.74593   0.01766209   0.01666431          152 
 3680000   0.66056162   -7.4197666    779.24602   0.01764597  0.016658458          136 
 3681000   0.66046252   -7.4442051    779.04136  0.017636543  0.016652598          238 
 3682000   0.66103564    -7.420189    781.34026  0.017683783  0.016646749          110 
 3683000   0.67642369   -7.4376247    778.84897  0.017622612  0.016640901          152 
 3684000   0.65425212   -7.4290873    780.39682  0.017652842  0.016635034          139 
 3685000   0.66459942   -7.4252921    779.06257  0.017617878  0.016629179          185 
 3686000   0.66138378   -7.4294649    779.56669  0.017624496  0.016623321          298 
 3687000   0.64950761   -7.4425752    779.41522  0.017616292  0.016617459          305 
 3688000   0.66267706    -7.415217     781.1857  0.017651521  0.016611602          293 
 3689000   0.65680765   -7.4498175     780.1623  0.017623618  0.016605757          374 
 3690000   0.67767491   -7.4410813    779.33203  0.017600091  0.016599906          445 
 3691000   0.66310978   -7.4333807    781.24844   0.01763859  0.016594062          286 
 3692000   0.67230113   -7.4415008     779.2829  0.017589448  0.016588204          292 
 3693000   0.68061398   -7.4391676    779.48411  0.017589225   0.01658234          328 
 3694000   0.64948191   -7.4512252    778.89343  0.017571139  0.016576482          288 
 3695000   0.66044002   -7.4223397    778.54627  0.017558554   0.01657062          335 
 3696000   0.65710667   -7.4340135    779.36284  0.017572214  0.016564777          359 
 3697000   0.66107335   -7.4402573    778.88754  0.017556747  0.016558933          289 
 3698000   0.66632956   -7.4565477     778.2978   0.01753871  0.016553092          319 
 3699000   0.66255709   -7.4598616    778.90853  0.017547728  0.016547229          331 
 3700000   0.65945751   -7.4393476    779.38294   0.01755367  0.016541366          431 
 3701000   0.65521124   -7.4422481    779.73407  0.017556833  0.016535501          282 
 3702000   0.65168309   -7.4350639    781.32864  0.017587985  0.016529632          360 
 3703000   0.66294438   -7.4526224    777.43434  0.017495597  0.016523778          336 
 3704000   0.65626094   -7.4587517    778.38718  0.017512311  0.016517905          353 
 3705000    0.6588228    -7.455947    777.23592   0.01748169  0.016512043          419 
 3706000   0.65945673    -7.441364    779.30269  0.017523446  0.016506184          387 
 3707000   0.66792428   -7.4358675    778.89243  0.017509496  0.016500342          458 
 3708000   0.65453513   -7.4673383    778.54241  0.017496908  0.016494484          329 
 3709000   0.64252044   -7.4785605     779.0664  0.017503963  0.016488608          434 
 3710000    0.6694706   -7.4645338    776.97293  0.017452222  0.016482726          430 
 3711000    0.6490161   -7.4673494    777.89237  0.017468166  0.016476846          317 
 3712000   0.65719812   -7.4787296    777.62311  0.017457415  0.016470976          400 
 3713000   0.65307092   -7.4683289    779.34363  0.017491328  0.016465121          425 
 3714000   0.65619017     -7.47123    777.26792  0.017440045  0.016459249          494 
 3715000   0.63777175   -7.4891963    778.15694  0.017455292  0.016453367          497 
 3716000   0.65715129   -7.4803896     776.5407   0.01741435  0.016447497          430 
 3717000    0.6688784   -7.5007724    776.64775  0.017412065  0.016441627          480 
 3718000   0.66829693   -7.4780872    778.23903  0.017443048  0.016435765          380 
 3719000   0.66106446   -7.4803574    778.23138  0.017438186  0.016429902          465 
 3720000   0.65794365   -7.4829346    778.13495  0.017431339  0.016424039          491 
 3721000   0.64909513   -7.4694949    777.97572  0.017423088  0.016418194          362 
 3722000   0.66693378   -7.4410968     780.3968  0.017472613  0.016412375          478 
 3723000   0.66978463    -7.445385     778.7639   0.01743137  0.016406567          432 
 3724000   0.67046303   -7.4750386    777.09217  0.017389281   0.01640073          483 
 3725000   0.66494145   -7.4825417    778.01226  0.017405196  0.016394895          516 
 3726000   0.64892963   -7.4743696    777.09029  0.017379905  0.016389061          372 
 3727000   0.65311682   -7.4861455    776.89456  0.017370865  0.016383225          428 
 3728000   0.65175931   -7.4772733    778.41543  0.017400202  0.016377392          336 
 3729000   0.65273674   -7.4718179    776.21188  0.017346292   0.01637158          476 
 3730000   0.65283879    -7.456549    778.57621  0.017394464  0.016365758          499 
 3731000   0.65463015   -7.4729896    777.32637  0.017361886  0.016359939          379 
 3732000   0.65007306   -7.4840612    777.71742  0.017365966  0.016354106          407 
 3733000     0.661868     -7.46015    777.62442  0.017359238  0.016348292          407 
 3734000   0.65791908    -7.474015    778.77117  0.017380181  0.016342487          345 
 3735000   0.65523089   -7.4728347    779.21514  0.017385434  0.016336667          320 
 3736000    0.6513833   -7.4610425    777.85922  0.017350536  0.016330853          347 
 3737000   0.64721648   -7.4839186    779.18745  0.017375512  0.016325037          361 
 3738000   0.66596574   -7.4852787    776.73455  0.017316179  0.016319212          406 
 3739000   0.65075279   -7.4789544    777.56618  0.017330083  0.016313394          307 
 3740000   0.64337988   -7.4888798    776.22616  0.017295592  0.016307589          347 
 3741000   0.64945588   -7.4709531    776.65594  0.017300542  0.016301787          352 
 3742000   0.64469872   -7.4614974    776.33909  0.017288863  0.016295977          394 
 3743000   0.66262715   -7.4765729    777.74887  0.017315631  0.016290168          372 
 3744000   0.64710514   -7.4694082    777.53831  0.017306319  0.016284349          492 
 3745000   0.64848761   -7.4826366    777.22492  0.017294724  0.016278541          418 
 3746000   0.65383254   -7.4709233    777.32213   0.01729227  0.016272715          585 
 3747000   0.65343278   -7.4830736    777.70211  0.017296106   0.01626689          482 
 3748000   0.66137094   -7.4761817    776.80799  0.017271611  0.016261064          513 
 3749000   0.65884195   -7.4701295    777.89567  0.017291181  0.016255244          499 
 3750000   0.65760616    -7.490608    776.18484  0.017248552  0.016249415          529 
 3751000   0.65391456   -7.4978654    777.17284  0.017265903  0.016243592          469 
 3752000   0.65337057   -7.4953021    777.82022   0.01727568  0.016237768          560 
 3753000   0.64054558   -7.5099914    777.33473  0.017260297  0.016231959          566 
 3754000   0.64951651   -7.5249278    777.03891  0.017249132  0.016226145          532 
 3755000   0.65184591    -7.506426    778.12147  0.017268564  0.016220326          573 
 3756000   0.64719639   -7.4932468    775.83749  0.017213292  0.016214501          615 
 3757000   0.65642294   -7.5305888     777.6673  0.017249297  0.016208668          651 
 3758000   0.65252171   -7.5053913    776.30479  0.017214493  0.016202842          628 
 3759000   0.64192179    -7.498841    776.36934  0.017211345  0.016197034          610 
 3760000   0.64217451   -7.5259547    775.51051  0.017187733  0.016191217          600 
 3761000   0.64615843   -7.4904801    775.46095  0.017182065  0.016185413          574 
 3762000   0.64830636   -7.5009975    776.78611  0.017206852  0.016179626          575 
 3763000   0.64883912   -7.5112649     776.8943  0.017204675  0.016173828          582 
 3764000   0.65550337   -7.4889876    775.79476  0.017175761  0.016168025          505 
 3765000   0.66494393   -7.5109601    776.78358  0.017193085  0.016162216          290 
 3766000    0.6487997   -7.5048504    777.71975  0.017209235  0.016156421          520 
 3767000   0.64534966   -7.5008637    777.01476  0.017189071  0.016150627          569 
 3768000   0.65047872   -7.4946731    777.32503  0.017191371  0.016144837          596 
 3769000   0.65958299   -7.5056776    776.50766  0.017168737  0.016139057          660 
 3770000   0.65308194   -7.5079342    775.33197  0.017138196  0.016133275          496 
 3771000   0.65125397   -7.5020937    777.20654  0.017175076  0.016127493          546 
 3772000    0.6387094   -7.5162239    776.62071   0.01715758  0.016121705          502 
 3773000   0.63563306   -7.5058409    777.08686  0.017163329  0.016115928          437 
 3774000   0.63573636   -7.4869395    775.98473  0.017134445  0.016110162          553 
 3775000   0.64671906   -7.5189353    776.05021  0.017131351  0.016104397          628 
 3776000    0.6393341   -7.5131307    777.40985  0.017156821   0.01609862          545 
 3777000   0.64165484   -7.5236753    776.73094  0.017137299  0.016092858          510 
 3778000   0.64575236   -7.5027212    776.65166  0.017131014  0.016087086          492 
 3779000    0.6443373   -7.4945429    778.27866  0.017162359  0.016081313          421 
 3780000   0.66487257   -7.5010285    775.27291  0.017091555  0.016075524          401 
 3781000   0.64557427   -7.5044137    776.15639  0.017106506  0.016069756          587 
 3782000   0.64536335   -7.5134641    776.01608  0.017098891  0.016063969          582 
 3783000   0.63881578   -7.5123853    775.21465  0.017076717  0.016058188          613 
 3784000   0.64841077   -7.5094942     776.8755   0.01710878  0.016052415          613 
 3785000   0.65958051   -7.5098375    776.92142  0.017105271   0.01604664          507 
 3786000   0.65525461   -7.5165289     776.0969  0.017082605  0.016040857          670 
 3787000   0.64952243   -7.5169654    775.60537  0.017067278  0.016035092          652 
 3788000    0.6582398   -7.5200614    776.96927  0.017092777  0.016029321          694 
 3789000   0.65218018   -7.5178666     776.0175  0.017067333  0.016023558          729 
 3790000   0.65674167   -7.5187812     777.3637   0.01709243  0.016017816          470 
 3791000   0.63499704   -7.5203958    775.54094  0.017047853  0.016012054          576 
 3792000   0.64391845   -7.5130291    776.39338  0.017062091  0.016006307          586 
 3793000   0.65232993   -7.5194038    776.88071  0.017068299  0.016000572          747 
 3794000   0.63824393    -7.528464    775.74982  0.017038961  0.015994813          767 
 3795000   0.65973335   -7.5153988     775.4757  0.017028452  0.015989059          744 
 3796000   0.64479294   -7.5166519    775.53546  0.017025278  0.015983317          688 
 3797000   0.65102361   -7.5434718    776.91713  0.017051118  0.015977581          627 
 3798000   0.64495505   -7.5272358    774.67759   0.01699749  0.015971843          584 
 3799000   0.63748942   -7.5222864    776.49897  0.017032969  0.015966107          571 
 3800000   0.65850284    -7.514384    775.50206  0.017006624   0.01596037          676 
 3801000    0.6375382   -7.5202539    775.73861  0.017007336  0.015954636          681 
 3802000   0.65161844   -7.5193828    776.47776  0.017019064  0.015948915          649 
 3803000   0.63659735   -7.5072593    776.15304  0.017007473  0.015943194          641 
 3804000   0.64452344   -7.5301768    776.77259  0.017016574  0.015937481          538 
 3805000   0.64310492   -7.5482747    775.86303  0.016992182  0.015931766          652 
 3806000   0.65398743   -7.5423879    775.98255  0.016990334  0.015926046          592 
 3807000   0.64769119   -7.5219078    776.67393  0.017001005  0.015920327          731 
 3808000   0.64343321    -7.525898    774.47601  0.016948442  0.015914608          712 
 3809000   0.63760164   -7.5483004    776.12066  0.016979974  0.015908904          635 
 3810000   0.62893451   -7.5113333    775.51141  0.016962192  0.015903203          679 
 3811000   0.64891131   -7.5157266    775.96158  0.016967585  0.015897496          738 
 3812000   0.63631863   -7.5374011    776.84779  0.016982507  0.015891784          809 
 3813000   0.65683204    -7.503096    776.02309  0.016960029  0.015886075          707 
 3814000   0.64997603   -7.5246197     776.8656   0.01697399  0.015880378          617 
 3815000    0.6361481   -7.5300949    775.26655  0.016934612  0.015874676          664 
 3816000    0.6493621   -7.5572144    774.38965  0.016911025  0.015868975          614 
 3817000   0.63484504   -7.5403699    777.10529  0.016965883  0.015863276          753 
 3818000   0.64105188   -7.5250477    773.92021   0.01689192   0.01585757          621 
 3819000   0.64422883   -7.5443583    775.89092  0.016930499   0.01585186          747 
 3820000   0.63556125   -7.5185403    774.62688  0.016898492  0.015846157          571 
 3821000     0.629802   -7.5155717    775.78079  0.016919236  0.015840469          600 
 3822000   0.63563733   -7.5442993    774.83608  0.016894211  0.015834777          679 
 3823000   0.64792793   -7.5318675    774.76362  0.016888212  0.015829074          727 
 3824000    0.6238246   -7.5440366    775.36918  0.016896992  0.015823375          702 
 3825000   0.64765895   -7.5411743    775.46809   0.01689473  0.015817689          833 
 3826000   0.64691971   -7.5455684    775.75109  0.016896478  0.015811994          890 
 3827000   0.63079269   -7.5592088    773.68557  0.016847086  0.015806291          763 
 3828000   0.64159871   -7.5447174    776.61155  0.016906382  0.015800602          862 
 3829000   0.66104379    -7.542352    775.41808  0.016875992  0.015794915          826 
 3830000   0.64292952   -7.5354202    774.25891  0.016846364  0.015789227          844 
 3831000   0.64136514   -7.5424203    776.95579  0.016900631  0.015783539          884 
 3832000    0.6418011   -7.5419505    774.53417  0.016843558  0.015777851          962 
 3833000   0.64096517   -7.5397263    774.59689  0.016840527   0.01577217          890 
 3834000   0.63017894     -7.56442    773.94075  0.016821873  0.015766476          862 
 3835000    0.6333604   -7.5179863    775.35367  0.016848189  0.015760792          826 
 3836000   0.63519785   -7.5645764    773.49873    0.0168035   0.01575511          861 
 3837000   0.64860329   -7.5474958    774.61605  0.016823387  0.015749439          833 
 3838000    0.6458446   -7.5267768    776.40723  0.016857895  0.015743761          912 
 3839000   0.63916866   -7.5568517    775.28212  0.016829081  0.015738086          840 
 3840000   0.65448905   -7.5550144    774.37649  0.016805045  0.015732408          677 
 3841000   0.62400372   -7.5535992     773.7632  0.016787365  0.015726724          948 
 3842000   0.65116902   -7.5567179    775.20208  0.016814204  0.015721055          847 
 3843000   0.63552116   -7.5566655      774.303  0.016790333  0.015715372          889 
 3844000   0.64043704   -7.5571533    774.51914  0.016790651  0.015709688          830 
 3845000    0.6215681   -7.5523265    774.80236  0.016792422  0.015704003          827 
 3846000   0.63382844   -7.5379387    774.64854  0.016784723  0.015698328          756 
 3847000   0.63029048   -7.5601252    774.27999  0.016772376  0.015692658          877 
 3848000   0.64721399   -7.5672661    773.36236  0.016748145  0.015686975          958 
 3849000   0.63933554   -7.5420247    774.89999  0.016777085  0.015681294          876 
 3850000   0.63755798   -7.5661867    772.84226  0.016728188  0.015675607          803 
 3851000   0.63081048   -7.5789546    772.37386  0.016713708   0.01566993          910 
 3852000   0.62352414   -7.5726258     773.7257  0.016738614  0.015664249          934 
 3853000   0.62417759   -7.5473483    774.35392  0.016747857  0.015658568          848 
 3854000   0.63787836   -7.5815709    773.40841  0.016723067    0.0156529          974 
 3855000   0.62664999   -7.5449926    774.91454  0.016751287  0.015647226          798 
 3856000   0.62871522   -7.5667502    771.37165  0.016670376   0.01564156          970 
 3857000   0.63590662   -7.5523807    774.63466  0.016736554  0.015635896          957 
 3858000   0.62397976   -7.5759037    773.51305  0.016707989  0.015630246          946 
 3859000   0.62619189   -7.5807476    773.16343  0.016696109   0.01562459          929 
 3860000   0.62934868   -7.5464731    774.76272  0.016726311  0.015618933          870 
 3861000   0.63940776   -7.5729889    772.77763  0.016679134   0.01561328          826 
 3862000   0.63033386   -7.5780574    773.67135  0.016694099  0.015607617          921 
 3863000   0.64391062   -7.5976107    773.78595   0.01669225  0.015601961          995 
 3864000   0.63732928   -7.5969828    773.11422  0.016673443  0.015596297          894 
 3865000    0.6267823   -7.5936157    773.50725  0.016677603  0.015590632          933 
 3866000   0.63449764   -7.5746795    773.98352  0.016683556   0.01558498          832 
 3867000   0.63249192   -7.5721424    773.40311  0.016666734  0.015579335          889 
 3868000   0.63667162   -7.5707759    772.63649  0.016645908  0.015573688          841 
 3869000   0.62329143   -7.5864694    773.98705  0.016670696   0.01556805          798 
 3870000   0.63055604   -7.5519302    773.25037  0.016650525  0.015562417          881 
 3871000   0.62374803   -7.5650595    772.85725  0.016637761  0.015556788          838 
 3872000   0.63390583   -7.5722393    772.50535   0.01662589  0.015551154          909 
 3873000   0.62474777   -7.5785877    773.76163  0.016648628  0.015545521          940 
 3874000   0.62914158   -7.5575404    773.82629  0.016645721  0.015539888          910 
 3875000    0.6484668   -7.5727064     773.7544   0.01663988   0.01553426          948 
 3876000    0.6429175   -7.5698647    772.84155   0.01661596  0.015528637          974 
 3877000   0.63096126   -7.5752772     773.2136  0.016619672  0.015523025          896 
 3878000   0.63737479   -7.5610969    772.75855  0.016605607  0.015517409         1081 
 3879000   0.63403083   -7.5602984    773.91623  0.016626197  0.015511799          877 
 3880000    0.6488575   -7.5819151    773.50069  0.016612987  0.015506185          989 
 3881000   0.63465258   -7.5403018    774.49223  0.016629997   0.01550057          899 
 3882000   0.63651163   -7.5683282    773.95031   0.01661408   0.01549495          950 
 3883000   0.64454037   -7.5920625    773.25267  0.016594829  0.015489331          918 
 3884000   0.63678288   -7.5753813    773.60781  0.016598176  0.015483733          990 
 3885000   0.62738394   -7.5631726    773.72307  0.016596377   0.01547812          989 
 3886000   0.62737002   -7.5750535    773.05385  0.016577755  0.015472526         1016 
 3887000   0.65252692   -7.5677741    772.50804  0.016561788  0.015466929          994 
 3888000    0.6354249   -7.5851962    773.54461  0.016579746  0.015461335         1082 
 3889000    0.6200682   -7.5701578     774.2051  0.016589635  0.015455739         1017 
 3890000   0.62157402   -7.5831488    775.39312  0.016610821  0.015450151         1012 
 3891000   0.62660376   -7.5790912    773.17123  0.016558966  0.015444562         1064 
 3892000    0.6237078   -7.5933578    771.99284   0.01652948  0.015438957         1105 
 3893000   0.63136128   -7.5503173    773.74213  0.016562679   0.01543338          920 
 3894000   0.62741744   -7.5769017    772.29181  0.016527389  0.015427804          991 
 3895000   0.62825969   -7.5945637    773.60639  0.016551271  0.015422227         1056 
 3896000   0.63059695   -7.5765549    772.44492  0.016522179  0.015416653         1040 
 3897000   0.60437834   -7.5817331    772.79075  0.016525335  0.015411074         1026 
 3898000   0.63281342    -7.554693    774.93996  0.016567042  0.015405503         1044 
 3899000   0.63019209   -7.5679067    772.57564   0.01651226  0.015399928         1062 
 3900000   0.63647804   -7.5833088    773.01688  0.016517455  0.015394353         1117 
 3901000   0.62199679   -7.5812993     773.9775  0.016533741  0.015388779         1085 
 3902000   0.62666207   -7.5702546    773.79688  0.016525647  0.015383219         1077 
 3903000   0.63720919   -7.5690075     774.8455  0.016543802  0.015377657          978 
 3904000    0.6334237   -7.5789429    773.25809   0.01650568  0.015372106         1106 
 3905000   0.63362496   -7.5689948    772.96829  0.016495269  0.015366555         1050 
 3906000   0.63285674   -7.5761288    774.36232  0.016520787  0.015361008         1085 
 3907000   0.62127654   -7.5631294    772.40349  0.016474778  0.015355461         1045 
 3908000   0.64071421   -7.5866083     773.4281  0.016492411  0.015349921         1074 
 3909000   0.62357895   -7.5611237    774.30147   0.01650681  0.015344381          996 
 3910000   0.63207189   -7.5746962    774.64009  0.016509806  0.015338847         1141 
 3911000   0.63512616    -7.579096     773.9811  0.016491543  0.015333316         1041 
 3912000    0.6266691   -7.5737437    773.72712  0.016481917  0.015327784         1092 
 3913000   0.62096864   -7.5561219    774.19384  0.016487645  0.015322248         1114 
 3914000   0.63404152   -7.5792535    774.25271  0.016484685  0.015316715         1063 
 3915000   0.62613353   -7.5784625    774.76909  0.016491466  0.015311193         1086 
 3916000   0.61388515   -7.5835864    774.83266  0.016488608  0.015305678         1170 
 3917000   0.63681568   -7.5965844     772.6227  0.016437382  0.015300155         1058 
 3918000   0.62560036   -7.5807517    772.61622  0.016433049  0.015294637         1049 
 3919000   0.62391275   -7.5887366    772.36756  0.016423568  0.015289128         1025 
 3920000   0.61632462   -7.5716443    775.15836  0.016478707  0.015283613         1026 
 3921000   0.62944721   -7.5803334    774.68693  0.016464485    0.0152781          977 
 3922000   0.62219482   -7.5724709    774.61963  0.016458857  0.015272585         1060 
 3923000   0.62040315   -7.5731939    774.71896  0.016456771  0.015267085          995 
 3924000   0.63471988   -7.5962615     771.9012  0.016392737   0.01526158         1147 
 3925000   0.63357237   -7.5837117    773.65938  0.016425889  0.015256081         1120 
 3926000   0.62100354   -7.5630176     775.2243  0.016454922  0.015250589          979 
 3927000   0.62727158   -7.5981414    773.64498  0.016417218  0.015245098          954 
 3928000   0.63139826   -7.5889734      773.621   0.01641253  0.015239603         1051 
 3929000   0.61530594   -7.5878732     773.3833  0.016403311  0.015234125         1030 
 3930000   0.62286154   -7.5858368    772.90507  0.016388996  0.015228634         1106 
 3931000   0.62224974   -7.5714175     773.9618  0.016407229  0.015223154          991 
 3932000    0.6263584   -7.5580712    773.36793   0.01639047  0.015217682          995 
 3933000   0.62476182   -7.5826908    773.92162  0.016398034  0.015212196          991 
 3934000   0.62421432   -7.5875766    773.80075  0.016391306  0.015206717         1068 
 3935000   0.62726333   -7.5932694    773.86846  0.016388574  0.015201253         1100 
 3936000   0.62391342   -7.5743243    773.47661  0.016376114  0.015195782         1026 
 3937000   0.61788957   -7.5706295    772.64313  0.016354312  0.015190312         1024 
 3938000   0.61631511   -7.5981657     772.7921  0.016353312  0.015184838         1043 
 3939000   0.62101959   -7.5831861    773.52827  0.016364734  0.015179365         1028 
 3940000   0.61921035   -7.5860312    774.30292  0.016376965  0.015173894         1083 
 3941000   0.61262636   -7.5998953     773.8866  0.016364007  0.015168438         1067 
 3942000    0.6068846   -7.5864894    772.70147  0.016334802   0.01516297         1106 
 3943000   0.61639008   -7.5955255    772.80822  0.016332915  0.015157505         1242 
 3944000   0.61587186   -7.5508837    774.42488  0.016362933  0.015152053         1113 
 3945000   0.62698853   -7.5957485    773.16586   0.01633219  0.015146605         1126 
 3946000   0.61167631    -7.588793    774.12873  0.016348385  0.015141149         1110 
 3947000   0.61895284   -7.5895603     773.5707  0.016332461  0.015135696         1091 
 3948000    0.6312928   -7.5786069    773.12031  0.016318818  0.015130244         1183 
 3949000   0.63310345   -7.5747462     773.4308  0.016321237  0.015124795         1102 
 3950000   0.61150608   -7.5874065    773.76379  0.016324131  0.015119346         1167 
 3951000    0.6143715   -7.5964193     774.0069  0.016325127   0.01511391         1145 
 3952000   0.61798876   -7.6138088    773.72821  0.016315119  0.015108476         1070 
 3953000   0.61062862   -7.5941456    773.67429  0.016309855  0.015103044         1080 
 3954000   0.61914108   -7.5652543    773.53442  0.016302782  0.015097613         1169 
 3955000   0.62366338   -7.6000884    773.37485  0.016295298  0.015092175         1135 
 3956000   0.62151827    -7.606368    774.13874   0.01630727  0.015086745         1184 
 3957000   0.62435243   -7.5929723    772.73185  0.016273521   0.01508131         1087 
 3958000   0.61978129    -7.587124    773.02445  0.016275569  0.015075877         1076 
 3959000   0.60538762   -7.5955477    771.46334  0.016238599  0.015070445         1144 
 3960000   0.61987256    -7.602565    773.60611   0.01627959  0.015065014         1196 
 3961000   0.61737945   -7.6005154    773.73646  0.016278222  0.015059585         1149 
 3962000    0.6263137   -7.6145924    772.55255  0.016249212  0.015054155         1080 
 3963000   0.62157414   -7.6047584    771.52298  0.016223463  0.015048728         1085 
 3964000   0.61896239   -7.6098413    774.67594  0.016285653  0.015043302         1119 
 3965000   0.60921402   -7.5928577    775.25055  0.016293622  0.015037875         1089 
 3966000   0.61840571   -7.5974803     772.6704    0.0162353  0.015032453         1160 
 3967000   0.62810349   -7.6093519    774.75639  0.016275027  0.015027028         1132 
 3968000   0.63167667   -7.6247928     773.0659  0.016235423  0.015021606         1153 
 3969000   0.61829028   -7.6179742    773.37302  0.016237781  0.015016183         1229 
 3970000   0.62047573   -7.6122691    772.29298   0.01621102  0.015010763         1197 
 3971000   0.62202794   -7.5906071    773.91068  0.016240886  0.015005355         1221 
 3972000   0.62461384   -7.6197599    772.96568   0.01621697   0.01499995         1180 
 3973000   0.62473729   -7.6005334    772.82619  0.016209963  0.014994547         1162 
 3974000    0.6068701   -7.6143278    772.51442  0.016199346  0.014989135         1158 
 3975000    0.6083809   -7.6333644    771.84344  0.016181204   0.01498372         1250 
 3976000   0.62713137   -7.6248048    772.50975    0.0161911  0.014978305         1187 
 3977000   0.61386593   -7.5837545    774.41122  0.016226872    0.0149729         1245 
 3978000   0.61729901   -7.6073992    773.17334  0.016196861  0.014967492         1196 
 3979000   0.62042656   -7.5772985    773.73896  0.016204636  0.014962088         1224 
 3980000   0.61375296   -7.6034961    773.94255  0.016204827  0.014956687         1144 
 3981000   0.60983547   -7.5920917    771.64041  0.016152567  0.014951294         1231 
 3982000   0.60885974   -7.5978397    772.63762  0.016169379  0.014945897         1205 
 3983000   0.61775683   -7.6242342    772.36894  0.016159698  0.014940503         1241 
 3984000   0.61846164   -7.6117131    772.30523  0.016154309  0.014935117         1276 
 3985000   0.61302327   -7.5998679    773.50403  0.016175325   0.01492973         1238 
 3986000   0.61236192     -7.61352    771.59865  0.016131432  0.014924328         1330 
 3987000   0.60970251   -7.6128313    772.19794  0.016139912   0.01491894         1243 
 3988000    0.6166511   -7.6173385    772.36614  0.016139379  0.014913558         1263 
 3989000   0.61419934   -7.5927984    770.74561  0.016101479   0.01490818         1242 
 3990000   0.60827691   -7.6015133    772.59325  0.016136033  0.014902799         1232 
 3991000   0.60862804   -7.5843197    772.92744  0.016138968  0.014897419         1200 
 3992000   0.60349307   -7.5938559    772.79684  0.016132199  0.014892031         1169 
 3993000   0.61971987   -7.6108771    774.18537  0.016157137  0.014886651         1321 
 3994000   0.62234663   -7.6120705    772.52892   0.01611853  0.014881272         1124 
 3995000   0.60007668   -7.6080109    772.26574  0.016109006  0.014875892         1285 
 3996000   0.60680175   -7.6204837     772.2166   0.01610395  0.014870519         1264 
 3997000   0.61119019    -7.619766    773.05482  0.016117397  0.014865142         1299 
 3998000   0.60630006   -7.6000955    772.20753  0.016095705  0.014859764         1255 
 3999000   0.61519965   -7.5832062    774.04792  0.016130031  0.014854399         1240 
 4000000   0.62784053   -7.6415185     773.1146  0.016106554  0.014849029         1277 
 4001000   0.62106429    -7.617184    772.48418  0.016089398   0.01484366         1249 
 4002000   0.60904426   -7.6366877    771.52693  0.016065445  0.014838297         1335 
 4003000   0.62562074   -7.5999616    772.41073   0.01607983  0.014832931         1338 
 4004000   0.61589032   -7.6191502    771.72529  0.016061549  0.014827566         1246 
 4005000   0.62184267   -7.6432811      769.605  0.016013421  0.014822203         1329 
 4006000   0.60067836   -7.6344482    772.96044  0.016079224  0.014816842         1230 
 4007000   0.60110334   -7.6226541    770.55741  0.016025235  0.014811483         1362 
 4008000   0.60314241    -7.626839    770.82031  0.016026703  0.014806121         1373 
 4009000   0.60534057    -7.616757    772.02855  0.016047821  0.014800776         1285 
 4010000   0.62104107   -7.6331351    771.50174  0.016032871   0.01479543         1303 
 4011000   0.62073815   -7.6309773    771.19353   0.01602247  0.014790091         1321 
 4012000    0.6020297   -7.6240166    771.38743  0.016022504  0.014784737         1385 
 4013000   0.59914833   -7.6315624    771.86383  0.016028404  0.014779389         1298 
 4014000   0.60698963   -7.6090531    772.00533  0.016027349   0.01477404         1364 
 4015000   0.62342589   -7.6137275     772.9374  0.016042702  0.014768689         1289 
 4016000   0.60543351   -7.6337272    771.39515  0.016006705  0.014763344         1328 
 4017000   0.61355013   -7.6318991    772.53194  0.016026304  0.014757996         1328 
 4018000    0.6258986   -7.6309103    771.31372  0.015997049  0.014752657         1355 
 4019000   0.61069696   -7.6440372    771.48076  0.015996532  0.014747318         1322 
 4020000   0.59607816   -7.6242547    771.06226  0.015983878  0.014741984         1351 
 4021000   0.61074843   -7.6195715    771.33312  0.015985516  0.014736653         1323 
 4022000   0.61991153   -7.6132095    771.89277  0.015993137  0.014731321         1260 
 4023000   0.61524632   -7.6192655    772.62942  0.016004421  0.014725991         1304 
 4024000    0.6042031   -7.6347402    773.25623  0.016013424  0.014720664         1319 
 4025000   0.60734931      -7.6386    772.02445  0.015983943  0.014715346         1249 
 4026000   0.60867134   -7.6118269    771.67863  0.015972815  0.014710019         1491 
 4027000    0.6041252   -7.6114206     772.3115  0.015981945  0.014704705         1256 
 4028000   0.59700086   -7.5952632    772.00612  0.015971659  0.014699393         1285 
 4029000   0.58230193   -7.6185216    772.94871  0.015987191  0.014694082         1360 
 4030000   0.60463698   -7.6252898    772.11352  0.015965954  0.014688779         1287 
 4031000    0.5980521   -7.6308226    772.54192  0.015970849  0.014683463         1274 
 4032000    0.6027661   -7.6313578    771.72764  0.015950059   0.01467815         1410 
 4033000    0.5982181   -7.6178091    771.57266  0.015942901  0.014672845         1313 
 4034000   0.59252516   -7.6514384    770.58475  0.015918541  0.014667536         1384 
 4035000   0.60707328   -7.6267428    772.00769  0.015943984  0.014662231         1309 
 4036000   0.61012594   -7.6414702    770.68964  0.015912819  0.014656926         1280 
 4037000   0.60521412   -7.6381827    770.65487  0.015908159  0.014651623         1312 
 4038000   0.61626181   -7.6537224    771.03154  0.015911993  0.014646319         1353 
 4039000   0.60068179   -7.6428568    771.02386  0.015907895  0.014641011         1389 
 4040000   0.59667944   -7.6591055    770.50377   0.01589323  0.014635708         1439 
 4041000   0.60884643   -7.6301594    769.88019  0.015876437  0.014630408         1396 
 4042000   0.61146606   -7.6471048    771.59412  0.015907845  0.014625105         1339 
 4043000   0.60577292   -7.6459185    770.78879  0.015887311  0.014619799         1349 
 4044000   0.60142454   -7.6322563    770.74221  0.015882423  0.014614494         1375 
 4045000   0.60433877   -7.6517275     771.0226  0.015884273  0.014609197         1303 
 4046000   0.59467945   -7.6379088    771.29527  0.015885963  0.014603892         1288 
 4047000   0.60908811   -7.6257726    772.07109  0.015898013  0.014598595         1325 
 4048000   0.59669592   -7.6240878    771.80954  0.015888701    0.0145933         1292 
 4049000   0.62464712   -7.6604182    770.95036  0.015867094  0.014588006         1320 
 4050000   0.59985602   -7.6243631    771.79101  0.015880473   0.01458272         1234 
 4051000   0.60920426   -7.6483012    771.01756  0.015860643  0.014577438         1281 
 4052000   0.61028222   -7.6370597    770.75221  0.015851271  0.014572163         1331 
 4053000   0.59592486   -7.6059819    771.63587  0.015865529  0.014566879         1303 
 4054000   0.61645346   -7.6485873    770.39575  0.015836124  0.014561599         1314 
 4055000   0.59697021   -7.6519808     768.9293  0.015802082  0.014556327         1331 
 4056000   0.61428496   -7.6637159    770.18236  0.015823931  0.014551051         1295 
 4057000   0.60380455   -7.6349036    772.39584  0.015865497  0.014545784         1324 
 4058000   0.60259001   -7.6560159    769.86798  0.015809676  0.014540516         1382 
 4059000   0.59888077   -7.6556061    770.87963  0.015826551  0.014535248         1434 
 4060000   0.62088417   -7.6668768    770.83663   0.01582177  0.014529972         1399 
 4061000   0.59518437   -7.6676981    769.40687  0.015788535  0.014524701         1412 
 4062000   0.60558379   -7.6551414    770.43161  0.015805671  0.014519443         1316 
 4063000    0.6096714   -7.6674249    771.77789  0.015829393   0.01451418         1389 
 4064000   0.61177952   -7.6512363    771.04388  0.015810447  0.014508916         1347 
 4065000   0.59810671   -7.6553328    770.87038  0.015803001  0.014503665         1399 
 4066000   0.61167691   -7.6690118    769.39493  0.015768875  0.014498407         1411 
 4067000   0.60733764   -7.6564138    770.06677  0.015778763  0.014493142         1399 
 4068000   0.58532323    -7.668285    769.58036  0.015764921  0.014487889         1379 
 4069000   0.60438146   -7.6456221    770.68414  0.015783652  0.014482641         1411 
 4070000   0.58170833   -7.6659276    771.23769  0.015791107  0.014477397         1485 
 4071000    0.6016518   -7.6415428    770.06522  0.015763228   0.01447216         1473 
 4072000   0.60638013   -7.6620895    771.23076   0.01578321  0.014466926         1418 
 4073000   0.59504831   -7.6602475    770.36791  0.015761681   0.01446169         1327 
 4074000   0.60465599   -7.6804108     770.2496  0.015755392  0.014456445         1392 
 4075000   0.61072981   -7.6652687    770.24789  0.015751491  0.014451209         1387 
 4076000   0.59723182   -7.6526773    769.66101  0.015735627  0.014445967         1428 
 4077000   0.59985208   -7.6488445    769.10063  0.015720314  0.014440728         1474 
 4078000   0.60330404   -7.6712801     769.6648  0.015727988  0.014435484         1488 
 4079000   0.59793262    -7.678774    768.11779  0.015692526  0.014430242         1447 
 4080000   0.60942528   -7.6640017    770.55816  0.015738525     0.014425         1398 
 4081000   0.61053007   -7.6456597    770.41445  0.015731734  0.014419767         1427 
 4082000    0.5908085   -7.6752023    771.56279  0.015751323   0.01441454         1450 
 4083000   0.61426239   -7.6733464    769.02924  0.015695755  0.014409318         1523 
 4084000   0.58651085   -7.6694394    771.08264  0.015733812  0.014404099         1450 
 4085000   0.60191061   -7.6643163    771.07867  0.015729879  0.014398885         1541 
 4086000   0.59368205   -7.6519045    771.21543  0.015728819  0.014393679         1425 
 4087000   0.61275172   -7.6555115    770.27892  0.015705875   0.01438847         1453 
 4088000   0.59533912    -7.665733    770.17322  0.015699878  0.014383258         1416 
 4089000    0.5788643   -7.6690937    770.08908  0.015694324  0.014378044         1468 
 4090000   0.59315574   -7.6556352    769.17172  0.015671795  0.014372839         1419 
 4091000   0.59611393    -7.674978    769.65671  0.015677844  0.014367623         1418 
 4092000   0.59555564   -7.6615617    769.97288  0.015680451  0.014362418         1424 
 4093000   0.60480481   -7.6468179    770.40859  0.015685491  0.014357226         1433 
 4094000   0.60209776   -7.6586712    768.86516  0.015650244  0.014352024         1504 
 4095000   0.60259785   -7.6689684    770.75135  0.015684806  0.014346826         1493 
 4096000   0.59515504   -7.6522775    770.44853  0.015674816  0.014341637         1481 
 4097000   0.59761465   -7.6583896    770.29704  0.015667908  0.014336442         1418 
 4098000   0.58611577   -7.6890654    770.04385  0.015658936  0.014331248         1406 
 4099000   0.59741625   -7.6546689    769.78084  0.015649769  0.014326057         1425 
 4100000   0.58190332   -7.6606796    769.95157  0.015649422  0.014320868         1368 
 4101000   0.58390913   -7.6583501    770.75679  0.015661968  0.014315678         1449 
 4102000   0.60152343   -7.6653713    768.80201  0.015618438   0.01431049         1471 
 4103000   0.60540168   -7.6881762    768.22508  0.015602914  0.014305307         1522 
 4104000     0.586792   -7.6534878    770.67552  0.015648869  0.014300126         1467 
 4105000   0.59530637   -7.6723708    770.07939  0.015632955   0.01429495         1365 
 4106000   0.58437568    -7.644602    770.31541  0.015633938  0.014289773         1370 
 4107000   0.58944512    -7.652144    769.88449  0.015621388  0.014284592         1499 
 4108000   0.59838222    -7.662144    769.99697  0.015619867  0.014279419         1391 
 4109000   0.59177675    -7.680527    768.57451  0.015587217  0.014274251         1517 
 4110000   0.58719591   -7.6448651    769.77491  0.015607764  0.014269084         1379 
 4111000   0.60341812   -7.6595557    770.96013  0.015627993  0.014263919         1388 
 4112000   0.59099393   -7.6687009    769.72702  0.015599202  0.014258757         1531 
 4113000   0.59769583   -7.6810174    769.60759  0.015592989  0.014253592         1488 
 4114000   0.59398127   -7.6873972    769.13147  0.015579555  0.014248427         1360 
 4115000    0.5869757   -7.6752953    769.95259  0.015592398  0.014243267         1383 
 4116000   0.59314636   -7.6775437    768.30758  0.015555304  0.014238113         1427 
 4117000   0.61279416   -7.6789112    769.15653   0.01556871  0.014232953         1488 
 4118000   0.59122598   -7.6641808    768.96741  0.015561102  0.014227797         1516 
 4119000   0.59872839   -7.6643616     768.9444  0.015556858  0.014222642         1493 
 4120000   0.59421905   -7.6745525    769.47409  0.015563796  0.014217488         1539 
 4121000   0.60080389   -7.6719037    770.36719   0.01557808  0.014212339         1428 
 4122000   0.59080577   -7.6603529    770.67512  0.015580526  0.014207193         1372 
 4123000   0.58035444   -7.6821055    768.66193  0.015536057  0.014202056         1444 
 4124000   0.58702493   -7.6736869    770.03197  0.015559974  0.014196914         1455 
 4125000    0.6010399   -7.6755681    769.34796  0.015542383  0.014191774         1541 
 4126000   0.59864459   -7.6775996    769.04104  0.015532417  0.014186632         1432 
 4127000   0.58932438   -7.6893086    768.80507  0.015523889  0.014181496         1421 
 4128000   0.59383982   -7.6822025    769.67708  0.015537732  0.014176361         1431 
 4129000   0.58020622   -7.6611364    769.98621  0.015540208  0.014171232         1423 
 4130000   0.60010221   -7.6653857    769.49196  0.015526472  0.014166101         1435 
 4131000    0.5928008   -7.6942463    766.72395  0.015466875  0.014160967         1477 
 4132000   0.59386174   -7.6936108    769.01968  0.015509432  0.014155832         1401 
 4133000   0.59040084   -7.6741346    769.20146  0.015509345  0.014150701         1527 
 4134000   0.59532007   -7.6900791    768.23605  0.015486132  0.014145578         1479 
 4135000   0.60074168   -7.6889495    770.12023  0.015520359  0.014140453         1451 
 4136000   0.59395111   -7.6849896    768.70846  0.015488162  0.014135336         1488 
 4137000   0.58806071   -7.6905504    769.44046  0.015499163  0.014130214         1427 
 4138000   0.60456801     -7.69548    767.96766  0.015465758   0.01412509         1499 
 4139000    0.5921274   -7.6579583    770.60018  0.015515023   0.01411998         1359 
 4140000    0.5838809   -7.6834163    769.16363   0.01548236   0.01411488         1411 
 4141000   0.58638406   -7.6710889    768.72421  0.015469778  0.014109779         1392 
 4142000   0.57575377   -7.6668018    770.10141  0.015493751  0.014104673         1316 
 4143000   0.58418674   -7.6871035    767.59003  0.015439497  0.014099564         1405 
 4144000    0.5830596   -7.6886021    769.06034  0.015465338  0.014094465         1423 
 4145000    0.5731291   -7.6841061    768.05476   0.01544139  0.014089357         1471 
 4146000   0.58037328   -7.6843315    769.94427  0.015475645  0.014084254         1441 
 4147000   0.58444579   -7.6955402    768.08508  0.015434553  0.014079146         1340 
 4148000   0.59076732   -7.6946856    769.17971  0.015452823   0.01407405         1436 
 4149000   0.58753257   -7.6743331    769.11936  0.015447886  0.014068966         1451 
 4150000   0.58545086   -7.6787756    768.42357  0.015430192  0.014063867         1465 
 4151000   0.57775878   -7.6955428    768.38576  0.015425716   0.01405877         1443 
 4152000   0.57615507   -7.6803832    769.26905  0.015439729  0.014053677         1379 
 4153000   0.58948412   -7.6885517    768.19661  0.015414492  0.014048587         1439 
 4154000   0.58342562   -7.6856597    769.91802  0.015445314  0.014043501         1422 
 4155000   0.59474702   -7.6891249    768.75398  0.015418251  0.014038418         1574 
 4156000   0.58030893   -7.6873791    768.60205  0.015411494  0.014033332         1543 
 4157000   0.58212251   -7.6862348    769.36753  0.015423132  0.014028258         1464 
 4158000   0.59368564    -7.670008    768.94242  0.015410903  0.014023188         1457 
 4159000   0.59105503   -7.6913586    768.92767  0.015406902  0.014018123         1462 
 4160000   0.59390565   -7.6926881    769.72759  0.015419223  0.014013059         1387 
 4161000   0.58171986   -7.6655716    770.35884  0.015428159  0.014007999         1386 
 4162000   0.59384368   -7.6818512    767.42322  0.015365674  0.014002941         1409 
 4163000   0.59052622   -7.6935051    768.06652   0.01537486  0.013997881         1520 
 4164000   0.58006906   -7.6980526    769.00876  0.015390025   0.01399283         1437 
 4165000   0.59067831   -7.6880893    769.51595  0.015396478  0.013987783         1401 
 4166000   0.58880815    -7.676048    767.46088  0.015351674   0.01398273         1521 
 4167000   0.58704638   -7.6892429    768.55514  0.015369873  0.013977686         1419 
 4168000   0.58869677   -7.6743436    769.35791  0.015382236  0.013972639         1380 
 4169000   0.59198756   -7.6769656    768.36909  0.015358781  0.013967597         1468 
 4170000    0.5839875   -7.7070137    768.54129  0.015358539  0.013962558         1482 
 4171000   0.58669315   -7.6967424    768.19284  0.015347895  0.013957518         1518 
 4172000    0.5836029   -7.6945967    768.22005   0.01534476  0.013952469         1459 
 4173000   0.58528487    -7.660709    768.97349  0.015356128  0.013947434         1525 
 4174000   0.57490067   -7.7007583    768.00618  0.015333137  0.013942395         1421 
 4175000   0.58731287   -7.6951802    768.38601  0.015337046  0.013937359         1531 
 4176000   0.57674855   -7.7159353    767.96201  0.015324912   0.01393232         1569 
 4177000   0.58935624   -7.7136521    766.61364  0.015294343  0.013927287         1583 
 4178000   0.59619911   -7.7027965    769.96788  0.015357585  0.013922257         1564 
 4179000   0.58895788   -7.6943678    767.51075  0.015304912  0.013917225         1588 
 4180000   0.58067521   -7.6947473    768.79702  0.015326894  0.013912197         1540 
 4181000   0.58005918   -7.6928512     767.8102   0.01530356  0.013907165         1533 
 4182000   0.57982467   -7.6940435    768.98774  0.015323365  0.013902142         1451 
 4183000   0.56776764   -7.6733792    769.49436  0.015329794  0.013897119         1526 
 4184000   0.57596931   -7.6899727    767.86217  0.015293622  0.013892108         1453 
 4185000   0.58487629   -7.6903078    768.69346   0.01530652  0.013887092         1491 
 4186000   0.59156491   -7.7008192     769.0988  0.015310933  0.013882073         1500 
 4187000    0.5804647   -7.7088267      767.804  0.015281506  0.013877056         1510 
 4188000   0.57618987   -7.7045294    769.27946  0.015307216   0.01387205         1549 
 4189000   0.57593203   -7.7002617    767.82888  0.015274705  0.013867044         1446 
 4190000   0.57319392   -7.7196151    768.20943  0.015278628  0.013862038         1632 
 4191000   0.58634638   -7.6957166    768.48509  0.015280464  0.013857026         1440 
 4192000   0.57364399    -7.718899      768.112  0.015269402  0.013852025         1451 
 4193000   0.57530505   -7.6938315    768.65733  0.015276599  0.013847018         1470 
 4194000   0.57808721   -7.6995193    768.52465   0.01527032   0.01384202         1536 
 4195000   0.57586486   -7.6930777    769.60519  0.015288145  0.013837023         1527 
 4196000   0.58136916   -7.6942512    769.19928   0.01527644  0.013832022         1484 
 4197000   0.57556664   -7.7145239    767.50641  0.015239187  0.013827025         1522 
 4198000    0.5879158   -7.7074908    769.58099  0.015276739  0.013822032         1480 
 4199000   0.59428235   -7.6860037     766.7789   0.01521749  0.013817043         1481 
 4200000   0.58324851   -7.6996893    768.41582  0.015246346  0.013812053         1537 
 4201000   0.57734534   -7.7158998    766.87065  0.015212066  0.013807062         1527 
 4202000   0.58126167    -7.703916    767.23994  0.015215769  0.013802072         1553 
 4203000   0.58381583   -7.6973463    768.12188  0.015229635  0.013797088         1477 
 4204000   0.57950411   -7.7002828    769.12725  0.015245941  0.013792103         1483 
 4205000   0.58550275   -7.7055552    766.09863  0.015182296  0.013787125         1549 
 4206000   0.57466855   -7.6995501    769.55678  0.015247202  0.013782156         1484 
 4207000   0.57908116   -7.7027259    767.69875  0.015206773  0.013777179         1508 
 4208000   0.57201473   -7.6757731    769.49141  0.015238661  0.013772218         1507 
 4209000   0.58171148   -7.7054882    768.27454  0.015210948  0.013767247         1446 
 4210000   0.58319271   -7.7210053    768.32866  0.015208406  0.013762285         1541 
 4211000   0.58433036   -7.7126501    767.53984  0.015189184  0.013757325         1495 
 4212000   0.58154227   -7.6968211    769.15113  0.015217457  0.013752371         1584 
 4213000   0.57856831    -7.701296    770.48888  0.015240305  0.013747418         1498 
 4214000   0.56800687    -7.707165    768.94251  0.015206109  0.013742462         1494 
 4215000     0.575868   -7.6963751    767.02174  0.015164526  0.013737506         1535 
 4216000    0.5777846   -7.6975397    768.29798  0.015186156  0.013732553         1591 
 4217000   0.57398722   -7.6798556    767.86768  0.015174051  0.013727609         1504 
 4218000   0.57183314   -7.7048355    769.03882  0.015193591  0.013722665         1538 
 4219000   0.58051047   -7.7265778    768.09005   0.01517125  0.013717721         1538 
 4220000   0.58585371   -7.7144812    768.50475  0.015175844   0.01371277         1542 
 4221000   0.57759871   -7.6939732    767.92519  0.015160807  0.013707821         1511 
 4222000   0.57132403    -7.707688    767.03827   0.01513971  0.013702878         1524 
 4223000   0.56675808   -7.7134682    769.39649   0.01518266   0.01369794         1494 
 4224000   0.56508906   -7.7247274     767.7616  0.015146812  0.013693007         1597 
 4225000   0.58161004   -7.7049693    766.97446  0.015127701  0.013688082         1577 
 4226000   0.57414777    -7.726454    766.32457  0.015111306  0.013683154         1554 
 4227000   0.58009712   -7.7138301    767.90319  0.015138853  0.013678227         1550 
 4228000   0.55614788   -7.7129228    768.28857  0.015142868  0.013673301         1472 
 4229000   0.57889544   -7.7225804    768.19559  0.015137455  0.013668377         1466 
 4230000   0.57614073   -7.7019853    766.86643  0.015107692   0.01366345         1485 
 4231000   0.57098779   -7.7064147    768.48108  0.015135923  0.013658529         1504 
 4232000   0.57351943   -7.7213194    768.02927   0.01512345  0.013653611         1498 
 4233000    0.5758813    -7.699722    768.08126    0.0151209  0.013648691         1521 
 4234000   0.57892734   -7.7163908    768.17014  0.015119078  0.013643778         1567 
 4235000    0.5536042   -7.7079144    768.80541  0.015128009  0.013638865         1463 
 4236000   0.56845786   -7.7072279    767.64751  0.015101659  0.013633951         1431 
 4237000   0.57243512   -7.6981542    767.54229  0.015096025  0.013629036         1471 
 4238000   0.57906181   -7.7301102     769.3924  0.015128842  0.013624126         1534 
 4239000   0.58159013   -7.7166461    767.26992  0.015083548  0.013619217         1500 
 4240000   0.57915958   -7.7115466    768.61169  0.015106362  0.013614309         1445 
 4241000   0.58203594   -7.7141434    766.75115  0.015066241  0.013609403         1492 
 4242000   0.56280609   -7.7097635    767.45433  0.015076503  0.013604502         1537 
 4243000   0.57378579    -7.714657    767.13298  0.015066639  0.013599608         1536 
 4244000    0.5721523   -7.7169002    768.06462  0.015081382  0.013594712         1561 
 4245000    0.5693154   -7.7053987    770.31688  0.015122043  0.013589816         1422 
 4246000   0.56956663   -7.7219271    767.27412  0.015058764  0.013584929         1480 
 4247000    0.5792758   -7.6866384    767.03557  0.015050537   0.01358004         1467 
 4248000   0.57151582    -7.728854     768.3454  0.015072689   0.01357516         1487 
 4249000   0.58363972   -7.7052089    766.50051  0.015032959  0.013570274         1539 
 4250000   0.57144458   -7.7077788    766.17645  0.015023068  0.013565391         1648 
 4251000   0.56850314   -7.7205011    766.80971  0.015031948  0.013560505         1561 
 4252000   0.56259202   -7.7089016    768.11544  0.015054003  0.013555631         1501 
 4253000   0.56090373   -7.7131376    767.97445  0.015047701  0.013550759         1434 
 4254000   0.56398472    -7.705662    767.50163  0.015034901  0.013545887         1499 
 4255000   0.56692199   -7.7023809    767.05079  0.015022538  0.013541014         1561 
 4256000   0.59312717   -7.7104501    767.67506  0.015031232  0.013536148         1537 
 4257000   0.57848193   -7.7249741    768.45653  0.015042998  0.013531281         1502 
 4258000   0.56393543   -7.7166162    767.44187  0.015019608  0.013526415         1526 
 4259000   0.57377969   -7.7171403    767.40748  0.015015408  0.013521553         1503 
 4260000   0.56822664   -7.7017527    767.40396  0.015011814  0.013516694         1446 
 4261000   0.57795645   -7.6890315    767.43191  0.015008838  0.013511834         1544 
 4262000   0.56890387   -7.7053213    768.42509  0.015024736  0.013506978         1446 
 4263000   0.57083949   -7.6973628    769.67842  0.015045712  0.013502123         1537 
 4264000   0.57814931    -7.732369    768.06153  0.015010583   0.01349727         1509 
 4265000   0.57520958   -7.7044631    768.47581  0.015015159  0.013492414         1491 
 4266000    0.5759449   -7.7464548    766.59223  0.014974844  0.013487565         1539 
 4267000   0.58651671   -7.7384213    767.96019  0.014998051  0.013482721         1571 
 4268000   0.57956384   -7.7228766    767.64802  0.014988442  0.013477871         1560 
 4269000   0.58194825   -7.7270512     767.2945   0.01497803  0.013473027         1495 
 4270000   0.57516365   -7.7125683    767.29295  0.014974492  0.013468184         1510 
 4271000   0.57245999   -7.7189972    768.35227  0.014991654  0.013463352         1500 
 4272000   0.57417877   -7.7203997    767.95642  0.014980423  0.013458516         1542 
 4273000   0.55961492   -7.7231712    768.94177  0.014996134  0.013453679         1593 
 4274000   0.56459252    -7.724086    767.62028  0.014966859  0.013448839         1530 
 4275000   0.56600404   -7.7258413    767.14444  0.014954083  0.013444013         1573 
 4276000   0.55566411    -7.713706    768.13658  0.014969921  0.013439189         1526 
 4277000   0.57789828   -7.7143163    765.90941  0.014923026  0.013434362         1526 
 4278000   0.57201677    -7.718023    767.72082  0.014954824  0.013429537         1524 
 4279000   0.56900258   -7.7217849    767.77724  0.014952427   0.01342472         1496 
 4280000   0.56216957   -7.7396016    766.28111  0.014919803    0.0134199         1559 
 4281000   0.55552745   -7.7322404    765.37768  0.014898732  0.013415079         1543 
 4282000   0.55650394   -7.7158256    768.39473  0.014953969  0.013410264         1425 
 4283000   0.56367072   -7.7114429     767.6468  0.014935925  0.013405449         1505 
 4284000   0.57596138   -7.7347541     767.8587   0.01493656  0.013400641         1482 
 4285000    0.5695011    -7.718523    766.52654  0.014907167   0.01339583         1484 
 4286000    0.5690501    -7.715538      766.771  0.014908442  0.013391024         1524 
 4287000   0.57011652   -7.7200992    767.22791  0.014913846  0.013386219         1542 
 4288000   0.55803234   -7.7074848    769.30213  0.014950679  0.013381422         1559 
 4289000   0.55739713   -7.7104652    767.81528  0.014918304  0.013376623         1411 
 4290000   0.56232119   -7.7213675    766.53052   0.01488987   0.01337182         1480 
 4291000   0.56090931   -7.7353517    767.36948  0.014902693  0.013367019         1470 
 4292000   0.56105142   -7.7194348    767.59245   0.01490355  0.013362228         1575 
 4293000    0.5640074    -7.721414    767.22006   0.01489285  0.013357438         1533 
 4294000   0.56341524   -7.7221254    766.90641  0.014883295  0.013352645         1487 
 4295000   0.57595206   -7.7282334    766.90336   0.01487977  0.013347853         1542 
 4296000   0.56592246   -7.7227583    768.85626  0.014914189  0.013343065         1526 
 4297000   0.56590174   -7.7333435    765.82667  0.014851964  0.013338275         1564 
 4298000   0.57316601   -7.7180763    767.50754  0.014881099  0.013333491         1571 
 4299000   0.57515045   -7.7354247    767.70362  0.014881438  0.013328711         1570 
 4300000   0.56099495    -7.706116    766.38384    0.0148524  0.013323932         1571 
 4301000   0.55451339   -7.7300931    766.94027  0.014859728  0.013319155         1549 
 4302000   0.56255351   -7.7059774    768.13524  0.014879421   0.01331438         1510 
 4303000   0.56196914    -7.712193    766.54498  0.014845166  0.013309608         1564 
 4304000   0.55224011   -7.7437982    766.69256  0.014844574  0.013304839         1629 
 4305000   0.56148082   -7.7296673    766.43193  0.014836081  0.013300064         1505 
 4306000   0.54834571   -7.7250893    767.54981  0.014854269  0.013295286         1517 
 4307000   0.56561631   -7.7318824    767.27842   0.01484557  0.013290519         1586 
 4308000   0.55099661   -7.7281101    765.77744  0.014813089  0.013285751         1565 
 4309000   0.57282673   -7.7384601    767.26198  0.014838361  0.013280997         1555 
 4310000   0.56687915   -7.7273711    767.65604  0.014842537  0.013276236         1494 
 4311000   0.56818402   -7.7277594     768.1396  0.014848442  0.013271471         1516 
 4312000   0.55317553   -7.7514275    767.05386  0.014824016   0.01326671         1531 
 4313000   0.56071477   -7.7521935    766.52828  0.014810423  0.013261955         1576 
 4314000   0.55816819   -7.7174708    766.36454  0.014803827  0.013257203         1577 
 4315000   0.55923716   -7.7424904    767.30774  0.014818612   0.01325245         1551 
 4316000   0.54729378   -7.7310956    766.26681  0.014795081  0.013247701         1556 
 4317000    0.5666617   -7.7480578    767.36353  0.014812824  0.013242949         1452 
 4318000   0.55796763   -7.7249458    767.18345  0.014805918  0.013238198         1459 
 4319000   0.56519021     -7.74124    766.64885  0.014792175  0.013233456         1507 
 4320000   0.55148144   -7.7583513    767.17896  0.014798977  0.013228717         1515 
 4321000   0.56328936   -7.7280612    767.01901  0.014792467   0.01322398         1584 
 4322000   0.55278606   -7.7481515    767.34537  0.014795337  0.013219242         1496 
 4323000   0.55661891   -7.7462375    766.11669   0.01476823  0.013214508         1592 
 4324000   0.55661553   -7.7397655    765.58309  0.014754531  0.013209778         1524 
 4325000   0.55689354   -7.7232041    768.73333  0.014811818  0.013205053         1525 
 4326000   0.55914128   -7.7322874    766.09571  0.014757584  0.013200329         1493 
 4327000   0.56034288   -7.7300205    767.49023   0.01478103  0.013195604         1581 
 4328000   0.56281035    -7.716172     767.1348  0.014770772  0.013190882         1549 
 4329000   0.55097498   -7.7361924    768.42575  0.014792211  0.013186157         1540 
 4330000   0.54973721   -7.7371207    766.61151  0.014753878   0.01318144         1485 
 4331000    0.5650638   -7.7316679    767.34067  0.014764501  0.013176727         1498 
 4332000   0.56334694   -7.7129291    767.52811  0.014764699  0.013172011         1530 
 4333000    0.5530247   -7.7373223    766.64023  0.014744216  0.013167299         1515 
 4334000   0.57167846   -7.7386082    767.96298  0.014766247  0.013162586         1537 
 4335000   0.55664473   -7.7387749     766.4254  0.014733283  0.013157879         1582 
 4336000   0.55523949   -7.7285741    767.70674  0.014754511  0.013153175         1527 
 4337000   0.55225795   -7.7508746    768.17874  0.014760179   0.01314847         1514 
 4338000   0.56679982   -7.7456448    766.37351  0.014722098  0.013143764         1647 
 4339000   0.55610093   -7.7281618    767.98412  0.014749637  0.013139065         1527 
 4340000   0.55712688   -7.7315454    766.48587  0.014717471  0.013134361         1570 
 4341000   0.54039375   -7.7445725     766.5077  0.014714499  0.013129662         1533 
 4342000   0.57166601   -7.7549729    766.75182  0.014715796  0.013124967         1562 
 4343000   0.55297963   -7.7461262    767.49092  0.014726589  0.013120274         1534 
 4344000   0.53883291   -7.7176204    767.81425  0.014729402  0.013115584         1562 
 4345000   0.54796621   -7.7398281    766.53013  0.014701383  0.013110892         1535 
 4346000   0.54682571   -7.7519003     766.1784  0.014691256   0.01310621         1534 
 4347000   0.56302842   -7.7501974    768.07445  0.014724225  0.013101521         1575 
 4348000   0.56024519   -7.7378903    767.27272  0.014705472  0.013096832         1586 
 4349000    0.5611091   -7.7353384    765.99691  0.014677645  0.013092147         1608 
 4350000   0.53997136   -7.7262896     767.0576   0.01469459  0.013087462         1603 
 4351000   0.56354028   -7.7619286    767.21676  0.014694261  0.013082781         1582 
 4352000   0.56554716    -7.731001    767.01392  0.014687001  0.013078103         1481 
 4353000   0.55058186    -7.725865    767.54596  0.014693812  0.013073435         1504 
 4354000   0.55268191   -7.7275444    766.19368  0.014664555  0.013068768         1535 
 4355000   0.55947847   -7.7388142    765.99759  0.014657436  0.013064098         1541 
 4356000   0.55441435   -7.7417652    764.59925   0.01462732   0.01305943         1521 
 4357000   0.56150151   -7.7424467    765.74252  0.014645829  0.013054765         1532 
 4358000   0.56079027   -7.7469465    766.87911  0.014664202    0.0130501         1565 
 4359000   0.55116869   -7.7617806    765.38763  0.014632324  0.013045437         1564 
 4360000   0.54631334   -7.7443463     765.9398  0.014639522  0.013040772         1533 
 4361000   0.55616289   -7.7378447    766.82808  0.014653139   0.01303611         1532 
 4362000   0.54411813     -7.76542     765.5378   0.01462513   0.01303144         1540 
 4363000   0.54642181   -7.7353476    766.31559  0.014636634   0.01302678         1546 
 4364000   0.54475932   -7.7440463    767.06504  0.014647591  0.013022123         1450 
 4365000    0.5408526    -7.737461    767.77465  0.014657782   0.01301747         1568 
 4366000    0.5531173   -7.7270624    766.70684  0.014634044  0.013012822         1504 
 4367000   0.56105283   -7.7495853    766.37382  0.014624338  0.013008178         1430 
 4368000   0.55618443   -7.7428003    767.11478  0.014635126  0.013003537         1499 
 4369000   0.55140772   -7.7459907    766.18069   0.01461396  0.012998888         1491 
 4370000   0.56472546   -7.7301472    766.25019  0.014611941  0.012994239         1440 
 4371000   0.55830266   -7.7490317    765.61509   0.01459649  0.012989596         1525 
 4372000   0.55098687    -7.744166    765.93804  0.014599307  0.012984959         1466 
 4373000   0.55112159   -7.7531739    765.63446  0.014590183  0.012980327         1502 
 4374000   0.55364813   -7.7347093    765.11701  0.014576989  0.012975694         1416 
 4375000   0.55215175   -7.7750028    765.97372  0.014589976  0.012971058         1548 
 4376000   0.55770177   -7.7388471    767.70529  0.014619616  0.012966431         1488 
 4377000    0.5670317   -7.7472933    767.51904   0.01461273  0.012961808         1514 
 4378000   0.54743295   -7.7363067    767.19478   0.01460322   0.01295718         1505 
 4379000   0.55678831   -7.7401667      766.375  0.014584285  0.012952556         1531 
 4380000   0.56162806   -7.7580379    765.17426   0.01455811   0.01294793         1587 
 4381000   0.54675076   -7.7453918    765.50415  0.014561062  0.012943305         1555 
 4382000   0.55267351   -7.7551057    765.89825  0.014565234  0.012938686         1533 
 4383000   0.55571819   -7.7403147    766.13936  0.014566495  0.012934067         1629 
 4384000   0.55203404   -7.7738072     765.8726  0.014558101  0.012929448         1520 
 4385000   0.54764986   -7.7525487    765.96115  0.014556464  0.012924835         1568 
 4386000   0.54443361   -7.7532976    766.67711  0.014566749  0.012920217         1583 
 4387000   0.54048349   -7.7228123    766.36466  0.014557493  0.012915607         1461 
 4388000   0.55469954   -7.7412886    767.97001  0.014584663     0.012911         1518 
 4389000   0.53995028   -7.7500165    765.79627  0.014540067  0.012906393         1620 
 4390000   0.55198724   -7.7484928     765.7503  0.014535883  0.012901789         1494 
 4391000   0.54584564   -7.7712817    767.35721  0.014563069  0.012897195         1576 
 4392000   0.54822655   -7.7442508    765.75422  0.014529338  0.012892603         1473 
 4393000   0.54279627   -7.7342648    767.50565  0.014559254  0.012888008         1502 
 4394000   0.54739729   -7.7528552    766.00552  0.014527491  0.012883421         1571 
 4395000   0.54509738   -7.7703836    766.47192  0.014533029  0.012878827         1518 
 4396000   0.56147319   -7.7335757    766.98517  0.014539452  0.012874242         1483 
 4397000   0.55978114   -7.7469517    765.80279  0.014513737  0.012869659         1506 
 4398000   0.54737034   -7.7457149     767.4092  0.014540875  0.012865078         1565 
 4399000   0.55660537   -7.7463516    766.57282  0.014521725  0.012860496         1564 
 4400000   0.54871405   -7.7473481    767.24389  0.014531134  0.012855915         1635 
 4401000   0.54261252   -7.7630743    765.46035  0.014494061  0.012851336         1584 
 4402000   0.55491864   -7.7407653    766.28548  0.014506389  0.012846757         1640 
 4403000   0.54117886   -7.7411829    766.19807   0.01450144  0.012842185         1621 
 4404000   0.54487905   -7.7616201    767.01264   0.01451356  0.012837614         1518 
 4405000   0.54153081   -7.7399158    766.17645  0.014494447  0.012833039         1633 
 4406000    0.5545355   -7.7428914    766.63546  0.014499838  0.012828476         1599 
 4407000   0.54956356   -7.7597828    767.02146  0.014503847  0.012823909         1664 
 4408000   0.55314439   -7.7463634    765.47571  0.014471334  0.012819345         1644 
 4409000   0.54677267   -7.7583645    765.87194  0.014475541  0.012814784         1619 
 4410000   0.55670309   -7.7585873    766.11187  0.014476793  0.012810224         1665 
 4411000   0.54848471   -7.7572799    765.35055  0.014459128  0.012805662         1642 
 4412000   0.54894751   -7.7458606    766.11419  0.014470274  0.012801105         1671 
 4413000    0.5416034   -7.7674538    765.22526  0.014450209  0.012796547         1638 
 4414000   0.53822476   -7.7562224    764.86917  0.014440212  0.012791993         1665 
 4415000   0.54328502   -7.7497213     766.3713  0.014465294  0.012787441         1669 
 4416000   0.54074837   -7.7770844    766.48945  0.014464248  0.012782886         1726 
 4417000    0.5453656   -7.7504075    766.49307  0.014461042  0.012778334         1622 
 4418000   0.55114164   -7.7590044    766.56579   0.01445914  0.012773781         1637 
 4419000   0.53864119   -7.7696113    766.16503  0.014448311  0.012769227         1645 
 4420000   0.55238756    -7.772014    765.82782  0.014438684  0.012764684         1613 
 4421000   0.52979152   -7.7606407     764.8268   0.01441655  0.012760139         1647 
 4422000   0.53386148   -7.7559951     767.3445  0.014460736  0.012755599         1771 
 4423000    0.5592041   -7.7686218    765.00413  0.014413372  0.012751059         1675 
 4424000   0.54794853   -7.7558905    765.57658  0.014420897  0.012746519         1615 
 4425000   0.54412285   -7.7623585    764.97334  0.014406278  0.012741982         1579 
 4426000    0.5339938   -7.7616356    766.44193  0.014430673  0.012737439         1677 
 4427000   0.53937833   -7.7555273     767.3884   0.01444523  0.012732909         1627 
 4428000   0.52938287   -7.7331472    764.96655  0.014396389  0.012728378         1658 
 4429000   0.53760471   -7.7639136    764.91614   0.01439219  0.012723849         1667 
 4430000    0.5500935   -7.7670961    765.34663   0.01439704  0.012719322         1659 
 4431000   0.54760257   -7.7589853    764.25448  0.014373251  0.012714797         1540 
 4432000   0.53732027   -7.7648628    765.85631  0.014400126   0.01271027         1575 
 4433000   0.53545938   -7.7698508    764.44237  0.014370298  0.012705746         1661 
 4434000   0.54360816   -7.7614376      767.115  0.014417287  0.012701225         1559 
 4435000   0.53635538   -7.7615716    764.57488  0.014366307   0.01269671         1725 
 4436000   0.55384903     -7.76625    763.42986  0.014341559  0.012692188         1690 
 4437000   0.55088528   -7.7617717    765.49922  0.014377192   0.01268767         1668 
 4438000   0.54799759   -7.7678637    765.00387  0.014364651  0.012683161         1688 
 4439000   0.53550824   -7.7618521    764.83248  0.014358198  0.012678653         1710 
 4440000   0.54790391    -7.761192    765.64587   0.01437023  0.012674141         1700 
 4441000   0.55166649   -7.7665423    765.15512  0.014357786  0.012669638         1630 
 4442000   0.53953528   -7.7694916    765.71189  0.014364999  0.012665132         1673 
 4443000   0.53838587   -7.7585141    765.85607   0.01436447  0.012660636         1629 
 4444000   0.53721628    -7.758915     765.6005  0.014356445  0.012656132         1680 
 4445000    0.5500293   -7.7697849    764.33552    0.0143295  0.012651631         1593 
 4446000   0.54074138   -7.7596748     766.0917  0.014359194  0.012647132         1599 
 4447000   0.53422558   -7.7753976    766.00261  0.014354295  0.012642634         1711 
 4448000   0.52860422   -7.7451236    765.73686  0.014346089  0.012638145         1592 
 4449000    0.5370552   -7.7796215    764.66807  0.014322845  0.012633651         1641 
 4450000   0.52910052     -7.76439    766.09399  0.014346329  0.012629158         1592 
 4451000   0.54457622   -7.7581274    764.89258  0.014320613  0.012624666         1633 
 4452000   0.54519643   -7.7655826    765.37382  0.014326404  0.012620177         1644 
 4453000   0.56004894   -7.7564996    765.95188  0.014334005  0.012615699         1661 
 4454000   0.53684397   -7.7697643    764.75432  0.014308381  0.012611223         1685 
 4455000   0.53704926   -7.7618454    765.39248  0.014317106  0.012606741         1710 
 4456000   0.53113053   -7.7617253    763.76771  0.014283507   0.01260226         1682 
 4457000     0.552671   -7.7485128     764.3838  0.014291822  0.012597786         1650 
 4458000   0.53425787   -7.7487309    765.75868  0.014314317  0.012593307         1654 
 4459000    0.5306625   -7.7709712    765.28856   0.01430232  0.012588832         1693 
 4460000    0.5386151   -7.7782515    765.27272  0.014298818  0.012584361         1626 
 4461000   0.54143985   -7.7776411    765.04565  0.014291371  0.012579896         1601 
 4462000   0.54569069   -7.7692729    764.86884  0.014284866   0.01257543         1621 
 4463000   0.54809423   -7.7714403    765.04728  0.014284997  0.012570968         1626 
 4464000   0.54796625   -7.7630235    765.56977   0.01429155  0.012566509         1663 
 4465000   0.52995348   -7.7800989    765.09182  0.014279429  0.012562046         1608 
 4466000   0.52517657   -7.7899711    766.35344  0.014299773  0.012557583         1600 
 4467000   0.53946471   -7.7647302    766.36451  0.014296778   0.01255313         1539 
 4468000   0.54245425   -7.7678717    765.76985  0.014282488  0.012548678         1610 
 4469000   0.53778593   -7.7724578    765.89392  0.014281605  0.012544223         1627 
 4470000   0.55413824   -7.7587594    765.09708  0.014263555  0.012539773         1571 
 4471000   0.53431773   -7.7850613    765.96468  0.014276536  0.012535323         1644 
 4472000   0.53551052   -7.7661944    765.28947  0.014260761   0.01253087         1574 
 4473000   0.53464303   -7.7836725    765.36209  0.014258926  0.012526421         1690 
 4474000   0.52330691   -7.7812352       764.93   0.01424769  0.012521978         1673 
 4475000   0.53288452   -7.7810455    765.03126  0.014246392  0.012517536         1664 
 4476000   0.52955633   -7.7814169    764.05232  0.014224984  0.012513091         1715 
 4477000   0.53950906   -7.7807225    764.33981  0.014227158  0.012508647         1713 
 4478000   0.54756176   -7.7736139    764.55315  0.014227951  0.012504213         1725 
 4479000   0.53519671   -7.7787472    763.92918  0.014213165  0.012499774         1680 
 4480000   0.53774043   -7.7852577    764.99317  0.014229784  0.012495344         1633 
 4481000   0.53888692   -7.7867873    764.08113  0.014209647  0.012490914         1591 
 4482000   0.52659897   -7.7785612    764.90441  0.014221784  0.012486487         1582 
 4483000   0.53087569   -7.7695435     764.3556  0.014208409   0.01248206         1754 
 4484000    0.5368592    -7.778303    766.28598  0.014241116  0.012477636         1715 
 4485000    0.5239988   -7.7715413    764.25063  0.014200123  0.012473212         1709 
 4486000   0.53762102   -7.7795915    764.43159  0.014200319  0.012468785         1677 
 4487000   0.54077554   -7.7858888    764.82691  0.014204497  0.012464363         1682 
 4488000   0.54057794   -7.7641747    766.05276  0.014224093  0.012459942         1563 
 4489000   0.52579577   -7.7952606    764.59847  0.014193927  0.012455521         1689 
 4490000   0.54135359   -7.7635024    766.00129  0.014216802  0.012451105         1596 
 4491000   0.52363951   -7.7779514    763.22679  0.014162154  0.012446687         1759 
 4492000   0.53669807   -7.7754508    764.29308  0.014178782  0.012442274         1756 
 4493000   0.52018816   -7.7724573    764.75303  0.014184157  0.012437865         1648 
 4494000   0.52767172   -7.7796569    765.73612  0.014199231   0.01243346         1641 
 4495000   0.53254666    -7.780384    764.29722  0.014169396  0.012429052         1685 
 4496000   0.53225257   -7.7822061    764.70637  0.014173828  0.012424646         1722 
 4497000   0.54210472   -7.7851917    764.38288  0.014164682  0.012420241         1607 
 4498000   0.52904516   -7.7841063    763.49608  0.014145103  0.012415834         1652 
 4499000   0.52708155    -7.770022    763.88336  0.014149132  0.012411437         1694 
 4500000   0.52814518   -7.7899824    763.64269  0.014141531  0.012407039         1772 
 4501000   0.53133226   -7.8162842    765.05192  0.014164481   0.01240264         1686 
 4502000   0.54133664   -7.7874386    763.10353  0.014125269  0.012398242         1749 
 4503000   0.53389876   -7.7960284    764.99274  0.014157094  0.012393846         1692 
 4504000   0.53174606   -7.7984474    764.75842  0.014149615  0.012389455         1595 
 4505000   0.53441032   -7.7930499    763.40113  0.014121368  0.012385065         1702 
 4506000   0.52974245   -7.7990662    764.13373  0.014131782  0.012380678         1685 
 4507000   0.52680459   -7.7905249    764.43484  0.014134214  0.012376291         1670 
 4508000    0.5295282   -7.7836751    764.28678  0.014128342   0.01237191         1756 
 4509000   0.52854995   -7.7908868    763.63104  0.014113089  0.012367526         1706 
 4510000   0.53506684   -7.8108321    762.97501  0.014097838  0.012363144         1761 
 4511000   0.52385177   -7.7850061    763.98493   0.01411337  0.012358763         1675 
 4512000   0.53739375   -7.7817501    764.41896  0.014118258   0.01235439         1702 
 4513000   0.53766453   -7.7717996     764.5481  0.014117514   0.01235002         1715 
 4514000   0.51972559   -7.7996649    764.16776  0.014107365  0.012345649         1765 
 4515000   0.54343521    -7.808823    763.72591  0.014096085  0.012341279         1779 
 4516000   0.52327694    -7.778518    764.55382  0.014108242  0.012336914         1657 
 4517000   0.52527187   -7.7807741    764.61204  0.014106192  0.012332547         1664 
 4518000   0.52664671   -7.7878649    765.24404  0.014114727  0.012328186         1636 
 4519000   0.53686641   -7.7853325    764.35345  0.014095181  0.012323826         1608 
 4520000   0.53565564   -7.7963706    764.38706  0.014092682  0.012319472         1718 
 4521000   0.53622315   -7.7875817    764.78371  0.014096876  0.012315115         1768 
 4522000   0.52883814   -7.7959068    763.63549  0.014072599   0.01231076         1606 
 4523000   0.52812774   -7.8092623    763.14282   0.01406041  0.012306405         1694 
 4524000   0.52099061   -7.7846136    764.66465  0.014085335  0.012302048         1672 
 4525000   0.53672536   -7.7739687    765.43803  0.014096465  0.012297703         1633 
 4526000   0.52095597   -7.7866383    764.68115  0.014079414  0.012293355         1751 
 4527000   0.52586072   -7.7994288    764.07815  0.014065204  0.012289007         1671 
 4528000   0.53400586   -7.7996693    763.99578  0.014060582  0.012284661         1685 
 4529000   0.52585723   -7.7755042    763.72376  0.014052472  0.012280323         1556 
 4530000   0.53790528   -7.8041576    763.90129  0.014052636  0.012275986         1661 
 4531000   0.52827342   -7.7828297     764.4178  0.014059034  0.012271646         1637 
 4532000   0.53503651   -7.7874596    765.63491  0.014078312  0.012267311         1618 
 4533000   0.52678388   -7.7952805    764.60162   0.01405621  0.012262979         1769 
 4534000   0.52454437   -7.7910785    764.38964  0.014049214  0.012258646         1614 
 4535000   0.53651465   -7.7878165    764.17188  0.014042115  0.012254319         1651 
 4536000   0.51765013   -7.7893014    765.61132  0.014065464  0.012249994         1703 
 4537000   0.53249119   -7.7778208    763.77875  0.014028704  0.012245664         1602 
 4538000   0.51932887   -7.7985596    763.89758  0.014027795  0.012241337         1626 
 4539000   0.53155954   -7.8200285      763.657  0.014020287  0.012237011         1624 
 4540000   0.51860595   -7.7946519    764.11536  0.014025612  0.012232688         1617 
 4541000   0.51571251   -7.7941017    764.24386  0.014024882  0.012228364         1651 
 4542000   0.52937663   -7.7915422    765.55328  0.014045818  0.012224046         1658 
 4543000   0.52615097   -7.7930289    763.26224  0.014000701  0.012219723         1615 
 4544000   0.52930121    -7.799813    763.81814  0.014007815  0.012215406         1671 
 4545000   0.51522901   -7.7824852    764.72106  0.014021288  0.012211095         1610 
 4546000   0.53513925   -7.7878541    763.01216  0.013986878  0.012206785         1642 
 4547000   0.52678417   -7.8070638     763.5087  0.013992902  0.012202479         1642 
 4548000   0.51184868    -7.793804    764.76418  0.014012829  0.012198171         1718 
 4549000    0.5294379   -7.8054569    764.46981  0.014004356  0.012193868         1730 
 4550000   0.52273118   -7.8051422    764.97257  0.014010487  0.012189562         1667 
 4551000   0.52356638   -7.7950163    763.94722  0.013988633   0.01218526         1756 
 4552000   0.52538046   -7.7976606    764.60026  0.013997515  0.012180963         1614 
 4553000    0.5216847   -7.8080502    765.22223  0.014005824  0.012176662         1644 
 4554000   0.52167993   -7.8042535    762.28498     0.013949  0.012172368         1723 
 4555000   0.51402468   -7.7985141    763.57648  0.013969566  0.012168068         1711 
 4556000   0.52323181   -7.8048529    763.37116  0.013962744  0.012163773         1619 
 4557000   0.51698424   -7.8018945    763.13437   0.01395535  0.012159479         1636 
 4558000   0.50372025   -7.7940259    764.79423  0.013982635  0.012155186         1724 
 4559000     0.532291   -7.8014175    763.59199  0.013957593  0.012150899         1761 
 4560000   0.51545175   -7.8018329    762.62431  0.013936848  0.012146611         1656 
 4561000   0.51689486   -7.8016213    763.88818  0.013956884  0.012142324         1736 
 4562000   0.52695986   -7.8148168    763.02506  0.013938058  0.012138041         1712 
 4563000   0.51830883   -7.7898661    764.58223  0.013963442  0.012133764         1595 
 4564000   0.53868431   -7.8123448     763.7758  0.013945658   0.01212948         1727 
 4565000    0.5413415   -7.8074513    764.56559  0.013957021  0.012125199         1659 
 4566000   0.52593262   -7.7999287    763.97033    0.0139431  0.012120923         1759 
 4567000   0.51248543   -7.8167284    762.68844  0.013916656  0.012116647         1734 
 4568000   0.52194649   -7.7996203    763.00788  0.013919437  0.012112371         1673 
 4569000   0.52661807   -7.8177716    763.90307  0.013932718  0.012108102         1644 
 4570000   0.50387624    -7.776774     763.9412  0.013930365  0.012103837         1705 
 4571000   0.52014476   -7.7981976    764.11809  0.013930542  0.012099564         1616 
 4572000   0.51743965   -7.8094445    763.39053  0.013914234  0.012095296         1750 
 4573000   0.51421941   -7.8053532    763.46766  0.013912597  0.012091032         1682 
 4574000   0.51310535   -7.7972393    764.30819  0.013924869  0.012086768         1764 
 4575000    0.5222191   -7.8089837    763.88113  0.013914046  0.012082511         1812 
 4576000   0.52469845   -7.8088398    764.30824  0.013918784  0.012078255         1641 
 4577000   0.51933264   -7.8066463    763.56772   0.01390226  0.012073999         1697 
 4578000   0.50814404    -7.829522    764.11747   0.01390923  0.012069742         1760 
 4579000   0.51240744   -7.8166223    763.72532  0.013899056  0.012065482         1650 
 4580000   0.51681278   -7.8129201    763.94377  0.013899996  0.012061227         1674 
 4581000   0.52908946   -7.8134469      763.533  0.013889489  0.012056978         1741 
 4582000   0.53407699   -7.8173794    762.41574  0.013866138  0.012052722         1679 
 4583000   0.52066552   -7.7924581    763.30282  0.013879242  0.012048473         1701 
 4584000   0.52118606   -7.7975658    763.96253  0.013888208  0.012044227         1675 
 4585000      0.53206   -7.7992337    764.30928  0.013891481  0.012039983         1559 
 4586000   0.51728298   -7.8035793    763.94411  0.013881816  0.012035741         1739 
 4587000   0.51885213   -7.8066175    762.84614  0.013858843  0.012031501         1624 
 4588000    0.5175378   -7.8118958    763.36894  0.013865318  0.012027256         1708 
 4589000   0.51512274   -7.8141119    762.87712  0.013853365  0.012023018         1663 
 4590000    0.5295861   -7.8104954    762.98873  0.013852374  0.012018783         1762 
 4591000   0.52415349   -7.8236156    763.27164  0.013854491  0.012014546         1730 
 4592000   0.51407182   -7.7971204    764.22825  0.013868834  0.012010308         1636 
 4593000   0.50877146   -7.8114466    763.70774  0.013856371  0.012006077         1684 
 4594000   0.52170969   -7.8125163     763.1555  0.013843337  0.012001845         1695 
 4595000   0.51530964   -7.8043428    763.38112  0.013844416  0.011997616         1689 
 4596000   0.51703322   -7.7991336    763.47238  0.013843059   0.01199339         1696 
 4597000   0.51226484   -7.8047868    762.58815  0.013824018   0.01198917         1670 
 4598000   0.51762651   -7.8120557    762.62295  0.013821643  0.011984945         1766 
 4599000    0.5131567   -7.7974175    763.61554  0.013836623  0.011980724         1695 
 4600000   0.51442533   -7.8169464    763.72083  0.013835522  0.011976505         1781 
 4601000   0.51053901   -7.8375067    762.93646  0.013818309  0.011972283         1713 
 4602000   0.52895762   -7.8310157    762.24218  0.013802734  0.011968064         1759 
 4603000   0.51475717   -7.8139526     764.2675  0.013836402  0.011963852         1727 
 4604000   0.51847598   -7.8070465    761.97187  0.013791845  0.011959636         1792 
 4605000    0.5130689   -7.8174731    763.56688  0.013817714  0.011955429         1781 
 4606000   0.51592883   -7.8237855    762.09452  0.013788076  0.011951221         1700 
 4607000   0.51273707   -7.8364076    762.29594  0.013788726  0.011947014         1784 
 4608000   0.51827324   -7.8073854    763.90198  0.013814778  0.011942807         1683 
 4609000   0.51266564   -7.8163126    763.14344  0.013798066  0.011938606         1749 
 4610000   0.51646421     -7.82107    762.67442  0.013786595  0.011934407         1765 
 4611000   0.51950653   -7.8259911    762.38909  0.013778448  0.011930207         1698 
 4612000   0.52302308   -7.8282655    763.93158  0.013803331  0.011926013         1701 
 4613000   0.50871964   -7.8076188    763.07465  0.013784859  0.011921817         1697 
 4614000   0.52364956   -7.8313581    762.85236  0.013777857  0.011917629         1759 
 4615000    0.5149408    -7.808956    763.33145  0.013783522  0.011913434         1679 
 4616000   0.50327983   -7.8038528    762.20797  0.013760254  0.011909244         1712 
 4617000   0.52136917   -7.8288342    762.89662  0.013769703  0.011905053         1747 
 4618000   0.51524483   -7.8288762    763.39659  0.013775743  0.011900868         1678 
 4619000   0.51901961   -7.8193926    762.47506  0.013756135  0.011896684         1757 
 4620000   0.50908494   -7.8275544    762.75077  0.013758131  0.011892502         1696 
 4621000    0.5147977    -7.809832    763.53837  0.013769357  0.011888322         1696 
 4622000   0.50323569   -7.8194303    761.64379  0.013732219  0.011884142         1683 
 4623000   0.51277583   -7.8247916    762.56455  0.013745846  0.011879965         1861 
 4624000   0.51454233   -7.8098146    762.58143  0.013743177  0.011875792         1759 
 4625000   0.50472803   -7.8252143    762.75889  0.013743403   0.01187162         1815 
 4626000    0.5092318   -7.8293172    761.91781  0.013725281  0.011867448         1802 
 4627000   0.52164322    -7.817426     764.3597  0.013766294  0.011863278         1660 
 4628000   0.54285063   -7.8193409    762.19796  0.013724394  0.011859113         1738 
 4629000   0.51982646   -7.8149564    763.77464  0.013749813  0.011854949         1683 
 4630000    0.5126285   -7.8229628    762.92781  0.013731602  0.011850786         1713 
 4631000   0.50800734   -7.8305155    763.05127  0.013730859  0.011846623         1745 
 4632000   0.49666029   -7.8183024    762.02032  0.013709347  0.011842458         1739 
 4633000   0.52894279   -7.8385041    762.86546  0.013721589  0.011838294         1792 
 4634000   0.52166317   -7.8418716    763.82551  0.013735893  0.011834131         1733 
 4635000    0.5165367   -7.8225049    762.66048  0.013711983  0.011829972         1804 
 4636000   0.49757089   -7.8293082    762.40631  0.013704456  0.011825814         1734 
 4637000   0.49847961   -7.8258403    763.27477  0.013717108  0.011821663         1788 
 4638000   0.51191536   -7.8096352    762.72387  0.013704252  0.011817513         1740 
 4639000   0.50432111    -7.833942    763.49538  0.013715157  0.011813362         1741 
 4640000   0.49953643   -7.8169032    761.57921  0.013677788  0.011809214         1770 
 4641000   0.50033779   -7.8168423    763.51136  0.013709534  0.011805065         1759 
 4642000   0.51330753   -7.8185912    763.75212  0.013710903   0.01180092         1750 
 4643000    0.4995362   -7.8064787    763.00157  0.013694479  0.011796776         1706 
 4644000   0.51317344   -7.8235739    764.10457  0.013711322  0.011792638         1754 
 4645000   0.50449041   -7.8150674    763.38378  0.013695439  0.011788499         1742 
 4646000   0.50965519   -7.8180523      761.321  0.013655492  0.011784358         1734 
 4647000   0.52285122   -7.8123928    763.30332  0.013688102  0.011780224         1771 
 4648000   0.50146966   -7.8300289    762.97856  0.013679335  0.011776093         1741 
 4649000   0.50486723   -7.8229013    762.76365   0.01367254  0.011771958         1726 
 4650000   0.50522233   -7.8368607    762.06613  0.013657099  0.011767828         1770 
 4651000   0.50301883   -7.8337208    762.60053  0.013663738  0.011763701         1713 
 4652000    0.5062506   -7.8324926    762.69864  0.013662558   0.01175958         1766 
 4653000   0.50894602   -7.8309573    762.62301  0.013658267   0.01175546         1694 
 4654000   0.51042626   -7.8239225    763.34031  0.013668176  0.011751345         1750 
 4655000   0.49604872   -7.8244064    761.82233  0.013638065  0.011747226         1686 
 4656000   0.51690761   -7.8142348    763.39689  0.013663318  0.011743111         1714 
 4657000   0.50176473    -7.828125    763.73679  0.013666466  0.011738999         1875 
 4658000   0.51278714   -7.8197504    761.70915  0.013627257  0.011734884         1704 
 4659000   0.50885844   -7.8259278    762.15925  0.013632383  0.011730767         1698 
 4660000   0.49849298   -7.8493229    762.90048  0.013642712  0.011726657         1809 
 4661000   0.49686263   -7.8216714    762.32692  0.013629531  0.011722546         1770 
 4662000   0.50245718   -7.8219567    762.81229  0.013635283   0.01171844         1756 
 4663000   0.50684129   -7.8332221    762.88519  0.013633662   0.01171434         1817 
 4664000   0.51649827   -7.8431583    762.21062  0.013618686  0.011710233         1799 
 4665000   0.49108866   -7.8269802    762.81416  0.013626548  0.011706132         1704 
 4666000   0.51204316   -7.8357136    760.82579  0.013588116  0.011702033         1700 
 4667000   0.48999198   -7.8219391    763.58257  0.013634429  0.011697934         1683 
 4668000   0.51322009   -7.8317281    762.68806   0.01361554   0.01169384         1718 
 4669000   0.50737109   -7.8304815    761.62886  0.013593719  0.011689748         1813 
 4670000   0.49970686   -7.8261881    761.59962  0.013590286  0.011685657         1761 
 4671000   0.50082231   -7.8362831     762.6722  0.013606512  0.011681567         1764 
 4672000   0.49697893   -7.8291674    762.35315  0.013597909  0.011677481         1817 
 4673000   0.49596159   -7.8158325    763.33127  0.013612441  0.011673393         1747 
 4674000   0.50340235   -7.8304399    763.19654  0.013607127  0.011669311         1795 
 4675000   0.50500109   -7.8280937    762.82831  0.013597653  0.011665228         1801 
 4676000    0.5032238   -7.8386262    762.88257  0.013595712   0.01166115         1798 
 4677000   0.49616466   -7.8339469    762.10197  0.013578896  0.011657072         1823 
 4678000   0.49671168    -7.844136     763.4475  0.013599963  0.011652997         1843 
 4679000   0.50809195   -7.8318249    762.00359   0.01357134  0.011648923         1815 
 4680000   0.50008299    -7.834106    763.27308  0.013591045  0.011644846         1714 
 4681000   0.49998674   -7.8297559    761.62478  0.013558798  0.011640773         1703 
 4682000   0.49253279   -7.8354257    762.59893   0.01357324  0.011636704         1834 
 4683000    0.5083045   -7.8417735    762.88654   0.01357546  0.011632632         1747 
 4684000   0.49218465   -7.8419344    761.38944  0.013545927  0.011628563         1778 
 4685000   0.50079562   -7.8358084    762.51527  0.013563061  0.011624495         1802 
 4686000   0.50312316   -7.8340046    760.75243  0.013528817  0.011620433         1832 
 4687000   0.51489369   -7.8356744    762.19052  0.013551499  0.011616367         1814 
 4688000   0.50836047   -7.8211925    762.86639  0.013560623  0.011612305         1718 
 4689000   0.50483767   -7.8533495    762.50718  0.013551347   0.01160824         1796 
 4690000   0.50831289   -7.8327334    762.59062   0.01354994   0.01160418         1783 
 4691000   0.49831561   -7.8443785    762.36799  0.013543097  0.011600126         1846 
 4692000   0.50098341   -7.8435152     761.5708  0.013526051  0.011596074         1772 
 4693000   0.49481313   -7.8290691    760.76871  0.013508927  0.011592017         1773 
 4694000   0.49545785   -7.8552675    760.80428   0.01350668  0.011587963         1799 
 4695000   0.51547466   -7.8591616    762.44563  0.013532936  0.011583911         1787 
 4696000   0.50380748   -7.8287844    760.83786  0.013501524  0.011579862         1772 
 4697000   0.49525778   -7.8344327    761.64915  0.013513043  0.011575815         1809 
 4698000   0.50733839   -7.8343267    761.67552  0.013510634  0.011571774         1754 
 4699000   0.50674858   -7.8259451    761.87748  0.013511341  0.011567733         1798 
 4700000   0.50987003   -7.8369891    761.94454  0.013509655  0.011563691         1717 
 4701000   0.49494815   -7.8551151     761.3369   0.01349601  0.011559652         1816 
 4702000   0.48440211   -7.8431737    762.03627  0.013505534  0.011555613         1833 
 4703000   0.49221937   -7.8419161     762.1947   0.01350547  0.011551575         1732 
 4704000   0.48922959   -7.8446496    761.26418  0.013486114  0.011547539         1820 
 4705000    0.5000821   -7.8373597    762.28173  0.013501271  0.011543505         1805 
 4706000   0.49237545   -7.8406722     761.4436   0.01348356  0.011539473         1791 
 4707000    0.5059141   -7.8228459    762.26826  0.013495295  0.011535442         1803 
 4708000   0.49961835   -7.8416857    761.59888  0.013480581  0.011531416         1796 
 4709000   0.49798549   -7.8247654    762.85416  0.013499932  0.011527393         1826 
 4710000   0.49215562   -7.8392675    760.66958  0.013458414  0.011523369         1764 
 4711000    0.4885871   -7.8555024    762.07359  0.013480393  0.011519346         1734 
 4712000     0.499215   -7.8449712    761.64479  0.013469949  0.011515325         1764 
 4713000   0.50678959   -7.8477682    761.59124  0.013466144  0.011511308         1846 
 4714000   0.49278484   -7.8385416    761.50023  0.013461679  0.011507291         1755 
 4715000   0.50159735   -7.8308298    761.25977  0.013454574  0.011503279         1831 
 4716000   0.49614221   -7.8327141    763.33542  0.013488398  0.011499269         1746 
 4717000   0.50132185   -7.8441366    760.84224  0.013441492  0.011495258         1799 
 4718000   0.48804885   -7.8251802    762.68397  0.013471174   0.01149125         1785 
 4719000   0.48892342   -7.8375388    760.74175  0.013434021  0.011487245         1718 
 4720000   0.50095131   -7.8465559    760.64073  0.013429391  0.011483238         1707 
 4721000   0.48605935    -7.830711    760.62122  0.013426202  0.011479232         1744 
 4722000   0.49182834   -7.8538217    762.30171  0.013453016  0.011475226         1756 
 4723000   0.50271287   -7.8462056    761.18542  0.013430472   0.01147122         1837 
 4724000   0.49942055   -7.8362443    760.89362  0.013422481  0.011467221         1801 
 4725000   0.49190769   -7.8364415    762.26467  0.013443821  0.011463224         1770 
 4726000   0.50125768   -7.8335798    760.79571  0.013415075  0.011459228         1776 
 4727000   0.50031526    -7.854695    761.19274  0.013419236  0.011455234         1823 
 4728000   0.49465323   -7.8399078     761.3103   0.01341847  0.011451242         1767 
 4729000   0.49007924   -7.8606147    762.35223  0.013433993   0.01144725         1705 
 4730000   0.50947219   -7.8491458    762.61152  0.013435721  0.011443262         1777 
 4731000     0.501893   -7.8466209    762.53576  0.013431546  0.011439272         1735 
 4732000   0.48305528   -7.8562347    761.74777  0.013414831  0.011435284         1780 
 4733000     0.495523   -7.8499606    761.46797   0.01340707  0.011431298         1815 
 4734000   0.49012117   -7.8464216    761.51567  0.013405078  0.011427313         1814 
 4735000   0.48764996   -7.8682331    762.24303  0.013415048  0.011423333         1810 
 4736000   0.49780767    -7.851903    760.96864  0.013389792  0.011419354         1753 
 4737000   0.49069408   -7.8558132    761.61595  0.013398352  0.011415376         1781 
 4738000   0.49660796   -7.8458048    761.96728  0.013401704  0.011411401         1797 
 4739000   0.49068495   -7.8585337    761.07472  0.013383181  0.011407428         1798 
 4740000   0.48646736   -7.8552536    761.41746  0.013386383  0.011403458         1798 
 4741000   0.48974704   -7.8417986    762.37381  0.013400369  0.011399486         1808 
 4742000    0.4773628   -7.8273562    761.79734  0.013387413   0.01139552         1784 
 4743000   0.48981055   -7.8491478    759.18131  0.013338627  0.011391555         1765 
 4744000   0.49273192   -7.8419587    761.36642  0.013374199   0.01138759         1774 
 4745000   0.50591656   -7.8493254    762.18805   0.01338581  0.011383626         1782 
 4746000   0.50358806    -7.863103    761.45173  0.013370061  0.011379664         1822 
 4747000   0.48572961   -7.8710794    761.23596  0.013363457  0.011375702         1804 
 4748000    0.4850401   -7.8470743    761.90157  0.013372325  0.011371746         1806 
 4749000   0.50008187   -7.8568187    761.82991  0.013368251  0.011367788         1775 
 4750000   0.48818385   -7.8452256    761.48846  0.013359447  0.011363835         1781 
 4751000   0.48628966   -7.8671573     761.1431  0.013350577  0.011359883         1814 
 4752000   0.51340975   -7.8727747     762.5243  0.013371989  0.011355931         1813 
 4753000   0.48430374   -7.8680176    760.91667  0.013340989  0.011351979         1692 
 4754000   0.49208493   -7.8453088    760.99706  0.013339592  0.011348028         1721 
 4755000   0.49539698   -7.8477922    761.04312  0.013337594  0.011344078         1755 
 4756000   0.49271726   -7.8625732      761.089  0.013335594  0.011340135         1752 
 4757000   0.49212133   -7.8642074    760.17817  0.013316834  0.011336188         1766 
 4758000   0.47741267   -7.8465115    761.16307  0.013331285  0.011332246         1796 
 4759000   0.49204685    -7.867272    760.53746  0.013317529  0.011328306         1825 
 4760000   0.48906623   -7.8659038    759.62375  0.013298735  0.011324367         1802 
 4761000   0.48285464   -7.8414034    761.36534  0.013326426   0.01132043         1814 
 4762000   0.48912147   -7.8529411    760.52803  0.013308974  0.011316497         1733 
 4763000    0.4906991   -7.8553803    760.52449  0.013306118  0.011312566         1787 
 4764000   0.48096416   -7.8556158    761.75518  0.013324853  0.011308637         1782 
 4765000   0.48917435   -7.8564458    760.71314  0.013303832  0.011304708         1809 
 4766000   0.47867273   -7.8657831    761.04338  0.013306815  0.011300778         1770 
 4767000   0.49589429   -7.8573061    761.28868  0.013308312   0.01129685         1750 
 4768000   0.48492161   -7.8579057    761.19028  0.013303801  0.011292927         1817 
 4769000    0.4904352   -7.8598292    761.56954  0.013307639   0.01128901         1822 
 4770000   0.49564968   -7.8546732    761.30835  0.013300286  0.011285089         1767 
 4771000   0.49011012   -7.8681218    761.87783  0.013307445   0.01128117         1807 
 4772000   0.49529829   -7.8704446    759.93909    0.0132708  0.011277254         1736 
 4773000   0.48314925   -7.8600749    761.90078  0.013302269  0.011273338         1712 
 4774000   0.48910858    -7.872823    760.85984  0.013281313  0.011269426         1813 
 4775000   0.48693443    -7.859832    761.58338  0.013291158  0.011265514         1762 
 4776000   0.49060671   -7.8642598    760.47028  0.013268954  0.011261604         1794 
 4777000   0.49368187   -7.8638119    759.99188  0.013257831  0.011257694         1774 
 4778000   0.48534647   -7.8474238    761.04141  0.013273361  0.011253787         1812 
 4779000   0.48618653   -7.8612984    760.83525  0.013266988   0.01124988         1774 
 4780000   0.48205199   -7.8585713    760.93408  0.013265936  0.011245976         1816 
 4781000   0.46909227   -7.8571149    760.63979  0.013258032  0.011242074         1843 
 4782000    0.4970574   -7.8584133    760.36019  0.013250387  0.011238172         1723 
 4783000   0.48844182   -7.8623487    760.54656  0.013250864  0.011234272         1784 
 4784000   0.48934888   -7.8713885    761.63728  0.013267093  0.011230376         1791 
 4785000   0.49327181   -7.8449408    761.39194  0.013260048   0.01122648         1861 
 4786000   0.48666387    -7.871751    761.46145  0.013258487  0.011222584         1762 
 4787000    0.4841218   -7.8606828    760.56506  0.013240113  0.011218691         1774 
 4788000    0.4891875   -7.8636454     761.3996  0.013251873  0.011214799         1752 
 4789000   0.48388874   -7.8644599    761.13177  0.013244445  0.011210911         1817 
 4790000   0.48378462    -7.862989    761.23101  0.013243407  0.011207024         1789 
 4791000   0.48431386    -7.876444    761.38525  0.013243325  0.011203136         1820 
 4792000   0.48313643   -7.8540599    761.06165  0.013234934   0.01119925         1833 
 4793000    0.4916886    -7.852965    760.86843  0.013228813  0.011195369         1788 
 4794000   0.47942524   -7.8470862    760.20567  0.013214533  0.011191485         1854 
 4795000   0.47870569   -7.8723478    761.44394  0.013233298  0.011187604         1835 
 4796000   0.48171483   -7.8729347    761.69344  0.013234874  0.011183726         1825 
 4797000   0.48047517   -7.8693629    760.53153   0.01321193  0.011179852         1803 
 4798000    0.4774706   -7.8574229    760.73993  0.013212796  0.011175979         1826 
 4799000   0.47835371   -7.8799092    761.30709  0.013219891  0.011172106         1774 
 4800000    0.4825857   -7.8765081    760.98904  0.013211615  0.011168229         1843 
 4801000   0.48697472   -7.8479173    760.44624  0.013199442   0.01116436         1790 
 4802000   0.49416558   -7.8725821    760.25301   0.01319334  0.011160492         1775 
 4803000   0.49474833   -7.8510061    762.26121  0.013225436  0.011156629         1854 
 4804000    0.4826417   -7.8589669    761.66967  0.013212421  0.011152765         1786 
 4805000   0.48270195   -7.8614893    761.91688  0.013213959    0.0111489         1828 
 4806000   0.47778132   -7.8684901    760.96064  0.013194629  0.011145037         1843 
 4807000   0.48046591   -7.8791929    759.99235  0.013175098  0.011141177         1857 
 4808000    0.4721369   -7.8760792    761.32665  0.013195484  0.011137318         1840 
 4809000   0.49233801   -7.8763832     761.1752  0.013190116   0.01113346         1796 
 4810000   0.48444144   -7.8573813    760.95499  0.013183558  0.011129605         1826 
 4811000   0.47395878   -7.8530713    761.37158  0.013188034  0.011125752         1821 
 4812000   0.47917753   -7.8587809     759.7641  0.013157455  0.011121901         1802 
 4813000   0.49223739   -7.8686803    760.68411  0.013170651  0.011118053         1838 
 4814000   0.48182473   -7.8781986    759.70625  0.013150988  0.011114206         1753 
 4815000   0.47535374   -7.8535054    761.44062  0.013178273   0.01111036         1778 
 4816000    0.4807982   -7.8685155    760.96896  0.013167375  0.011106517         1797 
 4817000   0.47151111   -7.8806654     760.6865  0.013159755  0.011102671         1826 
 4818000   0.47178695   -7.8711426    760.62429  0.013155948  0.011098831         1824 
 4819000   0.48373446   -7.8758299    760.03828  0.013143084  0.011094993         1912 
 4820000   0.47668119   -7.8571821    760.12695  0.013141891  0.011091151         1867 
 4821000   0.48699285   -7.8577946    761.06324  0.013155349  0.011087316         1848 
 4822000   0.47516579   -7.8694375    761.59824  0.013161866  0.011083485         1773 
 4823000   0.48538739   -7.8787373     759.3847  0.013120891  0.011079652         1796 
 4824000   0.48497059   -7.8666586    761.91424  0.013161868   0.01107582         1891 
 4825000   0.48032168   -7.8715515    760.09191  0.013127667  0.011071991         1761 
 4826000   0.48787784   -7.8783527    759.57155  0.013115961  0.011068162         1872 
 4827000   0.47431754   -7.8707967     760.1337  0.013122949  0.011064339         1872 
 4828000   0.48939977   -7.8634583     760.1673  0.013120811  0.011060513         1816 
 4829000   0.46677195   -7.8657802    760.42392  0.013122522  0.011056686         1843 
 4830000   0.47032973   -7.8569495    760.51611  0.013121396  0.011052865         1879 
 4831000   0.48356588   -7.8642934    760.19215  0.013113092  0.011049044         1776 
 4832000   0.47755576   -7.8801111    760.45242  0.013114867  0.011045225         1813 
 4833000   0.47237465   -7.8715786    761.08772  0.013123107   0.01104141         1816 
 4834000   0.48204478   -7.8667128    759.63155  0.013095289  0.011037592         1848 
 4835000    0.4887393   -7.8762088    760.68332  0.013110709  0.011033781         1817 
 4836000   0.47514986    -7.879548    760.77778  0.013109625  0.011029968         1824 
 4837000   0.49228492   -7.8663495    760.50767  0.013102262  0.011026157         1832 
 4838000    0.4694801   -7.8887515    760.45055  0.013098569  0.011022354         1723 
 4839000   0.48683385   -7.8712132      761.398  0.013112179   0.01101855         1818 
 4840000   0.47906168   -7.8648249    760.09657  0.013087062  0.011014749         1798 
 4841000   0.48772833   -7.8798764     760.2893  0.013087676  0.011010949         1839 
 4842000   0.47860939   -7.8832135    759.29025  0.013067779  0.011007145         1866 
 4843000   0.47217526    -7.878124    759.45265  0.013067875  0.011003345         1844 
 4844000   0.47598562   -7.8741708    760.03972  0.013075277  0.010999548         1781 
 4845000   0.48346808   -7.8677757    759.75223  0.013067634  0.010995751         1822 
 4846000   0.47486864    -7.898583    760.20119  0.013072658  0.010991952         1861 
 4847000   0.48207494   -7.8762036    759.54918  0.013058751  0.010988159         1818 
 4848000    0.4734681   -7.8762811    759.30112  0.013051793  0.010984366         1728 
 4849000    0.4832004   -7.8847209    760.49925  0.013069692  0.010980573         1794 
 4850000   0.46889015   -7.8785649    760.76405  0.013071547  0.010976783         1813 
 4851000   0.47137405   -7.8825265    759.92606  0.013054457  0.010972997         1707 
 4852000    0.4800987   -7.8763114    758.75318  0.013031622  0.010969212         1856 
 4853000    0.4550722   -7.8718012    761.18554  0.013070704  0.010965427         1799 
 4854000   0.47339499   -7.8934048    759.54243  0.013039803  0.010961644         1797 
 4855000   0.48215734   -7.8951754    758.83949  0.013025051  0.010957861         1906 
 4856000   0.46479445   -7.8805342    760.26368  0.013046809   0.01095408         1809 
 4857000   0.46630709   -7.8798231    759.36826   0.01302876  0.010950304         1830 
 4858000   0.48214687   -7.8790067    760.06606  0.013038048  0.010946529         1829 
 4859000   0.47527127   -7.9068228    760.75796  0.013047231  0.010942756         1834 
 4860000    0.4765427   -7.8861577    761.61504  0.013059243   0.01093898         1824 
 4861000   0.47930732   -7.8830918    759.92036  0.013027504  0.010935205         1808 
 4862000   0.46690861    -7.867093    758.31122  0.012997244  0.010931438         1812 
 4863000   0.47255955   -7.8716813    759.60685  0.013016774  0.010927673         1841 
 4864000   0.47736468   -7.8987644    760.78839  0.013034341  0.010923906         1857 
 4865000   0.46691457   -7.8757362    759.69908  0.013013002  0.010920142         1799 
 4866000   0.46086155   -7.8789772     758.7683  0.012994388  0.010916378         1806 
 4867000   0.46909433   -7.8731086    760.02138  0.013013173  0.010912614         1807 
 4868000   0.47141445   -7.8760231    760.19536  0.013013479  0.010908851         1776 
 4869000   0.47733433   -7.8836188    759.58027  0.013000278  0.010905095         1865 
 4870000   0.46788805   -7.8855245    760.41293  0.013011857  0.010901345         1794 
 4871000   0.47402612    -7.887597    759.84397  0.012999452  0.010897588         1884 
 4872000   0.48192133   -7.8919086      759.466  0.012990319  0.010893834         1955 
 4873000   0.46026812   -7.8666647    760.37387  0.013003179  0.010890084         1795 
 4874000   0.47013492   -7.8868979    760.04664  0.012994916  0.010886334         1880 
 4875000   0.47332497   -7.8894484    760.01509  0.012991711  0.010882586         1832 
 4876000   0.46108723   -7.8832032    759.31077  0.012977009   0.01087884         1813 
 4877000   0.46865126    -7.887425    759.58553  0.012979043  0.010875093         1814 
 4878000   0.47580624   -7.8898602     761.5523  0.013009982  0.010871351         1849 
 4879000   0.48576868   -7.9109131    758.76604  0.012959726  0.010867606         1944 
 4880000   0.46526971   -7.8911762    758.51395  0.012952765  0.010863864         1855 
 4881000   0.46683655     -7.88655    759.55779  0.012967933  0.010860122         1836 
 4882000   0.46372359   -7.8944584    760.00319   0.01297288  0.010856385         1855 
 4883000   0.46372099   -7.9040571    759.09094  0.012954655  0.010852648         1801 
 4884000   0.45888362   -7.8766687    759.20868  0.012954011  0.010848914         1863 
 4885000    0.4645599   -7.8834424    759.85307  0.012962352  0.010845186         1867 
 4886000   0.47084109    -7.883473    759.36436  0.012951364  0.010841453         1807 
 4887000   0.47201143   -7.9019179    758.95849  0.012941793  0.010837726         1829 
 4888000   0.45835356   -7.8633269    760.39545  0.012963643     0.010834         1823 
 4889000   0.45823708   -7.8718984    759.64186  0.012948147  0.010830273         1830 
 4890000   0.46253854   -7.8849715    760.29163  0.012956572  0.010826544         1849 
 4891000   0.46884188   -7.8966259    758.65232  0.012925992  0.010822818         1909 
 4892000   0.47386506   -7.8876227    759.92646  0.012945054  0.010819098         1843 
 4893000   0.46257658   -7.8914995    759.20913  0.012930192  0.010815377         1859 
 4894000   0.46584597   -7.8926373    758.39274  0.012913648  0.010811662         1821 
 4895000   0.46257059   -7.8780686    760.77323  0.012951536  0.010807945         1806 
 4896000   0.46638907   -7.8949345    759.74238  0.012931345  0.010804231         1780 
 4897000   0.46370547   -7.8895332    758.73272  0.012911523  0.010800517         1794 
 4898000   0.46620793   -7.8952892     758.8483  0.012910853  0.010796806         1819 
 4899000   0.47264777   -7.8992199    759.21826  0.012914511  0.010793097         1832 
 4900000    0.4817303   -7.8912313    761.55506  0.012951617  0.010789394         1793 
 4901000   0.46654278   -7.8912738    759.44933   0.01291317   0.01078569         1823 
 4902000    0.4682708   -7.9004866    759.40705  0.012909817  0.010781987         1838 
 4903000   0.46598199   -7.8900918     759.6322   0.01291101  0.010778284         1889 
 4904000   0.45802138   -7.8778465    760.08832  0.012916128  0.010774583         1828 
 4905000   0.46416218   -7.8854952    759.04044  0.012895692  0.010770882         1845 
 4906000   0.46413837   -7.8912088    758.99993  0.012892375   0.01076718         1900 
 4907000   0.47664619   -7.8944758    759.87779  0.012904656  0.010763484         1831 
 4908000   0.47438803   -7.9013035    758.41758  0.012877234  0.010759788         1885 
 4909000   0.47722552   -7.9031107     759.2607  0.012888923  0.010756094         1826 
 4910000   0.47541009   -7.8872358    759.38129  0.012888345  0.010752399         1891 
 4911000    0.4710549   -7.9025559    758.76746  0.012875305  0.010748707         1873 
 4912000   0.47043417   -7.8971815    759.37856  0.012883051  0.010745018         1868 
 4913000   0.46063358   -7.8840436    760.65371  0.012902058  0.010741329         1818 
 4914000   0.46769621   -7.9024244    759.02256   0.01287177  0.010737643         1876 
 4915000   0.45778256   -7.8901202    758.03348  0.012852382  0.010733956         1908 
 4916000   0.46700875   -7.8923635    759.48455  0.012874365  0.010730273         1831 
 4917000    0.4720743   -7.9081624    759.55173  0.012872885  0.010726588         1916 
 4918000   0.45982003    -7.907651    760.87008  0.012892607  0.010722907         1815 
 4919000   0.45736977   -7.8984871    759.07425  0.012859562  0.010719228         1834 
 4920000   0.46137048   -7.8988061    758.90577  0.012854095  0.010715549         1840 
 4921000   0.45781987   -7.9004677    759.51814  0.012861853  0.010711873         1835 
 4922000   0.45459381   -7.9064169    759.28689  0.012855325  0.010708199         1835 
 4923000   0.46581054   -7.9010077    759.68635  0.012859475  0.010704526         1818 
 4924000   0.46237379   -7.9086396    759.89018  0.012860313  0.010700852         1816 
 4925000   0.45275784   -7.9039722    759.10905  0.012844485  0.010697181         1913 
 4926000   0.45857023   -7.8962942    758.60503  0.012833351  0.010693511         1891 
 4927000   0.45991717    -7.902906    758.58519   0.01283041  0.010689845         1902 
 4928000   0.46543772   -7.9027924    759.61127  0.012845158   0.01068618         1907 
 4929000    0.4583552   -7.9024106    757.96035   0.01281464  0.010682517         1890 
 4930000   0.46711864   -7.8830848      758.622  0.012823225  0.010678854         1904 
 4931000   0.46764513   -7.8926399     758.9284  0.012825803  0.010675196         1885 
 4932000    0.4623216   -7.9086655    759.36336  0.012830552  0.010671538         1847 
 4933000   0.45353746   -7.9220547    758.43772  0.012812314  0.010667882         1847 
 4934000   0.45135033   -7.9044235     759.6536  0.012830253  0.010664225         1838 
 4935000   0.46949621   -7.9090818    758.82008  0.012813578  0.010660574         1884 
 4936000   0.46160505   -7.8967532     760.2559  0.012835223  0.010656921         1887 
 4937000   0.46807984   -7.9099326    758.28535  0.012799361  0.010653271         1841 
 4938000   0.46901158   -7.8965837     759.1002   0.01281052  0.010649623         1784 
 4939000   0.46067533   -7.9057897    759.81367  0.012819965  0.010645977         1843 
 4940000    0.4624388   -7.9052882    757.98205  0.012786472  0.010642333         1888 
 4941000   0.45991658   -7.9176404    758.45117  0.012791796  0.010638688         1804 
 4942000    0.4536087   -7.8992454    757.79865  0.012778205  0.010635044         1802 
 4943000   0.46606284    -7.892152    759.52078  0.012804653  0.010631404         1848 
 4944000   0.46040251   -7.8930047    758.96161  0.012792638  0.010627764         1815 
 4945000   0.45766577   -7.9215608    757.62227   0.01276748  0.010624126         1894 
 4946000   0.46508925   -7.9072443    758.87702   0.01278604  0.010620488         1927 
 4947000   0.46189904   -7.8892186    757.92697  0.012767451  0.010616856         1894 
 4948000   0.45931266   -7.9133659    758.23062  0.012769985   0.01061322         1833 
 4949000   0.45397719   -7.8943614    759.75991  0.012793155  0.010609589         1861 
 4950000   0.46032486    -7.904964    759.22334  0.012781538  0.010605958         1847 
 4951000   0.46922789   -7.9058182     759.7243  0.012787388  0.010602331         1892 
 4952000    0.4554119   -7.9063291    759.65955  0.012783716  0.010598704         1932 
 4953000   0.46443041   -7.9011861    757.96298  0.012752591   0.01059508         1885 
 4954000   0.46541255   -7.9048927    758.92715  0.012766235  0.010591458         1870 
 4955000   0.45165304   -7.9050766    758.91549  0.012763463  0.010587836         1916 
 4956000   0.45504429   -7.8948946    758.20802  0.012748991  0.010584218         1852 
 4957000   0.44621192   -7.9127559    758.05188  0.012743795  0.010580599         1826 
 4958000   0.45111839   -7.8957601    758.23397  0.012744285  0.010576983         1852 
 4959000   0.45999679    -7.898313    758.36261  0.012743877  0.010573367         1855 
 4960000   0.46505329   -7.8954363     759.6711  0.012763291  0.010569756         1903 
 4961000   0.44834207   -7.9011603    759.00988  0.012749612  0.010566147         1835 
 4962000   0.45653547   -7.9104784    758.44496  0.012737555  0.010562536         1883 
 4963000     0.454577   -7.9035222    758.24309  0.012731599  0.010558926         1872 
 4964000    0.4538375   -7.9256981    758.67186  0.012736232  0.010555313         1908 
 4965000   0.46667086   -7.9016261     758.4045  0.012729179  0.010551709         1855 
 4966000   0.45443491   -7.9216811    759.69272  0.012748233  0.010548105         1963 
 4967000    0.4644663    -7.913897    759.13093  0.012736241  0.010544502         1876 
 4968000   0.45718296   -7.9213699    758.15726  0.012717345  0.010540901         1898 
 4969000   0.45631965    -7.912059     758.0307  0.012712663  0.010537303         1852 
 4970000   0.46155284   -7.9032995    758.59023  0.012719487  0.010533703         1817 
 4971000   0.45701363   -7.9063075    758.42534  0.012714164  0.010530106         1883 
 4972000   0.45059881   -7.9144049    759.27685  0.012725879  0.010526511         1859 
 4973000   0.46157106   -7.9133964    758.25605  0.012706214  0.010522919         1889 
 4974000   0.45139739   -7.9142327    759.33144  0.012721677  0.010519329         1864 
 4975000   0.44182236   -7.9167172    758.95115   0.01271275   0.01051574         1873 
 4976000   0.45981303   -7.9027376    759.56191  0.012720423  0.010512152         1870 
 4977000   0.45900361   -7.9056507    759.50324  0.012716885  0.010508566         1949 
 4978000   0.46058901   -7.9035492    758.17932  0.012692168  0.010504982         1875 
 4979000   0.45763158   -7.9191354    759.03543  0.012703947  0.010501402         1824 
 4980000   0.46361372   -7.9218376    758.98235  0.012700508   0.01049782         1935 
 4981000    0.4568239   -7.9175649    757.98168  0.012681217  0.010494241         1892 
 4982000   0.44146762    -7.913481    758.93464  0.012694611  0.010490667         1830 
 4983000   0.46021531   -7.9006855    758.35545  0.012682378  0.010487088         1848 
 4984000   0.44814172   -7.9248721    758.38891  0.012680392  0.010483512         1842 
 4985000   0.45759058   -7.9138805    758.62528    0.0126818  0.010479937         1891 
 4986000   0.46283939   -7.9339472    758.50503  0.012677247  0.010476364         1938 
 4987000   0.45305918   -7.9230556    758.96573  0.012682403  0.010472791         1932 
 4988000   0.46346193   -7.9179521    760.18929  0.012700302  0.010469224         1918 
 4989000     0.453607    -7.912002    758.94492  0.012676971  0.010465657         1895 
 4990000    0.4555417   -7.9185396    758.32592  0.012664094   0.01046209         1827 
 4991000   0.46096115   -7.9153985    758.56943  0.012665622  0.010458523         1836 
 4992000   0.45590545   -7.9256711    757.72261  0.012648948  0.010454962         1876 
 4993000   0.45120753   -7.9209507     758.4129  0.012657936  0.010451401         1898 
 4994000   0.45133485   -7.9124236     758.6521  0.012659393   0.01044784         1841 
 4995000   0.46720283   -7.9280447    757.59991  0.012639305  0.010444285         1906 
 4996000   0.45328864   -7.9136428    758.80842  0.012656933  0.010440727         1817 
 4997000   0.45839538   -7.9255957    758.79282  0.012654139  0.010437171         1892 
 4998000   0.45624233   -7.9192925    759.01758  0.012655355   0.01043362         1886 
 4999000   0.45331695   -7.9152939    758.07089  0.012637042  0.010430069         1843 
 5000000   0.45581256   -7.9134231    758.51943  0.012641991   0.01042652         1824 
 5001000   0.44855639   -7.9020664    756.93712  0.012613096  0.010422973         1849 
 5002000   0.45144625   -7.9026897    759.04204  0.012645642  0.010419427         1781 
 5003000   0.45047942   -7.9187281    758.99332  0.012642303  0.010415882         1846 
 5004000   0.45140277   -7.9274908    757.89798  0.012621536  0.010412338         1840 
 5005000   0.45187108   -7.9168283    758.38351  0.012627098  0.010408798         1838 
 5006000   0.45764845    -7.903032    758.09593  0.012619788  0.010405258         1764 
 5007000     0.443642   -7.9237817     757.8803  0.012613679  0.010401722         1945 
 5008000     0.448178   -7.9042109    758.07497    0.0126144  0.010398184         1851 
 5009000   0.44848991   -7.9216143    758.32163  0.012615985  0.010394648         1855 
 5010000   0.44559941   -7.9194982    758.96851  0.012624227  0.010391114         1874 
 5011000   0.45711784   -7.9177789    757.51631  0.012597557  0.010387582         1931 
 5012000    0.4550061   -7.9102366    758.10486  0.012604829  0.010384053         1863 
Loop time of 13258.3 on 48 procs for 5000000 steps with 4000 atoms

Performance: 65166.626 tau/day, 377.122 timesteps/s
99.4% CPU use with 48 MPI tasks x no OpenMP threads

MPI task timing breakdown:
Section |  min time  |  avg time  |  max time  |%varavg| %total
---------------------------------------------------------------
Pair    | 996.03     | 1079.3     | 1179       | 146.8 |  8.14
Neigh   | 91.528     | 95.475     | 100.19     |  21.0 |  0.72
Comm    | 833.4      | 934.69     | 1024.6     | 155.4 |  7.05
Output  | 17.306     | 17.311     | 17.418     |   0.4 |  0.13
Modify  | 10975      | 11005      | 11047      |  17.3 | 83.01
Other   |            | 126.2      |            |       |  0.95

Nlocal:        83.3333 ave          90 max          77 min
Histogram: 2 1 4 11 6 6 14 3 0 1
Nghost:        2428.12 ave        2445 max        2414 min
Histogram: 2 4 6 7 9 7 7 3 1 2
Neighs:        16906.1 ave       19164 max       14568 min
Histogram: 3 7 2 3 10 4 4 7 4 4
FullNghs:      33813.1 ave       36585 max       31267 min
Histogram: 2 2 6 8 7 7 11 4 0 1

Total # of neighbors = 1623027
Ave neighs/atom = 405.75675
Neighbor list builds = 266955
Dangerous builds = 1

#clear
#
#next RN
#
#jump SELF
Total wall time: 3:41:01
