
units lj                  # Use reduced LJ style units
atom_style atomic         # Uncharged point particles
atom_modify map hash      # Needed for indexing of clusters etc
                          # Used to be able to find where atoms are in relation to each other.

lattice fcc 1.0 spacing 1 1 1
Lattice spacing in x,y,z = 1.5874011 1.5874011 1.5874011
region box block 0 10 0 10 0 10 units lattice
create_box 2 box
Created orthogonal box = (0.0000000 0.0000000 0.0000000) to (15.874011 15.874011 15.874011)
  3 by 4 by 4 MPI processor grid
create_atoms 1 box
Created 4000 atoms
  using lattice units in orthogonal box = (0.0000000 0.0000000 0.0000000) to (15.874011 15.874011 15.874011)
  create_atoms CPU = 0.022 seconds
set type 1 type/fraction 2 0.34 78393
Setting atom values ...
  1376 settings made for type/fraction
mass 1 1.0
mass 2 1.0
pair_style lj/cut  3.5
pair_modify tail  yes
pair_coeff 1  1  1.0  1.0   # Intearaction between 1 and 1 set with epsilon = 1 and sigma = 1
pair_coeff 1  2  1.5  0.8
pair_coeff 2  2  0.5  0.88

write_data data.0
System init for write_data ...
Neighbor list info ...
  update every 1 steps, delay 10 steps, check yes
  max neighbors/atom: 2000, page size: 100000
  master list distance cutoff = 3.8
  ghost atom cutoff = 3.8
  binsize = 1.9, bins = 9 9 9
  1 neighbor lists, perpetual/occasional/extra = 1 0 0
  (1) pair lj/cut, perpetual
      attributes: half, newton on
      pair build: half/bin/atomonly/newton
      stencil: half/bin/3d
      bin: standard
WARNING: Not all mixed pair coeffs generated from mixing. Use write_data with 'pair ij' option to store all pair coeffs. (../write_data.cpp:312)


#############################
#   M E L T   S Y S T E M   #
#############################

velocity all create 2.4 9622624 mom yes dist gaussian # Assign velocities
                                                    # Temperature 2.4, random number seed, zero linear momentum
                                                                                # Gaussian distribution

timestep 0.002   # simulation timestep
thermo 1000       # output thermodynamic data every 1000 steps bf 100

# Define a fix  in this case with index 1 applied to all
# particles in the simulation. This fix is for simulations
# in the anisotropic NPT ensemble. Note that we use the MTK
# correction.
fix 1 all npt temp 2.4 2.4 0.1 iso 5.68 5.68 0.5 mtk yes tchain 5 pchain 5 # Use NPT ensemble
                                                                         # Set temperature and pressure and damping
                                                                         # Numbers of thermostats in chain and in barostat
run 10000          # run for 10000 steps
Per MPI rank memory allocation (min/avg/max) = 3.642 | 3.644 | 3.648 Mbytes
Step Temp E_pair E_mol TotEng Press Volume 
       0          2.4   -6.2108987            0   -2.6117987   -4.0679274         4000 
    1000    2.3725699   -5.0521493            0   -1.4941842    5.7451576    4010.7434 
    2000    2.3709638    -5.049229            0   -1.4936724    5.7499498    4029.5873 
    3000    2.4203514   -5.0106755            0   -1.3810561    5.5865073    4059.0967 
    4000    2.4063457   -4.9662457            0   -1.3576295    5.9697419     4057.829 
    5000    2.3973385   -5.0380282            0   -1.4429194    5.8549454    4017.7459 
    6000    2.4017087   -5.0415211            0   -1.4398587    5.8143325    4023.3775 
    7000    2.4324664   -4.9625077            0   -1.3147203    6.0353333    4044.2451 
    8000    2.4005858   -5.0204189            0   -1.4204404    5.3531323    4078.9385 
    9000    2.4332468   -4.9980201            0   -1.3490624    5.3760533    4079.7421 
   10000     2.352399   -4.9874312            0   -1.4597148      5.25482    4093.2797 
Loop time of 2.53954 on 48 procs for 10000 steps with 4000 atoms

Performance: 680437.274 tau/day, 3937.716 timesteps/s
99.6% CPU use with 48 MPI tasks x no OpenMP threads

MPI task timing breakdown:
Section |  min time  |  avg time  |  max time  |%varavg| %total
---------------------------------------------------------------
Pair    | 1.0683     | 1.1328     | 1.2176     |   2.8 | 44.61
Neigh   | 0.20719    | 0.2133     | 0.22498    |   0.8 |  8.40
Comm    | 0.77221    | 0.86582    | 0.93609    |   4.4 | 34.09
Output  | 0.00024891 | 0.00025395 | 0.00031888 |   0.0 |  0.01
Modify  | 0.24293    | 0.31238    | 0.34055    |   3.5 | 12.30
Other   |            | 0.01494    |            |       |  0.59

Nlocal:        83.3333 ave          93 max          75 min
Histogram: 3 2 6 10 7 6 5 5 3 1
Nghost:        1618.73 ave        1637 max        1589 min
Histogram: 1 1 3 5 6 4 6 10 7 5
Neighs:        9323.65 ave       10612 max        8354 min
Histogram: 3 5 7 7 7 9 4 3 0 3

Total # of neighbors = 447535
Ave neighs/atom = 111.88375
Neighbor list builds = 908
Dangerous builds = 223

# Equilibrate just above the melting temperature to avoid step fn in T

fix 1 all npt temp 1.25 1.25 0.1 iso 5.68 5.68 0.5 mtk yes tchain 5 pchain 5
run 2000
Per MPI rank memory allocation (min/avg/max) = 3.643 | 3.645 | 3.649 Mbytes
Step Temp E_pair E_mol TotEng Press Volume 
   10000     2.352399   -4.9874312            0   -1.4597148      5.25482    4093.2797 
   11000    1.2569468   -6.8841849            0    -4.999236    5.8957091    3245.1789 
   12000     1.229416   -6.9949782            0   -5.1513152    5.5327913    3226.0872 
Loop time of 0.591285 on 48 procs for 2000 steps with 4000 atoms

Performance: 584489.657 tau/day, 3382.463 timesteps/s
99.7% CPU use with 48 MPI tasks x no OpenMP threads

MPI task timing breakdown:
Section |  min time  |  avg time  |  max time  |%varavg| %total
---------------------------------------------------------------
Pair    | 0.24301    | 0.27878    | 0.32158    |   2.8 | 47.15
Neigh   | 0.036357   | 0.040154   | 0.046057   |   0.8 |  6.79
Comm    | 0.17728    | 0.223      | 0.2677     |   3.5 | 37.71
Output  | 5.3573e-05 | 5.5064e-05 | 7.2008e-05 |   0.0 |  0.01
Modify  | 0.039382   | 0.044613   | 0.051179   |   1.6 |  7.55
Other   |            | 0.004688   |            |       |  0.79

Nlocal:        83.3333 ave          92 max          73 min
Histogram: 3 0 3 5 11 8 6 7 3 2
Nghost:        1894.10 ave        1910 max        1867 min
Histogram: 2 2 1 2 8 2 10 8 6 7
Neighs:        11830.4 ave       13768 max        9832 min
Histogram: 2 1 2 9 12 7 7 2 5 1

Total # of neighbors = 567860
Ave neighs/atom = 141.96500
Neighbor list builds = 143
Dangerous builds = 13

#############################
# L I N E A R  Q U E N C H  #
#############################

# Define solid atoms. This closely follows ten Wolde  Ruiz-Montero and Frenkel  Faraday Discuss  1996  104  93-110
# Compute components of the per-atom q6 vector
compute q6 all orientorder/atom degrees 1 6 components 6 nnn NULL cutoff 1.3 # compute the Q6 parameter.
                                                                             # Use all neighbours within 1.3 unit cell.

# get number of connections
compute coord_number all coord/atom orientorder q6 0.5

# An atom is solid if it has 8 or more connections (of a possible 14)
variable is_solid atom c_coord_number>=8
group solid dynamic all var is_solid    # Must be dynamic to update
dynamic group solid defined

# do clustering
compute cluster solid cluster/atom 1.3 # Create a cluster where all atoms within are solid and max 1.3 units from another member

# define chunks one chunk per cluster
compute clus_chunks solid chunk/atom c_cluster nchunk every compress yes  # Says which atoms are in which chunk

# count the size of each chunk
compute size_chunks solid property/chunk clus_chunks count


# Find the maximum entry in the vector of chunk sizes
variable max_n equal max(c_size_chunks)


# Thermo style which includes this variable
# thermo_style custom step temp pe vol v_max_n

thermo ${N}  # Print the thermo information every 100 steps
thermo 1000  

# Reset the npt fix at a lower temperature (below freezing)
fix 1  all npt temp  ${temp} ${temp}  0.1  iso  5.68  5.68  0.5  mtk yes tchain  5  pchain  5
fix 1  all npt temp  0.45 ${temp}  0.1  iso  5.68  5.68  0.5  mtk yes tchain  5  pchain  5
fix 1  all npt temp  0.45 0.45  0.1  iso  5.68  5.68  0.5  mtk yes tchain  5  pchain  5

dump dmp2 all dcd ${N} traj.dcd
dump dmp2 all dcd 1000 traj.dcd


compute msd all msd com yes
variable twopoint equal c_msd[4]/6/(step*dt+1.0e-6)
fix 9 all vector 10 c_msd[4]
variable fit equal slope(f_9)/6/(10*dt)
thermo_style custom step temp pe c_msd[4] v_twopoint v_fit v_max_n

fix 1 all npt temp 1.25 ${temp} 0.1 iso 5.68 5.68 0.5 mtk yes tchain 5 pchain 5
fix 1 all npt temp 1.25 0.45 0.1 iso 5.68 5.68 0.5 mtk yes tchain 5 pchain 5
run 500000 # 5000000  # Run for this many steps
Neighbor list info ...
  update every 1 steps, delay 10 steps, check yes
  max neighbors/atom: 2000, page size: 100000
  master list distance cutoff = 3.8
  ghost atom cutoff = 3.8
  binsize = 1.9, bins = 8 8 8
  4 neighbor lists, perpetual/occasional/extra = 1 3 0
  (1) pair lj/cut, perpetual
      attributes: half, newton on
      pair build: half/bin/atomonly/newton
      stencil: half/bin/3d
      bin: standard
  (2) compute orientorder/atom, occasional
      attributes: full, newton on
      pair build: full/bin/atomonly
      stencil: full/bin/3d
      bin: standard
  (3) compute coord/atom, occasional
      attributes: full, newton on
      pair build: full/bin/atomonly
      stencil: full/bin/3d
      bin: standard
  (4) compute cluster/atom, occasional
      attributes: full, newton on
      pair build: full/bin/atomonly
      stencil: full/bin/3d
      bin: standard
Per MPI rank memory allocation (min/avg/max) = 9.817 | 9.820 | 9.824 Mbytes
Step Temp PotEng c_msd[4] v_twopoint v_fit v_max_n 
   12000     1.229416   -6.9949782 1.0554959e-30 7.3298323e-33 8.3333333e+20            1 
   13000    1.2502313   -7.0181365   0.45373644 0.0029085668  0.036790792            1 
   14000    1.2578522   -6.9812994    0.9017645 0.0053676457  0.036358066            1 
   15000     1.239882   -7.0129754    1.3257674 0.0073653744  0.036189698            1 
   16000    1.2509834   -6.9727356    1.7562395 0.0091470804  0.036269298            1 
   17000    1.2616065   -7.0097889    2.1867368  0.010719298  0.036219469            1 
   18000     1.231991   -7.0201951    2.6486845  0.012262428  0.036403278            1 
   19000    1.2377082   -6.9642952     3.097132  0.013583912  0.036566025            1 
   20000    1.2403784   -6.9771014    3.5669663  0.014862359   0.03665165            2 
   21000    1.2350607   -7.0100873    3.9550243  0.015694541  0.036618337            1 
   22000    1.2497221   -7.0140981     4.383304  0.016603424  0.036447829            2 
   23000     1.254056    -6.986408    4.7759431  0.017304141  0.036388534            3 
   24000    1.2483582   -6.9927301    5.2474107  0.018220176  0.036199705            3 
   25000    1.2307049   -6.9990675      5.66746  0.018891533  0.036161668            1 
   26000     1.214326    -7.026329     6.132545  0.019655593  0.036179541            1 
   27000    1.2103426   -7.0387514    6.5950966  0.020355236  0.036263992            1 
   28000     1.230073   -7.0415179    6.9783695  0.020768957  0.036238635            1 
   29000    1.2279797   -7.0379555    7.3565306  0.021139455  0.036197057            1 
   30000    1.1907778    -7.057878    7.7113003  0.021420278   0.03603989            2 
   31000    1.2249836   -7.0123128    8.2088062  0.022066683  0.035931334            1 
   32000    1.2172956   -7.0001545    8.5840222  0.022354224  0.035860775            3 
   33000    1.1899063   -7.0564134    8.9929924  0.022709576  0.035768715            2 
   34000    1.2341413   -7.0622209    9.4061394  0.023054263  0.035682835            2 
   35000    1.2165857   -7.0816758    9.7444011  0.023200955  0.035580534            1 
   36000    1.2240057   -7.0731808    10.144376  0.023482351  0.035461192            3 
   37000     1.215063   -7.0891767    10.529959  0.023716124  0.035328835            2 
   38000    1.2016648   -7.1040065    10.883963  0.023868339  0.035183385            1 
   39000    1.2096259   -7.0953023    11.280672  0.024104001  0.035051901            3 
   40000    1.1939555   -7.0365574     11.61521  0.024198353  0.034892399            7 
   41000    1.2034956   -7.1436843    11.931995  0.024252023  0.034728265            2 
   42000    1.2199981   -7.0809071    12.319699  0.024443847  0.034560364            1 
   43000    1.1976534   -7.0555652    12.726806  0.024664352  0.034415597            1 
   44000    1.1987755   -7.0693803    13.117226  0.024843231   0.03428414            2 
   45000    1.1735613   -7.1073126    13.382246  0.024781937  0.034121803            2 
   46000    1.2014302   -7.1118527    13.792455  0.024986331  0.033962104            1 
   47000    1.1844211   -7.0981602    14.164055  0.025113572  0.033823312            4 
   48000    1.1796352   -7.0721552    14.556012  0.025270855  0.033706939            2 
   49000    1.1785284   -7.1481559    14.952109  0.025428756  0.033607065            1 
   50000    1.1633591   -7.1061847     15.29562  0.025492699  0.033505096            1 
   51000    1.1715085    -7.169728    15.675742  0.025613958  0.033416414            1 
   52000    1.1871948   -7.1317267    16.187584   0.02594164  0.033343953            1 
   53000    1.1845253   -7.1161108    16.551603  0.026024532  0.033295414            1 
   54000    1.1970876    -7.095663    17.028129  0.026277976  0.033258385            1 
   55000    1.1802061   -7.1118095    17.350748  0.026289012   0.03322531            1 
   56000    1.1604989   -7.1258037    17.818813   0.02651609  0.033189258            1 
   57000    1.1751889    -7.173373    18.087978  0.026444412  0.033149775            3 
   58000    1.1950386    -7.151528    18.432274  0.026483152  0.033094873            1 
   59000    1.1884517   -7.1348666    18.704732  0.026419112  0.033031223            1 
   60000    1.1594206   -7.1345421    19.109716  0.026541272  0.032967419            1 
   61000    1.1720629   -7.1431567    19.373998   0.02646721  0.032901701            2 
   62000    1.1587899   -7.1477867    19.721576  0.026507495   0.03282943            1 
   63000    1.1886142   -7.1752837    19.929573  0.026361868  0.032727084            2 
   64000    1.1988857   -7.1406435    20.280546   0.02640696  0.032618314            4 
   65000    1.1503007   -7.1888092    20.569978  0.026371767  0.032506784            1 
   66000    1.1761763   -7.1615229    20.977535  0.026486786  0.032406394            2 
   67000     1.166653   -7.1667909    21.338358  0.026540246  0.032315823            2 
   68000    1.1502729   -7.1760685    21.578891  0.026444719  0.032224213            2 
   69000    1.1594907     -7.17987    21.901342  0.026450896  0.032118406            2 
   70000    1.1955685   -7.1945315    22.264962  0.026505907  0.032011871            1 
   71000    1.1616169   -7.1546664    22.620503  0.026549886  0.031915067            3 
   72000    1.1247304   -7.1769731    22.894142   0.02649785  0.031812596            2 
   73000    1.1464048   -7.1824677    23.275065  0.026569708  0.031724731            1 
   74000     1.133098    -7.172698    23.496738   0.02646029  0.031629345            1 
   75000    1.1720316   -7.2169261    23.759934  0.026399927  0.031534867            2 
   76000    1.1271306   -7.1986952    24.225491  0.026563039  0.031445723            1 
   77000    1.1625302   -7.1851101    24.530155  0.026547787  0.031358633            1 
   78000    1.1281138   -7.1869233     24.76367  0.026456912  0.031268792            1 
   79000    1.1165812   -7.1658315    25.258811  0.026644315  0.031179017            1 
   80000    1.1504147   -7.2009396    25.514453  0.026577555  0.031100867            2 
   81000    1.1379855   -7.2064024     25.86272  0.026607736  0.031028954            2 
   82000    1.1345173   -7.2331584    26.120466  0.026545189  0.030953904            1 
   83000     1.142209    -7.216431    26.435174  0.026541339  0.030876107            1 
   84000    1.1314333   -7.2412533    26.703145  0.026491215   0.03079594            1 
   85000    1.1232241   -7.1942551     27.19083  0.026657677  0.030727013            2 
   86000    1.1279639    -7.203617    27.650571  0.026793189  0.030673225            2 
   87000    1.1356132   -7.2302788    27.982831  0.026803478  0.030625166            1 
   88000    1.1380246   -7.2638115    28.316312   0.02681469  0.030570293            1 
   89000    1.0856033   -7.2765174    28.467102   0.02665459  0.030512592            2 
   90000    1.1536146   -7.2861904    28.989542  0.026842169  0.030456868            2 
   91000    1.1342164   -7.2301873    29.249382  0.026785148  0.030406399            1 
   92000    1.1008891   -7.2048207    29.672316  0.026877098   0.03035886            1 
   93000    1.1309979   -7.2599461    29.705617  0.026617936  0.030299438            1 
   94000    1.1177283   -7.2147863      30.1319  0.026712678  0.030244552            1 
   95000    1.1029752   -7.2185718    30.601021  0.026843001  0.030194031            1 
   96000    1.1278749   -7.2914494    30.884748  0.026809677  0.030147012            1 
   97000    1.1154143   -7.2949727    31.163838  0.026773057   0.03009898            1 
   98000    1.1129632    -7.298774    31.460823    0.0267524  0.030049661            1 
   99000    1.1124357   -7.2829752    31.860344  0.026818471  0.030006496            1 
  100000     1.104426     -7.28315    32.186671  0.026822226  0.029966112            2 
  101000    1.0890587   -7.2858701    32.469135  0.026789715  0.029927939            4 
  102000    1.1316128   -7.3131802    32.720277  0.026732252  0.029886069            1 
  103000    1.1021007    -7.261331    33.075065  0.026759761   0.02983952            4 
  104000    1.0670398   -7.3061024    33.281386  0.026667777  0.029791789            2 
  105000    1.1149776   -7.2926143    33.453774  0.026550614  0.029735591            1 
  106000     1.101961   -7.3170066    33.689301  0.026485299  0.029679094            2 
  107000    1.0888806   -7.3444039    34.196869  0.026633075   0.02962474            4 
  108000    1.0665789   -7.3387219    34.400086  0.026543276  0.029569714            1 
  109000    1.1196569   -7.3513631    34.717517  0.026542444    0.0295159            3 
  110000    1.1046359   -7.3352928    35.066612  0.026565615  0.029465764            1 
  111000    1.0930955   -7.3737455    35.240218   0.02645662  0.029412853            1 
  112000    1.1013253   -7.3353919     35.62221  0.026504621  0.029360567            1 
  113000    1.0920325   -7.3224885    36.142608   0.02665384  0.029312175            2 
  114000    1.0817481   -7.3152529    36.531103  0.026704023  0.029269027            2 
  115000    1.1002405   -7.3757763    36.680044  0.026579742  0.029227622            2 
  116000    1.0696889   -7.3310679    36.957722  0.026550087  0.029178854            2 
  117000    1.0667872   -7.3450657    36.958357  0.026323616  0.029124275            1 
  118000     1.058214   -7.3785442    37.184841  0.026260481   0.02906444            1 
  119000    1.0740716   -7.3242353    37.528728  0.026280622  0.029003958            2 
  120000    1.0895435   -7.3659503    37.800183  0.026250127  0.028947044            2 
  121000    1.0860221   -7.3680573    37.923391  0.026118038  0.028888084            2 
  122000    1.0945106   -7.3566124    38.398809  0.026228695  0.028828942            2 
  123000    1.0823585   -7.3706807    38.547904  0.026116466  0.028769872            1 
  124000      1.05406   -7.3394996    38.975979  0.026193534  0.028713698            1 
  125000    1.0409317   -7.3886081    39.085375  0.026056917  0.028658952            1 
  126000    1.0795439   -7.3577289    39.590646  0.026184289  0.028603232            1 
  127000    1.0567112   -7.3951076    39.632794   0.02600577  0.028547702            1 
  128000    1.0676682    -7.373345    39.974436  0.026025023  0.028492331            2 
  129000    1.0681787   -7.4107868    40.208151  0.025974258  0.028437803            1 
  130000    1.0816719   -7.4230956    40.368314  0.025877124   0.02838317            4 
  131000    1.0581345   -7.3919079    40.803208  0.025956239  0.028328077            3 
  132000    1.0658154   -7.4130335    41.148894  0.025977837  0.028276199            2 
  133000    1.0591724   -7.4298767    41.295901  0.025874624   0.02822113            4 
  134000    1.0590459   -7.4225252    41.523643  0.025823161  0.028165927            1 
  135000    1.0404429   -7.3903791    41.744276  0.025768071  0.028108513            1 
  136000    1.0577148    -7.393387    41.889751   0.02566774  0.028050095            1 
  137000    1.0584462   -7.4008246    42.101547  0.025609213  0.027989383            2 
  138000    1.0421849   -7.4366678    42.210672  0.025489536  0.027924965            1 
  139000    1.0305274   -7.4013822    42.598682  0.025538778  0.027862179            3 
  140000    1.0643139   -7.4205612    42.976969  0.025581529  0.027801798            1 
  141000    1.0435639   -7.4342381    43.274438  0.025575909  0.027744162            2 
  142000    1.0566683   -7.4424987    43.432872  0.025488775  0.027686878            1 
  143000    1.0409659    -7.446122    43.792236  0.025519951  0.027630198            2 
  144000    1.0458227   -7.5124024     43.94802  0.025432882  0.027574269            2 
  145000    1.0424338    -7.467818     44.13674  0.025365943  0.027517736            2 
  146000    1.0389481   -7.4671354    44.465194  0.025379677  0.027462393            2 
  147000    1.0482314   -7.5190942    44.668985  0.025322554  0.027406417            2 
  148000    1.0172489   -7.4937307    44.833097  0.025243861  0.027349765            1 
  149000    1.0105248   -7.4988496    45.025713  0.025182166  0.027290401            1 
  150000    1.0417171   -7.4890178    45.337404  0.025187447  0.027231425       -1e+20 
  151000    1.0183578   -7.4696876    45.578241  0.025153554  0.027172769            2 
  152000    1.0393351   -7.4763028    45.529455  0.024961324  0.027109008            3 
  153000    1.0253644   -7.5181763    45.881372  0.024989854  0.027045291            2 
  154000    1.0172124   -7.4717466    46.189709  0.024994431  0.026986241            2 
  155000    1.0356217   -7.5168617    46.473334  0.024985663  0.026929036            1 
  156000   0.99557257   -7.4694406    46.651925    0.0249209  0.026872308            1 
  157000    1.0046946   -7.4907627    46.738591  0.024808169  0.026813032            2 
  158000     1.002452   -7.4930556    46.782466  0.024674296  0.026750523            1 
  159000     1.025885    -7.498937     47.02088  0.024644067  0.026686167            1 
  160000    1.0261209   -7.5096906    47.358401  0.024665834  0.026621392            3 
  161000    1.0086571   -7.5209729    47.459685  0.024565054  0.026557002            2 
  162000    1.0077926   -7.5564613    47.703434  0.024538803  0.026491125            1 
  163000    1.0080128   -7.5361054    47.924618  0.024501338  0.026428744            3 
  164000     0.997797   -7.5347498     48.22025   0.02450216  0.026366797            2 
  165000    1.0254643   -7.5146638    48.539325  0.024514811  0.026307225            1 
  166000    1.0244823   -7.4829895    48.697672  0.024446622  0.026248133            1 
  167000   0.99503918   -7.5635958    48.901428   0.02440191  0.026187298            1 
  168000   0.98657532   -7.5554856    49.115166  0.024362681  0.026124852            2 
  169000    0.9912425   -7.5648769    49.264157  0.024291991  0.026065658            2 
  170000    1.0182664   -7.4989231    49.675612   0.02435079  0.026008606            2 
  171000   0.99740215   -7.5255364    50.099916  0.024415163  0.025955151            2 
  172000   0.97774439   -7.5592025    50.035437  0.024241975  0.025900634            1 
  173000   0.99609247    -7.553227    50.301114  0.024229824  0.025843902            4 
  174000   0.99060259   -7.5270733    50.553889  0.024211633  0.025788122            1 
  175000   0.96948083   -7.5259596    50.996792  0.024284186  0.025735921            2 
  176000   0.98436751   -7.5545392    51.223683  0.024253638  0.025683146            2 
  177000     0.993792   -7.5592178    51.108574  0.024062417  0.025629532            4 
  178000   0.97984595   -7.5998205    51.379102  0.024053887  0.025575689            1 
  179000   0.99865199   -7.5956276    51.699731  0.024068776  0.025522554            2 
  180000   0.97382822   -7.5370942     51.96114  0.024056083   0.02547033            2 
  181000   0.98686891   -7.5839161    51.986063  0.023934651  0.025415544            1 
  182000   0.97968614   -7.5771781    52.000405  0.023809709  0.025357075            2 
  183000   0.97074028   -7.5846106    52.132191  0.023739613  0.025298254            1 
  184000    0.9707189   -7.6328394    52.260991  0.023668927  0.025239701            2 
  185000   0.95855939   -7.6085443    52.386821  0.023597667  0.025181112            1 
  186000    0.9959433   -7.6010352    52.550017  0.023543914  0.025121485            3 
  187000    0.9735545   -7.5860208    52.777339  0.023519313  0.025061755            3 
  188000   0.96835389   -7.6125283     53.08786  0.023531853  0.025002236            1 
  189000   0.95178763   -7.6003551    52.968523  0.023354728  0.024942453            5 
  190000   0.97064001   -7.6325931    53.303484  0.023378721  0.024883305            1 
  191000   0.96142721   -7.6489288    53.406275  0.023301167  0.024822632            3 
  192000   0.95119601   -7.6458444    53.602394  0.023264928  0.024763194            2 
  193000   0.96156965   -7.6158263     53.85653  0.023254115  0.024704585            2 
  194000   0.98711397   -7.6059887    53.994495  0.023193511   0.02464561            5 
  195000   0.96504959   -7.6191103    54.281626  0.023197276  0.024586996            4 
  196000    0.9828967   -7.6838757    54.208469  0.023047818  0.024528055            3 
  197000   0.95860058   -7.6290612    54.572699  0.023084898  0.024468349            1 
  198000   0.94475061   -7.6483923    54.531085  0.022950793  0.024409747            1 
  199000   0.93909779   -7.6469147    55.003601  0.023033334  0.024351077            1 
  200000   0.95443884   -7.6660574    55.349522  0.023062301  0.024295013            2 
  201000   0.92901574   -7.6933904    55.342023  0.022944454  0.024239097            2 
  202000    0.9634118   -7.6919237    55.427641  0.022866188  0.024181863            1 
  203000   0.95333016   -7.6996246     55.72022  0.022873653  0.024124692            3 
  204000   0.95966559   -7.7144199    55.752173  0.022774581  0.024067237            2 
  205000   0.93347801   -7.7001051    56.073926  0.022794279  0.024011466            1 
  206000   0.95285743   -7.7136518    56.193986  0.022732195   0.02395515            2 
  207000   0.92678313   -7.7278591    56.247998  0.022644121  0.023898488            2 
  208000   0.93268053   -7.6962022    56.397377  0.022595103  0.023841013            2 
  209000   0.95528709   -7.7254066    56.384667  0.022481925  0.023783154            1 
  210000   0.93251689   -7.7037075    56.740017   0.02251588  0.023725108            3 
  211000   0.94894246   -7.7293171    56.785556  0.022427155  0.023666784            1 
  212000   0.91497472   -7.7114154    56.793351  0.022324431  0.023608083            1 
  213000    0.9218321   -7.7137154    56.998525  0.022299892  0.023548857            2 
  214000   0.91938755   -7.7122979    56.888473  0.022152832  0.023488844            2 
  215000   0.90079504   -7.7145425     57.06669  0.022118872  0.023428624            2 
  216000   0.92436564   -7.7320116    57.252308  0.022088082  0.023368615            1 
  217000   0.92607447   -7.7216794    57.430406  0.022054687  0.023309152            1 
  218000   0.92037287   -7.7432851    57.737742  0.022071002  0.023250207            2 
  219000   0.93547834   -7.7417516    57.901388  0.022032492  0.023191611            2 
  220000   0.92412722   -7.7560852    57.683435  0.021849786  0.023132346            1 
  221000   0.90940567    -7.750979    58.069563  0.021896517  0.023074553            2 
  222000    0.9186579   -7.7501494    58.365936  0.021909135   0.02301668            1 
  223000   0.91466308    -7.789635    58.158245  0.021733275  0.022957294            2 
  224000   0.90876525   -7.7426136    58.416394  0.021732289  0.022897313            1 
  225000   0.91675914   -7.7575568    58.461662  0.021652467  0.022836553            1 
  226000   0.90038531   -7.7547341    58.545825  0.021587693  0.022775798            2 
  227000   0.89843313   -7.7417093    58.728856  0.021559786   0.02271518            1 
  228000   0.90377793   -7.7653085    58.662545  0.021440988  0.022653768            3 
  229000   0.91325839   -7.7508254    58.744295  0.021377109  0.022591718            4 
  230000    0.8921832   -7.7959611    58.955443  0.021360668  0.022529643            6 
  231000   0.89256824    -7.826039    58.874756  0.021239089  0.022467312            2 
  232000   0.89626225   -7.7974437    59.260479  0.021286092  0.022405516            2 
  233000   0.88699106   -7.7823981    59.304069  0.021210325  0.022344888            1 
  234000   0.89304305   -7.8080743     59.38407  0.021148173  0.022284116            3 
  235000   0.88458402   -7.8150707    59.741693  0.021184997  0.022224223            4 
  236000   0.88842962   -7.7993763    59.644276  0.021060832  0.022164179            1 
  237000   0.88195545   -7.8276367    59.816529  0.021032535  0.022103811            2 
  238000   0.87472496   -7.8139042    60.011848  0.021012552  0.022043868            1 
  239000   0.90287187   -7.8370725    59.837399  0.020863807  0.021983946            2 
  240000     0.899099   -7.8429076    60.126698  0.020877326  0.021923205            4 
  241000    0.8880652   -7.8484742    59.965515  0.020734964  0.021862889            1 
  242000   0.88205116   -7.8062438    60.235139  0.020742128  0.021801407            2 
  243000   0.87363544   -7.8426267    60.158175  0.020630375  0.021740584            2 
  244000    0.8770449   -7.8165793    60.025978  0.020500675  0.021679232            2 
  245000   0.86989004   -7.8473996    60.291036  0.020507155  0.021617128            2 
  246000   0.86342882   -7.8209383    60.563389  0.020516053  0.021555988            2 
  247000   0.86007785   -7.8305618    60.536419  0.020423893  0.021494583            3 
  248000   0.87561027   -7.8686721    60.503369  0.020330433  0.021432613            1 
  249000   0.88604928   -7.8916627    60.519799  0.020254283  0.021369642            2 
  250000   0.86583616   -7.8783621    60.527577  0.020175859   0.02130587            5 
  251000   0.84978569   -7.8860947    60.460796  0.020073305  0.021241693            4 
  252000   0.86379376   -7.8800132    60.673223  0.020063896  0.021177643            2 
  253000   0.86379886   -7.8848477    61.131309  0.020135477  0.021114641            1 
  254000   0.85803596   -7.8780939    60.783237  0.019942007  0.021051501            3 
  255000   0.86001356   -7.8803312    61.176055  0.019992175  0.020988567            1 
  256000   0.84213598   -7.9245674    61.078533  0.019882335  0.020926547            2 
  257000   0.85618006   -7.9207678    61.067467  0.019801383  0.020863044            2 
  258000    0.8534834   -7.9273822    61.173942  0.019759025  0.020800424            2 
  259000   0.84592137   -7.9142679    61.243847  0.019705227  0.020736859            1 
  260000   0.86477065   -7.9163084    61.268662  0.019637392  0.020673284            3 
  261000   0.85596556   -7.9139373    61.253289  0.019557244  0.020610172            1 
  262000    0.8498515   -7.9054958    61.394212  0.019527421  0.020546113            6 
  263000   0.84172837    -7.924404     61.36627  0.019444319  0.020481879            2 
  264000   0.84096168   -7.9547825    61.342192  0.019363066  0.020417241            2 
  265000   0.83796145   -7.9459873    61.252137  0.019261678  0.020351714            2 
  266000   0.86015358   -7.9312762    61.342204  0.019217482  0.020286295            2 
  267000   0.82342549    -7.969489    61.335062  0.019143278  0.020220917            1 
  268000   0.84336565   -7.9171471    61.522894  0.019130253  0.020155094            1 
  269000   0.82589529   -7.9642408    61.537453  0.019063647  0.020089807            3 
  270000   0.83085248   -7.9779983     61.38008  0.018944469  0.020024024            1 
  271000   0.83801551   -7.9679398    61.594578  0.018940522  0.019958574            2 
  272000   0.84521684   -7.9855444    61.494209  0.018840138  0.019893486            2 
  273000   0.83702519   -7.9259063    61.724241  0.018841343  0.019829055            1 
  274000    0.8391857    -8.013286    61.821618  0.018802195  0.019765306            1 
  275000   0.83748486   -7.9738509    62.026063  0.018795777  0.019702247            4 
  276000   0.83852256    -7.967494    62.060708  0.018738136  0.019639668            1 
  277000   0.83106093   -8.0076968     62.14569  0.018696056  0.019577439            2 
  278000   0.81059641   -7.9859125    61.992677  0.018582937  0.019514614            4 
  279000    0.8144281   -8.0095978    62.132671  0.018558145  0.019452601            2 
  280000   0.82179363   -7.9934572    62.376379  0.018564399  0.019390471            2 
  281000   0.84378168   -8.0170845    62.154932  0.018432661   0.01932796            2 
  282000   0.82470888    -8.036776    62.204919  0.018382068  0.019264854            3 
  283000   0.81677055   -8.0289144    62.212393  0.018319315  0.019201999            2 
  284000   0.80241732   -8.0487769    62.521391  0.018345478   0.01913962            3 
  285000   0.81902408   -8.0150639    62.563693  0.018293477  0.019078152            2 
  286000    0.8300471     -8.03486    62.461658  0.018199784  0.019017328            1 
  287000    0.8146391   -8.0253117    62.700245  0.018205646  0.018956732            2 
  288000   0.79647112    -8.004648    62.625707  0.018120864  0.018896256            2 
  289000   0.80828821   -8.0340192    62.694628  0.018078036  0.018835414            1 
  290000   0.80747108   -8.0500366    62.620709  0.017994457  0.018774394            2 
  291000   0.79417662   -8.0398803    62.618287  0.017931926  0.018713372            2 
  292000   0.80364145   -8.0406678    62.718111  0.017899004  0.018652326            3 
  293000   0.80486197   -8.0556485    62.961061  0.017907014  0.018591798            5 
  294000   0.79575179   -8.0039914    63.000536  0.017857295  0.018531707            2 
  295000   0.78814778   -8.0497262    63.215099  0.017857373     0.018472            5 
  296000   0.79827024   -8.0490586    63.256531  0.017808708  0.018413091            4 
  297000   0.79006984    -8.044963    63.257587  0.017749042  0.018354623            2 
  298000   0.78934483   -8.0377137    63.197876  0.017672784  0.018295957            1 
  299000   0.81756544   -8.0279221    63.240588  0.017625582  0.018237443            1 
  300000   0.77663042   -8.0490307    63.155798  0.017543277  0.018178196            2 
  301000    0.7797133   -8.0679693    63.266439  0.017515625  0.018119622            2 
  302000   0.78772897   -8.0504927    63.394401  0.017492936  0.018060934            1 
  303000   0.77998077   -8.0792916     63.42974  0.017444923  0.018002574            4 
  304000   0.77328609   -8.0997884    63.417155  0.017384089   0.01794426            3 
  305000   0.77269988   -8.0904219    63.470561  0.017341683  0.017885987            7 
  306000   0.78426342    -8.085097    63.371963   0.01725816    0.0178278            2 
  307000   0.77773297   -8.0924745    63.510051  0.017239427  0.017769613            2 
  308000   0.78909793   -8.1267645     63.56766  0.017199042  0.017712213            3 
  309000   0.76420762   -8.1194241    63.659015  0.017168019  0.017654818            5 
  310000   0.76659182   -8.1289886    63.653427  0.017111136  0.017597589            1 
  311000   0.76525089   -8.1207395    63.857948  0.017110919  0.017540618            1 
  312000   0.75644216   -8.1169027    63.960206  0.017083388   0.01748461            1 
  313000   0.75967313    -8.123969    63.837761  0.016996209   0.01742841            3 
  314000   0.76333397   -8.1338596    63.830363  0.016940117  0.017372235            4 
  315000   0.76713091    -8.125221    63.754305  0.016866218  0.017316345            3 
  316000   0.76994421   -8.1309692    63.763878  0.016815369  0.017260091            1 
  317000    0.7834294   -8.1375531    63.986401   0.01682082  0.017204006            3 
  318000   0.75302838   -8.1702646    63.739605  0.016703251  0.017147976            1 
  319000   0.75897433   -8.1300855     63.98869  0.016715959  0.017091842            2 
  320000   0.75681201   -8.1671429     63.95583  0.016655164  0.017036298            3 
  321000     0.760956   -8.1627777    64.138217  0.016650628  0.016980929            2 
  322000   0.75606073   -8.1766675     64.14812   0.01660148  0.016925642            3 
  323000   0.74361232   -8.1694616    64.099136  0.016537445  0.016870467            1 
  324000   0.74283638   -8.1580229    64.068166  0.016478438  0.016815096            1 
  325000   0.76064216   -8.1661994    64.099159  0.016435682  0.016760227            1 
  326000   0.74300148   -8.1859729    64.121713  0.016391031  0.016705338            1 
  327000   0.73372504   -8.1892494    64.194047  0.016359339   0.01665108            1 
  328000   0.75399338   -8.1909452    64.308146  0.016338452  0.016596874            5 
  329000   0.75144635   -8.1893041    64.394547  0.016310675   0.01654325            2 
  330000   0.73779244   -8.1854889    64.253755  0.016225696  0.016489452            2 
  331000   0.74269322    -8.168835    64.501781  0.016239119   0.01643641            2 
  332000   0.73791523   -8.2075002    64.597564  0.016214248  0.016383447            4 
  333000    0.7282815   -8.2192459    64.358825  0.016105812  0.016330211            2 
  334000   0.72955555   -8.1855523    64.421061  0.016073119   0.01627716            5 
  335000   0.75328354   -8.2236063    64.444326  0.016030927  0.016224333            3 
  336000   0.72467788   -8.2304026      64.3837   0.01596818  0.016171559            2 
  337000   0.71834865   -8.2417257    64.405985  0.015926307  0.016118956            2 
  338000   0.73362308   -8.2501766    64.480565  0.015897575  0.016066453            4 
  339000   0.72633707   -8.2668435    64.436929  0.015839953  0.016013989            2 
  340000   0.71942744   -8.2647188    64.387712  0.015781302  0.015961241            2 
  341000   0.72469415   -8.2523994    64.510579  0.015765049  0.015909151            3 
  342000    0.7187109   -8.2553292    64.457639  0.015706052  0.015856606            3 
  343000   0.70619256   -8.2797199    64.481731  0.015666115  0.015804411            2 
  344000   0.70943791   -8.2556061    64.604045  0.015650205   0.01575204            4 
  345000   0.72214284   -8.2764626    64.500469  0.015579823  0.015699875            1 
  346000   0.71788154   -8.2863125    64.310147  0.015488956  0.015647595            1 
  347000   0.70895709   -8.2555057    64.474325  0.015483748  0.015595711            1 
  348000   0.72266109   -8.2944109    64.370427  0.015414374  0.015544176            2 
  349000   0.70772515   -8.2716695     64.44963  0.015389119  0.015492703            2 
  350000    0.7079451      -8.2765     64.62706  0.015387395  0.015441341            3 
  351000   0.71742788   -8.3014944    64.642071   0.01534712  0.015390428            3 
  352000   0.69600502   -8.2984115    64.720893  0.015322181  0.015339631            3 
  353000   0.70174171   -8.3272739    64.473174  0.015220296  0.015288598            3 
  354000   0.69250813   -8.3114532    64.478157  0.015178474  0.015237642            4 
  355000   0.69575691   -8.3105836    64.412868  0.015120392  0.015186716            3 
  356000    0.6915137   -8.3091274    64.458948  0.015088705  0.015135897            2 
  357000   0.69589277   -8.3167378     64.53961  0.015065268    0.0150852            2 
  358000   0.71147401   -8.3323388    64.482998  0.015010009  0.015034553            2 
  359000   0.69830219   -8.3649725    64.414434  0.014952283  0.014983906            2 
  360000   0.69587223   -8.3391413    64.485205  0.014927131  0.014933234            1 
  361000   0.69892686   -8.3450075    64.542184  0.014898934  0.014882806            4 
  362000     0.687927   -8.3395641    64.472372  0.014841706  0.014832388            2 
  363000   0.68171446   -8.3321361    64.481918  0.014803011  0.014782122            1 
  364000   0.69433824    -8.368521    64.424354  0.014749165  0.014732129            1 
  365000   0.67966348   -8.3707212    64.384204   0.01469959  0.014682226            1 
  366000   0.68570782   -8.3737965    64.394712   0.01466182  0.014632469            1 
  367000   0.66614036   -8.3634859    64.476896   0.01464053   0.01458288            1 
  368000   0.66715998   -8.3782796    64.367556  0.014575986  0.014533467            3 
  369000    0.6924693   -8.3543549    64.478857  0.014561621  0.014484094            6 
  370000   0.65898851   -8.3679178    64.518998  0.014531306  0.014434952            2 
  371000   0.68785184   -8.3968945    64.385723  0.014462202  0.014385905            2 
  372000   0.66622198    -8.399187    64.523308  0.014454146  0.014336983            2 
  373000     0.673885   -8.3876281    64.482748  0.014406333  0.014288252            3 
  374000   0.67104703   -8.3874073    64.384623   0.01434595  0.014239583            2 
  375000   0.66035195   -8.3992134    64.403591  0.014311909   0.01419081            2 
  376000   0.66934794   -8.4060757    64.304165  0.014251809  0.014142086            1 
  377000   0.67381124   -8.4232206    64.383035   0.01423144   0.01409373            2 
  378000   0.64446949   -8.3954755    64.299804  0.014175442  0.014045263            3 
  379000   0.65374831   -8.4153791    64.231872  0.014123103  0.013996816            3 
  380000   0.67061995     -8.42913    64.348133  0.014111433  0.013948663            1 
  381000   0.64927901   -8.4282611    64.309798   0.01406601  0.013900518            3 
  382000   0.65075678   -8.4211882    64.112734  0.013986199   0.01385237            1 
  383000   0.65676959    -8.427343    64.402692   0.01401277  0.013804574            2 
  384000    0.6499584   -8.4229945    64.279106  0.013949459  0.013756967            1 
  385000   0.64624425   -8.4168284    64.345485  0.013927594  0.013709474            2 
  386000   0.66141625   -8.4441356    64.211159  0.013862513  0.013662166            3 
  387000   0.63336927   -8.4521454    64.298274  0.013845451  0.013615181            3 
  388000   0.65118451   -8.4305129    64.329122  0.013816392  0.013568278            2 
  389000   0.64222975   -8.4394149    64.230828  0.013759817   0.01352175            5 
  390000   0.64449041   -8.4504786    64.355834  0.013751247  0.013475214            2 
  391000   0.64091996    -8.446156    64.297408  0.013703625   0.01342877            2 
  392000   0.63256566    -8.457446    64.304059  0.013670081  0.013382441            2 
  393000   0.62959771    -8.450037    64.321219  0.013638935  0.013336217            1 
  394000   0.63644239   -8.4769997    64.120682  0.013561904  0.013290222            3 
  395000   0.63383822   -8.4814921    64.125786  0.013528647  0.013244388            3 
  396000   0.63564369   -8.4438176    64.076291  0.013484068   0.01319864            6 
  397000   0.62956962   -8.4728599    64.238149  0.013484078  0.013153089            5 
  398000   0.63149035   -8.4835049    64.244067  0.013451438  0.013107555            2 
  399000   0.62218333   -8.4752971    64.117655  0.013391323  0.013062182            2 
  400000   0.63063675   -8.5085417    64.118009  0.013357918  0.013016922            2 
  401000   0.63799505   -8.5049138    64.097811   0.01332041  0.012971967            2 
  402000   0.62451121   -8.4996242    64.147526   0.01329758  0.012926986            4 
  403000   0.61922633   -8.5177212    64.174106   0.01327008  0.012882247            1 
  404000   0.62251614   -8.4976421    64.127845  0.013227691  0.012837671            6 
  405000   0.62304613   -8.5276647    64.155133  0.013200645   0.01279322            3 
  406000    0.6195343   -8.5143185    64.144105  0.013165867  0.012749021            4 
  407000   0.63894929   -8.5229107    64.264348  0.013158138  0.012705004            4 
  408000   0.61891043   -8.5166708    64.156521  0.013103864  0.012661109            2 
  409000   0.61437276   -8.5155675    64.073205   0.01305485  0.012617469            3 
  410000   0.60602566   -8.5452361    64.032906  0.013014818  0.012573888            2 
  411000   0.62395158   -8.5203546    64.105243  0.012997819  0.012530538            3 
  412000   0.59645825   -8.5425495    64.221975  0.012989882  0.012487331            3 
  413000   0.61014554   -8.5357144    64.200295  0.012954055  0.012444374            3 
  414000   0.60446596   -8.5361859    64.144614  0.012911557  0.012401576            2 
  415000   0.61162814   -8.5343721    64.178147  0.012887178  0.012358933            2 
  416000   0.59876051   -8.5230331    64.029581  0.012826439  0.012316433            6 
  417000   0.60545833   -8.5355324    64.187897  0.012827317  0.012274056            2 
  418000   0.61143915   -8.5530006     63.99309  0.012757793  0.012231785            2 
  419000   0.59455789   -8.5519995    64.094632   0.01274754   0.01218977            1 
  420000   0.61199967   -8.5742978    64.089893  0.012716249  0.012147947            2 
  421000    0.5980503   -8.5591452     64.09344  0.012686746  0.012106425            2 
  422000    0.5930807   -8.5537269    64.207177  0.012679142  0.012065133            1 
  423000   0.59105776   -8.5627453    64.090863  0.012626254  0.012023986            1 
  424000   0.60004886   -8.5694602     64.15378   0.01260884  0.011982935            1 
  425000   0.59140648   -8.5632301    64.011394  0.012551254  0.011942017            4 
  426000     0.591381    -8.573124    64.190275  0.012556783  0.011901327            2 
  427000   0.58641561   -8.5770057    64.081545  0.012506156  0.011860672            1 
  428000   0.57998348   -8.5660945    63.976575  0.012456498  0.011820241            5 
  429000    0.5860716   -8.5790562    64.107427   0.01245288   0.01177986            4 
  430000   0.57756034   -8.5981835    64.052942  0.012413361  0.011739743            1 
  431000   0.57781415   -8.5855316    64.034361  0.012380967  0.011699696            3 
  432000   0.58691025   -8.5791813     63.93692  0.012333511  0.011659833            3 
  433000   0.57748624   -8.5877609    63.970568  0.012311503  0.011620082            3 
  434000   0.57673922   -8.5992986    63.986491  0.012286193  0.011580442            2 
  435000   0.57527751   -8.5751831    64.090428   0.01227786  0.011541013            2 
  436000   0.56797344   -8.6026775    64.077453   0.01224722  0.011501916            2 
  437000   0.57765728    -8.604877    63.911576  0.012187562  0.011462803            2 
  438000   0.56424592   -8.6093217    64.088497  0.012193397  0.011423962            2 
  439000   0.55060858   -8.6174689    64.014696  0.012151613  0.011385303            4 
  440000   0.57421594    -8.608391    64.021628  0.012125308  0.011346679            2 
  441000    0.5530938    -8.608958    64.068549   0.01210668  0.011308254            4 
  442000   0.57010929   -8.6202096    63.961388  0.012059085      0.01127            5 
  443000   0.56452144   -8.6142736    64.107403  0.012059331  0.011231863            3 
  444000   0.56132299   -8.6248632    63.932144  0.011999276  0.011193861            1 
  445000   0.55418506   -8.6166706    63.966819  0.011978805  0.011156085            6 
  446000   0.55588539   -8.6324532    63.947376  0.011948314  0.011118319            3 
  447000   0.56595662    -8.634157    63.888242   0.01191056  0.011080792            2 
  448000    0.5458987    -8.641007     63.99943  0.011904656  0.011043329            3 
  449000   0.55183107   -8.6306745    63.928887  0.011865049  0.011005958            3 
  450000   0.54970335    -8.633357    63.887294   0.01183098  0.010968739            2 
  451000   0.54859888   -8.6390839    63.884914  0.011804308  0.010931712            2 
  452000    0.5380209   -8.6468317    63.958131  0.011791691  0.010894927            3 
  453000   0.54781688   -8.6438647    63.861285  0.011747845  0.010858145            4 
  454000   0.54992948   -8.6505487    63.916192  0.011732047   0.01082164            1 
  455000   0.54037102   -8.6463904    63.811682  0.011687121  0.010785207            2 
  456000   0.54167927   -8.6489667    63.912201  0.011679861  0.010749028            6 
  457000   0.54122642   -8.6593505    63.901726  0.011652393  0.010712937            3 
  458000   0.52616078   -8.6585135    63.878801   0.01162278  0.010677004            4 
  459000   0.53151508   -8.6648356    63.780482  0.011579608  0.010641147            3 
  460000   0.53442028   -8.6615816    63.922902  0.011580236  0.010605427            2 
  461000   0.52991257   -8.6694671     63.84245  0.011540573  0.010569865            3 
  462000   0.52782939   -8.6585745    63.848245  0.011516639  0.010534463            1 
  463000   0.52967722   -8.6790748    63.897529  0.011500635   0.01049916            2 
  464000   0.52050892   -8.6623052    63.831854  0.011464054  0.010464013            4 
  465000   0.53169099   -8.6718279    63.874112  0.011446973   0.01042903            2 
  466000    0.5215996   -8.6912284    63.749674  0.011400156  0.010394162            3 
  467000   0.52801092   -8.6669799    63.869866  0.011397192  0.010359386            2 
  468000   0.52811563    -8.690115    63.713947  0.011345076  0.010324726            3 
  469000   0.51901876   -8.6863019    63.553565  0.011292389  0.010290199            3 
  470000   0.52248407   -8.6760248     63.69504  0.011293447  0.010255724            4 
  471000   0.50462214   -8.6819649     63.81815  0.011291251  0.010221496            1 
  472000   0.51172432   -8.7002762    63.751834   0.01125562  0.010187372            2 
  473000   0.50732593   -8.6930032    63.666969  0.011216873  0.010153371            3 
  474000    0.5164632   -8.7004124    63.695209  0.011198173  0.010119493            4 
  475000   0.50100795   -8.6999982    63.802171  0.011193363  0.010085765            2 
  476000   0.50451329   -8.6953373    63.626392  0.011139074  0.010052109            1 
  477000   0.49425369   -8.7030353    63.503871  0.011094317  0.010018606            3 
  478000   0.49881229    -8.716916    63.760951  0.011115926 0.0099852234            2 
  479000   0.50792451   -8.7153055    63.703055  0.011082647 0.0099519775            3 
  480000   0.50701674    -8.714756    63.733193   0.01106479 0.0099189436            1 
  481000   0.50172128   -8.7206922    63.669023  0.011030669 0.0098860358            3 
  482000   0.50720226   -8.7215488    63.559978  0.010988931  0.009853219            3 
  483000   0.49762035   -8.7204008    63.644533  0.010980768   0.00982055            4 
  484000   0.49672799   -8.7374612    63.681777  0.010964493 0.0097880778            3 
  485000   0.49305223   -8.7287595    63.651327  0.010936654 0.0097557266            2 
  486000   0.48295151   -8.7287172    63.537481   0.01089463 0.0097234784            2 
  487000   0.50327897   -8.7122846    63.653791  0.010892161  0.009691395            1 
  488000   0.48842871   -8.7395606    63.530366  0.010848765 0.0096593732            2 
  489000   0.48062398   -8.7357091    63.624617  0.010842641 0.0096275173            2 
  490000   0.48497767   -8.7406462    63.564056  0.010810214 0.0095957386            1 
  491000   0.49534731   -8.7445862    63.465049  0.010771393 0.0095640927            5 
  492000   0.48017964   -8.7340478    63.623293  0.010776303 0.0095325219            3 
  493000    0.4832108   -8.7629419    63.483508  0.010730816 0.0095011725            4 
  494000   0.47557141   -8.7560117    63.602061  0.010729093 0.0094698843            2 
  495000   0.47331753   -8.7526259    63.473316  0.010685743 0.0094387643            3 
  496000   0.47046702    -8.751223    63.596061  0.010684822 0.0094078111            2 
  497000   0.47019831   -8.7709698     63.60947  0.010665572 0.0093769839            4 
  498000   0.47197913   -8.7529983    63.531963  0.010631185 0.0093462668            3 
  499000   0.47297416   -8.7510293    63.419419  0.010591085 0.0093156697            5 
  500000   0.46512538   -8.7762846    63.517743   0.01058629 0.0092851639            1 
  501000    0.4624554   -8.7588337    63.542662  0.010569305  0.009254785            1 
  502000   0.47028978   -8.7819236    63.521452   0.01054473  0.009224543            1 
  503000   0.46087528   -8.7599636    63.513741  0.010522489 0.0091944383            2 
  504000   0.46121274   -8.7924454    63.462428  0.010493126 0.0091644829            2 
  505000   0.46696227    -8.772346    63.566526  0.010489526 0.0091346421            4 
  506000   0.46299049   -8.7767905    63.464374  0.010451972 0.0091049502            2 
  507000    0.4611384   -8.7761003    63.496783  0.010436684 0.0090753313            2 
  508000    0.4625326   -8.7770077    63.336805  0.010389896 0.0090458332            3 
  509000   0.44733497   -8.7887491    63.420525   0.01038319 0.0090164521            2 
  510000   0.45213287    -8.788074    63.433997  0.010365032 0.0089871866            2 
  511000   0.45224299   -8.7945593       63.406  0.010340183 0.0089579897            2 
  512000   0.44135328   -8.7842688     63.40778  0.010320277  0.008928937            1 
Loop time of 1210.09 on 48 procs for 500000 steps with 4000 atoms

Performance: 71399.666 tau/day, 413.193 timesteps/s
99.4% CPU use with 48 MPI tasks x no OpenMP threads

MPI task timing breakdown:
Section |  min time  |  avg time  |  max time  |%varavg| %total
---------------------------------------------------------------
Pair    | 77.55      | 82.553     | 87.329     |  26.7 |  6.82
Neigh   | 7.8523     | 8.2898     | 8.6908     |   6.6 |  0.69
Comm    | 77.417     | 82.524     | 88.124     |  30.2 |  6.82
Output  | 0.83406    | 0.83456    | 0.84281    |   0.1 |  0.07
Modify  | 1020.3     | 1024.4     | 1027.8     |   4.9 | 84.66
Other   |            | 11.46      |            |       |  0.95

Nlocal:        83.3333 ave          93 max          75 min
Histogram: 1 5 3 10 6 9 11 2 0 1
Nghost:        2104.44 ave        2129 max        2081 min
Histogram: 3 3 4 7 7 6 9 6 1 2
Neighs:        13794.5 ave       15776 max       11971 min
Histogram: 2 4 2 7 8 10 9 5 0 1
FullNghs:      27589.5 ave       30995 max       24353 min
Histogram: 1 5 2 4 13 7 10 4 1 1

Total # of neighbors = 1324295
Ave neighs/atom = 331.07375
Neighbor list builds = 26739
Dangerous builds = 0

#clear
#
#next RN
#
#jump SELF
Total wall time: 0:20:13
