
units lj                  # Use reduced LJ style units
atom_style atomic         # Uncharged point particles
atom_modify map hash      # Needed for indexing of clusters etc
                          # Used to be able to find where atoms are in relation to each other.

lattice fcc 1.0 spacing 1 1 1
Lattice spacing in x,y,z = 1.5874011 1.5874011 1.5874011
region box block 0 10 0 10 0 10 units lattice
create_box 2 box
Created orthogonal box = (0.0000000 0.0000000 0.0000000) to (15.874011 15.874011 15.874011)
  3 by 4 by 4 MPI processor grid
create_atoms 1 box
Created 4000 atoms
  using lattice units in orthogonal box = (0.0000000 0.0000000 0.0000000) to (15.874011 15.874011 15.874011)
  create_atoms CPU = 0.002 seconds
set type 1 type/fraction 2 0.83 78393
Setting atom values ...
  3314 settings made for type/fraction
mass 1 1.0
mass 2 1.0
pair_style lj/cut  3.5
pair_modify tail  yes
pair_coeff 1  1  1.0  1.0   # Intearaction between 1 and 1 set with epsilon = 1 and sigma = 1
pair_coeff 1  2  1.5  0.8
pair_coeff 2  2  0.5  0.88

write_data data.0
System init for write_data ...
Neighbor list info ...
  update every 1 steps, delay 10 steps, check yes
  max neighbors/atom: 2000, page size: 100000
  master list distance cutoff = 3.8
  ghost atom cutoff = 3.8
  binsize = 1.9, bins = 9 9 9
  1 neighbor lists, perpetual/occasional/extra = 1 0 0
  (1) pair lj/cut, perpetual
      attributes: half, newton on
      pair build: half/bin/atomonly/newton
      stencil: half/bin/3d
      bin: standard
WARNING: Not all mixed pair coeffs generated from mixing. Use write_data with 'pair ij' option to store all pair coeffs. (../write_data.cpp:312)


#############################
#   M E L T   S Y S T E M   #
#############################

velocity all create 2.4 5833274 mom yes dist gaussian # Assign velocities
                                                    # Temperature 2.4, random number seed, zero linear momentum
                                                                                # Gaussian distribution

timestep 0.002   # simulation timestep
thermo 1000       # output thermodynamic data every 1000 steps bf 100

# Define a fix  in this case with index 1 applied to all
# particles in the simulation. This fix is for simulations
# in the anisotropic NPT ensemble. Note that we use the MTK
# correction.
fix 1 all npt temp 2.4 2.4 0.1 iso 5.68 5.68 0.5 mtk yes tchain 5 pchain 5 # Use NPT ensemble
                                                                         # Set temperature and pressure and damping
                                                                         # Numbers of thermostats in chain and in barostat
run 10000          # run for 10000 steps
Per MPI rank memory allocation (min/avg/max) = 3.642 | 3.644 | 3.648 Mbytes
Step Temp E_pair E_mol TotEng Press Volume 
       0          2.4   -3.5381599            0  0.060940148   -3.0801753         4000 
    1000    2.4079755   -2.8111157            0    0.7999445    5.6503067    3851.3688 
    2000    2.3545761   -2.7785616            0   0.75241959    5.4675968    3899.3779 
    3000    2.3559293   -2.7804394            0   0.75257107    5.6531154    3871.7632 
    4000    2.3235889   -2.7758231            0   0.70868898    5.5672789    3884.2729 
    5000    2.3814591   -2.8633472            0    0.7079483     5.354775    3846.7491 
    6000    2.3754417   -2.8021417            0      0.76013    5.8156971    3830.5759 
    7000    2.3894141   -2.8077613            0   0.77546384    5.6948155    3846.3107 
    8000    2.3646601   -2.7866957            0   0.75940764    5.8858883    3835.5434 
    9000     2.413314   -2.7947637            0    0.8243023    5.6987527    3844.7482 
   10000    2.3632164   -2.9128272            0   0.63111121    5.3660477    3801.5306 
Loop time of 2.5648 on 48 procs for 10000 steps with 4000 atoms

Performance: 673735.598 tau/day, 3898.933 timesteps/s
99.6% CPU use with 48 MPI tasks x no OpenMP threads

MPI task timing breakdown:
Section |  min time  |  avg time  |  max time  |%varavg| %total
---------------------------------------------------------------
Pair    | 1.1143     | 1.202      | 1.3156     |   3.2 | 46.87
Neigh   | 0.21058    | 0.21954    | 0.24531    |   1.1 |  8.56
Comm    | 0.77639    | 0.87716    | 0.94988    |   3.9 | 34.20
Output  | 0.00024714 | 0.00025213 | 0.00031468 |   0.0 |  0.01
Modify  | 0.20519    | 0.2491     | 0.28732    |   4.6 |  9.71
Other   |            | 0.01672    |            |       |  0.65

Nlocal:        83.3333 ave          95 max          74 min
Histogram: 3 5 6 5 9 10 4 4 0 2
Nghost:        1697.21 ave        1736 max        1664 min
Histogram: 1 2 9 8 8 9 5 2 3 1
Neighs:        10041.8 ave       11885 max        8510 min
Histogram: 1 6 4 10 5 11 6 1 2 2

Total # of neighbors = 482006
Ave neighs/atom = 120.50150
Neighbor list builds = 908
Dangerous builds = 208

# Equilibrate just above the melting temperature to avoid step fn in T

fix 1 all npt temp 1.25 1.25 0.1 iso 5.68 5.68 0.5 mtk yes tchain 5 pchain 5
run 2000
Per MPI rank memory allocation (min/avg/max) = 3.643 | 3.645 | 3.649 Mbytes
Step Temp E_pair E_mol TotEng Press Volume 
   10000    2.3632164   -2.9128272            0   0.63111121    5.3660477    3801.5306 
   11000    1.2479717   -4.1968865            0    -2.325397    5.5509521    2947.8656 
   12000     1.243433   -4.1693543            0   -2.3046711    6.0616054    2939.9166 
Loop time of 0.635546 on 48 procs for 2000 steps with 4000 atoms

Performance: 543784.776 tau/day, 3146.903 timesteps/s
99.6% CPU use with 48 MPI tasks x no OpenMP threads

MPI task timing breakdown:
Section |  min time  |  avg time  |  max time  |%varavg| %total
---------------------------------------------------------------
Pair    | 0.29143    | 0.30903    | 0.3367     |   1.8 | 48.62
Neigh   | 0.041442   | 0.042788   | 0.045151   |   0.4 |  6.73
Comm    | 0.2014     | 0.23218    | 0.25209    |   2.3 | 36.53
Output  | 5.3347e-05 | 5.7226e-05 | 0.00020389 |   0.0 |  0.01
Modify  | 0.043925   | 0.046596   | 0.048994   |   0.8 |  7.33
Other   |            | 0.004899   |            |       |  0.77

Nlocal:        83.3333 ave          92 max          73 min
Histogram: 2 0 4 8 7 8 6 8 3 2
Nghost:        2021.73 ave        2044 max        2001 min
Histogram: 2 4 3 7 7 11 6 5 2 1
Neighs:        12994.6 ave       15575 max       10520 min
Histogram: 1 2 3 8 11 9 11 1 1 1

Total # of neighbors = 623740
Ave neighs/atom = 155.93500
Neighbor list builds = 143
Dangerous builds = 12

#############################
# L I N E A R  Q U E N C H  #
#############################

# Define solid atoms. This closely follows ten Wolde  Ruiz-Montero and Frenkel  Faraday Discuss  1996  104  93-110
# Compute components of the per-atom q6 vector
compute q6 all orientorder/atom degrees 1 6 components 6 nnn NULL cutoff 1.3 # compute the Q6 parameter.
                                                                             # Use all neighbours within 1.3 unit cell.

# get number of connections
compute coord_number all coord/atom orientorder q6 0.5

# An atom is solid if it has 8 or more connections (of a possible 14)
variable is_solid atom c_coord_number>=8
group solid dynamic all var is_solid    # Must be dynamic to update
dynamic group solid defined

# do clustering
compute cluster solid cluster/atom 1.3 # Create a cluster where all atoms within are solid and max 1.3 units from another member

# define chunks one chunk per cluster
compute clus_chunks solid chunk/atom c_cluster nchunk every compress yes  # Says which atoms are in which chunk

# count the size of each chunk
compute size_chunks solid property/chunk clus_chunks count


# Find the maximum entry in the vector of chunk sizes
variable max_n equal max(c_size_chunks)


# Thermo style which includes this variable
# thermo_style custom step temp pe vol v_max_n

thermo ${N}  # Print the thermo information every 100 steps
thermo 1000  

# Reset the npt fix at a lower temperature (below freezing)
fix 1  all npt temp  ${temp} ${temp}  0.1  iso  5.68  5.68  0.5  mtk yes tchain  5  pchain  5
fix 1  all npt temp  0.45 ${temp}  0.1  iso  5.68  5.68  0.5  mtk yes tchain  5  pchain  5
fix 1  all npt temp  0.45 0.45  0.1  iso  5.68  5.68  0.5  mtk yes tchain  5  pchain  5

dump dmp2 all dcd ${N} traj.dcd
dump dmp2 all dcd 1000 traj.dcd


compute msd all msd com yes
variable twopoint equal c_msd[4]/6/(step*dt+1.0e-6)
fix 9 all vector 10 c_msd[4]
variable fit equal slope(f_9)/6/(10*dt)
thermo_style custom step temp pe c_msd[4] v_twopoint v_fit v_max_n

fix 1 all npt temp 1.25 ${temp} 0.1 iso 5.68 5.68 0.5 mtk yes tchain 5 pchain 5
fix 1 all npt temp 1.25 0.45 0.1 iso 5.68 5.68 0.5 mtk yes tchain 5 pchain 5
run 2000000 # 5000000  # Run for this many steps
Neighbor list info ...
  update every 1 steps, delay 10 steps, check yes
  max neighbors/atom: 2000, page size: 100000
  master list distance cutoff = 3.8
  ghost atom cutoff = 3.8
  binsize = 1.9, bins = 8 8 8
  4 neighbor lists, perpetual/occasional/extra = 1 3 0
  (1) pair lj/cut, perpetual
      attributes: half, newton on
      pair build: half/bin/atomonly/newton
      stencil: half/bin/3d
      bin: standard
  (2) compute orientorder/atom, occasional
      attributes: full, newton on
      pair build: full/bin/atomonly
      stencil: full/bin/3d
      bin: standard
  (3) compute coord/atom, occasional
      attributes: full, newton on
      pair build: full/bin/atomonly
      stencil: full/bin/3d
      bin: standard
  (4) compute cluster/atom, occasional
      attributes: full, newton on
      pair build: full/bin/atomonly
      stencil: full/bin/3d
      bin: standard
Per MPI rank memory allocation (min/avg/max) = 9.833 | 9.839 | 9.843 Mbytes
Step Temp PotEng c_msd[4] v_twopoint v_fit v_max_n 
   12000     1.243433   -4.1693543 9.9120373e-31 6.8833589e-33 8.3333333e+20            2 
   13000    1.2529258   -4.1419007   0.85912238 0.0055071945  0.073073627            2 
   14000    1.2502057   -4.1547779    1.7192191  0.010233447  0.072278353            2 
   15000    1.2715286   -4.1251758    2.5873026  0.014373903  0.071445642            2 
   16000    1.2554807   -4.1674892    3.4811209  0.018130838  0.072317488            5 
   17000    1.2355472   -4.2179262    4.4810291  0.021965828  0.073633892            1 
   18000    1.2421369   -4.1595524    5.3853349  0.024932105  0.074937446            1 
   19000    1.2574418   -4.1516626    6.2891424  0.027583957  0.075722101            2 
   20000    1.2443999   -4.1738212    7.1377274   0.02974053  0.075699975            5 
   21000    1.2186776   -4.1719115    8.0075626  0.031776041  0.075477166            2 
   22000    1.2599839   -4.1778078    8.7878416  0.033287278  0.074923562            1 
   23000    1.2694524   -4.1987484    9.7242217  0.035232687  0.074416881            1 
   24000    1.2576847   -4.1989511    10.743976  0.037305472  0.074329705            2 
   25000    1.2343429   -4.1750507    11.768151   0.03922717  0.074734154            2 
   26000    1.2577505   -4.1792266    12.741006  0.040836557  0.075050621            1 
   27000    1.2770662   -4.1624616    13.628468  0.042063171  0.075489112            2 
   28000    1.2463343   -4.1507693    14.613417  0.043492311  0.075871404            2 
   29000    1.2359609   -4.1434463    15.699737  0.045114186  0.076207925            2 
   30000    1.2353492   -4.1671648    16.573959  0.046038774  0.076525921            5 
   31000    1.2192203   -4.1186033    17.705205  0.047594635  0.076892433            1 
   32000    1.2598153   -4.1551232    18.544651  0.048293362   0.07722115            2 
   33000    1.2552598   -4.1727391    19.468106  0.049161882  0.077500007            1 
   34000    1.2580571   -4.1535393    20.396564  0.049991577  0.077582094            4 
   35000    1.2563735    -4.148898    21.362976  0.050864227  0.077739629            1 
   36000    1.2453992   -4.1750948    22.154878   0.05128444  0.077834634            1 
   37000    1.2470976   -4.1712689    23.171595  0.052188276   0.07786378            3 
   38000     1.247762   -4.1741924    24.275052  0.053234763  0.077995403            2 
   39000    1.2574564    -4.167759    25.327199  0.054117946  0.078233378            2 
   40000    1.2029725   -4.1517457    26.305409  0.054802935  0.078405338            1 
   41000    1.2311711   -4.1386714    27.119665  0.055121269  0.078484763            1 
   42000    1.2273004      -4.1927    27.966151  0.055488394  0.078516492            2 
   43000    1.2359687   -4.2031258    28.672934  0.055567701  0.078506276            4 
   44000    1.2144587   -4.1565769    29.369623  0.055624286  0.078386878            1 
   45000    1.2161186   -4.1879504    30.321843  0.056151561  0.078243944            2 
   46000    1.2289861   -4.2167713    31.268397  0.056645647  0.078116058            2 
   47000     1.267376   -4.1506131    32.159082  0.057019648  0.077978632            1 
   48000    1.2663284   -4.1577779    32.847237  0.057026453  0.077812975            3 
   49000    1.2513081    -4.190297    33.471016  0.056923495  0.077627711            1 
   50000    1.2241847    -4.207902    34.490886   0.05748481  0.077439111            4 
   51000    1.2422389   -4.1381124    35.462122  0.057944643  0.077240369            1 
   52000    1.2308446   -4.1313663     36.42594  0.058374903  0.077078482            1 
   53000    1.2349519   -4.1793156     37.13574  0.058389527  0.076894275            3 
   54000    1.2482805   -4.1617147     38.24554  0.059020895   0.07676604            3 
   55000    1.2290323     -4.22013    39.066362  0.059191457  0.076686551            2 
   56000    1.2203309   -4.1887092    40.108411  0.059685136  0.076592587            5 
   57000    1.2064961   -4.1678192    40.916257  0.059819088  0.076509153            3 
   58000     1.189462   -4.1890955    41.848431  0.060127055  0.076423772            3 
   59000    1.2044474   -4.2205373     42.65823  0.060251736  0.076327428            2 
   60000      1.23373   -4.1983121    43.602767  0.060559398  0.076255224            1 
   61000    1.2322512   -4.1827603    44.513497  0.060810788  0.076202714            1 
   62000    1.2237661   -4.2302184    45.052588  0.060554554  0.076119299            3 
   63000     1.207584   -4.1413835    46.428556  0.061413434  0.076025448            2 
   64000    1.2412678   -4.1910343    47.112745   0.06134472  0.075964921            2 
   65000    1.2395966   -4.1959838    48.195857  0.061789559  0.075918264            2 
   66000    1.2254792   -4.1795818    49.165257  0.062077345   0.07588425            1 
   67000    1.2419801   -4.1890428      50.0532  0.062255224  0.075849449            2 
   68000    1.2116852   -4.2150958     50.56368  0.061965294  0.075822832            2 
   69000    1.2105078   -4.2047869    51.789864  0.062548144  0.075787414            4 
   70000    1.2385665   -4.2115297    52.644454  0.062671969  0.075758653            2 
   71000    1.1952346   -4.2305974    53.284017  0.062539925   0.07572701            2 
   72000    1.1878184   -4.2142984    54.234684  0.062771625  0.075677992            5 
   73000     1.262052   -4.2018178    54.790126  0.062545805  0.075624161            2 
   74000    1.1853769   -4.1924446    55.882523  0.062930768  0.075540052            2 
   75000    1.1849099   -4.2070477    56.629548  0.062921719  0.075449251            2 
   76000    1.2160649    -4.224211    56.913692  0.062405364   0.07534537            4 
   77000    1.2463818   -4.2018502    57.814538  0.062569846   0.07521227            2 
   78000    1.2508593   -4.1922739    58.557756  0.062561705  0.075077311            3 
   79000     1.221198   -4.1938538     59.21776  0.062465991  0.074941065            4 
   80000    1.2164807   -4.1753854    60.269524  0.062780754  0.074796744            2 
   81000    1.2303007   -4.1790123    61.368158  0.063135964    0.0746728            1 
   82000    1.2442816   -4.1724431    62.370039  0.063384185  0.074563301            1 
   83000    1.2026883   -4.2129724    62.975928  0.063228843  0.074459665            1 
   84000    1.2110502   -4.2134696    63.808348  0.063301933  0.074374485            2 
   85000     1.223408   -4.2100153    64.956726  0.063683064  0.074293373            1 
   86000    1.2265017   -4.2122801    65.595639  0.063561665  0.074223225            2 
   87000    1.2282377   -4.1927478      66.6693  0.063859482  0.074149604            1 
   88000    1.2010783   -4.1971574    67.177272  0.063614841  0.074077258            4 
   89000    1.2092869   -4.2311998    68.171675  0.063831156  0.073996457            2 
   90000    1.2146459   -4.2004922    69.297075  0.064163958   0.07393832            1 
   91000    1.2369204   -4.2064442    69.837301  0.063953572  0.073892761            1 
   92000    1.2199764   -4.2184473    70.712957  0.064051591   0.07384781            4 
   93000     1.205271   -4.2302043    71.653343  0.064205504   0.07380958            2 
   94000    1.2164501   -4.2070532    73.067322  0.064775995  0.073779341            1 
   95000    1.2047103   -4.1757334    73.801637  0.064738278  0.073750567            2 
   96000    1.2051627   -4.1895982    74.140338  0.064357932  0.073698989            3 
   97000    1.2107312   -4.1648154    75.080257  0.064501939   0.07364749            1 
   98000    1.1905119   -4.1900713    75.782914  0.064441253  0.073583095            2 
   99000    1.2234663   -4.2612815    76.333202  0.064253537  0.073525025            1 
  100000    1.1942333   -4.2403332    77.326567  0.064438806  0.073454026            2 
  101000    1.2244536   -4.2138845    78.586959  0.064840725  0.073397521            1 
  102000    1.2314942   -4.2096108    79.510084  0.064959219  0.073353588            3 
  103000    1.2096398   -4.2685989    80.558315   0.06517663  0.073326889            1 
  104000    1.2170332   -4.2416396    80.977372  0.064885715  0.073298117            2 
  105000    1.2142547    -4.218256    82.127013  0.065180169  0.073277821            2 
  106000    1.1837205   -4.2300002    83.405924  0.065570694  0.073263966            2 
  107000    1.2273365   -4.2092753    84.115613  0.065510602  0.073255231            4 
  108000     1.216023   -4.2549758    84.645625  0.065312982  0.073235551            2 
  109000    1.2125454   -4.2187822    85.415498  0.065302368  0.073208428            2 
  110000    1.1984567   -4.2173943    86.329622  0.065401229  0.073179158            1 
  111000    1.2119299   -4.2106218    86.754618  0.065131094  0.073145439            1 
  112000    1.2006337   -4.2251666    87.943343  0.065434034  0.073107099            5 
  113000    1.2189169   -4.2382306    88.679219  0.065397654  0.073069159            7 
  114000    1.2223646   -4.2279327    89.609048   0.06550369   0.07303682            1 
  115000    1.1931789   -4.2026518    90.577051  0.065635544  0.073016807            2 
  116000    1.2323424   -4.2148229    91.773769  0.065929431  0.073001465            4 
  117000    1.1856859   -4.2283209    92.823914  0.066113899  0.072990751            1 
  118000     1.194699   -4.2351024    93.489734  0.066023823  0.072975563            2 
  119000    1.1947938   -4.2436786    94.683934  0.066305276  0.072966582            1 
  120000    1.2361241   -4.2221986     96.05221  0.066702923  0.072970691            4 
  121000    1.2192088   -4.1883233    97.057388  0.066843931  0.072988868            1 
  122000    1.2210358   -4.2771435    97.797432  0.066801524  0.073023667            2 
  123000    1.2101289   -4.2438285    98.487767  0.066726129  0.073044936            1 
  124000    1.2077955   -4.2393551    99.771718  0.067050886     0.073066            2 
  125000    1.2052227   -4.2006766    100.68062  0.067120416  0.073082969            2 
  126000    1.2191702   -4.1932377    101.36756  0.067042039  0.073110301            5 
  127000    1.1973312   -4.2081039    102.34256  0.067153914  0.073132208            2 
  128000    1.2013817   -4.2379078    102.79161   0.06692162  0.073140035            1 
  129000    1.1893472   -4.2569025     103.0132  0.066545994  0.073133255            5 
  130000    1.1992688   -4.2518108    104.19829  0.066793774  0.073136314            2 
  131000    1.1847656     -4.21725    105.33626  0.067007799  0.073135592            2 
  132000    1.1943447   -4.2554463     106.2699  0.067089583  0.073133932            1 
  133000    1.2114079   -4.2387128    106.46577  0.066707878   0.07312569            3 
  134000    1.2193554   -4.2104014    107.08186  0.066593194  0.073108411            1 
  135000    1.1854946   -4.2409392    108.26755  0.066831818  0.073082972            3 
  136000    1.2114437   -4.2353269     109.4666  0.067075123  0.073063312            2 
  137000    1.2204756   -4.2612619     109.8227  0.066802127  0.073051943            4 
  138000    1.2204036    -4.224995    110.83168  0.066927341  0.073036124            2 
  139000    1.2035362   -4.2189911    111.88435  0.067076948  0.073019634            4 
  140000    1.2064799   -4.2442046    111.93828  0.066629929  0.073001461            3 
  141000    1.1955653   -4.2225071    113.04402  0.066810889  0.072973575            2 
  142000    1.2113835   -4.2382875     113.9921   0.06689677  0.072947658            1 
  143000    1.1492753   -4.1854129    115.44725   0.06727695  0.072923825            2 
  144000    1.2045486   -4.2195692    115.97179  0.067113305  0.072900838            2 
  145000    1.1800569   -4.2343171    116.30877  0.066844119  0.072879647            2 
  146000    1.2117226    -4.203457    117.40269  0.067010665  0.072854073            1 
  147000    1.1958587   -4.2112796    117.97718  0.066880488  0.072827185            3 
  148000    1.2007494    -4.221819    118.72272  0.066848378  0.072800093            1 
  149000    1.1875749   -4.2548534    119.94719  0.067084558  0.072770282            1 
  150000    1.2062499   -4.2484221    120.39756  0.066887534  0.072744057            3 
  151000    1.1873048    -4.229108    121.14184  0.066855321  0.072720144            2 
  152000     1.192373   -4.2289064    121.69511  0.066718809  0.072698269            2 
  153000    1.1703243   -4.2683273    122.58631  0.066768144  0.072667609            2 
  154000    1.1958476   -4.2598109    123.64853  0.066909379  0.072642866            3 
  155000    1.1904099    -4.287571    124.65296  0.067017718  0.072616273            1 
  156000    1.2310045   -4.2240864    126.46942   0.06755845  0.072597191            3 
  157000     1.174141   -4.2523214    126.44292  0.067114074  0.072582988            2 
  158000    1.1718664   -4.2430866    127.19582  0.067086404  0.072564437            1 
  159000    1.2150899   -4.2167181    128.12517  0.067151555  0.072537834            2 
  160000    1.1834952   -4.2876823      128.202  0.066771874  0.072512268            2 
  161000    1.2042675   -4.2129862    130.45244  0.067521969  0.072489615            4 
  162000    1.2023311   -4.2559925    130.95403  0.067363184  0.072469482            2 
  163000    1.1563117    -4.231531    131.64589  0.067303627   0.07245137            1 
  164000    1.1879482   -4.2288944     132.5443  0.067349744  0.072434008            3 
  165000    1.2060103   -4.2750625    132.80607  0.067073772  0.072413238            2 
  166000    1.1891156   -4.2414425    134.11865  0.067328637  0.072389296            2 
  167000    1.1958042    -4.279634     134.7021  0.067216616  0.072362667            3 
  168000    1.1909482   -4.2341202    135.31191     0.067119  0.072335599            3 
  169000    1.1779142   -4.2769236    136.35807  0.067237709  0.072311084            3 
  170000     1.179827   -4.2306543    138.23119  0.067760387   0.07229766            2 
  171000    1.1859465   -4.2427107    138.70334  0.067594222  0.072287998            1 
  172000    1.1849745   -4.2452823    139.38648  0.067532209  0.072272772            1 
  173000    1.1850859   -4.2362436    140.28236  0.067573389  0.072260216            2 
  174000    1.2083079   -4.2458828     140.6664  0.067368966  0.072244893            1 
  175000    1.1799551   -4.2921456    141.36123  0.067314872  0.072224262            1 
  176000    1.1611848    -4.230465    143.37549  0.067886122  0.072205202            2 
  177000    1.1769981   -4.2801958    143.75952  0.067683391  0.072196932            4 
  178000    1.1939631   -4.2440612    144.68216  0.067735094  0.072191604            1 
  179000      1.16892   -4.2727081    145.55001  0.067760714  0.072181667            2 
  180000     1.162778    -4.263457    146.20232  0.067686261   0.07217199            2 
  181000    1.1748914   -4.2636623      146.999  0.067679098  0.072161755            2 
  182000    1.1699795   -4.2658646    147.75886  0.067655158  0.072150646            1 
  183000    1.1562076   -4.2383473    149.12786   0.06790886  0.072142103            3 
  184000    1.1788781   -4.2420142    149.35563  0.067642949  0.072125032            1 
  185000    1.2033753   -4.2371255    150.74751  0.067904283  0.072113946            2 
  186000    1.1969481   -4.2456696    151.60759  0.067924546  0.072104297            2 
  187000    1.1811419   -4.3094001    151.42053  0.067477956  0.072088452            2 
  188000    1.1789081   -4.2838957    152.21448  0.067470955   0.07206733            3 
  189000    1.1611122   -4.2847373    152.77805  0.067362454  0.072040683            1 
  190000    1.1919525   -4.2413141    153.90133  0.067500584  0.072013111            2 
  191000    1.2182265   -4.2520958    154.53822  0.067425053  0.071985825            1 
  192000    1.1681599   -4.2851456    155.69896  0.067577672  0.071960396            2 
  193000     1.204333    -4.285853    156.63929  0.067633544  0.071938546            2 
  194000    1.1789504   -4.2909691    157.41409  0.067617735  0.071918619            3 
  195000    1.1940709   -4.2667383    158.47952   0.06772629  0.071896588            8 
  196000    1.1936496   -4.2515294    159.19836  0.067686377  0.071875082            3 
  197000    1.1650106   -4.2540892    159.98822  0.067676911  0.071851937            2 
  198000    1.1869688    -4.277802    160.29381  0.067463725  0.071832189            2 
  199000    1.1977487   -4.2563822    161.95172  0.067818979  0.071809691            4 
  200000    1.1735179   -4.2615895    162.57241  0.067738503  0.071792645            3 
  201000    1.1834848   -4.2728376     162.9725  0.067567371  0.071774293            4 
  202000    1.1788327   -4.2578822    164.73056   0.06795815  0.071758045            2 
  203000    1.1688836   -4.2814919    164.65017  0.067590381  0.071739324            1 
  204000    1.1492835   -4.2928774    165.66559  0.067673852  0.071721835            2 
  205000    1.1486674   -4.2658648     167.4541  0.068070771  0.071704207            1 
  206000    1.1658412    -4.298712     167.6242  0.067809141  0.071688267            3 
  207000    1.1603473   -4.2752335    168.18593  0.067707701  0.071671254            2 
  208000    1.2134367   -4.2953182    169.00935   0.06771208   0.07165655            4 
  209000    1.1900662   -4.3071401    169.21245  0.067469078  0.071639097            6 
  210000    1.1780237   -4.2741388    171.01574  0.067863388   0.07161962            1 
  211000    1.1614816   -4.2761878    171.60279  0.067773613  0.071601911            2 
  212000    1.1748345   -4.2976956    172.36835  0.067754853   0.07158539            5 
  213000    1.1866362   -4.2957097    172.59166  0.067524123  0.071571057            6 
  214000    1.1786021   -4.2740623    174.13866  0.067811003  0.071554689            2 
  215000    1.1809519   -4.2845172    174.86314  0.067776412  0.071537122            1 
  216000    1.1880192   -4.3459694    174.68044  0.067392146  0.071513872            2 
  217000    1.1446209   -4.3149476    175.52061  0.067404228  0.071485479            1 
  218000     1.170427   -4.2690785    176.45169  0.067450952  0.071458296            2 
  219000     1.188493   -4.2772282    176.67195  0.067226768  0.071428286            2 
  220000    1.1608733   -4.2656255    177.56195  0.067258314  0.071399312            2 
  221000    1.1741006   -4.3027096    178.93063  0.067470072  0.071368267            3 
  222000    1.1779256   -4.2854467     179.3876  0.067337689  0.071339439            2 
  223000    1.1552019   -4.2802759      180.234  0.067352019  0.071314268            4 
  224000     1.143267   -4.2841465    180.47359  0.067140471  0.071284799            4 
  225000    1.1398236   -4.3359815    180.98153  0.067030197  0.071253599            1 
  226000    1.1525704   -4.3174083    182.81765  0.067410639  0.071228356            2 
  227000    1.1659753   -4.3166317    183.48739  0.067359541  0.071200601            2 
  228000    1.1545956   -4.3081072    184.13554     0.067301    0.0711753            3 
  229000    1.1798556   -4.2858613    184.81243   0.06725343  0.071148982            2 
  230000    1.1515953   -4.2851389    185.67884  0.067274941  0.071124161            2 
  231000    1.1738536   -4.2884765    187.42328  0.067613017  0.071100689            4 
  232000    1.1613419   -4.2870247    187.92375  0.067501346  0.071079456            3 
  233000    1.1668306   -4.2940063    187.97624  0.067230414  0.071056765            2 
  234000    1.1805241   -4.2796541    189.81455  0.067597773  0.071034029            3 
  235000    1.1432341    -4.303505    190.74269  0.067639251  0.071013935            3 
  236000    1.1211832   -4.2999344    190.57869  0.067294735  0.070990656            2 
  237000    1.1465835   -4.2590376    191.66549   0.06739293  0.070968752            2 
  238000    1.1525076   -4.2733936    192.83964  0.067520881    0.0709473            5 
  239000    1.1519562   -4.2950863    193.41413  0.067438679  0.070924071            2 
  240000    1.1483655   -4.2791984    194.97433  0.067699422  0.070901694            3 
  241000    1.1575743   -4.3081043    195.30089  0.067531428  0.070882852            4 
  242000    1.1528741    -4.295417    196.22532  0.067570702   0.07086753            4 
  243000    1.1587462   -4.3360301    196.92555  0.067532767  0.070851455            3 
  244000    1.1568777   -4.3105351     198.0486  0.067639548   0.07083687            1 
  245000    1.1670133   -4.3029837    198.04776  0.067363183  0.070821324            3 
  246000    1.1553233   -4.3133392    199.65792  0.067634795  0.070805452            3 
  247000    1.1645011   -4.2973194    200.38221  0.067605334  0.070790075            2 
  248000    1.1753717   -4.2923693    202.09469  0.067908161  0.070774994            2 
  249000    1.1596906   -4.2829164    203.03743  0.067950948  0.070762558            2 
  250000     1.152898   -4.2915027    203.37453  0.067791509  0.070749515            3 
  251000    1.1478998   -4.3238994    203.19145   0.06746064  0.070733636            2 
  252000    1.1557408   -4.2983363    205.20857  0.067859976  0.070719403            2 
  253000     1.162216   -4.2844627     204.9863  0.067518543  0.070699808            2 
  254000    1.1330875   -4.3115423    204.37521  0.067052233  0.070677864            1 
  255000    1.1478502   -4.3071387    205.95695  0.067306194  0.070652571            2 
  256000    1.1518592   -4.3326214    206.19115  0.067119516  0.070626169            2 
  257000    1.1693716   -4.3017431    207.15652  0.067171375  0.070604156            2 
  258000     1.165715   -4.3478208    208.16729  0.067237497  0.070578783            8 
  259000    1.1427537   -4.3196776    208.97288   0.06723709  0.070552673            2 
  260000    1.1458929   -4.3635403    209.02365   0.06699476  0.070529478            2 
  261000    1.1403819   -4.3514628    209.94923  0.067033598  0.070502215            2 
  262000    1.1427939   -4.3225988     211.8098   0.06736953  0.070476434            2 
  263000    1.1251456   -4.3457996    212.04064  0.067186515   0.07045482            2 
  264000    1.1207989   -4.3342247    213.35209  0.067345987  0.070434718            4 
  265000    1.1299771   -4.3146748    214.45105  0.067437437   0.07041729            2 
  266000     1.152495   -4.2890557     216.0213  0.067675847   0.07040074            4 
  267000    1.1541248   -4.3044852    216.06267  0.067435291  0.070382137            5 
  268000    1.1483453   -4.2986028    216.42933  0.067297678  0.070363235            3 
  269000    1.1321634   -4.3355178     217.4357  0.067359262  0.070341452            5 
  270000    1.1424931   -4.3078177    218.75287  0.067516318  0.070317773            2 
  271000    1.1614916   -4.3454262    217.46133  0.066870028  0.070296366            1 
  272000    1.1279372   -4.3271933    218.79616  0.067033138  0.070274741            2 
  273000    1.1607708   -4.3402853     219.0432  0.066863005  0.070251646            2 
  274000     1.149841   -4.2839966    220.09256  0.066938126  0.070226127            3 
  275000    1.1415951   -4.3614342    220.21271  0.066731124  0.070197667            2 
  276000     1.158937   -4.3560886    221.18789  0.066783782  0.070169354            5 
  277000    1.1539992   -4.3374697    222.54228  0.066950145  0.070140898            2 
  278000      1.11715     -4.38242    222.24519  0.066620259   0.07011343            2 
  279000    1.1366677   -4.3310941    222.62857   0.06649599  0.070085648            2 
  280000    1.1560696   -4.3499673    223.65091   0.06656277  0.070055957            4 
  281000    1.1405739   -4.3218547    224.63269   0.06661705   0.07002531            3 
  282000    1.1071258   -4.3057376    225.15561  0.066535346  0.069996643            2 
  283000    1.1234985    -4.293253    226.20517  0.066609295  0.069962762            2 
  284000    1.1707707    -4.348924    226.62867  0.066499023  0.069930409            2 
  285000    1.1263037   -4.3384477    227.33399  0.066471928  0.069898123            3 
  286000    1.1265643   -4.3439668     228.5475  0.066593094  0.069867359            7 
  287000    1.1568463   -4.3076864    228.56475   0.06636607  0.069837081            3 
  288000    1.1445531   -4.3724398    229.30483  0.066349779  0.069805946            2 
  289000    1.1600979   -4.2936825    230.58048  0.066488029  0.069772782            1 
  290000    1.1154498   -4.3367894    231.37595  0.066487343   0.06974069            4 
  291000    1.1503039   -4.3325982    231.37884  0.066259691  0.069706431            2 
  292000    1.1227325   -4.3238099     232.7897  0.066435416  0.069670952            1 
  293000    1.1263024    -4.321151    232.35352   0.06608462  0.069634929            3 
  294000    1.1291057    -4.351688     232.8584  0.066002946  0.069598585            2 
  295000     1.119228   -4.3278398    234.03684    0.0661121    0.0695594            3 
  296000    1.1290199   -4.3421728    234.74112  0.066087027  0.069522417            2 
  297000    1.1340876   -4.3377095     235.6303  0.066114001  0.069486941            1 
  298000    1.1503408   -4.3188465    236.24618  0.066064369   0.06945093            3 
  299000    1.1356133   -4.3080797    236.16261  0.065820126   0.06941037            2 
  300000    1.1455417   -4.3450895     236.1718  0.065603277  0.069368292            2 
  301000    1.1258077   -4.3512536    237.63545  0.065790546  0.069326051            2 
  302000    1.1327299   -4.3576495    238.04139  0.065684709  0.069280824            1 
  303000    1.1177813   -4.3897891    238.05196  0.065470835   0.06923401            3 
  304000    1.1287657   -4.3509347    239.88699  0.065758496   0.06918942            2 
  305000     1.128945   -4.3291355    240.47801  0.065704375  0.069145198            3 
  306000    1.1258938   -4.3430556    241.07765  0.065652955  0.069100913            2 
  307000    1.1459546   -4.3430337    240.88665  0.065387256    0.0690572            2 
  308000    1.1175254   -4.3299503    241.87364  0.065442003  0.069016853            2 
  309000    1.1362915   -4.3728153    243.33081  0.065623196  0.068974497            3 
  310000    1.1165458   -4.3708558    243.37723  0.065423987  0.068930431            3 
  311000    1.1284939   -4.3671589    243.07672  0.065133096   0.06888504            5 
  312000    1.1366838    -4.374522    244.23589  0.065233944  0.068839047            2 
  313000    1.1218605   -4.3516681    244.80131  0.065176068   0.06879316            2 
  314000    1.1170004   -4.3570198    245.54055   0.06516469  0.068747149            4 
  315000    1.1239881   -4.4074004     244.8484  0.064774708  0.068699065            2 
  316000    1.1402834   -4.3591442    247.35514  0.065230785  0.068653718            6 
  317000    1.1313201   -4.3391585    248.71351    0.0653821  0.068609705            3 
  318000    1.1255789   -4.3437701    248.80256  0.065199833  0.068566039            2 
  319000     1.132951   -4.3269597    250.60207  0.065465537  0.068522969            5 
  320000    1.1209506   -4.3725518    250.77601  0.065306252   0.06847857            2 
  321000    1.1534717    -4.354106    250.83394  0.065117844  0.068435498            6 
  322000    1.1336723   -4.3648681    251.21604  0.065014503  0.068390379            2 
  323000    1.1589965    -4.345667    251.18211  0.064804467  0.068345047            2 
  324000    1.1159393   -4.3523579     252.6796  0.064989609  0.068301942            1 
  325000    1.1357991   -4.3460447    253.75371  0.065065053  0.068256278            3 
  326000    1.1298933   -4.3483077    253.25459   0.06473788  0.068211846            2 
  327000    1.1302646   -4.3509763    252.99387  0.064473464  0.068163942            2 
  328000    1.1223032   -4.3846581    254.46579  0.064650862  0.068116305            3 
  329000    1.1289114   -4.3570591     255.3649  0.064682091  0.068069258            2 
  330000    1.1056427   -4.3615683    256.38282  0.064743135  0.068020927            3 
  331000    1.1482849   -4.3055019    257.16922  0.064745525  0.067974421            2 
  332000    1.1290144   -4.3576992    257.72779   0.06469071  0.067927927            2 
  333000    1.1281389   -4.3543325    258.16898  0.064606852  0.067879914            3 
  334000    1.1249786    -4.384634    258.30389  0.064447078  0.067833794            4 
  335000    1.1186472   -4.3978518    259.06004  0.064442796  0.067788239            2 
  336000    1.1259708   -4.3379094    259.53396  0.064368541  0.067740858            3 
  337000    1.1202164   -4.3316135    261.37684  0.064633245   0.06769683            3 
  338000    1.1135595   -4.3842104     260.5578  0.064240088   0.06765345            1 
  339000    1.1060984   -4.3989583    262.30074  0.064479041  0.067608528            3 
  340000    1.1168112   -4.3500498     264.2597  0.064769535  0.067564403            3 
  341000     1.103183    -4.331021    263.24496  0.064331612  0.067522599            3 
  342000    1.1203828   -4.3766381     264.4852  0.064445712  0.067482307            2 
  343000    1.1406022   -4.3808091    265.39457  0.064478758  0.067440875            3 
  344000    1.1168655   -4.3854247    265.50483   0.06431803     0.067399            2 
  345000    1.1153865   -4.3355281    266.62389  0.064401905  0.067356289            3 
  346000    1.1134854   -4.3912442    267.04637  0.064317527  0.067313315            5 
  347000    1.1106676    -4.350329    267.65299  0.064277854   0.06727273            2 
  348000    1.1189545   -4.3660284    267.22888  0.063991589  0.067231063            3 
  349000    1.1306206   -4.3718754    267.89025  0.063966153  0.067186675            4 
  350000    1.1119421   -4.3517045    270.23864  0.064342534  0.067142071            2 
  351000    1.1201886   -4.3841178    270.00498  0.064103746  0.067097063            3 
  352000    1.1317917   -4.3776336    270.92894  0.064140374  0.067052035            2 
  353000    1.1084654   -4.3777951    271.21869  0.064027075   0.06700511            1 
  354000    1.1191039   -4.3759234    271.04781  0.063805982  0.066960634            3 
  355000     1.123621   -4.3552863    273.42697  0.064184734  0.066915994            2 
  356000    1.0923734   -4.3878221    272.90968  0.063883353  0.066872741            2 
  357000     1.088981     -4.41423    272.36013  0.063576128  0.066826074            2 
  358000     1.104019   -4.3895079    274.02044  0.063785019  0.066780022            4 
  359000    1.1317645   -4.3543112     274.0286  0.063609239  0.066734832           10 
  360000    1.1120224   -4.4067136    274.71794  0.063592115  0.066690329            2 
  361000    1.1044384   -4.3981715    277.29919  0.064011817   0.06664868            1 
  362000    1.1483541   -4.3566898    276.64542   0.06368449  0.066605264            4 
  363000    1.1035067   -4.3559129    276.67156  0.063515051  0.066560878            2 
  364000    1.1273718   -4.3837588    276.74075    0.0633564   0.06651625            2 
  365000    1.1022108   -4.3889834    277.79336  0.063423142   0.06647242            1 
  366000    1.1037497   -4.3959192    278.47776  0.063405683  0.066424389            6 
  367000    1.1154957   -4.3921189    278.75019  0.063294776  0.066378192            3 
  368000    1.1251879   -4.4240126    279.11957  0.063206425   0.06633169            4 
  369000    1.1091768   -4.3868643    279.65562  0.063156191  0.066282516            6 
  370000    1.0948863   -4.3760724    279.70233   0.06299602  0.066233148            3 
  371000    1.1091403   -4.3903993    280.50759  0.063007096  0.066183356            5 
  372000    1.1205213   -4.3763905    282.08327  0.063190697  0.066134181            3 
  373000     1.106426   -4.4020528    281.50766  0.062892685  0.066084942            3 
  374000    1.1110082    -4.371184    282.70932  0.062992272  0.066037051            3 
  375000    1.1111175   -4.3701564    284.48491   0.06321887  0.065990081            4 
  376000    1.0899416   -4.3450399    285.06698  0.063179738  0.065942114            2 
  377000    1.1055648   -4.4047175    284.13504  0.062806154  0.065893808            3 
  378000    1.1250518    -4.438287    283.99347  0.062608789  0.065844869            3 
  379000      1.11049   -4.3686599    285.84556  0.062850827  0.065795778            3 
  380000    1.0900666   -4.4007474    285.87904  0.062692771  0.065746186            3 
  381000    1.0825893   -4.4046917    286.23827  0.062606796  0.065695904            3 
  382000    1.1122272   -4.4064485      286.279   0.06245179  0.065646306            1 
  383000    1.1236484   -4.3943523    288.10719  0.062686509  0.065594806            4 
  384000    1.1221317   -4.4148621    287.51193  0.062394082  0.065544875            3 
  385000    1.1061433   -4.4039461    286.64371  0.062044094  0.065493996            3 
  386000    1.1106374   -4.3889155    287.93769  0.062162714  0.065442761            3 
  387000    1.1108034   -4.4079894    289.24659  0.062283933  0.065391812            1 
  388000    1.0834473   -4.3792963    291.03284  0.062507053  0.065343153            4 
  389000    1.0876587   -4.3805509    290.54379    0.0622416  0.065293977            4 
  390000    1.0884421   -4.3886638     291.5076  0.062287948  0.065245246            3 
  391000    1.1032416   -4.4254177    292.04587  0.062243366  0.065196446            3 
  392000    1.0809762   -4.4145603    292.21265  0.062120036   0.06514677            4 
  393000    1.1116997   -4.3760416    294.00689  0.062342427  0.065098624            4 
  394000    1.0971568   -4.3892155    293.39437  0.062054647  0.065051404            2 
  395000    1.0739694   -4.4149857    293.60257  0.061941471  0.065003029            2 
  396000    1.0665982    -4.427227    295.93201  0.062275254  0.064954607            2 
  397000    1.0866882   -4.4105384    295.01733  0.061926392  0.064906947            3 
  398000    1.1104451   -4.4297275    295.62973  0.061899023  0.064859167            3 
  399000    1.0762733   -4.4032269    297.11966  0.062055067  0.064813622            1 
  400000    1.0898448   -4.4173595    297.60209  0.062000436  0.064766328            2 
  401000    1.0901242   -4.4345759    298.41613  0.062014989  0.064719529            2 
  402000    1.0905485   -4.4133029    298.76199  0.061932419  0.064674268            7 
  403000    1.1085005   -4.4072187    300.06029  0.062047206  0.064629826            4 
  404000    1.1008021   -4.4347559     300.8409  0.062054641  0.064586743            2 
  405000    1.1060606   -4.3934032    301.70713  0.062079655  0.064541873           10 
  406000    1.1291446     -4.39998    301.96987   0.06198068  0.064498783            2 
  407000    1.1258425   -4.4088165    302.32837  0.061901796  0.064454314            4 
  408000    1.1007035   -4.4252334    302.71104  0.061828235  0.064409155            2 
  409000    1.0925628   -4.4502518    301.81975  0.061495467  0.064363214            3 
  410000    1.0823667   -4.3749354    304.43636  0.061877308  0.064316789            7 
  411000    1.0744835   -4.4295555    303.62125  0.061561486  0.064270554            2 
  412000    1.0582801   -4.4070832     304.1195  0.061512844  0.064223572            4 
  413000     1.100894   -4.4127785    305.11876  0.061565528  0.064176883            3 
  414000    1.0840716   -4.4240123    305.15688  0.061424493  0.064131352            2 
  415000    1.1103205   -4.4142367     305.4761  0.061340582  0.064086402            5 
  416000    1.0947482   -4.4173046    308.00329  0.061699376  0.064041157            4 
  417000    1.0536968   -4.3962583     307.6871  0.061488229  0.063996669            1 
  418000    1.0967677   -4.4009994    309.01268  0.061605398  0.063952017            2 
  419000     1.091322   -4.4273636    309.82445   0.06161982  0.063908677            1 
  420000    1.0752316   -4.3918933    310.81689  0.061670017  0.063864805            2 
  421000    1.1006241   -4.4054577    311.65917  0.061690256  0.063820898            3 
  422000    1.0893116   -4.4361782    310.86301  0.061386851  0.063776502            3 
  423000    1.0827526   -4.4238694    312.05695   0.06147694  0.063734576            3 
  424000    1.0812106   -4.4205351    311.33288  0.061189639  0.063689772            2 
  425000    1.0905575   -4.4084285    312.65411  0.061304728  0.063646327            2 
  426000    1.0895886   -4.3942328    313.84724  0.061394217  0.063601196            2 
  427000    1.0822326   -4.4374545    313.00656   0.06108637  0.063555633            1 
  428000    1.0862138   -4.4394937    312.98467  0.060939382   0.06351007            4 
  429000     1.070857   -4.4302554    314.38722  0.061069778  0.063464705            3 
  430000    1.0930507   -4.4047538    315.45347  0.061134393  0.063419608            2 
  431000    1.0602917   -4.4509987    316.08317  0.061114302  0.063376446            3 
  432000    1.0789228   -4.4424642     315.7793  0.060914217  0.063332962            2 
  433000    1.0673857   -4.4330982    316.63088  0.060937429  0.063288338            3 
  434000    1.1057454   -4.4403108    318.47403  0.061150927  0.063244126            2 
  435000    1.0844066   -4.4427393    317.04537   0.06073666  0.063200406            6 
  436000    1.0812374   -4.4379041    318.49076  0.060873617  0.063155341            2 
  437000    1.1127747   -4.4553748    319.75985  0.060976326  0.063112321            1 
  438000    1.0654472   -4.4490983    316.64881  0.060245207  0.063066509            3 
  439000    1.0923479   -4.4242193    319.11947  0.060576968  0.063019975            2 
  440000    1.0878242   -4.4300431    319.20527  0.060455544  0.062975491            4 
  441000    1.1025709   -4.4205761    321.69927  0.060789734  0.062931704            6 
  442000    1.0560879    -4.430198    322.08665  0.060725236  0.062887209            6 
  443000    1.0890458   -4.4476145    323.12632  0.060783732  0.062843618            1 
  444000    1.0552843   -4.4511556     322.5712  0.060542643  0.062798552            2 
  445000    1.0861362   -4.3977876    323.96569  0.060667733  0.062752783            2 
  446000    1.0679991   -4.4525977    323.76342  0.060493913  0.062709028            2 
  447000     1.077475   -4.4654486    323.22135  0.060257522  0.062664271            2 
  448000    1.0891081    -4.437736    325.27655  0.060505311  0.062620243            2 
  449000    1.0671863   -4.4469818    325.74461  0.060457425  0.062576278            3 
  450000    1.0611255   -4.4090164    327.12667  0.060579013  0.062533755            3 
  451000    1.0552558   -4.4488266    326.68194  0.060362517  0.062490848            5 
  452000     1.077362   -4.4484251    327.64608  0.060406725  0.062447793            3 
  453000    1.0716164   -4.4264582     329.0148  0.060525165   0.06240825            4 
  454000    1.0710368   -4.4628654    329.73293  0.060523665   0.06236893            2 
  455000    1.0803041   -4.4347962    330.13594  0.060464458  0.062328476            2 
  456000     1.073665   -4.4633702    330.72973  0.060440374  0.062290796            1 
  457000    1.0523456    -4.425887    331.16354  0.060387225  0.062251737            3 
  458000    1.0518278   -4.4764419     331.3812  0.060294979   0.06221279            3 
  459000    1.0570781   -4.4365193     332.8943  0.060438327  0.062175226            2 
  460000    1.0501433   -4.4500886    333.54952  0.060425637  0.062137008            3 
  461000    1.0730541   -4.4305493    334.52629   0.06047113  0.062098738            2 
  462000     1.071543   -4.4452629    333.69165  0.060189692  0.062060947            2 
  463000    1.0692576   -4.4496378    332.97408  0.059930539  0.062021838            2 
  464000     1.065204   -4.4529011    335.50913  0.060256669  0.061983825            3 
  465000    1.0396615    -4.464969    336.61289  0.060324891  0.061946484            5 
  466000    1.0741551   -4.4738645    336.47056  0.060169986  0.061908209            4 
  467000    1.0803628   -4.4882471    337.09409  0.060152407  0.061870532            3 
  468000    1.0832855   -4.4560877    338.83545  0.060333948  0.061832854            4 
  469000    1.0695361   -4.4651774    338.20814  0.060093842  0.061795686            5 
  470000    1.0540896   -4.4547226    340.01449  0.060286258  0.061759202            2 
  471000    1.0873581   -4.4603358    339.94659  0.060146247  0.061723702            5 
  472000    1.0835089   -4.4277384    342.37616  0.060447768  0.061688995            3 
  473000     1.085274   -4.4854891    342.04311  0.060261295  0.061655475            1 
  474000    1.0650128    -4.457029    343.13206  0.060325608  0.061620611            2 
  475000    1.0471239   -4.4702143    343.26681  0.060222247  0.061585915            4 
  476000    1.0741499   -4.4665627    343.96747  0.060218395  0.061552263            3 
  477000    1.0561805   -4.4875951    343.81789  0.060066019  0.061518242            3 
  478000    1.0620111   -4.4525514     345.7078  0.060269839  0.061484317            3 
  479000    1.0455734   -4.4964138    344.42557  0.059920941  0.061450354            2 
  480000    1.0315562   -4.4659116    345.78629  0.060032343  0.061417359            2 
  481000    1.0313306   -4.4839304    347.44349  0.060194645  0.061383941            2 
  482000    1.0700973   -4.4420044    348.93898  0.060328316  0.061351622            3 
  483000    1.0624884   -4.4556257    349.24896  0.060256894  0.061318592            3 
  484000    1.0498958   -4.4772488    349.97536  0.060257465   0.06128485            3 
  485000     1.081901   -4.4496718    349.44169  0.060041527  0.061251358            2 
  486000    1.0680335   -4.4465968    348.47434  0.059752116  0.061217526            4 
  487000    1.0730803   -4.4299958    349.87974  0.059869907  0.061184799            3 
  488000    1.0467469    -4.478051    351.38242  0.060003829  0.061151996            4 
  489000    1.0410994   -4.4825814    351.06595   0.05982719  0.061118075            1 
  490000    1.0689828   -4.4840253    353.08814  0.060049003  0.061086718            2 
  491000    1.0617448   -4.4919666    353.14453  0.059936275  0.061056138            3 
  492000    1.0518239   -4.4552051    355.46581  0.060207624  0.061025908            3 
  493000    1.0725995   -4.4966688    355.23485  0.060046458  0.060995226            3 
  494000    1.0499514   -4.4745344    355.55527  0.059978959  0.060964826            4 
  495000    1.0737538   -4.4778669    355.60058  0.059865417  0.060935417            4 
  496000      1.05259   -4.4804231    356.33576  0.059868239  0.060904172            4 
  497000    1.0461886   -4.4649024    358.60378  0.060128064  0.060874261            7 
  498000    1.0579075   -4.4988217    358.46731   0.05998449  0.060845499            5 
  499000    1.0426876   -4.4948637    358.20137  0.059819867  0.060815134            4 
  500000    1.0743214   -4.5001259    359.21848  0.059869747  0.060785481            5 
  501000    1.0471985   -4.4744982    359.96859  0.059875014  0.060756185            3 
  502000    1.0786751   -4.4969706    360.09071  0.059776014  0.060727251            2 
  503000    1.0783074   -4.4911859     361.1024  0.059824784  0.060699213            2 
  504000    1.0592769   -4.4778757    362.32368  0.059908017  0.060669651            3 
  505000    1.0565161    -4.482102    361.22711  0.059608434  0.060640216            6 
  506000    1.0617116   -4.4996713    362.86937  0.059761096  0.060612484            1 
  507000    1.0429531   -4.4693118    364.37094  0.059890029  0.060584337            4 
  508000    1.0563011   -4.4612442    364.07501   0.05972359  0.060555902            4 
  509000    1.0366932   -4.4915508    364.07912  0.059606929  0.060526602            3 
  510000    1.0456856   -4.4859358    363.81573  0.059447014  0.060496158            4 
  511000    1.0442496   -4.4592804     365.1481  0.059547962  0.060466855            3 
  512000     1.029124   -4.4730312    364.69784  0.059358372  0.060437737            1 
  513000    1.0577971   -4.4857962     367.0838  0.059630247  0.060408726            2 
  514000    1.0279502    -4.479642    366.40851  0.059404751  0.060379969            4 
  515000    1.0505585     -4.49786    365.73263  0.059180037  0.060350014            2 
  516000    1.0177345   -4.4637338    367.05863  0.059279494  0.060320071            3 
  517000       1.0324   -4.4682738    370.40216  0.059703765  0.060290353            5 
  518000    1.0314853   -4.5107095    368.79309  0.059329648  0.060261308            3 
  519000    1.0572323   -4.4904933    370.54953  0.059497356  0.060231598            3 
  520000    1.0461203   -4.5107499    369.73515  0.059252428  0.060203002            4 
  521000    1.0368941   -4.4888959    370.06897  0.059192094  0.060173344            2 
  522000    1.0346639   -4.4823998    371.54878   0.05931494  0.060143855            3 
  523000     1.032142    -4.482573    372.25107  0.059313428  0.060115111            2 
  524000      1.03074   -4.4668633     374.2341  0.059515601  0.060085909            2 
  525000    1.0421524   -4.4743522    372.35717  0.059104313  0.060057069            2 
  526000    1.0418968   -4.4952851    373.61586  0.059191359  0.060027177            3 
  527000    1.0550382   -4.4897769    372.84175  0.058956634  0.059996654            1 
  528000    1.0332269   -4.4868156    373.17529  0.058897615  0.059965819            3 
  529000     1.029567   -4.5031321    372.95141  0.058751009  0.059933717            5 
  530000    1.0368384   -4.4887808    374.85705  0.058939787  0.059901515            2 
  531000    1.0517578   -4.5041257    375.22884  0.058887137  0.059869857            3 
  532000    1.0179347   -4.5145695    374.85937  0.058718574  0.059839799            3 
  533000    1.0149131   -4.4677507    376.55318   0.05887323  0.059809152            1 
  534000    1.0363824   -4.5211687    377.36408  0.058889525  0.059778213            2 
  535000    1.0392791   -4.4723063    377.35054  0.058777343  0.059747068            4 
  536000    1.0322928   -4.4985122    376.61977  0.058554068  0.059714985            6 
  537000     1.045597   -4.5324808     377.6778  0.058609218  0.059683521            2 
  538000    1.0302175   -4.5066384    378.37329  0.058608007  0.059650913            3 
  539000   0.99664516   -4.4983459    378.40016  0.058503426  0.059618607            3 
  540000    1.0323304   -4.5195238    379.19354  0.058517521  0.059586367            2 
  541000    1.0304319   -4.4831535    379.03637  0.058385146  0.059554087            2 
  542000    1.0301903   -4.4691437    380.34726  0.058478976  0.059520362            2 
  543000    1.0205424   -4.4850515    381.85659  0.058602914  0.059487599            5 
  544000    1.0420855   -4.5190181      381.753  0.058479321   0.05945668            2 
  545000    1.0506451   -4.4785701    382.30058  0.058455746  0.059425034            2 
  546000    1.0397209    -4.478662    382.82468  0.058428675  0.059393583            9 
  547000    1.0138929   -4.4897004    382.37914  0.058253982  0.059361843            5 
  548000    1.0463496   -4.4835473    383.32817  0.058291996  0.059329021            3 
  549000    1.0174597   -4.5369269    382.40374  0.058045498  0.059297088            2 
  550000    1.0510047   -4.5029694    385.55526  0.058417463  0.059265719            4 
  551000    1.0289945    -4.495983    384.58871  0.058165261  0.059232829            1 
  552000    1.0267186   -4.4970502    385.04432  0.058128672  0.059201252            2 
  553000    1.0231123    -4.536563    384.51776  0.057944208  0.059168241            2 
  554000    1.0311568   -4.5105253    386.28113  0.058104863  0.059136347            2 
  555000    1.0357459   -4.4893059    386.68347  0.058060581  0.059104695            6 
  556000    1.0410178   -4.5276922     387.8913  0.058137184  0.059072673            4 
  557000    1.0369406   -4.5142482    388.83245  0.058173616  0.059041094            2 
  558000    1.0261709   -4.5034108    388.27938  0.057986765  0.059009795            2 
  559000    1.0307792   -4.5292321    389.48585  0.058062888  0.058977956            4 
  560000    1.0163515   -4.5285314    390.12967  0.058055011  0.058945923            2 
  561000    1.0194428   -4.5313789    390.74997  0.058043667  0.058913289            2 
  562000    1.0336484   -4.5368597    391.16486  0.058001907   0.05888132            3 
  563000    1.0436869   -4.5291512    390.94489  0.057866325  0.058849338            6 
  564000     1.036578   -4.5372386    391.92878  0.057909098  0.058817432            2 
  565000    1.0207376   -4.5316742     391.6428  0.057764424  0.058785719            7 
  566000    1.0257836   -4.5351795    391.41554  0.057628908  0.058754717            2 
  567000    1.0280374    -4.550613    393.66019   0.05785717  0.058724348            2 
  568000    1.0075276   -4.5421052    394.39034  0.057862432  0.058693312            4 
  569000    1.0350172    -4.521919    393.60459  0.057645663  0.058662433            2 
  570000     1.016934   -4.5106691    395.42882  0.057811231  0.058631321            6 
  571000    1.0299257    -4.543259    395.18173  0.057673924  0.058600558            4 
  572000    1.0161382   -4.5496981    395.03134  0.057551186  0.058570047            3 
  573000    1.0490111   -4.5478725    395.12948  0.057465021  0.058539628            3 
  574000    1.0201409   -4.5389281    396.57251  0.057574406  0.058510137            4 
  575000    1.0351271   -4.5094347     397.4192  0.057596985  0.058479606            1 
  576000    1.0408424   -4.5211488    398.76114  0.057691137  0.058449344            3 
  577000    1.0320765   -4.5034229    399.97675  0.057766718   0.05841956            5 
  578000    1.0188578   -4.5524993    400.16742  0.057694265  0.058389798            3 
  579000    1.0217403   -4.5367171    401.03526  0.057719525  0.058360005            3 
  580000   0.99452214   -4.5091478    401.24744  0.057650495  0.058329927            3 
  581000    1.0272684   -4.5106961    399.86683  0.057353245   0.05829984            2 
  582000   0.99087118   -4.5553675    401.35466  0.057467735  0.058269366            3 
  583000    1.0404004   -4.5402008    402.90194  0.057590329  0.058239011            3 
  584000    1.0209515   -4.5646253    400.22875  0.057110267  0.058208403            2 
  585000    1.0259434   -4.5050737    403.67772  0.057503948  0.058177498            2 
  586000     1.008557   -4.5343867    402.14968  0.057188522  0.058146323            3 
  587000    1.0086539   -4.5192331    405.07228  0.057506002  0.058115161            2 
  588000    1.0325747    -4.552845    402.06579  0.056982113  0.058082572            8 
  589000    1.0354404   -4.5079435    404.80436   0.05727283  0.058050343            5 
  590000    1.0165974    -4.565021    403.45706   0.05698546  0.058018179            5 
  591000     1.034335   -4.5153521    405.71486  0.057207397  0.057986169            5 
  592000    1.0331862   -4.5755182    404.24185  0.056903413  0.057953685            5 
  593000    1.0291262    -4.547445     404.2916  0.056814446  0.057921132            5 
  594000    1.0133731   -4.5682171    404.46649  0.056743334  0.057888488            3 
  595000   0.99541802   -4.5500548     405.0353  0.056727633  0.057856403            5 
  596000    1.0273792   -4.5231157    408.23909  0.057080409  0.057824635            2 
  597000    1.0427085   -4.5235613     408.7566  0.057057035  0.057792855            3 
  598000    1.0313613   -4.5551079    407.87763  0.056839135  0.057761417            6 
  599000    1.0156425   -4.5597549    407.78602    0.0567315  0.057729732            3 
  600000    1.0222428   -4.5386295    408.90574  0.056792464  0.057697846            6 
  601000    1.0119604   -4.5327069     409.7416  0.056813865  0.057665089            2 
  602000    1.0002352   -4.5394429    410.78192    0.0568635  0.057632966            3 
  603000    1.0346119   -4.5306826    410.33328  0.056707197  0.057599646            6 
  604000    1.0190605    -4.558893    410.97116  0.056701319  0.057567404            4 
  605000     1.017042   -4.5357355    413.59724  0.056969316  0.057535213            2 
  606000     1.020283   -4.5533508    411.35137  0.056566469  0.057503957            4 
  607000    1.0194156    -4.556761    413.46155  0.056762981  0.057472429            4 
  608000    1.0101784   -4.5610184    412.30691  0.056511363  0.057441679            7 
  609000    1.0057775   -4.5375656    413.61169  0.056597112  0.057410913            5 
  610000    1.0226039   -4.5626126     414.3656  0.056607323  0.057380864            3 
  611000    1.0101908   -4.5611419    416.21272  0.056766601  0.057350938            2 
  612000    1.0074659   -4.5697573    414.69668  0.056467412  0.057320486            3 
  613000    1.0041386   -4.5390655    414.94405  0.056408925  0.057289948            2 
  614000    1.0124829   -4.5527805    415.57715  0.056402979  0.057257363            3 
  615000    1.0212317   -4.5377255    416.62594  0.056453379  0.057225712            3 
  616000    1.0042112   -4.5312504    416.59047  0.056356936  0.057193639            4 
  617000    1.0014799   -4.5497787    416.47753  0.056250342  0.057161856            4 
  618000    1.0063679    -4.530306    416.82615  0.056206331  0.057130241            3 
  619000    1.0151136   -4.5742835    418.19654  0.056300019  0.057098567            2 
  620000   0.99232201   -4.5878764    418.68906  0.056275411  0.057067814            4 
  621000    1.0207642   -4.5488764    419.03637  0.056231397  0.057036747            2 
  622000   0.99256158   -4.5687805    419.31696  0.056178585  0.057005895            2 
  623000   0.99871487   -4.5980353     421.3788  0.056364206  0.056975026            5 
  624000    1.0210939   -4.5446784    420.60679  0.056170778  0.056944276            6 
  625000   0.98781328   -4.5491098    421.51165  0.056201554  0.056914603            3 
  626000    1.0120102   -4.5875268     421.1652  0.056065654  0.056884432            3 
  627000    1.0070769   -4.5888444    422.47745  0.056150645  0.056853871            4 
  628000   0.99739079   -4.5543986    424.57259   0.05633925  0.056823723            5 
  629000    1.0017981   -4.5874206    423.99427  0.056173062  0.056792857            2 
  630000    1.0075188   -4.5536577    424.23893   0.05611626  0.056762263            5 
  631000   0.99653482    -4.558694    422.98662  0.055861942  0.056731185            3 
  632000    1.0032615   -4.5220713    426.08605  0.056182232  0.056699772            1 
  633000   0.98592038   -4.5720934    423.80404  0.055793054  0.056667935            6 
  634000    1.0060408   -4.5983239    423.69891  0.055691234  0.056635314            4 
  635000     1.018589    -4.577323    424.88422  0.055759085  0.056603516            6 
  636000   0.99231785    -4.598442    424.36147  0.055602918  0.056571768            5 
  637000    1.0017836   -4.5447936    427.58216  0.055936965  0.056540071            5 
  638000    0.9840555   -4.5812891     427.8222  0.055880643  0.056508667            3 
  639000     1.000523    -4.531898    428.42285  0.055871525  0.056477934            2 
  640000   0.99792047   -4.5917566    427.12805  0.055615631  0.056446736            2 
  641000    1.0044923    -4.567197     427.0628  0.055520385  0.056414848            4 
  642000    1.0256245   -4.5772389    427.49813  0.055490412  0.056383009            2 
  643000   0.99371682   -4.5503741    430.35972  0.055774977  0.056351573            4 
  644000   0.98179824   -4.5794846    428.73008  0.055477495  0.056319963            4 
  645000   0.98989213   -4.5645868    428.80999  0.055401807  0.056288442            3 
  646000    1.0031946   -4.5936986    428.47474  0.055272799  0.056255853            4 
  647000    1.0071491   -4.5864994    430.19757   0.05540927  0.056222922            4 
  648000    1.0073614   -4.5746527    429.62929   0.05525068  0.056190451            4 
  649000     1.005772   -4.5470252    431.74078   0.05543667  0.056158253            3 
  650000    0.9992345   -4.5828276    430.99327  0.055255547  0.056125869            3 
  651000   0.98653116   -4.5742512    431.86504  0.055282263  0.056093553            2 
  652000   0.99167756   -4.5796561    431.21623  0.055114549  0.056061148            3 
  653000    1.0086109   -4.5855854    432.50519  0.055194639  0.056029076            2 
  654000    1.0033102   -4.5743068    433.79989  0.055275216  0.055997662            5 
  655000   0.98603931   -4.5873092     435.1181  0.055358537  0.055965438            4 
  656000   0.99835803    -4.594532    435.64134  0.055340618  0.055934148            3 
  657000    1.0157942   -4.5670666    436.11562  0.055316542  0.055903265            3 
  658000   0.99281342   -4.5706238    436.42286  0.055271386   0.05587264            5 
  659000    1.0009093   -4.5889657    437.87542  0.055371197  0.055842272            2 
  660000    1.0014595   -4.5670748    438.07912   0.05531302  0.055812073            3 
  661000   0.97797199   -4.5553239    438.36762  0.055265711   0.05578246            2 
  662000   0.99891779   -4.5970112    438.82241  0.055239477  0.055752839            6 
  663000   0.98525681   -4.6181981    437.26277  0.054960126  0.055722725            7 
  664000   0.97430608   -4.5763769    439.62685  0.055174053   0.05569257            4 
  665000    1.0069708   -4.5988832    439.30648  0.055050937  0.055662796            2 
  666000    1.0002387    -4.593789    440.79847  0.055154964  0.055632276            2 
  667000    1.0054758   -4.5657335    441.01415  0.055099219  0.055602609            3 
  668000     1.012279   -4.5812719    441.50725  0.055078249  0.055573016            2 
  669000    0.9988158   -4.5950045    440.56371  0.054878389  0.055544096            2 
  670000    1.0136635    -4.593387    443.11154  0.055113375  0.055514813            1 
  671000   0.98618106   -4.5614084    444.18059  0.055164008  0.055486188            3 
  672000   0.97837275   -4.6048024    443.73715  0.055026928  0.055457137            6 
  673000   0.99657343   -4.6495627     443.4848  0.054913918  0.055427504            3 
  674000   0.96382742   -4.6121849    444.10516  0.054909144  0.055398997            3 
  675000   0.98261229   -4.5958252    447.49104  0.055245808  0.055370493            9 
  676000   0.97905555   -4.6274842    442.81062  0.054587108  0.055341929            4 
  677000   0.98155295   -4.6149072    444.64795  0.054732638  0.055313675            6 
  678000   0.98938232   -4.6174311    446.29063  0.054853814  0.055285159            2 
  679000   0.97596416   -4.6166006    448.46826  0.055040287  0.055256912            8 
  680000   0.97914031   -4.5996604    449.09329  0.055035943  0.055228857            2 
  681000    1.0108484   -4.5737684    449.05985  0.054951034  0.055201349            3 
  682000   0.96607025   -4.5975643    449.13532  0.054879682  0.055173494            2 
  683000   0.99252056    -4.618011    449.94412  0.054898013  0.055146091            3 
  684000   0.97100163   -4.6247757    448.91537  0.054692418  0.055117739            2 
  685000   0.98680709   -4.6191885    449.10762  0.054635964  0.055089005            6 
  686000   0.98964059   -4.6050304    451.07017  0.054794724  0.055060582            3 
  687000   0.98610157   -4.6241553    451.45351  0.054761464  0.055032753            3 
  688000    0.9802795   -4.5925425    451.32983  0.054666888  0.055004972            2 
  689000    0.9657845   -4.5739397    454.42566  0.054961981  0.054977839            3 
  690000    0.9611081   -4.6123936    450.31501   0.05438587  0.054949007            3 
  691000   0.99267273    -4.619576    453.01894  0.054633254  0.054920517            5 
  692000   0.98010959   -4.5794137     452.6564  0.054510645  0.054891787            3 
  693000    0.9713614   -4.6559798    451.66673  0.054312979  0.054862801            2 
  694000   0.96428449   -4.6197814    453.03342  0.054398825  0.054832983            2 
  695000   0.97547542   -4.6055163    455.07844   0.05456576  0.054803588            2 
  696000   0.98388474   -4.6152057    453.10891  0.054251546  0.054774656            2 
  697000    0.9725919   -4.5910987    455.16038  0.054418983    0.0547458            4 
  698000   0.98410008   -4.6213439    452.91677  0.054073158  0.054716265            4 
  699000    0.9633811   -4.6173668    455.53892  0.054308407   0.05468683            4 
  700000   0.97192504   -4.6289507    455.77919  0.054259427  0.054658356            5 
  701000   0.96713106   -4.6326592    457.80544    0.0544229  0.054629119            8 
  702000    0.9575869   -4.6346457    455.55037  0.054077679  0.054600765            2 
  703000    0.9651002   -4.6076001    457.38942  0.054218755  0.054572629            4 
  704000   0.98239797   -4.5906766    457.68625  0.054176876  0.054544666            3 
  705000   0.97924435   -4.6101713    458.22262   0.05416343   0.05451672            4 
  706000   0.98286146   -4.6333785    458.56472  0.054127091  0.054488393            2 
  707000   0.97045624   -4.5929511    461.10536  0.054349995   0.05446074            4 
  708000   0.97865202   -4.6420655    460.16924  0.054163046  0.054432744            2 
  709000   0.99110353    -4.609815    460.35789  0.054108826  0.054404556            2 
  710000   0.96102388   -4.6131236     461.3223   0.05414581  0.054376468            3 
  711000   0.98792635   -4.6026804    460.11714  0.053928404  0.054347516            4 
  712000    0.9941928   -4.6002559     460.4702  0.053893984  0.054318562            3 
  713000   0.99248782    -4.624803    461.14885  0.053897715  0.054289674            2 
  714000   0.97334685   -4.6254438    461.55393  0.053869506  0.054261416            2 
  715000   0.94926302    -4.626336    462.57284  0.053912918  0.054233616            5 
  716000   0.96513951   -4.6626873    460.55154  0.053602367  0.054205172            7 
  717000   0.99651973   -4.6185074    462.61772  0.053767749  0.054176765            2 
  718000   0.96624012   -4.6465198    463.97977  0.053850949  0.054148207            4 
  719000   0.96790144   -4.6483359    462.90112  0.053651034  0.054119234            5 
  720000   0.97519411   -4.6628231    463.71215  0.053670387   0.05409055            5 
  721000   0.99432701   -4.6381675    464.35077   0.05366976  0.054061909            6 
  722000   0.97724546   -4.6127046    466.06833  0.053793667  0.054033848            5 
  723000   0.97103833    -4.620172    466.56564  0.053776583    0.0540058            2 
  724000   0.96075121   -4.6125532    466.78442  0.053727488  0.053978009            2 
  725000   0.97151046   -4.6350015    467.49288  0.053734813  0.053950392            3 
  726000   0.95732649   -4.6558416    467.35988  0.053645533  0.053923281            3 
  727000   0.95645142   -4.6259353    467.96192  0.053640752  0.053896051            4 
  728000   0.96858119   -4.6406057    470.84357  0.053896928  0.053868643            7 
  729000   0.95106143   -4.6584221    468.60888  0.053567544   0.05384109            2 
  730000   0.95477815    -4.651223    468.44497  0.053475453  0.053813629            5 
  731000   0.97394554   -4.6209866    470.59213  0.053647074  0.053786459            3 
  732000   0.96876245    -4.611384    470.58355  0.053572808  0.053758984            3 
  733000   0.97223286   -4.6473587    469.46611  0.053372682  0.053731361            4 
  734000   0.97026479   -4.6563075    469.32495   0.05328394    0.0537038            9 
  735000   0.96528376   -4.6413825    469.05776  0.053181151   0.05367585            6 
  736000   0.97367621   -4.6561895    469.83174  0.053196528  0.053647558            4 
  737000   0.95260782   -4.6161064    471.61991  0.053326539  0.053620095            1 
  738000   0.95821066   -4.6445566    472.74487  0.053381309  0.053592037            2 
  739000   0.96470036   -4.6377443    472.35678  0.053265312  0.053564519            4 
  740000   0.96044559   -4.6498287    473.02003  0.053268022   0.05353658            3 
  741000   0.94306865   -4.6534093    474.73238  0.053388707  0.053509135            3 
  742000   0.95078278   -4.6518641    473.34421   0.05316085  0.053481918            4 
  743000   0.95882921   -4.6348588    475.25341  0.053303433  0.053454633            4 
  744000   0.94122205     -4.64955    476.51244  0.053372809  0.053428401            1 
  745000   0.95427807   -4.6534507    476.50457  0.053300287  0.053401114            7 
  746000   0.96270618   -4.6283724    475.99629  0.053172061  0.053374141            2 
  747000   0.95861824   -4.6207331    478.27978   0.05335562  0.053347388            3 
  748000   0.97037773   -4.6838758    477.51014  0.053198545  0.053320793            3 
  749000   0.94323957   -4.6852465    476.03733  0.052963655  0.053294138            5 
  750000   0.93997862    -4.660301    477.74285  0.053082539  0.053266831            3 
  751000   0.95250414   -4.6785756    477.13464  0.052944367  0.053239692            3 
  752000   0.95635037   -4.6848292    477.52309  0.052917009  0.053212368            3 
  753000   0.96254694   -4.6443964    478.58386  0.052964128  0.053185653            6 
  754000    0.9471297    -4.647912    480.86692  0.053146211  0.053159101            3 
  755000   0.97232443   -4.6863219    480.77489  0.053065661    0.0531325            7 
  756000   0.94624683   -4.6626561    480.89862  0.053009107  0.053105541            5 
  757000   0.96230618    -4.642556    481.62415  0.053018951   0.05307907            4 
  758000    0.9668992   -4.6625653     481.4313  0.052927804  0.053052236            3 
  759000   0.96462093   -4.6693413    481.07047  0.052818453  0.053025227            2 
  760000   0.95320348   -4.6669075    481.75086  0.052823559  0.052998257            4 
  761000   0.93401062    -4.647042    483.00488  0.052891467  0.052970902            5 
  762000    0.9804845   -4.6339884    484.58623  0.052994994  0.052943903            3 
  763000   0.94072588   -4.6606695    484.27563  0.052891615  0.052917483            2 
  764000   0.95861361   -4.6549778    482.74465  0.052655393  0.052890189            3 
  765000    0.9486839   -4.6589687    482.68177  0.052579713  0.052862941            5 
  766000   0.92394778   -4.6768679    484.37532  0.052695313  0.052834817            3 
  767000   0.94336679   -4.6484078    484.84251   0.05267737   0.05280744            3 
  768000   0.93259966   -4.6981456    483.44587  0.052457234  0.052780353            5 
  769000    0.9645665   -4.6789381    484.80311  0.052536098  0.052753425            3 
  770000   0.94241387   -4.6774682    483.78462  0.052357643  0.052726198            2 
  771000   0.94504822   -4.6688878    486.46295  0.052579221  0.052698786            5 
  772000   0.93366338   -4.6789744    486.34202  0.052498059  0.052672362            4 
  773000   0.95862157   -4.6632957    486.74257  0.052473325   0.05264589            2 
  774000    0.9573722   -4.6913731    485.51949  0.052273847  0.052619253            3 
  775000   0.95043033   -4.6638928     487.4094  0.052409613  0.052592311            4 
  776000    0.9369304   -4.6838582    489.48446  0.052564912  0.052565927            6 
  777000   0.94885097   -4.6875755    489.25594  0.052472752  0.052539269            3 
  778000   0.94583244   -4.6760659    489.58461  0.052440511  0.052512661            5 
  779000   0.94041594   -4.6703681    491.84962  0.052615492  0.052486614            9 
  780000   0.94848422   -4.6686418    492.23787  0.052589517  0.052460131            2 
  781000   0.94488257   -4.6591847     490.8085  0.052369665  0.052433271           11 
  782000   0.92767096   -4.6723395    489.91744   0.05220774  0.052406794            6 
  783000   0.93437595   -4.6999042    489.41249  0.052087323  0.052380335            3 
  784000   0.94100138   -4.6829932     489.4197  0.052021651  0.052353275            6 
  785000   0.91718259   -4.6555415    491.52267  0.052178627  0.052326418            2 
  786000   0.94242446   -4.6687341    491.27099  0.052085558  0.052299462            4 
  787000   0.93229987   -4.6613757      492.582  0.052158196  0.052272648            4 
  788000   0.93437734   -4.6509143    492.52651  0.052086136   0.05224555            5 
  789000   0.95514399    -4.707182    491.61206  0.051923538  0.052218546            4 
  790000   0.95674535   -4.6631013    494.40903  0.052152851  0.052191351            3 
  791000   0.92766742   -4.6923891    495.16719  0.052166792   0.05216447            6 
  792000   0.92747347   -4.6646428    495.88319  0.052176261   0.05213771            3 
  793000   0.94059709   -4.6932093    495.03351  0.052021176  0.052111032            4 
  794000   0.94658212   -4.6904775    494.53356  0.051903187  0.052083748            7 
  795000   0.96422096   -4.6963624    494.61977  0.051846936  0.052056714            3 
  796000   0.92627495   -4.6954267    494.44613  0.051763623  0.052029371            6 
  797000   0.94289305   -4.6977653    493.87079  0.051638518  0.052001638            4 
  798000   0.95391866   -4.6851511    496.53642  0.051852175  0.051974098            3 
  799000   0.94315671     -4.66195    499.07388  0.052051927  0.051947037            4 
  800000   0.92771557   -4.7345212    497.88653   0.05186318  0.051920018            9 
  801000   0.91965041   -4.6836338    497.53701   0.05176207  0.051892869            2 
  802000   0.91914996   -4.7051496     496.2227  0.051560962   0.05186551            4 
  803000   0.93345075   -4.6964004    498.96711   0.05178156  0.051838373            3 
  804000   0.94737639    -4.674209    497.87737  0.051604205  0.051810794            3 
  805000   0.95015593   -4.7120839    497.40593  0.051491297  0.051783041            7 
  806000   0.95151216   -4.7169608     497.9669  0.051485412  0.051755257            5 
  807000   0.92559469   -4.7213796    497.51583  0.051375034  0.051727568            2 
  808000   0.93414388   -4.6836405     501.4077   0.05171284  0.051700863            2 
  809000   0.93779384   -4.6944585    499.71052  0.051474095  0.051673827            2 
  810000   0.92600111   -4.7308893    500.37647  0.051479061  0.051646619            3 
  811000   0.93679647   -4.7030008    501.64777  0.051546215  0.051619276            4 
  812000   0.92609395   -4.6902398    501.68387   0.05148644   0.05159218            2 
  813000   0.93291726   -4.7290061    500.11207     0.051262  0.051564688            4 
  814000   0.92848886   -4.7245824    500.79586  0.051269027  0.051537175            4 
  815000   0.92430127   -4.7033179    501.84388   0.05131328  0.051509791            3 
  816000   0.94020941   -4.7432768    501.10797  0.051175242  0.051482093            4 
  817000   0.93902388   -4.6840702    503.37953  0.051344302  0.051453926            5 
  818000   0.90992911   -4.7123996    504.03655  0.051348467   0.05142654            4 
  819000   0.95805751   -4.7191819    503.35517  0.051216439  0.051398643            3 
  820000   0.91632898   -4.7012309    503.91451  0.051210824  0.051371548           11 
  821000   0.92468399   -4.6677537    506.15893  0.051376262  0.051343826            2 
  822000   0.92955545   -4.7084043    505.39946  0.051236766  0.051316519            4 
  823000   0.93380027   -4.7226638    503.54839  0.050987079  0.051288655            4 
  824000    0.9292276    -4.697999    505.65884  0.051138637  0.051260913            5 
  825000   0.90811544   -4.7355467    504.42007  0.050951522  0.051233268            4 
  826000   0.91963145   -4.6681246    504.93957  0.050942249  0.051206217            3 
  827000    0.9191471   -4.7336456    504.32842  0.050819067  0.051178625            3 
  828000   0.92879184   -4.7319077    506.94959  0.051021497  0.051150578            6 
  829000   0.92428822   -4.7027058    506.91651  0.050956626  0.051123153            3 
  830000   0.93778936   -4.7325325    505.57384  0.050760426  0.051095276            2 
  831000   0.90934602   -4.6978009    507.41558  0.050884033  0.051067693            4 
  832000   0.91273694   -4.7262479    506.84258  0.050765483  0.051040179            3 
  833000   0.91475825   -4.7490059    506.98211  0.050718499  0.051012414            4 
  834000   0.91861628   -4.7203452    508.74759  0.050834091  0.050984612            6 
  835000   0.90985369   -4.7276242    509.06278  0.050804669  0.050956939            2 
  836000   0.92948993   -4.6874689    508.21889  0.050659778  0.050929985            4 
  837000    0.8993716     -4.71853    508.25122  0.050602471  0.050902463            3 
  838000   0.93146299   -4.7090711    510.94273  0.050809738  0.050875221            1 
  839000   0.90765573   -4.7543773    509.90002  0.050645611  0.050847817            2 
  840000   0.92721779   -4.7220681    510.77669  0.050672291  0.050820665            5 
  841000   0.92912506   -4.7256935    512.07957  0.050741139   0.05079343            4 
  842000    0.9216896   -4.7505961    510.91929  0.050566042  0.050766092            5 
  843000   0.94541169   -4.7320015    512.87073  0.050698965  0.050739088            4 
  844000    0.9149123    -4.744427     511.7067  0.050523963  0.050712167            4 
  845000   0.90810982   -4.7079541    512.93244  0.050585053   0.05068475            5 
  846000   0.91328267   -4.6981031     514.4163  0.050671424  0.050657547            5 
  847000   0.91688872   -4.7172109    512.98389   0.05047067   0.05063056            2 
  848000   0.90338197   -4.7596283    514.41004  0.050551301  0.050603648            3 
  849000   0.90294237   -4.7359526    513.37014  0.050389688  0.050577337            7 
  850000   0.91659715   -4.7305941    514.58005  0.050449024   0.05055088            5 
  851000   0.91105126   -4.7084089    515.99205  0.050528011  0.050524214            3 
  852000   0.88884563   -4.7406353    515.73128    0.0504432  0.050497999            5 
  853000   0.93884619   -4.7121272    517.02327  0.050510285  0.050471795            4 
  854000   0.90600375   -4.7510917    515.10515  0.050263969   0.05044554            3 
  855000   0.93138253   -4.7177517    519.11566  0.050596068  0.050419522            3 
  856000   0.91461396   -4.7193976    517.87742  0.050416415  0.050392873            9 
  857000   0.91055196   -4.7061319    516.50965  0.050224587  0.050366233            4 
  858000   0.91127953   -4.7107782    515.68378  0.050085838  0.050339563            3 
  859000   0.92938954   -4.7197628    516.85564  0.050141215  0.050312538            7 
  860000   0.91578776   -4.7393048    518.88067  0.050279135   0.05028559            4 
  861000   0.91682696   -4.7490806    518.22194  0.050156982  0.050258638            7 
  862000   0.91328776   -4.7422909    516.66907  0.049948673  0.050231958            3 
  863000   0.91705149    -4.725903    518.28016  0.050046365  0.050204628            3 
  864000   0.89570464   -4.7327571    519.49973   0.05010607  0.050177403            4 
  865000    0.8985332   -4.7183292    518.53966  0.049955651  0.050149808            2 
  866000   0.89189431   -4.7454366    518.86216  0.049928999  0.050121585            3 
  867000   0.90701527   -4.7428741    520.01095  0.049981829   0.05009407           10 
  868000   0.87070729   -4.7566434    520.85522  0.050005302  0.050067267            3 
  869000   0.91439296   -4.7438543    521.40519  0.050000498  0.050040035            5 
  870000     0.909517    -4.758936    522.15606  0.050014948  0.050012687           10 
  871000   0.90777517   -4.7349738    521.72519  0.049916302   0.04998619            5 
  872000   0.91261082   -4.7187381    522.11629  0.049896434   0.04995936            3 
  873000   0.91086346     -4.74437    521.80726   0.04980978  0.049932167            3 
  874000   0.90718406   -4.7741802    520.41067  0.049619629  0.049905268            5 
  875000   0.90347219   -4.7259883    524.04311  0.049908867  0.049877566            3 
  876000   0.89569749     -4.72911    521.98288  0.049655906  0.049850122            5 
  877000   0.88815222   -4.7397723    524.16332  0.049806473   0.04982263            6 
  878000   0.92051854   -4.7479725    523.81886  0.049717052   0.04979502            5 
  879000   0.89347751   -4.7613489    523.50611  0.049630841  0.049767722            4 
  880000   0.91081338   -4.7375419    523.97562  0.049618903  0.049740171            5 
  881000   0.90977981   -4.7313941    524.23256  0.049586886  0.049713073            4 
  882000   0.90163489   -4.7292475     526.1791  0.049714578  0.049685858            2 
  883000   0.89385226   -4.7469918    525.60223  0.049603835   0.04965882            4 
  884000   0.89059385    -4.716934    525.78213   0.04956468   0.04963148            5 
  885000   0.90218948   -4.7503684    525.53029  0.049484962  0.049603897            3 
  886000   0.90538857    -4.782239    523.53954  0.049241868  0.049576314            4 
  887000   0.88949337   -4.7465092    526.79937  0.049492613  0.049548809            3 
  888000   0.90014423   -4.7518968    526.94684  0.049450717  0.049521515            4 
  889000   0.89336355   -4.7471396    526.28574  0.049333122  0.049493737            7 
  890000   0.90872717   -4.7628006    528.62399  0.049496628  0.049466491            3 
  891000   0.88880078   -4.7705416    526.61901  0.049253555  0.049438799            6 
  892000   0.91160592   -4.7178901    528.67256  0.049390187  0.049411035            3 
  893000   0.89109358   -4.7488906    527.42497  0.049218455  0.049383548            2 
  894000    0.9140116   -4.7979323    526.73433  0.049099024  0.049355792            5 
  895000    0.8900271   -4.7578986    527.07618  0.049075994  0.049328059            3 
  896000   0.89401205   -4.7717598    529.19007  0.049217826  0.049300337            3 
  897000   0.88630957    -4.761234    527.63296  0.049018298  0.049272986            4 
  898000   0.90762111   -4.7633073    528.71712   0.04906432  0.049245342            5 
  899000   0.90063326   -4.7497683    530.37237  0.049163179  0.049217956           11 
  900000   0.90742762   -4.7601274    529.58192  0.049035363  0.049190791            3 
  901000   0.87560619   -4.7798998    531.02244  0.049114173  0.049163459            5 
  902000   0.89366884   -4.7875644    530.38829  0.049001136  0.049136426           10 
  903000   0.90677039    -4.805029    531.17126  0.049019127  0.049108826            4 
  904000   0.90343395   -4.7709964    531.01383   0.04895039  0.049081834            2 
  905000   0.89927182   -4.7915322    531.66597  0.048956351  0.049055356            6 
  906000   0.87202156   -4.8000778    532.73243  0.049000408  0.049028613            2 
  907000   0.88418651   -4.7841247    533.05313  0.048975848  0.049001877            3 
  908000   0.88735601   -4.7825585    533.10148  0.048926347  0.048975309            5 
  909000   0.88051007   -4.7813867    534.48331  0.048999203  0.048948514            5 
  910000   0.89975867   -4.7520483    534.83355  0.048977431   0.04892164            2 
  911000    0.8783164   -4.7759949    534.89732  0.048929503  0.048894558            4 
  912000   0.87745213   -4.7865594    534.71644  0.048859324  0.048866865            5 
  913000   0.88568723   -4.7794907    534.80771  0.048814139  0.048839374            4 
  914000   0.88673228   -4.7865755    534.51828  0.048734343  0.048811605            3 
  915000   0.88344325   -4.7962076    534.77858  0.048704789  0.048784034            7 
  916000    0.8767468   -4.7701556    535.28246  0.048697458   0.04875723            6 
  917000   0.89077056   -4.7803774     533.2439  0.048459096  0.048729795            6 
  918000    0.8777842   -4.7478254    535.50934  0.048611959  0.048702617            2 
  919000   0.88546605   -4.7967534    536.54241  0.048652739  0.048675682            7 
  920000   0.88365156   -4.7626169    537.45904  0.048682884  0.048648839            7 
  921000   0.87987732   -4.7914435    536.98638  0.048587258  0.048622206            4 
  922000   0.87909429   -4.7561784    537.02163  0.048537746   0.04859505            7 
  923000   0.90291333   -4.7606622    537.43217  0.048522226  0.048568023            3 
  924000   0.88945648   -4.8201105    536.37571  0.048374433  0.048541107            4 
  925000   0.89320675   -4.7890363    537.84171  0.048454208  0.048513978            5 
  926000   0.88278694   -4.8094831    539.52685  0.048553532  0.048487044            8 
  927000   0.88026956   -4.7947963    538.93679  0.048448111  0.048460324            3 
  928000   0.88535981   -4.7869937    539.52853  0.048449042  0.048433597            5 
  929000   0.87205476   -4.7635947    539.46044  0.048390782  0.048406731            2 
  930000   0.90811708   -4.7910023    539.46483  0.048339143  0.048379898            9 
  931000   0.88790853   -4.7669151    539.28213  0.048270868  0.048352959            4 
  932000   0.88949514   -4.7941326    539.48992  0.048237654  0.048325839            5 
  933000   0.87810876   -4.8370905    540.01836  0.048233151  0.048298852            2 
  934000   0.87943637   -4.8206909    541.06629  0.048275008  0.048271924            6 
  935000   0.87335813   -4.8301379    540.27493  0.048152846  0.048245547            4 
  936000   0.87882963     -4.82121    538.81798  0.047971686  0.048218593            4 
  937000    0.8645834   -4.7894094    540.48461  0.048068713  0.048191636            6 
  938000   0.87694396   -4.7909623    541.14016  0.048075707  0.048164851            6 
  939000   0.88680549   -4.7699083    543.04793  0.048193817  0.048137976            8 
  940000   0.88946179   -4.8058123    543.16594  0.048153009  0.048111131            4 
  941000   0.90076557   -4.8280565    541.12974  0.047921514  0.048084715            4 
  942000   0.88064591    -4.809158    542.73348  0.048012516  0.048057799            5 
  943000   0.87435183   -4.8159223    542.19798  0.047914279  0.048030677            5 
  944000   0.87799823   -4.8082001    543.29277  0.047960167  0.048003496            3 
  945000   0.84908633   -4.7917627    541.92225  0.047788558  0.047976212            2 
  946000    0.8855424   -4.7925635    543.11231  0.047842874  0.047948758            5 
  947000   0.86320688   -4.8093755    544.60055  0.047923315  0.047921727            3 
  948000   0.87603127    -4.797703     545.3178  0.047935812  0.047894751            6 
  949000   0.87311711   -4.7855242    545.47245   0.04789888  0.047868379            8 
  950000   0.87325929    -4.803085    546.29902  0.047920966  0.047841852            2 
  951000   0.87872433   -4.7731852    547.86903  0.048008152  0.047815323            7 
  952000   0.87093553   -4.8208272    546.32101  0.047822217  0.047788374            4 
  953000   0.86491688   -4.7887764    547.74529   0.04789658  0.047761877            5 
  954000   0.86575131   -4.8356732    547.93028  0.047862533  0.047735476            2 
  955000   0.87035112   -4.7916227    548.36719   0.04785054   0.04770933            4 
  956000    0.8899666   -4.8075243     547.2931  0.047706861  0.047683317            2 
  957000    0.8801658   -4.8289275    546.55893   0.04759308  0.047657392            6 
  958000   0.88531007   -4.8045863    549.47707   0.04779724  0.047631345           10 
  959000   0.86456633   -4.8314446    549.05854  0.047711031  0.047605549            6 
  960000   0.87034003   -4.8012571    549.59729  0.047708098  0.047579768            5 
  961000   0.86474754   -4.8248901    550.38337  0.047726619   0.04755382            5 
  962000   0.87311311   -4.8072335    551.33274  0.047759246  0.047528252            4 
  963000   0.88470864   -4.8496533    549.51496   0.04755235  0.047502647           10 
  964000   0.85643256   -4.8431424    550.22692  0.047564568  0.047476816           10 
  965000   0.87133404   -4.8216336    550.79933  0.047564709  0.047451076            4 
  966000   0.86019801   -4.8028213    553.58058  0.047755399  0.047425802            3 
  967000   0.87914053   -4.8120695     550.7399  0.047461211  0.047400294            3 
  968000   0.88409079   -4.8265798    552.71033  0.047581812  0.047374976            3 
  969000   0.87767077   -4.8259334     551.0283  0.047388055   0.04734938            4 
  970000   0.85413759   -4.8132451    553.02699   0.04751091  0.047323802            4 
  971000   0.86289587   -4.8168554    551.33945  0.047317152  0.047298214            4 
  972000   0.87780689    -4.836652    552.84054  0.047397166  0.047272694            4 
  973000   0.85770719   -4.8190143    554.10026  0.047456343  0.047247028            5 
  974000   0.87646075   -4.8309612    553.17657  0.047328591  0.047221291            7 
  975000   0.86639974   -4.8301347    554.87325  0.047425064  0.047195359            4 
  976000   0.86364055   -4.8311207    554.30064  0.047327582  0.047169909            6 
  977000   0.86419062   -4.8375467    554.50824  0.047296847  0.047144564            7 
  978000   0.86626739    -4.814028    556.98323  0.047459375  0.047119322            4 
  979000   0.87174156   -4.8504689    553.95553  0.047153178  0.047093844            2 
  980000   0.86486973   -4.8310401    554.76382  0.047173794    0.0470683            2 
  981000   0.87270573   -4.8001348    555.75152  0.047209609  0.047043234            7 
  982000   0.85442598   -4.8303037    556.54187  0.047228604  0.047018256            4 
  983000   0.84603623   -4.8504054     555.8174  0.047119142  0.046992694           11 
  984000   0.87245415   -4.8353872     557.0264  0.047173645  0.046967698            3 
  985000   0.85934892   -4.8312388    556.98298   0.04712208  0.046942286            7 
  986000   0.85561966   -4.8584511    557.32184  0.047102928  0.046917307            3 
  987000   0.85886843   -4.8466268    557.54847  0.047074339  0.046892325            5 
  988000   0.88747414   -4.8054689     560.0755  0.047239836  0.046867326            4 
  989000   0.86570071   -4.8531811    555.25615  0.046785992   0.04684179            3 
  990000   0.84616633   -4.8528601    558.71579  0.047029948  0.046815763            4 
  991000   0.85168784   -4.8540544    558.00685  0.046922877  0.046789867            5 
  992000   0.85714159   -4.8511526    556.68506  0.046764538   0.04676387            3 
  993000   0.87642414   -4.8428281    560.10984  0.047004854   0.04673862            5 
  994000   0.85031779   -4.8381267    560.31447  0.046974721  0.046713894            4 
  995000   0.86850689   -4.8114249     561.0741  0.046991131  0.046689437            7 
  996000   0.87003841   -4.8195535    559.88851  0.046844755  0.046664733            3 
  997000   0.84330309   -4.8192575    562.89557  0.047049111  0.046639706            6 
  998000   0.85740866   -4.8236244    560.84106  0.046830416  0.046614931            8 
  999000   0.83281026   -4.8506154    562.79351  0.046946406  0.046590106            3 
 1000000   0.87613886   -4.8567828    560.86444  0.046738703  0.046565174            7 
 1001000   0.85014948   -4.8629171    561.77751  0.046768025  0.046539613            4 
 1002000   0.86646691    -4.853862    560.01635   0.04657488    0.0465141            4 
 1003000   0.85144699    -4.831215    562.62958  0.046745562  0.046488455            3 
 1004000   0.83336965   -4.8450898    561.49969   0.04660522  0.046463233           12 
 1005000   0.86748685   -4.8614712    562.79875  0.046666563  0.046437866            6 
 1006000   0.87401256   -4.8737304    562.35119    0.0465831  0.046412457            3 
 1007000   0.86124524   -4.8456476    563.85284  0.046661109  0.046387068            5 
 1008000   0.84959555   -4.8861967    561.35535  0.046408346  0.046361816            6 
 1009000   0.84583613   -4.8336789    566.91177  0.046821256   0.04633634            3 
 1010000    0.8543037   -4.8462898    561.51205  0.046329377  0.046310969            7 
 1011000   0.85242643   -4.8418013     564.7806  0.046552968  0.046285291            4 
 1012000   0.83788682   -4.8666886    563.14217  0.046372049  0.046259768            6 
 1013000    0.8582717   -4.8716865    562.49552  0.046273077  0.046233638            3 
 1014000   0.86320426   -4.8656774    563.27477  0.046291483  0.046207784            4 
 1015000   0.84935897    -4.859961    563.29331  0.046247398  0.046181677            6 
 1016000   0.85314659   -4.8435433    565.95889  0.046420513  0.046155926            3 
 1017000   0.83978422   -4.8858494    564.04205  0.046217802   0.04612993           11 
 1018000    0.8535738   -4.8469662    566.05832  0.046337453  0.046104066            8 
 1019000    0.8428337    -4.885399    563.20661  0.046058767  0.046078007            9 
 1020000   0.85416745   -4.8790687    565.05395  0.046164538  0.046052193            4 
 1021000    0.8491806   -4.8705001    564.86542  0.046103935  0.046026539            5 
 1022000   0.84348827   -4.8935196    566.50205  0.046192274  0.046000957           11 
 1023000   0.84571845   -4.8631785    565.93711    0.0461011  0.045975267           13 
 1024000    0.8535684   -4.8758183    566.40933  0.046094509  0.045949599            4 
 1025000   0.85435744   -4.8668875    568.01559  0.046180129  0.045923928            4 
 1026000    0.8493393   -4.8876754     567.3878  0.046084129   0.04589802            3 
 1027000   0.84674187    -4.871041    567.69838  0.046064458  0.045872233            6 
 1028000   0.86612352   -4.8686256    567.72076  0.046021462  0.045846958           12 
 1029000   0.85333559    -4.892312     567.8948  0.045990833  0.045821378            5 
 1030000   0.84249876   -4.8693936     568.0716  0.045960486  0.045795442            2 
 1031000   0.84965454   -4.8687908    567.90289   0.04590227  0.045770022            4 
 1032000   0.84737378   -4.8956021    568.80567   0.04593069  0.045744291            6 
 1033000    0.8402123    -4.865889    568.69656  0.045877425   0.04571838            5 
 1034000   0.84164779   -4.8449983    569.41621  0.045891055  0.045692478            4 
 1035000   0.83022738   -4.8753606    571.01986  0.045975834  0.045666774            5 
 1036000   0.82569072   -4.8754344    571.41533  0.045963267  0.045641351            8 
 1037000   0.82657982   -4.8786888    571.49933  0.045925693  0.045615533            4 
 1038000   0.84115753   -4.8779735    570.46238    0.0457982  0.045589672            9 
 1039000   0.84002974   -4.8741472    570.49591   0.04575681  0.045564325            4 
 1040000   0.83589107   -4.8666327    571.33337  0.045779917  0.045539086            7 
 1041000   0.82337872   -4.8638551    570.93983  0.045704438  0.045514053            5 
 1042000   0.83973439   -4.8981084    571.20611  0.045681871  0.045488678            3 
 1043000   0.86239573   -4.8895935    570.51345   0.04558273   0.04546302            4 
 1044000   0.85119008   -4.8667916    574.55997  0.045862067  0.045437774            6 
 1045000   0.85440174   -4.8612599    572.77419  0.045675773  0.045412574           10 
 1046000   0.82623357   -4.8953741    570.73528  0.045469669  0.045387127            3 
 1047000   0.84251984   -4.9100492    572.13398  0.045537566  0.045361564            5 
 1048000   0.85495595   -4.8628056    574.64983  0.045694166  0.045336516            4 
 1049000    0.8228405   -4.8836079    573.75081  0.045579188  0.045311549            5 
 1050000     0.831945   -4.8588951    573.58103  0.045522304  0.045286488            5 
 1051000   0.82941162   -4.9162957    573.60905  0.045481212    0.0452616            3 
 1052000   0.83849878   -4.9074261    573.74434  0.045448696  0.045236734            8 
 1053000   0.83422491   -4.8847824    575.45741  0.045541106  0.045211644            9 
 1054000   0.83433404   -4.8972359    576.22939  0.045558933  0.045186779            3 
 1055000   0.83102878   -4.8594815    574.94482  0.045414283  0.045161476            3 
 1056000   0.84771514   -4.8854805    576.22303  0.045472145   0.04513633            6 
 1057000    0.8331956   -4.8593736    576.13702  0.045422344  0.045111099            3 
 1058000   0.84386743   -4.8997517    575.26526  0.045310748  0.045086141            3 
 1059000   0.83302866   -4.9209607    574.86164  0.045236201  0.045061326           10 
 1060000   0.79830549   -4.8823612    576.54584  0.045325931  0.045036308            3 
 1061000   0.83617773    -4.911045    577.18911  0.045333735  0.045011489            5 
 1062000   0.84016157   -4.8867904    575.85892   0.04518667  0.044986706            3 
 1063000   0.84074805   -4.8906313       578.18  0.045326121  0.044962016            4 
 1064000   0.82527398   -4.8895383    577.65484   0.04524239  0.044937606            6 
 1065000   0.80996324   -4.9029442    576.87679  0.045139029  0.044912889            8 
 1066000   0.83313309    -4.900659    577.26636  0.045127139  0.044888073            2 
 1067000   0.83547698   -4.9030492     578.6359  0.045191807  0.044863489            5 
 1068000   0.81498931   -4.9054549    577.82906  0.045086537  0.044838579            2 
 1069000   0.83670829   -4.8780571    579.07918  0.045141813  0.044813623            4 
 1070000   0.82739085    -4.915206    577.23614  0.044956086  0.044788434            6 
 1071000   0.82474078   -4.9274774    579.62746  0.045100176  0.044763549            6 
 1072000   0.81882183   -4.8850709    580.60051  0.045133746  0.044739041            2 
 1073000   0.84084605   -4.8882119    580.37099  0.045073858  0.044714388           12 
 1074000   0.83043174   -4.9156071    580.53711  0.045044779  0.044689832            5 
 1075000   0.83835174   -4.9081306    579.87484  0.044951538   0.04466484            4 
 1076000   0.83176358   -4.9185086    578.87186  0.044832083  0.044639785            6 
 1077000   0.82428117   -4.8857893    581.59839  0.045001423  0.044615121            4 
 1078000     0.839795    -4.933135     580.5353  0.044877497  0.044590353            6 
 1079000   0.81977835   -4.8978819    580.96368   0.04486899  0.044565617            5 
 1080000   0.81243072   -4.9306844    579.75041  0.044733828  0.044540622            7 
 1081000   0.83678699   -4.9261446    580.06945   0.04471704  0.044515474            8 
 1082000   0.82570882   -4.9032906    581.14668  0.044758678  0.044490549            4 
 1083000   0.81365641   -4.9017245    582.63983  0.044832243  0.044465709            8 
 1084000   0.83171029   -4.9010058     584.1392   0.04490615  0.044440913            3 
 1085000   0.83330125   -4.9570968    582.76351  0.044759102  0.044416216            9 
 1086000   0.83265459   -4.9148571    582.75352  0.044717121  0.044391514            4 
 1087000   0.82091035   -4.9412593    584.58723  0.044816562  0.044367054            6 
 1088000   0.82859846   -4.8992982    584.65303   0.04478041  0.044342472            9 
 1089000    0.8259004   -4.9097248    582.04132  0.044539434  0.044318298            5 
 1090000   0.81906666   -4.9370055    584.56851  0.044691782  0.044293963            6 
 1091000    0.8038778   -4.9101242    585.46993  0.044719671   0.04426977            7 
 1092000   0.80928762   -4.9096903     585.9775  0.044717453  0.044245592            3 
 1093000   0.79838174   -4.9556538     585.1724  0.044615157  0.044221293            5 
 1094000   0.81414395   -4.9096807    586.83251  0.044700831   0.04419717            3 
 1095000   0.80565062   -4.9412594    585.07997  0.044526634  0.044173063            3 
 1096000   0.81647799   -4.9345897    585.83303  0.044543265   0.04414889           20 
 1097000   0.81852723    -4.941787      586.493  0.044552796  0.044124665            3 
 1098000   0.81553819   -4.9423146    585.48738  0.044435897  0.044100121            8 
 1099000    0.8006382   -4.9166928    587.09075  0.044517042  0.044075838            6 
 1100000   0.80851038   -4.8897262    587.79602  0.044530001  0.044051718            3 
 1101000   0.80211235   -4.9565005    586.31872  0.044377741  0.044027664            6 
 1102000    0.8233673    -4.952552    586.91355  0.044382452   0.04400307            2 
 1103000   0.80865444    -4.920914    587.04983   0.04435251  0.043978472            3 
 1104000   0.78820629   -4.9274298    586.39171  0.044262659   0.04395402            4 
 1105000   0.81494102   -4.9235711    588.45005  0.044377832   0.04392956            6 
 1106000   0.79846828    -4.930777    585.77435  0.044136102  0.043905293            4 
 1107000   0.81514013   -4.9292102    587.64956  0.044237396  0.043880675            6 
 1108000   0.80851102   -4.9403225    589.15881  0.044310982  0.043856459            4 
 1109000   0.80305745   -4.9266644    587.20095  0.044123907  0.043831977            6 
 1110000   0.80398975   -4.9446377    587.39831  0.044098973  0.043807325            7 
 1111000   0.82102785    -4.941407    589.24776  0.044198002  0.043782909            8 
 1112000   0.80270177   -4.9313515    587.20858  0.044005439  0.043758357           11 
 1113000   0.81882316   -4.9199165    588.96505  0.044097413  0.043733855            3 
 1114000   0.81972185   -4.9373984    587.36728  0.043938306  0.043709164           13 
 1115000   0.81191555   -4.9486241    587.13978  0.043881897  0.043684232            3 
 1116000    0.8302348   -4.9110967    589.86825  0.044046315  0.043659381            4 
 1117000   0.79997408   -4.9175341     591.5234  0.044130364  0.043634908            4 
 1118000   0.79823898   -4.9430173    587.76393  0.043810669   0.04361038            3 
 1119000   0.79948477   -4.9434657     590.3781  0.043966198  0.043586162            6 
 1120000   0.79548971   -4.9322652    591.22798  0.043990177  0.043561954           15 
 1121000    0.8095341   -4.9306282    589.77304  0.043842777   0.04353765            5 
 1122000   0.80489165   -4.9522814    590.30871  0.043843487  0.043513086            4 
 1123000   0.80830737   -4.9608412    590.38254  0.043809924  0.043488454            4 
 1124000   0.78845905   -4.9612452    589.88925  0.043734375  0.043463631            7 
 1125000   0.80237308   -4.9584882    592.93645  0.043921219  0.043439088            9 
 1126000   0.81173481   -4.9379416    591.63174  0.043785653  0.043414895            5 
 1127000    0.8072358   -4.9532598    590.49372  0.043662653  0.043390491            3 
 1128000   0.80810339   -4.9462447    592.46682  0.043769712  0.043366193           12 
 1129000   0.80920135   -4.9628975    591.13313  0.043632501  0.043341746            7 
 1130000   0.81081993   -4.9182618    594.02201  0.043806933  0.043317302            5 
 1131000   0.79127524   -4.9770987    593.75734  0.043748699  0.043293229           11 
 1132000   0.81254153   -4.9221428    593.20297  0.043669241  0.043269152            6 
 1133000   0.79027468   -4.9488032    593.12112  0.043624678  0.043245107            5 
 1134000   0.78954181   -4.9349327    595.61151  0.043769218  0.043221215            3 
 1135000   0.78416578   -4.9374978    594.91302   0.04367937   0.04319712            6 
 1136000   0.79272419    -4.962084    594.11676  0.043582508  0.043172879            6 
 1137000   0.80139005   -4.9727501    591.71673  0.043368274    0.0431487            5 
 1138000   0.79247067   -4.9614205    595.02354  0.043572316  0.043124505           11 
 1139000   0.79987528    -4.953114    593.73882  0.043440066  0.043100467            6 
 1140000   0.78888351   -4.9382975    595.08131  0.043500096  0.043076466           12 
 1141000   0.80332569   -4.9674402      595.071  0.043461218  0.043052214            4 
 1142000   0.79494778   -4.9520613    595.76214  0.043473595   0.04302823            7 
 1143000   0.77546619   -4.9544502    596.60208  0.043496798  0.043004316           10 
 1144000   0.78229303   -4.9487286    597.93144  0.043555612  0.042980239            4 
 1145000   0.81560827   -4.9374109    597.55292  0.043490023  0.042956238            7 
 1146000   0.80396418   -4.9551447    597.61862  0.043456851  0.042932394            8 
 1147000   0.80978851   -4.9633154    596.31704    0.0433244  0.042908444            4 
 1148000   0.78454586   -4.9385569    596.40334  0.043292926  0.042884498            7 
 1149000    0.8020436   -4.9722787    598.79448  0.043428668  0.042860581            3 
 1150000   0.80403048   -4.9672157    596.36331  0.043214733  0.042836605            7 
 1151000    0.7909592   -4.9568765    597.79775  0.043281042  0.042812434            6 
 1152000   0.78662683   -4.9516814    599.18744  0.043343999  0.042788362            3 
 1153000   0.78686453   -4.9682791    597.21179  0.043163616  0.042764097            3 
 1154000   0.80836887   -4.9511504    597.48106  0.043145657  0.042740092            7 
 1155000    0.7828014   -4.9338513    598.26531  0.043164885  0.042716016            5 
 1156000   0.77729171   -4.9489696    599.67101  0.043228879  0.042691834            8 
 1157000    0.7786618   -4.9833337    596.23715  0.042944191  0.042667731           12 
 1158000   0.77505923   -4.9885963    600.50891  0.043214516  0.042643519           11 
 1159000   0.79754682   -4.9509709    598.10923   0.04300469  0.042619673            6 
 1160000   0.79644132   -4.9726695    598.74569   0.04301334  0.042595746            6 
 1161000   0.78027394   -4.9360859    600.61972  0.043110804  0.042571789           11 
 1162000   0.79573407   -4.9858501    597.54353  0.042853093  0.042547772            4 
 1163000   0.79793575   -5.0134455    597.68663    0.0428265  0.042523745            4 
 1164000   0.78611271   -4.9744964    601.17333  0.043039328  0.042499941            6 
 1165000   0.79329273   -4.9753448    599.86453  0.042908765  0.042476216            6 
 1166000   0.78853713   -4.9935483    599.72572  0.042862044   0.04245238           10 
 1167000   0.77405911    -4.981216    600.03504  0.042847404  0.042428166            3 
 1168000   0.78813881   -4.9603999    599.17309  0.042749222  0.042403922           10 
 1169000   0.79027272   -4.9730409    601.28426  0.042863149  0.042379487            5 
 1170000   0.76785061   -4.9969245    599.86025  0.042725089  0.042355181            7 
 1171000   0.78100065   -4.9862642    598.94972  0.042623806  0.042330955            3 
 1172000   0.77606879   -4.9740513    600.23592  0.042678891  0.042306724            8 
 1173000   0.78901586   -5.0020285    598.66399  0.042530832  0.042282056            5 
 1174000   0.78947882   -4.9815074    601.31204   0.04268257    0.0422576            7 
 1175000   0.78026361   -5.0117259    600.14515  0.042563486  0.042233409           11 
 1176000   0.79201598   -4.9990744    600.70156   0.04256672  0.042209026            8 
 1177000   0.78627311   -4.9771484     601.7654  0.042605876  0.042184705           12 
 1178000   0.77959194   -4.9891382    600.50845   0.04248079  0.042160466            6 
 1179000   0.78908613   -4.9812178    603.45322  0.042652899  0.042136339            6 
 1180000   0.76277434   -4.9790301    601.48606  0.042477829   0.04211222            3 
 1181000   0.79641867   -4.9849961    603.35453  0.042573704  0.042088075            3 
 1182000    0.7620677   -4.9639628    603.66478  0.042559559  0.042064086            5 
 1183000   0.79060018   -4.9922804    602.55125  0.042445143  0.042040029            3 
 1184000   0.78969577   -5.0318516    601.89039  0.042362781  0.042015672            4 
 1185000   0.78013169   -4.9958748    602.13459  0.042344205  0.041991647            7 
 1186000   0.77057009   -4.9830794      602.605  0.042341554  0.041967245            6 
 1187000   0.77163545   -4.9819302    602.55281  0.042302219  0.041942982            8 
 1188000   0.78251795   -4.9908902    602.06238   0.04223221  0.041918657            3 
 1189000   0.78383942   -4.9905335    602.72857  0.042243382  0.041894042            8 
 1190000   0.77867954   -4.9942809     604.9602   0.04236416  0.041869681           18 
 1191000    0.7771226   -5.0134791    603.28285  0.042211226   0.04184534           10 
 1192000   0.79265604   -5.0152744    602.55805  0.042125143  0.041821204            5 
 1193000   0.76848774   -4.9923847    604.28702  0.042210605  0.041797229            4 
 1194000   0.76264668   -5.0039575    603.44479  0.042116471  0.041773069            5 
 1195000    0.7668876   -5.0008123    604.02953  0.042122003  0.041748936            5 
 1196000   0.77608389   -4.9919442    603.50819  0.042050459  0.041724547            8 
 1197000   0.79366562   -5.0135028    605.58402  0.042159846  0.041700276            9 
 1198000   0.76801984   -4.9988749    606.83113  0.042211403  0.041676031            3 
 1199000   0.76073059   -5.0104846    604.59439  0.042020739  0.041651763            6 
 1200000   0.76804147    -5.027937    604.25901  0.041962431  0.041627427           10 
 1201000   0.77582536   -5.0258715    605.08861  0.041985055  0.041603122            7 
 1202000    0.7749681   -4.9963233    605.61967  0.041986943  0.041578579            4 
 1203000   0.78099006    -5.002638    605.09023  0.041915366  0.041554336            3 
 1204000   0.78213158   -4.9884959    607.07802  0.042018135  0.041530159            8 
 1205000   0.76227253   -5.0017244    606.38243  0.041935161  0.041506078            4 
 1206000   0.77739583   -5.0198002    606.63194   0.04191763  0.041481942            3 
 1207000   0.78505921   -5.0190865    607.58064  0.041948401  0.041457701           17 
 1208000   0.77081092   -5.0080272    607.55263  0.041911743  0.041433513            7 
 1209000   0.76891154   -5.0232354    605.41663  0.041729848  0.041409337            7 
 1210000   0.76357505   -4.9903142    607.10471  0.041811619  0.041384992            6 
 1211000   0.75454912   -4.9937015    608.61967  0.041881343  0.041360905           12 
 1212000   0.76323064   -5.0135868    607.99051  0.041803528  0.041336798            3 
 1213000   0.76030532   -4.9964812      608.095  0.041776243  0.041312578            4 
 1214000   0.75759585   -5.0315666    605.43063   0.04155894  0.041288215           16 
 1215000   0.75802953   -5.0335224    606.22192  0.041579007  0.041263868            3 
 1216000   0.75112929   -5.0167793    607.63661  0.041641764  0.041239686            4 
 1217000   0.76238551    -5.034846    606.16539  0.041506806  0.041215221           10 
 1218000   0.78274943   -5.0144389    607.55642  0.041567899  0.041190886            5 
 1219000   0.74306349   -5.0092179    609.20703  0.041646639  0.041166523            5 
 1220000    0.7802107   -4.9928989    609.47049  0.041630498  0.041142706            4 
 1221000   0.76428602   -5.0289597     608.9502  0.041560892  0.041118541            6 
 1222000   0.75291546   -5.0242937    608.83177  0.041518806  0.041094428            5 
 1223000   0.75376352   -5.0309432    608.19597  0.041441535  0.041070376            4 
 1224000   0.77267385   -5.0556547    609.73803  0.041512665  0.041045939            8 
 1225000   0.75956301   -5.0336202    609.27899  0.041447551  0.041021624            7 
 1226000   0.75993804   -5.0343441    608.59742  0.041367416  0.040997351           11 
 1227000   0.76135282   -5.0293288    609.01943  0.041362363   0.04097333            5 
 1228000    0.7496383   -5.0277065    609.46969  0.041359235  0.040949272           10 
 1229000   0.77177169   -5.0206297    608.73467  0.041275744  0.040925008           16 
 1230000    0.7731047   -5.0361735    610.73955  0.041378018  0.040900872            4 
 1231000   0.75271729   -5.0256192    610.58709  0.041334084  0.040876623            4 
 1232000   0.75518931   -5.0463237    609.66857  0.041238404  0.040852681            6 
 1233000   0.75619832   -5.0246961    611.18371  0.041307361  0.040828672            7 
 1234000   0.76980155   -5.0417573    609.30265  0.041146856  0.040804391            7 
 1235000   0.75228829   -5.0293628    608.92723  0.041088207  0.040780005            5 
 1236000   0.77906069   -5.0388814    608.48307  0.041025018  0.040755691            5 
 1237000   0.75905068   -5.0422167    609.53916  0.041062999  0.040731584            4 
 1238000   0.75953009   -5.0598131     611.5154  0.041162857  0.040707281           14 
 1239000   0.73669106   -5.0592351    609.92258  0.041022503  0.040682902            3 
 1240000   0.76706424   -5.0045426    611.48522  0.041094437  0.040658993            9 
 1241000   0.75998828   -5.0521305    610.80416  0.041015589  0.040635057           10 
 1242000   0.74696841   -5.0458699    610.98649  0.040994799  0.040610859           16 
 1243000   0.77044988   -5.0332348    612.47265  0.041061454  0.040587024            4 
 1244000   0.76523414   -5.0508931    612.16752  0.041008007  0.040563009            8 
 1245000    0.7671686   -5.0568375    611.82558   0.04095218  0.040538968           13 
 1246000   0.75512344   -5.0351949    613.06027   0.04100189  0.040515264            5 
 1247000   0.75265873   -5.0540021    610.89978  0.040824631  0.040491677            9 
 1248000   0.75183969   -5.0523443       612.67  0.040910123  0.040467759           14 
 1249000   0.74724761   -5.0529285    612.26485  0.040850337  0.040443845            4 
 1250000   0.75721028   -5.0221012     614.4279   0.04096186  0.040420225            6 
 1251000   0.76438172   -5.0404762    612.21255  0.040781545  0.040396361           10 
 1252000   0.75360198   -5.0422185    613.27934  0.040819978  0.040372584           12 
 1253000   0.74957682    -5.031584    615.16081  0.040912531  0.040348703            8 
 1254000   0.75019203   -5.0439522    615.23323  0.040884718  0.040324725            9 
 1255000   0.74361692   -5.0447804    614.04899  0.040773505   0.04030089            8 
 1256000   0.75374082   -5.0655761    612.54579  0.040641308  0.040276867            7 
 1257000   0.75711775   -5.0600985    615.26991  0.040789572  0.040253042           10 
 1258000    0.7657954   -5.0578115    615.15153  0.040749307  0.040229227            4 
 1259000   0.76854138   -5.0576552    613.77588  0.040625886  0.040205458            5 
 1260000   0.75666049   -5.0920249    614.05839  0.040612327  0.040181479           10 
 1261000   0.73875804   -5.0634975    613.90495  0.040569981  0.040157308            3 
 1262000   0.76048453   -5.0631813    615.02894  0.040612053  0.040133297            5 
 1263000    0.7297516   -5.0583466    613.66453  0.040489874  0.040109281            9 
 1264000   0.75605514   -5.0584685    615.19103  0.040558481  0.040085195            8 
 1265000   0.73030467   -5.0583169    615.56636  0.040551144  0.040061128            6 
 1266000   0.75363441   -5.0795876    612.89469  0.040343252  0.040036876            5 
 1267000    0.7370009   -5.0502444    616.07062  0.040520299  0.040012684           11 
 1268000   0.72574658   -5.0397053    614.47228  0.040383299  0.039988452            5 
 1269000   0.73612686   -5.0684276    614.62111   0.04036125  0.039964243            7 
 1270000   0.75313149   -5.0582902    615.06262  0.040358439  0.039939977           11 
 1271000   0.74059664   -5.0773924    614.64922  0.040299582  0.039915444            6 
 1272000   0.74056404   -5.0709832    613.92915  0.040220725  0.039890954            5 
 1273000   0.74904888   -5.0618803    614.26918  0.040211389  0.039866589            5 
 1274000   0.75570615   -5.0945847    613.61318  0.040136917  0.039842312           17 
 1275000   0.74302064   -5.0760966    613.61358  0.040105463  0.039817717            8 
 1276000   0.74848967   -5.0780371    614.54538  0.040134886  0.039793319            5 
 1277000   0.72768118    -5.097898    615.63123  0.040174317  0.039768766            6 
 1278000   0.74783056   -5.0724997    616.14144   0.04017615  0.039744309            5 
 1279000   0.72997477     -5.07661    615.74745  0.040119068  0.039720092            7 
 1280000   0.74369363    -5.081798    617.14243  0.040178543  0.039695727           10 
 1281000   0.74055179   -5.0848912    614.58103  0.039980551  0.039671316            3 
 1282000   0.73281552   -5.0409392    616.66029  0.040084523  0.039646896            5 
 1283000   0.74177691   -5.0962308    613.63214  0.039856595  0.039622337           12 
 1284000   0.73239738   -5.0800109    615.53242  0.039948885  0.039597532            6 
 1285000    0.7447665   -5.0619171    613.92532  0.039813575  0.039572905            6 
 1286000   0.73056393   -5.0696724    613.36023  0.039745998  0.039548057           10 
 1287000   0.73450609   -5.0881657    613.70515  0.039737448  0.039523314            5 
 1288000   0.75459025   -5.0691639    615.50761  0.039823215   0.03949851           12 
 1289000   0.74530007   -5.0887196     614.2321  0.039709859  0.039473755            6 
 1290000   0.75789849   -5.0816294    614.97564  0.039727108  0.039448977            7 
 1291000   0.73445272   -5.1106843    615.61361  0.039737517  0.039424311            9 
 1292000   0.73131403   -5.0986483    616.07993  0.039736838  0.039399617            3 
 1293000   0.74291444   -5.0837729     614.9973   0.03963633  0.039374922            6 
 1294000   0.74535978   -5.0834584    618.87188  0.039855221  0.039350316            7 
 1295000   0.71769533   -5.0999985    614.28127  0.039529039  0.039325552            6 
 1296000   0.73892983   -5.0711854     616.8767  0.039665426  0.039300747           14 
 1297000    0.7327081    -5.080494    618.34934  0.039729462  0.039276118            9 
 1298000   0.73637135   -5.0823657    615.79466   0.03953484  0.039251647            6 
 1299000   0.76210746   -5.0710942    619.85442  0.039764846   0.03922719            3 
 1300000   0.72584789   -5.1028128    616.03429  0.039489377  0.039202874            7 
 1301000   0.75669467   -5.1154505    615.64395  0.039434022  0.039178317            5 
 1302000   0.72512312   -5.0909767    617.73183  0.039537367  0.039153785            8 
 1303000   0.72840978   -5.1097883    615.81518  0.039384445  0.039129241           10 
 1304000    0.7390432   -5.1026308    616.93815  0.039426006  0.039104743            3 
 1305000   0.73433238   -5.1054438    614.58418  0.039245477   0.03908017            7 
 1306000   0.74220672   -5.0678095      617.766  0.039418454  0.039055836            5 
 1307000   0.73503944   -5.1094366    617.62615  0.039379377  0.039031421            7 
 1308000   0.72186719   -5.0527038    619.31871  0.039457104  0.039007084            8 
 1309000   0.73667069   -5.0903838    618.33512  0.039364344  0.038982751            4 
 1310000   0.71047186   -5.1081155    619.47764  0.039406975  0.038958249            6 
 1311000   0.73931546   -5.1033743    617.28637  0.039237628  0.038933776            4 
 1312000    0.7080823   -5.1072176    615.59745  0.039100447  0.038909224            6 
 1313000   0.73157638   -5.1139724    618.41504  0.039249495    0.0388846            4 
 1314000    0.7253567   -5.1170696    617.84163  0.039183259  0.038860139           11 
 1315000   0.73446467   -5.0896891    619.31687   0.03924695  0.038835767            8 
 1316000   0.71931028   -5.1230313    618.25482  0.039149875  0.038811611            6 
 1317000   0.72915039   -5.1187836    619.23357  0.039182079  0.038787372            6 
 1318000   0.71928366   -5.0957113    621.53075  0.039297594  0.038762997            2 
 1319000   0.73472475   -5.0967156    619.64163  0.039148448  0.038738927            9 
 1320000   0.73239571    -5.093707    618.92391  0.039073479  0.038714827           13 
 1321000   0.73191576   -5.1341956    620.33872  0.039133152  0.038690673            6 
 1322000    0.7262017   -5.1113779    618.75274  0.039003577  0.038666591           18 
 1323000   0.71588511   -5.1142623    617.83389  0.038916219  0.038642321            5 
 1324000   0.72391082   -5.1061327    619.56615  0.038995855  0.038618023            9 
 1325000   0.72560753   -5.0911227    620.37378  0.039017219  0.038593717           10 
 1326000   0.72495582   -5.1148818     620.5447  0.038998535  0.038569284            7 
 1327000   0.72012437   -5.1115638    617.53934  0.038780416  0.038544998            9 
 1328000   0.72097536   -5.1104833    620.36855   0.03892875   0.03852077            4 
 1329000   0.74102429   -5.1032137    620.62823  0.038915741  0.038496422            4 
 1330000     0.719616   -5.1053948    621.77976  0.038958632  0.038472293           11 
 1331000   0.72662168   -5.0997804    621.17518  0.038891509  0.038448282            6 
 1332000     0.730779   -5.1456779    618.72634  0.038709105  0.038424297            8 
 1333000    0.7135525   -5.1189899    620.04577  0.038762552  0.038400193            4 
 1334000   0.72978494   -5.0919263    622.01414  0.038856456  0.038376105           10 
 1335000   0.72176592   -5.1118778    621.28855  0.038782057  0.038351978            6 
 1336000   0.72461366   -5.1174552    620.20089  0.038685185  0.038327909           14 
 1337000   0.73375369   -5.0738155    624.65423  0.038933821  0.038303983           16 
 1338000   0.70664548   -5.1045983    622.29185  0.038757589  0.038280222            9 
 1339000   0.71296799   -5.1041568    623.41083  0.038798284  0.038256259           10 
 1340000   0.71157988   -5.1401034    621.87818  0.038674016   0.03823223            9 
 1341000   0.71324521   -5.1195113    622.02793  0.038654482  0.038208331            9 
 1342000   0.74054142   -5.1190189     622.7891  0.038672945   0.03818442            6 
 1343000   0.72492545   -5.1489074    622.93894  0.038653446  0.038160548            6 
 1344000   0.72395516   -5.1361514    622.69432  0.038609519  0.038136893            6 
 1345000   0.71150188   -5.1008017    624.02684  0.038663373  0.038113207            6 
 1346000   0.71031266   -5.1438097    622.51966  0.038541336  0.038089551            4 
 1347000   0.73248202    -5.110891    624.97635  0.038664709  0.038065783           10 
 1348000   0.70531066   -5.1313342    623.38653  0.038537743  0.038042169            6 
 1349000   0.70598224   -5.1373783    624.58327  0.038583103  0.038018393            9 
 1350000   0.71842108   -5.1520992    622.30243   0.03841373  0.037994665           10 
 1351000   0.71042836   -5.1387344    624.22883  0.038504122  0.037970993            5 
 1352000   0.71439265   -5.1263846    624.04268  0.038464169  0.037947427            8 
 1353000   0.70634376   -5.1294629    624.34258  0.038454212  0.037923852            7 
 1354000   0.70195628   -5.1378919    626.34489  0.038549046  0.037900258            7 
 1355000    0.7244061   -5.1354991    624.68951  0.038418789  0.037876834            8 
 1356000   0.69700475   -5.1350206    624.38303  0.038371622  0.037853333            9 
 1357000   0.70979981   -5.1483788    623.38513  0.038282064  0.037829637           11 
 1358000   0.70893656   -5.1437733    626.05584  0.038417761  0.037805971            8 
 1359000   0.70848866    -5.129119    623.37323  0.038224995  0.037782344            5 
 1360000   0.70346117    -5.175196    623.89121  0.038228628  0.037758822           14 
 1361000   0.71427391   -5.1427181    625.90438  0.038323805  0.037735319            4 
 1362000   0.70627362    -5.133039    624.88621  0.038233371  0.037711927            7 
 1363000   0.72446652   -5.1209692    626.75157  0.038319367  0.037688546           14 
 1364000   0.70950414   -5.1422119    625.36539  0.038206586  0.037665133           10 
 1365000    0.7121573   -5.1404875     625.6381  0.038195244  0.037641919            5 
 1366000   0.70504073   -5.1412708    625.46897  0.038156965  0.037618587            4 
 1367000    0.7099718    -5.153828    626.24579  0.038176407  0.037595046           15 
 1368000   0.71536447   -5.1617241    625.67919  0.038113986  0.037571497           13 
 1369000   0.70206492   -5.1702709     627.2597  0.038182353  0.037548079            5 
 1370000   0.70458735   -5.1324398    626.52289  0.038109665  0.037524773           14 
 1371000   0.70539794   -5.1388004    626.61297  0.038087343  0.037501444            5 
 1372000   0.70337184   -5.1659225    623.87295  0.037893158  0.037478018           10 
 1373000   0.70658443   -5.1781655    624.94113  0.037930391  0.037454438            8 
 1374000   0.70314989    -5.154342    626.30879  0.037985735  0.037430805            7 
 1375000   0.69411319   -5.1432992    623.59975  0.037793924  0.037407301            6 
 1376000   0.69955865   -5.1375352     626.9375  0.037968598  0.037383796           10 
 1377000   0.70005796   -5.1472772    625.71481  0.037867031  0.037360287            6 
 1378000   0.69253978   -5.1674334    626.76835  0.037903263  0.037336664            7 
 1379000   0.69054915   -5.1730292    626.42637  0.037855111  0.037313051            7 
 1380000   0.71984969   -5.1784191    625.91448  0.037796768  0.037289583            7 
 1381000   0.70567686   -5.1628011     627.1633  0.037844756  0.037266088            7 
 1382000   0.69850934   -5.1801371    626.27869  0.037764031  0.037242586            6 
 1383000   0.71707065   -5.1203996    628.13707  0.037848703  0.037219228           15 
 1384000   0.71117036   -5.1737096    629.02674  0.037874924  0.037196036           10 
 1385000   0.70716044   -5.1652661    626.96602  0.037723587  0.037172495            6 
 1386000   0.69945519   -5.2036958     627.3188  0.037717581  0.037149092           12 
 1387000   0.68823725   -5.1552767     626.6884  0.037652512  0.037125644            6 
 1388000     0.708459   -5.1744101    628.05714  0.037707561  0.037102219           10 
 1389000   0.70077357   -5.1507673    627.58513  0.037652096  0.037078715           11 
 1390000   0.68986295    -5.147346    627.38269  0.037612871  0.037055344            4 
 1391000    0.7060456   -5.1803713    627.06415  0.037566747   0.03703195           10 
 1392000   0.69257295   -5.1669242    628.31769  0.037614804  0.037008687            7 
 1393000   0.70420271   -5.1668789    628.01964  0.037569971  0.036985513            9 
 1394000   0.69353755   -5.1622589    628.92316  0.037597033  0.036962279            4 
 1395000    0.6886129   -5.1519156    627.36481   0.03747699  0.036939119           12 
 1396000   0.70410878    -5.167574    629.13312  0.037555702  0.036915963           26 
 1397000   0.68630124   -5.1733587    630.03071  0.037582362  0.036892665           16 
 1398000   0.69732123   -5.1440579    629.44438  0.037520528  0.036869658            8 
 1399000   0.69484108   -5.1642517     630.1917  0.037538224  0.036846774           10 
 1400000    0.6834437   -5.1923767    628.62251  0.037418007  0.036823744            6 
 1401000    0.6840991   -5.1844893     628.7191  0.037397044   0.03680062           27 
 1402000   0.69598161   -5.1734379    629.19735  0.037398796  0.036777409            4 
 1403000   0.71431557   -5.1755497    630.07961  0.037424543  0.036754369            9 
 1404000   0.68971014   -5.2069072    628.69442  0.037315671  0.036731253           12 
 1405000    0.6914145   -5.1593851    629.73333  0.037350732  0.036707982            8 
 1406000   0.68816869   -5.1968498    629.59071  0.037315713  0.036684811           28 
 1407000   0.68314388   -5.1744112    629.76215  0.037299345   0.03666161            4 
 1408000   0.69736013   -5.1764578    630.86905  0.037338367  0.036638465            6 
 1409000   0.69259312   -5.1656184    631.26081  0.037335038  0.036615507            7 
 1410000   0.70977279   -5.1839877    629.26715   0.03719073  0.036592274           11 
 1411000   0.69640835   -5.1696731    631.13154  0.037274483  0.036569367           18 
 1412000    0.6923358   -5.1633029    631.19134  0.037251613  0.036546538           10 
 1413000   0.69662229   -5.1994259    630.47373  0.037182928  0.036523727           10 
 1414000   0.68418685   -5.2114843    630.01587  0.037129648  0.036500869            7 
 1415000   0.68948535   -5.1803521    631.13292  0.037169194  0.036477952           15 
 1416000   0.69214684   -5.2091783    630.51605  0.037106642  0.036455113           15 
 1417000   0.68363406   -5.1874054    630.40779  0.037074088  0.036432239            9 
 1418000   0.69183853   -5.1868615     632.7003  0.037182669  0.036409416           13 
 1419000   0.68592879   -5.1996978    630.48644  0.037026453  0.036386595           11 
 1420000    0.6864543   -5.2233794    631.83533  0.037079538  0.036363647            6 
 1421000   0.67981997   -5.1848602    632.47539   0.03709098  0.036340901            9 
 1422000   0.71141992   -5.1699435    632.44428  0.037063073  0.036318129            6 
 1423000   0.68126266   -5.1992908    630.28239  0.036910423   0.03629538           13 
 1424000   0.68725499   -5.2186733    631.56374  0.036959488  0.036272476           15 
 1425000   0.68032572    -5.215345    630.75239  0.036886105  0.036249599            6 
 1426000   0.68021288   -5.2190968    632.43798  0.036958741  0.036226755            5 
 1427000   0.68310126   -5.2124818    630.56947  0.036823725   0.03620375           10 
 1428000   0.67952042   -5.1900509     632.9355  0.036936012  0.036180958            5 
 1429000   0.68765665   -5.1991103    631.99991  0.036855605  0.036158031            5 
 1430000   0.67628305   -5.2113836    631.11993  0.036778551  0.036135296            7 
 1431000   0.67462349    -5.190833    633.05606  0.036865599   0.03611263            6 
 1432000   0.67790656   -5.2021176    631.93657  0.036774707  0.036089941            7 
 1433000   0.68975918   -5.2097457    632.96819  0.036809037  0.036067159            7 
 1434000   0.68249075   -5.1875144    632.08362  0.036731963  0.036044423            7 
 1435000   0.67186451   -5.1923984    633.44528   0.03678544  0.036021659           14 
 1436000   0.68495653   -5.2125704    633.49136  0.036762497  0.035999048            4 
 1437000   0.67758121   -5.2179719     631.4584  0.036619021   0.03597636            7 
 1438000   0.67090327   -5.1976605    631.75972  0.036611018  0.035953544            8 
 1439000   0.68051975   -5.2084808    634.67706  0.036754521  0.035930682            6 
 1440000    0.6770624    -5.187819    633.50652  0.036661257  0.035907948           11 
 1441000   0.67767939    -5.213102    634.27961  0.036680523  0.035885154            9 
 1442000   0.67466568    -5.208056    633.72595   0.03662309  0.035862508           13 
 1443000    0.6867449    -5.215364    634.19696  0.036624911  0.035839877           17 
 1444000   0.67548179   -5.2299493    632.54895  0.036504441  0.035817334            5 
 1445000   0.68064934   -5.2040099    632.45415  0.036473711  0.035794705            9 
 1446000   0.67565211   -5.2147812    634.07674  0.036541997  0.035772163            8 
 1447000   0.67739697   -5.2292669     631.7881   0.03638494  0.035749544           10 
 1448000   0.67829143   -5.2301099    634.74688  0.036530092  0.035727013            5 
 1449000   0.67154516   -5.2368307    633.23136  0.036417723  0.035704476            7 
 1450000   0.68638254   -5.2045095    632.76681  0.036365909  0.035681829            6 
 1451000    0.6716172   -5.2203692    633.97529  0.036410251  0.035659302            8 
 1452000   0.66710412   -5.2113041    634.06578  0.036390368   0.03563686            7 
 1453000   0.68327342   -5.1995297    635.09827  0.036424539    0.0356143            8 
 1454000   0.68666142   -5.2249119    634.06287  0.036340146  0.035591981            8 
 1455000   0.67120015   -5.2329026    633.84534  0.036302712  0.035569569           19 
 1456000   0.65998403   -5.2090233    634.97108  0.036342209  0.035547116            9 
 1457000    0.6707124   -5.2042655    636.53815  0.036406895  0.035524841           10 
 1458000   0.66382915   -5.2251327    634.93186  0.036290116  0.035502445            6 
 1459000   0.67379358   -5.2217426    633.49083  0.036182935  0.035480111           12 
 1460000   0.66904954   -5.2279459    634.41632  0.036210977  0.035457869           11 
 1461000    0.6862542   -5.2173944     635.3171  0.036237571  0.035435659            6 
 1462000   0.66366335   -5.2335411    635.50503  0.036223497  0.035413557           10 
 1463000   0.67150098   -5.2281503    634.94839  0.036167031  0.035391481           17 
 1464000   0.66867656   -5.1943822    635.80179  0.036190903  0.035369323           12 
 1465000   0.66458092   -5.2102038    636.84251  0.036225399   0.03534733            3 
 1466000   0.66890645   -5.2228746    637.78259  0.036254126  0.035325285           11 
 1467000   0.66057699   -5.2253504    637.02745  0.036186517  0.035303305            5 
 1468000   0.64869769   -5.2351379    633.15417  0.035941994  0.035281055           21 
 1469000    0.6668838    -5.221808    637.07054  0.036139695  0.035258875           28 
 1470000   0.68002395   -5.2411834    636.43279  0.036078956  0.035236616           15 
 1471000   0.65917716   -5.2400225    635.55164  0.036004511  0.035214492           12 
 1472000   0.67335661   -5.2229564    636.61405  0.036040197  0.035192331           13 
 1473000   0.67711505   -5.2552994    637.45708  0.036063424  0.035170159           15 
 1474000   0.67241792   -5.2366387    636.56575  0.035988566   0.03514815            6 
 1475000    0.6666237   -5.2367521    637.95256  0.036042517  0.035126016           12 
 1476000   0.66469316   -5.2439805     636.6664  0.035945483  0.035103853           11 
 1477000    0.6814161   -5.2508971    634.23647  0.035784048  0.035081552            8 
 1478000   0.66484301   -5.2366325    637.37554  0.035936825  0.035059377            8 
 1479000   0.66057181   -5.2396641    637.12292  0.035898294  0.035037173            5 
 1480000   0.66067507   -5.2486661    636.27353  0.035826212  0.035015034            7 
 1481000   0.66517971   -5.2441622    636.56757  0.035818567  0.034992946           11 
 1482000   0.66093977   -5.2320031    636.72018  0.035802979  0.034970705            7 
 1483000   0.65717317   -5.2395439    635.98006  0.035737248  0.034948561            6 
 1484000   0.67416704   -5.2537288    638.01561  0.035827471  0.034926426            6 
 1485000   0.65107843   -5.2463426    634.44158  0.035602782  0.034904272           14 
 1486000   0.66749083   -5.2563622    636.08063   0.03567074  0.034882059            9 
 1487000   0.64957998   -5.2547833    635.65949   0.03562315  0.034859767            4 
 1488000   0.66912248   -5.2333792    636.43214  0.035642481  0.034837501           12 
 1489000   0.66639624   -5.2629496     635.4409  0.035563068  0.034815195           13 
 1490000   0.66252405   -5.2444308     638.8987  0.035732589  0.034793281           11 
 1491000   0.65648315   -5.2621038    636.37535  0.035567591  0.034771224           10 
 1492000   0.64951239   -5.2745599    635.60391  0.035500665  0.034749223            9 
 1493000   0.65215894    -5.265669    636.73885  0.035540235  0.034727131           23 
 1494000   0.66812423   -5.2483647    636.40565  0.035497861  0.034705115           11 
 1495000   0.65293349   -5.2721702    637.81822  0.035552855  0.034682933           11 
 1496000   0.68006202   -5.2523452    637.19117   0.03549416  0.034660775            6 
 1497000   0.66146716   -5.2627211    637.80102  0.035504399  0.034638683            8 
 1498000   0.64398655   -5.2464187    637.85406  0.035483648  0.034616565            8 
 1499000    0.6566395   -5.2521128    639.06429  0.035527257  0.034594585            5 
 1500000   0.64661641   -5.2679632    638.50766  0.035472648  0.034572564            7 
 1501000   0.65159213   -5.2658526    636.22497  0.035322284   0.03455042            9 
 1502000   0.65097979   -5.2566029    639.82806  0.035498672  0.034528464           11 
 1503000   0.64375425   -5.2549074    638.91407  0.035424377  0.034506548           14 
 1504000   0.65318003   -5.2848537    637.68181  0.035332547  0.034484563            6 
 1505000   0.65804127   -5.2719751    638.66866  0.035363713  0.034462719           11 
 1506000   0.65394936   -5.2833797    638.80171  0.035347594  0.034440889            5 
 1507000   0.65468356    -5.276659    638.94301  0.035331951  0.034419177           13 
 1508000   0.65029358   -5.2703486    638.26789  0.035271214  0.034397368           10 
 1509000   0.64812117   -5.2703083     639.0585  0.035291501  0.034375568            6 
 1510000   0.64672196   -5.2744817    637.10305  0.035160212  0.034353731           22 
 1511000   0.64631449   -5.2786313    638.78202   0.03522954  0.034331972           13 
 1512000   0.65560426   -5.2488642     640.4481  0.035298065  0.034310274           10 
 1513000   0.65670494   -5.2803968    639.36283  0.035214961   0.03428861            8 
 1514000   0.64699523   -5.3054387    638.98664  0.035170995  0.034266795           15 
 1515000    0.6325707   -5.2815404    638.26063  0.035107845  0.034244914           11 
 1516000    0.6520508   -5.2835907    640.84605  0.035226806  0.034223139           17 
 1517000   0.65125769   -5.2640161     640.3745  0.035177681  0.034201419           12 
 1518000   0.65088253    -5.266703    639.17475  0.035088645  0.034179764           11 
 1519000   0.64248593    -5.296525    639.75404  0.035097325  0.034158231           11 
 1520000   0.65154915   -5.3254294    639.54774  0.035062924  0.034136697            6 
 1521000   0.63510001   -5.3079249    639.27571  0.035024968  0.034115167            9 
 1522000   0.63845979   -5.2802591    641.17985  0.035106211  0.034093721            8 
 1523000   0.65254314    -5.285707    641.37602  0.035093894  0.034072251            8 
 1524000   0.63858214   -5.2721757    639.86316  0.034988143  0.034050955            6 
 1525000   0.64369033   -5.3023724    641.36031  0.035047011  0.034029559           10 
 1526000   0.64654104   -5.2697489    641.23333  0.035017111  0.034008293           12 
 1527000   0.64751059   -5.2826222    641.13619  0.034988878  0.033987001           17 
 1528000   0.63298194   -5.3047583     642.3195  0.035030514  0.033965763           10 
 1529000   0.65885374   -5.2939291      640.658  0.034917048  0.033944421           12 
 1530000    0.6345279   -5.2705948    641.77831  0.034955245   0.03392308           12 
 1531000   0.64116239   -5.3069905    641.75235  0.034931001   0.03390176           12 
 1532000   0.64293903   -5.2977944    641.94369  0.034918608  0.033880524            6 
 1533000   0.63345093   -5.3108591    640.75239  0.034831072   0.03385925            7 
 1534000    0.6349588   -5.2986818    642.26681  0.034890635  0.033837985           18 
 1535000    0.6501971   -5.3039907     641.1668  0.034808187   0.03381653           12 
 1536000   0.63146072   -5.3097503    642.59826  0.034863187   0.03379506           11 
 1537000   0.64037198   -5.3002614    640.30791  0.034716325  0.033773692           15 
 1538000   0.63649046   -5.3031256    642.11081   0.03479144  0.033752405           14 
 1539000   0.65189329   -5.3104635    641.56804  0.034739444  0.033731157            7 
 1540000   0.64825678   -5.2903744    641.67236   0.03472253  0.033709915            9 
 1541000    0.6522253   -5.3226187    641.34768   0.03468244  0.033688625            9 
 1542000   0.62598098   -5.2946109    641.62075  0.034674705    0.0336674            9 
 1543000   0.64831132     -5.27919    642.43132   0.03469601  0.033646223           10 
 1544000   0.63274783   -5.2927666    642.81426  0.034694206  0.033625109           29 
 1545000   0.64311183   -5.3301912     643.6324  0.034715879  0.033603851            7 
 1546000   0.62728016   -5.3115918    641.87048  0.034598452  0.033582624           16 
 1547000   0.63406055   -5.3233601    640.90058  0.034523841  0.033561412           40 
 1548000   0.63443708   -5.2957677    644.51928  0.034696344  0.033540435           26 
 1549000   0.63572869   -5.2967244    643.99561  0.034645772  0.033519543           13 
 1550000   0.64886926   -5.2632441    644.21137   0.03463502  0.033498756           13 
 1551000   0.62544576   -5.2760977    642.81212  0.034537509  0.033477808            9 
 1552000   0.63438442   -5.2973655    643.67152    0.0345614  0.033456866           10 
 1553000   0.63419552   -5.3256875    643.63563   0.03453722  0.033435831           10 
 1554000   0.63455332   -5.3215695    642.96406  0.034478982  0.033414868           15 
 1555000   0.64491667   -5.3135526    643.10588  0.034464409  0.033393849           28 
 1556000   0.62196816   -5.3020052    644.69996  0.034527633  0.033372857           10 
 1557000   0.61676179   -5.2994195    643.19167  0.034424731  0.033351925           25 
 1558000   0.63552152   -5.3513203    640.94912  0.034282687  0.033330863           22 
 1559000    0.6288177    -5.332056    643.63096   0.03440405   0.03330987           10 
 1560000   0.63135786   -5.3310438    643.69021  0.034385161   0.03328874           41 
 1561000   0.64125809   -5.3265242    644.51424  0.034407124  0.033267782            6 
 1562000   0.62561895    -5.351265    643.79722  0.034346842  0.033246921           12 
 1563000   0.63113421   -5.3387638    644.89002  0.034383132  0.033225984           24 
 1564000   0.64462758   -5.3432002    644.80842    0.0343568  0.033205113           22 
 1565000   0.64507301   -5.3162844    644.23744  0.034304443  0.033184407            9 
 1566000   0.63344556   -5.3079675    645.38965  0.034343851  0.033163771           13 
 1567000   0.63406617   -5.3380233    646.29831  0.034370257  0.033143165           10 
 1568000   0.63827025   -5.3391781    644.31268  0.034242808  0.033122463           10 
 1569000   0.61640132   -5.3052755    646.00782  0.034311017  0.033101811           18 
 1570000   0.62068801   -5.3306219    644.70861  0.034220202  0.033081104            7 
 1571000   0.62763091   -5.3468299    645.40472  0.034235345  0.033060491            8 
 1572000   0.62879073   -5.3159779    646.56796  0.034275231  0.033039961           16 
 1573000   0.63281053    -5.325115    646.01453  0.034224122  0.033019599            9 
 1574000   0.63230054      -5.3144    646.42595  0.034224161  0.032999228           10 
 1575000   0.62465397   -5.3482307    645.90798  0.034175025  0.032978826            8 
 1576000   0.62226316   -5.3365978    645.91213   0.03415356  0.032958395           14 
 1577000   0.61236395   -5.3057837    646.79466  0.034178539  0.032938089            4 
 1578000   0.63244194    -5.313549    648.43426  0.034243465  0.032917888            8 
 1579000   0.62192137   -5.3276848    649.10169  0.034257003  0.032897566            7 
 1580000   0.62160294   -5.3345118    646.78832  0.034113308  0.032877209            9 
 1581000   0.62382456   -5.3223878    647.76853  0.034143397  0.032857006           11 
 1582000   0.62830551   -5.3058213    648.40045  0.034155102  0.032836911            8 
 1583000   0.62116255   -5.3309085    648.81322  0.034155255  0.032816757           14 
 1584000   0.62070466   -5.3214177    647.21685  0.034049708   0.03279663           12 
 1585000   0.63159487   -5.3385796    647.36996  0.034036275  0.032776401            7 
 1586000   0.62755114   -5.3520222    645.36151  0.033909285  0.032756039           10 
 1587000   0.60835152   -5.3649652    645.18812  0.033878813  0.032735588           12 
 1588000   0.62150931   -5.3462509    647.41674   0.03397443    0.0327152           14 
 1589000   0.62443536   -5.3587546     646.1115  0.033884597  0.032694824           17 
 1590000    0.6257548   -5.3490506    647.28181  0.033924623  0.032674474           17 
 1591000   0.62569437   -5.3408714     648.4844   0.03396629  0.032654042           11 
 1592000   0.61730354   -5.3470409     647.4789  0.033892321  0.032633675            8 
 1593000   0.61211078   -5.3427081    645.88452   0.03378764  0.032613316           14 
 1594000   0.60936151   -5.3568609    647.53499  0.033852728  0.032592929           11 
 1595000   0.61618897   -5.3518388    646.27051  0.033765439  0.032572626           10 
 1596000   0.62293304   -5.3430697    647.10408  0.033787807  0.032552199           18 
 1597000   0.63091261    -5.330943    647.68677  0.033797055  0.032531916           14 
 1598000   0.61399834    -5.322061    648.53054  0.033819907  0.032511646           12 
 1599000   0.59673187    -5.356266    645.91267  0.033662324   0.03249129            9 
 1600000   0.61919888    -5.356124    647.80193  0.033739684   0.03247098           12 
 1601000   0.60671238   -5.3239319     647.0842  0.033681251  0.032450681           12 
 1602000   0.61462071   -5.3552311    646.74007  0.033642326  0.032430321           11 
 1603000   0.61142648   -5.3748696    645.51589  0.033557699   0.03240986           15 
 1604000   0.60647405   -5.3618492    645.94314  0.033558974  0.032389386            7 
 1605000   0.62635461    -5.346643    647.62171  0.033625219  0.032368934           10 
 1606000   0.59703831   -5.3702763    645.70977  0.033505073  0.032348537           13 
 1607000   0.60797045   -5.3450507    646.68263  0.033534673   0.03232828           14 
 1608000   0.60508827   -5.3496973    648.42342  0.033604033  0.032307973           25 
 1609000   0.61602156   -5.3676432    645.99762  0.033457511  0.032287698           28 
 1610000   0.61819038   -5.3812157    646.46969  0.033461164  0.032267275            8 
 1611000    0.6015764   -5.3613849    647.05075  0.033470451  0.032246968           14 
 1612000   0.60500752   -5.3699219    646.32744  0.033412295  0.032226655           13 
 1613000   0.60962726   -5.3607174    647.89697  0.033472668  0.032206396           24 
 1614000   0.60684408   -5.3285812    648.26401   0.03347088  0.032186193            8 
 1615000   0.61119228   -5.3614829    648.48557  0.033461588  0.032166001           15 
 1616000   0.60774093   -5.3669975    647.29962  0.033379725  0.032145687            9 
 1617000   0.60674817   -5.3667837    647.17612  0.033352717  0.032125391           12 
 1618000   0.60758525   -5.3614463    648.33377  0.033391727  0.032105155            4 
 1619000   0.59410466    -5.353073    647.21642  0.033313589  0.032084991           17 
 1620000   0.59632513   -5.3837268     647.4006    0.0333025  0.032064747            7 
 1621000   0.61354548   -5.3616697    649.14252  0.033371505  0.032044493            8 
 1622000   0.62802598   -5.3761325    646.99777   0.03324074  0.032024317            8 
 1623000   0.60335501   -5.3910117    647.06623  0.033223775  0.032004104           22 
 1624000   0.58491127   -5.3680269    647.82724  0.033242367   0.03198384           24 
 1625000   0.61006763    -5.377915    648.00899   0.03323123   0.03196362            6 
 1626000   0.60947465    -5.371189    647.62407  0.033191065  0.031943366           15 
 1627000   0.60659279   -5.3929062    646.36667  0.033106263  0.031923118           26 
 1628000   0.61631608   -5.3654201    648.88465  0.033214816  0.031902858           14 
 1629000   0.59930089   -5.3772106    647.67468  0.033132529  0.031882669           14 
 1630000   0.58541648   -5.3810326    646.59322  0.033056913  0.031862508           24 
 1631000   0.59868906   -5.3849116    649.62313  0.033191454  0.031842354            9 
 1632000   0.60448254   -5.3914506    648.19645  0.033098267  0.031822255           16 
 1633000   0.61187023   -5.3571136     649.7718  0.033158389   0.03180224           24 
 1634000   0.60316145   -5.3581892    650.13007  0.033156368  0.031782304           19 
 1635000    0.6130162   -5.3516531    648.59871  0.033058038  0.031762413            6 
 1636000   0.59870896    -5.373907    649.77832  0.033097918  0.031742582           13 
 1637000     0.610403   -5.4083218    647.64632  0.032969167  0.031722603           15 
 1638000   0.58695456   -5.3886971    647.84034   0.03295891  0.031702656           33 
 1639000   0.58002812   -5.4066472    647.27521  0.032910068  0.031682524           13 
 1640000    0.6073126   -5.3843439    647.72629  0.032912921  0.031662461           19 
 1641000   0.59667194    -5.402645    646.49266  0.032830219  0.031642256           20 
 1642000   0.58943075   -5.4182428    646.67179  0.032819315  0.031621907           18 
 1643000   0.60036985   -5.3856026    648.28887  0.032881359  0.031601627           23 
 1644000   0.59775648   -5.3899494    648.02095  0.032847777  0.031581438           11 
 1645000   0.59535381   -5.4194533    647.70034  0.032811567  0.031561317           11 
 1646000   0.60238045   -5.3958491    648.39957  0.032827034  0.031541139           11 
 1647000   0.59081623   -5.4133173    648.05989  0.032789915  0.031521081           16 
 1648000   0.58182996   -5.3871688    648.95679  0.032815371  0.031500986           11 
 1649000   0.60187722   -5.4050614    648.04989  0.032749641  0.031480874           19 
 1650000   0.59630516   -5.3926482    648.38222  0.032746577  0.031460868           12 
 1651000   0.59225533    -5.395738    648.49643  0.032732507   0.03144078           44 
 1652000   0.57504505    -5.402473    647.44841  0.032659827  0.031420724           65 
 1653000   0.59855257   -5.3965787    648.97028  0.032716792  0.031400584           41 
 1654000   0.59068118   -5.4063469    650.34094  0.032766069  0.031380584           11 
 1655000   0.59267942   -5.4132188    648.56312  0.032656753  0.031360596           12 
 1656000   0.57933929   -5.4267162    649.24695  0.032671445  0.031340681            8 
 1657000   0.58906464   -5.3973456    648.87311  0.032632926   0.03132074            8 
 1658000   0.58926083   -5.3973682    649.41303  0.032640382  0.031300905            8 
 1659000   0.60225794   -5.3880431    648.27565  0.032563575  0.031281107           20 
 1660000    0.5952679   -5.3854262      650.338   0.03264749  0.031261339           28 
 1661000   0.57170052   -5.3831985    649.42219  0.032581888  0.031241506           10 
 1662000    0.6005334    -5.388415    649.99145  0.032590827  0.031221566           14 
 1663000   0.58520665   -5.4145787    649.15921  0.032529526  0.031201657           20 
 1664000   0.58910822   -5.4122337    647.53426  0.032428599  0.031181721           20 
 1665000   0.58946674   -5.4294025    649.08662  0.032486818  0.031161777           18 
 1666000   0.59187043   -5.4213539    647.39028  0.032382467  0.031141847           35 
 1667000    0.5884988   -5.4031647    649.47227   0.03246712  0.031122075           23 
 1668000   0.59133891   -5.3978954    649.83755  0.032465905  0.031102304           12 
 1669000   0.59994052   -5.4080412    648.28773   0.03236907  0.031082531           26 
 1670000   0.59224561   -5.4310508    648.58306  0.032364424  0.031062679           10 
 1671000   0.58593995    -5.443879    647.00253  0.032266234  0.031042677           21 
 1672000   0.58189251    -5.421942    647.59267  0.032276349  0.031022688           11 
 1673000   0.56266417   -5.4253372    648.12638  0.032283641  0.031002736           15 
 1674000    0.5843122   -5.3991155     648.2394  0.032269982  0.030982822           23 
 1675000   0.58397097   -5.3972424    650.89715  0.032382943  0.030963041           14 
 1676000    0.5923664   -5.4025295    648.19468   0.03222925  0.030943275           21 
 1677000   0.58207416   -5.4051281     649.7337  0.032286509  0.030923414           17 
 1678000   0.59704606   -5.4177017    647.76542  0.032169518  0.030903696           17 
 1679000   0.58667116   -5.3941761    650.05117  0.032263806  0.030883938           15 
 1680000   0.59762481   -5.4152555    647.03553  0.032095016  0.030864141           11 
 1681000    0.5956013   -5.4070929    650.17027  0.032231324   0.03084442           10 
 1682000    0.5902084   -5.4281473    649.96336   0.03220191   0.03082481           10 
 1683000   0.58048431   -5.4270641    649.69074  0.032169278  0.030805139           25 
 1684000   0.59025185   -5.4153694    649.91705  0.032161374  0.030785388           21 
 1685000    0.5651273   -5.4308494    648.46596  0.032070522  0.030765673           13 
 1686000   0.58168729   -5.4311291    649.82597  0.032118721  0.030745961           11 
 1687000   0.57029681   -5.4062846    648.15852  0.032017315  0.030726256           14 
 1688000   0.57921659   -5.4194748     649.9162   0.03208512   0.03070665           16 
 1689000   0.57981034   -5.4240166    649.88747  0.032064707  0.030687033           11 
 1690000   0.58305336   -5.4395525     648.3618  0.031970503  0.030667286           11 
 1691000   0.56357678   -5.4447931    647.62458  0.031915266  0.030647464           20 
 1692000   0.58806329   -5.4382005    646.76066  0.031853854  0.030627622           26 
 1693000   0.58953215   -5.4123771    650.10986  0.031999895    0.0306079           37 
 1694000   0.57150329   -5.4420021    649.66799  0.031959268  0.030588171           27 
 1695000    0.5742486   -5.4251106    650.96075   0.03200397  0.030568553           12 
 1696000   0.57859111   -5.4259518    648.97965  0.031887758  0.030548871           22 
 1697000   0.58316315   -5.4180305    648.29355  0.031835276  0.030529217           37 
 1698000    0.5813881   -5.4270825    649.52203  0.031876817  0.030509586           13 
 1699000   0.56638461   -5.4246717    648.05712  0.031786204  0.030489963            7 
 1700000   0.56799616   -5.4517145    649.52651  0.031839535  0.030470336           13 
 1701000   0.58197778   -5.4512504    649.21491  0.031805551  0.030450698           13 
 1702000   0.57003044   -5.4554262     648.0289  0.031728794  0.030431071           13 
 1703000   0.58238065   -5.4501544    648.34782  0.031725769  0.030411453           17 
 1704000   0.57201894   -5.4551344    649.06623  0.031742284  0.030391877           13 
 1705000   0.57920662   -5.4548497    648.83213  0.031712225  0.030372339           18 
 1706000   0.57892115   -5.4616694    648.35156  0.031670162  0.030352703           10 
 1707000   0.57423747   -5.4252633    648.86733  0.031676788  0.030333027           16 
 1708000   0.57950136   -5.4477798    649.26322  0.031677557    0.0303134           11 
 1709000   0.58206554   -5.4666893    648.91236  0.031641913  0.030293801           12 
 1710000   0.58106654   -5.4783143    648.53619  0.031605078  0.030274167           12 
 1711000   0.56919864    -5.455609    649.21251  0.031619545  0.030254544            8 
 1712000   0.57790049   -5.4531968     649.5164  0.031615869  0.030234965            7 
 1713000   0.56293577   -5.4322081    650.15991  0.031628717  0.030215449           13 
 1714000   0.55575858   -5.4560814    648.71226   0.03153988  0.030195944            7 
 1715000   0.56625829   -5.4531969    648.39299  0.031505976  0.030176444           14 
 1716000     0.551519   -5.4549055    647.51209  0.031444837  0.030156867           20 
 1717000   0.56461413    -5.454013    648.61044  0.031479831  0.030137327           11 
 1718000   0.55717806   -5.4861228    648.88726  0.031474935  0.030117776           24 
 1719000   0.55706512   -5.4797778      648.228  0.031424666  0.030098147           11 
 1720000   0.57883643   -5.4741745     649.0546  0.031446444  0.030078593           10 
 1721000   0.55704521   -5.4659989    649.72603  0.031460683  0.030058997           50 
 1722000   0.57212921   -5.4675542    648.09198  0.031363336  0.030039398           21 
 1723000   0.55963705   -5.4507828    649.06398  0.031392145  0.030019918           28 
 1724000   0.55933476   -5.4611982    649.91222  0.031414937  0.030000474           18 
 1725000   0.54514133   -5.4645493    648.41613  0.031324451  0.029980938           41 
 1726000   0.55821473    -5.475413    648.36838  0.031303997  0.029961389           33 
 1727000   0.57104151   -5.4755798    648.55796  0.031295018  0.029941807           49 
 1728000   0.55057951   -5.4961019     647.4925  0.031225526  0.029922167           26 
 1729000   0.56938232   -5.4604845    648.67728  0.031264569  0.029902573           14 
 1730000    0.5551683   -5.4823834    648.22688  0.031224801  0.029883088           16 
 1731000   0.56647769   -5.4646363    647.37323  0.031165667  0.029863589           17 
 1732000   0.55678885   -5.4691133    646.99155  0.031129309  0.029843967           19 
 1733000   0.56311431    -5.454386    649.03469  0.031209593  0.029824416           17 
 1734000   0.56151023    -5.461422    648.72885  0.031176896   0.02980486           22 
 1735000   0.57655876   -5.4593096    649.17546  0.031180377  0.029785351           56 
 1736000   0.55727682    -5.482948    648.40244  0.031125309   0.02976582           21 
 1737000   0.56618379   -5.4926413    648.89937  0.031131231  0.029746316           42 
 1738000   0.54572924   -5.4658407    647.09384  0.031026747  0.029726862           41 
 1739000   0.54761209    -5.488865    648.06134  0.031055268  0.029707339           35 
 1740000   0.55957458    -5.457077    650.47078  0.031152815  0.029687874           18 
 1741000    0.5695058   -5.4616085    647.33294  0.030984728  0.029668365           24 
 1742000   0.55740808   -5.4825715    648.93867  0.031043756  0.029648835           10 
 1743000   0.57098544   -5.4681776    647.74961  0.030969096  0.029629329           16 
 1744000   0.55489375   -5.4827758    648.76903  0.031000049  0.029609791           13 
 1745000    0.5496229    -5.479159    648.82435  0.030984926  0.029590316           38 
 1746000   0.55170601   -5.4841925    647.70228  0.030913626  0.029570822           18 
 1747000   0.55728908    -5.471117    648.16525  0.030918014  0.029551343           29 
 1748000   0.55829928   -5.4938254    647.62339  0.030874494  0.029531882           59 
 1749000   0.55487173   -5.4901665    647.66796  0.030858965  0.029512338           36 
 1750000   0.55154252   -5.4984617    648.31449  0.030872119  0.029492782           21 
 1751000   0.54938541   -5.4953205    647.64629  0.030822687  0.029473202           24 
 1752000   0.55276473   -5.4947088    648.39316  0.030840618  0.029453697           18 
 1753000   0.54387077   -5.4957904    648.48283  0.030827288  0.029434167           23 
 1754000   0.55073834   -5.4904429    647.34358  0.030755586  0.029414658           17 
 1755000   0.54435371   -5.4886465    647.97125  0.030767866  0.029395197           58 
 1756000      0.56254   -5.4893525    648.88643  0.030793775  0.029375789           50 
 1757000   0.55313027   -5.5076678    648.65528  0.030765286   0.02935635           96 
 1758000   0.54407463   -5.4972825    647.80091  0.030707286  0.029336912           43 
 1759000   0.54943974   -5.5037426     648.7209  0.030733414  0.029317495           33 
 1760000   0.54571755   -5.5021779    647.00164  0.030634547  0.029298105           53 
 1761000   0.55806033   -5.4884395    647.59419  0.030645192  0.029278724           27 
 1762000   0.55469391   -5.4975194    647.09871  0.030604366  0.029259304           34 
 1763000   0.54197344   -5.5107236    646.56411  0.030561737  0.029239887           30 
 1764000   0.55268334   -5.4814969    649.62866  0.030689185  0.029220483           27 
 1765000   0.55734921    -5.500412    647.35438  0.030564418  0.029201087           44 
 1766000   0.55911837   -5.4912768    648.99953  0.030624742  0.029181721           20 
 1767000   0.55370593   -5.4857811    646.02845  0.030467292  0.029162342           13 
 1768000   0.54394148   -5.5065796    647.76189  0.030531763  0.029142959           21 
 1769000   0.54110236   -5.4906469     647.5014  0.030502233  0.029123555           22 
 1770000   0.53977912   -5.4980349    647.59065  0.030489202  0.029104112           19 
 1771000   0.55076274    -5.515131     648.4419  0.030512041  0.029084744           29 
 1772000   0.55310232   -5.5143601    647.58578  0.030454561  0.029065368           13 
 1773000   0.54315053   -5.5046013    648.53434  0.030481967  0.029046009           19 
 1774000   0.54035584   -5.5089084     648.4498  0.030460814  0.029026718           43 
 1775000    0.5512539   -5.5264692    646.57608  0.030355684  0.029007396           54 
 1776000   0.54057357   -5.4878318     648.5499  0.030431208  0.028988145           17 
 1777000   0.54989921   -5.5070073    647.21158  0.030351322  0.028968851           29 
 1778000   0.54076446   -5.5104026    647.13867  0.030330834  0.028949569           32 
 1779000   0.55373763    -5.530831    645.83182  0.030252568  0.028930241           61 
 1780000   0.53835487   -5.5239627    648.40608   0.03035609  0.028910966           32 
 1781000   0.52980127   -5.5124588     649.5971  0.030394774  0.028891738           21 
 1782000   0.55348968   -5.5069479    647.14787  0.030263182  0.028872564           71 
 1783000   0.54065448    -5.512656    647.62062  0.030268303   0.02885337           26 
 1784000    0.5408117   -5.5050636    647.48689   0.03024509  0.028834199           25 
 1785000   0.53965019   -5.5258344    647.26598  0.030217833  0.028815106           22 
 1786000   0.53695685   -5.5091729    648.88533  0.030276471  0.028796053           28 
 1787000   0.53344954   -5.5190409    648.29109  0.030231817  0.028776965           52 
 1788000    0.5398685   -5.4953108    649.48361  0.030270489  0.028757943           34 
 1789000   0.53380674   -5.5139751    647.25894  0.030149941   0.02873883           72 
 1790000   0.54009929   -5.5176111    648.84267  0.030206828  0.028719722           55 
 1791000   0.53883899   -5.5089857    649.95624  0.030241776  0.028700618           23 
 1792000    0.5376805   -5.5334321    647.38771  0.030105455  0.028681561           46 
 1793000   0.53921665   -5.5360083    648.46515  0.030138741   0.02866248           13 
 1794000   0.54253177   -5.5520846    647.35484  0.030070366  0.028643349           48 
 1795000   0.53907601    -5.526516     648.0953   0.03008799   0.02862425           27 
 1796000   0.53242607   -5.5504918    646.72456  0.030007635  0.028605198           23 
 1797000   0.54170666   -5.5265237    648.84228  0.030089143  0.028586058           25 
 1798000   0.52099466   -5.5217485    646.82805  0.029979053  0.028566927           43 
 1799000     0.545801   -5.5253482    646.67472  0.029955286   0.02854786           28 
 1800000   0.54530125   -5.5220089    647.27376  0.029966378  0.028528775           33 
 1801000   0.53283963   -5.5419184    645.89799  0.029886082  0.028509689           45 
 1802000   0.54172823   -5.5235866    646.90656  0.029916138  0.028490593           32 
 1803000   0.52975203   -5.5331458    646.91991  0.029900162  0.028471526           30 
 1804000   0.53173734   -5.5208832    649.00831  0.029980059  0.028452522           32 
 1805000   0.52703572   -5.5650528    646.24618  0.029835927  0.028433501           71 
 1806000   0.52836836   -5.5556354    646.46794  0.029829639  0.028414399           17 
 1807000   0.53859779   -5.5508372    647.00458   0.02983788   0.02839536           15 
 1808000   0.52511204   -5.5675696    647.09508  0.029825547  0.028376316           33 
 1809000   0.53444309   -5.5475843    647.16778  0.029812409  0.028357308           21 
 1810000   0.53453153   -5.5257479    647.85019  0.029827357  0.028338295           20 
 1811000   0.52900712    -5.544217    646.86661  0.029765627  0.028319263            9 
 1812000     0.538702   -5.5432353    646.26712   0.02972163  0.028300177           13 
 1813000    0.5334866   -5.5601135    646.67782  0.029724114  0.028281172           31 
 1814000   0.51576765   -5.5628496    647.11988  0.029728035  0.028262094           59 
 1815000   0.53833487   -5.5584087    646.99441  0.029705896  0.028243112           31 
 1816000   0.53188571   -5.5507997    647.16001  0.029697137  0.028224128           19 
 1817000   0.52304828   -5.5610715    646.25247   0.02963917  0.028205174            9 
 1818000   0.52982308   -5.5549519     647.5524  0.029682453  0.028186223           16 
 1819000   0.52543296   -5.5450669    647.99543  0.029686432  0.028167382           20 
 1820000   0.51699606   -5.5439218    646.99196  0.029624174  0.028148522           17 
 1821000   0.53258906   -5.5561528    647.08737  0.029612272  0.028129656           13 
 1822000   0.52048356   -5.5494335    647.84106  0.029630491  0.028110783           18 
 1823000   0.53195425   -5.5641842    647.11643  0.029581113  0.028091952           14 
 1824000   0.53251533   -5.5314625    646.06035  0.029516646   0.02807313           11 
 1825000   0.52744059   -5.5611905    647.22508  0.029553656  0.028054304           18 
 1826000   0.52384806   -5.5616922    648.37897  0.029590132  0.028035516           24 
 1827000   0.52367862   -5.5644632    645.56527  0.029445597  0.028016741           42 
 1828000   0.50665996   -5.5546032    647.76575  0.029529803  0.027997985           31 
 1829000   0.51531566   -5.5693101    646.90586  0.029474479  0.027979191           11 
 1830000   0.51664734   -5.5602405    647.81768  0.029499894   0.02796045           16 
 1831000   0.52031956   -5.5531798    647.73345   0.02947995  0.027941731            9 
 1832000   0.53064262   -5.5659877    647.11718  0.029435825  0.027923038           23 
 1833000   0.52307523   -5.5755072    647.23931  0.029425319   0.02790436           43 
 1834000    0.5217674   -5.5674593    647.15502  0.029405445  0.027885708           37 
 1835000   0.52109738   -5.5571698    648.50768  0.029450849  0.027867038           23 
 1836000   0.52515984   -5.5620658    649.62231  0.029485399  0.027848348           40 
 1837000    0.5214972   -5.5723581     647.5088  0.029373471  0.027829652          114 
 1838000   0.52073902   -5.5818232    646.14468  0.029295642    0.0278109           80 
 1839000   0.51747357   -5.5743945     647.7256   0.02935135  0.027792252           98 
 1840000   0.51400118   -5.5761343    647.46623  0.029323652  0.027773586           48 
 1841000   0.52730231   -5.5827269    646.98041  0.029285733  0.027755001           37 
 1842000   0.51356058   -5.5939419    647.99603  0.029315781  0.027736404           50 
 1843000   0.52212742   -5.5691988    646.92175    0.0292513  0.027717787           21 
 1844000   0.51719764   -5.5730396    649.01356  0.029329969  0.027699229           40 
 1845000   0.51741351   -5.5769533    648.16616  0.029275798  0.027680709           59 
 1846000   0.51340959   -5.5760694    648.16319  0.029259805  0.027662174           39 
 1847000   0.51801504   -5.5718831    648.17452  0.029244474  0.027643637           25 
 1848000   0.51661943    -5.561479    646.96383  0.029174054    0.0276251           32 
 1849000   0.50679329   -5.5690034    647.11779  0.029165215  0.027606611           45 
 1850000   0.51357135   -5.5875668    649.32793  0.029249006   0.02758812           69 
 1851000   0.50851986   -5.5801972    647.13451  0.029134455  0.027569559           18 
 1852000   0.51535852   -5.5790713    647.99296  0.029157351  0.027551079           72 
 1853000   0.51401383   -5.5780417    646.33427  0.029067021   0.02753254           45 
 1854000   0.50275469   -5.5885192    646.47401  0.029057624   0.02751407           15 
 1855000   0.51014032   -5.5870727    648.66728  0.029140489  0.027495586           12 
 1856000   0.51665823   -5.5778179    648.73651  0.029127897  0.027477118           25 
 1857000   0.50563707   -5.5796359    648.91144  0.029120061  0.027458687           21 
 1858000   0.51206527   -5.6019677    646.90109  0.029014222  0.027440221           21 
 1859000   0.50923477   -5.5761741    647.37095  0.029019677  0.027421746           20 
 1860000   0.50572271   -5.5787386    648.07541  0.029035637   0.02740333           46 
 1861000   0.50039805   -5.5864679    647.15206  0.028978688  0.027384902           20 
 1862000   0.51348459   -5.5843698    647.09722  0.028960671  0.027366487           18 
 1863000   0.51576038    -5.597642    646.90694  0.028936614  0.027348009           25 
 1864000   0.51237789   -5.6061808    646.96873  0.028923852  0.027329555           15 
 1865000   0.50160551   -5.5878961    647.21446  0.028919323  0.027311121           27 
 1866000   0.50797541   -5.5954573    646.22525  0.028859649  0.027292668           32 
 1867000   0.50459449    -5.603775    647.14049  0.028885043  0.027274239           42 
 1868000   0.49881858   -5.6095255    647.26741  0.028875241  0.027255846           33 
 1869000   0.50805464   -5.5883923    647.59922  0.028874586  0.027237449           32 
 1870000   0.51165646    -5.603166    648.55159  0.028901586   0.02721909           34 
 1871000   0.49710822   -5.6141675    647.00307  0.028817169  0.027200691           25 
 1872000   0.52247456   -5.6123066    647.19716  0.028810415  0.027182357           21 
 1873000   0.50150957   -5.5966373    645.91473  0.028737975  0.027164053           14 
 1874000   0.50233116   -5.5918783    647.20549  0.028780038  0.027145717           22 
 1875000   0.50183333   -5.6024399    645.68758  0.028697226  0.027127407           18 
 1876000   0.49565787   -5.6139878    647.45304  0.028760352  0.027109059           17 
 1877000    0.5000396   -5.5924892    646.23476  0.028690941  0.027090774           22 
 1878000   0.51040888   -5.6283278    646.34345  0.028680487  0.027072467           32 
 1879000   0.51014953   -5.5993411    647.65787  0.028723517   0.02705418           29 
 1880000   0.49308554   -5.5822504    646.19241   0.02864328  0.027035936           19 
 1881000   0.50237549   -5.6135035    646.56889  0.028644732  0.027017716           32 
 1882000   0.50295043   -5.6045782    647.16643   0.02865597  0.026999522           35 
 1883000   0.49838775   -5.6000793    646.62672  0.028616867  0.026981364           17 
 1884000   0.50459194   -5.5897662    647.32518  0.028632572  0.026963199           21 
 1885000   0.50140457   -5.6182431    648.86262   0.02868535  0.026945045           20 
 1886000    0.4945502   -5.6043553    647.65237  0.028616666    0.0269269           50 
 1887000   0.50487732   -5.6080096    646.35587  0.028544245  0.026908749           40 
 1888000    0.4966444   -5.5946152     646.6881   0.02854379  0.026890604           21 
 1889000   0.49869018    -5.603005     647.1935  0.028550975  0.026872489           28 
 1890000   0.49875343    -5.598807    648.82171  0.028607659  0.026854395           56 
 1891000   0.50597338   -5.6159121    645.76074  0.028457639   0.02683627           41 
 1892000   0.49012372   -5.6078303    647.19071  0.028505581  0.026818133           48 
 1893000   0.48852874   -5.6052128     646.5693  0.028463167  0.026800032           25 
 1894000   0.50568821   -5.6189567    645.89654  0.028418538  0.026781931           19 
 1895000   0.49910588   -5.6265653    646.58716  0.028433912  0.026763827           68 
 1896000   0.49770749   -5.6193613    647.01653  0.028437787  0.026745719           62 
 1897000   0.50482242   -5.6275409    645.94848  0.028375878  0.026727603           70 
 1898000   0.49846179   -5.6323305    645.77117  0.028353142  0.026709512           47 
 1899000   0.48456237   -5.6207452    647.13224  0.028397939   0.02669146           40 
 1900000   0.49430003   -5.6347147    646.96761  0.028375772  0.026673346           27 
 1901000   0.49625791   -5.6134251    647.19767   0.02837093  0.026655236          112 
 1902000   0.48719509   -5.6541447    645.68315  0.028289658  0.026637092           88 
 1903000   0.49152149   -5.6364502    645.83363  0.028281382  0.026618985           47 
 1904000   0.51029518   -5.6276984    645.88849  0.028268929  0.026600928           29 
 1905000   0.49727764   -5.6262129    647.96226  0.028344806  0.026582934           63 
 1906000   0.48458023   -5.6259263    645.68374  0.028230314  0.026564931           39 
 1907000    0.4786992   -5.6418845    644.83571  0.028178453  0.026546868           47 
 1908000   0.50328767   -5.6358953    644.93847  0.028168172  0.026528815           29 
 1909000   0.48643877   -5.6358057    644.79494  0.028147151  0.026510734           38 
 1910000   0.49127545   -5.6428508      645.485  0.028162522  0.026492682           20 
 1911000   0.49165322   -5.6556022    645.26366  0.028138133  0.026474614           34 
 1912000   0.48795997   -5.6332092    646.03373  0.028156979  0.026456617           29 
 1913000    0.5007781    -5.631607    647.39366  0.028201501   0.02643864           26 
 1914000   0.48726975   -5.6496477    645.51439  0.028104946   0.02642064           49 
 1915000   0.49321186   -5.6312837    645.32163  0.028081881  0.026402684           45 
 1916000   0.49103433   -5.6461696    645.45617  0.028073076  0.026384752           30 
 1917000   0.49380455   -5.6578335    645.61526  0.028065348  0.026366775           66 
 1918000   0.49254764   -5.6455222    644.55697  0.028004734  0.026348785           27 
 1919000   0.49536229   -5.6578257    645.33373  0.028023872  0.026330807           35 
 1920000    0.4871439   -5.6550066    645.07958  0.027998245  0.026312824           76 
 1921000    0.4840676    -5.648647    645.89481  0.028019036   0.02629489           43 
 1922000   0.48380826   -5.6515871    645.11266  0.027970545  0.026276968           95 
 1923000    0.4861153   -5.6570386    644.86984  0.027945477  0.026259058          106 
 1924000   0.48022407   -5.6600065    644.71132  0.027924087  0.026241161           69 
 1925000   0.47756671   -5.6508669    647.23368  0.028018774  0.026223305           72 
 1926000   0.48213065   -5.6574313    645.55435  0.027931566  0.026205429           26 
 1927000   0.48226198   -5.6419827    644.98231  0.027892333  0.026187594           67 
 1928000    0.4805305   -5.6580557    645.83286  0.027914629  0.026169768           50 
 1929000   0.48578634   -5.6617858    645.79712  0.027898614  0.026151939           32 
 1930000   0.46206165   -5.6597675    646.04179  0.027894723    0.0261341           37 
 1931000   0.48343822   -5.6487759    646.40234  0.027895837  0.026116333           52 
 1932000   0.48707225    -5.652857    644.56091  0.027801972  0.026098544           65 
 1933000    0.4792932   -5.6652392    645.67695  0.027835702  0.026080758           62 
 1934000   0.47789277   -5.6465638     645.4494  0.027811504  0.026062979           37 
 1935000    0.4810101   -5.6680792    644.82544   0.02777026  0.026045225           31 
 1936000   0.47548743   -5.6361186    645.35391  0.027778663  0.026027489           58 
 1937000   0.47719981   -5.6615609    644.63768  0.027733509  0.026009715          108 
 1938000   0.48984755   -5.6587304    644.52604  0.027714398  0.025991949          141 
 1939000   0.48374083   -5.6511393    645.11761  0.027725529  0.025974192           98 
 1940000   0.47243912   -5.6555876    646.15826  0.027755939  0.025956433           68 
 1941000    0.4756578   -5.6625735    645.02159  0.027692838   0.02593868          102 
 1942000   0.47771777   -5.6671532    643.93452  0.027631931  0.025920966          103 
 1943000   0.47893654   -5.6872537    643.74366  0.027609524  0.025903238          114 
 1944000   0.47046018   -5.6695519    644.22755  0.027616065  0.025885484          106 
 1945000   0.46870732   -5.6610763    645.97672  0.027676809  0.025867762          210 
 1946000   0.47566269   -5.6739752    644.92442  0.027617524  0.025850052          119 
 1947000   0.46625956   -5.6699616    644.74214  0.027595538  0.025832381          131 
 1948000   0.46799072   -5.6721356    645.33321  0.027606657  0.025814678           97 
 1949000   0.48160541   -5.6893902    643.98642  0.027534907  0.025797004           90 
 1950000    0.4731814   -5.6901439    644.91325  0.027560395  0.025779303           97 
 1951000    0.4842433   -5.6815353    644.76569  0.027539966  0.025761628          126 
 1952000   0.47061997   -5.6862737    644.07603  0.027496415  0.025743907          126 
 1953000   0.48596234   -5.6931256    644.46302  0.027498849  0.025726222          103 
 1954000   0.47590186   -5.6815643    644.41151  0.027482579  0.025708622          131 
 1955000   0.47848697   -5.7000613    643.61735   0.02743467   0.02569096          161 
 1956000   0.47045667   -5.6871041    643.52704  0.027416796  0.025673285          120 
 1957000   0.47980375    -5.689956    644.81486  0.027457625  0.025655616          173 
 1958000   0.47401531   -5.6906506    644.57107  0.027433226  0.025637973          124 
 1959000   0.46565107   -5.6955992    644.25332  0.027405705  0.025620347          159 
 1960000   0.46952428    -5.671654    644.64148  0.027408226  0.025602725          127 
 1961000   0.46645046   -5.6832661    644.65121  0.027394663  0.025585172          132 
 1962000   0.46906292    -5.691689    643.74767  0.027342324  0.025567545          232 
 1963000   0.46099033   -5.6894049    644.31797  0.027352605  0.025549985           94 
 1964000   0.47218317   -5.6855169    642.98167  0.027281979  0.025532415          106 
 1965000    0.4704128   -5.6874236    643.86152  0.027305408  0.025514872          176 
 1966000   0.46711983   -5.6935212    644.42564  0.027315431  0.025497342          189 
 1967000   0.47997442   -5.6788879    644.54136  0.027306446  0.025479815          119 
 1968000   0.47077443   -5.6991061    645.45155  0.027331112  0.025462277          138 
 1969000   0.46540262   -5.7061057    641.82563  0.027163773  0.025444727          148 
 1970000   0.46743617   -5.6903444     644.1033  0.027246333  0.025427204          100 
 1971000   0.46349065   -5.7111633    643.07778   0.02718915  0.025409677          108 
 1972000    0.4604741   -5.6843112    642.40365  0.027146875  0.025392143          107 
 1973000   0.46949443   -5.7138303    644.38828   0.02721694  0.025374634          112 
 1974000   0.46873768   -5.6984889    644.14605  0.027192927  0.025357116          212 
 1975000   0.46940688   -5.6902185    643.32848  0.027144661   0.02533964           75 
 1976000    0.4557284   -5.7077028    642.73762  0.027106006  0.025322198           64 
 1977000   0.46311048   -5.7109307    644.36911  0.027161065  0.025304736           49 
 1978000   0.46079674   -5.7052792    645.17832  0.027181426  0.025287339           91 
 1979000   0.46927377   -5.6988037    643.48594  0.027096427  0.025269911           63 
 1980000   0.46194253   -5.7170692    643.12042  0.027067358   0.02525248           93 
 1981000   0.45820803   -5.6999117    642.98029  0.027047799  0.025235076           67 
 1982000   0.47711106   -5.6982847    643.99332  0.027076746  0.025217725           72 
 1983000   0.46181462    -5.692826    644.24398  0.027073625  0.025200379           74 
 1984000   0.45874614   -5.6915729    643.78087  0.027040527  0.025183033           69 
 1985000    0.4540479   -5.7145522     644.0469  0.027038073  0.025165722           89 
 1986000   0.46352959   -5.6965766    645.04887  0.027066502  0.025148418           42 
 1987000   0.46444642   -5.7254182    645.67506  0.027079142  0.025131116           53 
 1988000   0.46016986   -5.6996713    642.75469  0.026943104  0.025113811           35 
 1989000   0.46215892    -5.709047    643.23267  0.026949584  0.025096536           43 
 1990000    0.4536949    -5.713961    642.99416  0.026926054  0.025079211           56 
 1991000   0.46821619    -5.706474    643.23694  0.026922691  0.025061861           50 
 1992000   0.45443495   -5.7137257    643.94235  0.026938686  0.025044543           58 
 1993000   0.46047042   -5.6935749    643.60443   0.02691104  0.025027244          110 
 1994000   0.44976986   -5.7162791     643.4602  0.026891516  0.025009959           58 
 1995000   0.45487961    -5.716286    642.96302  0.026857269  0.024992679           97 
 1996000   0.45159932   -5.7143615    643.10131  0.026849587  0.024975405          115 
 1997000   0.46100832    -5.727391    641.78317  0.026781137  0.024958146          136 
 1998000    0.4606743   -5.7216982    642.62324  0.026802771  0.024940908           54 
 1999000    0.4502231   -5.7073671    642.02253  0.026764321  0.024923666           36 
 2000000   0.46269513   -5.7272659    641.46147  0.026727561  0.024906414           76 
 2001000   0.45432232   -5.7121981    642.25628  0.026747305  0.024889185           88 
 2002000   0.45163266   -5.7095105     642.8239  0.026757572  0.024871979          187 
 2003000   0.44694243    -5.725759    642.37635  0.026725593  0.024854763          164 
 2004000   0.45556788    -5.728607    641.81541  0.026688931  0.024837563           87 
 2005000   0.44636831   -5.7084204    641.78682  0.026674432  0.024820358          138 
 2006000   0.45728573   -5.6935265    642.88289  0.026706667  0.024803207           95 
 2007000    0.4586499   -5.7119314    643.11721  0.026703089  0.024786072          149 
 2008000   0.45063479   -5.7261368     641.3179  0.026615119  0.024768891          210 
 2009000   0.45222164   -5.7128258    641.34268  0.026602899  0.024751746          210 
 2010000   0.43880073   -5.7186973    642.27961  0.026628508  0.024734604          238 
 2011000   0.43977575   -5.7225416    643.16064  0.026651775  0.024717492          177 
 2012000   0.43594387   -5.7259317    642.54849  0.026613175  0.024700401          185 
Loop time of 5110.49 on 48 procs for 2000000 steps with 4000 atoms

Performance: 67625.622 tau/day, 391.352 timesteps/s
99.4% CPU use with 48 MPI tasks x no OpenMP threads

MPI task timing breakdown:
Section |  min time  |  avg time  |  max time  |%varavg| %total
---------------------------------------------------------------
Pair    | 359.91     | 380.47     | 406.48     |  61.7 |  7.44
Neigh   | 34.338     | 35.68      | 37.319     |  13.5 |  0.70
Comm    | 318.03     | 350.32     | 374.87     |  82.7 |  6.85
Output  | 4.2236     | 4.2257     | 4.2619     |   0.3 |  0.08
Modify  | 4266.4     | 4289.2     | 4315.1     |  17.0 | 83.93
Other   |            | 50.57      |            |       |  0.99

Nlocal:        83.3333 ave          89 max          76 min
Histogram: 1 1 4 5 5 10 13 2 4 3
Nghost:        2329.83 ave        2347 max        2300 min
Histogram: 1 0 3 1 8 9 6 6 8 6
Neighs:        15852.6 ave       17538 max       13934 min
Histogram: 1 2 4 10 3 4 12 8 2 2
FullNghs:      31705.1 ave       34145 max       28606 min
Histogram: 1 1 5 3 4 12 12 4 3 3

Total # of neighbors = 1521847
Ave neighs/atom = 380.46175
Neighbor list builds = 107699
Dangerous builds = 0

#clear
#
#next RN
#
#jump SELF
Total wall time: 1:25:13
