
units lj                  # Use reduced LJ style units
atom_style atomic         # Uncharged point particles
atom_modify map hash      # Needed for indexing of clusters etc
                          # Used to be able to find where atoms are in relation to each other.

lattice fcc 1.0 spacing 1 1 1
Lattice spacing in x,y,z = 1.5874011 1.5874011 1.5874011
region box block 0 10 0 10 0 10 units lattice
create_box 2 box
Created orthogonal box = (0.0000000 0.0000000 0.0000000) to (15.874011 15.874011 15.874011)
  3 by 4 by 4 MPI processor grid
create_atoms 1 box
Created 4000 atoms
  using lattice units in orthogonal box = (0.0000000 0.0000000 0.0000000) to (15.874011 15.874011 15.874011)
  create_atoms CPU = 0.002 seconds
set type 1 type/fraction 2 0.67 78393
Setting atom values ...
  2693 settings made for type/fraction
mass 1 1.0
mass 2 1.0
pair_style lj/cut  3.5
pair_modify tail  yes
pair_coeff 1  1  1.0  1.0   # Intearaction between 1 and 1 set with epsilon = 1 and sigma = 1
pair_coeff 1  2  1.5  0.8
pair_coeff 2  2  0.5  0.88

write_data data.0
System init for write_data ...
Neighbor list info ...
  update every 1 steps, delay 10 steps, check yes
  max neighbors/atom: 2000, page size: 100000
  master list distance cutoff = 3.8
  ghost atom cutoff = 3.8
  binsize = 1.9, bins = 9 9 9
  1 neighbor lists, perpetual/occasional/extra = 1 0 0
  (1) pair lj/cut, perpetual
      attributes: half, newton on
      pair build: half/bin/atomonly/newton
      stencil: half/bin/3d
      bin: standard
WARNING: Not all mixed pair coeffs generated from mixing. Use write_data with 'pair ij' option to store all pair coeffs. (../write_data.cpp:312)


#############################
#   M E L T   S Y S T E M   #
#############################

velocity all create 2.4 5833274 mom yes dist gaussian # Assign velocities
                                                    # Temperature 2.4, random number seed, zero linear momentum
                                                                                # Gaussian distribution

timestep 0.002   # simulation timestep
thermo 1000       # output thermodynamic data every 1000 steps bf 100

# Define a fix  in this case with index 1 applied to all
# particles in the simulation. This fix is for simulations
# in the anisotropic NPT ensemble. Note that we use the MTK
# correction.
fix 1 all npt temp 2.4 2.4 0.1 iso 5.68 5.68 0.5 mtk yes tchain 5 pchain 5 # Use NPT ensemble
                                                                         # Set temperature and pressure and damping
                                                                         # Numbers of thermostats in chain and in barostat
run 10000          # run for 10000 steps
Per MPI rank memory allocation (min/avg/max) = 3.642 | 3.644 | 3.648 Mbytes
Step Temp E_pair E_mol TotEng Press Volume 
       0          2.4   -4.3445498            0  -0.74544977   -3.8717164         4000 
    1000     2.429843   -4.0633725            0  -0.41951916    5.5673336    3623.7161 
    2000    2.3934797   -3.9612193            0   -0.3718973     5.924762    3651.8239 
    3000     2.401488    -4.019226            0  -0.41789452    5.4229375    3657.2662 
    4000    2.4432382   -3.9564779            0  -0.29253685    5.8669154    3654.5591 
    5000     2.337798   -4.0547252            0  -0.54890488    5.1727561    3652.9801 
    6000    2.3241703   -4.0624644            0  -0.57708048    5.9352612    3579.5623 
    7000    2.4563786   -4.0482209            0  -0.36457413    5.9912254    3597.9275 
    8000    2.3861421    -4.044223            0  -0.46590459    5.5349266    3635.4886 
    9000    2.3955623    -4.021346            0  -0.42890083    5.8726126      3616.32 
   10000    2.3873559   -4.0739006            0  -0.49376196     5.783295    3591.9494 
Loop time of 2.63185 on 48 procs for 10000 steps with 4000 atoms

Performance: 656573.331 tau/day, 3799.614 timesteps/s
99.6% CPU use with 48 MPI tasks x no OpenMP threads

MPI task timing breakdown:
Section |  min time  |  avg time  |  max time  |%varavg| %total
---------------------------------------------------------------
Pair    | 1.196      | 1.2694     | 1.4256     |   3.2 | 48.23
Neigh   | 0.21704    | 0.22448    | 0.24806    |   1.0 |  8.53
Comm    | 0.69572    | 0.88291    | 0.97485    |   4.8 | 33.55
Output  | 0.0002441  | 0.00025015 | 0.00031986 |   0.0 |  0.01
Modify  | 0.20342    | 0.23952    | 0.26923    |   3.7 |  9.10
Other   |            | 0.01528    |            |       |  0.58

Nlocal:        83.3333 ave          95 max          74 min
Histogram: 4 2 4 4 16 7 9 0 1 1
Nghost:        1765.85 ave        1795 max        1737 min
Histogram: 2 4 5 5 4 10 9 5 2 2
Neighs:        10629.2 ave       12274 max        9133 min
Histogram: 3 1 6 5 12 6 9 3 2 1

Total # of neighbors = 510202
Ave neighs/atom = 127.55050
Neighbor list builds = 910
Dangerous builds = 227

# Equilibrate just above the melting temperature to avoid step fn in T

fix 1 all npt temp 1.25 1.25 0.1 iso 5.68 5.68 0.5 mtk yes tchain 5 pchain 5
run 2000
Per MPI rank memory allocation (min/avg/max) = 3.644 | 3.646 | 3.649 Mbytes
Step Temp E_pair E_mol TotEng Press Volume 
   10000    2.3873559   -4.0739006            0  -0.49376196     5.783295    3591.9494 
   11000    1.2627141     -5.93134            0   -4.0377424    5.5230839    2779.8332 
   12000    1.2379728   -5.9745243            0   -4.1180293    5.5460071    2762.6292 
Loop time of 0.652702 on 48 procs for 2000 steps with 4000 atoms

Performance: 529491.342 tau/day, 3064.186 timesteps/s
99.7% CPU use with 48 MPI tasks x no OpenMP threads

MPI task timing breakdown:
Section |  min time  |  avg time  |  max time  |%varavg| %total
---------------------------------------------------------------
Pair    | 0.28909    | 0.32385    | 0.35174    |   2.4 | 49.62
Neigh   | 0.040673   | 0.043817   | 0.047619   |   0.7 |  6.71
Comm    | 0.20349    | 0.23649    | 0.27637    |   3.2 | 36.23
Output  | 5.0465e-05 | 5.174e-05  | 6.6613e-05 |   0.0 |  0.01
Modify  | 0.04068    | 0.043604   | 0.046519   |   0.8 |  6.68
Other   |            | 0.004886   |            |       |  0.75

Nlocal:        83.3333 ave          90 max          73 min
Histogram: 1 1 3 0 8 11 5 11 5 3
Nghost:        2108.08 ave        2129 max        2089 min
Histogram: 3 3 5 5 8 8 7 5 2 2
Neighs:        13819.0 ave       15153 max       11690 min
Histogram: 1 1 1 3 9 7 10 5 5 6

Total # of neighbors = 663312
Ave neighs/atom = 165.82800
Neighbor list builds = 144
Dangerous builds = 16

#############################
# L I N E A R  Q U E N C H  #
#############################

# Define solid atoms. This closely follows ten Wolde  Ruiz-Montero and Frenkel  Faraday Discuss  1996  104  93-110
# Compute components of the per-atom q6 vector
compute q6 all orientorder/atom degrees 1 6 components 6 nnn NULL cutoff 1.3 # compute the Q6 parameter.
                                                                             # Use all neighbours within 1.3 unit cell.

# get number of connections
compute coord_number all coord/atom orientorder q6 0.5

# An atom is solid if it has 8 or more connections (of a possible 14)
variable is_solid atom c_coord_number>=8
group solid dynamic all var is_solid    # Must be dynamic to update
dynamic group solid defined

# do clustering
compute cluster solid cluster/atom 1.3 # Create a cluster where all atoms within are solid and max 1.3 units from another member

# define chunks one chunk per cluster
compute clus_chunks solid chunk/atom c_cluster nchunk every compress yes  # Says which atoms are in which chunk

# count the size of each chunk
compute size_chunks solid property/chunk clus_chunks count


# Find the maximum entry in the vector of chunk sizes
variable max_n equal max(c_size_chunks)


# Thermo style which includes this variable
# thermo_style custom step temp pe vol v_max_n

thermo ${N}  # Print the thermo information every 100 steps
thermo 1000  

# Reset the npt fix at a lower temperature (below freezing)
fix 1  all npt temp  ${temp} ${temp}  0.1  iso  5.68  5.68  0.5  mtk yes tchain  5  pchain  5
fix 1  all npt temp  0.45 ${temp}  0.1  iso  5.68  5.68  0.5  mtk yes tchain  5  pchain  5
fix 1  all npt temp  0.45 0.45  0.1  iso  5.68  5.68  0.5  mtk yes tchain  5  pchain  5

dump dmp2 all dcd ${N} traj.dcd
dump dmp2 all dcd 1000 traj.dcd


compute msd all msd com yes
variable twopoint equal c_msd[4]/6/(step*dt+1.0e-6)
fix 9 all vector 10 c_msd[4]
variable fit equal slope(f_9)/6/(10*dt)
thermo_style custom step temp pe c_msd[4] v_twopoint v_fit v_max_n

fix 1 all npt temp 1.25 ${temp} 0.1 iso 5.68 5.68 0.5 mtk yes tchain 5 pchain 5
fix 1 all npt temp 1.25 0.45 0.1 iso 5.68 5.68 0.5 mtk yes tchain 5 pchain 5
run 500000 # 5000000  # Run for this many steps
Neighbor list info ...
  update every 1 steps, delay 10 steps, check yes
  max neighbors/atom: 2000, page size: 100000
  master list distance cutoff = 3.8
  ghost atom cutoff = 3.8
  binsize = 1.9, bins = 8 8 8
  4 neighbor lists, perpetual/occasional/extra = 1 3 0
  (1) pair lj/cut, perpetual
      attributes: half, newton on
      pair build: half/bin/atomonly/newton
      stencil: half/bin/3d
      bin: standard
  (2) compute orientorder/atom, occasional
      attributes: full, newton on
      pair build: full/bin/atomonly
      stencil: full/bin/3d
      bin: standard
  (3) compute coord/atom, occasional
      attributes: full, newton on
      pair build: full/bin/atomonly
      stencil: full/bin/3d
      bin: standard
  (4) compute cluster/atom, occasional
      attributes: full, newton on
      pair build: full/bin/atomonly
      stencil: full/bin/3d
      bin: standard
Per MPI rank memory allocation (min/avg/max) = 9.846 | 9.851 | 9.856 Mbytes
Step Temp PotEng c_msd[4] v_twopoint v_fit v_max_n 
   12000    1.2379728   -5.9745243 8.4960319e-31 5.9000219e-33 8.3333333e+20            3 
   13000    1.2299518   -6.0153867   0.57790328 0.0037045081  0.047533115            2 
   14000    1.2150176   -5.9893891    1.1122409 0.0066204811  0.046061203            2 
   15000    1.2479745   -5.9764226    1.6234389 0.0090191046   0.04435009            3 
   16000    1.2111416   -5.9934421    2.2455385  0.011695512  0.045071165            2 
   17000    1.2036228   -6.0378441    2.7743628  0.013599817   0.04570556            2 
   18000    1.2381457   -6.0045328    3.3718312  0.015610329  0.046268284            1 
   19000    1.2375524   -6.0323779    3.8748027  0.016994748  0.046258261            8 
   20000    1.2435055   -6.0459008    4.4612968  0.018588736  0.046503569            2 
   21000     1.233093   -6.0378896    4.9349304  0.019583057  0.046387875            2 
   22000    1.2484141   -6.0104605    5.4326003  0.020578031  0.045961241            1 
   23000    1.2264629   -6.0523885    5.9108467  0.021416111  0.045470353            2 
   24000    1.2124044   -6.0073683    6.4511457  0.022399811  0.045056737            2 
   25000     1.180687    -6.048629    6.9896438  0.023298812  0.044828631            4 
   26000    1.2264828   -6.0357222    7.3579176  0.023583069  0.044442571            2 
   27000    1.2109019   -6.0318276     7.830048  0.024166815  0.044035903            3 
   28000    1.2335873   -6.0713061    8.3064277  0.024721511  0.043594638            2 
   29000    1.2208061   -6.0676734    8.7885989  0.025254594   0.04322423            2 
   30000    1.2428192    -6.100188    9.1712105  0.025475584  0.042837872            3 
   31000    1.1960051   -6.0714933     9.804233  0.026355465  0.042563889            2 
   32000    1.2350401   -6.0135403    10.349239  0.026951142  0.042467723            2 
   33000    1.2574915   -6.0462111    10.751845  0.027151123  0.042301284            4 
   34000     1.234723   -6.0697384     11.15993  0.027352769  0.042087114            3 
   35000    1.2389752   -6.0519478    11.682948  0.027816541  0.041925865            1 
   36000    1.2020754    -6.066617    12.167818  0.028166245  0.041786518            2 
   37000    1.1859163   -6.0702365    12.631003  0.028448204   0.04167144            1 
   38000    1.1849047   -6.0908028    13.041857  0.028600564   0.04154625            3 
   39000     1.199629    -6.166973    13.557963  0.028970005  0.041416648            3 
   40000    1.1827567   -6.0709614    14.144495  0.029467698  0.041348595            3 
   41000    1.1917094   -6.0793373    14.615575  0.029706453  0.041286927            3 
   42000    1.2115814   -6.1066587     15.07641  0.029913511  0.041239987            4 
   43000     1.219541   -6.0348307    15.659878  0.030348601  0.041198883            1 
   44000     1.201264   -6.1364772    16.024455  0.030349345  0.041171537            5 
   45000    1.1969879   -6.0587776    16.696644  0.030919711  0.041156176            1 
   46000    1.1819523   -6.1141107    17.114128  0.031003854  0.041138934            5 
   47000    1.1937839   -6.0757017    17.580564  0.031171213  0.041119016            5 
   48000      1.19766   -6.1223632    17.953245  0.031168828  0.041081959            2 
   49000    1.2065921   -6.0982758    18.337269  0.031185832  0.040997669            2 
   50000    1.1935293   -6.1139316    18.854958  0.031424929  0.040914402            3 
   51000    1.1739297   -6.1379396    19.398735  0.031697279  0.040868002            3 
   52000     1.182714   -6.1319651    19.793852  0.031720916  0.040825336            2 
   53000    1.1854915   -6.0858191    20.320651  0.031950708  0.040783251            3 
   54000    1.1803328   -6.1429079    20.693427  0.031934301  0.040710314            4 
   55000    1.1724282   -6.0908721    21.238573  0.032179656  0.040653858            1 
   56000    1.1865667    -6.164754    21.566884  0.032093577  0.040605149            4 
   57000    1.2165398   -6.1099492    22.245636   0.03252286   0.04054784            2 
   58000    1.1639533     -6.17944    22.721706  0.032646128  0.040531275            2 
   59000    1.1767275   -6.1591148    23.144616  0.032690135  0.040513479            3 
   60000    1.1590876   -6.1413814    23.575097   0.03274319  0.040482797            2 
   61000    1.1547121    -6.231817    23.908202  0.032661478  0.040436947            4 
   62000    1.1647611    -6.153199    24.432044  0.032838769  0.040377155            2 
   63000    1.1601922   -6.1424259    24.828911  0.032842475  0.040319786            5 
   64000    1.1789988   -6.1715669    25.327139  0.032978045  0.040257432            3 
   65000    1.1534358   -6.1742419    25.876093  0.033174478   0.04020024            2 
   66000    1.1612555   -6.1696915    26.325478   0.03323924  0.040163643            2 
   67000    1.1423064   -6.1559439    26.839722  0.033382738  0.040124894            3 
   68000    1.1902922   -6.1748786    27.004465  0.033093707  0.040071699            2 
   69000    1.1845022   -6.1849957      27.5523  0.033275724  0.040000846            5 
   70000    1.1632598   -6.2162006    28.023332   0.03336111  0.039949889            3 
   71000    1.1453242   -6.1741175     28.28592  0.033199436  0.039884497            3 
   72000     1.155666   -6.2240833     28.71812  0.033238564  0.039800256            4 
   73000    1.1772426   -6.1972181    29.106792  0.033226931  0.039713568            1 
   74000    1.1781088   -6.2458368    29.452023  0.033166693  0.039629614            5 
   75000    1.1570938   -6.2009799    29.822281  0.033135868  0.039539244            5 
   76000    1.1637868   -6.2084988    30.125862  0.033032743  0.039438157            3 
   77000    1.1308114   -6.1722085      30.5659  0.033079978   0.03933646            2 
   78000      1.15844   -6.2527474     30.96169  0.033078729  0.039224551            4 
   79000    1.1481806   -6.2678558    31.059236  0.032762906  0.039107633            3 
   80000    1.1374619   -6.2555241     31.47786  0.032789437  0.038989715            2 
   81000    1.1315082   -6.2420748    32.000579  0.032922406  0.038879264            3 
   82000    1.1477358   -6.2617516    32.279836  0.032804711  0.038768517            2 
   83000    1.1386874   -6.2432903    32.611208  0.032742177  0.038655738            3 
   84000    1.1271606    -6.280255    33.081017  0.032818469  0.038536012            5 
   85000    1.1221127   -6.2881967    33.367488  0.032713223  0.038418429            2 
   86000    1.1223593   -6.2558205     33.69172  0.032647015  0.038298586            3 
   87000    1.1463001   -6.2422913    34.265222  0.032821094  0.038187702            2 
   88000    1.1440994   -6.3183824    34.403833  0.032579387  0.038067309            2 
   89000     1.138619   -6.2473059    35.027452  0.032797239   0.03795859            2 
   90000    1.1193561   -6.2891344    35.260485  0.032648597  0.037847384            2 
   91000    1.1135609   -6.2079377    35.746979  0.032735329   0.03774455            2 
   92000    1.1113776   -6.2730272     36.14732  0.032742137  0.037645261            2 
   93000    1.1203729   -6.2562416    36.498846  0.032705059  0.037545922            2 
   94000    1.1377458   -6.2853471    36.845662  0.032664593   0.03745021            3 
   95000    1.0805048   -6.3259224    37.069772  0.032517344   0.03734528            2 
   96000    1.1110251   -6.3021197     37.46451  0.032521276  0.037242374            2 
   97000    1.1230158   -6.3308487    37.646621  0.032342458  0.037134117            4 
   98000    1.1174432     -6.27904    38.083929  0.032384294   0.03702429            4 
   99000    1.1009423   -6.3082101     38.33853   0.03227149  0.036909953            5 
  100000    1.1211157   -6.3242264    38.495518  0.032079598  0.036792431            3 
  101000    1.1084389   -6.3425933    39.000468  0.032178604  0.036674713            3 
  102000     1.122115   -6.3732937    39.159448  0.031993013  0.036560896            4 
  103000    1.0806144   -6.3210662    39.470903  0.031934387  0.036446039            4 
  104000    1.1110173   -6.3270741    39.816496  0.031904244  0.036327583            2 
  105000    1.1139884   -6.3323858    40.045144   0.03178186  0.036207595           10 
  106000    1.1207488   -6.3428175    40.476136  0.031820861  0.036095782            3 
  107000    1.0872222   -6.3564946    40.638096  0.031649608   0.03597783            2 
  108000    1.1066489   -6.3811151    40.968065  0.031611161  0.035861637            2 
  109000    1.1050722   -6.3525465    41.463693  0.031700071  0.035747615            2 
  110000     1.093583   -6.3822807    41.680267   0.03157596  0.035636562            4 
  111000    1.0882804   -6.3628146     42.06399  0.031579572  0.035523028            5 
  112000    1.0876307   -6.3657337    42.224569   0.03141709  0.035408083            3 
  113000    1.0885869   -6.3528306    42.571331  0.031394787  0.035292938            2 
  114000    1.0582187   -6.3227126       42.858  0.031328947  0.035179064            3 
  115000    1.0833077   -6.3592387    42.985161  0.031148668  0.035063213            2 
  116000    1.1032928   -6.3533224    43.506951  0.031254994  0.034944491            3 
  117000     1.087925   -6.3866904    43.400051  0.030911717  0.034830803            7 
  118000    1.0804884   -6.3787455    43.777893  0.030916591  0.034712558            2 
  119000    1.0850689   -6.3611955     44.13805  0.030908998  0.034593054            4 
  120000     1.104325   -6.3429418    44.621335  0.030987038  0.034480869            4 
  121000    1.0605563   -6.4078023    44.741502  0.030813706  0.034374097            4 
  122000    1.0728209   -6.4026151    45.040769  0.030765553  0.034261891            2 
  123000    1.0707782   -6.4232473    45.322355  0.030706202  0.034151427            5 
  124000    1.0678131   -6.4358505     45.66946  0.030691841  0.034041588            2 
  125000    1.0429641   -6.3977659    45.895467  0.030596978  0.033931838            7 
  126000    1.0784976   -6.3996059    46.257174  0.030593369  0.033827159            6 
  127000    1.0651054   -6.4567088    46.245239  0.030344645  0.033717787            2 
  128000     1.086701   -6.4230749    46.684103  0.030393296  0.033605986            4 
  129000    1.0527518    -6.442362    46.965247  0.030339307  0.033498841            3 
  130000     1.035791   -6.4389533    47.379427  0.030371427  0.033394439            3 
  131000    1.0546178   -6.4409194    47.474387  0.030199991   0.03329314            2 
  132000    1.0654096   -6.4432964    47.826649  0.030193592  0.033192845            3 
  133000    1.0385027   -6.4114747    48.259327  0.030237674  0.033094299            4 
  134000    1.0664787   -6.4209421    48.588374   0.03021665  0.032998464            5 
  135000    1.0474283   -6.4593387    48.861362  0.030161334  0.032903776            4 
  136000    1.0419191   -6.4595389    49.231341  0.030166262  0.032815741            8 
  137000     1.039572   -6.4606375    49.444531  0.030075749  0.032723799            2 
  138000    1.0365199    -6.497744    49.619998  0.029963767  0.032630971            2 
  139000    1.0686613   -6.4675628    49.878209  0.029903003  0.032540159            3 
  140000    1.0387216   -6.4608924    50.219722  0.029892691  0.032448812            3 
  141000    1.0462269   -6.4673106    50.677594  0.029951297  0.032358682            9 
  142000    1.0426781   -6.5218452    50.838223  0.029834638  0.032270772            6 
  143000    1.0437444   -6.4824533    51.130417   0.02979628  0.032179854            8 
  144000    1.0460146    -6.492351    51.308493  0.029692415  0.032091479            4 
  145000    1.0254063   -6.5375274    51.285208  0.029474257  0.032000092            5 
  146000    1.0257752   -6.5259686    51.767742  0.029547798  0.031912732            6 
  147000    1.0036093   -6.5219773    51.977643  0.029465784  0.031826703            2 
  148000    1.0175121   -6.4848016    52.299384  0.029447851  0.031741016            6 
  149000    1.0399994   -6.5320039     52.59307  0.029414469  0.031655506            5 
  150000    1.0274449   -6.5021471     53.03888  0.029466044  0.031571649            2 
  151000    1.0341959   -6.5128118    53.025883  0.029263732  0.031484084            6 
  152000    1.0203642   -6.5267843    53.351149  0.029249533  0.031396942            6 
  153000    1.0267921   -6.5081241    53.484371  0.029130921  0.031310451            5 
  154000    1.0215454   -6.5568828    53.795448  0.029110091  0.031226082            4 
  155000    1.0107974   -6.5409692    53.841756   0.02894718  0.031139071            4 
  156000    1.0388754   -6.5197667     54.18511  0.028945037  0.031050313            3 
  157000    1.0037468   -6.5317426    54.583781  0.028972283  0.030965214            6 
  158000    1.0194864   -6.5762512    54.931756  0.028972445  0.030881052            5 
  159000    1.0277915   -6.5603989     55.05503  0.028854838  0.030799154            2 
  160000    1.0039679   -6.5739205    55.182435  0.028740851  0.030714919            5 
  161000     1.015598   -6.5603736    55.488093  0.028720545  0.030632179            3 
  162000    1.0199669    -6.556761    55.818915  0.028713433  0.030551934            2 
  163000   0.99972807   -6.5928997    55.853534  0.028554977  0.030472062            4 
  164000    1.0193131   -6.6203377    56.285087  0.028600145  0.030390194            3 
  165000   0.97548679   -6.5785315    56.607585  0.028589689  0.030310044            2 
  166000    1.0081164   -6.5834286    56.947725  0.028588215   0.03023128            2 
  167000    1.0269872   -6.5631614    57.350738  0.028618133  0.030157771           15 
  168000   0.99885116   -6.6009862    57.513395   0.02852847  0.030084745            8 
  169000   0.99797014   -6.6026941    57.831257  0.028516399  0.030014248            6 
  170000    1.0053571   -6.6005325    57.975376  0.028419302  0.029942373            5 
  171000    1.0257742   -6.5865076    58.244304  0.028384164  0.029871175            4 
  172000   0.98766637   -6.5781784    58.529911  0.028357515  0.029801113            6 
  173000   0.98547517   -6.5888803    58.562184  0.028209145  0.029729258            4 
  174000    0.9937622   -6.6280734    58.556271  0.028044191  0.029652768           10 
  175000    1.0158639    -6.624757    58.783918  0.027992342  0.029574492            3 
  176000   0.98427246    -6.591695    58.962277  0.027917745  0.029496994            5 
  177000    1.0043353   -6.6238911    59.153608  0.027850098  0.029421164            3 
  178000   0.99071024   -6.6442103    59.141654   0.02768804  0.029342296            4 
  179000   0.98419996   -6.6463048    59.563937  0.027729952   0.02926225            6 
  180000   0.97586077   -6.6480012    59.527881  0.027559204  0.029183835            3 
  181000   0.97142615   -6.6450138    60.066557  0.027654953  0.029106718            2 
  182000   0.96782689   -6.6628753    60.008838  0.027476574  0.029030978            4 
  183000   0.99406983   -6.7019914    60.101198  0.027368487  0.028951898            4 
  184000   0.98034764   -6.6533583    60.597125   0.02744435    0.0288735            4 
  185000   0.97270372    -6.699267    60.869907  0.027418877  0.028796872            4 
  186000   0.97056068   -6.6791589    61.179742  0.027410279  0.028721159            3 
  187000   0.95237463   -6.6755897    61.356729  0.027342571  0.028646828            5 
  188000   0.97181723   -6.6889758    60.986703  0.027033113  0.028569258            3 
  189000   0.97887327   -6.6810351    61.192324  0.026980743  0.028487999            4 
  190000   0.96203563   -6.6860883     61.43281  0.026944215  0.028405987            5 
  191000   0.94968888   -6.7062711    61.760749  0.026946225   0.02832712            4 
  192000   0.95629857     -6.67754    61.807165  0.026826026  0.028248739            6 
  193000   0.96531338   -6.6925752    61.860209  0.026709935  0.028168565            5 
  194000    0.9651934   -6.7044682    62.321148  0.026770252  0.028089159            5 
  195000   0.95712179   -6.7295702    62.299363  0.026623659  0.028011189            4 
  196000   0.95069122   -6.6797911    62.788171  0.026695651  0.027933664            2 
  197000   0.95350143   -6.6715888    62.923109   0.02661722  0.027857017            4 
  198000   0.93756683   -6.7171422    63.188915  0.026594661  0.027782542            6 
  199000   0.94277844   -6.7229451    63.414816  0.026555618  0.027707942            8 
  200000   0.94489101   -6.7029857    63.338346  0.026390978  0.027631751            5 
  201000   0.94794099    -6.739246    63.217363   0.02620952  0.027553961            4 
  202000    0.9353764   -6.7371333    63.668419  0.026265849  0.027474917            5 
  203000   0.94574668   -6.7626577    63.541158  0.026084219  0.027394427            8 
  204000     0.943771   -6.7943494    63.831308   0.02607488  0.027315135            3 
  205000   0.95982019   -6.7888553    63.774584  0.025924627  0.027236033            4 
  206000   0.93453554   -6.7534931    63.987889  0.025885068  0.027157755           10 
  207000   0.94188575   -6.7561624    64.166009  0.025831727  0.027076967            9 
  208000   0.93227186   -6.7809411    64.172067  0.025709963   0.02699639            3 
  209000    0.9384545   -6.7742964    64.479248  0.025709429  0.026916329            4 
  210000   0.91259107    -6.769776    64.340603  0.025531985   0.02683682            4 
  211000    0.9381313   -6.7711379    64.786815   0.02558721  0.026758413            7 
  212000   0.93231452   -6.7900716    65.001081  0.025550739  0.026680853            5 
  213000   0.91327713   -6.8130287    65.090583  0.025465799  0.026604259            4 
  214000   0.92953199   -6.7961961    65.557524  0.025528631  0.026529887            8 
  215000   0.93810399   -6.7957324    65.633856  0.025439479  0.026455385            8 
  216000   0.92918396   -6.7600981    65.990416  0.025459265   0.02638238            7 
  217000   0.92165144    -6.805486    65.881109  0.025299965  0.026309662            6 
  218000   0.92908571   -6.7813809    66.285559  0.025338516  0.026236968            3 
  219000   0.92017672   -6.8273577    66.087678  0.025147518   0.02616402           11 
  220000   0.93797147   -6.8095616    66.343944  0.025130282   0.02609108            4 
  221000   0.91048393   -6.7603797    66.717856  0.025157563  0.026017996            8 
  222000   0.91754811   -6.8662104    66.955035  0.025133271  0.025947766            6 
  223000   0.91160925   -6.8017777    67.168117  0.025100193  0.025877803           10 
  224000   0.91019006   -6.8222192    67.260498  0.025022506  0.025809093            5 
  225000   0.91080892   -6.8427807    67.528202  0.025010445  0.025741222            6 
  226000    0.9041407   -6.8466243    67.923113  0.025045395  0.025675013            3 
  227000    0.9035101    -6.869305    67.793492  0.024887479  0.025609403            8 
  228000    0.8969804   -6.8806184    67.979992  0.024846488  0.025541846           12 
  229000   0.89581694   -6.8599814    68.100503  0.024781842  0.025474322            3 
  230000   0.91885938   -6.8825525    68.094399  0.024671884  0.025406898            5 
  231000   0.91230598   -6.8760918    68.224123  0.024611877  0.025337442            5 
  232000   0.92306382    -6.858851    68.537152   0.02461823  0.025268423            7 
  233000   0.87197848   -6.8750852    68.578149  0.024527235  0.025200664            4 
  234000   0.89510047   -6.9346285    68.854784  0.024520934  0.025133289            6 
  235000   0.90438462   -6.9202145    68.947773  0.024449565  0.025067401           16 
  236000   0.90022751    -6.920212    69.032101  0.024375742  0.025000901            5 
  237000   0.88996831   -6.9138356     69.12117  0.024304209  0.024934741            8 
  238000   0.88625316   -6.9526414    69.079799  0.024187605  0.024867682            6 
  239000   0.88744945     -6.90619    69.162683  0.024115301  0.024798742            6 
  240000    0.8926634   -6.9339869    69.110631  0.023996747  0.024729337            9 
  241000   0.88651066   -6.9366467    69.185432   0.02392304  0.024658215            5 
  242000   0.87782719   -6.9025838    69.465198  0.023920523  0.024587373            7 
  243000   0.86354029   -6.9234363    69.682135   0.02389648  0.024518185            5 
  244000   0.86012782   -6.9367595    69.661624  0.023791538  0.024449001           12 
  245000   0.88110728   -6.9699739    69.733274  0.023718801  0.024378895            5 
  246000   0.86574707   -6.9644638    69.867596  0.023667885  0.024309845            4 
  247000   0.88593546   -6.9595174    69.911519  0.023586882  0.024240839            7 
  248000   0.86262444   -6.9472254    70.252059  0.023606203  0.024171416            6 
  249000   0.85334671   -6.9468771    70.178181  0.023486673    0.0241025            8 
  250000   0.86326223   -6.9880602    70.385865  0.023461955  0.024033406            9 
  251000   0.87432281   -6.9517493    70.423554  0.023380994  0.023964653            9 
  252000    0.8780234   -6.9835488    70.493417  0.023311315  0.023896322           15 
  253000   0.86135332     -6.97452    70.624513  0.023262356   0.02382843            9 
  254000   0.87336043    -6.952905    70.786701  0.023223983  0.023760997            6 
  255000   0.86978079    -6.988325    70.749057  0.023120607   0.02369359            4 
  256000    0.8626799   -6.9960812    70.778197  0.023039778  0.023625909            7 
  257000   0.87462038    -6.966499    70.876124  0.022981882  0.023558122           11 
  258000   0.87945805   -6.9796156    70.987635  0.022928823  0.023489746            6 
  259000   0.87752571    -6.978618    71.141897  0.022889928  0.023421863            6 
  260000    0.8629545   -7.0053828    71.126325  0.022796899  0.023354399            5 
  261000   0.85494913   -7.0002247    71.040146  0.022682039  0.023286192            9 
  262000    0.8435702    -7.004774    71.358884  0.022696846  0.023217123           14 
  263000   0.87154122   -6.9720984    71.647029  0.022701847  0.023149408           12 
  264000   0.84192362   -6.9963822    71.619036  0.022607019  0.023081943            4 
  265000   0.81951127   -6.9904017    71.600083  0.022515749  0.023013615           11 
  266000   0.84568385   -7.0474924    71.785301  0.022489129   0.02294504            4 
  267000   0.85354639   -7.0364749    71.777323   0.02240241  0.022878549            7 
  268000   0.83067317   -7.0239132    72.018056  0.022393674   0.02281207            9 
  269000   0.84241915   -7.0336836    71.850565  0.022258539  0.022745001            5 
  270000   0.84413572   -7.0771515     71.69804  0.022129025  0.022676303           13 
  271000   0.85186876   -7.0292417    71.759773  0.022066351  0.022608309            6 
  272000   0.84778216    -7.041005    72.091425  0.022086834  0.022540776            4 
  273000   0.83482112   -7.0722253     72.20284  0.022039939  0.022473165            6 
  274000   0.82399878   -7.0659115    72.154885  0.021944916  0.022405351           12 
  275000   0.83437739    -7.046581    72.224762  0.021886291  0.022338046            8 
  276000   0.82604526   -7.0574041    72.442113  0.021872619   0.02227089            7 
  277000   0.81730403   -7.0484564    72.472361  0.021802756  0.022203721            9 
  278000   0.82219739   -7.0898131    72.407257  0.021704813   0.02213691           10 
  279000   0.78323774   -7.1048679    72.412585  0.021628609  0.022069114            7 
  280000    0.8167749    -7.104821    72.816425  0.021671555  0.022001866           24 
  281000   0.82721535   -7.0928975    72.686672  0.021555953  0.021934958            7 
  282000   0.81094205   -7.1245599    72.453634  0.021410648  0.021867863           15 
  283000   0.80523649   -7.1313951    72.880441  0.021460672  0.021799984            7 
  284000   0.80503527   -7.1571659    72.656767  0.021319474   0.02173265            8 
  285000   0.80659045   -7.1508133    72.900946  0.021316066   0.02166612            8 
  286000   0.80013177   -7.1480277    72.835449   0.02122245  0.021599039            9 
  287000   0.80843491   -7.1536177    73.038961  0.021207596    0.0215317            7 
  288000   0.79806843   -7.1206267    73.001757  0.021123193  0.021464783           16 
  289000   0.80516628   -7.1203755    73.231253  0.021116278  0.021398269           14 
  290000   0.81560407   -7.1627962    73.296036  0.021062079  0.021332405            8 
  291000   0.81619014   -7.1167102    73.394141  0.021017795  0.021266998            8 
  292000   0.79998124   -7.1467405     73.34212   0.02093097  0.021201659           15 
  293000   0.80989607   -7.1437476    73.566506  0.020923352  0.021136232           14 
  294000   0.79256682   -7.1724206    73.300632  0.020776823  0.021070958           12 
  295000   0.80514209   -7.1419154    73.650652  0.020805269  0.021005812           15 
  296000   0.76883087   -7.1674322      73.5638  0.020710529  0.020941258           12 
  297000   0.80192979    -7.193439    73.594901  0.020649523  0.020876674            9 
  298000   0.79131477   -7.1556946    73.845311  0.020650255  0.020812211           23 
  299000    0.7915985   -7.2015276    73.705232  0.020542149  0.020748154           23 
  300000   0.78711113   -7.1857958    73.809893  0.020502748  0.020684892           12 
  301000    0.7892404   -7.1876659    73.899102   0.02045933  0.020621353           14 
  302000   0.77472663   -7.1852971    74.068892  0.020438436   0.02055798           14 
  303000   0.78821752   -7.2031971    74.177157  0.020400758  0.020495069           11 
  304000   0.78872339   -7.2430849    74.042076  0.020296622  0.020431846           14 
  305000    0.7982976   -7.2040082    74.034122  0.020227902  0.020368319           20 
  306000   0.79291267   -7.2121713    74.295731  0.020233042  0.020304882           14 
  307000   0.76967011   -7.2434283    74.246802  0.020153855  0.020241956           16 
  308000   0.77351544   -7.2509595    74.155195  0.020063635  0.020178335            8 
  309000   0.77532643   -7.2483522     74.13531  0.019993341  0.020115047           10 
  310000   0.78805801   -7.2305799    74.380519  0.019994763  0.020052262           13 
  311000   0.76741257   -7.2431025     74.27951  0.019903406  0.019989693            7 
  312000   0.77241711   -7.2315377    74.501261  0.019898841  0.019927552            6 
  313000   0.78009127   -7.2557331     74.29114  0.019779324  0.019865801           10 
  314000   0.77151599   -7.2417418    74.562712  0.019788406   0.01980408           17 
  315000   0.75871931   -7.2384195    74.505552  0.019710463  0.019742534           13 
  316000   0.77045925   -7.2642368    74.638214  0.019683073  0.019680717            9 
  317000     0.767356    -7.214324    74.759978  0.019652991  0.019619172            5 
  318000    0.7536764   -7.2936712    74.303801  0.019471646  0.019557372           14 
  319000   0.75766568   -7.2749038    74.611114  0.019490887  0.019495798           11 
  320000   0.75286942   -7.2586069    74.745779  0.019465047  0.019434774           17 
  321000   0.75469171   -7.2960499    74.626483  0.019373438  0.019373597           10 
  322000   0.75241815   -7.2961505    74.665986  0.019323495  0.019312585           22 
  323000   0.75157096    -7.295912    74.716906  0.019276808  0.019251675            7 
  324000   0.77179135   -7.3127963    74.724368   0.01921923  0.019191043           12 
  325000   0.74217957   -7.2963043    74.850817  0.019192517  0.019130311            9 
  326000    0.7488635   -7.3065601     74.97211   0.01916465  0.019069975           13 
  327000   0.73130662   -7.2956371    74.875485  0.019081418  0.019009683           24 
  328000   0.74915195   -7.3326083    74.746761  0.018990539  0.018948865           17 
  329000   0.74946286   -7.3597739    74.623257  0.018901534  0.018887787           27 
  330000   0.75270105   -7.3120663    74.723712  0.018869624  0.018826788           21 
  331000   0.73906344   -7.3778542    74.622229  0.018787067  0.018766032           28 
  332000    0.7327518   -7.3174589    74.814688  0.018778787  0.018705288           14 
  333000   0.72992355   -7.3209846    74.841557  0.018729118  0.018644751           55 
  334000   0.73723975    -7.337101    75.013977  0.018716062  0.018584207           33 
  335000   0.73487749   -7.3689532    74.983245  0.018652548  0.018524071           39 
  336000   0.74780334   -7.3677512    74.924431  0.018582448  0.018464159           36 
  337000   0.71978744   -7.3773134    74.829915  0.018503935  0.018404391           23 
  338000   0.73246559   -7.3859338      74.7675  0.018433802  0.018344164           56 
  339000   0.71368615   -7.3650693    74.832506  0.018395405  0.018284178           23 
  340000    0.7224195   -7.3779857    75.048887  0.018394335  0.018224307           21 
  341000   0.73814631    -7.398275    74.816158  0.018283519  0.018164311           40 
  342000   0.71808335   -7.3894598    74.926455  0.018256933  0.018104971           36 
  343000   0.74215478   -7.3959408    74.683637  0.018144713  0.018045132           28 
  344000   0.70685244   -7.4083592    74.797344  0.018119512   0.01798546           24 
  345000   0.72470189   -7.4222615    74.810819  0.018070246  0.017925864           15 
  346000   0.71766091   -7.3994388    74.873171  0.018033037  0.017866579           17 
  347000   0.71718712   -7.4187053    74.728015  0.017946209  0.017807399           15 
  348000    0.7160388   -7.4042541    74.735521  0.017896437  0.017748056           20 
  349000   0.71074743   -7.4112758    74.776828  0.017855021  0.017688982           35 
  350000   0.72450072   -7.4279699    74.812042  0.017812391  0.017629952           61 
  351000   0.70246058   -7.4362672    74.639083   0.01772058  0.017570907           31 
  352000   0.70677668   -7.4300414    74.897752  0.017731475   0.01751243           17 
  353000   0.70739764   -7.4469546    74.875325   0.01767595  0.017453787           31 
  354000   0.72095917   -7.4083919     74.83151  0.017615704  0.017395379           16 
  355000   0.70843567   -7.4465554    74.905463  0.017583442  0.017337223           17 
  356000   0.71251318   -7.4251838    74.956186  0.017545924  0.017279512           48 
  357000   0.70000035   -7.4615189    74.508213  0.017392207  0.017221614           58 
  358000    0.6920981    -7.451644    75.027386  0.017464475  0.017163669           30 
  359000   0.69785062   -7.4871438    74.863289  0.017377737  0.017105979           79 
  360000   0.68090998   -7.4784022    74.872355  0.017331564  0.017048444           63 
  361000   0.69459185   -7.4653136    74.979265  0.017308233   0.01699068           47 
  362000   0.70199307   -7.4883431    74.940005  0.017251382  0.016933549           77 
  363000   0.69537816    -7.453531    74.877352  0.017189475   0.01687661           68 
  364000    0.6863738   -7.5000547    74.743335  0.017111569  0.016819433           30 
  365000   0.67466206   -7.5025929    74.685464  0.017051476  0.016761886           52 
  366000   0.67313822   -7.5097093    74.605406  0.016986659  0.016704473           26 
  367000   0.69437014   -7.4939438     74.71916  0.016966204  0.016647055           51 
  368000   0.68768852   -7.5304869    74.566728  0.016885582  0.016590083           57 
  369000   0.68206937    -7.513151    74.635158  0.016855275  0.016532884           57 
  370000   0.67364085   -7.5313339    74.651737  0.016813454  0.016476285          100 
  371000   0.66442793   -7.5242584    74.605628  0.016757778  0.016419834           70 
  372000   0.67318579    -7.539092    74.633514  0.016718977  0.016363484           18 
  373000   0.66931402   -7.5554086    74.576042  0.016661314  0.016307467          106 
  374000   0.68871454   -7.5289294    74.828241  0.016672959  0.016251715           73 
  375000   0.66347199   -7.5424857    74.623531  0.016583007  0.016196102           65 
  376000   0.66415814   -7.5702807    74.594587  0.016532488  0.016140495           44 
  377000   0.66765122    -7.585456    74.514694  0.016470976  0.016084964           39 
  378000   0.67645598   -7.5770495    74.462373  0.016415867  0.016029514           84 
  379000   0.66378164    -7.570018    74.542927  0.016390265  0.015974116           48 
  380000   0.66531634   -7.5682537    74.571206  0.016353335  0.015918981           78 
  381000     0.664713   -7.5569122    74.456962  0.016285425  0.015863864           29 
  382000   0.66097539   -7.5870799    74.593584  0.016272597  0.015808943           88 
  383000    0.6608069   -7.5974028    74.425158  0.016193463  0.015754337          105 
  384000   0.63734388   -7.5931636    74.465832   0.01616012  0.015699942           60 
  385000   0.65900684   -7.5935415    74.482258  0.016121701  0.015645638           58 
  386000   0.65621411   -7.6110583     74.44796   0.01607253   0.01559144           96 
  387000   0.63037975    -7.587498    74.582623  0.016059996   0.01553721           77 
  388000   0.64162885   -7.5891447    74.335314  0.015965488  0.015483257           46 
  389000   0.65044272   -7.6275656    74.367901  0.015931427  0.015429317           43 
  390000   0.65153387   -7.5998234    74.418523  0.015901394  0.015375707           68 
  391000   0.63526206   -7.6182768    74.374906  0.015851429  0.015322195          140 
  392000   0.65055316   -7.6261534    74.488883  0.015835222  0.015268969           51 
  393000   0.64172909   -7.6286039    74.395397  0.015775105  0.015215871           39 
  394000   0.64060767   -7.6119992    74.526699  0.015762838   0.01516302           66 
  395000   0.63744977   -7.6246796    74.443479  0.015705375  0.015110122           44 
  396000   0.62577501   -7.6547109    74.282102  0.015631755   0.01505742           87 
  397000   0.62676942    -7.653759    74.519612  0.015642236  0.015005132           67 
  398000   0.63238679   -7.6340412    74.302332   0.01555744  0.014952934           37 
  399000   0.62235737   -7.6354709    74.291327   0.01551615  0.014900755           51 
  400000   0.61808178   -7.6305226    74.260694  0.015470978   0.01484883           51 
  401000   0.62926548   -7.6450876    74.388006  0.015458854  0.014796976           89 
  402000   0.62225319   -7.6624122     74.19625  0.015380649  0.014745278           76 
  403000   0.62843241   -7.6555561    74.144192  0.015331719  0.014693768           93 
  404000   0.63162297   -7.6486699    74.263525  0.015318384  0.014642377           70 
  405000   0.61864084   -7.6660818    74.097685  0.015246437  0.014591113           41 
  406000   0.62632991   -7.6554231    74.211426   0.01523223  0.014539909           36 
  407000   0.61082358   -7.6841076    74.237972   0.01520024  0.014489064           58 
  408000   0.61728242   -7.6671976    74.141449   0.01514327   0.01443843           79 
  409000   0.61840448   -7.6920103    74.231417  0.015124576  0.014387926           69 
  410000    0.6138644   -7.6758119    74.058612  0.015052563  0.014337709           54 
  411000   0.61795176   -7.6767533    74.343408  0.015073684  0.014287829          120 
  412000   0.61273001   -7.6889259    74.103821  0.014988637  0.014238099           74 
  413000   0.60390756   -7.6801118    74.209272  0.014973622  0.014188327           53 
  414000   0.60477461    -7.710087    74.104161  0.014916296  0.014138866           98 
  415000   0.60954551   -7.6935949    74.120178   0.01488357  0.014089331           48 
  416000   0.61195082   -7.7222021     74.25982  0.014875765  0.014040278          108 
  417000    0.6045851   -7.7125749    74.080286  0.014804214  0.013991407           45 
  418000   0.60700116   -7.7261085    74.064948  0.014765739  0.013942553          192 
  419000   0.59175973   -7.7202789    74.020623  0.014721683  0.013893873           67 
  420000   0.60063874   -7.7143531    74.060134  0.014694471   0.01384545           93 
  421000   0.59509729    -7.710403    74.203157  0.014687877  0.013797123           73 
  422000   0.59583112   -7.7116679    74.095341  0.014631781  0.013749126           34 
  423000   0.59347052   -7.7337743    74.165506  0.014611014   0.01370121           45 
  424000   0.59504207   -7.7455387    74.109034  0.014565455  0.013653552           68 
  425000   0.59888225   -7.7390807    74.021689  0.014514057   0.01360616           42 
  426000   0.58770661   -7.7251502     73.96799  0.014469482  0.013558848           28 
  427000   0.59679337   -7.7510564    74.122395  0.014465729  0.013511756           51 
  428000   0.57793374   -7.7356143    74.018087  0.014411621   0.01346481          149 
  429000   0.58076345   -7.7490812    74.063944  0.014386936  0.013418049           93 
  430000   0.57398895   -7.7340355    74.039768  0.014348792  0.013371405           65 
  431000   0.57845428   -7.7439734    73.995804     0.014307  0.013324938          108 
  432000   0.57368408   -7.7590004     74.01009  0.014276638  0.013278645           45 
  433000   0.56947185   -7.7618156    74.109048  0.014262711  0.013232513           34 
  434000   0.57811245   -7.7597172    73.966028  0.014202386  0.013186673           45 
  435000   0.57811768   -7.7650679    73.926591  0.014162182  0.013140831           50 
  436000    0.5615041   -7.7745219    73.864915  0.014117912  0.013095306           84 
  437000   0.59490591   -7.7826752    73.891461  0.014090668  0.013049918           39 
  438000   0.58271262   -7.7828463    73.754365  0.014032413  0.013004667          127 
  439000   0.57296214   -7.7788407     73.96947  0.014041281  0.012959501          174 
  440000   0.57381539   -7.7651141    73.929974  0.014001889  0.012914595           63 
  441000   0.56258057   -7.7855835    73.879457  0.013960593   0.01286991           81 
  442000   0.54332046    -7.779351    73.840612  0.013921684  0.012825516           59 
  443000   0.56080933   -7.7990783    73.757943  0.013874707  0.012781208          124 
  444000   0.54347981   -7.7870761    73.967442  0.013882778  0.012737082          111 
  445000   0.54281132   -7.7986042    73.958386  0.013849885  0.012693255          209 
  446000   0.56378033   -7.8016777    73.863576  0.013801117  0.012649453          140 
  447000   0.55489039   -7.8166193    73.764268  0.013751728  0.012605811          178 
  448000    0.5461957    -7.810248    73.932166  0.013752263  0.012562356           63 
  449000   0.55927423   -7.8347269    73.745675  0.013687022  0.012519092          138 
  450000    0.5659392   -7.8284637    73.763906  0.013659983  0.012475964           52 
  451000   0.55191722   -7.8214522    73.873863  0.013650012  0.012433081           58 
  452000   0.54799075   -7.8302692    73.702445  0.013588209  0.012390334           84 
  453000   0.53327244   -7.8296947    73.769394  0.013570529  0.012347906           81 
  454000   0.55147198   -7.8527666    73.701632    0.0135282   0.01230542          203 
  455000   0.53437224   -7.8407072    73.811078  0.013518512  0.012263265          113 
  456000   0.53447299    -7.840804    73.637253    0.0134571  0.012221172           94 
  457000   0.53541491   -7.8489232     73.68886  0.013437064  0.012179293          115 
  458000   0.52404869   -7.8477782    73.691266  0.013408163  0.012137584          269 
  459000   0.54068616   -7.8435423    73.814199  0.013401271  0.012095979           88 
  460000   0.52663248   -7.8531758    73.651364  0.013342638  0.012054535           70 
  461000   0.53104103   -7.8651843    73.680695  0.013318998  0.012013293          149 
  462000   0.52957154     -7.83876    73.616887  0.013278659  0.011972141           67 
  463000   0.54224133   -7.8645849    73.680774  0.013261478  0.011931152           73 
  464000   0.53868121   -7.8569915    73.628383  0.013223488  0.011890325          181 
  465000   0.51856901   -7.8637683    73.705111  0.013208801  0.011849656          243 
  466000   0.52715869   -7.8675315    73.661377  0.013172635  0.011809177          111 
  467000   0.51578672   -7.8849152     73.58139  0.013130155  0.011768807          140 
  468000   0.51709152   -7.8789138    73.412669  0.013072056  0.011728554          117 
  469000   0.51295498   -7.8755587    73.479132  0.013055994  0.011688506          133 
  470000   0.51763271   -7.8735151    73.504519  0.013032716  0.011648666          321 
  471000   0.52422454   -7.8919731    73.552588  0.013013551  0.011608948           86 
  472000   0.51644593   -7.8701502    73.422018  0.012962927  0.011569411           92 
  473000   0.51653134   -7.8801789    73.536155   0.01295563   0.01153004          209 
  474000   0.50307072   -7.8995708    73.488138  0.012919855  0.011490794          180 
  475000    0.5219691    -7.897223    73.531976  0.012900347  0.011451804          190 
  476000   0.49704053   -7.8719935    73.506203  0.012868733  0.011412926          154 
  477000   0.51719016   -7.8870018    73.545979  0.012848703  0.011374237           79 
  478000   0.50207469   -7.8948617    73.345501  0.012786872  0.011335711          100 
  479000   0.50604735   -7.8975184    73.498181   0.01278674  0.011297441          205 
  480000   0.49677415    -7.899186    73.484814   0.01275778  0.011259275           94 
  481000   0.51227802   -7.9045405    73.324551  0.012703491  0.011221232          112 
  482000   0.49897858   -7.9291519    73.379556  0.012686645  0.011183328          123 
  483000   0.49055531   -7.9157811    73.306041  0.012647695  0.011145583          343 
  484000   0.49931057   -7.9090632    73.448195  0.012646039  0.011107973          264 
  485000   0.49118082   -7.9305713    73.511943  0.012630918  0.011070529          143 
  486000   0.48412825   -7.9131816    73.411602  0.012587723  0.011033252          162 
  487000   0.50044655   -7.9347095    73.493916  0.012575961   0.01099617           82 
  488000   0.48804525   -7.9140774    73.322313  0.012520887  0.010959227           89 
  489000   0.48381663   -7.9315817    73.429044   0.01251347  0.010922537          131 
  490000   0.47793606   -7.9361206     73.30693  0.012467165  0.010885884          161 
  491000   0.47448822    -7.930896     73.31498   0.01244314  0.010849415          109 
  492000   0.48303308   -7.9265892    73.430367  0.012437393   0.01081303           76 
  493000   0.48154689   -7.9138858    73.297299  0.012389672  0.010776793           78 
  494000   0.47489122   -7.9344977    73.322356  0.012368818  0.010740666           94 
  495000   0.47756795   -7.9548356    73.335478   0.01234604  0.010704766          201 
  496000   0.47980619   -7.9522216     73.26732  0.012309698  0.010669034          158 
  497000   0.47260232   -7.9505302    73.348053  0.012298466  0.010633467           96 
  498000   0.47022053   -7.9523694    73.291698   0.01226434  0.010598167           58 
  499000   0.48060257   -7.9750889    73.285899  0.012238794  0.010562952           80 
  500000   0.46976519   -7.9487755    73.288205  0.012214701   0.01052785           97 
  501000   0.47201289    -7.945671    73.252773  0.012184427  0.010492886           47 
  502000   0.46788579   -7.9463269    73.244809  0.012158833  0.010458089          102 
  503000   0.45810911   -7.9599482    73.275991  0.012139826  0.010423404          105 
  504000   0.45757809   -7.9537695    73.206754  0.012104291   0.01038894          132 
  505000   0.46578297   -7.9810367    73.229162   0.01208402   0.01035465           97 
  506000   0.46240564   -7.9734675    73.175232  0.012051257  0.010320454          123 
  507000   0.46883687   -7.9644008     73.31108  0.012049816   0.01028637          134 
  508000   0.46145169   -7.9681892    73.224399  0.012011877  0.010252423          224 
  509000   0.45532643   -7.9751119    73.058957  0.011961191  0.010218583           87 
  510000   0.45687391   -7.9751343    73.267386  0.011971795  0.010184908          171 
  511000   0.45738164   -7.9848721    73.130747  0.011926084  0.010151369          118 
  512000   0.45726141   -8.0021981    73.262798  0.011924284   0.01011804           80 
Loop time of 1306.1 on 48 procs for 500000 steps with 4000 atoms

Performance: 66151.047 tau/day, 382.819 timesteps/s
99.4% CPU use with 48 MPI tasks x no OpenMP threads

MPI task timing breakdown:
Section |  min time  |  avg time  |  max time  |%varavg| %total
---------------------------------------------------------------
Pair    | 92.039     | 100.63     | 109.96     |  35.9 |  7.70
Neigh   | 9.1976     | 9.5176     | 9.8814     |   5.3 |  0.73
Comm    | 82.03      | 91.454     | 99.939     |  37.4 |  7.00
Output  | 0.94743    | 0.94814    | 0.9699     |   0.3 |  0.07
Modify  | 1087.3     | 1091       | 1094.6     |   4.5 | 83.53
Other   |            | 12.51      |            |       |  0.96

Nlocal:        83.3333 ave          90 max          75 min
Histogram: 1 0 4 5 8 4 16 2 6 2
Nghost:        2421.29 ave        2438 max        2405 min
Histogram: 4 1 5 7 8 7 10 2 0 4
Neighs:        16781.2 ave       19780 max       14665 min
Histogram: 2 13 5 5 5 2 7 5 2 2
FullNghs:      33562.6 ave       36201 max       30084 min
Histogram: 1 2 2 5 8 9 9 4 6 2

Total # of neighbors = 1611006
Ave neighs/atom = 402.75150
Neighbor list builds = 26682
Dangerous builds = 0

#clear
#
#next RN
#
#jump SELF
Total wall time: 0:21:49
