
units lj                  # Use reduced LJ style units
atom_style atomic         # Uncharged point particles
atom_modify map hash      # Needed for indexing of clusters etc
                          # Used to be able to find where atoms are in relation to each other.

lattice fcc 1.0 spacing 1 1 1
Lattice spacing in x,y,z = 1.5874011 1.5874011 1.5874011
region box block 0 10 0 10 0 10 units lattice
create_box 2 box
Created orthogonal box = (0.0000000 0.0000000 0.0000000) to (15.874011 15.874011 15.874011)
  3 by 4 by 4 MPI processor grid
create_atoms 1 box
Created 4000 atoms
  using lattice units in orthogonal box = (0.0000000 0.0000000 0.0000000) to (15.874011 15.874011 15.874011)
  create_atoms CPU = 0.003 seconds
set type 1 type/fraction 2 0.2 78393
Setting atom values ...
  836 settings made for type/fraction
mass 1 1.0
mass 2 1.0
pair_style lj/cut  3.5
pair_modify tail  yes
pair_coeff 1  1  1.0  1.0   # Intearaction between 1 and 1 set with epsilon = 1 and sigma = 1
pair_coeff 1  2  1.5  0.8
pair_coeff 2  2  0.5  0.88

write_data data.0
System init for write_data ...
Neighbor list info ...
  update every 1 steps, delay 10 steps, check yes
  max neighbors/atom: 2000, page size: 100000
  master list distance cutoff = 3.8
  ghost atom cutoff = 3.8
  binsize = 1.9, bins = 9 9 9
  1 neighbor lists, perpetual/occasional/extra = 1 0 0
  (1) pair lj/cut, perpetual
      attributes: half, newton on
      pair build: half/bin/atomonly/newton
      stencil: half/bin/3d
      bin: standard
WARNING: Not all mixed pair coeffs generated from mixing. Use write_data with 'pair ij' option to store all pair coeffs. (../write_data.cpp:312)


#############################
#   M E L T   S Y S T E M   #
#############################

velocity all create 2.4 6229865 mom yes dist gaussian # Assign velocities
                                                    # Temperature 2.4, random number seed, zero linear momentum
                                                                                # Gaussian distribution

timestep 0.002   # simulation timestep
thermo 1000       # output thermodynamic data every 1000 steps bf 100

# Define a fix  in this case with index 1 applied to all
# particles in the simulation. This fix is for simulations
# in the anisotropic NPT ensemble. Note that we use the MTK
# correction.
fix 1 all npt temp 2.4 2.4 0.1 iso 5.68 5.68 0.5 mtk yes tchain 5 pchain 5 # Use NPT ensemble
                                                                         # Set temperature and pressure and damping
                                                                         # Numbers of thermostats in chain and in barostat
run 10000          # run for 10000 steps
Per MPI rank memory allocation (min/avg/max) = 3.642 | 3.644 | 3.648 Mbytes
Step Temp E_pair E_mol TotEng Press Volume 
       0          2.4   -7.0365901            0   -3.4374901   -3.6176696         4000 
    1000    2.3639343   -4.8112425            0   -1.2662275    6.0088637    4446.6995 
    2000    2.4096759   -4.8663381            0   -1.2527279    5.6305761    4460.5485 
    3000    2.4115924   -4.7546533            0    -1.138169    6.2129963    4455.0206 
    4000    2.3758049   -4.8322623            0    -1.269446    5.2708811    4518.2812 
    5000    2.3737123   -4.8362412            0   -1.2765628    5.8022874    4449.2533 
    6000    2.3814869   -4.8620563            0    -1.290719    5.7126938    4451.0459 
    7000    2.4269401   -4.8276409            0   -1.1881408     5.961503    4452.1883 
    8000    2.4017592   -4.8447801            0    -1.243042    5.5083446    4486.4479 
    9000    2.4065661   -4.8055736            0   -1.1966269    5.5122097    4510.0986 
   10000     2.409267   -4.7776017            0   -1.1646047    5.8908968    4469.8559 
Loop time of 2.26851 on 48 procs for 10000 steps with 4000 atoms

Performance: 761733.791 tau/day, 4408.182 timesteps/s
99.6% CPU use with 48 MPI tasks x no OpenMP threads

MPI task timing breakdown:
Section |  min time  |  avg time  |  max time  |%varavg| %total
---------------------------------------------------------------
Pair    | 0.97264    | 1.0342     | 1.0982     |   3.0 | 45.59
Neigh   | 0.19605    | 0.20379    | 0.21965    |   1.1 |  8.98
Comm    | 0.70248    | 0.77494    | 0.85564    |   3.9 | 34.16
Output  | 0.00024139 | 0.00024587 | 0.00030591 |   0.0 |  0.01
Modify  | 0.22077    | 0.24062    | 0.25933    |   2.1 | 10.61
Other   |            | 0.01475    |            |       |  0.65

Nlocal:        83.3333 ave          95 max          74 min
Histogram: 5 2 4 10 9 5 7 3 2 1
Nghost:        1525.23 ave        1555 max        1487 min
Histogram: 2 1 5 4 4 6 10 9 6 1
Neighs:        8530.88 ave        9927 max        7371 min
Histogram: 4 3 5 9 7 6 7 3 3 1

Total # of neighbors = 409482
Ave neighs/atom = 102.37050
Neighbor list builds = 903
Dangerous builds = 191

# Equilibrate just above the melting temperature to avoid step fn in T

fix 1 all npt temp 1.25 1.25 0.1 iso 5.68 5.68 0.5 mtk yes tchain 5 pchain 5
run 2000
Per MPI rank memory allocation (min/avg/max) = 3.643 | 3.645 | 3.649 Mbytes
Step Temp E_pair E_mol TotEng Press Volume 
   10000     2.409267   -4.7776017            0   -1.1646047    5.8908968    4469.8559 
   11000    1.2520468   -6.5293517            0    -4.651751    5.8329836    3642.6631 
   12000    1.2934909   -6.6035857            0   -4.6638345    5.6558995    3632.7762 
Loop time of 0.513406 on 48 procs for 2000 steps with 4000 atoms

Performance: 673151.304 tau/day, 3895.552 timesteps/s
99.6% CPU use with 48 MPI tasks x no OpenMP threads

MPI task timing breakdown:
Section |  min time  |  avg time  |  max time  |%varavg| %total
---------------------------------------------------------------
Pair    | 0.22512    | 0.24653    | 0.28179    |   2.1 | 48.02
Neigh   | 0.032712   | 0.034671   | 0.038851   |   0.6 |  6.75
Comm    | 0.14723    | 0.17574    | 0.20291    |   2.9 | 34.23
Output  | 5.2043e-05 | 5.6826e-05 | 8.254e-05  |   0.0 |  0.01
Modify  | 0.039102   | 0.051807   | 0.064349   |   3.2 | 10.09
Other   |            | 0.004601   |            |       |  0.90

Nlocal:        83.3333 ave          89 max          77 min
Histogram: 5 3 1 5 3 14 5 4 2 6
Nghost:        1756.46 ave        1776 max        1742 min
Histogram: 7 3 7 6 7 6 5 2 1 4
Neighs:        10521.4 ave       11574 max        9395 min
Histogram: 2 4 4 7 3 10 8 2 5 3

Total # of neighbors = 505027
Ave neighs/atom = 126.25675
Neighbor list builds = 143
Dangerous builds = 12

#############################
# L I N E A R  Q U E N C H  #
#############################

# Define solid atoms. This closely follows ten Wolde  Ruiz-Montero and Frenkel  Faraday Discuss  1996  104  93-110
# Compute components of the per-atom q6 vector
compute q6 all orientorder/atom degrees 1 6 components 6 nnn NULL cutoff 1.3 # compute the Q6 parameter.
                                                                             # Use all neighbours within 1.3 unit cell.

# get number of connections
compute coord_number all coord/atom orientorder q6 0.5

# An atom is solid if it has 8 or more connections (of a possible 14)
variable is_solid atom c_coord_number>=8
group solid dynamic all var is_solid    # Must be dynamic to update
dynamic group solid defined

# do clustering
compute cluster solid cluster/atom 1.3 # Create a cluster where all atoms within are solid and max 1.3 units from another member

# define chunks one chunk per cluster
compute clus_chunks solid chunk/atom c_cluster nchunk every compress yes  # Says which atoms are in which chunk

# count the size of each chunk
compute size_chunks solid property/chunk clus_chunks count


# Find the maximum entry in the vector of chunk sizes
variable max_n equal max(c_size_chunks)


# Thermo style which includes this variable
# thermo_style custom step temp pe vol v_max_n

thermo ${N}  # Print the thermo information every 100 steps
thermo 1000  

# Reset the npt fix at a lower temperature (below freezing)
fix 1  all npt temp  ${temp} ${temp}  0.1  iso  5.68  5.68  0.5  mtk yes tchain  5  pchain  5
fix 1  all npt temp  0.45 ${temp}  0.1  iso  5.68  5.68  0.5  mtk yes tchain  5  pchain  5
fix 1  all npt temp  0.45 0.45  0.1  iso  5.68  5.68  0.5  mtk yes tchain  5  pchain  5

dump dmp2 all dcd ${N} traj.dcd
dump dmp2 all dcd 1000 traj.dcd


compute msd all msd com yes
variable twopoint equal c_msd[4]/6/(step*dt+1.0e-6)
fix 9 all vector 10 c_msd[4]
variable fit equal slope(f_9)/6/(10*dt)
thermo_style custom step temp pe c_msd[4] v_twopoint v_fit v_max_n

fix 1 all npt temp 1.25 ${temp} 0.1 iso 5.68 5.68 0.5 mtk yes tchain 5 pchain 5
fix 1 all npt temp 1.25 0.45 0.1 iso 5.68 5.68 0.5 mtk yes tchain 5 pchain 5
run 5000000 # 5000000  # Run for this many steps
Neighbor list info ...
  update every 1 steps, delay 10 steps, check yes
  max neighbors/atom: 2000, page size: 100000
  master list distance cutoff = 3.8
  ghost atom cutoff = 3.8
  binsize = 1.9, bins = 9 9 9
  4 neighbor lists, perpetual/occasional/extra = 1 3 0
  (1) pair lj/cut, perpetual
      attributes: half, newton on
      pair build: half/bin/atomonly/newton
      stencil: half/bin/3d
      bin: standard
  (2) compute orientorder/atom, occasional
      attributes: full, newton on
      pair build: full/bin/atomonly
      stencil: full/bin/3d
      bin: standard
  (3) compute coord/atom, occasional
      attributes: full, newton on
      pair build: full/bin/atomonly
      stencil: full/bin/3d
      bin: standard
  (4) compute cluster/atom, occasional
      attributes: full, newton on
      pair build: full/bin/atomonly
      stencil: full/bin/3d
      bin: standard
Per MPI rank memory allocation (min/avg/max) = 9.776 | 9.781 | 9.785 Mbytes
Step Temp PotEng c_msd[4] v_twopoint v_fit v_max_n 
   12000    1.2934909   -6.6035857 3.0199568e-30 2.0971921e-32 8.3333333e+20            2 
   13000    1.2320806   -6.5447148   0.52105909 0.0033401222  0.043029935            2 
   14000    1.2504133    -6.608864    1.0423314 0.0062043532  0.043048101            2 
   15000    1.2224054   -6.5559788     1.553054 0.0086280773  0.042541626            1 
   16000    1.2612765   -6.5633755    2.0982836   0.01092856  0.043321523            1 
   17000    1.2597173   -6.5210917    2.6104632  0.012796388  0.043423301            2 
   18000    1.2407934   -6.5641259    3.0520275  0.014129757  0.042985611            3 
   19000    1.2583683    -6.532285    3.6609872  0.016056961  0.042892838            1 
   20000    1.2703329   -6.5666238    4.1565807  0.017319086  0.043172259            1 
   21000    1.2694226   -6.5423991    4.5967517  0.018241078  0.042786911            1 
   22000    1.2455837    -6.566719    5.0662554  0.019190361  0.042590248            1 
   23000    1.2662469   -6.5619809    5.5136729  0.019977075  0.042283914            2 
   24000    1.2494429    -6.641501    6.0196719  0.020901638  0.041975046            1 
   25000    1.2353896   -6.5642154    6.4672625  0.021557541  0.041716352            4 
   26000    1.2310333   -6.5701025    7.0121253   0.02247476  0.041571548            2 
   27000    1.2556803   -6.5517672    7.5041338  0.023160906  0.041404894            2 
   28000    1.2264428   -6.5890489    8.0705246  0.024019418   0.04140644            2 
   29000    1.2249281   -6.5921331    8.6606593  0.024886952  0.041559287            3 
   30000     1.222012    -6.577426     9.124333  0.025345369  0.041672746            3 
   31000    1.2580525   -6.5560937    9.6683189  0.025990104  0.041775127            2 
   32000    1.2771764   -6.5647702    10.134773  0.026392637  0.041776978            1 
   33000     1.229167    -6.578207    10.595239  0.026755653  0.041763569            2 
   34000    1.2760077    -6.617025    11.105703   0.02721986  0.041758272            2 
   35000    1.2795185   -6.5659636    11.855977  0.028228516  0.041881479            2 
   36000    1.2522408   -6.5740522    12.490823  0.028913941  0.042136878            1 
   37000    1.2524879   -6.6061889    12.920037  0.029099183  0.042368275            1 
   38000    1.2544713   -6.5774997    13.391269  0.029366817  0.042516758            2 
   39000    1.2674544   -6.5325598     13.91879  0.029741003  0.042613784            2 
   40000    1.2272247   -6.5587091    14.452007  0.030108348  0.042699476            2 
   41000    1.2421626    -6.559646     15.12295  0.030737702  0.042840739            2 
   42000    1.2398395   -6.5818874    15.703213  0.031157169  0.042981448            4 
   43000    1.2336128   -6.6207604    16.138086  0.031275359  0.043119951            2 
   44000    1.2363831   -6.6109154    16.741617  0.031707607  0.043240691            3 
   45000    1.2478472   -6.5402696    17.157628  0.031773385  0.043314311            3 
   46000    1.2045306   -6.5869451    17.728259   0.03211641  0.043377729            2 
   47000    1.2459726   -6.5831099    18.334485  0.032507952  0.043453361            2 
   48000      1.27437   -6.5630876    18.949182  0.032897885  0.043572629            1 
   49000    1.2480847   -6.6033974    19.428762  0.033042112  0.043677774            2 
   50000    1.2297384   -6.5713218    20.029581  0.033382634  0.043747303            2 
   51000    1.2361028   -6.6083016    20.536548  0.033556451  0.043830836            1 
   52000    1.2262613   -6.5954405    21.281919  0.034105639  0.043953085            1 
   53000    1.2584293   -6.5944066    21.690994  0.034105336  0.044057035            2 
   54000    1.2308223   -6.5388976    22.361521   0.03450852  0.044148555            1 
   55000    1.2412089   -6.5601804    22.913008  0.034716679  0.044250752            2 
   56000    1.2173869   -6.5625633    23.558665  0.035057537   0.04435393            1 
   57000    1.2609394   -6.5926706    24.000082  0.035087839  0.044445292            1 
   58000    1.2303831   -6.5643752    24.555903   0.03528147  0.044503478            1 
   59000    1.2379404   -6.5424831    25.020875  0.035340219  0.044541819            3 
   60000    1.2288168   -6.5755487    25.440261  0.035333696  0.044571848            1 
   61000    1.2085738   -6.5402345    25.906348  0.035391186  0.044583584            2 
   62000    1.2850367   -6.5863494    26.303494  0.035354158  0.044569813            3 
   63000    1.2523227   -6.5730728    26.852367  0.035519004  0.044537929            2 
   64000    1.2450229   -6.5810383    27.293887  0.035538915  0.044505882            1 
   65000    1.2542955   -6.5855633    27.792991   0.03563204  0.044473004            1 
   66000    1.2390326   -6.6059374     28.20956  0.035618131  0.044441469            1 
   67000    1.2474025   -6.5864967    28.734973  0.035740016  0.044394505            1 
   68000    1.2306689    -6.539812    29.094998  0.035655634  0.044329403            1 
   69000    1.2176019   -6.6118372    29.656101  0.035816547  0.044265029            2 
   70000    1.2367396   -6.5789568    30.276593  0.036043563  0.044222669            2 
   71000    1.2478568   -6.5716577    30.765523  0.036109768  0.044178437            1 
   72000    1.2670025   -6.5646487    31.062506  0.035951975  0.044130681            1 
   73000    1.2164718   -6.5943083    31.611977  0.036086731  0.044068841            1 
   74000    1.2258837   -6.5928757    32.083224  0.036129756  0.044014121            2 
   75000    1.2288831   -6.6003879    32.371818  0.035968686  0.043947099            1 
   76000    1.2241228   -6.5839604    32.882211  0.036055056  0.043881485            2 
   77000    1.2362821   -6.5460307    33.376716  0.036121987  0.043811941            3 
   78000    1.2699758   -6.6144164    33.706228  0.036010927  0.043725821            4 
   79000     1.231967   -6.6006459    34.304519  0.036186202  0.043639861            1 
   80000    1.2547235   -6.5797352    34.825546   0.03627661  0.043573512            2 
   81000    1.2190712   -6.6054341     35.37996  0.036399136  0.043511626            2 
   82000      1.24266   -6.5547883    35.975903  0.036560876  0.043459853            2 
   83000    1.2469403   -6.6081946    36.395992  0.036542161  0.043401519            5 
   84000     1.240737   -6.6061516    36.566344  0.036276134  0.043336116            2 
   85000    1.2406363   -6.5805487    37.103465  0.036375946  0.043258899            1 
   86000    1.2384301   -6.5943506    37.750604  0.036580042  0.043191818            3 
   87000    1.2254799   -6.5560574    38.371567  0.036754375  0.043132169            1 
   88000    1.2265275   -6.5844608    38.824296  0.036765431  0.043082687            3 
   89000    1.2201486   -6.6086211    39.320841  0.036817266  0.043038842            1 
   90000    1.2143671   -6.5995304    39.654431  0.036717065  0.042988867            2 
   91000    1.2235973    -6.578757    40.313482  0.036917108  0.042929597            1 
   92000    1.2214874   -6.6160092    40.594588   0.03677046  0.042875211            2 
   93000    1.2438354   -6.5792236    41.031652  0.036766713  0.042817221            1 
   94000    1.2235368   -6.5459101    41.547707  0.036833073  0.042753631            2 
   95000     1.224117   -6.5928817    41.956205  0.036803689  0.042695643            1 
   96000    1.2415704   -6.5920676    42.339341    0.0367529  0.042636682            3 
   97000    1.2464537   -6.6136075    43.039641  0.036975636  0.042588008            2 
   98000    1.2349543   -6.5873386    43.644797  0.037112922  0.042545886            1 
   99000    1.2411201   -6.5960846    43.850719  0.036911379  0.042499033            3 
  100000    1.2374254   -6.6036698     44.43652  0.037030433  0.042449308            3 
  101000    1.2295902   -6.5982703    44.688607  0.036871788   0.04240079            1 
  102000    1.2492287   -6.5673896    45.378192  0.037073686  0.042358106            2 
  103000    1.2362898   -6.5903913    45.599121  0.036892493  0.042309171            2 
  104000    1.2284227   -6.5700847    46.021462  0.036876172  0.042251158            2 
  105000    1.2231802   -6.5348638    46.630212  0.037008105  0.042199682            2 
  106000    1.2218964    -6.554421    47.156507  0.037072726  0.042145772            2 
  107000    1.2304953   -6.5858221    47.747478  0.037186509  0.042103174            2 
  108000    1.2389149   -6.6049827    48.209693  0.037198837  0.042071327            2 
  109000    1.2377041   -6.5926342    49.139788  0.037568645  0.042044018            2 
  110000    1.2379468   -6.5752456    49.481754  0.037486177  0.042026038            3 
  111000    1.2432712   -6.6267487    50.005619  0.037541756  0.042010323            1 
  112000    1.2484661   -6.6385249    50.533898  0.037599626  0.041990417            3 
  113000    1.2368606   -6.6028622    51.057602  0.037653099   0.04197783            1 
  114000    1.2315124   -6.6165834    51.753318  0.037831373  0.041967682            2 
  115000    1.2278182   -6.6052725    52.233829    0.0378506  0.041961225            2 
  116000    1.2453155   -6.5763525    52.898556  0.038001836  0.041955656            1 
  117000     1.204732   -6.5967978    53.159955  0.037863216  0.041946656            2 
  118000    1.2264803   -6.6143431    53.571029  0.037832647  0.041938554            1 
  119000    1.2253269   -6.5830778    54.200396  0.037955459  0.041933209            1 
  120000    1.2207218    -6.612298    54.780059  0.038041708  0.041928647            1 
  121000    1.2127232   -6.5903192     55.51947  0.038236549  0.041929688            1 
  122000      1.24704   -6.5864319    55.937067  0.038208379  0.041938319            2 
  123000    1.2141432   -6.6010869     56.66356  0.038389946  0.041951855            3 
  124000    1.2306114   -6.6246567    56.701849  0.038106081  0.041958309            1 
  125000    1.2462389   -6.6107931    57.290598  0.038193732  0.041957372            1 
  126000    1.2351136   -6.5820833    57.921739  0.038308028  0.041962177            1 
  127000    1.2004503   -6.5794244     58.60582  0.038455262  0.041968744            1 
  128000    1.2136589     -6.53879    59.123303  0.038491733  0.041972897            2 
  129000    1.2391387   -6.6242376    59.622602  0.038515893  0.041981296            6 
  130000    1.2315049   -6.5886566    60.166699  0.038568396   0.04199054            2 
  131000    1.2533322     -6.63709    60.863115  0.038716994  0.042007278            3 
  132000    1.2335222   -6.6238122    61.007635  0.038514921  0.042021361            1 
  133000    1.2406728   -6.5897935    61.766052  0.038700534  0.042028489            1 
  134000    1.2172961   -6.5891314    62.337191   0.03876691   0.04203513            2 
  135000    1.2414944   -6.6290346    62.450472  0.038549674  0.042037495            1 
  136000     1.218011   -6.6031058    62.852678   0.03851267  0.042036664            1 
  137000    1.2242431   -6.5794179     63.59188  0.038681192  0.042036474            2 
  138000      1.24755   -6.6163503    64.234093  0.038788704  0.042038131            2 
  139000    1.2408321   -6.6114802    64.436477  0.038630981   0.04204198            1 
  140000    1.2417965   -6.6262905     64.86503  0.038610137  0.042043798            3 
  141000    1.2131913   -6.6189482    65.205297   0.03853741  0.042043656            4 
  142000    1.2366646   -6.5825888    66.109739  0.038796795  0.042043866            2 
  143000    1.2264453   -6.6195187    66.513359  0.038760698  0.042044012            2 
  144000    1.1912078   -6.6056826     67.17428  0.038874005  0.042041438            2 
  145000     1.213032    -6.618815    67.832365  0.038984118  0.042042188            3 
  146000     1.208202     -6.58969    68.339434  0.039006526  0.042047247            1 
  147000    1.2420752   -6.6087955    68.455411  0.038806922  0.042050484            1 
  148000    1.2305969   -6.5847573    69.175238  0.038950021  0.042049668            1 
  149000    1.2397302    -6.594867    69.863423  0.039073502  0.042051567            2 
  150000    1.2733021   -6.5902304    70.519478  0.039177488  0.042059727            1 
  151000    1.2359384    -6.621032    70.727133  0.039032634  0.042064922            2 
  152000    1.2101555   -6.6191228    70.922407  0.038882899  0.042066156            3 
  153000    1.2618688   -6.5564755    71.939951   0.03918298   0.04206757            3 
  154000    1.2032053   -6.6400661     72.22575  0.039083198  0.042071324            2 
  155000    1.2028596    -6.598923    73.016666  0.039256272  0.042077361            2 
  156000    1.2262656   -6.5958609    73.380289  0.039198872  0.042084625            3 
  157000    1.2499651   -6.6218771    73.666599  0.039101167  0.042092168            2 
  158000    1.2169445   -6.6418465    74.391109  0.039235817  0.042097788            2 
  159000    1.2245412   -6.5687723    74.666992  0.039133644  0.042100577            2 
  160000    1.2556489   -6.6230188    75.148573  0.039139882  0.042100464            3 
  161000    1.1946239   -6.6697522    75.792109   0.03922987  0.042101652            1 
  162000    1.2239393   -6.6143058     76.64592  0.039426914  0.042107286            2 
  163000    1.2127163   -6.6281318    76.588331  0.039155588   0.04211122            3 
  164000    1.2362424   -6.5966407    77.321186  0.039289221  0.042110125            2 
  165000    1.2543186   -6.5743164    77.634081  0.039209131  0.042110274            2 
  166000    1.2445284   -6.6285222    78.000658  0.039156957  0.042105851            3 
  167000    1.2067462   -6.6055796    78.301459  0.039072584  0.042100189            2 
  168000    1.2572764   -6.6260834    78.826326   0.03910036  0.042093614            1 
  169000    1.2425553   -6.6439148    79.389649  0.039146769  0.042088623            3 
  170000    1.2281653   -6.6051852    80.136107  0.039282405  0.042084401            1 
  171000    1.2276294   -6.6192907    80.764151  0.039358748  0.042081834            3 
  172000    1.1910953   -6.5817936    81.226207  0.039353782  0.042081608            4 
  173000    1.2366311   -6.5849916    81.543346  0.039279068  0.042078632            1 
  174000    1.2269129   -6.5922635    81.695879  0.039126379  0.042073794            1 
  175000    1.1857964   -6.6307526    82.037101  0.039065286  0.042063338            2 
  176000    1.2211254   -6.6101301    82.165284  0.038904017  0.042051378            2 
  177000    1.2054128   -6.6052191    82.882476  0.039021881   0.04203718            2 
  178000    1.1977255   -6.5608219    83.439236  0.039063313  0.042022018            2 
  179000    1.2333938   -6.6244246    83.607508  0.038923421  0.042006408            1 
  180000    1.2032861   -6.6346204    84.114848  0.038942059    0.0419907            2 
  181000     1.233719   -6.6130214    84.816422  0.039049918  0.041974375            2 
  182000    1.1932614   -6.6522832    85.234042  0.039026576  0.041961991            1 
  183000    1.2215897    -6.639571    85.593139  0.038976839  0.041945975            3 
  184000    1.2068004   -6.6250349    86.201783  0.039040663  0.041931869            1 
  185000    1.2152501   -6.6279609    86.483302  0.038956442  0.041916212            3 
  186000    1.2163072   -6.6199839     86.90437   0.03893565  0.041897318            3 
  187000    1.2322492   -6.6299154    87.613755  0.039043563  0.041880248            3 
  188000    1.2014105   -6.6008767    88.131049  0.039065181  0.041865042            2 
  189000    1.2127405   -6.6617513    88.287373  0.038927413  0.041850192            2 
  190000    1.2221072   -6.6441572    88.671352  0.038890944  0.041833041            3 
  191000    1.2217085    -6.599447    89.326267  0.038973066  0.041815249            1 
  192000     1.232582   -6.6498816    89.744448  0.038951583  0.041795132            2 
  193000    1.1784351   -6.5957081    90.133178  0.038917607  0.041779388            1 
  194000    1.2528084   -6.6301122    90.572167   0.03890557   0.04176353            1 
  195000    1.2248915   -6.6494546    90.766979  0.038789307  0.041743858            3 
  196000    1.2236212   -6.6115609    91.302687  0.038819169  0.041722401            2 
  197000    1.2294654   -6.6298378     91.84669  0.038852237  0.041700802            3 
  198000    1.2288114    -6.634612    92.649764  0.038994008  0.041680332            2 
  199000    1.2164072   -6.6077804    92.626112  0.038788154  0.041660782            1 
  200000    1.1938423   -6.6119358    93.349729   0.03889572  0.041641286            2 
  201000    1.2041078    -6.607989    93.934067  0.038944472  0.041623712            2 
  202000    1.2130662   -6.6005539    94.452645  0.038965613  0.041606629            1 
  203000    1.2018963   -6.6144709    94.993526    0.0389957   0.04158926            2 
  204000    1.2120882   -6.6188197    95.529754  0.039023592  0.041572396            1 
  205000    1.2097297   -6.6114197    96.533236  0.039241153  0.041559167            3 
  206000    1.2408499   -6.6257886    96.737262  0.039133196  0.041547356            2 
  207000    1.2256689   -6.6115116    97.336526  0.039185397  0.041537512            2 
  208000      1.25254   -6.6068552    97.649155  0.039122258  0.041525479            2 
  209000    1.2207619   -6.6410882    97.879916   0.03902708   0.04151442            3 
  210000    1.2009302   -6.6537544    98.255244  0.038990176   0.04150144            1 
  211000    1.1886164   -6.5909084    99.265865  0.039204528  0.041489567            2 
  212000    1.2116729   -6.5999033    99.710055  0.039194204  0.041479343            1 
  213000    1.2071588   -6.6368374    100.28966  0.039236957   0.04146905            1 
  214000    1.1882226   -6.6501209     100.4267  0.039106972  0.041459854            3 
  215000     1.197079   -6.6410819    101.13853   0.03920098  0.041449694            2 
  216000    1.2005677   -6.6091132    101.44099  0.039136185  0.041439523            2 
  217000    1.2242192   -6.6259555    102.15974  0.039231849  0.041429513            1 
  218000    1.2329515   -6.6656466    102.27334  0.039095312  0.041419239            1 
  219000    1.2108767   -6.6053451    103.09037  0.039227691  0.041408512            4 
  220000    1.2375019   -6.6060487    103.50411  0.039206103  0.041397518            1 
  221000    1.2290373   -6.6795692     103.1487  0.038894682   0.04138404            2 
  222000    1.2269392     -6.63663    104.01077  0.039043083  0.041369128            1 
  223000     1.243221    -6.674926    104.29481  0.038974143  0.041356933            2 
  224000    1.2146741   -6.6329014    105.02975  0.039073567  0.041344925            4 
  225000    1.2214017   -6.6324298    105.47314  0.039064126  0.041333941            1 
  226000    1.2002799   -6.6455241    105.92643  0.039058418  0.041320649            5 
  227000     1.248108   -6.6136473    106.60813   0.03913661   0.04131051            2 
  228000    1.2188956   -6.6459923    106.97774  0.039100051  0.041300773            3 
  229000    1.2143479   -6.6435794    107.53583  0.039132397  0.041291628            1 
  230000    1.1877846   -6.6393484    107.89805  0.039093498  0.041280738            1 
  231000    1.2085903   -6.6223821     108.4885  0.039137264   0.04126995            2 
  232000    1.2025989   -6.6150105    108.97452  0.039143148  0.041257325            1 
  233000    1.2102164   -6.6062236    109.12951  0.039030583  0.041245452            2 
  234000    1.2175611   -6.6147184    110.36407  0.039303442  0.041234914            2 
  235000    1.2232546   -6.6362163    110.14711  0.039059259  0.041226626            2 
  236000    1.2532681   -6.6234959    110.93376  0.039171524  0.041217668            2 
  237000    1.2261223   -6.6172004    111.30836  0.039137961   0.04120756            1 
  238000     1.217723   -6.6163274    111.67738  0.039102723  0.041195596            2 
  239000    1.1952421   -6.6277338    111.99599  0.039050207  0.041183927            3 
  240000    1.2164626   -6.6649787    112.49375  0.039060331  0.041170867            3 
  241000     1.224497   -6.6394732    113.06214  0.039094792  0.041155863            2 
  242000    1.2217197   -6.6229496    113.22549  0.038989495  0.041141028            3 
  243000    1.2035865   -6.6393194    113.43937  0.038902389  0.041125851            2 
  244000    1.2274678   -6.6369324    114.20469  0.039004335  0.041110609            1 
  245000    1.2192911   -6.5882185    114.81559  0.039052921  0.041098568            4 
  246000    1.1904715   -6.6378828    115.39808  0.039091489  0.041088156            7 
  247000    1.1814934   -6.6239699    115.31019  0.038903571  0.041073866            3 
  248000    1.2134163   -6.6629948    116.11316  0.039016518  0.041060795            3 
  249000    1.2075607   -6.6204728    116.70829  0.039058999  0.041050974            1 
  250000     1.192062   -6.6432481    117.47462  0.039158208  0.041040173            1 
  251000    1.2250446   -6.5958712    117.47436  0.039002111  0.041026814            1 
  252000    1.2332488   -6.6536309    118.18073   0.03908093  0.041014587            1 
  253000    1.2212822   -6.6341384     118.5457  0.039046673  0.041003159            1 
  254000    1.2089317   -6.6213205    118.89785  0.039008482  0.040990844            1 
  255000    1.2121525   -6.6307746    119.45803  0.039038571  0.040978479            3 
  256000    1.2125955   -6.6389922    119.99622   0.03906127  0.040967653            2 
  257000    1.2020509   -6.6512635    120.48742  0.039068553  0.040957612            1 
  258000    1.2393117    -6.652956    121.08566  0.039110354   0.04094711            1 
  259000    1.2196498   -6.6668954    121.65065  0.039141136  0.040938596            1 
  260000    1.2048898   -6.6561548    122.35521  0.039216412   0.04093237            2 
  261000    1.2063469   -6.6298044    123.20887  0.039338719  0.040928963            2 
  262000    1.2150272   -6.5976071    123.84802  0.039391863  0.040925552            4 
  263000    1.2226044   -6.6687514    124.14836  0.039337248  0.040923745            1 
  264000    1.1870928   -6.6596626    124.60851  0.039333494  0.040921237            1 
  265000    1.2152038   -6.5816196    125.63569  0.039508078  0.040919087            3 
  266000     1.197461   -6.6213906    125.57989  0.039342071  0.040917001            1 
  267000    1.2002663   -6.6584902    126.38647  0.039446465  0.040914203            2 
  268000    1.1688134   -6.6413994    126.21096  0.039244701  0.040910251            2 
  269000    1.2045153   -6.6531445    126.51029   0.03919154  0.040903159            1 
  270000    1.2223373   -6.6494667    126.87988  0.039160457   0.04089513            1 
  271000    1.2191306   -6.6393238    127.31328  0.039149225  0.040887194            2 
  272000    1.2146018   -6.6536232    127.85802  0.039172187  0.040877873            2 
  273000    1.1956378   -6.6534463    127.52563  0.038927238    0.0408668            2 
  274000    1.2171821    -6.598556    128.34274  0.039033679  0.040855276            2 
  275000    1.2121398    -6.659222    129.32589  0.039189663  0.040844419            1 
  276000    1.1891007   -6.6117905    129.32627  0.039047785  0.040833256            1 
  277000    1.2138959   -6.6607133     129.5782   0.03898261  0.040822242            3 
  278000    1.2028387   -6.6052855    130.20666  0.039030774  0.040810637            2 
  279000    1.1997744    -6.638021    130.80949  0.039070934  0.040798255            2 
  280000    1.2291024   -6.6224551     131.0771   0.03901104  0.040786315            2 
  281000    1.1808819   -6.6591762    130.93775  0.038830887  0.040772883            1 
  282000    1.2279101   -6.6632867    131.15117  0.038756255  0.040759049            2 
  283000    1.2235173   -6.6250942    132.53197  0.039025904  0.040745733            2 
  284000    1.1783579   -6.6341648    132.91189  0.038999967  0.040732721            3 
  285000    1.1907333   -6.6755934    133.60439   0.03906561  0.040721349            2 
  286000    1.2095883   -6.6667314    133.59004  0.038924838  0.040710628            2 
  287000    1.1777715   -6.6207038    134.31263  0.038999022  0.040698386            1 
  288000    1.1821286   -6.6684203    134.42325  0.038895617  0.040685796            3 
  289000     1.211113   -6.7009931      135.101  0.038956458  0.040672756            2 
  290000    1.1811823   -6.6619668    135.10252  0.038822563  0.040659526            2 
  291000    1.1982517   -6.6881756    135.79115  0.038886354  0.040646212            4 
  292000    1.1854434   -6.6695506    135.90797  0.038786522  0.040632833            1 
  293000    1.1945952   -6.6534479    136.30788  0.038767884  0.040619899            2 
  294000    1.1909145    -6.679241    136.97458  0.038824995  0.040606516            1 
  295000    1.2107802   -6.6288204    137.43532  0.038823535  0.040593016            1 
  296000    1.2152757   -6.6775678    138.04927  0.038865221  0.040580656            4 
  297000    1.2176352   -6.6491294    138.31784  0.038809719  0.040569228            1 
  298000    1.2038262   -6.7014986    139.18838  0.038922924  0.040559336            2 
  299000     1.204383   -6.6616666    140.12613  0.039054105    0.0405505            2 
  300000    1.2322881   -6.6605859    140.08048  0.038911243  0.040539495            1 
  301000    1.1965626   -6.6236424    140.86682  0.038999675  0.040527934            4 
  302000    1.1907484   -6.6482401    141.17413  0.038955334  0.040518033            1 
  303000    1.1907754   -6.6554991    141.71122  0.038974482  0.040507846            3 
  304000    1.1745197   -6.6635764    142.09094  0.038950366  0.040497836            1 
  305000    1.1782306   -6.6802719    142.30717  0.038881739  0.040487863            1 
  306000    1.1924837   -6.6478969    143.32661  0.039032301  0.040478162            1 
  307000    1.2031738   -6.6713647    144.04512  0.039100197  0.040469993            1 
  308000    1.2016403   -6.6294413    144.44097  0.039080349  0.040461753            1 
  309000    1.1893929   -6.6976251    144.40343  0.038943752   0.04045295            1 
  310000    1.2152053   -6.6378992    145.09459  0.039003923  0.040444253            2 
  311000    1.1925222    -6.635281    145.71175  0.039043876  0.040436216            5 
  312000    1.1976384   -6.6494934    146.95105  0.039249747  0.040428546            5 
  313000    1.2028445   -6.6562619    147.02646  0.039144426  0.040422301            4 
  314000    1.2321587   -6.6505462    147.33429  0.039101457  0.040417396            2 
  315000    1.2082816   -6.6920583    147.69621  0.039073072   0.04041077            2 
  316000    1.1988997   -6.6292119    147.96337  0.039019877  0.040403574            1 
  317000    1.2019689   -6.6290217    148.88432  0.039138886  0.040398821            3 
  318000    1.1907981   -6.6728898    149.52635  0.039184055  0.040394789            4 
  319000    1.1913797   -6.6522359    150.27983  0.039258053  0.040391948            1 
  320000    1.1997698   -6.6741443    150.77401  0.039264064  0.040387806            2 
  321000    1.1857163    -6.675311    151.32374  0.039284461  0.040385727            4 
  322000     1.183238   -6.6463945    152.12472  0.039369751  0.040383749            2 
  323000    1.1956553   -6.6503349    152.23813  0.039277124  0.040381714            2 
  324000    1.1944374   -6.6801351    152.97551  0.039345552  0.040381048            4 
  325000     1.198496   -6.6846723    153.86421  0.039452362  0.040380764            3 
  326000    1.1888412   -6.6887279    154.35161  0.039455932  0.040381625            1 
  327000    1.1911728   -6.6285313    154.60404  0.039399601  0.040381638            2 
  328000    1.2022995   -6.6828672    154.47244  0.039246046  0.040380696            1 
  329000    1.2215472   -6.6751529    155.07228  0.039278693  0.040379102            1 
  330000    1.1953969    -6.671062    155.82337  0.039349336  0.040379089            4 
  331000     1.176337   -6.6634641    156.52265  0.039406507  0.040379315            1 
  332000     1.209624   -6.6236551    157.41514  0.039511832  0.040379519            1 
  333000    1.2009602   -6.6749088    157.39286  0.039387603  0.040378886            1 
  334000     1.209986   -6.7003457    158.33866  0.039505653  0.040378844            3 
  335000    1.1901081   -6.6553228    158.66825  0.039469714  0.040378987            3 
  336000    1.1859665   -6.6786001    159.02243  0.039440086  0.040380259            2 
  337000    1.2061826    -6.678956    159.61072  0.039468526  0.040379737            2 
  338000    1.2050296   -6.6845358    159.50849  0.039326551  0.040378981            3 
  339000    1.2029544   -6.6890672    160.68275  0.039499202  0.040377739            2 
  340000    1.1869892   -6.6857674     160.6157  0.039366593  0.040377147            1 
  341000    1.2100794   -6.6734008    161.20522  0.039395215  0.040376774            1 
  342000     1.202954   -6.6261915    161.63805   0.03938549  0.040376277            2 
  343000    1.2124341   -6.6569731     162.2838  0.039427552  0.040375251            2 
  344000    1.2083462   -6.6764677    162.63098   0.03939704  0.040374641            2 
  345000    1.1947051   -6.7244776     162.5025  0.039251811  0.040373306            3 
  346000    1.1789967   -6.6855816    163.75304  0.039439556  0.040371305            1 
  347000     1.200107   -6.6796702    162.99967  0.039144973  0.040369217            2 
  348000    1.1834934   -6.7068438    163.63643  0.039184969  0.040366373            4 
  349000    1.1936943   -6.6972619    165.06814   0.03941455  0.040364001            3 
  350000     1.203655   -6.6891772    165.66931  0.039445073  0.040363004            3 
  351000    1.2088127   -6.6818353    166.46833  0.039522394  0.040361647            2 
  352000    1.2038738   -6.7113313    166.01862   0.03930365  0.040359703            1 
  353000     1.181899   -6.6347204    166.69427  0.039351812  0.040357707            3 
  354000     1.205422   -6.6461783    167.06055   0.03932687  0.040355629            3 
  355000    1.1524058   -6.6683809    168.06509    0.0394519  0.040354048            4 
  356000    1.1893981   -6.6716105    168.17158  0.039366007  0.040352144            1 
  357000    1.1910982   -6.6664606    168.43669  0.039317621  0.040349433            1 
  358000    1.2203702   -6.6801213    168.47753  0.039217303  0.040345598            1 
  359000    1.1654534   -6.6553442    169.38171  0.039317945  0.040342479            3 
  360000    1.2003575   -6.6610359    169.57619  0.039253747  0.040338332            2 
  361000    1.1878914   -6.6409656    170.35672  0.039325189  0.040335685            2 
  362000    1.1828169   -6.6756869    171.04816  0.039375728  0.040334201            2 
  363000    1.1717223   -6.6789014    171.69968  0.039416822  0.040332378            2 
  364000    1.2020381   -6.6840645    171.63729  0.039294251  0.040329776            3 
  365000    1.2050887   -6.6840159    172.31399  0.039341094  0.040327485            3 
  366000    1.2129029   -6.6586472    172.63325  0.039306296  0.040325328            5 
  367000    1.1760272   -6.6641816    173.24679  0.039338509  0.040322548            1 
  368000    1.1898359    -6.670932     173.3306  0.039250588  0.040319761            2 
  369000    1.1923757   -6.6955202     173.7051  0.039228794  0.040316841            4 
  370000    1.2011194   -6.6996449    174.60249  0.039324884  0.040313446            2 
  371000    1.2084789   -6.6853089    174.80264  0.039263845  0.040310873            1 
  372000    1.1999625   -6.6491616    175.13522  0.039232799  0.040307618            4 
  373000    1.1962524   -6.6661213    175.32895    0.0391709  0.040304285            3 
  374000    1.1936917   -6.6341008    175.74777  0.039159485  0.040300628            2 
  375000    1.2017467    -6.675663    176.01818  0.039115152  0.040296521            2 
  376000    1.1812015   -6.6507196    177.31987  0.039299617  0.040292228            2 
  377000    1.1998839   -6.7091155    177.03237  0.039131824  0.040287086            2 
  378000    1.1999769   -6.6476468    177.76629  0.039190099  0.040282377            2 
  379000    1.2118506   -6.6410945    178.54573  0.039258076   0.04027669            1 
  380000    1.1968294   -6.6868481    178.60141  0.039166975  0.040272875            2 
  381000    1.2015738    -6.629766    180.43482  0.039465184  0.040269338            3 
  382000    1.2080952   -6.6828425    179.66973  0.039194967   0.04026611            1 
  383000    1.2076198   -6.7140725    179.77698  0.039115966  0.040261276            1 
  384000    1.1742295    -6.692549    180.43096  0.039156024  0.040256244            1 
  385000    1.1722803   -6.6928727    181.56394  0.039299555  0.040252388            2 
  386000    1.1821966   -6.6607033    181.42724  0.039168229  0.040248223            1 
  387000    1.2038332   -6.7158605    181.50355  0.039083451  0.040243689            2 
  388000    1.2052089   -6.7104279    181.96886   0.03908266  0.040238318            1 
  389000    1.1875871   -6.6760963    182.37043  0.039068216  0.040232746            2 
  390000    1.1968375   -6.6667944    183.03712  0.039110496   0.04022731            2 
  391000    1.1855164   -6.7031563    183.45256  0.039099011   0.04022166            2 
  392000    1.1980323   -6.6948267    184.48827  0.039219445  0.040216966            2 
  393000    1.1902155   -6.6867219    184.67856      0.03916  0.040212607            2 
  394000     1.205026   -6.6877975    185.22286  0.039175731  0.040207983            1 
  395000    1.1766195   -6.7251619    185.73688  0.039184996  0.040203929            2 
  396000    1.1548334   -6.7182889    186.69249  0.039287141  0.040200147            3 
  397000    1.1915758   -6.6763085    187.00516  0.039253811   0.04019616            1 
  398000    1.2057428   -6.6988207     187.0603   0.03916673  0.040193042            1 
  399000    1.1798655   -6.6790427    187.19004  0.039095663  0.040188953            3 
  400000    1.1938097   -6.6909044    187.99376  0.039165367  0.040185057            2 
  401000    1.1955003   -6.6987347    188.68952  0.039212286  0.040181003            1 
  402000    1.1666015   -6.7150961    188.78709   0.03913497  0.040177472            1 
  403000    1.1969878   -6.6895157    189.81261  0.039249919  0.040173249            1 
  404000    1.1737702   -6.6723313    189.26079  0.039038942  0.040168749            3 
  405000    1.1853248   -6.6612996    190.42707  0.039182524  0.040162596            1 
  406000    1.1836318   -6.6679468    190.46583  0.039093971  0.040157508            2 
  407000    1.1927997   -6.7171576    191.54026  0.039217908  0.040152121            2 
  408000    1.1818195   -6.7191274    191.52287  0.039118234  0.040146788            5 
  409000    1.1720636   -6.6920322    191.90545   0.03910054  0.040142428            3 
  410000    1.1904651   -6.6642701    192.15364  0.039055618  0.040137885            1 
  411000    1.2009828   -6.6975767    191.97214  0.038923791  0.040133211            1 
  412000    1.1925552   -6.7085752    192.83455  0.039003751  0.040127502            6 
  413000    1.1896723   -6.6723165    193.93685  0.039131728   0.04012154            9 
  414000    1.2001063   -6.7052122    194.30526  0.039111364  0.040117721            1 
  415000     1.175914   -6.6958117    195.15568  0.039187888  0.040113954            4 
  416000    1.1982686   -6.6743998    195.72433  0.039207599   0.04010987            3 
  417000    1.1523619   -6.6589994    195.60022  0.039088773  0.040105421            2 
  418000    1.1765449    -6.672163    195.43558  0.038962436  0.040099514            1 
  419000    1.1995254   -6.6782189    195.98427  0.038978574  0.040093734            1 
  420000    1.1743386   -6.6942005    196.48273  0.038984669  0.040088188            4 
  421000    1.1867112   -6.6833522    197.84233   0.03916119  0.040082757            1 
  422000    1.1899731    -6.699391    197.43363  0.038987684  0.040077897            1 
  423000    1.2203973   -6.6897392    198.28894  0.039064015  0.040072343            3 
  424000    1.1773008   -6.6968498    198.49397   0.03901218   0.04006638            5 
  425000    1.1729556   -6.7029382    197.94813   0.03881336  0.040059906            2 
  426000    1.1679391   -6.7135751    198.45932  0.038822246  0.040052176            1 
  427000    1.2026102   -6.6682476    199.87882  0.039008356  0.040045081            1 
  428000     1.179698   -6.7002728    200.15034  0.038970083  0.040038192            2 
  429000    1.1865709   -6.6990354    200.63888  0.038974142  0.040032593            1 
  430000    1.1704443   -6.6653324    201.07229  0.038967498  0.040026956            2 
  431000    1.1519572    -6.699753    202.24507  0.039103841   0.04002164            1 
  432000    1.1758548   -6.6437986    202.94398  0.039148144  0.040017267            2 
  433000      1.18468   -6.7145599    203.45547  0.039156172  0.040014342            1 
  434000    1.1816557   -6.7205568    203.23487  0.039023592  0.040010265            2 
  435000    1.1714254    -6.712796    203.99493  0.039079488  0.040005345            2 
  436000    1.1759243   -6.6294703    205.10959  0.039202903  0.040001022            2 
  437000    1.1912487   -6.6897329    205.22196  0.039134622  0.039997897            3 
  438000    1.1697556   -6.6853047    206.14788  0.039221438  0.039994876            3 
  439000    1.2007434   -6.6964884    206.85655  0.039266619   0.03999297            1 
  440000    1.1826554   -6.7150394    206.22164  0.039057129  0.039990078            2 
  441000    1.1825606    -6.725756    207.40246  0.039191697  0.039987293            1 
  442000    1.1776613   -6.6742498    207.34354  0.039091919  0.039984117            1 
  443000    1.2219131   -6.6668738    208.56704   0.03923383  0.039981257            2 
  444000    1.1842749   -6.6482394    209.08353  0.039242404  0.039978835            3 
  445000    1.1688804   -6.6933316    208.95753  0.039130623  0.039975735            2 
  446000    1.1704608   -6.6255362     209.6799  0.039177858  0.039971489            8 
  447000    1.1468398   -6.6986148    209.79635  0.039111922  0.039967645            1 
  448000    1.1813474   -6.7126801    209.84849  0.039034318   0.03996367            2 
  449000    1.1784775   -6.7043027    210.45884  0.039060661  0.039959008            2 
  450000    1.1581438   -6.6644987    210.32631  0.038949317  0.039953361            2 
  451000    1.1747872   -6.6822555    210.34625  0.038866639  0.039946587            2 
  452000    1.1808611   -6.6703712    210.71485  0.038848607  0.039939555            2 
  453000    1.1779335   -6.7141154    210.89191  0.038795422  0.039932844            3 
  454000    1.1868149   -6.6980517    211.15822  0.038758852  0.039925061            4 
  455000    1.2081703   -6.6373643    211.92776  0.038814609  0.039918103            1 
  456000    1.1576959   -6.7013259    212.45706  0.038826217  0.039910944            2 
  457000    1.1687085    -6.710727    212.79146  0.038802235  0.039903592            2 
  458000    1.1709397   -6.6891451    213.60802  0.038866089  0.039895932            1 
  459000    1.1465129   -6.6870743    214.54885  0.038952223  0.039888522            1 
  460000    1.1858421   -6.7292099     214.6904  0.038893189  0.039881241            4 
  461000    1.1820353   -6.7160185    214.80803  0.038830085  0.039873929            1 
  462000    1.1746742   -6.6864068    214.98889   0.03877866  0.039867573            1 
  463000    1.1831559   -6.7436896    216.04164  0.038884385  0.039859771            2 
  464000    1.1654117   -6.7078895    216.00476  0.038793957   0.03985272            4 
  465000    1.1987342   -6.6615644    216.38613  0.038778876  0.039846047            2 
  466000    1.1813057   -6.6845906    216.52052  0.038719693  0.039838911            1 
  467000    1.1950371   -6.7041937    217.25049   0.03876704  0.039830805            4 
  468000    1.2006435   -6.6598219    217.87097  0.038794688  0.039823774            2 
  469000     1.182757   -6.6873482     218.0798  0.038749076  0.039816267            2 
  470000    1.1754245   -6.6836517     218.4966  0.038740531  0.039808613            1 
  471000    1.1686148   -6.7097443    218.65651  0.038686573  0.039801065            6 
  472000    1.1723367   -6.6976091    218.84494  0.038637878  0.039793943            2 
  473000    1.1533843   -6.7002625    220.30959  0.038814234  0.039786422            3 
  474000    1.1767973   -6.6895982    220.16357  0.038706675  0.039778382            2 
  475000     1.185219   -6.6948338    221.12633  0.038794094  0.039770788            2 
  476000    1.1797852   -6.7364032    221.80325  0.038831102  0.039763644            4 
  477000    1.1540959    -6.685062     221.4565  0.038689116  0.039756593            2 
  478000    1.1591637   -6.7131536    221.52788   0.03862062  0.039749481            1 
  479000    1.1584802   -6.7375078    222.16465  0.038650774  0.039741589            1 
  480000    1.1859145   -6.7155838    222.96961  0.038710001  0.039733358            2 
  481000    1.1781546   -6.7297379    222.68564  0.038580326  0.039724885            1 
  482000    1.1690246   -6.7250907    222.97609  0.038550499  0.039716014            1 
  483000    1.1705076   -6.7028938    223.36526   0.03853783  0.039706545            2 
  484000    1.1614347   -6.6568311    224.16634  0.038596133  0.039697366            2 
  485000     1.167888    -6.749669    224.80573  0.038626414  0.039688675            2 
  486000    1.1883336    -6.680682    225.43653  0.038655097  0.039680284            3 
  487000    1.1685987   -6.6639967    226.00982  0.038673823   0.03967226            1 
  488000    1.2130853    -6.668271    226.10977   0.03861164  0.039664695            2 
  489000    1.1761082   -6.6780632    226.27133  0.038560213  0.039656706            2 
  490000    1.1737811   -6.7416006    226.65525  0.038546812  0.039648553            3 
  491000    1.1369734   -6.7134784    227.65684  0.038638296  0.039640009            3 
  492000    1.1808365   -6.6943408    228.28733  0.038666554  0.039631662            2 
  493000    1.1434707   -6.7085256    226.95192  0.038362393  0.039622844            2 
  494000     1.205936   -6.7292504    228.67782   0.03857588  0.039613781            2 
  495000    1.1967114   -6.7022668    228.68141  0.038498554  0.039604811            2 
  496000    1.1734347   -6.6811295    229.96119  0.038635953  0.039596696            1 
  497000    1.1678563   -6.7299209    229.44275  0.038471286  0.039588163            4 
  498000    1.1874724   -6.7469522    230.08962   0.03850228  0.039579877            9 
  499000    1.1693152   -6.6780843      230.522  0.038497328  0.039571043            1 
  500000    1.1366249    -6.742291    230.32611  0.038387685  0.039562893            2 
  501000    1.1529983   -6.7538335    231.31057  0.038474812  0.039554273            1 
  502000    1.1861181   -6.7137518    231.43998  0.038419652  0.039546205            2 
  503000    1.1869395   -6.7028833    232.74898  0.038560136  0.039537942            2 
  504000    1.1658103   -6.7343521    232.43366  0.038431492  0.039529216            2 
  505000    1.1664902   -6.6641727    232.94349   0.03843952  0.039520566            1 
  506000    1.1590587   -6.6669689    233.57808  0.038468063   0.03951217            1 
  507000    1.1859365   -6.7158394    234.17631  0.038490519  0.039503352            2 
  508000    1.1551337   -6.7521807    234.17457  0.038414464  0.039495036            2 
  509000    1.1956292   -6.7020586    234.35236  0.038368101   0.03948603            3 
  510000    1.1614501   -6.7310267    234.97694  0.038394925  0.039477025            5 
  511000    1.1923316    -6.695388    235.23219  0.038361415  0.039467681            2 
  512000    1.1604279   -6.7288258     235.8518  0.038387336  0.039458998            3 
  513000    1.1491975   -6.7444767    235.77883  0.038300655  0.039449829            1 
  514000    1.1756697   -6.7540639    236.42017  0.038330119  0.039440495            2 
  515000     1.171242    -6.724507    236.36119  0.038246148  0.039430289            3 
  516000    1.1712671   -6.7128669    236.78527  0.038240515  0.039419886            2 
  517000    1.1945484    -6.718083    237.33593  0.038255308  0.039409576            2 
  518000    1.1761855   -6.7277209     237.2445  0.038166748  0.039399925            4 
  519000    1.1564045   -6.7119758     238.5901  0.038309265  0.039389823            2 
  520000    1.1865229   -6.7311473    238.88446  0.038282765  0.039379881            2 
  521000    1.1521248   -6.7292418    238.54734  0.038155365  0.039369672            2 
  522000    1.1490959   -6.7108379    239.79465  0.038281394  0.039358967            1 
  523000    1.1627947   -6.7117851     239.2121  0.038115376  0.039348172            3 
  524000    1.1585099   -6.6917808    240.09335  0.038182785  0.039337426            2 
  525000    1.1608811   -6.7223258    240.51614  0.038177165  0.039326695            5 
  526000    1.1636824    -6.746196     240.8123  0.038151505   0.03931547            1 
  527000    1.1572552   -6.7229218    241.14764  0.038132137  0.039305242            2 
  528000    1.1615433   -6.7201869    242.26438  0.038236171  0.039294492            2 
  529000    1.1874579   -6.7341698    241.34724  0.038019413  0.039283601            6 
  530000    1.1730351   -6.7210372    241.81076   0.03802056   0.03927262            1 
  531000    1.1720469   -6.7383504    243.37734  0.038194812   0.03926234            2 
  532000     1.152983   -6.7065186    244.02404  0.038224316  0.039251985            2 
  533000     1.173511   -6.7484744    244.00926  0.038150291  0.039242082            2 
  534000    1.1659094   -6.7157094      244.486  0.038153246  0.039232336            2 
  535000    1.1650811    -6.710844    244.87852  0.038143071  0.039222786            2 
  536000     1.167756   -6.7168763     245.9036  0.038231282  0.039213365            3 
  537000    1.1674672    -6.729943     245.2601  0.038060227  0.039204562            2 
  538000    1.1797937   -6.7603907    246.18254  0.038132364  0.039195356            1 
  539000    1.1511599   -6.7319288    246.59606   0.03812555  0.039185743            3 
  540000    1.1847563   -6.7214578    246.45982  0.038033922  0.039175893            2 
  541000    1.1860274   -6.7274425     247.0367  0.038052479  0.039166231            2 
  542000    1.1713071   -6.7438781     247.1355  0.037997462  0.039156117            3 
  543000     1.166203   -6.7169082    248.10443  0.038076187  0.039145076            2 
  544000    1.1757063   -6.7621176    247.75773  0.037953083   0.03913463            2 
  545000    1.1430331   -6.7449557    247.50904  0.037845419  0.039123741            2 
  546000    1.1862858   -6.7655612    247.70776  0.037806435  0.039112109            1 
  547000    1.1378491   -6.7042561    248.74323  0.037895068  0.039100391            3 
  548000    1.1654669   -6.7105189    249.14022  0.037886287  0.039089289            2 
  549000     1.138222   -6.7177775    249.21886  0.037829214  0.039077814            1 
  550000    1.1592573   -6.7059402    250.48912  0.037952896  0.039067109            1 
  551000    1.1667591   -6.7549993    251.30054  0.038006737  0.039056335            2 
  552000    1.1756072   -6.7337568    250.67976  0.037844167  0.039045563            3 
  553000    1.1807517   -6.7476186    251.06152  0.037833261  0.039035236            3 
  554000    1.1575164   -6.7244412    252.72018  0.038014467  0.039024699            2 
  555000    1.1635065   -6.7305565    253.03556  0.037993328  0.039014721            2 
  556000    1.1554866   -6.7066745    253.18052  0.037946721  0.039004747            3 
  557000    1.1419222   -6.7443544    252.95581  0.037844975   0.03899424            2 
  558000    1.1624419   -6.6849776    253.83662  0.037908695   0.03898337            2 
  559000    1.1693369   -6.7390453    252.81161  0.037688076  0.038971901            2 
  560000    1.1570555   -6.6947042     255.0596  0.037955298  0.038960835            1 
  561000    1.1689819    -6.718773    255.69712   0.03798234  0.038950273            3 
  562000    1.1368763    -6.738277     255.0074  0.037812484  0.038938868            2 
  563000     1.150759   -6.7847307    254.17847  0.037622628  0.038927467            2 
  564000    1.1779687   -6.7572979    255.41792  0.037739055  0.038916247            3 
  565000    1.1813647    -6.689621    256.48216  0.037829228  0.038905082            2 
  566000    1.1356426   -6.6938026    257.12479  0.037857006  0.038894446            4 
  567000    1.1629671   -6.7144677    257.52193  0.037848607  0.038883662            4 
  568000    1.1561197    -6.731674    256.05738  0.037567104  0.038872566            2 
  569000    1.1685802   -6.7076214    257.52061  0.037715379  0.038860945            1 
  570000    1.1438184   -6.7464478    257.72239  0.037678712   0.03885003            2 
  571000    1.1559205   -6.7499899    257.49937  0.037580177  0.038838782            2 
  572000    1.1790219   -6.7390495    258.81592  0.037706282  0.038827418            1 
  573000    1.1739439   -6.7845173    258.43385  0.037584911   0.03881572            3 
  574000    1.1579958    -6.759462    260.05796   0.03775522  0.038804801            1 
  575000    1.1509956   -6.6928814    260.38332  0.037736713  0.038793978            1 
  576000    1.1593352   -6.7509328    259.84918   0.03759392  0.038783406            2 
  577000    1.1441565   -6.7284561    261.55664  0.037775367  0.038772504            3 
  578000    1.1691195   -6.7542573    260.68803  0.037584779  0.038762092            3 
  579000    1.1689763   -6.7639646    261.50994  0.037638161  0.038751564            2 
  580000    1.1518012    -6.734109    261.51761  0.037574369   0.03874019            2 
  581000    1.1456387   -6.7349881    261.91572  0.037566799  0.038729148            3 
  582000    1.1302265   -6.7490725    263.06213  0.037666398  0.038718009            2 
  583000     1.158442   -6.7580532    263.59103  0.037677391   0.03870714            2 
  584000    1.1723435    -6.752308    263.86619  0.037652139  0.038696251            3 
  585000     1.169944   -6.7038438     264.3496  0.037656638  0.038685433            3 
  586000    1.1580895   -6.7565625    263.72776  0.037503947  0.038674896            4 
  587000     1.159909   -6.7344245    265.22508  0.037652624     0.038664            6 
  588000    1.1822464   -6.7940352    265.24187  0.037590968  0.038653576            3 
  589000     1.173688   -6.7561496    265.70331  0.037592431  0.038643183            2 
  590000    1.1712015   -6.7539832    266.60809  0.037656509  0.038633245            3 
  591000    1.1782262   -6.7786732    267.23969  0.037681851  0.038623647            1 
  592000    1.1695417   -6.7305032    268.02247  0.037728389  0.038614379            1 
  593000    1.1745785   -6.7450735    268.40645  0.037718725  0.038605452            2 
  594000    1.1573435   -6.7575684    268.32127  0.037643275  0.038596019            3 
  595000    1.1575834   -6.7164513    269.20565  0.037703873  0.038586818            4 
  596000    1.1769954   -6.7293536    269.36825  0.037663345  0.038577564            3 
  597000    1.1809409   -6.7529767    269.31289  0.037592531  0.038568489            2 
  598000    1.1691139   -6.7193651    270.65419  0.037716582  0.038559145            1 
  599000    1.1636634   -6.7616331    270.87153  0.037683853  0.038550152            2 
  600000    1.1307026   -6.7692746    270.71516  0.037599328  0.038541137            1 
  601000    1.1537339   -6.7586113    271.17195  0.037600104  0.038532317            2 
  602000     1.171882   -6.7584816    271.80038  0.037624637  0.038523163            4 
  603000    1.1604923   -6.7313684    272.24978  0.037624348  0.038514222            1 
  604000    1.1492831   -6.7641675    272.38715  0.037581008  0.038505085            1 
  605000     1.159856   -6.7142547    272.46537  0.037529666  0.038495286            2 
  606000    1.1651528    -6.765622    273.42391  0.037599547  0.038485824            5 
  607000    1.1647754   -6.7345719    273.50763  0.037549097  0.038476196            2 
  608000    1.1588389   -6.7531758     274.6639   0.03764582  0.038466753            3 
  609000    1.1734432   -6.7287439    275.59366  0.037711228  0.038457388            3 
  610000    1.1342088   -6.7893073    274.90403  0.037555195  0.038447991            2 
  611000    1.1392007   -6.7029015    275.78972  0.037614528  0.038438778            2 
  612000    1.1502487    -6.740565    275.81383  0.037556349  0.038429876            2 
  613000    1.1350369   -6.7617023    275.62926  0.037469992  0.038420152            1 
  614000    1.1655776   -6.7296845    277.71617  0.037692205  0.038411535            1 
  615000    1.1801237   -6.7511905    277.67545    0.0376254  0.038402984            2 
  616000    1.1459213   -6.7850835    277.51179   0.03754218  0.038394065            2 
  617000    1.1560381   -6.7666111    277.89126  0.037532585  0.038385072            3 
  618000    1.1723631   -6.7418665    278.98389  0.037619187  0.038376128            1 
  619000    1.1374566   -6.7315341    278.38618  0.037477946  0.038367473            3 
  620000    1.1539696   -6.7579326    279.28202  0.037537906  0.038358686            1 
  621000    1.1640887   -6.7428655    280.46579   0.03763631  0.038350189            3 
  622000    1.1581613   -6.7441053    280.00495  0.037514061  0.038342227            1 
  623000     1.163829   -6.7555302    281.37999  0.037637773  0.038333713            2 
  624000    1.1476783   -6.7122447    281.18027  0.037550784   0.03832537            2 
  625000    1.1355684   -6.7947442    280.67004  0.037422672  0.038316358            1 
  626000    1.1341828    -6.774614    281.45334  0.037467164  0.038307024            6 
  627000    1.1709842   -6.7635053    281.28803  0.037385437  0.038298056            3 
  628000    1.1643496   -6.7760384    282.19204  0.037445865  0.038288853            2 
  629000    1.1592696   -6.7639436    282.36284  0.037408962  0.038279476            3 
  630000    1.1430085   -6.7553344    283.26295  0.037468644  0.038270171            2 
  631000    1.1371431    -6.766583    283.11868  0.037390211  0.038260176            2 
  632000    1.1411289    -6.770317    283.76484   0.03741625  0.038250545            1 
  633000    1.1218481   -6.7365608     284.8503   0.03750004  0.038240553            3 
  634000    1.1450352   -6.7874135    283.94448  0.037321829  0.038231027            4 
  635000     1.142456   -6.7783087    284.67912  0.037359465  0.038221234            3 
  636000    1.1675611   -6.7243267    285.41665   0.03739736  0.038211467            1 
  637000    1.1465321   -6.7289512     285.1456  0.037303192  0.038202316            3 
  638000    1.1333946   -6.7546804    285.78189  0.037327833  0.038192714            4 
  639000    1.1548215    -6.785574    285.81307  0.037273483  0.038182784            2 
  640000    1.1395588   -6.7883789    285.90638  0.037227394  0.038173269            2 
  641000    1.1769807   -6.7315303    287.94003  0.037433702  0.038163529            2 
  642000    1.1377251   -6.7604196      287.492  0.037317238  0.038153787            1 
  643000    1.1575938   -6.7566268    286.85962  0.037177244   0.03814378            6 
  644000     1.138675   -6.7634138    287.86094  0.037249086   0.03813412            2 
  645000    1.1499376   -6.7553854    289.20395  0.037364851  0.038124552            2 
  646000    1.1364623   -6.7800852    289.33011  0.037323285  0.038115271            1 
  647000     1.157633   -6.7203844    290.42786  0.037406989   0.03810607            4 
  648000    1.1811372   -6.7579803      289.706   0.03725643  0.038096818            1 
  649000    1.1479319   -6.8035856    289.30975  0.037148145  0.038087079            3 
  650000    1.1330478   -6.7672806    290.33897  0.037222945  0.038077394            2 
  651000    1.1255106   -6.7370775    290.86788  0.037233471  0.038067656            4 
  652000    1.1465857   -6.7790712    291.65806  0.037277359  0.038058401            2 
  653000    1.1596149   -6.7931448    291.68773  0.037224059  0.038048314            1 
  654000    1.1428733   -6.7750478    291.89001  0.037192917  0.038038556            2 
  655000    1.1535511    -6.781985    292.53739  0.037218498   0.03802886            2 
  656000    1.1264892   -6.7776774    293.07036  0.037229466  0.038019127            4 
  657000    1.1194888    -6.752115     292.4839  0.037098415  0.038009267            3 
  658000    1.1429797   -6.7487602    294.02237  0.037236876  0.037999835            2 
  659000    1.1402883   -6.7338964    293.68832  0.037138128  0.037989774            2 
  660000    1.1536959   -6.7860064    293.88938  0.037107245  0.037979631            1 
  661000    1.1333522   -6.7856067    293.71031  0.037028531  0.037969096            3 
  662000    1.1423477   -6.7421021    294.45374  0.037066181  0.037958576            2 
  663000    1.1805934   -6.7957342    294.56653  0.037024451  0.037948487            2 
  664000    1.1471942   -6.7596573    295.44039  0.037078362  0.037938443            2 
  665000    1.1374431   -6.7499869    295.33547  0.037009457  0.037928319            2 
  666000     1.123725    -6.775597    296.36031   0.03708212  0.037918164            4 
  667000    1.1396151   -6.8204889    295.60181   0.03693176  0.037908037            2 
  668000    1.1564202   -6.7438456    297.50397  0.037113769  0.037897935            1 
  669000    1.1528168   -6.7790175    297.55801  0.037065024  0.037888296            2 
  670000    1.1640505   -6.7777243    297.99908  0.037064562  0.037878686            2 
  671000    1.1449847   -6.7513149    297.90798   0.03699801  0.037869468            3 
  672000    1.1555436   -6.7733412    298.33914  0.036996421  0.037859754            2 
  673000    1.1332669   -6.8049518    299.22812  0.037051526  0.037849922            1 
  674000    1.1263011   -6.7661412    298.25359  0.036876062  0.037840206            1 
  675000    1.1142621   -6.7516402    299.56922  0.036983854  0.037830869            3 
  676000    1.1371043   -6.7598475    300.67575  0.037065551  0.037821516            4 
  677000    1.1452972   -6.7896881    300.74589  0.037019435  0.037811892            2 
  678000    1.1543755   -6.7349399    302.66807   0.03720109  0.037802359            5 
  679000    1.1269466   -6.7766323     301.1753  0.036963095   0.03779289            2 
  680000    1.1303436   -6.7628442    302.14571  0.037027661  0.037783362            2 
  681000    1.1633182   -6.7919518    302.17081  0.036976359  0.037773791            2 
  682000    1.1575489   -6.7733437    302.31478  0.036939734  0.037764002            2 
  683000    1.1294566   -6.7656874    303.10598  0.036982184  0.037754872            4 
  684000    1.1388233   -6.7887855    303.00509  0.036915825  0.037745155            5 
  685000    1.1553761   -6.7570835    304.10508  0.036995752   0.03773554            3 
  686000    1.1712554   -6.7214905    305.35675  0.037093871  0.037726054            2 
  687000    1.1591809   -6.7911402    304.08041  0.036885057  0.037716345            1 
  688000    1.1364663   -6.7962207    303.85318  0.036803922  0.037706204            2 
  689000    1.1371682   -6.8006317    304.63055  0.036844527  0.037695881            3 
  690000    1.1623107   -6.7976771    305.39408  0.036883343  0.037686097            2 
  691000    1.1352131   -6.7495592    306.26766  0.036935319  0.037676877            2 
  692000    1.1216904   -6.7654378    306.63677  0.036926394   0.03766771            3 
  693000    1.1673885   -6.7603615    307.27838  0.036950262  0.037658638            2 
  694000     1.177429   -6.7756909    307.37041  0.036908071  0.037649334            2 
  695000    1.1475583   -6.8159424    307.52336  0.036873305  0.037639737            2 
  696000    1.1688043   -6.7715234    307.26229  0.036789067  0.037630003            2 
  697000    1.1475205   -6.7434311    308.49581  0.036883765  0.037620376            2 
  698000    1.1319962   -6.7703309    307.68079  0.036733619  0.037610493            2 
  699000    1.1589466   -6.7775882    307.90478   0.03670777  0.037600387            2 
  700000     1.135732   -6.8054756    308.68971  0.036748775  0.037590299            2 
  701000    1.1525552   -6.7514707    309.34036  0.036773699  0.037580026            1 
  702000    1.1231883     -6.79003    308.90863  0.036670066  0.037569862            2 
  703000    1.1337801   -6.7646663    309.95993  0.036742524  0.037559793            2 
  704000    1.1294826   -6.7757086    309.78512   0.03666964  0.037549432            2 
  705000    1.1457109    -6.759537    310.47374  0.036699023  0.037539309            2 
  706000    1.1599336   -6.7509501    311.21829  0.036734926  0.037529605            6 
  707000    1.1476654    -6.790988     311.7301  0.036743294  0.037519555            1 
  708000    1.1275614    -6.780305    312.79235  0.036816425  0.037510267            3 
  709000     1.147211   -6.8002182     312.7141  0.036755301  0.037501236            3 
  710000    1.1307558   -6.8003439    313.10264  0.036749137  0.037491951            2 
  711000    1.1256341   -6.7729536    312.85232  0.036668111  0.037483054            4 
  712000    1.1238691    -6.810265    313.63584  0.036708315  0.037473834            2 
  713000    1.1332128   -6.7717381    314.11293  0.036712591  0.037464597            4 
  714000    1.1123321   -6.7441815    315.77465  0.036855118  0.037455225            2 
  715000    1.1463814   -6.7459289    315.28105  0.036746043  0.037446207            1 
  716000    1.1314429   -6.7603505    315.38123  0.036706382  0.037437066            2 
  717000    1.1473929   -6.7864623    314.37318  0.036538026  0.037427236            5 
  718000    1.1353969   -6.8034502    315.80105  0.036652861  0.037417633            1 
  719000    1.1617323    -6.778626    316.61452  0.036696165  0.037408232            1 
  720000    1.1544919   -6.7890595     316.6164  0.036645417  0.037398462            1 
  721000      1.11386   -6.8055635    316.21141  0.036547782  0.037388814            2 
  722000     1.169772    -6.781808    317.08029  0.036597448  0.037378813            1 
  723000    1.1163991    -6.778925    317.60778  0.036607628  0.037369088            1 
  724000    1.1312344   -6.7528654    319.00954  0.036718409  0.037359575            2 
  725000    1.1261977   -6.7768664    318.82517  0.036646572  0.037350085            2 
  726000      1.13826   -6.7857748    318.34421  0.036540888  0.037339944            2 
  727000    1.1406373   -6.7649739    319.49878  0.036622969  0.037329766            3 
  728000    1.1534147   -6.8107783    318.54439  0.036463414  0.037319469            1 
  729000     1.128968   -6.7708829    320.10983  0.036592344  0.037309357            3 
  730000    1.1304238   -6.7824116    319.91306  0.036519755  0.037299536            1 
  731000    1.1401172   -6.7877414    320.43999  0.036529867  0.037289793            2 
  732000    1.1206123    -6.754662     321.0212  0.036546129  0.037279659            2 
  733000    1.1366076   -6.7593123    320.58404  0.036446571  0.037269903            2 
  734000    1.1277608   -6.7791045     320.9275   0.03643591  0.037259814            1 
  735000    1.1496373   -6.7755548     320.7589  0.036367223  0.037249365            2 
  736000    1.1217297   -6.7622329    321.64801   0.03641848  0.037238922            2 
  737000    1.1195489   -6.8012116    321.92653  0.036400557  0.037227948            4 
  738000    1.1319826   -6.8161743    322.73668  0.036442715  0.037217493            1 
  739000    1.1290203   -6.7734608    322.84551  0.036405674   0.03720734            1 
  740000    1.1216641   -6.8059811    322.40367   0.03630672  0.037196565            1 
  741000    1.1384552   -6.7911848    322.22319  0.036237426  0.037185768            2 
  742000    1.1383639   -6.7490012    323.26354  0.036305429  0.037175091            2 
  743000    1.1231149   -6.7400809    324.07182  0.036347221  0.037164667            2 
  744000    1.1401141   -6.7871927    323.29166  0.036210984   0.03715391            2 
  745000    1.1447251   -6.7716932    324.28315  0.036273282   0.03714294            1 
  746000    1.1468081   -6.8106981    323.68414  0.036157745  0.037131997            1 
  747000    1.1294112   -6.7953066    325.33237  0.036293214  0.037120777            2 
  748000    1.1651384   -6.8179089    324.39689  0.036140474  0.037110036            4 
  749000    1.1270621   -6.8217003    324.98121  0.036157233  0.037098604            1 
  750000    1.1472219    -6.806249     325.9212  0.036213467  0.037087569            2 
  751000    1.1462018   -6.7668541    326.19054  0.036195133  0.037076488            2 
  752000    1.1244456   -6.8019878    327.64496  0.036308174   0.03706578            2 
  753000    1.1019983    -6.779637    328.88197  0.036396853  0.037055069            2 
  754000    1.1265682   -6.8006005    327.85731  0.036235334  0.037044458            2 
  755000    1.1179362   -6.7968814    328.41352  0.036248733  0.037033816            2 
  756000    1.1113574    -6.805715    328.98217  0.036263467  0.037023201            1 
  757000    1.1619859   -6.7641706    330.05466  0.036333627  0.037013182            1 
  758000    1.1193482   -6.8024425    329.27635  0.036200127  0.037003423            1 
  759000    1.1308819   -6.7888269    330.46439  0.036282871  0.036993344            1 
  760000    1.1481092    -6.771299    330.29233  0.036216265   0.03698391            2 
  761000    1.1417314   -6.8260293    331.28333  0.036277193   0.03697437            4 
  762000    1.1360508   -6.8283469    331.03062  0.036201949  0.036964819            1 
  763000     1.121001   -6.8048125    332.05001  0.036265838  0.036955261            1 
  764000    1.1534884   -6.8024128    332.04718   0.03621806  0.036945591            3 
  765000    1.1084772   -6.7735705    332.83135  0.036256139  0.036936505            1 
  766000    1.1609903   -6.8077654    333.65441  0.036298347  0.036927336            1 
  767000    1.1508261   -6.7685287    333.96107   0.03628434  0.036917907            1 
  768000    1.1092941   -6.8100138    333.51876  0.036189102  0.036908131            2 
  769000    1.1255325   -6.8160649    333.27384  0.036115501  0.036898698            2 
  770000    1.1349845   -6.7765157    334.64473  0.036216962  0.036888874            3 
  771000     1.126845   -6.8229015     334.8939   0.03619692   0.03687913            2 
  772000    1.1309811   -6.7929247     334.5856  0.036116753   0.03686907            1 
  773000    1.1398776    -6.749891    337.08661  0.036339652  0.036859449            1 
  774000    1.1021088   -6.8083106    335.59375  0.036131971  0.036849446            1 
  775000     1.140983   -6.8037379    335.13889   0.03603644  0.036839676            2 
  776000     1.125034   -6.7951185    336.21369  0.036105422  0.036829876            2 
  777000    1.1276021   -6.7907075    335.42881  0.035974775  0.036819426            4 
  778000    1.1332206   -6.8091486    337.22651  0.036121092  0.036809123            1 
  779000     1.127035   -6.8083593    336.98203   0.03604857  0.036798935            2 
  780000    1.1315435   -6.7808177    337.10245  0.036015219  0.036788867            2 
  781000    1.1259092   -6.7879645    338.51799  0.036120144  0.036778879            2 
  782000    1.1345707   -6.7813737    339.21101  0.036147805  0.036769313            2 
  783000     1.116549   -6.8059105    337.98169  0.035970806  0.036759266            3 
  784000     1.125818   -6.7952737     339.0648  0.036040051  0.036749404            2 
  785000    1.1452183   -6.7736026    340.70463   0.03616822  0.036739505            1 
  786000    1.1222843   -6.8369343    338.52254  0.035890854  0.036729548            2 
  787000    1.1338905   -6.8310881     339.8955  0.035990629  0.036719414            1 
  788000    1.1190079   -6.8785567    338.88461  0.035838051  0.036709095            3 
  789000    1.1357618   -6.8118467    340.85062  0.036000277  0.036698822            3 
  790000    1.1254476   -6.7937886    341.73542   0.03604804  0.036688584            2 
  791000    1.1255858   -6.7545165    341.28356  0.035954863  0.036679028            3 
  792000    1.1451364   -6.8145215    342.13305  0.035998848  0.036668808            4 
  793000    1.1140264   -6.8163214    341.96193   0.03593547  0.036658702            3 
  794000    1.1252994   -6.7685708    341.27377  0.035817986  0.036648523            4 
  795000    1.0919431   -6.7878409    342.66045  0.035918286  0.036638345            2 
  796000    1.1194317   -6.7817575    342.96446   0.03590499  0.036628411            7 
  797000    1.1302453   -6.7872529    342.94832  0.035858252  0.036618387            4 
  798000    1.1290848   -6.8441172    344.01472  0.035924678  0.036607944            3 
  799000    1.1326541   -6.7644157    343.81614  0.035859005  0.036597814            2 
  800000     1.124191   -6.8201866    344.67475   0.03590362  0.036587429            3 
  801000    1.1474344    -6.816703    343.53142  0.035739848  0.036577097            6 
  802000    1.1374057   -6.8108051     344.8467  0.035831951  0.036566767            1 
  803000    1.1119146   -6.8071034    345.28142  0.035832443   0.03655686            2 
  804000    1.1174132   -6.7934006    346.54361  0.035918699  0.036546945            6 
  805000    1.1517712   -6.8198228    346.00193  0.035818005  0.036537312            1 
  806000    1.1140633   -6.7994601     347.2069   0.03589815  0.036527395            4 
  807000    1.1386972   -6.8278592     347.3567  0.035869135  0.036517414            1 
  808000    1.1227394   -6.7452102    347.01171  0.035789162  0.036507439            2 
  809000    1.1177691   -6.8234353     346.9027  0.035733694  0.036497317            3 
  810000    1.0995629   -6.7915817    348.91848  0.035896963  0.036487419            2 
  811000    1.1097782   -6.8261068    347.56276  0.035713395  0.036477131            2 
  812000    1.1294237   -6.8039593    348.55121  0.035770855  0.036467195            3 
  813000    1.1439798    -6.782373     349.5786  0.035832165  0.036457719            1 
  814000    1.0965152   -6.8133313    350.15811  0.035847473  0.036447827            2 
  815000     1.133115   -6.8074187    349.71281  0.035757956  0.036438149            1 
  816000      1.10795   -6.8120616     350.6428  0.035809109  0.036428454            5 
  817000     1.094358   -6.7828006    351.28925  0.035831217  0.036418709            2 
  818000    1.0962372   -6.7945255    352.14727  0.035874823  0.036408829            2 
  819000    1.1779679   -6.8129349     349.9944  0.035611965  0.036398815            2 
  820000    1.1173084   -6.8207318      351.357  0.035707012  0.036389082            5 
  821000    1.0824075   -6.7997638    352.82717  0.035812746  0.036379322            1 
  822000    1.1352471   -6.8043946    352.15792   0.03570133   0.03636941            2 
  823000    1.1064188   -6.8355244    352.60332  0.035703049  0.036359423            2 
  824000    1.1122692   -6.8071922     352.3564  0.035634749  0.036349447            1 
  825000    1.1003348   -6.7832222    352.46553  0.035602579   0.03633902            4 
  826000    1.1147964   -6.7809685    353.52659  0.035666524  0.036328862            2 
  827000    1.1247723   -6.8248291    352.74764  0.035544905  0.036318824            2 
  828000     1.114825   -6.8191464    354.83903  0.035712463  0.036308992            1 
  829000    1.1273628   -6.8225099    354.61303  0.035646665  0.036299345            2 
  830000    1.1141715   -6.7937084    356.09721  0.035752732  0.036289841            3 
  831000    1.1094264   -6.8026614    355.82037  0.035681947  0.036280405            2 
  832000    1.1295142   -6.8106161    355.86467  0.035643496  0.036270954            1 
  833000    1.0859572   -6.8055224    357.61013  0.035775324  0.036261486            1 
  834000        1.128   -6.8263726    356.43939  0.035615447  0.036251985            3 
  835000    1.1256681   -6.7560252    357.88244   0.03571681  0.036242802            2 
  836000    1.1208888   -6.8468954    357.55298  0.035641246  0.036232989            1 
  837000    1.1200987   -6.8148156    356.91922  0.035535565  0.036223784            2 
  838000    1.1048484   -6.8137504    358.75136  0.035675354  0.036214114            3 
  839000    1.1120971   -6.8142515    357.75271  0.035533642   0.03620429            3 
  840000    1.1291763   -6.8452858    358.22398  0.035538094   0.03619467            2 
  841000    1.1238505   -6.8152543    359.36577  0.035608974  0.036185091            2 
  842000    1.1011875   -6.8092057    359.06329  0.035536747  0.036175167            1 
  843000    1.0913942   -6.8268999     359.7353  0.035561022  0.036165422            2 
  844000    1.1134352   -6.8103101    360.97032  0.035640829  0.036155745            2 
  845000    1.1248877   -6.8056311    360.66356  0.035568398  0.036146027            2 
  846000    1.1361763   -6.8364892    361.32595  0.035591602  0.036136481            1 
  847000    1.1052893   -6.8282716    361.24203  0.035541325  0.036126774            1 
  848000    1.1072734   -6.8144728    361.11722  0.035487148  0.036117152            2 
  849000    1.1208158   -6.7860449    362.37057  0.035568372  0.036107684            2 
  850000    1.1149757   -6.8044023    361.22581  0.035414295   0.03609795            6 
  851000     1.113496   -6.8188927    361.67651  0.035416815  0.036088228            2 
  852000    1.1066903   -6.8054172     362.9083  0.035495726  0.036078798            1 
  853000    1.1066767    -6.833852    363.13613  0.035476371   0.03606883            1 
  854000    1.0885805   -6.7892122    363.22407   0.03544341  0.036059144            2 
  855000     1.108773   -6.8300434    362.91168  0.035371509  0.036049894            2 
  856000    1.1140685   -6.8707648     362.7608  0.035315498  0.036039954            1 
  857000     1.140898   -6.7935782    365.47194  0.035537917   0.03603017            2 
  858000    1.1075247    -6.805613    363.54657  0.035309496  0.036020645            3 
  859000    1.1263561   -6.8166692    365.00728  0.035410097  0.036010846            2 
  860000    1.1005534   -6.8259131     364.2657  0.035297064  0.036000846            1 
  861000    1.0778103   -6.8166275    364.46319  0.035275183  0.035990859            3 
  862000    1.1278053   -6.7970432    365.72492  0.035356238  0.035981168            1 
  863000    1.1113373   -6.7957304    366.07174  0.035348759  0.035971586            4 
  864000    1.1095016   -6.8136767    367.80241  0.035474769  0.035962238            2 
  865000    1.0990001     -6.80398    367.86021  0.035439327  0.035953114            2 
  866000    1.0969838   -6.8624427    366.73562  0.035290186  0.035943651            1 
  867000    1.0777213   -6.8407272    367.13354   0.03528773  0.035933984            2 
  868000    1.0943665   -6.8083886    368.18023  0.035347565  0.035924106            3 
  869000    1.0897421   -6.8838398    367.34612  0.035226901  0.035914237            3 
  870000    1.0971579   -6.8740406    367.57963  0.035208777  0.035904257            1 
  871000    1.0947005   -6.8431346    369.80964  0.035381711  0.035894805            1 
  872000    1.1140602   -6.8304184    369.50376  0.035311904  0.035885392            1 
  873000    1.1298146   -6.8361552    370.36294  0.035353469  0.035876168            3 
  874000    1.1169144   -6.8260819    370.26289   0.03530348  0.035867463            3 
  875000    1.1253237   -6.8414357    371.50135  0.035381081  0.035858454            2 
  876000    1.1082548   -6.7997039    371.67401  0.035357117  0.035849313            3 
  877000    1.1088737   -6.8211536    373.12821   0.03545498  0.035840412            3 
  878000    1.1124434   -6.8342457    371.65935  0.035275185  0.035831363            3 
  879000    1.1090104   -6.8330689    372.80433  0.035343603  0.035822417            1 
  880000    1.1401863   -6.8555337    372.57994  0.035282191  0.035813622            4 
  881000    1.1226175   -6.8569968    372.82393  0.035265222  0.035804803            2 
  882000    1.1180148   -6.8356143    374.03303  0.035339477  0.035795931            1 
  883000    1.1155099   -6.8255114    374.89996  0.035381272  0.035787108            3 
  884000    1.1181486   -6.8588591    375.10128  0.035360226  0.035778521            2 
  885000     1.092218   -6.8368415    375.59495  0.035366756  0.035769781            2 
  886000    1.1005034   -6.8567285    375.51269  0.035319102   0.03576121            2 
  887000    1.1033004   -6.7964457    376.99055  0.035418127  0.035752607            2 
  888000    1.1205888   -6.8117518     377.6596  0.035441028  0.035744813            1 
  889000    1.0969157   -6.7642699    378.07318  0.035439931  0.035736887            1 
  890000    1.1008937   -6.8180264    378.28545  0.035419986  0.035728816            1 
  891000    1.1174388   -6.8462713    378.05317  0.035358508  0.035720014            3 
  892000    1.1182426   -6.8457903    377.33995  0.035252237  0.035711289            1 
  893000    1.0953218   -6.8580092    377.40621  0.035218945   0.03570255            1 
  894000    1.1226345   -6.8132949    379.02867  0.035330786  0.035693942            2 
  895000    1.1336736   -6.8008791    378.47465  0.035239725  0.035685611            3 
  896000    1.0870724   -6.8768473    380.11276  0.035352749  0.035677677            3 
  897000    1.1080907   -6.8760554    379.85227  0.035289137  0.035669482            3 
  898000    1.1314844   -6.8348091    381.74174   0.03542518  0.035661837            4 
  899000    1.1080112    -6.867987    380.21177  0.035243954  0.035653998            1 
  900000    1.1058376   -6.8838783    380.28698  0.035211757   0.03564599            1 
  901000      1.11394   -6.8696048    382.07053  0.035337637  0.035637963            1 
  902000    1.1155339   -6.8542524    382.67548   0.03535435  0.035630277            3 
  903000    1.0895983   -6.7985263    383.69124  0.035408937   0.03562264            3 
  904000    1.1053178   -6.8350507    383.88994  0.035388085   0.03561509            6 
  905000     1.113922   -6.8169456    383.42427  0.035306102  0.035607347            2 
  906000    1.0734223   -6.8274203    384.55259  0.035370915  0.035599554            3 
  907000    1.1130331   -6.8595907    383.97536  0.035278883  0.035592092            5 
  908000    1.1118575   -6.8746277    383.59651   0.03520526  0.035584629            3 
  909000    1.1111709   -6.8403315    385.96381  0.035383554  0.035577009            2 
  910000    1.1044139   -6.8333809     385.4526  0.035297857  0.035569302            6 
  911000    1.0993941   -6.8461001    385.66378  0.035278428  0.035561407            6 
  912000    1.1079779   -6.8575484    385.43214   0.03521858  0.035553679            2 
  913000    1.1173493   -6.8434319    386.87754  0.035311933  0.035546006            2 
  914000    1.1393943   -6.8215123     387.2323  0.035305643   0.03553853            2 
  915000    1.0909757   -6.8795354    387.97878  0.035335044  0.035531089            1 
  916000    1.0941684   -6.8432482    388.37051  0.035332106  0.035523796            1 
  917000    1.0880539   -6.8213533    389.44901  0.035391586  0.035516756            3 
  918000    1.1065523   -6.8599579    388.24137  0.035243407  0.035509781            1 
  919000    1.0865631   -6.8433335    389.23056  0.035294755  0.035502555            2 
  920000    1.1273828   -6.8642205    389.76416  0.035304725  0.035495571            3 
  921000    1.0943835   -6.8755408    389.41145  0.035234478  0.035488664            4 
  922000    1.1094956   -6.8319423    389.69375  0.035221778  0.035481535            2 
  923000    1.1095449   -6.8074098    390.84954  0.035287968  0.035474476            2 
  924000    1.0799586   -6.8780774    391.52011  0.035310255   0.03546733            2 
  925000    1.1336787   -6.8140551    391.38509  0.035259918  0.035460119            2 
  926000    1.0963308   -6.8443083    392.21601  0.035296617   0.03545299            3 
  927000    1.1043841   -6.8443868    390.53953  0.035107832  0.035445974            2 
  928000    1.1176578   -6.8451586    392.76122  0.035269506   0.03543871            4 
  929000    1.0968173   -6.8721317    392.82808  0.035237538  0.035431544            1 
  930000    1.1030562   -6.8892201    392.52951  0.035172895   0.03542432            4 
  931000    1.1043987   -6.8288231    393.70814  0.035240614  0.035417357            2 
  932000    1.0934037   -6.8605194    392.92192  0.035132504  0.035410818            2 
  933000    1.1124571   -6.8801738    394.43927  0.035230374  0.035404103            2 
  934000    1.0998237    -6.805946    393.90817  0.035145269  0.035397424            2 
  935000    1.0814289   -6.8107038    396.36417  0.035326575  0.035390832            1 
  936000    1.1069995   -6.8491512    395.78445   0.03523722  0.035384215            2 
  937000    1.0856245   -6.8702953    396.22023   0.03523837  0.035377517            4 
  938000    1.0782889   -6.8710268    396.57007  0.035231882  0.035370679            2 
  939000    1.0865711   -6.8544272    396.73372  0.035208885  0.035363792            2 
  940000    1.0920665    -6.874159    398.46645   0.03532504  0.035357126            1 
  941000    1.1263924   -6.8403147    397.94815    0.0352416  0.035350625            3 
  942000     1.105233   -6.8661984    397.85091  0.035195587  0.035343891            1 
  943000    1.0921049   -6.8738019     398.3184  0.035199576  0.035336853            4 
  944000    1.1099069   -6.8719581    398.23371  0.035154812  0.035330037            2 
  945000    1.1205993   -6.8569717    398.41376  0.035133489  0.035323034            3 
  946000    1.1075283   -6.8452339    399.41969  0.035184962  0.035316186            1 
  947000    1.0872014   -6.8436819    399.67778   0.03517052  0.035309361            2 
  948000     1.109363   -6.8711316    399.34133  0.035103844  0.035302607            3 
  949000    1.1038269   -6.8783326    400.42385  0.035161912  0.035295601            4 
  950000     1.103287   -6.8752869    400.41125  0.035123794  0.035288266            1 
  951000    1.1184148   -6.8685642     400.8557  0.035125806  0.035281267            1 
  952000    1.0654512   -6.8187004    401.47908  0.035143477  0.035274489            1 
  953000    1.0941066   -6.8633631    400.34814  0.035007707  0.035267281            4 
  954000    1.1167343   -6.8728969    402.22884  0.035135293  0.035259996            2 
  955000    1.1024115   -6.8124586     402.8221  0.035150271  0.035253002            3 
  956000    1.0954056   -6.8511364    401.38019  0.034987813   0.03524612            1 
  957000     1.096437   -6.8481463    402.26561  0.035028353  0.035238899            5 
  958000    1.0652414    -6.823977    403.41514  0.035091783  0.035231544            1 
  959000    1.1080958   -6.8244182    402.86108  0.035007045  0.035224361            2 
  960000    1.0991869   -6.9115846    402.08938  0.034903592  0.035216809            3 
  961000    1.0992093   -6.8842558    402.95046  0.034941941  0.035209106            3 
  962000    1.1121719   -6.9084199    402.88994  0.034900376   0.03520162            2 
  963000    1.1143168   -6.8198115    406.17377  0.035148302  0.035194015            4 
  964000    1.0952012   -6.8681078    403.97502  0.034921769  0.035186487            2 
  965000    1.0781855   -6.8237783    404.46851  0.034928196  0.035178738            1 
  966000    1.1141875   -6.8788194    403.96542  0.034848639  0.035170806            1 
  967000    1.0907204   -6.8450992    404.42947  0.034852592  0.035163007            1 
  968000    1.0981278   -6.8465281    405.78529  0.034933306  0.035155315            4 
  969000    1.1135392   -6.8538677    406.09424  0.034923825  0.035147865            3 
  970000    1.0845685   -6.8757863    406.30401  0.034905843  0.035140176            2 
  971000    1.0920152   -6.8731767    406.47248  0.034884353  0.035132516            3 
  972000    1.1004312   -6.8731348    406.70874  0.034868719  0.035124841            3 
  973000     1.092229   -6.8788104    405.76772  0.034752289  0.035117154            2 
  974000    1.0974082   -6.8383939    407.75086  0.034886281  0.035109333            1 
  975000    1.0990677   -6.8449139    406.62954  0.034754662  0.035101704            2 
  976000     1.078435   -6.8442537    408.28208   0.03486015  0.035093615            2 
  977000    1.1057981   -6.9001489    407.56453  0.034763266  0.035085519            1 
  978000    1.0919231   -6.8867379    406.60448  0.034645917  0.035077309            3 
  979000     1.071379   -6.8514336    406.72158  0.034620495  0.035068934            3 
  980000    1.1068785   -6.8747249    407.13563  0.034620377  0.035060481            4 
  981000     1.073744   -6.8469901    407.56265   0.03462136  0.035052088            4 
  982000    1.1018113   -6.8616793    408.17782  0.034638307  0.035043613            3 
  983000    1.1115734   -6.8869086    408.31882  0.034615023   0.03503497            3 
  984000    1.0888771   -6.8731197    409.21915  0.034656094  0.035026275            4 
  985000    1.0958164   -6.8623974    409.29037  0.034626934  0.035017738            2 
  986000    1.0966089   -6.8568514     409.8303  0.034637449  0.035009542            2 
  987000    1.1002232    -6.851183    410.25884  0.034638538  0.035001335            2 
  988000    1.1070354   -6.8584941    409.66974   0.03455379  0.034993073            5 
  989000    1.0893868   -6.8736169    411.04817     0.034635  0.034984842            2 
  990000    1.0966371   -6.8723643    410.82758  0.034581446   0.03497658            2 
  991000    1.0902444   -6.8968833    412.19384   0.03466144   0.03496843            3 
  992000    1.1014032   -6.9039045    411.01151  0.034527176  0.034960169            3 
  993000    1.0868099   -6.9062761    413.68838  0.034717051  0.034952086            3 
  994000    1.0806081   -6.8577179    413.00912  0.034625178   0.03494394            3 
  995000    1.0836005   -6.8762823    413.08256  0.034596529  0.034935465            2 
  996000    1.1060717    -6.848808    414.06708  0.034644166  0.034927126            1 
  997000    1.0864829   -6.8860667    413.04027  0.034523593  0.034918804            5 
  998000    1.0718086   -6.9019487    414.61375  0.034620387  0.034910521            2 
  999000    1.0933439   -6.9113201    412.87145  0.034440394  0.034902218            3 
 1000000    1.0903112   -6.8700312    414.62638  0.034552199  0.034893743            5 
 1001000    1.0987084   -6.8945658    414.56023  0.034512174  0.034885532            2 
 1002000    1.0789253   -6.8087038    415.62316  0.034566131  0.034877535            3 
 1003000    1.0907661   -6.8821068    415.35051  0.034509015   0.03486944            2 
 1004000    1.1075524   -6.8713597    417.57171  0.034659006  0.034861551            1 
 1005000    1.0988664   -6.8826856     417.4954  0.034618192  0.034853724            1 
 1006000    1.0858315   -6.8737586    418.10348  0.034634152  0.034846063            3 
 1007000    1.0939735   -6.8496463    419.17446  0.034688387  0.034838557            1 
 1008000    1.0913332   -6.8725081    418.44371   0.03459356  0.034830842            2 
 1009000    1.1037976   -6.8896604    418.36581  0.034552842  0.034823117            3 
 1010000    1.0988024   -6.8463982    418.91541  0.034563977  0.034815189            2 
 1011000     1.070717   -6.8508584    419.83766  0.034605808  0.034807279            2 
 1012000    1.0953106     -6.87458    418.29384  0.034444486   0.03479942            2 
 1013000    1.0938744   -6.8654363    419.94206  0.034546073  0.034791414            2 
 1014000    1.0981035   -6.8980613    418.59146  0.034401008  0.034783227            2 
 1015000    1.0898723     -6.86797    419.10718  0.034409457  0.034774961            3 
 1016000    1.0923159   -6.8835826    419.23474  0.034386051   0.03476676            1 
 1017000    1.0824582   -6.9201578    419.18713  0.034348339  0.034758575            1 
 1018000    1.1172298   -6.8935578    420.85191  0.034450877  0.034750351            2 
 1019000    1.0804287     -6.87746    421.13634  0.034440328  0.034742319            6 
 1020000    1.0920479   -6.8916004     420.8912  0.034386536  0.034734267            3 
 1021000    1.0962741   -6.8858491    421.90554  0.034435647  0.034726188            2 
 1022000    1.0809949   -6.8653384    422.51515   0.03445166  0.034718112            3 
 1023000    1.0865093   -6.9055656    423.10626  0.034466134  0.034710195            5 
 1024000    1.0906458   -6.8778316      422.507  0.034383707  0.034702624            2 
 1025000    1.0806553   -6.8977725    422.68848  0.034364917  0.034694979            2 
 1026000     1.080814   -6.9374859    424.17945  0.034452522  0.034687337            1 
 1027000    1.0921607   -6.8932087    425.32291  0.034511758  0.034679887            2 
 1028000    1.0697847   -6.9012415    424.59014  0.034418786  0.034672432            2 
 1029000    1.0868472   -6.8317743    426.55107  0.034544142  0.034665154            3 
 1030000    1.1025791   -6.8689471    426.07225  0.034471865  0.034658114            6 
 1031000    1.0816563   -6.8996476    427.21532  0.034530821  0.034650809            1 
 1032000    1.0677609    -6.866858    427.01903  0.034481511   0.03464353            2 
 1033000    1.0971346   -6.8769507      427.699  0.034502985   0.03463639            2 
 1034000    1.0953137   -6.8859516     427.3115  0.034438386  0.034629325            3 
 1035000    1.0665921    -6.868435    427.65709  0.034432938   0.03462231            3 
 1036000    1.0899031   -6.9033045     428.4892  0.034466635  0.034615111            1 
 1037000    1.0933605   -6.9045996    428.03974  0.034397279  0.034608024            2 
 1038000    1.0888939   -6.9023237    427.90771  0.034353541  0.034600724            5 
 1039000    1.0777465   -6.8737118    429.68701  0.034463187  0.034593421            2 
 1040000    1.0602843   -6.8726643     430.3819  0.034485729  0.034586331            1 
 1041000    1.0848714   -6.9270384    429.53329   0.03438467  0.034578931            3 
 1042000    1.0698226   -6.8733075    431.00623  0.034469468  0.034571421            2 
 1043000    1.0752947    -6.888588    429.78288  0.034338677  0.034563838            2 
 1044000    1.0663327   -6.8740603    430.00072  0.034323174  0.034555964            2 
 1045000    1.0911843   -6.8769645    430.04246  0.034293657   0.03454834            6 
 1046000    1.0877349   -6.8816269    432.23805  0.034435791  0.034541127            1 
 1047000     1.065939   -6.8600844    431.14173  0.034315642  0.034533656            8 
 1048000    1.0736412   -6.8744639      432.686  0.034405694  0.034526158            5 
 1049000    1.0544996   -6.8995071    431.41518   0.03427194  0.034518703            3 
 1050000    1.0838028   -6.8740143    433.11243  0.034374002  0.034511392            2 
 1051000    1.0742654   -6.9185684    432.57296  0.034298522  0.034504232            4 
 1052000    1.0684374   -6.9504826    431.70864  0.034197452  0.034496764            5 
 1053000    1.0823711   -6.8761287    434.25478  0.034366475  0.034489623            7 
 1054000    1.0925423   -6.8740096     435.0307  0.034395217  0.034482561            3 
 1055000    1.0655877   -6.8861008    434.72482  0.034338453  0.034475408            2 
 1056000    1.1052667    -6.883595    434.89046  0.034319008  0.034468084            2 
 1057000    1.0856521    -6.891573    434.83421  0.034282104  0.034460534            1 
 1058000    1.0900615   -6.9507721    433.84712  0.034171953  0.034453159            1 
 1059000    1.0725702   -6.8565134    435.34099  0.034257239  0.034445519            3 
 1060000    1.0777222   -6.8961118    436.32028  0.034301909  0.034438166            4 
 1061000    1.0890143   -6.9163018    435.34494  0.034192974  0.034430578            5 
 1062000    1.0823761   -6.8553044     436.9826  0.034289282  0.034423048            2 
 1063000    1.0745667   -6.9286734    436.13567  0.034190629  0.034415771            2 
 1064000    1.0842303   -6.8726723    437.91164  0.034297591  0.034408425            3 
 1065000    1.0832634    -6.913938    436.73227  0.034173104  0.034401049            3 
 1066000    1.0989984   -6.8914762    438.29528  0.034263233   0.03439342            2 
 1067000    1.1024858   -6.8706005    437.68783   0.03418368  0.034385792            1 
 1068000    1.0665152   -6.9187999    436.50147  0.034059103  0.034378083            2 
 1069000    1.0740761   -6.8971011    438.12121  0.034153509  0.034370158            2 
 1070000     1.080448   -6.9077622    437.62503  0.034082946  0.034362374            2 
 1071000    1.0644357   -6.8733385    438.45515  0.034115713   0.03435469            1 
 1072000    1.0845488   -6.9314123    438.25235  0.034068124  0.034347242            3 
 1073000    1.1044212   -6.8625167    439.74344  0.034152178  0.034339446            4 
 1074000     1.075758   -6.9262194    441.13924  0.034228681  0.034332005            4 
 1075000    1.0987264   -6.8995543    440.78004  0.034168995  0.034324647            2 
 1076000    1.0990774   -6.8961669    441.13464  0.034164703  0.034317435            3 
 1077000     1.085675   -6.8869137    440.73006  0.034101676  0.034310192            1 
 1078000    1.0882675   -6.8715159    440.89418  0.034082729  0.034302786            2 
 1079000    1.0583228   -6.8926752    440.86199  0.034048656  0.034295635            2 
 1080000    1.0893929   -6.9188678    442.42518  0.034137745  0.034288456            4 
 1081000    1.0691284    -6.902332    443.78092  0.034210678  0.034281265            2 
 1082000    1.0750504   -6.9304992    442.98506  0.034117765  0.034274151            3 
 1083000    1.0609934   -6.9238659    443.71504  0.034142432  0.034267039            3 
 1084000    1.0638353   -6.9201037    443.95284  0.034129216  0.034260119            4 
 1085000     1.095464   -6.9050405    444.10154  0.034109181  0.034252907            3 
 1086000    1.0934353    -6.887929    442.66564  0.033967591   0.03424565            3 
 1087000    1.0758253   -6.9358387    443.60138  0.034008078  0.034238365            4 
 1088000    1.0759911   -6.9265279    445.20232  0.034099442  0.034231226            3 
 1089000    1.0730917   -6.8966873    444.77582  0.034035493   0.03422425            2 
 1090000    1.0576186   -6.9024801    445.59784  0.034067113  0.034217155            3 
 1091000    1.0828446   -6.8885253    446.07949  0.034072677  0.034209789            3 
 1092000    1.0808188   -6.8885354    447.79959  0.034172741  0.034202713            2 
 1093000    1.0717741    -6.930724    446.18138  0.034018098  0.034195639            6 
 1094000    1.0750874   -6.9076756     446.8719  0.034039603  0.034188476            5 
 1095000    1.0748956   -6.9110933    447.31279  0.034042069  0.034181516            2 
 1096000    1.0757433   -6.9083517     447.1282  0.033996974  0.034174352            1 
 1097000    1.0787918   -6.9187987     447.5537  0.033998306  0.034167017            1 
 1098000    1.0712096   -6.9059375     447.2477  0.033944118  0.034159657            4 
 1099000    1.0857012   -6.9348239    447.69663  0.033947272  0.034152001            3 
 1100000    1.0500447   -6.8805034    448.79533  0.033999646  0.034144432            2 
 1101000    1.0732894   -6.9164581    449.08564  0.033990738  0.034136847            3 
 1102000    1.0813221   -6.9331627    447.69274  0.033854563  0.034129332            5 
 1103000    1.0625415   -6.9035345    447.26185  0.033791315  0.034121741            3 
 1104000    1.0653087   -6.8799208     449.4766  0.033927883  0.034114307            2 
 1105000    1.0483722    -6.897949    449.21045  0.033877108  0.034106818            2 
 1106000    1.0755925   -6.8890527    449.78665  0.033889892  0.034099382            3 
 1107000    1.0778881   -6.8457603    452.33102  0.034050815   0.03409195            3 
 1108000    1.0811259   -6.9161494    450.21401  0.033860861  0.034084848            1 
 1109000    1.0560189   -6.8965723    450.87223  0.033879789   0.03407745            4 
 1110000    1.0742701   -6.9116184    451.61766   0.03390523   0.03406993            2 
 1111000    1.0632433   -6.9196426    451.95762  0.033900212  0.034062402            2 
 1112000    1.0930945   -6.8690479    452.37484  0.033900992  0.034054999            2 
 1113000    1.0412208   -6.9134052    453.16142  0.033929426  0.034047435            1 
 1114000    1.0660029   -6.9309198    453.28518  0.033908227  0.034039727            2 
 1115000     1.070111   -6.9262002    451.21922   0.03372341  0.034032337            4 
 1116000    1.0860943   -6.9061178    452.24425  0.033769732  0.034024975            3 
 1117000    1.0844865   -6.9385774    452.95068  0.033792203  0.034017554            4 
 1118000    1.0491707   -6.9087877    453.60627  0.033810843  0.034010217            2 
 1119000    1.0926453   -6.8895892    454.32301  0.033834005  0.034002953            3 
 1120000    1.0688284    -6.898301    455.79955  0.033913657  0.033995524            4 
 1121000    1.0635634   -6.9142022     455.6904   0.03387529  0.033988122            2 
 1122000    1.0655967   -6.9200767     454.3127  0.033742773  0.033980647            1 
 1123000     1.053068   -6.9094636    455.12408  0.033772936  0.033973168            3 
 1124000     1.086173   -6.9334381    455.69488  0.033785208  0.033965827            2 
 1125000    1.0620585   -6.8869874    456.94708  0.033847932  0.033958586            4 
 1126000    1.0661392   -6.9588437    456.82935  0.033809159  0.033951239            2 
 1127000    1.0856567    -6.939827    457.15675  0.033803368  0.033943853            2 
 1128000     1.084319   -6.9151034    457.59486  0.033805767  0.033936633            2 
 1129000    1.0779973   -6.8993836    456.26698  0.033677811  0.033929272            2 
 1130000    1.0652251   -6.9167997    459.16316   0.03386159  0.033922163            2 
 1131000    1.0715403   -6.9378512    457.68311  0.033722599  0.033914866            3 
 1132000    1.0573919   -6.9373018    458.24978  0.033734525    0.0339075            3 
 1133000    1.0689532   -6.9186291    457.74571  0.033667675  0.033900007            3 
 1134000    1.0638567   -6.8216159    459.27151  0.033750111   0.03389268            2 
 1135000    1.0702206   -6.9042086    459.05864  0.033704746  0.033885132       -1e+20 
 1136000    1.0900049   -6.9224981    458.37915  0.033625231  0.033877251            2 
 1137000    1.0701528   -6.9205886    458.27713   0.03358818  0.033869393            4 
 1138000    1.0851752   -6.9555966    458.27454  0.033558475  0.033861291            1 
 1139000    1.0585523   -6.9376741    458.49923  0.033545452  0.033853261            3 
 1140000    1.0601041    -6.917655    459.90046  0.033618454  0.033845481            3 
 1141000    1.0677006   -6.9430007     459.9639  0.033593624  0.033837493            2 
 1142000    1.0730998   -6.9059738    459.17919  0.033506946  0.033829587            2 
 1143000      1.06322   -6.8962814    459.61749  0.033509587   0.03382157            5 
 1144000    1.0760119   -6.9227512    459.93473  0.033503404   0.03381347            3 
 1145000    1.0476341   -6.9446583    459.75646  0.033461169  0.033805316            5 
 1146000    1.0610139   -6.9179915    462.55996  0.033635832  0.033797338            3 
 1147000     1.091841   -6.8932706    462.69781  0.033616522  0.033789333            2 
 1148000     1.073992   -6.9073191      462.063  0.033541158    0.0337815            4 
 1149000    1.0622178   -6.9174394    463.17216  0.033592411  0.033773887            3 
 1150000    1.0596813   -6.9132798    462.99418  0.033550303  0.033766148            2 
 1151000    1.0606051   -6.9617627    462.19182  0.033463062   0.03375825            2 
 1152000     1.067539   -6.9292525    461.69551  0.033398113  0.033750437            2 
 1153000    1.0807748   -6.9228683    463.83656  0.033523891  0.033742713            2 
 1154000    1.0857956   -6.9243691    464.90568  0.033572045  0.033734951            1 
 1155000    1.0634004   -6.9451379    464.09297  0.033484341  0.033727361            2 
 1156000    1.0734028      -6.8973    465.44277  0.033552679  0.033719751            3 
 1157000    1.0783151    -6.915009    464.15787  0.033431134  0.033712238            5 
 1158000    1.0470412   -6.9433487    464.79374  0.033448024  0.033704677            5 
 1159000    1.0770011   -6.9158211    465.62293  0.033478784  0.033697162            2 
 1160000    1.0563239   -6.9350703    467.14165  0.033559027  0.033689583            2 
 1161000    1.0544231    -6.935363    465.70759  0.033427188  0.033682033            2 
 1162000    1.0528663   -6.8991275    466.92742  0.033485902  0.033674475            2 
 1163000     1.046014   -6.9130397    467.54109  0.033501081  0.033667062            1 
 1164000    1.0521814   -6.9054107    467.98287  0.033503928  0.033659574            2 
 1165000    1.0710583   -6.9449889    468.07506  0.033481764  0.033652131            3 
 1166000    1.0486293   -6.9210789    467.95242  0.033444284  0.033644753            2 
 1167000    1.0729125   -6.9192983    467.84579  0.033408011  0.033637361            4 
 1168000    1.0496324   -6.9166621    468.47683  0.033424431  0.033629901            1 
 1169000    1.0593118   -6.9178831    469.68465   0.03348194  0.033622453            2 
 1170000    1.0390085   -6.8964499    468.98274  0.033403329  0.033614866            3 
 1171000    1.0610931    -6.937265    468.51224  0.033341321  0.033607279            3 
 1172000      1.06432    -6.898455    469.59323  0.033389735  0.033599685            2 
 1173000    1.0806323   -6.9452272    469.45659  0.033351562  0.033591933            2 
 1174000    1.0501495   -6.9191565    470.51841  0.033398525  0.033584341            2 
 1175000    1.0715149   -6.9314659     471.9389  0.033470844  0.033576671            2 
 1176000    1.0511193   -6.9313682    470.09021  0.033311381   0.03356889            1 
 1177000    1.0370409   -6.9039051    471.07271  0.033352641  0.033561064            2 
 1178000    1.0555245   -6.9243556    472.66248  0.033436791  0.033553395            1 
 1179000    1.0514239   -6.9791609    470.43467  0.033250966  0.033545606            3 
 1180000    1.0484317   -6.9892054    471.38623  0.033289988  0.033537659            2 
 1181000     1.053045   -6.8985401    472.25486  0.033323092  0.033530018            2 
 1182000    1.0858898   -6.9334845     472.0585  0.033281056  0.033522487            2 
 1183000    1.0521394   -6.9196204    472.26942  0.033267781  0.033515042            2 
 1184000    1.0739667   -6.9452195    471.85849  0.033210761  0.033507605            2 
 1185000    1.0684318   -6.9388917    472.36231  0.033218165  0.033500023            2 
 1186000    1.0659758   -6.9700969    473.33167  0.033258268  0.033492425            2 
 1187000    1.0494235   -6.9093805    474.52243  0.033313847  0.033484942            2 
 1188000    1.0445457   -6.9228775    475.72565  0.033370205  0.033477616            2 
 1189000    1.0554154    -6.937559    473.54497  0.033189303  0.033470118            2 
 1190000    1.0669381   -6.9411606    476.39787  0.033361196   0.03346263            1 
 1191000    1.0928146   -6.8909832    476.86922  0.033366164  0.033455121            2 
 1192000    1.0530966   -6.9329178      474.802  0.033193652  0.033447376            1 
 1193000    1.0971957    -6.899814    475.53724  0.033217186  0.033439715            3 
 1194000    1.0344152   -6.9125664    476.10665  0.033229108  0.033432083            2 
 1195000    1.0875744   -6.9050003    476.32118  0.033216261  0.033424426            2 
 1196000    1.0436902   -6.9066259    477.70883  0.033285175  0.033416931            4 
 1197000    1.0719189   -6.9219825    476.09164  0.033144781  0.033409311            2 
 1198000    1.0411995   -6.9758131    477.11453  0.033188267  0.033401444            1 
 1199000    1.0552072   -6.9560011    476.08772  0.033089222  0.033393629            2 
 1200000    1.0637319   -6.9305756    477.26623  0.033143488  0.033385817            3 
 1201000    1.0612366   -6.9459401    478.39854  0.033194458   0.03337806            4 
 1202000    1.0426761   -6.9397835    478.50959  0.033174542  0.033370402            5 
 1203000    1.0657971   -6.8903557     479.7944  0.033235965  0.033362621            3 
 1204000    1.0764305   -6.9414999    479.26667  0.033171835  0.033355004            1 
 1205000    1.0538824   -6.9200118    479.53234  0.033162679  0.033347209            3 
 1206000    1.0282739   -6.9194709    479.76034  0.033150936  0.033339583            2 
 1207000    1.0804671   -6.9444229    479.89403    0.0331327  0.033331976            2 
 1208000    1.0614847   -6.9389209    480.09767   0.03311932  0.033324432            3 
 1209000    1.0845122   -6.9661713    481.12079  0.033162447  0.033316818            3 
 1210000    1.0414147   -6.9165455    481.50132  0.033161248   0.03330946            2 
 1211000    1.0629849    -6.908465     481.1585  0.033110274  0.033302109            1 
 1212000    1.0548002   -6.9115123    481.72541  0.033121934   0.03329478            3 
 1213000    1.0478574   -6.9552295    482.33355  0.033136408    0.0332872            4 
 1214000    1.0452631   -6.9280484     482.4502   0.03311712  0.033279747            2 
 1215000    1.0620005   -6.9370771    482.59362  0.033099699  0.033272255            2 
 1216000    1.0616365   -6.9072489    482.20976  0.033046173  0.033264973            2 
 1217000    1.0625445   -6.9312767    483.49544  0.033107055  0.033257451            4 
 1218000    1.0719655   -6.9222132    483.19468  0.033059297  0.033250127            3 
 1219000     1.054448   -6.9378618     482.1994  0.032964137  0.033242714            1 
 1220000    1.0438431   -6.9612123    483.45472  0.033022863  0.033235243            2 
 1221000    1.0517609   -6.9531236    483.17383  0.032976647  0.033227691            3 
 1222000    1.0598957   -6.9551373    483.84317  0.032995306  0.033220145            2 
 1223000    1.0445159   -6.9665236    483.85924  0.032969422  0.033212532            2 
 1224000    1.0852116   -6.9623976    485.42839  0.033049319  0.033204968            1 
 1225000    1.0598136   -7.0021446    483.22383   0.03287237  0.033197478            5 
 1226000    1.0588224   -6.9244658    487.72244  0.033151335  0.033189954            1 
 1227000    1.0495275   -6.9649013    485.50562  0.032973759  0.033182399            1 
 1228000    1.0271404   -6.9380217    486.23742  0.032996568  0.033174641            1 
 1229000    1.0637655    -6.943269    486.32367  0.032975567  0.033166997            2 
 1230000    1.0826212   -6.9156732    487.59712  0.033035035  0.033159196            2 
 1231000    1.0620039    -6.946766    487.56886  0.033006286   0.03315162            2 
 1232000    1.0493507   -6.9198156    487.03644  0.032943482  0.033144069            2 
 1233000    1.0350254   -6.9749692    485.59593  0.032819406  0.033136489            3 
 1234000    1.0425144   -6.9709882    486.62089  0.032862027  0.033128654            3 
 1235000    1.0607149   -6.9387765    487.61361  0.032902403  0.033121061            3 
 1236000    1.0449495   -6.9511609    488.04593   0.03290493  0.033113547            2 
 1237000    1.0573963   -6.9822692    488.47905  0.032907508  0.033106027            3 
 1238000    1.0596959   -6.9417182    488.24303   0.03286504  0.033098505            2 
 1239000    1.0314539   -6.9417396     489.4157  0.032917386  0.033091237            2 
 1240000     1.059587   -6.9712994    490.57287  0.032968607  0.033084096            2 
 1241000    1.0342579   -6.9175579    491.39222   0.03299706   0.03307664            2 
 1242000    1.0681017    -6.907002    490.30971   0.03289786   0.03306938            1 
 1243000    1.0408726    -6.954895    490.67807   0.03289609  0.033061921            2 
 1244000    1.0730068   -6.9585523    490.64024  0.032867111  0.033054385            2 
 1245000    1.0578472   -6.9426439    491.30591  0.032885268  0.033046705            2 
 1246000    1.0613959   -6.9834883    490.58305   0.03281053  0.033039098            1 
 1247000    1.0383504   -6.9522173    490.63763  0.032787866  0.033031473            1 
 1248000    1.0497085   -6.9837979    491.32474  0.032807474  0.033023943            3 
 1249000    1.0434222   -6.9571993    492.58765  0.032865469  0.033016296            1 
 1250000     1.070877   -6.9771162    492.09911  0.032806608   0.03300883            3 
 1251000    1.0457247   -6.9612116    493.08701   0.03284619  0.033001224            2 
 1252000    1.0749785   -6.9460133    492.62487  0.032789195  0.032993889            2 
 1253000    1.0720909   -6.9342622    494.49082  0.032887126  0.032986654            2 
 1254000    1.0387736   -6.9400982    493.90969  0.032822282  0.032979205            5 
 1255000    1.0369734   -6.9380004    494.17185  0.032813536   0.03297181            3 
 1256000     1.050464   -6.9758052    494.84214  0.032831883   0.03296433            2 
 1257000    1.0394607   -7.0090096    493.74196  0.032732827    0.0329569            5 
 1258000    1.0527587   -7.0052076    493.61553  0.032698432  0.032949262            3 
 1259000     1.065937   -6.9886865    496.30845  0.032850705  0.032941725            4 
 1260000    1.0575533   -6.9345641    495.82598  0.032792724  0.032934335            2 
 1261000    1.0528121   -6.9753166    496.34767  0.032801194  0.032926981            1 
 1262000     1.060033   -6.9940639    495.11358  0.032693713  0.032919519            2 
 1263000    1.0509211   -6.9550506    496.81636  0.032780177  0.032912065            5 
 1264000    1.0411946   -6.9589265    495.76689  0.032685053  0.032904622            2 
 1265000    1.0371226   -6.9283872     498.1054  0.032813268  0.032897201            4 
 1266000    1.0646131   -6.9943425    497.08127  0.032719936  0.032889634            3 
 1267000    1.0381444   -6.9343933    499.58394  0.032858718  0.032882256            2 
 1268000    1.0705342    -6.915623    498.51867  0.032762794  0.032874891            2 
 1269000    1.0601064   -6.9604898    499.15423  0.032778712  0.032867401            3 
 1270000    1.0463195   -6.9527341     499.8416  0.032798005  0.032859949            2 
 1271000    1.0493995   -6.9792299    498.59899  0.032690728  0.032852477            2 
 1272000     1.036205   -6.9385393    498.51978  0.032659839  0.032844955            3 
 1273000    1.0268771   -6.9224786    499.28428  0.032684229  0.032837415            2 
 1274000    1.0342658   -6.9693053    500.16106  0.032715925  0.032829987            3 
 1275000     1.059393   -6.9545637    501.28538   0.03276375  0.032822692            3 
 1276000    1.0393071   -6.9985431    499.93185  0.032649677  0.032815244            2 
 1277000    1.0349869   -6.9255654    503.35153  0.032847267  0.032807715            2 
 1278000    1.0372863    -6.951984    499.53108  0.032572449  0.032800354            4 
 1279000    1.0575483   -6.9741579    498.68811  0.032492058  0.032792712            2 
 1280000    1.0712505   -6.9783515    500.94786  0.032613793  0.032784938            3 
 1281000    1.0470927   -6.9459945    501.44471  0.032620655  0.032777365            3 
 1282000    1.0625061   -6.9905286    501.83235  0.032620408  0.032769935            2 
 1283000    1.0530087   -6.9629358    501.92977   0.03260131   0.03276258            3 
 1284000    1.0387451   -6.9488161    503.38612  0.032670439  0.032755309            5 
 1285000    1.0389045   -6.9740916    503.22725  0.032634711  0.032748151            2 
 1286000    1.0582554   -6.9593397    503.48272  0.032625889  0.032741025            1 
 1287000    1.0455058    -6.968627    504.12131  0.032641887  0.032733994            3 
 1288000    1.0528718   -6.9720067    505.17149  0.032684491  0.032727223            2 
 1289000    1.0476269   -6.9397639    506.11982  0.032720444   0.03272026            4 
 1290000    1.0301473   -7.0254673    504.51855  0.032591638  0.032713464            2 
 1291000    1.0961152   -6.9706223    506.15167  0.032671809   0.03270641            1 
 1292000    1.0481385   -7.0113645    506.49713  0.032668804  0.032699337            6 
 1293000    1.0504981   -6.9883697    505.35203  0.032569737  0.032692272            3 
 1294000    1.0244103   -6.9813437    505.32642  0.032542917  0.032685321            3 
 1295000    1.0455469   -6.9513367    508.22691  0.032704434    0.0326784            2 
 1296000    1.0547542   -7.0038332    506.46047  0.032565617  0.032671333            4 
 1297000    1.0503247    -6.983999    506.56219  0.032547044  0.032664118            2 
 1298000    1.0609552   -6.9681154    508.06922  0.032618723  0.032656977            2 
 1299000    1.0447013   -6.9391061    506.15614  0.032470884   0.03264986            2 
 1300000    1.0392372   -6.9494166    507.62381  0.032539988  0.032642767            2 
 1301000    1.0434826   -6.9820212    507.35586  0.032497813  0.032635699            1 
 1302000    1.0659498   -6.9721917    508.10622   0.03252088  0.032628809            2 
 1303000    1.0196536   -6.9770373    509.78356  0.032603195  0.032621766            3 
 1304000     1.029557   -6.9473824    509.61719  0.032567561   0.03261481            3 
 1305000    1.0328254    -6.946554     509.2456  0.032518876  0.032607801            2 
 1306000    1.0302277   -6.9793169    509.67175  0.032521168  0.032600861            3 
 1307000    1.0577658   -6.9898679    509.63873  0.032494181  0.032593971            4 
 1308000    1.0481034   -6.9605046    510.50125   0.03252429  0.032586884            2 
 1309000    1.0372362   -6.9670392     509.8954  0.032460873  0.032579835            4 
 1310000    1.0376664   -6.9628236    511.45064  0.032535028  0.032572802            3 
 1311000    1.0332084   -6.9765783    511.45028  0.032510188  0.032565705            3 
 1312000    1.0422467   -6.9526618    511.24661  0.032472473  0.032558693            5 
 1313000    1.0348666   -6.9446775    512.44255  0.032523645   0.03255164            2 
 1314000    1.0477206   -6.9580739    512.61346  0.032509732  0.032544497            2 
 1315000    1.0411481   -6.9671828    511.04853  0.032385838  0.032537272            1 
 1316000    1.0331098   -6.9828733    511.53736  0.032392183  0.032530021            2 
 1317000    1.0128628   -6.9394768    513.13021  0.032468375  0.032522698            1 
 1318000     1.033327    -6.955372    513.50515  0.032467448  0.032515542            2 
 1319000    1.0405448   -6.9724911    512.07655  0.032352575  0.032508397            4 
 1320000    1.0678909   -6.9720028    512.12792  0.032331308  0.032501117            2 
 1321000    1.0559324    -7.000171    514.28674  0.032443019  0.032493788            2 
 1322000     1.025825   -6.9593846    513.20471  0.032350272  0.032486398            3 
 1323000    1.0218202   -6.9754706    514.39259  0.032400642  0.032479117            2 
 1324000    1.0426841   -7.0061764    512.04007  0.032228101  0.032471719            2 
 1325000    1.0346515   -6.9620861    514.86719  0.032381584  0.032464316            4 
 1326000    1.0465259   -6.9779487    514.67821  0.032345287  0.032456838            2 
 1327000    1.0318821   -6.9776932    515.93269  0.032399692  0.032449491            5 
 1328000    1.0548117   -6.9657665     515.1335  0.032325144  0.032442287            2 
 1329000     1.022168   -6.9626264    516.57222  0.032391035  0.032435254            1 
 1330000    1.0469287   -6.9950143    514.85393  0.032259018  0.032427814            2 
 1331000    1.0024769   -6.9524078    516.66206  0.032347988  0.032420556            2 
 1332000    1.0253413   -7.0006028     515.9584  0.032279679  0.032413141            2 
 1333000    1.0191634   -6.9871339    516.12815  0.032266076  0.032405617            2 
 1334000    1.0427267    -6.966789    516.78387  0.032282851  0.032398218            2 
 1335000    1.0554645   -6.9987414    517.25311  0.032287959  0.032390928            4 
 1336000    1.0629983   -7.0303068    516.61223  0.032223817  0.032383536            2 
 1337000    1.0466525   -6.9877098    517.50185  0.032255164  0.032376157            2 
 1338000    1.0268922   -6.9787553    518.09938  0.032268272  0.032368654            2 
 1339000    1.0415121   -6.9981926    519.11299  0.032307256  0.032361309            2 
 1340000    1.0090368    -6.948568    520.57061  0.032373794  0.032354067            4 
 1341000    1.0401046   -7.0150642    517.88751  0.032182918  0.032346824            3 
 1342000    1.0506754   -6.9786587     519.7241  0.032272982   0.03233948            4 
 1343000    1.0272085   -7.0178461    518.28172  0.032159452  0.032332391            3 
 1344000     1.039643   -6.9940041     518.6209  0.032156554  0.032325142            4 
 1345000    1.0399006   -6.9906571    519.78761  0.032204932  0.032317831            2 
 1346000     1.039727   -6.9808832    519.99478  0.032193832  0.032310473            3 
 1347000    1.0171289   -6.9604271    521.40639  0.032257263  0.032303286            3 
 1348000    1.0136568   -7.0046248    519.73663  0.032130108  0.032296073            2 
 1349000    1.0427123   -6.9812049    521.13033  0.032192385  0.032288978            2 
 1350000    1.0527106   -6.9627483    523.04923   0.03228699  0.032281949            3 
 1351000    1.0147001   -6.9911746    521.10701  0.032143289   0.03227483            3 
 1352000    1.0627531   -6.9758702    523.61251  0.032273947  0.032267654            2 
 1353000    1.0336277   -6.9880114    522.71533  0.032194834  0.032260328            4 
 1354000    1.0179692    -6.985998    521.89058  0.032120297  0.032253081            4 
 1355000    1.0434621   -7.0223866      522.977  0.032163407  0.032245841            3 
 1356000    1.0332228   -6.9819763    522.94312  0.032137605  0.032238748            3 
 1357000    1.0459391   -6.9985685    523.55541  0.032151524  0.032231532            2 
 1358000    1.0392305   -6.9883506    522.82594  0.032083084  0.032224284            2 
 1359000     1.053954   -6.9725773    525.26041  0.032208757  0.032217173            1 
 1360000    1.0356336    -6.991642    523.92379  0.032103173  0.032210063            2 
 1361000    1.0331745   -6.9675951    524.73022  0.032128963   0.03220293            4 
 1362000    1.0219929   -6.9723633    525.01065  0.032122531  0.032195732            1 
 1363000    1.0281224   -6.9610843    525.17549  0.032109042   0.03218862            2 
 1364000    1.0539443   -7.0020537    525.02109  0.032076068  0.032181479            2 
 1365000    1.0427653   -6.9815429    526.32988  0.032132471  0.032174343            3 
 1366000    1.0243876   -6.9526238    526.64002  0.032127868  0.032167028            1 
 1367000    1.0769884   -6.9784357    524.44582  0.031970606  0.032159677            4 
 1368000    1.0184209   -6.9715137    526.71356  0.032085378  0.032152286            1 
 1369000    1.0348231   -6.9785606     525.6967  0.032000043  0.032144828            3 
 1370000    1.0302414   -6.9834327    525.23291  0.031948474  0.032137267            2 
 1371000    1.0330723   -7.0001265    526.13659  0.031980099  0.032129619            3 
 1372000    1.0182285   -7.0026322    527.47229  0.032037918  0.032121984            2 
 1373000    1.0308455   -7.0067829    525.23502  0.031878794  0.032114507            4 
 1374000     1.040706   -6.9818318     526.1387  0.031910401  0.032106889            2 
 1375000    1.0350447   -7.0030957    524.71186  0.031800719  0.032099333            3 
 1376000    1.0323476   -6.9975586    527.34557  0.031937111  0.032091775            3 
 1377000     1.037051   -6.9976356    527.92767  0.031949145  0.032084174            2 
 1378000    1.0289739   -6.9779099    528.44337  0.031957146  0.032076846            4 
 1379000    1.0257077   -7.0079119    528.54648  0.031940203   0.03206952            2 
 1380000     1.042613   -7.0077569    529.15813  0.031953993  0.032062299            2 
 1381000    1.0080723    -7.014533    530.52093   0.03201309  0.032055305            5 
 1382000    1.0234873   -6.9842476    530.74056  0.032003169  0.032048334            3 
 1383000    1.0118081   -6.9893473    528.61876  0.031852179  0.032041411            1 
 1384000     1.048607   -6.9767604    531.96789  0.032030822  0.032034368            5 
 1385000     1.036662   -6.9731826    533.29817  0.032087736  0.032027513            3 
 1386000    1.0098186   -7.0089088    530.78286  0.031913351  0.032020581            4 
 1387000    1.0397714   -6.9978676    533.69265  0.032065168  0.032013582            4 
 1388000    1.0293773    -7.025129    532.08774  0.031945709  0.032006578            1 
 1389000    1.0325976    -7.009819    532.65843   0.03195695  0.031999481            3 
 1390000    1.0407215   -7.0186897    532.02247  0.031895832  0.031992438            2 
 1391000    1.0076315   -6.9681806    532.63664  0.031909696  0.031985362            3 
 1392000    1.0151431   -6.9821997    533.68603  0.031949595  0.031978322            3 
 1393000     1.046575   -6.9644872    534.39359  0.031968987  0.031971216            2 
 1394000    1.0428641   -7.0066299    534.58609  0.031957562  0.031964311            2 
 1395000    1.0325725   -6.9962644    535.21722  0.031972355    0.0319573            3 
 1396000    1.0367792   -6.9985807    535.09813  0.031942343  0.031950504            1 
 1397000    1.0203259    -6.985914    534.87115  0.031905938   0.03194364            1 
 1398000    1.0461527   -6.9991757    536.65976  0.031989733  0.031936586            4 
 1399000    1.0308277   -6.9790159    535.88241  0.031920563  0.031929612            2 
 1400000     1.034372   -7.0080513     536.8259  0.031953923  0.031922397            2 
 1401000    1.0257072   -7.0071347    534.81151  0.031811296  0.031915165            2 
 1402000    1.0085679   -7.0218963    535.47654  0.031828135  0.031907953            3 
 1403000    1.0053654   -7.0251657    536.02492  0.031838021  0.031900672            8 
 1404000    1.0177892   -7.0005577    534.65007  0.031733741  0.031893481            2 
 1405000    1.0224563   -6.9946564    535.14285  0.031740382   0.03188632            3 
 1406000    1.0343612   -6.9845514    535.77801  0.031755454  0.031879118            4 
 1407000    1.0409138   -7.0434584    536.96088  0.031802943  0.031871612            5 
 1408000    1.0232181    -6.990154    535.91601  0.031718514  0.031864246            2 
 1409000    1.0373743   -7.0363004    537.66023  0.031799162  0.031857021            1 
 1410000    1.0267316   -6.9887228    537.32989  0.031757086   0.03184989            2 
 1411000    1.0353124   -6.9797741    538.94926  0.031830218  0.031842591            2 
 1412000    1.0329776    -7.018153    538.80359  0.031799079   0.03183541            6 
 1413000    1.0234355   -7.0156848    539.21293  0.031800715  0.031828173            3 
 1414000    1.0186617   -7.0139974    538.81248  0.031754625  0.031820982            2 
 1415000     1.042018   -7.0203813    539.89673  0.031796038  0.031813693            3 
 1416000     1.011471   -7.0174946    539.65055  0.031759095  0.031806322            2 
 1417000    1.0166525   -7.0296662    539.23646   0.03171233  0.031799006            3 
 1418000    1.0217845    -7.032089    539.52843  0.031707125  0.031791669            4 
 1419000    1.0297022   -7.0328773    539.56902  0.031687163  0.031784301            3 
 1420000    1.0398878   -7.0542901    538.33586   0.03159248  0.031776906            4 
 1421000    1.0230154   -7.0230678    540.07685  0.031672346  0.031769613            6 
 1422000    1.0160095   -6.9767205    542.71106  0.031804446  0.031762425            2 
 1423000    1.0166916   -7.0318387    541.49028  0.031710604  0.031755316            5 
 1424000    1.0213753   -7.0313446    540.49226  0.031629931  0.031748187            4 
 1425000    1.0048601   -7.0073311    541.32791  0.031656603  0.031741006            7 
 1426000    1.0331764   -7.0302912    542.54255  0.031705385  0.031733799            2 
 1427000    1.0021897   -7.0029844    542.81496  0.031699075  0.031726565            2 
 1428000     1.039274   -7.0197852    542.81046  0.031676614  0.031719306            2 
 1429000    1.0040847   -6.9699693    541.92017  0.031602529  0.031712125            3 
 1430000    1.0073073   -7.0420264    542.56213   0.03161784  0.031704959            3 
 1431000    1.0151683   -7.0323968    543.74236  0.031664475  0.031697583            2 
 1432000    1.0370427   -7.0061882    543.26414  0.031614533  0.031690322            2 
 1433000    1.0204536   -7.0565635    542.14388  0.031527325  0.031683165            3 
 1434000    1.0388613   -7.0340349    543.90936  0.031607936  0.031675814            2 
 1435000    1.0181006   -7.0183454    544.62664  0.031627563  0.031668515            3 
 1436000     1.005809   -6.9784303     546.7113  0.031726514   0.03166143            2 
 1437000    1.0385097   -7.0260606      546.045  0.031665797  0.031654481            2 
 1438000    1.0285923   -7.0164047    545.39812  0.031606289  0.031647414            2 
 1439000     1.017719   -7.0107177    545.50173  0.031590325  0.031640453            1 
 1440000    1.0224911   -6.9808379    548.12953  0.031720459  0.031633396            3 
 1441000     1.044474   -7.0266892    544.69059  0.031499572  0.031626202            3 
 1442000    1.0011597   -7.0240303    545.02941  0.031497307  0.031619077            4 
 1443000    1.0322937   -7.0435232    545.31964  0.031492241  0.031611774            2 
 1444000    1.0229392   -7.0046504    545.07492  0.031456309  0.031604505            3 
 1445000    1.0124208   -7.0201376    546.36659  0.031509031  0.031597122            1 
 1446000    1.0403375   -7.0526551     547.3728  0.031545228  0.031589954            2 
 1447000    1.0097951   -7.0367468    546.38771  0.031466696  0.031582812            5 
 1448000    1.0359094   -7.0246681    547.98946  0.031537147  0.031575638            1 
 1449000    1.0133327   -7.0137637    548.88818  0.031567068  0.031568597            1 
 1450000    1.0427308    -6.991202    549.22609  0.031564718  0.031561663            2 
 1451000    1.0401888   -7.0245486    549.18554  0.031540635  0.031554784            2 
 1452000    1.0209055   -7.0489395    548.26977  0.031466355  0.031547844            2 
 1453000    1.0050983   -6.9870234     550.8517  0.031592779  0.031541015            2 
 1454000    1.0196445   -7.0088764    552.19569  0.031648079  0.031534263            2 
 1455000    1.0191392    -7.001884     553.1349   0.03168012  0.031527659            2 
 1456000    1.0411558   -7.0295458     551.9267  0.031589211  0.031521096            4 
 1457000    1.0164354   -7.0205863    553.91808  0.031681428  0.031514522            7 
 1458000   0.99896552   -7.0321496    551.82586  0.031540115  0.031507884            3 
 1459000    1.0088113   -7.0108708    550.98645  0.031470554  0.031501111            3 
 1460000    1.0412681   -7.0328312    551.54838  0.031481072  0.031494265            2 
 1461000    1.0056757    -7.007762    553.62768  0.031578125  0.031487526            1 
 1462000    1.0201631   -7.0184563    552.12747  0.031471014   0.03148048            2 
 1463000    1.0138549   -7.0153043    552.93929  0.031495744  0.031473674            2 
 1464000   0.99222459   -6.9880704    553.42643   0.03150196  0.031466729            3 
 1465000      1.02891   -7.0067161    553.09359  0.031461524  0.031459844            4 
 1466000    1.0338089   -7.0230538    553.52041  0.031464325  0.031452806            3 
 1467000    1.0311389   -7.0221892    552.38344  0.031378292  0.031445769            2 
 1468000    1.0008745   -7.0262916    553.99282  0.031448275  0.031438924            5 
 1469000      1.02166   -7.0462835    552.32619  0.031332323  0.031431894            4 
 1470000    1.0413173   -7.0325897    553.77273  0.031393012  0.031424886            3 
 1471000    1.0067753   -7.0543518    554.48396  0.031411962  0.031417786            3 
 1472000    1.0130203   -7.0003964    553.50878  0.031335416  0.031410782            2 
 1473000    1.0235727   -7.0409984    555.74365  0.031440578   0.03140385            2 
 1474000    1.0100185   -7.0661667    555.07854  0.031381645  0.031396694            2 
 1475000    1.0094479   -7.0105328    555.91507  0.031407631  0.031389535            1 
 1476000   0.99858054   -7.0406734    554.28343  0.031294231  0.031382365            3 
 1477000   0.98796772   -7.0590567    553.73936  0.031242347  0.031375126            2 
 1478000    1.0407817   -7.0574745    553.90696  0.031230658  0.031367832            1 
 1479000    1.0260412   -7.0352797    553.82381  0.031204858  0.031360567            2 
 1480000     1.012551    -7.069886     553.1241  0.031144375  0.031353143            3 
 1481000    1.0294536   -7.0315859    555.88641  0.031278776  0.031345669            4 
 1482000    1.0226373   -7.0412319    556.52464  0.031293558  0.031338216            2 
 1483000    1.0218505   -7.0196729    555.48339  0.031213946  0.031330752            4 
 1484000    1.0321454   -7.0260338    556.66401   0.03125921  0.031323431            6 
 1485000    1.0174769   -7.0799913    554.90536   0.03113947  0.031316137            3 
 1486000    1.0124024   -7.0073246    557.35654  0.031255975  0.031308911            2 
 1487000    1.0432103   -7.0247556    557.74093  0.031256497  0.031301657            2 
 1488000    1.0133447   -7.0475909    557.05626  0.031197147  0.031294351            3 
 1489000    1.0142033   -7.0542379    557.45531  0.031198528  0.031287013            7 
 1490000    1.0268169   -7.0265578    559.15988  0.031272924  0.031279687            3 
 1491000    1.0352666   -7.0300095    558.58136  0.031219615  0.031272372            2 
 1492000    1.0052922   -7.0388362    557.20919   0.03112205  0.031265012            1 
 1493000    1.0317063   -7.0190007    558.95607  0.031198709   0.03125776            1 
 1494000    1.0003358   -7.0415424    560.00491  0.031236329  0.031250374            7 
 1495000     1.017622   -7.0437966    560.39706  0.031237294  0.031243229            2 
 1496000    1.0411208   -7.0395059     560.3595  0.031214321  0.031236051            4 
 1497000   0.99659436   -7.0480184    559.22022   0.03113005  0.031229083            3 
 1498000    1.0155419   -7.0531249    558.87777  0.031090219  0.031222034            5 
 1499000   0.99726182   -7.0633539    560.96532   0.03118553  0.031214923            1 
 1500000     1.028815   -7.0233009    561.46045  0.031192247  0.031207704            5 
 1501000   0.97726125   -7.0792761    559.71371   0.03107449  0.031200572            3 
 1502000   0.99456897   -7.0522446    560.14874  0.031077937  0.031193229            2 
 1503000    0.9971173    -7.029137    560.38111  0.031070144    0.0311859            5 
 1504000   0.98208337   -7.0165724    561.92734  0.031135159  0.031178545            3 
 1505000   0.98482028   -7.0758292    561.67894  0.031100716  0.031171217            5 
 1506000     1.031531   -7.0337486    560.77199   0.03102988  0.031163799            2 
 1507000    1.0041941   -7.0198644    561.61488  0.031055899   0.03115635            3 
 1508000    1.0243562   -7.0448378     562.0453   0.03105909    0.0311489            2 
 1509000   0.98056502   -7.0201138    561.22531  0.030993224   0.03114153            4 
 1510000   0.99329063   -7.0580227     561.8268  0.031005894  0.031134097            2 
 1511000    1.0017067   -7.0365584    562.90204  0.031044675  0.031126726            2 
 1512000    1.0076897   -7.0061991    563.46458  0.031055146  0.031119297            3 
 1513000    1.0209543   -7.0275868    562.68308  0.030991577  0.031111941            4 
 1514000    0.9828835   -7.0500787    563.29741  0.031004921  0.031104602            4 
 1515000   0.99307235    -7.042008    562.20655  0.030924453  0.031096973            2 
 1516000    1.0216488   -7.0807011    561.54475  0.030867675  0.031089235            2 
 1517000   0.99739853    -7.036133    562.59884  0.030905232  0.031081633            2 
 1518000   0.98444957   -7.0498893    562.87493  0.030900029   0.03107404            2 
 1519000    1.0536291   -7.0802367    562.38568  0.030852846  0.031066297            4 
 1520000    1.0145581   -7.0588894    562.61655  0.030845205  0.031058508            2 
 1521000    1.0053288   -7.0829448    561.18031  0.030746237  0.031050811            2 
 1522000   0.99917989   -7.0418073    562.43513   0.03079474  0.031042897            2 
 1523000   0.99642331   -7.0608641    563.55199  0.030835631  0.031035102            3 
 1524000    1.0188775   -7.0310833    563.86685  0.030832614  0.031027406            3 
 1525000     0.990028   -7.0673321    564.65479  0.030855453  0.031019689            4 
 1526000    1.0017883   -7.0109909    564.21084  0.030810989  0.031012055            2 
 1527000    1.0025878   -7.0478561    565.16021  0.030842622  0.031004378            3 
 1528000   0.99885057   -7.0375577    565.31876  0.030831084  0.030996771            3 
 1529000    1.0006046   -7.0655419    565.76897  0.030835457  0.030989302            2 
 1530000    1.0093937   -7.0616755     566.5114  0.030855741   0.03098161            3 
 1531000    0.9951921   -7.0381623    566.25484  0.030821622   0.03097382            3 
 1532000    1.0001557   -7.0275706    565.65545  0.030768899  0.030966085            3 
 1533000    1.0032334   -7.0159602    566.81305  0.030811755  0.030958371            3 
 1534000   0.99784809   -7.0388805    565.40459  0.030715156  0.030950638            5 
 1535000   0.99943616   -7.0200074    566.36488  0.030747279  0.030942836            3 
 1536000    1.0263285   -7.0713414    565.35531  0.030672488  0.030935004            2 
 1537000    1.0109537   -7.0314341    567.79519  0.030784819  0.030927265            4 
 1538000    1.0118998   -7.0649257    566.52522  0.030695992  0.030919467            1 
 1539000   0.99944267   -7.0245157     567.6341  0.030736089  0.030911671            3 
 1540000   0.99711774   -7.0385939    568.35942   0.03075538  0.030903776            2 
 1541000   0.98733616   -7.0679474    566.87741  0.030655279  0.030895876            5 
 1542000    1.0083861   -7.0325591    567.69769  0.030679728  0.030888066            4 
 1543000   0.98909526   -7.0160386    567.31692  0.030639281   0.03088031            3 
 1544000   0.99483261   -7.0591733    567.83815  0.030647569   0.03087248            2 
 1545000   0.99862224    -7.043915    569.52415   0.03071867  0.030864737            6 
 1546000    1.0088417   -7.0567892    568.51034  0.030644154  0.030856831            2 
 1547000    1.0138007   -7.0341645    567.99324   0.03059649  0.030848803            2 
 1548000    1.0268455   -7.0649552    566.96998   0.03052164  0.030840859            5 
 1549000    1.0075958   -7.0306161     568.1681  0.030566392  0.030832935            2 
 1550000    1.0021491   -7.0439613    569.07941  0.030595667  0.030824957            1 
 1551000    1.0119338   -7.0025791    569.56336  0.030601943  0.030816996            8 
 1552000    1.0249637   -7.0181208     571.5111  0.030686807  0.030809073            2 
 1553000   0.96382253   -7.0625634    569.30915  0.030548892  0.030801092            7 
 1554000   0.99798619   -7.0350826    568.84703  0.030504452  0.030793086            3 
 1555000    1.0051335   -7.0533401    569.20476  0.030504007  0.030785194            2 
 1556000    1.0040807   -7.0480621    570.09628  0.030532148  0.030777377            5 
 1557000   0.96818703   -7.0038021    571.70251  0.030598507  0.030769464            2 
 1558000    1.0405944   -7.0375773    570.17442  0.030497134  0.030761625            2 
 1559000    1.0128627   -7.0583248    570.37156   0.03048811  0.030753598            1 
 1560000     0.996678   -7.0466125    569.92831  0.030444888  0.030745568            3 
 1561000    1.0325328   -7.0670028    570.54857  0.030458497  0.030737483            1 
 1562000    1.0229665   -7.0357097    572.89867  0.030564376  0.030729536            2 
 1563000   0.99827487   -7.0808697    572.46273  0.030521579  0.030721662            3 
 1564000     1.003482   -7.0464407    571.95686   0.03047511  0.030713706            3 
 1565000   0.99839376   -7.0379877    572.85419  0.030503418  0.030705827            3 
 1566000    1.0052175   -7.0952337     571.3873   0.03040588  0.030697994            2 
 1567000   0.99203456   -7.0734168    572.38535  0.030439553  0.030690055            2 
 1568000   0.99636247   -7.0405741    573.29396  0.030468429  0.030682179            3 
 1569000   0.97902525   -7.0997267    573.90335  0.030481376   0.03067433            2 
 1570000    1.0044315   -7.0281173    573.60427  0.030446087  0.030666508            1 
 1571000    1.0360247   -7.0643358    573.49964  0.030421156  0.030658714            3 
 1572000    1.0166599   -7.0744165    573.66516  0.030410579   0.03065077            2 
 1573000    1.0159479   -7.0719385    575.24645  0.030475019  0.030642838            3 
 1574000    1.0202342    -7.050542    573.61275  0.030369163  0.030634904            2 
 1575000    1.0203711    -7.045195    574.40665  0.030391886   0.03062701            2 
 1576000   0.98638581   -7.0703529    573.42428  0.030320658  0.030618991            3 
 1577000    1.0126364   -7.0598862    575.09269  0.030389595  0.030611004            1 
 1578000    1.0034326   -7.0577274    574.39653  0.030333573  0.030603032            2 
 1579000    0.9874793   -7.0643682    573.94584  0.030290576  0.030594936            4 
 1580000    1.0053018    -7.066683    576.16655  0.030388531  0.030586938            3 
 1581000   0.99130418   -7.0679412    575.00535  0.030308104   0.03057897            5 
 1582000    1.0165172   -7.0628168     577.2535  0.030407369  0.030571102            2 
 1583000   0.97755719   -7.0808502     577.1991  0.030385297  0.030563387            3 
 1584000    1.0024548   -7.0481748    576.92917  0.030351913  0.030555571            1 
 1585000    1.0022474   -7.0827868     576.0267  0.030285315  0.030547806            2 
 1586000   0.97615594     -7.08541    576.05951  0.030267944  0.030539836            4 
 1587000    1.0109774   -7.0584936    577.82235  0.030341438  0.030531821            3 
 1588000   0.97237334   -7.0569123    577.32106  0.030296025  0.030523787            1 
 1589000   0.98257998   -7.0550663    576.41649   0.03022952  0.030515865            3 
 1590000    1.0101292   -7.0414523    577.73435  0.030279578  0.030508012            2 
 1591000   0.99524021    -7.077106    577.92826  0.030270703  0.030500167            4 
 1592000    0.9665573   -7.0602812    578.00806  0.030255866  0.030492273            2 
 1593000    1.0067973   -7.0558551    579.84672  0.030333057  0.030484414            2 
 1594000   0.99845364   -7.0774739     578.1498  0.030225314   0.03047659            2 
 1595000    1.0056083   -7.0581764    578.83847  0.030242344  0.030468936            2 
 1596000   0.99495665   -7.0792828     578.4772  0.030204532  0.030461274            4 
 1597000   0.99364959   -7.0782724    580.19669  0.030275344  0.030453513            2 
 1598000    1.0042463   -7.0977807    579.86357  0.030239026  0.030445825            1 
 1599000    0.9648856    -7.079797     580.6544   0.03026133  0.030438047            5 
 1600000   0.98963379   -7.0409641    582.33109  0.030329744  0.030430311            4 
 1601000   0.97738643   -7.0312797    582.00785  0.030293975  0.030422698            4 
 1602000    1.0175582   -7.0613871    580.75518  0.030209903  0.030415119            2 
 1603000    1.0029985   -7.0943789    579.89884   0.03014654  0.030407489            2 
 1604000   0.97902544   -7.1008445     581.2648  0.030198712  0.030399667            3 
 1605000    0.9792422   -7.0703683     581.6506  0.030199928  0.030391827            4 
 1606000   0.98506853   -7.0790845    580.80193  0.030137087  0.030383832            3 
 1607000    1.0076616   -7.0528345    581.70072  0.030164941  0.030375906            3 
 1608000   0.99374846   -7.0800455    581.63386  0.030142717  0.030367851            7 
 1609000    0.9920772   -7.1058724    580.66329  0.030073715  0.030359837            4 
 1610000    1.0110526   -7.0624559    581.03229  0.030074135  0.030351927            4 
 1611000   0.99506287   -7.0737909    580.11618  0.030008079  0.030343924            2 
 1612000   0.99225948   -7.0727887    581.09364  0.030039994  0.030335949            4 
 1613000   0.99206788    -7.123019    580.17126  0.029973717  0.030327829            2 
 1614000   0.99115643   -7.0638956    582.07506  0.030053442  0.030319745            2 
 1615000    0.9826974   -7.0746208    583.71787  0.030119601  0.030311689            3 
 1616000    0.9871905   -7.0637872    583.43733  0.030086496  0.030303737            2 
 1617000   0.99867886   -7.0635764    583.15377  0.030053276  0.030295645            2 
 1618000   0.99122521   -7.0697401    583.39794  0.030047277  0.030287634            3 
 1619000   0.98433402   -7.0514605    583.20724  0.030018903   0.03027959            2 
 1620000   0.98793008   -7.0528342    585.43575  0.030115008  0.030271583            2 
 1621000   0.98999599   -7.1007605    583.11662  0.029977207  0.030263575            3 
 1622000   0.99983652   -7.0526639    583.90893  0.029999431    0.0302555            2 
 1623000    1.0125932   -7.0618116    584.05188  0.029988287  0.030247457            3 
 1624000   0.97699595   -7.1010172    583.51896  0.029942476  0.030239316            2 
 1625000   0.99602782    -7.050447    584.53926  0.029976372  0.030231166            3 
 1626000   0.99401702   -7.0528125    585.16524  0.029990018  0.030223154            1 
 1627000    1.0026356   -7.0624853    584.28435  0.029926468  0.030215042            2 
 1628000   0.98616763   -7.0662456      584.884   0.02993878  0.030207104            3 
 1629000    1.0071242   -7.0839814    585.61078   0.02995758  0.030199256            3 
 1630000   0.96020922   -7.0569801    584.83883  0.029899736  0.030191269            3 
 1631000   0.99233994   -7.0584412    585.16365     0.029898  0.030183235            4 
 1632000    0.9681818   -7.0362549    587.17562  0.029982415  0.030175228            3 
 1633000    1.0030425   -7.1047578     585.4455  0.029875766  0.030167178            3 
 1634000   0.96987844   -7.0675947    585.70792  0.029870865  0.030159074            1 
 1635000   0.97982319   -7.0707489    586.11834  0.029873514  0.030150997            4 
 1636000   0.99744995   -7.0846681    585.38799  0.029818052  0.030142928            2 
 1637000   0.98919878   -7.0762546    587.29424  0.029896876  0.030134876            2 
 1638000    1.0106874   -7.0854275    587.79629  0.029904166  0.030126846            9 
 1639000   0.99193608   -7.1109303    587.70739  0.029881401  0.030118794            5 
 1640000    1.0210248   -7.1106608    587.13364  0.029834027  0.030110719            2 
 1641000   0.98247834   -7.0936749    587.65057  0.029842097  0.030102691            2 
 1642000   0.96860528   -7.0867413    588.23072  0.029853366  0.030094816            3 
 1643000    1.0025926   -7.1122999    587.15979  0.029780878  0.030086868            2 
 1644000   0.99450995   -7.0953987    587.40813  0.029775351  0.030078971            3 
 1645000   0.99860239   -7.1019389    588.89684  0.029832667  0.030070997            3 
 1646000   0.99176648   -7.0909692    589.75063  0.029857768  0.030063028            6 
 1647000   0.99321605   -7.1010704     590.2575  0.029865285  0.030055185            3 
 1648000   0.97560526   -7.1387167    590.25208  0.029846889  0.030047241            3 
 1649000   0.99497084   -7.1430013    589.94244  0.029813141  0.030039311            2 
 1650000   0.98387316   -7.0766972    590.64954  0.029830785  0.030031299            2 
 1651000   0.99207822   -7.0685399    590.73442  0.029817001  0.030023536            3 
 1652000   0.99154394   -7.0633307    592.92399  0.029909402  0.030015878            2 
 1653000   0.98783186   -7.0768902    593.12613  0.029901499  0.030008239            4 
 1654000   0.98171678   -7.0981869    591.61454  0.029807262  0.030000458            3 
 1655000   0.98253256   -7.0801953    592.72857  0.029845346  0.029992652            3 
 1656000   0.97901249    -7.111762    590.63741  0.029722092  0.029984837            4 
 1657000    1.0010368   -7.0952993    592.99826  0.029822886  0.029977095            2 
 1658000    1.0045038   -7.0519087    592.96545  0.029803249  0.029969372            4 
 1659000   0.98756299   -7.0573455    595.28746  0.029901922   0.02996174            4 
 1660000   0.99627472   -7.1101945    593.40669  0.029789493  0.029954111            4 
 1661000   0.99510483   -7.0757995     595.6346  0.029883333  0.029946535            3 
 1662000   0.97581847   -7.0586004    595.28567  0.029847858  0.029938973            4 
 1663000   0.95214201   -7.0514725    595.39968  0.029835622  0.029931475            3 
 1664000   0.98975586   -7.1240168    595.38178  0.029816796  0.029923975            3 
 1665000     1.002875    -7.093641    594.57471  0.029758494  0.029916486            7 
 1666000   0.97676998   -7.0825001    595.39687  0.029781756  0.029908915            2 
 1667000   0.98002641   -7.0954509    596.83219  0.029835642  0.029901505            3 
 1668000   0.96522722   -7.0916874    596.45408  0.029798865  0.029894154            3 
 1669000   0.98112138   -7.1036065    595.92375  0.029754531  0.029886612            3 
 1670000   0.97106179   -7.0477786    597.81625   0.02983115  0.029879142            2 
 1671000    1.0117881   -7.1070689    596.67397  0.029756332  0.029871639            1 
 1672000   0.96921917   -7.1168359    597.24512  0.029767002  0.029864158            2 
 1673000   0.99888222   -7.1060094    597.54754  0.029764273  0.029856667            3 
 1674000   0.96576724   -7.1013648    596.05679  0.029672281  0.029849242            7 
 1675000   0.97623114   -7.0640143    598.15295  0.029758853  0.029841718            4 
 1676000    1.0040657   -7.0803963    599.63857  0.029814965   0.02983424            4 
 1677000   0.98572184    -7.095907    598.53625   0.02974241  0.029826979            3 
 1678000   0.99672031   -7.0712753     599.5744  0.029776242  0.029819609            4 
 1679000   0.97948511   -7.0655373    600.17814  0.029788472  0.029812242            4 
 1680000   0.98461236   -7.0983816    598.88393  0.029706544  0.029804896            2 
 1681000   0.99572016   -7.1087949    599.32618  0.029710796  0.029797525            8 
 1682000   0.98834037   -7.0892054    601.37115  0.029794449  0.029790214            2 
 1683000   0.95984017   -7.1215681    600.74208  0.029745597  0.029782804            2 
 1684000   0.96907503   -7.1367937    598.52925  0.029618431  0.029775478            2 
 1685000   0.99534651   -7.0754593    600.74506  0.029710438  0.029768145            2 
 1686000     0.984061    -7.114492    600.66294  0.029688757  0.029760877            5 
 1687000   0.97390227   -7.1204552    600.31739   0.02965409  0.029753479            3 
 1688000    1.0007967   -7.0855155    602.18656    0.0297288  0.029746109            3 
 1689000   0.95834844    -7.092304    601.10445  0.029657808  0.029738747            4 
 1690000   0.98013005   -7.1240696    601.72377  0.029670797  0.029731372            4 
 1691000   0.96994882    -7.113488    601.99775  0.029666753  0.029724045            3 
 1692000   0.99238073   -7.1023173    601.84996   0.02964194  0.029716751            2 
 1693000   0.99932689   -7.0670006    603.76928  0.029718905  0.029709553            3 
 1694000   0.98133495   -7.0840742    604.86995  0.029755507  0.029702392            3 
 1695000   0.98752263    -7.069853    602.98109  0.029645088  0.029695299            1 
 1696000   0.97190745   -7.0858917    604.39746  0.029697202  0.029688095            3 
 1697000    0.9738011   -7.1078109    604.53173  0.029686296  0.029680993            2 
 1698000   0.98684824   -7.1218349    603.90722  0.029638164  0.029673848            5 
 1699000    0.9761504   -7.1219702    604.34192   0.02964204  0.029666719            2 
 1700000   0.95401042   -7.1166244    604.60492  0.029637496  0.029659503            3 
 1701000   0.99025839   -7.0936103    606.91841  0.029733412  0.029652449            2 
 1702000   0.98678318   -7.0835529    606.64448   0.02970253  0.029645416            2 
 1703000   0.97449484   -7.0982398    604.82444  0.029596028  0.029638326            2 
 1704000     1.006437   -7.1179478    605.44961  0.029609234  0.029631263            3 
 1705000   0.98860214   -7.1215211    605.90202   0.02961398  0.029624176            2 
 1706000     1.001905   -7.1121073    605.39821  0.029572011  0.029617064            5 
 1707000   0.99118708   -7.1275839    606.07904  0.029587924  0.029609946            1 
 1708000   0.97826656   -7.0946129    607.41037  0.029635557   0.02960274            1 
 1709000   0.98121349   -7.0967521     607.1106  0.029603599  0.029595666            3 
 1710000   0.97506187   -7.0886895    607.04413  0.029583047   0.02958854            2 
 1711000   0.98224825   -7.1207286    606.85201    0.0295564  0.029581256            4 
 1712000   0.98642556   -7.1217181    606.06297  0.029500728  0.029573907            2 
 1713000     0.977768   -7.0981078    607.20153  0.029538895  0.029566534            1 
 1714000   0.96864159   -7.1195498    607.61563  0.029541795   0.02955923            2 
 1715000   0.95371573   -7.1148767    607.36527  0.029512404  0.029552003            3 
 1716000    0.9851606   -7.0817935    606.19751  0.029438496  0.029544892            4 
 1717000   0.97540209   -7.1045836    609.25572  0.029569779  0.029537693            3 
 1718000   0.96495509   -7.1382049    608.79362  0.029530152  0.029530622            2 
 1719000   0.97654375   -7.1343035    609.06907  0.029526327  0.029523374            2 
 1720000   0.97258043   -7.1407118    608.77401  0.029494865  0.029516159            2 
 1721000   0.98383004   -7.0821855    610.81326   0.02957647  0.029509119            3 
 1722000    1.0052453   -7.0972849    610.40969  0.029539764  0.029502129            2 
 1723000   0.97258552   -7.1018662    609.94565  0.029500176  0.029495149            3 
 1724000    0.9622051   -7.1019475    612.55763  0.029609321  0.029488191            5 
 1725000    1.0032131   -7.0893834    612.61242  0.029594803  0.029481286            2 
 1726000   0.96638786    -7.113265    611.51606  0.029524723  0.029474295            4 
 1727000    0.9701144   -7.1010426    610.14793   0.02944161  0.029467343            4 
 1728000   0.98122666   -7.1204624    610.45497  0.029439379  0.029460279            3 
 1729000   0.96529223   -7.1199069    613.10948  0.029550293  0.029453265            1 
 1730000   0.98865759   -7.1163039    611.65934  0.029463359  0.029446257            1 
 1731000   0.97172654   -7.1092887    612.78143  0.029500358   0.02943915            4 
 1732000   0.96332703    -7.126712    609.65102  0.029332709  0.029432019            2 
 1733000   0.97186069   -7.1304923    611.84787  0.029421421  0.029424916            7 
 1734000   0.98598048   -7.0883331    613.14804  0.029466938  0.029417884            2 
 1735000   0.95992843   -7.1287951    612.72887  0.029429821  0.029410771            2 
 1736000    1.0015145   -7.0965649    614.37002  0.029491648  0.029403664            4 
 1737000   0.97082736   -7.1439949    613.48925  0.029432415  0.029396529            2 
 1738000   0.99989517   -7.1410873    610.69077  0.029281299  0.029389328           12 
 1739000   0.96521869   -7.1284161    612.14996  0.029334385  0.029382219            2 
 1740000   0.97207195   -7.1042615    613.98386  0.029405357  0.029375041            3 
 1741000   0.98667256   -7.1452472    613.91355  0.029385102  0.029367922            2 
 1742000   0.99290911   -7.1238935     612.8404  0.029316897  0.029360714            4 
 1743000   0.97702215   -7.1058544    613.79821   0.02934587  0.029353502            2 
 1744000   0.98135174    -7.110775     614.4901  0.029362104  0.029346227            2 
 1745000     1.001435    -7.123481     613.8324  0.029313868  0.029339023            3 
 1746000   0.95179533   -7.1184591    613.80865  0.029295945  0.029331739            2 
 1747000   0.97018643   -7.1114344    614.25973  0.029300693  0.029324477            2 
 1748000   0.96154232   -7.1168378    613.58951  0.029251979  0.029317284            3 
 1749000   0.95592434   -7.0850319     616.0531  0.029352635  0.029310101            3 
 1750000   0.96107692   -7.1184552    614.71899  0.029272333  0.029302889            6 
 1751000   0.99637645   -7.1377875    613.37277  0.029191546  0.029295601            2 
 1752000   0.97253438   -7.1090465    614.55705  0.029231214  0.029288351            4 
 1753000   0.96541283   -7.1057776    616.49531  0.029306679  0.029281116            2 
 1754000   0.96326028   -7.1315159     615.1504  0.029226074  0.029273984            2 
 1755000   0.95375418   -7.1273328    616.03035  0.029251204  0.029266831            2 
 1756000   0.98936656   -7.0995434    617.19943  0.029290026   0.02925968            3 
 1757000   0.97919918   -7.1299219    615.91151   0.02921227  0.029252511            2 
 1758000    0.9676661   -7.1627913    616.54968  0.029225905  0.029245248            3 
 1759000   0.97134857   -7.1149424    617.79385  0.029268232  0.029237982            3 
 1760000   0.98698112   -7.1275099    617.94534  0.029258775  0.029230781            4 
 1761000   0.97552337   -7.1038351    616.55385  0.029176313  0.029223582            2 
 1762000   0.96978283   -7.1027248    617.87243  0.029222116  0.029216439            2 
 1763000   0.97813981   -7.1109876    618.31314  0.029226373  0.029209236            3 
 1764000   0.97112479   -7.1496756     617.4894   0.02917089  0.029202045            2 
 1765000   0.94940032    -7.132473     617.6347  0.029161223    0.0291948            2 
 1766000   0.95982283   -7.1106673    618.98002  0.029208193  0.029187601            1 
 1767000   0.94450639   -7.1046133    618.33199  0.029161101  0.029180421            3 
 1768000   0.97306587   -7.1336403    616.98247  0.029080999  0.029173136            2 
 1769000   0.94958381   -7.1002762    617.86041  0.029105917  0.029165844            3 
 1770000   0.97551716   -7.1130218     618.0409  0.029097971  0.029158571            4 
 1771000   0.95536571   -7.1129003    618.58722  0.029107247  0.029151279            2 
 1772000   0.97382878   -7.0980554    620.37638  0.029174961  0.029143925            1 
 1773000   0.98761055   -7.0885192    620.85468  0.029180987  0.029136696            2 
 1774000   0.96709427   -7.1203024    619.50828  0.029101291  0.029129484            3 
 1775000    0.9591011    -7.164578    620.04649  0.029110164  0.029122242            3 
 1776000   0.96195401    -7.130529     619.2841     0.029058  0.029115003            2 
 1777000   0.96629346   -7.1211651    620.53734  0.029100419  0.029107777            4 
 1778000   0.97553866   -7.1342898    619.62562  0.029041321  0.029100587            3 
 1779000   0.96896207   -7.1426749    621.05758  0.029092073   0.02909347            4 
 1780000   0.96744028   -7.1117292    621.44814  0.029094014  0.029086242            3 
 1781000   0.98187336   -7.1123702    621.94272   0.02910082  0.029079021            3 
 1782000   0.97399094   -7.1103658    621.95359  0.029084998  0.029071829            2 
 1783000   0.98014985   -7.1291099    621.42524  0.029043992  0.029064626            2 
 1784000   0.94905061   -7.1186642    622.26836  0.029067095  0.029057393            3 
 1785000   0.97067146   -7.1179007    620.46957  0.028966833  0.029050228            1 
 1786000   0.99295861   -7.1357372     621.3641  0.028992352  0.029042933            4 
 1787000   0.95439818   -7.1281401    622.57068  0.029032395  0.029035684            2 
 1788000   0.96903247   -7.1464151    621.00742  0.028943299   0.02902838            5 
 1789000   0.97152217   -7.1072669    622.78346   0.02900985  0.029021161            3 
 1790000   0.96898261   -7.1240861    621.19244  0.028919574  0.029013971            3 
 1791000   0.96456093   -7.1081511    621.93046  0.028937766   0.02900667            2 
 1792000   0.98721096   -7.1425744    624.28603  0.029031158  0.028999313            1 
 1793000   0.94472975   -7.1221871    622.48767  0.028931385  0.028992032            2 
 1794000   0.96553511   -7.1222324    623.79646  0.028976053  0.028984778            1 
 1795000   0.94819306   -7.1252953    624.00615  0.028969645  0.028977519            4 
 1796000   0.98240383   -7.1495465    624.54674  0.028978598   0.02897027            2 
 1797000   0.97071728   -7.1331079    624.32761   0.02895231  0.028963063            3 
 1798000   0.94218107   -7.1560075    622.60835  0.028856524  0.028955791            2 
 1799000   0.98126313   -7.1670211    624.82984  0.028943387  0.028948437            3 
 1800000    0.9834592   -7.1170406      626.272  0.028994074  0.028941283            2 
 1801000   0.95668426   -7.1371198    625.23621  0.028930049  0.028934135            2 
 1802000   0.98238829   -7.1535222     625.8483    0.0289423  0.028926996            3 
 1803000   0.96416144   -7.1203629    623.74681  0.028829119  0.028919738            3 
 1804000   0.97086904   -7.1369084    624.18264   0.02883327  0.028912553            6 
 1805000   0.96792181   -7.1266365    625.67726    0.0288863  0.028905368            4 
 1806000   0.97368641   -7.1874583    623.84529  0.028785774  0.028898159            4 
 1807000   0.96525872   -7.1573445    627.81927  0.028953111  0.028890912            2 
 1808000   0.97124428   -7.1513468    625.77199  0.028842735  0.028883611            3 
 1809000   0.97259247   -7.1685627    625.72877  0.028824801  0.028876355            2 
 1810000   0.97232035   -7.1480717    625.28746  0.028788557  0.028869091            2 
 1811000   0.97932332   -7.1614169     625.8416   0.02879816  0.028861835            3 
 1812000   0.99458997   -7.1291811     627.5013  0.028858595  0.028854608            2 
 1813000   0.97337253   -7.1011007    628.72558  0.028898951  0.028847495            4 
 1814000   0.94335475   -7.1803242    625.39027  0.028729799  0.028840289            3 
 1815000   0.96254953    -7.155522    628.20928  0.028843401  0.028833115            3 
 1816000   0.98745644   -7.1594164    628.67599  0.028848935  0.028825925            8 
 1817000   0.99092794   -7.1400193    627.73977   0.02879012  0.028818744            2 
 1818000   0.95817233   -7.1789683    627.78529   0.02877637   0.02881154            2 
 1819000   0.95856625   -7.1598794    630.13651  0.028868266  0.028804374            3 
 1820000    0.9660277   -7.1367736    630.82326  0.028883849  0.028797217            5 
 1821000   0.96348757   -7.1089493    630.73326  0.028863869  0.028790218            3 
 1822000   0.96404987   -7.1659428    631.01524  0.028860924  0.028783247            2 
 1823000   0.96471386   -7.1051888    632.46816  0.028911508  0.028776213            3 
 1824000   0.95335821   -7.1573586     629.5908    0.0287642   0.02876921            5 
 1825000   0.94279208   -7.1693652    630.14019  0.028773525  0.028762046            2 
 1826000   0.96031871   -7.1504481    630.57533  0.028777625  0.028754885            5 
 1827000   0.96467908   -7.2158531    629.76261  0.028724804  0.028747733            4 
 1828000   0.97806489   -7.1185521    632.17641  0.028819129  0.028740709            3 
 1829000   0.96130321   -7.1252509    632.46139  0.028816357  0.028733717            3 
 1830000   0.94859912   -7.1543934    630.93367  0.028731041  0.028726686            3 
 1831000   0.94836115   -7.1645302    632.02032  0.028764806  0.028719628            6 
 1832000   0.95533768   -7.1441636    630.89262  0.028697808  0.028712581            7 
 1833000   0.95092593   -7.1448752    632.95681  0.028775996  0.028705522            7 
 1834000   0.93840665   -7.1340642    632.56658  0.028742574  0.028698474            1 
 1835000   0.95647065    -7.140674    632.81828  0.028738342  0.028691495            2 
 1836000   0.95262831   -7.1172295    632.35961   0.02870187   0.02868448            4 
 1837000   0.96351357   -7.1354421    633.24136  0.028726246  0.028677427            2 
 1838000   0.96702951   -7.1865321    631.71463  0.028641396  0.028670335            3 
 1839000   0.97566086   -7.1459498    634.26239  0.028741272  0.028663203            4 
 1840000   0.96724203   -7.1203843    633.37372  0.028685404   0.02865625            4 
 1841000   0.97658664   -7.1694407    633.32448  0.028667594  0.028649232            3 
 1842000   0.93458548   -7.1364059    635.25419  0.028739332  0.028642233            2 
 1843000   0.95372551   -7.1683704    634.81541  0.028703898  0.028635256            3 
 1844000   0.96347607   -7.1325924    632.96977  0.028604925  0.028628212            3 
 1845000   0.96983376   -7.1559618    634.72435   0.02866867  0.028621222            2 
 1846000    0.9620407   -7.1194253    635.77422  0.028700534  0.028614179            4 
 1847000   0.96002935   -7.1239282    635.71374  0.028682266  0.028607216            3 
 1848000   0.95110812   -7.1924563    635.00101  0.028634605  0.028600169            2 
 1849000   0.95769643   -7.1408538    636.39305  0.028681857  0.028593134            2 
 1850000   0.93539871   -7.1593498    635.51373  0.028626745  0.028586133            2 
 1851000   0.94183927   -7.1544284    634.55065   0.02856792  0.028579064            5 
 1852000   0.96954774   -7.1492548    635.79548  0.028608508  0.028572112            4 
 1853000   0.96138682   -7.1881698    634.61661  0.028540053  0.028565212            3 
 1854000   0.97122777   -7.1540041     636.6002  0.028613817  0.028558182            2 
 1855000   0.94972807   -7.1342724    637.42966  0.028635654  0.028551254            4 
 1856000   0.93427872   -7.1384664    636.14997  0.028562768  0.028544346            6 
 1857000   0.94306071    -7.122441    639.65298  0.028704585  0.028537357            3 
 1858000    0.9650561   -7.1698079    637.45318  0.028590473  0.028530392            2 
 1859000   0.96707359   -7.1562927    639.10877  0.028649308  0.028523376            2 
 1860000    0.9632536   -7.1623795    636.67402  0.028524822  0.028516341            2 
 1861000   0.97103584    -7.185905    637.51874  0.028547319  0.028509291            1 
 1862000   0.96862098   -7.1454029    636.55564  0.028488885  0.028502232            2 
 1863000   0.97575915   -7.1273644    638.82165  0.028574953  0.028495213            3 
 1864000   0.94271015   -7.1311192    637.44971  0.028498288  0.028488279            2 
 1865000   0.96166995   -7.1581834    638.87506  0.028546696  0.028481324            3 
 1866000   0.96546524   -7.1675833    639.24329  0.028547843  0.028474427            2 
 1867000   0.96348758    -7.157947    639.23409  0.028532141  0.028467618            3 
 1868000   0.95331499    -7.194128    640.12868  0.028556775  0.028460708            3 
 1869000   0.92515988   -7.1560779    639.79325  0.028526541  0.028453797            5 
 1870000    0.9649833   -7.1225127    639.61676  0.028503421  0.028446899            3 
 1871000   0.96851709    -7.111332     640.7631  0.028539244  0.028439955            2 
 1872000    0.9754959   -7.1314692    639.97771  0.028489036   0.02843316            3 
 1873000   0.94243971   -7.1303251    641.55459  0.028543984  0.028426205            6 
 1874000   0.96521498   -7.1185135    640.86377  0.028498033  0.028419329            1 
 1875000   0.94499051   -7.1387581    640.93965  0.028486206  0.028412488            2 
 1876000    0.9365739   -7.1541397    641.25983  0.028485245  0.028405618            2 
 1877000   0.95925947    -7.171078    642.71456  0.028534655  0.028398777            2 
 1878000   0.95558185   -7.1777484     641.9695  0.028486399  0.028391967            9 
 1879000   0.95767486   -7.1850902    641.89454  0.028467915  0.028385128            2 
 1880000   0.96120914   -7.1940521    642.49064  0.028479195  0.028378256            2 
 1881000   0.94389541   -7.1681047     642.8895  0.028481725  0.028371436            2 
 1882000   0.95828304    -7.131986    643.10347  0.028476066   0.02836463            5 
 1883000   0.93585068   -7.1561395    642.81054  0.028447979   0.02835791            5 
 1884000   0.95135963   -7.1910608    642.33688  0.028411928  0.028351089            2 
 1885000   0.93238988   -7.1946994    641.46685  0.028358393  0.028344178            2 
 1886000   0.95250017   -7.1608864    643.52647  0.028434362  0.028337302            5 
 1887000   0.94976612   -7.1695289    642.05136   0.02835415  0.028330504            3 
 1888000   0.93977082   -7.1555943    644.28697  0.028437807  0.028323736            2 
 1889000   0.94108577   -7.1715179    645.95238  0.028496223  0.028317006            3 
 1890000   0.94908201   -7.1720186    645.52033  0.028462096  0.028310255            1 
 1891000   0.95000353   -7.1483993    644.73072  0.028412247  0.028303591            5 
 1892000   0.93152304   -7.1425206    646.56515  0.028478028  0.028296919            4 
 1893000   0.93667195    -7.169505    645.40996  0.028412131  0.028290227            3 
 1894000   0.96519598   -7.1823494    646.24306  0.028433785  0.028283536            7 
 1895000   0.92632205     -7.16324    645.25281  0.028375234  0.028276804            3 
 1896000   0.95064581   -7.1967944    645.26239  0.028360689  0.028270019            2 
 1897000   0.95110076    -7.142051    646.37431  0.028394584   0.02826328            1 
 1898000   0.98339274    -7.089163    646.78329   0.02839758  0.028256643            1 
 1899000   0.95589714   -7.1996524    647.04394  0.028394065  0.028250042            2 
 1900000   0.94634716   -7.1540204    647.41904  0.028395572  0.028243348            3 
 1901000   0.95055747    -7.155207    648.23988  0.028416617  0.028236783            4 
 1902000   0.94378388   -7.1724628    648.75443  0.028424221  0.028230187            2 
 1903000   0.94026203   -7.1703419    648.82707  0.028412466   0.02822354            1 
 1904000   0.93850338   -7.1702583    650.69325  0.028479221  0.028216982            2 
 1905000   0.92882697   -7.1934136    648.53398  0.028369815  0.028210473            3 
 1906000    0.9342348   -7.1972456    649.60999  0.028401976  0.028203858            5 
 1907000   0.92857318   -7.1910582    648.81578  0.028352376   0.02819729            6 
 1908000   0.94211452   -7.1563505    650.72256  0.028420797  0.028190713            1 
 1909000   0.94248385   -7.1871317    649.83127  0.028367002  0.028184187            4 
 1910000   0.95462494   -7.1625007    649.53194   0.02833909  0.028177638            3 
 1911000   0.94446723   -7.1700519    651.26059  0.028399642   0.02817112            3 
 1912000   0.95212457   -7.1511302    652.18017  0.028424868  0.028164644            3 
 1913000   0.93939765   -7.1861104    651.57793  0.028383774  0.028158242            3 
 1914000   0.93134634   -7.2002194    649.26162  0.028268095    0.0281517            2 
 1915000   0.96486091   -7.1860952    652.88769  0.028411127  0.028145176            4 
 1916000   0.96135346   -7.1433702    651.38269  0.028330841  0.028138682            3 
 1917000   0.95296583    -7.181331    651.00325  0.028299567  0.028132088            3 
 1918000   0.93744382   -7.1811619    652.87082  0.028365955  0.028125519            3 
 1919000   0.93851763   -7.1817223    652.44144  0.028332528  0.028118924            4 
 1920000   0.94633908   -7.1937525    650.73649  0.028243771  0.028112404            4 
 1921000    0.9460692   -7.1824505    653.20468  0.028336139   0.02810591            3 
 1922000   0.95654704   -7.1679825    651.40666  0.028243438  0.028099378            2 
 1923000   0.95431098   -7.1938779     651.5387  0.028234473  0.028092891            2 
 1924000   0.92915658   -7.1781313    654.98286  0.028368973  0.028086324            2 
 1925000   0.93487198   -7.2032648    653.07628    0.0282717  0.028079783            3 
 1926000   0.93586644   -7.1803745    652.29184  0.028223081  0.028073216            3 
 1927000   0.96168407   -7.1613707    655.78422  0.028359463  0.028066605            2 
 1928000   0.94479733   -7.1651544    655.11059  0.028315637  0.028059972            2 
 1929000   0.92767664   -7.1757374    652.68608  0.028196219   0.02805327            2 
 1930000   0.94996308    -7.169475     653.2811  0.028207301  0.028046649            5 
 1931000   0.93723474   -7.1532896    653.76669   0.02821365  0.028040027            6 
 1932000   0.94986147   -7.1799124    655.07928  0.028255662  0.028033451            5 
 1933000   0.95720615   -7.1874165    654.02091  0.028195418  0.028026893            4 
 1934000   0.95289195   -7.1640706      656.757  0.028298733  0.028020281            2 
 1935000   0.94112746   -7.2050148    654.16103  0.028172309  0.028013658            5 
 1936000    0.9236426   -7.1913696     653.6187  0.028134414  0.028006963            3 
 1937000   0.96034874   -7.1940669    654.36855  0.028152149  0.028000314            3 
 1938000    0.9319075   -7.1865068    655.05582  0.028167175  0.027993556            3 
 1939000   0.93291957   -7.1970393    656.10548   0.02819776   0.02798689            4 
 1940000   0.94523302   -7.1867748    654.71725  0.028123593  0.027980319            3 
 1941000   0.93458403   -7.1577719    655.93069  0.028161201  0.027973741            2 
 1942000   0.95955291     -7.18135    654.86188  0.028100836  0.027967147            2 
 1943000   0.93608405   -7.1960541    656.37127  0.028151109   0.02796052            3 
 1944000   0.93279765   -7.1648622    655.65384  0.028105875  0.027953916            4 
 1945000   0.93749429   -7.2146075    655.82971  0.028098959  0.027947191            3 
 1946000   0.94322178   -7.1843269    656.30801  0.028105002  0.027940537            4 
 1947000   0.93352302   -7.1703883    657.19643  0.028128592  0.027933927            2 
 1948000   0.93835938   -7.1734445     657.2212  0.028115212  0.027927352            4 
 1949000   0.93267692   -7.1705177     657.5178  0.028113469  0.027920775            2 
 1950000   0.93905463   -7.1749623    656.51149  0.028056046  0.027914127            8 
 1951000   0.96110165   -7.1635068     658.5956  0.028130685  0.027907545            3 
 1952000   0.92799869   -7.2003508      657.064  0.028050888  0.027900923            2 
 1953000   0.95868695   -7.1623744    657.46978  0.028053839  0.027894231            2 
 1954000   0.93546909   -7.1739243    656.80662    0.0280112  0.027887555            4 
 1955000   0.95596656    -7.173252    656.83236  0.027997969  0.027880876            2 
 1956000   0.93238401   -7.1675084    658.15425  0.028039973  0.027874143            2 
 1957000   0.95874615   -7.1701445    657.00986  0.027976914  0.027867453            2 
 1958000   0.94531486   -7.1754461    657.70158  0.027992066  0.027860859            3 
 1959000   0.91582717   -7.1899329    658.26521  0.028001753  0.027854166            4 
 1960000   0.92556714   -7.2004666    657.88053  0.027971111  0.027847436            2 
 1961000   0.92913952   -7.1993257    656.80403  0.027911101  0.027840695            3 
 1962000   0.96480992   -7.2023219    658.23722  0.027957748  0.027833938            3 
 1963000   0.94671476   -7.2111789    657.82991  0.027926215  0.027827165            2 
 1964000   0.93663927   -7.1788273    658.84683  0.027955144  0.027820522            4 
 1965000   0.94864248   -7.2080191    659.77464  0.027980264  0.027813847            5 
 1966000   0.95047777   -7.1674763    659.42024   0.02795101  0.027807173            3 
 1967000   0.94183518   -7.1427048    659.03812  0.027920612   0.02780058            2 
 1968000   0.95052777   -7.2017799    660.27944  0.027958987  0.027793966            4 
 1969000   0.93309694   -7.1569087    660.81005  0.027967244  0.027787263            1 
 1970000   0.94429837   -7.1630473    662.31846  0.028016855  0.027780585            2 
 1971000   0.95898714   -7.2062568    659.26095   0.02787337  0.027773894            5 
 1972000   0.92026779   -7.1927229    659.65918  0.027876064  0.027767153            3 
 1973000   0.93396815   -7.1688606    659.92315  0.027873085  0.027760497            2 
 1974000   0.93287058   -7.1809237    661.38237  0.027920566  0.027753786            1 
 1975000    0.9807158   -7.1857214    660.52827  0.027870391  0.027747075            2 
 1976000   0.92687731   -7.1724887    660.01171  0.027834502  0.027740375            5 
 1977000   0.92933681   -7.2040943    662.10532  0.027908671  0.027733602            2 
 1978000   0.94215086   -7.2239723    659.84862  0.027799487  0.027726781            1 
 1979000   0.93679099   -7.2282641    659.82279  0.027784352  0.027719908            3 
 1980000   0.92338062   -7.2074972    659.97021  0.027776524  0.027713021            8 
 1981000    0.9193068   -7.1629488    662.57242  0.027871968  0.027706305            1 
 1982000   0.92413384   -7.1894096    661.14995  0.027798097  0.027699563            2 
 1983000   0.92928508   -7.1955634    661.74285  0.027808995  0.027692738            3 
 1984000   0.93481414   -7.2038661    661.48626  0.027784201  0.027685944            4 
 1985000   0.93795775   -7.1873345    661.65976  0.027777488  0.027679113            2 
 1986000      0.93153   -7.1911279    661.79275  0.027769082  0.027672258            3 
 1987000   0.93907803   -7.1904144    662.94466  0.027803416  0.027665439            2 
 1988000   0.94431819   -7.2154718    663.44646  0.027810465  0.027658593            2 
 1989000   0.94793435   -7.2039179    662.08957  0.027739633  0.027651735            2 
 1990000   0.93447566   -7.2020432    660.17226  0.027645405  0.027644805            5 
 1991000   0.93855878   -7.2302175    662.24082  0.027718099  0.027637929            2 
 1992000   0.94134695   -7.2228155     662.8407  0.027729279   0.02763103            2 
 1993000    0.9349058   -7.2073998    664.13485  0.027769478  0.027624289            4 
 1994000    0.9375101   -7.1882251    662.54031  0.027688913  0.027617556            3 
 1995000   0.93889409   -7.2068724    662.42769   0.02767033   0.02761075            3 
 1996000   0.92356049   -7.2191583    662.54406  0.027661325  0.027603894            4 
 1997000   0.95772647   -7.2130818    663.36736  0.027681829  0.027596959            2 
 1998000   0.92583982   -7.1997762    661.89934  0.027606746  0.027590039            2 
 1999000   0.94257462   -7.1854645    664.79009  0.027713444  0.027583229            3 
 2000000   0.93045956   -7.1917067    663.39326  0.027641386  0.027576342            3 
 2001000   0.91962606   -7.2144391    662.42349  0.027587185  0.027569467            2 
 2002000   0.92178115    -7.228486    662.85115  0.027591207  0.027562578            4 
 2003000   0.92319194   -7.1818172    665.64347  0.027693604  0.027555697            3 
 2004000   0.94223571   -7.2172221     664.0724  0.027614455  0.027548766            4 
 2005000   0.93459392   -7.2134753    665.72449  0.027669347  0.027541843            3 
 2006000   0.93507887   -7.2162911    665.18851  0.027633288  0.027534966            5 
 2007000   0.93032144   -7.2009846    666.66293   0.02768074  0.027528101            2 
 2008000   0.92221488   -7.1563282    667.32717  0.027694521  0.027521324            3 
 2009000   0.93944634   -7.2170196    665.76998  0.027616143  0.027514676            5 
 2010000   0.93224421   -7.2144475    667.37461  0.027668931  0.027507938            2 
 2011000   0.92955669   -7.1810125    668.08595  0.027684649  0.027501202            5 
 2012000    0.9355244   -7.2089914    667.00833  0.027626256  0.027494506            4 
 2013000    0.9125639   -7.1975157    668.75658  0.027684906  0.027487869            3 
 2014000   0.91843213   -7.2032056    668.02127  0.027640734  0.027481249            2 
 2015000   0.92882345   -7.2084637    667.40312  0.027601452  0.027474603            5 
 2016000   0.93029453    -7.212743    669.76618  0.027685441  0.027467954            2 
 2017000   0.89968287   -7.2164941    667.60908  0.027582593  0.027461177            2 
 2018000   0.93366644   -7.2138225    668.00351  0.027585213  0.027454459            2 
 2019000    0.9251588   -7.2117806    668.73624  0.027601793  0.027447755            4 
 2020000   0.93130358   -7.2162819      668.143  0.027563655  0.027441038            3 
 2021000    0.9371044   -7.2126339    669.10614   0.02758973  0.027434393            2 
 2022000   0.91702221   -7.1798423    669.09469  0.027575614  0.027427751            3 
 2023000   0.91832554   -7.2251551     668.2578  0.027527509   0.02742111            2 
 2024000   0.93169838   -7.2449278    668.69673   0.02753198  0.027414437            4 
 2025000   0.92790314   -7.2497178    669.24794  0.027541067  0.027407768            2 
 2026000   0.95080511   -7.2052644    669.44441  0.027535555  0.027401171            3 
 2027000   0.90721605   -7.2292582    672.59257  0.027651397  0.027394566            2 
 2028000   0.92158712   -7.2339956    670.34147  0.027545261  0.027387999            4 
 2029000   0.93483855   -7.2747517    671.33698  0.027572572  0.027381398            3 
 2030000   0.91951919   -7.2169956    672.02865  0.027587383  0.027374823            3 
 2031000   0.92672914   -7.2344847    670.73572   0.02752075  0.027368252            3 
 2032000   0.94053317   -7.2173052    671.92432  0.027555952  0.027361654            5 
 2033000   0.93539474   -7.1969133    673.23803  0.027596247  0.027355131            7 
 2034000   0.92763813   -7.2111256    672.80757  0.027565043  0.027348616            2 
 2035000    0.9413731   -7.2412935    672.94766  0.027557234  0.027342094            6 
 2036000   0.93130351   -7.2505385    671.00347  0.027464124  0.027335549            6 
 2037000   0.92644697   -7.2133908    671.74865  0.027481126  0.027329014            6 
 2038000   0.92195802   -7.2145564    674.58491  0.027583616  0.027322411            3 
 2039000   0.92254856   -7.2250101    672.30849  0.027477051  0.027315889            3 
 2040000    0.9415603   -7.2241039    673.69196  0.027520096  0.027309329            2 
 2041000   0.93815894    -7.184502    675.59461  0.027584297  0.027302859            3 
 2042000   0.91258035   -7.2344623    673.09028  0.027468588  0.027296409            2 
 2043000   0.94104347   -7.1891014    674.44316  0.027510326  0.027289957            5 
 2044000   0.93233829   -7.2004091    674.58717  0.027502738  0.027283536            3 
 2045000   0.94187601   -7.2101166    674.12333  0.027470388  0.027277063            3 
 2046000   0.94564287   -7.2249098    675.50399  0.027513196  0.027270603            2 
 2047000   0.93155629   -7.2160903    673.66325  0.027424819  0.027264114            2 
 2048000   0.91797809   -7.2262705    674.79459  0.027457462   0.02725761            4 
 2049000   0.91956165   -7.2291132     676.2002  0.027501228  0.027251213            5 
 2050000   0.92373011   -7.1962617    675.74057  0.027469129  0.027244832            2 
 2051000   0.92535019   -7.2502751    676.67218  0.027493588   0.02723845            3 
 2052000   0.93725281   -7.2478199    675.49543  0.027432401  0.027231963            8 
 2053000   0.94137573   -7.2172329    677.75681   0.02751083  0.027225606            5 
 2054000   0.90018743   -7.2384493    678.42874  0.027524697  0.027219318            5 
 2055000   0.92105717   -7.2224058    678.00936  0.027494297  0.027212969           13 
 2056000     0.943158   -7.2495311    676.75497  0.027430082  0.027206587            2 
 2057000   0.93071853   -7.2150984    677.50891   0.02744729  0.027200312            4 
 2058000   0.93122492   -7.2318423    677.29945  0.027425472  0.027193919            4 
 2059000   0.92852714   -7.2124408    677.47247  0.027419154  0.027187588            3 
 2060000   0.92333415   -7.1948029     678.7982  0.027459474  0.027181237            5 
 2061000   0.93607665   -7.2376925    677.96501  0.027412462  0.027174857            4 
 2062000   0.92662201   -7.2330528    677.43243  0.027377644  0.027168526            4 
 2063000   0.92207097   -7.2088502    679.10519  0.027431943  0.027162236            3 
 2064000   0.92599769   -7.2158634    677.54842  0.027355799  0.027155971            3 
 2065000   0.91882618   -7.2228936    677.89909  0.027356703  0.027149614            2 
 2066000   0.91411087    -7.228363    679.65668  0.027414355  0.027143195            3 
 2067000   0.90839595   -7.2407827    678.77746  0.027365645  0.027136789            2 
 2068000   0.92061953   -7.2360933    681.47738   0.02746121  0.027130389            2 
 2069000   0.92773033   -7.2442944    679.02392  0.027349119  0.027124054            2 
 2070000   0.93204475   -7.2546915    679.41798   0.02735177  0.027117724            8 
 2071000   0.89774742   -7.2141126     680.4168  0.027378754  0.027111304            2 
 2072000   0.91460367   -7.2373402    680.35609  0.027363099   0.02710491            6 
 2073000   0.94204801   -7.2393634     678.1273  0.027260303  0.027098447            2 
 2074000   0.92310006   -7.2315511     678.6291  0.027267321  0.027091955            2 
 2075000   0.93498318   -7.2531058    679.96594  0.027307869  0.027085486            3 
 2076000   0.93030651   -7.2299645    679.42342  0.027272937  0.027079029            4 
 2077000   0.91471874   -7.1945147    682.03869  0.027364736  0.027072594            2 
 2078000   0.93125917    -7.239835    682.20793  0.027358354  0.027066217            4 
 2079000   0.93923085   -7.2548627    678.68192  0.027203861  0.027059824            4 
 2080000   0.90836334   -7.2542286    681.53557  0.027305111  0.027053419            6 
 2081000   0.92002521   -7.2295728     678.8119  0.027182921  0.027046948            4 
 2082000   0.92292974   -7.2086024    681.73062  0.027286688  0.027040507            3 
 2083000   0.90409716   -7.2664044    680.81611  0.027237002  0.027033986            3 
 2084000   0.88954094   -7.2314078    681.12005  0.027236086  0.027027476            1 
 2085000   0.91849963   -7.2397388    680.72955  0.027207416  0.027020991            2 
 2086000   0.90474396   -7.2523491    678.46958   0.02710409   0.02701443            2 
 2087000   0.90263357   -7.2286688    681.40034  0.027208127  0.027007827            2 
 2088000   0.91542492   -7.1985137    680.13636   0.02714465  0.027001249            4 
 2089000   0.92935275   -7.2423558    681.67569  0.027193063  0.026994761            1 
 2090000   0.91373063   -7.2229901    682.48824   0.02721245  0.026988204            4 
 2091000    0.9177197   -7.2379855    679.93463  0.027097666  0.026981632            3 
 2092000   0.90922077   -7.2491148    680.16955  0.027094071  0.026975022            4 
 2093000   0.92245591   -7.2759939    680.84202    0.0271079   0.02696843            4 
 2094000   0.93026606   -7.2018736    683.85714  0.027214945  0.026961905            2 
 2095000   0.90239987   -7.2471711    682.73748  0.027157418  0.026955377            3 
 2096000   0.90576567   -7.2220553    683.80874  0.027187052  0.026948805            4 
 2097000   0.91217619   -7.2158061    681.23206  0.027071692  0.026942166            3 
 2098000   0.90794996   -7.2176855    682.21888  0.027097985  0.026935515            2 
 2099000   0.90487421   -7.2603338    681.68543  0.027063897  0.026928871            3 
 2100000   0.92942033   -7.2523259    682.90401  0.027099365  0.026922204            1 
 2101000   0.91383899   -7.2627361    682.33623  0.027063947  0.026915596            2 
 2102000   0.92422446    -7.252746    682.64305  0.027063235  0.026909011            5 
 2103000   0.92601371   -7.2743199    682.36051  0.027039171  0.026902369            2 
 2104000    0.9237188   -7.2603662    683.47965  0.027070645  0.026895669            3 
 2105000   0.91898451   -7.2606495     682.8241  0.027031833  0.026888986            3 
 2106000    0.9143981   -7.2544646    682.08662  0.026989816  0.026882377            3 
 2107000   0.91457885   -7.2540642     683.0604   0.02701552  0.026875782            3 
 2108000   0.89650558   -7.2062553    684.10897  0.027044156  0.026869176            4 
 2109000   0.91461083   -7.2426832    683.54292  0.027008966  0.026862619            3 
 2110000    0.9025202    -7.229012    684.36674  0.027028702  0.026856011            2 
 2111000   0.91873027   -7.2725484    684.65286  0.027027193  0.026849431            3 
 2112000    0.9069379   -7.2464068    685.56742  0.027050482  0.026842868            3 
 2113000   0.91827811   -7.2206841    686.72825  0.027083462  0.026836356            2 
 2114000   0.91831887   -7.2404102     685.8006  0.027034082  0.026829869            5 
 2115000   0.93330196   -7.2321945    687.28743  0.027079883  0.026823425            1 
 2116000   0.91095827    -7.243305    687.28006  0.027066795   0.02681698            1 
 2117000   0.90929943   -7.2634326    685.02953   0.02696542  0.026810457            3 
 2118000   0.91480207   -7.2480773    687.07007  0.027032974  0.026804013            1 
 2119000    0.9137418   -7.2339268    687.38468  0.027032589  0.026797563            3 
 2120000   0.90654076   -7.2261991    686.85914   0.02699918  0.026791042            2 
 2121000   0.91039665   -7.2018901    689.68485  0.027097472  0.026784626            3 
 2122000   0.92846951   -7.2647761    687.01283  0.026979768  0.026778143            4 
 2123000   0.91841343   -7.2360869    686.41003  0.026943399  0.026771701            2 
 2124000    0.9291574   -7.2325741    686.43263    0.0269316  0.026765138            3 
 2125000    0.9218555   -7.2526575     688.7333  0.027009149  0.026758611            2 
 2126000   0.89065398   -7.2387487     686.6233  0.026913738  0.026752008            2 
 2127000   0.91532279   -7.2474195    688.52715  0.026975676  0.026745474            3 
 2128000   0.92986111   -7.2620753    686.93148  0.026900512  0.026738927            2 
 2129000   0.92322055   -7.2572256    687.42006  0.026907001  0.026732314            6 
 2130000   0.90080907   -7.2755662    685.60682  0.026823428  0.026725678            4 
 2131000   0.91513283   -7.2637508    686.91696  0.026862074  0.026718987            5 
 2132000   0.92384511   -7.2274962    687.20121  0.026860585  0.026712338            4 
 2133000    0.9172372   -7.2630506    687.77792  0.026870524  0.026705703            2 
 2134000   0.90303864   -7.2418396    687.10012  0.026831464  0.026699078            2 
 2135000   0.90530836   -7.2747852    687.48257  0.026833824  0.026692384            3 
 2136000   0.89852759   -7.2449952     687.7079  0.026830052   0.02668566            2 
 2137000   0.92401873   -7.2475048    688.66645  0.026854876  0.026678968            3 
 2138000   0.92575824   -7.2099383    688.69757  0.026843529  0.026672319            3 
 2139000   0.90657905   -7.2536673    686.25639  0.026735873  0.026665598            2 
 2140000    0.9160553   -7.2565478    688.29519  0.026802772  0.026658925            6 
 2141000   0.90514286   -7.2223529     690.3663  0.026870866  0.026652323            4 
 2142000   0.88433698    -7.254896    690.33464   0.02685709  0.026645733            3 
 2143000   0.89373629   -7.2910253    688.89533  0.026788588  0.026639131            2 
 2144000   0.90455037   -7.2481712    690.34793  0.026832553  0.026632499            4 
 2145000   0.91309664   -7.2623791    688.00757  0.026729121  0.026625853            2 
 2146000   0.90038376   -7.2764163    689.32418  0.026767792  0.026619287            3 
 2147000     0.912606   -7.2771577    688.81303  0.026735485  0.026612687            4 
 2148000   0.90640532   -7.2651748    690.46903  0.026787284    0.0266061            2 
 2149000   0.92657884   -7.2289467    690.85697  0.026789862  0.026599588            3 
 2150000   0.90055382   -7.2365637    691.55913  0.026804617  0.026593094            2 
 2151000   0.91498482   -7.2521236    691.14034  0.026775931  0.026586572            1 
 2152000    0.8986846   -7.2377748     692.4015  0.026812326  0.026580072            2 
 2153000   0.91835094   -7.2698768     692.8916  0.026818842  0.026573685            7 
 2154000   0.92839617   -7.2448805    691.73386  0.026761601  0.026567252            5 
 2155000   0.91890103   -7.2388179    693.61468  0.026821914  0.026560826            2 
 2156000   0.92212627   -7.2377485    692.91109  0.026782278  0.026554399            4 
 2157000   0.90628974   -7.2546861    694.32882  0.026824634     0.026548            3 
 2158000    0.8865768   -7.2571931     693.9266  0.026796671  0.026541616            2 
 2159000   0.88953056   -7.2532045      694.109    0.0267913  0.026535243            3 
 2160000   0.89648631   -7.2478738    693.18794  0.026743362  0.026528841            3 
 2161000   0.90240283   -7.2683764          694  0.026762301  0.026522502            3 
 2162000   0.89841375   -7.2567975    693.71308  0.026738864  0.026516096            2 
 2163000    0.9011479   -7.2168601    693.01003  0.026699416  0.026509758            2 
 2164000    0.9087969   -7.2576462    693.14583  0.026692307   0.02650337            5 
 2165000   0.92045488   -7.2810878    693.46715  0.026692346  0.026496933            3 
 2166000   0.90418515   -7.2830732    694.56144  0.026722124  0.026490522            3 
 2167000   0.91043946    -7.255363    695.21602  0.026734965  0.026484021            3 
 2168000   0.89525605   -7.3006796    693.65283  0.026662547  0.026477577            5 
 2169000    0.8900178   -7.2672205    693.33289  0.026637963  0.026471083            2 
 2170000    0.9043053    -7.236437    694.36566  0.026665348  0.026464616            4 
 2171000   0.88337586   -7.2560395    695.91393  0.026712495  0.026458235            3 
 2172000   0.89395131   -7.2624317    694.69456  0.026653413  0.026451761            2 
 2173000   0.91677043   -7.2605277    694.23633  0.026623575  0.026445347            4 
 2174000    0.9208286   -7.2794341     695.0085  0.026640927  0.026438923            2 
 2175000    0.9035039   -7.2773414    696.10621  0.026670736  0.026432559            2 
 2176000   0.90699713   -7.2665244    696.89801  0.026688803  0.026426223            3 
 2177000   0.88124691   -7.2413007    696.71513  0.026669543  0.026419754            5 
 2178000   0.89865429   -7.2731734    696.99032  0.026667827  0.026413313            2 
 2179000     0.911439   -7.2604357    695.74784  0.026608071  0.026406887            2 
 2180000   0.91452828   -7.2791443    696.54513  0.026626343  0.026400522            2 
 2181000   0.90227398   -7.2673198    695.53207  0.026575427  0.026394169            3 
 2182000    0.8968265   -7.2676364    697.39807  0.026634512  0.026387789            3 
 2183000   0.92854417   -7.2836147    698.35516  0.026658847  0.026381365            2 
 2184000    0.8929557   -7.2513706    697.70093  0.026621678  0.026374962            2 
 2185000   0.90625131    -7.285762    698.50038  0.026639984  0.026368551            2 
 2186000   0.89923397   -7.2638832    698.97769  0.026645993  0.026362059            3 
 2187000   0.92352781   -7.2508007    699.19035  0.026641912  0.026355677            3 
 2188000   0.89319939   -7.2759071    697.11519  0.026550701  0.026349336            3 
 2189000   0.91256077   -7.2844033    698.48351  0.026590662  0.026342999            2 
 2190000   0.90169937   -7.2572154    698.26609  0.026570247  0.026336622            3 
 2191000   0.92201149   -7.2633869    699.81345  0.026616973  0.026330308            3 
 2192000   0.90282792   -7.3042231    698.40284  0.026551203  0.026324006            5 
 2193000   0.89719044   -7.2648165    698.87843  0.026557168   0.02631766            1 
 2194000   0.89120749   -7.2425901    699.23451  0.026558588   0.02631137            2 
 2195000   0.92374555    -7.263313    698.43565   0.02651616  0.026304989            2 
 2196000   0.90627086   -7.2793626    699.70635  0.026552305  0.026298636            4 
 2197000   0.89251411    -7.291381    701.39889  0.026604418  0.026292321            4 
 2198000   0.89307856   -7.2742657    700.20853  0.026547184  0.026286044            3 
 2199000   0.89095257   -7.2569366    700.00832  0.026527525  0.026279827            4 
 2200000   0.90606914   -7.2740001    699.99899  0.026515113  0.026273574            4 
 2201000    0.8858869   -7.2912089    700.45844  0.026520462    0.0262673            1 
 2202000   0.90715161   -7.2563693    702.37956  0.026581122  0.026261071            2 
 2203000   0.91598788   -7.3010097    701.75861  0.026545567  0.026254684            3 
 2204000   0.89872731   -7.2711481    701.02051  0.026505615  0.026248317            3 
 2205000   0.89054543    -7.299184    701.83529  0.026524387  0.026241992            5 
 2206000   0.90546184    -7.314632    700.46542  0.026460616  0.026235607            5 
 2207000   0.89650014   -7.2599101    700.02816  0.026432116  0.026229219            2 
 2208000   0.89571817   -7.3159093    700.24851  0.026428461    0.0262228            3 
 2209000   0.92971945   -7.2648633    701.68068  0.026470525  0.026216472            1 
 2210000   0.88500615   -7.2599093    699.92948  0.026392514  0.026210137            3 
 2211000   0.89962623   -7.2696447    701.22591   0.02642944  0.026203767            5 
 2212000   0.89112833   -7.2451163    700.42511  0.026387323  0.026197391            2 
 2213000   0.89655189   -7.2777566    701.64194  0.026421221   0.02619097            3 
 2214000   0.90255216   -7.2755156     703.6484  0.026484809  0.026184599            3 
 2215000    0.8859211   -7.2532492    701.31355  0.026385009  0.026178241            3 
 2216000   0.90324433   -7.3069943     701.4477  0.026378148  0.026171853            2 
 2217000   0.88473772    -7.274145    702.87794   0.02642001  0.026165443            2 
 2218000   0.88698216   -7.2904187     701.5595  0.026358563  0.026159007            3 
 2219000   0.86984641   -7.3132658     702.5921  0.026385463  0.026152656            4 
 2220000   0.90305828   -7.2724609     701.9615  0.026349906  0.026146324            3 
 2221000   0.89780645   -7.3358618    700.84431  0.026296124  0.026139917            8 
 2222000   0.89924774   -7.2924054    703.64772  0.026389429   0.02613352            3 
 2223000   0.88764177   -7.2857675    702.04827  0.026317599  0.026127164            3 
 2224000   0.92110535   -7.2738499    703.77417  0.026370435  0.026120851            3 
 2225000   0.89446246   -7.2898172     702.7261   0.02631933  0.026114473            8 
 2226000   0.88707767   -7.2798951    705.14392   0.02639802  0.026108084            2 
 2227000   0.91340645   -7.2783604    704.56205  0.026364393  0.026101696            6 
 2228000   0.89238116   -7.2820007    706.14356  0.026411713  0.026095304            2 
 2229000   0.88632534   -7.2847268    703.77481  0.026311306  0.026088989            3 
 2230000   0.89090614     -7.28042    703.12053  0.026275057  0.026082665            3 
 2231000   0.88745314   -7.2953949     704.9265  0.026330737  0.026076335            2 
 2232000   0.90964385   -7.2660293    706.19223  0.026366197  0.026069992            2 
 2233000   0.88803049   -7.2834158    706.19859  0.026354627  0.026063646            4 
 2234000   0.88420119   -7.2690781    706.18395  0.026342284  0.026057277            3 
 2235000   0.89105305    -7.309856    704.98218  0.026285689  0.026050887            3 
 2236000   0.89461441   -7.2693385    703.75204  0.026228087  0.026044492            4 
 2237000   0.89560004   -7.2761757    706.91361  0.026334138  0.026038092            4 
 2238000   0.90998505   -7.2884247     706.4361  0.026304591  0.026031822            2 
 2239000   0.90542052   -7.2768626    706.73556  0.026303988  0.026025453            3 
 2240000    0.8967935   -7.2850141    707.15834  0.026307974  0.026019108            4 
 2241000   0.88924794   -7.2913759    706.55795  0.026273909  0.026012772            5 
 2242000     0.896391   -7.2924086    705.37369  0.026218172  0.026006409            8 
 2243000   0.90147464   -7.3171086    705.56911  0.026213743  0.026000017            2 
 2244000   0.89541107   -7.3288103    706.11305  0.026222261  0.025993557            2 
 2245000   0.88971989   -7.2919987     706.4378  0.026222635  0.025987104            6 
 2246000   0.90657668   -7.3041624    705.33407  0.026170008  0.025980696            3 
 2247000   0.89816606   -7.3088932    705.93576  0.026180677  0.025974232            3 
 2248000   0.89891169   -7.3205756    706.44373  0.026187861  0.025967833            5 
 2249000   0.90018921   -7.2767119    708.84903  0.026265341  0.025961497            4 
 2250000   0.89262157   -7.2720471    709.14502   0.02626463  0.025955172            2 
 2251000   0.90430364   -7.2811423    705.90894  0.026133161  0.025948803            4 
 2252000   0.88163675   -7.3025095    707.91722  0.026195871  0.025942409            3 
 2253000   0.88988164   -7.3155317    706.92505  0.026147546  0.025935959            3 
 2254000   0.88491798   -7.2767834    709.56968  0.026233721  0.025929481            6 
 2255000   0.87789022   -7.2934382    704.00608  0.026016485  0.025923058            4 
 2256000   0.89305388    -7.298359    707.73094  0.026142543  0.025916629            4 
 2257000    0.8812933    -7.291969    708.30134  0.026152021  0.025910175            2 
 2258000   0.89382978   -7.2921579    707.33089  0.026104624  0.025903745            4 
 2259000   0.87716557   -7.2591198    707.63718  0.026104367  0.025897296            3 
 2260000   0.88339201   -7.3003533    707.57902  0.026090672  0.025890863            6 
 2261000   0.87383509   -7.3037138    707.99384  0.026094422  0.025884376            4 
 2262000   0.88439863   -7.2813438    708.73861  0.026110323  0.025877893            3 
 2263000   0.86947703   -7.2865141    707.29928  0.026045783  0.025871398            8 
 2264000   0.90437642   -7.3324156     705.9616  0.025985041  0.025864888            4 
 2265000   0.89570398    -7.315408    708.07507  0.026051327  0.025858365            3 
 2266000   0.87775344   -7.3069623    709.09158  0.026077213  0.025851847            3 
 2267000   0.87717352   -7.3368862    708.52867  0.026045018  0.025845349            3 
 2268000   0.90942677   -7.3214729    709.83186  0.026081417  0.025838858            3 
 2269000   0.88633337   -7.3046731    709.18573  0.026046193  0.025832418            3 
 2270000   0.88734732   -7.3315231    708.06744  0.025993665   0.02582597            3 
 2271000   0.90241385    -7.331608    709.49152  0.026034475  0.025819523            3 
 2272000   0.89415939   -7.3149631    710.05422  0.026043655  0.025813083            6 
 2273000   0.86474567   -7.2952275    708.98003  0.025992815   0.02580663            2 
 2274000   0.90218621   -7.3250742    710.12256  0.026023254  0.025800212            3 
 2275000   0.86871685   -7.3274527    710.90247  0.026040384  0.025793831            5 
 2276000    0.8740257   -7.3296576    710.91167  0.026029279  0.025787509            4 
 2277000   0.87945204   -7.3029208      711.092  0.026024447   0.02578117            2 
 2278000   0.88780336   -7.3421188     711.9949  0.026046053   0.02577486            2 
 2279000   0.88002102   -7.3191067    711.98101  0.026034116  0.025768496            5 
 2280000   0.89490901   -7.3094158    711.43921  0.026002895  0.025762111            3 
 2281000   0.88068386   -7.3237025    710.47928  0.025956426  0.025755753            2 
 2282000   0.89258643   -7.2999452    711.51408  0.025982839  0.025749355            2 
 2283000   0.90060548   -7.3115939    710.89154  0.025948735  0.025742964            2 
 2284000   0.88484904   -7.3216995    710.05081  0.025906699  0.025736516            3 
 2285000   0.87899389   -7.3261111    711.98168   0.02596578  0.025730113            2 
 2286000    0.8858814   -7.3118858    711.53056  0.025937976  0.025723722            2 
 2287000   0.88476225   -7.2836193    712.53733  0.025963319  0.025717358            2 
 2288000   0.89846014   -7.3306555    712.44101  0.025948463  0.025710968            2 
 2289000   0.87745553    -7.326116    711.71898  0.025910841  0.025704552            5 
 2290000   0.88249239   -7.3237911     710.4973  0.025855069  0.025698094            4 
 2291000   0.88630436   -7.3242888    711.48051  0.025879547  0.025691615            3 
 2292000   0.88314797   -7.2856707    711.69731  0.025876138   0.02568515            2 
 2293000    0.8994802   -7.3188934    712.70719  0.025901555  0.025678706            4 
 2294000   0.87697905   -7.2891479    712.39041  0.025878757  0.025672309            3 
 2295000   0.87769489   -7.2986465    713.33507  0.025901782  0.025665939            2 
 2296000   0.89769488   -7.2939512    713.52252  0.025897304  0.025659564            2 
 2297000   0.88297455   -7.3002158    713.04217  0.025868603  0.025653204            5 
 2298000   0.88652661   -7.3147548    713.79027  0.025884474  0.025646776            1 
 2299000   0.88607564   -7.3088916    713.38519  0.025858532   0.02564041            3 
 2300000   0.87788144   -7.3124278    713.27224  0.025843197  0.025634038            3 
 2301000   0.86054233    -7.344862     711.9169  0.025782881  0.025627646            4 
 2302000   0.90228324   -7.3135179     713.4064  0.025825601  0.025621239            4 
 2303000   0.88238454   -7.2873735    713.30053  0.025810556  0.025614778            3 
 2304000   0.87673099   -7.2936349    714.78566  0.025853069  0.025608346            4 
 2305000   0.87882117   -7.3105443    713.88045  0.025809127  0.025601967            2 
 2306000   0.87812295   -7.2866355    713.48267   0.02578356  0.025595574            4 
 2307000   0.88770109   -7.2949637    714.96068  0.025825772  0.025589202            3 
 2308000   0.87149254   -7.3093447    714.67271  0.025804185  0.025582779            3 
 2309000   0.87216346   -7.2820492    714.59483  0.025790199  0.025576346            4 
 2310000   0.87570208   -7.3260291    714.31038  0.025768773  0.025569971            4 
 2311000   0.89129562   -7.2652008    714.36609  0.025759631    0.0255636            3 
 2312000   0.86182514   -7.3006918    714.12824  0.025739916  0.025557167            2 
 2313000   0.87575883   -7.3149795    716.30434  0.025807189   0.02555075            2 
 2314000   0.88620449   -7.2948101     716.3968  0.025799366  0.025544396            2 
 2315000   0.87313771   -7.3405818    715.33391  0.025749961  0.025538014            2 
 2316000   0.88082162   -7.3266111    715.85857  0.025757721  0.025531595            6 
 2317000   0.88890657   -7.2840428    718.10248  0.025827308   0.02552522            6 
 2318000   0.88453948   -7.3421986    715.24096  0.025713293  0.025518783            3 
 2319000    0.9001369    -7.307701    716.18418    0.0257361  0.025512394            2 
 2320000   0.89598195   -7.2757028    717.27753  0.025764279  0.025505976            2 
 2321000   0.88373676   -7.3010283    716.61749   0.02572948  0.025499517            4 
 2322000   0.90469739   -7.3016554    717.38375    0.0257459  0.025493091            3 
 2323000   0.87417305   -7.2994851    716.51573  0.025703678  0.025486669            6 
 2324000   0.86172977   -7.3214326    714.85081  0.025632918  0.025480229            3 
 2325000   0.88287417   -7.3285422    715.73397  0.025653547  0.025473745            2 
 2326000   0.88686758   -7.3142247     718.0717  0.025726272  0.025467253            3 
 2327000   0.87839964   -7.3155095    717.12603   0.02568135  0.025460777            2 
 2328000   0.88348783   -7.3421006     716.9214  0.025662994  0.025454284            4 
 2329000   0.87601284   -7.3470294    716.11575  0.025623148   0.02544774            1 
 2330000   0.88877362   -7.3500451    716.47766  0.025625095  0.025441184            2 
 2331000   0.87530579   -7.3170698    716.37752  0.025610522  0.025434639            4 
 2332000   0.88589821   -7.3354436    717.11909   0.02562604  0.025428104            3 
 2333000   0.87204492   -7.3167822    715.39836  0.025553592  0.025421622            6 
 2334000   0.87295368   -7.3284511    717.90384  0.025632099  0.025415132            4 
 2335000   0.86983431   -7.3062922    718.41684   0.02563943  0.025408646            4 
 2336000   0.88761163   -7.3254994     718.3851  0.025627323  0.025402183            3 
 2337000   0.88297662   -7.3383248    716.63394  0.025553913  0.025395699            1 
 2338000    0.8863654   -7.3204272     717.6818  0.025580332  0.025389195            2 
 2339000   0.88539511   -7.3225762    717.75392  0.025571965  0.025382693            3 
 2340000   0.88302605   -7.3386919    716.97467  0.025533286  0.025376184            4 
 2341000    0.8881428   -7.3145222    719.22785  0.025602586  0.025369665            4 
 2342000   0.87301861   -7.3286529    718.36895  0.025561093  0.025363109            3 
 2343000   0.86860725   -7.3109981    717.53388  0.025520482   0.02535664            5 
 2344000   0.89308005   -7.3415107    716.83772  0.025484845  0.025350173            2 
 2345000    0.8691172    -7.343048    717.12476  0.025484178  0.025343639            8 
 2346000   0.88847208   -7.3136152    717.51016  0.025487005  0.025337071            3 
 2347000   0.88215818   -7.3418573    717.60231  0.025479417  0.025330529            3 
 2348000   0.87174246   -7.3164407     716.7767  0.025439264  0.025323926            5 
 2349000   0.86723289   -7.3233045    718.09897  0.025475343  0.025317353            3 
 2350000   0.87893834   -7.3136033    717.78256  0.025453282  0.025310813            4 
 2351000   0.86653786   -7.3237233    718.85693  0.025480538  0.025304289            3 
 2352000   0.87942555   -7.3375349    721.29727  0.025556168  0.025297793            3 
 2353000    0.8716393   -7.3080612    718.94948  0.025462158  0.025291321            7 
 2354000    0.8645733   -7.3214654    720.14715  0.025493739  0.025284873            7 
 2355000   0.84731774   -7.3540479    718.99121   0.02544201  0.025278397            2 
 2356000   0.88493866   -7.3114553    719.47008  0.025448149  0.025271893            2 
 2357000   0.89021171   -7.3160849    720.90299  0.025488014  0.025265399            2 
 2358000   0.89732259   -7.3397045    719.31576  0.025421111  0.025258864            4 
 2359000   0.88306812   -7.3293691    721.58375  0.025490453   0.02525237            6 
 2360000   0.87420757     -7.32134    720.59384  0.025444698  0.025245855            3 
 2361000   0.88709997   -7.3329204    720.08671  0.025416021  0.025239359            2 
 2362000   0.86468725   -7.3403213    720.52842  0.025420845  0.025232952            3 
 2363000   0.86678033   -7.3320337    721.43035  0.025441894  0.025226523            5 
 2364000   0.88387795    -7.336056    720.40243  0.025394897  0.025220081            4 
 2365000   0.85645639   -7.2994614     720.8075  0.025398432   0.02521369            5 
 2366000   0.87077165   -7.3232499    721.06416  0.025396737  0.025207323            4 
 2367000   0.87051443    -7.351361    719.89881   0.02534498  0.025200833            1 
 2368000   0.86470425    -7.329024    722.12701   0.02541269  0.025194363            3 
 2369000   0.87258907    -7.287434     722.0041   0.02539764  0.025187938            5 
 2370000   0.87885351    -7.334522    720.42033  0.025331235  0.025181487            4 
 2371000   0.85430058   -7.3450531    721.34027  0.025352885  0.025175026            3 
 2372000   0.89202733   -7.3093314    722.46639  0.025381759  0.025168564            4 
 2373000   0.87059815   -7.3277029     720.9076  0.025316322  0.025162105            5 
 2374000   0.86706063   -7.3419695     719.5583  0.025258295  0.025155599            4 
 2375000   0.87349325   -7.3110047    721.44537  0.025313873  0.025149135            2 
 2376000   0.88802539   -7.3418798    721.65948  0.025310728  0.025142716            2 
 2377000   0.87124541   -7.3494813     723.6907  0.025371291   0.02513633            7 
 2378000   0.86882699   -7.3480783    722.76619  0.025328224  0.025129885            3 
 2379000   0.86784171   -7.3616242    721.86584  0.025286039  0.025123431            3 
 2380000   0.86923403    -7.349039    722.34411  0.025292161  0.025116963            5 
 2381000   0.86700816   -7.3325756    722.03717  0.025270795  0.025110546            8 
 2382000   0.85087534   -7.3460158     723.1749  0.025299989  0.025104151            6 
 2383000   0.85369833   -7.3493162    724.88242  0.025349085  0.025097795            2 
 2384000   0.86350477   -7.3446599    724.83592  0.025336826   0.02509146            2 
 2385000   0.86617722   -7.3268957    724.70323  0.025321566  0.025085079            2 
 2386000    0.8606236     -7.32358    725.46203  0.025337456  0.025078717            2 
 2387000   0.86656385   -7.3639505    724.68809  0.025299822  0.025072295            3 
 2388000   0.85943746   -7.3722441    725.63275  0.025322193   0.02506592            3 
 2389000     0.870982   -7.3782224    725.51103  0.025307347  0.025059544            3 
 2390000   0.87860444   -7.3318353    726.22677  0.025321715  0.025053192            2 
 2391000   0.86365718   -7.3331526     726.5103  0.025321006  0.025046813            4 
 2392000   0.86252014   -7.3526497    725.43684  0.025273023  0.025040439            6 
 2393000   0.86573436   -7.3529705    726.66954  0.025305389  0.025034118            5 
 2394000   0.86913327   -7.3356552     726.5494  0.025290636  0.025027774            9 
 2395000   0.88780108   -7.3469965    726.57916  0.025281112   0.02502147            2 
 2396000   0.86431597   -7.3336249    727.40586  0.025299314  0.025015139            5 
 2397000   0.84327026   -7.3291766    726.91508  0.025271696  0.025008836            2 
 2398000   0.88346747   -7.3680291    724.74011  0.025185575  0.025002501            5 
 2399000   0.86912376    -7.331752    726.30541   0.02522945  0.024996181            6 
 2400000   0.85523396   -7.3720607    727.66754  0.025266234  0.024989801            6 
 2401000   0.88107316   -7.3480621    727.33847   0.02524429  0.024983462            8 
 2402000   0.87218075   -7.3734424    725.48196  0.025169371  0.024977132            3 
 2403000   0.87692288   -7.3620334    725.87847  0.025172648  0.024970779            3 
 2404000   0.86117965   -7.3448537    728.47771  0.025252278  0.024964418            5 
 2405000   0.85206896   -7.3326861    725.66338  0.025144261  0.024958033            4 
 2406000   0.85546814   -7.3468505    726.93449  0.025177836  0.024951669            3 
 2407000   0.85960396   -7.3458385    726.33395  0.025146585  0.024945304            5 
 2408000   0.87108794   -7.3691677    727.22868  0.025167106  0.024938962            2 
 2409000   0.85577829   -7.3784313    729.57881  0.025237955  0.024932633            3 
 2410000   0.87212134   -7.3787754    729.63167  0.025229311  0.024926295            5 
 2411000   0.86047412   -7.3916037    727.58354  0.025148055  0.024919939            6 
 2412000   0.86384099   -7.3904158    728.12663  0.025156393   0.02491364            3 
 2413000   0.88019774   -7.3495907    728.58499  0.025161797  0.024907294            3 
 2414000    0.8690061   -7.3793319    728.59867  0.025151846  0.024901008            2 
 2415000    0.8541839   -7.3645936    729.56306  0.025174709  0.024894687            5 
 2416000   0.88528926   -7.3820298    728.16785  0.025116165  0.024888397            2 
 2417000   0.86272314   -7.3787469    728.82322  0.025128369   0.02488207            2 
 2418000   0.87151424   -7.3339675    729.58836  0.025144346  0.024875785            2 
 2419000   0.86485716   -7.3831561    730.69142  0.025171952  0.024869526            2 
 2420000   0.86461052   -7.3681305    728.92044  0.025100566  0.024863211            1 
 2421000   0.88306712   -7.3325258    730.00126  0.025127401  0.024856918            4 
 2422000   0.85085156   -7.3730827    729.90403  0.025113681  0.024850629            6 
 2423000   0.87015639   -7.3895688      730.774  0.025133237  0.024844317            2 
 2424000   0.84530403   -7.3522308    729.90672  0.025093053  0.024837995            2 
 2425000   0.87776685   -7.3270983    731.49842  0.025137403   0.02483175            3 
 2426000   0.87587827   -7.3441796    731.36864  0.025122583  0.024825512            3 
 2427000   0.86987595   -7.3671931    730.74572  0.025090843  0.024819255            2 
 2428000   0.85695381   -7.3386165    730.21367  0.025062248  0.024812985            2 
 2429000   0.86099325   -7.3858808    729.27593  0.025019759  0.024806669            7 
 2430000   0.85703377   -7.3878134    728.03051  0.024966753  0.024800307            8 
 2431000   0.85543253   -7.3392527    730.25246   0.02503265  0.024793952            4 
 2432000   0.86997761   -7.3791946    729.50654  0.024996798   0.02478765            2 
 2433000   0.85387487   -7.3785266    727.79984  0.024928067  0.024781306            3 
 2434000   0.86760712   -7.3771584     730.4221  0.025007604  0.024774985            5 
 2435000   0.85406997   -7.3685594    730.72589  0.025007731  0.024768689            2 
 2436000   0.86455792   -7.3550225    731.26678  0.025015968  0.024762423            3 
 2437000   0.86843659   -7.3670706    730.14578  0.024967371   0.02475617            6 
 2438000   0.86842868   -7.3216701    732.30438  0.025030913  0.024749899            3 
 2439000   0.84765291   -7.3574792    731.60283   0.02499668   0.02474356            3 
 2440000   0.87073523   -7.3750744    732.03987  0.025001362  0.024737218            3 
 2441000   0.85810678    -7.362351    732.99575  0.025023752  0.024730943            4 
 2442000   0.85459287   -7.3257504    733.65023  0.025035839  0.024724645           11 
 2443000   0.84536468   -7.3430224    731.63288  0.024956777  0.024718338            2 
 2444000   0.85518603   -7.3850729    733.09977  0.024996582  0.024712017            2 
 2445000   0.85952152   -7.3898478    731.89166  0.024945183   0.02470572            9 
 2446000   0.86172116   -7.3803631    732.60458  0.024959273  0.024699389            3 
 2447000   0.83702063   -7.3714543    733.40789   0.02497643  0.024693034            5 
 2448000   0.84755318   -7.3334979    732.68308  0.024941554  0.024686637            3 
 2449000   0.86543733   -7.3826779     732.3258  0.024919212  0.024680345            2 
 2450000   0.85907202    -7.397216    732.49277   0.02491472  0.024673959            2 
 2451000   0.84475366   -7.3404848    733.49021  0.024938468  0.024667647            4 
 2452000   0.84774244   -7.3734688    733.37483  0.024924376  0.024661331            4 
 2453000   0.86360006   -7.3366073    734.64807  0.024957469  0.024654997            5 
 2454000   0.87047568   -7.3399157    731.20947  0.024830531  0.024648683            3 
 2455000   0.84918856   -7.3271248    735.00823  0.024949363  0.024642361            2 
 2456000   0.88110368   -7.3787872    733.35101  0.024882974  0.024636061            4 
 2457000   0.86726022   -7.3538249    732.10796  0.024830687  0.024629716            3 
 2458000   0.85976667   -7.3422365    733.80478  0.024878111  0.024623352            3 
 2459000   0.84147785   -7.3829167    732.92351  0.024838129   0.02461697            1 
 2460000   0.85561865   -7.3759033    734.48504  0.024880929  0.024610585            2 
 2461000   0.85441788   -7.3538711     733.9256  0.024851876  0.024604251            1 
 2462000   0.87934157   -7.3427421    731.46859  0.024758617  0.024597868            3 
 2463000   0.84300297   -7.3776588    732.93253  0.024798096  0.024591468            5 
 2464000    0.8655967   -7.3712888    734.28034  0.024833615  0.024585059            1 
 2465000   0.85068445   -7.3738649    733.66536   0.02480275  0.024578678            2 
 2466000   0.84260427   -7.3225899    734.26608  0.024812993  0.024572321            4 
 2467000   0.87538447   -7.3948065    732.99635  0.024760044  0.024565962            3 
 2468000   0.88017029   -7.3628375    734.65472  0.024806008  0.024559547            3 
 2469000   0.85501185    -7.384716    732.66072   0.02472866  0.024553143            4 
 2470000   0.84255629   -7.3521809    733.37426  0.024742721  0.024546731            4 
 2471000   0.86624553   -7.3714786    734.42223  0.024768051  0.024540317            4 
 2472000   0.85299602   -7.3563838    733.50692  0.024727175   0.02453389            4 
 2473000    0.8610773   -7.3416989    735.60851  0.024787994  0.024527547            2 
 2474000    0.8521359   -7.3483583    734.56718  0.024742899  0.024521211            4 
 2475000    0.8352593   -7.3847455    734.28114  0.024723271  0.024514812            7 
 2476000   0.85359824   -7.3863572    734.22124  0.024711269  0.024508395            3 
 2477000   0.86391599   -7.3573189    734.81727  0.024721345  0.024501965            3 
 2478000   0.87038869   -7.3979058    733.61403  0.024670905  0.024495531            3 
 2479000   0.85315049   -7.3726899    735.44991  0.024722667  0.024489108            2 
 2480000     0.847864   -7.3622337    733.80965  0.024657582  0.024482674            7 
 2481000   0.84391984   -7.3815198    734.88975  0.024683923  0.024476273            7 
 2482000   0.85262379   -7.3727807    734.99754  0.024677597  0.024469832            3 
 2483000   0.84609652   -7.3813295    733.33582  0.024611888  0.024463369           10 
 2484000   0.84105112   -7.4067793    735.97365  0.024690474  0.024456849            3 
 2485000   0.86058227   -7.3562862     733.8085  0.024607931   0.02445037            3 
 2486000   0.88152321   -7.3645033    734.64241  0.024625986  0.024443955            3 
 2487000   0.86966933   -7.3781261     735.9271  0.024659131  0.024437561            6 
 2488000   0.84514263   -7.3664328    734.83355  0.024612592  0.024431124            4 
 2489000   0.85133423   -7.3494891    734.18216  0.024580895   0.02442469            1 
 2490000   0.84816508    -7.412363    733.93375  0.024562709  0.024418194            3 
 2491000   0.84834464   -7.3931157    733.11208  0.024525361  0.024411671            3 
 2492000   0.87745801   -7.3708726    736.14893  0.024617072  0.024405164            4 
 2493000   0.84748829   -7.3885066     734.5072   0.02455232  0.024398704            3 
 2494000   0.83774299   -7.3970717    733.36392  0.024504274   0.02439224            3 
 2495000   0.83743236   -7.3817454     735.4709  0.024564826  0.024385833            3 
 2496000   0.84145298    -7.365739    736.38346  0.024585452   0.02437946            5 
 2497000   0.83967772   -7.3814589    735.37491  0.024541947  0.024373014            9 
 2498000   0.84920072   -7.3667315    737.27773  0.024595601  0.024366546            4 
 2499000   0.84614536   -7.4099856    735.46708   0.02452538   0.02436004            4 
 2500000   0.86238319   -7.4296046    732.46399  0.024415466  0.024353509            3 
 2501000   0.83603185   -7.3868254    736.67834  0.024546126  0.024346974            4 
 2502000   0.85638306   -7.4052582    734.40578  0.024460624   0.02434039            3 
 2503000   0.84984559   -7.4006015    736.47312   0.02451968  0.024333869            3 
 2504000   0.84345404   -7.4020396    735.95047  0.024492494  0.024327368            4 
 2505000   0.84410373   -7.3648598    736.82886  0.024511938  0.024320878            3 
 2506000   0.84978579   -7.4023796    735.75275  0.024466372  0.024314422            9 
 2507000     0.863908   -7.3579097    735.39019  0.024444562  0.024307926            3 
 2508000   0.84328262   -7.3879819    736.53262  0.024472774  0.024301426            2 
 2509000   0.85119613   -7.3751335    737.72746  0.024502706  0.024294939            2 
 2510000    0.8518874   -7.3582129    737.93973  0.024499991  0.024288521            4 
 2511000   0.83978294   -7.3728092     736.8977  0.024455652  0.024282093            6 
 2512000   0.84772156   -7.3717541    737.40509  0.024462749   0.02427575            4 
 2513000   0.85602662   -7.3824167    739.30565  0.024516038   0.02426941            6 
 2514000   0.85129814   -7.3965406    738.59921   0.02448287  0.024263031            3 
 2515000   0.86102075   -7.3825045    738.31541  0.024463731  0.024256639            7 
 2516000   0.85329789   -7.4116805    738.71886  0.024467371  0.024250238            3 
 2517000   0.83819871   -7.4067871    737.35468  0.024412485  0.024243822            3 
 2518000   0.83161482   -7.4054574     739.8236  0.024484498   0.02423737            5 
 2519000   0.86138347   -7.3774333    737.47431  0.024397059  0.024230953            5 
 2520000   0.85649212   -7.3963342    738.56144  0.024423328  0.024224543            2 
 2521000   0.84342008   -7.3907632    738.10151  0.024398437  0.024218103            4 
 2522000    0.8491712   -7.3631476    739.12773  0.024422672  0.024211682            2 
 2523000   0.84707875    -7.393782    737.45172  0.024357634  0.024205247            8 
 2524000   0.84228878   -7.3664141    739.39502  0.024412144  0.024198805            2 
 2525000   0.84507879   -7.3956358    738.58285  0.024375672  0.024192334            4 
 2526000   0.85804084   -7.3793463    738.03458  0.024347934   0.02418585            3 
 2527000   0.85496546   -7.3911177    738.67268  0.024359342  0.024179444            2 
 2528000   0.84509277   -7.3995085    737.80285  0.024321033  0.024173009            2 
 2529000   0.84500356   -7.3925172    738.26293  0.024326576  0.024166544            3 
 2530000   0.81488622    -7.399634    739.00998  0.024341567  0.024160136            4 
 2531000   0.84115929   -7.3452955     741.1307  0.024401775  0.024153729            5 
 2532000   0.82565609   -7.4060258    742.00942  0.024421058   0.02414733            4 
 2533000   0.85724724   -7.3786072    741.33306  0.024389165  0.024140958            4 
 2534000   0.84382123   -7.3795845    740.71157  0.024359102  0.024134608            4 
 2535000   0.83202288   -7.3973843    739.19506   0.02429964  0.024128206            4 
 2536000   0.85278205   -7.3978269    740.38287   0.02432909  0.024121815            4 
 2537000   0.84747191   -7.4511163     739.7011  0.024297106  0.024115379            3 
 2538000   0.83704463    -7.436254    740.33605  0.024308381  0.024108913            4 
 2539000   0.82362025   -7.4261768    740.40021  0.024300913  0.024102496            6 
 2540000   0.84049128   -7.4024809    741.46032  0.024326126  0.024096064            8 
 2541000   0.85684015   -7.3793194    743.26633  0.024375781  0.024089716            5 
 2542000   0.84435336   -7.3937665    741.09176  0.024294904  0.024083408            3 
 2543000   0.84796539    -7.422154    739.12432  0.024220878  0.024077038            5 
 2544000   0.85255102   -7.3581881    743.93219  0.024368848  0.024070742            4 
 2545000   0.83314552   -7.3917727    743.35419  0.024340347  0.024064445            2 
 2546000    0.8581784   -7.3887666    742.17733  0.024292267  0.024058134            3 
 2547000   0.82256964   -7.4065177    742.00556  0.024277109  0.024051804            5 
 2548000   0.85257325   -7.4142424    741.32446  0.024245306  0.024045488            3 
 2549000   0.84277684   -7.4120766    743.63134  0.024311212  0.024039216            3 
 2550000   0.82161507   -7.3925509    743.11085  0.024284668  0.024032886            8 
 2551000   0.85398496   -7.4417026     740.8748  0.024202104  0.024026512            6 
 2552000   0.84719358   -7.3876788    741.35499    0.0242083  0.024020108            4 
 2553000   0.85380417   -7.4140104    741.03382  0.024188335  0.024013743            4 
 2554000    0.8389857   -7.4105749    742.46586  0.024225589  0.024007374            2 
 2555000   0.85323802   -7.3996011    742.08942   0.02420383  0.024001011            4 
 2556000   0.83810153   -7.3968722    743.82897  0.024251075  0.023994628            3 
 2557000   0.85287798   -7.4035816    741.93288  0.024179797  0.023988284            7 
 2558000   0.83890381   -7.3842024    743.54811  0.024222964  0.023981912            4 
 2559000   0.85196373   -7.3921121    743.61534  0.024215688   0.02397556            2 
 2560000   0.84444014    -7.377748    743.30455  0.024196112  0.023969179            2 
 2561000   0.85319737   -7.4326286    742.24848    0.0241523  0.023962813            2 
 2562000   0.84609015   -7.4120069    742.27783  0.024143827  0.023956384            6 
 2563000    0.8540792   -7.3959567    742.86718  0.024153569  0.023949936            4 
 2564000   0.83532176   -7.3945834    745.49067  0.024229416   0.02394352            3 
 2565000    0.8273027   -7.4345016    742.80414  0.024132688  0.023937135            3 
 2566000   0.85780957   -7.3609976    745.20555  0.024201271  0.023930784            4 
 2567000   0.84876631   -7.3956876    745.10534   0.02418859  0.023924458            4 
 2568000   0.83478589   -7.4440812    743.91147  0.024140429  0.023918094            2 
 2569000   0.84492649   -7.4258981    742.75665  0.024093573   0.02391172            3 
 2570000   0.84396785   -7.4313661     742.5453  0.024077344  0.023905341            4 
 2571000   0.83493289   -7.4001393    744.73289  0.024138885  0.023899008            4 
 2572000   0.85167357   -7.4029684    743.32499  0.024083884  0.023892692            4 
 2573000   0.84053456   -7.4082919    745.96833  0.024160135  0.023886343            2 
 2574000   0.83557799   -7.4272547    744.52791  0.024104115  0.023880024            3 
 2575000   0.84671745   -7.4329759    745.68121  0.024132078  0.023873667            5 
 2576000   0.84643193    -7.428283    743.26112   0.02404442  0.023867324            3 
 2577000   0.85097195   -7.4294982    744.17328  0.024064587   0.02386094            6 
 2578000   0.84419375   -7.3900294    744.70612  0.024072476  0.023854579            6 
 2579000   0.85037875   -7.3934003    746.53026  0.024122084   0.02384825            4 
 2580000   0.82756593   -7.3901712    743.35689  0.024010235   0.02384193            1 
 2581000   0.84100841   -7.4285604    745.54276  0.024071508  0.023835559            4 
 2582000   0.84571716   -7.4240374    743.85976  0.024007867  0.023829201            6 
 2583000     0.830819   -7.4011455    744.85264  0.024030605  0.023822863            5 
 2584000   0.81740507   -7.4179737    745.30679  0.024035952  0.023816516            4 
 2585000   0.83493563   -7.4009777    745.01771  0.024017334  0.023810147            4 
 2586000   0.82344387   -7.4300506    744.79276  0.024000798  0.023803762            4 
 2587000   0.86882894   -7.4282598    746.95863  0.024061288  0.023797414            5 
 2588000   0.83116742   -7.4108004     746.7137  0.024044104  0.023791057            3 
 2589000   0.84243965   -7.4256209    745.72444  0.024002975  0.023784729            4 
 2590000   0.84129118   -7.4213559    746.72139  0.024025785  0.023778336            3 
 2591000   0.81965325     -7.42768    745.84376  0.023988285  0.023771936            4 
 2592000   0.86118465   -7.4135483    745.96561  0.023982948   0.02376558            4 
 2593000   0.82659426   -7.4095275    744.93133  0.023940459   0.02375921            4 
 2594000   0.84789392   -7.4143989    745.41019  0.023946613  0.023752796            3 
 2595000   0.83402898   -7.4427436    746.00773  0.023956575   0.02374643            3 
 2596000   0.81887212   -7.4414181    746.97129  0.023978277  0.023740038            2 
 2597000    0.8369063   -7.4372254    746.36979  0.023949743  0.023733645            6 
 2598000   0.82548549   -7.4214342    745.76165  0.023921018  0.023727279            8 
 2599000   0.82961433   -7.4026655    747.46147  0.023966316  0.023720932            4 
 2600000   0.84642706   -7.4071842    747.53378  0.023959416  0.023714586            3 
 2601000   0.83277028   -7.4436634    747.63325  0.023953391  0.023708267            4 
 2602000   0.81840665   -7.4053848    749.32388  0.023998331  0.023701981            6 
 2603000   0.84026961   -7.4240251    747.35722   0.02392615  0.023695671            5 
 2604000   0.83740341   -7.3920555    747.76209  0.023929918  0.023689385            5 
 2605000   0.83585579   -7.4099293    747.34269  0.023907316  0.023683113            2 
 2606000   0.84874644   -7.3752634     747.0033  0.023887289  0.023676823            4 
 2607000   0.83924307   -7.4439353    746.33631  0.023856806  0.023670468            5 
 2608000   0.82494303   -7.4508823    748.28435  0.023909904  0.023664159            2 
 2609000   0.83721864   -7.4266193    747.86581  0.023887371  0.023657846            3 
 2610000   0.83469357   -7.4110046    748.23261   0.02388993  0.023651553            4 
 2611000   0.82200353     -7.44857     748.4342  0.023887214  0.023645251            3 
 2612000   0.83815572   -7.4055625    748.85248  0.023891414  0.023638915            4 
 2613000    0.8184964   -7.4328863    749.39473  0.023899564  0.023632665            4 
 2614000   0.84513417   -7.4120761    749.73872  0.023901387  0.023626371            6 
 2615000   0.84014907   -7.4201472    748.32796   0.02384729  0.023620116            4 
 2616000   0.82248599   -7.4534007    749.85923  0.023886953   0.02361377            4 
 2617000   0.84279032   -7.3771048    749.84895  0.023877498  0.023607469            3 
 2618000   0.81116663   -7.4072084    752.63842  0.023957169  0.023601188            2 
 2619000   0.82750323   -7.4366533    747.78929  0.023793728  0.023594906            3 
 2620000   0.84095881    -7.444712    747.87079  0.023787239  0.023588632            3 
 2621000   0.82310712   -7.4241956    749.60656  0.023833351  0.023582305            3 
 2622000   0.84369235    -7.433426    751.09566  0.023871588  0.023576015            3 
 2623000    0.8326871   -7.4346867    750.76221  0.023851894  0.023569728            5 
 2624000   0.81433588   -7.4110981     749.3764  0.023798793  0.023563441            2 
 2625000   0.82297681   -7.4490172    750.54209  0.023826733  0.023557169            3 
 2626000   0.82988504   -7.4202824    751.15441  0.023837091  0.023550934            7 
 2627000    0.8473015    -7.446319    749.92668  0.023789071  0.023544639            2 
 2628000   0.84446946   -7.4376464    750.53989  0.023799464  0.023538361            3 
 2629000   0.81796364   -7.4605271    748.57717  0.023728197  0.023532039            4 
 2630000   0.83387205   -7.4296563    750.11597  0.023767933  0.023525689            3 
 2631000   0.82894411   -7.4320064     749.9097  0.023752366  0.023519367            3 
 2632000    0.8268984   -7.4466151    749.42475  0.023727987   0.02351303            2 
 2633000   0.82791703   -7.4370146    751.16602  0.023774086  0.023506655            3 
 2634000    0.8538091   -7.4409557    749.97942  0.023727519  0.023500336            2 
 2635000    0.8324699   -7.4437368    750.80667  0.023744676  0.023494045            5 
 2636000   0.83367906   -7.4383058    751.39978  0.023754419  0.023487719            3 
 2637000    0.8230677   -7.4196442    750.62282  0.023720858  0.023481403            4 
 2638000   0.82895727   -7.4217617     751.9138  0.023752647  0.023475071            3 
 2639000   0.83391732    -7.429125    750.68646   0.02370489  0.023468739            3 
 2640000   0.80718018   -7.4349187    752.52651  0.023753993  0.023462385            4 
 2641000   0.83243681    -7.456622    750.64882  0.023685751  0.023456014            4 
 2642000   0.83365523   -7.4396769    751.19353  0.023693967   0.02344969            5 
 2643000   0.82827671   -7.4228089    750.49684  0.023663036  0.023443377            3 
 2644000   0.85084783    -7.418976    750.28417  0.023647383  0.023437072            1 
 2645000   0.84423953   -7.4446469    750.92592  0.023658662  0.023430763            6 
 2646000   0.84282255   -7.4252723    751.40062  0.023664671  0.023424478            3 
 2647000    0.8319329   -7.4751426    750.85251  0.023638475  0.023418167            4 
 2648000   0.82697254   -7.4487395    752.38406  0.023677746  0.023411855            2 
 2649000   0.83232891   -7.4718466    750.69859  0.023615786  0.023405567            5 
 2650000   0.82302152   -7.4144656    753.64015  0.023699376  0.023399311            3 
 2651000   0.83219312   -7.4596769    751.50586  0.023623345  0.023393076            4 
 2652000   0.82198111    -7.462089    753.07961  0.023663889  0.023386835            3 
 2653000    0.8315155   -7.4019404    753.68402  0.023673955  0.023380632            3 
 2654000   0.83395808   -7.4680798    753.75225  0.023667177  0.023374426            4 
 2655000    0.8278541   -7.4701779    753.66697  0.023655586  0.023368187            4 
 2656000   0.84252976   -7.4411098    753.35881  0.023637011  0.023361968            4 
 2657000   0.83576748   -7.4442046    752.36564  0.023596965  0.023355745            4 
 2658000   0.83523161   -7.4248838    755.76455   0.02369465   0.02334951            2 
 2659000   0.82002515    -7.442503    753.12934  0.023603151  0.023343303            8 
 2660000   0.82618061   -7.4223441    755.37862  0.023664744  0.023337052            3 
 2661000    0.8262015   -7.4675798    752.94983  0.023579789  0.023330832            4 
 2662000   0.81492598    -7.430567    755.64779   0.02365539  0.023324627            2 
 2663000   0.80698185    -7.443431    756.61967   0.02367692  0.023318466            4 
 2664000   0.82226117   -7.4592714    754.74851  0.023609501  0.023312308            3 
 2665000   0.81598172   -7.4312109    756.81088  0.023665131  0.023306125            4 
 2666000   0.80564108   -7.4621244     754.0165  0.023568908  0.023299962            4 
 2667000   0.82480927   -7.4384053    755.35241  0.023601812  0.023293783           11 
 2668000   0.81879313   -7.4301033    756.04548  0.023614614  0.023287637            5 
 2669000   0.83961624    -7.440363    756.12831  0.023608352  0.023281517            1 
 2670000   0.81300344   -7.4704135    754.60351   0.02355192  0.023275356            4 
 2671000   0.81227768   -7.4297298    754.31274   0.02353403  0.023269161            5 
 2672000   0.82124209   -7.4458955    756.11504  0.023581432  0.023262982            4 
 2673000   0.82035769   -7.4515804     755.7523  0.023561301  0.023256813            4 
 2674000   0.82094793   -7.4273972    755.17098  0.023534374  0.023250646            2 
 2675000   0.81317139   -7.4413959    755.58283  0.023538406  0.023244508           11 
 2676000   0.80272897   -7.4296871    757.10671  0.023577065  0.023238371            3 
 2677000   0.83325689   -7.4231505    757.08975   0.02356773  0.023232245           13 
 2678000   0.82281188   -7.4019541    756.25472  0.023532945    0.0232261            5 
 2679000   0.82112515   -7.4660935    756.75056  0.023539585  0.023219931            3 
 2680000   0.81480679    -7.468528     755.2036  0.023482699  0.023213774            3 
 2681000   0.81536099    -7.475269    755.44697  0.023481505  0.023207606            8 
 2682000   0.84184721   -7.4263586    756.01379  0.023490361  0.023201428            7 
 2683000   0.82525541   -7.4572129    755.54778  0.023467132  0.023195238            3 
 2684000   0.82378214   -7.4401359    756.05486  0.023474133  0.023189046            3 
 2685000    0.8297346   -7.4505511    756.44023   0.02347735  0.023182884            3 
 2686000   0.80657587   -7.4385218    757.60017  0.023504597  0.023176744            5 
 2687000    0.8293236   -7.4393126     758.2681  0.023516564  0.023170589            4 
 2688000   0.80724996   -7.4558053    755.86842  0.023433421  0.023164482            2 
 2689000   0.82448129   -7.4487275    756.96506  0.023458692  0.023158381            5 
 2690000   0.82508433   -7.4803573    758.26524  0.023490249  0.023152292            3 
 2691000   0.82251298   -7.4710215    755.57337   0.02339816  0.023146149            4 
 2692000   0.82262809   -7.4834475    757.18938  0.023439493  0.023140012            3 
 2693000   0.81083509   -7.4644098    756.37659  0.023405638  0.023133873            4 
 2694000   0.82209413   -7.4461297    758.37824  0.023458867  0.023127763            4 
 2695000   0.81534817   -7.4812898    757.36689   0.02341889  0.023121666            4 
 2696000   0.82604023   -7.4493728    758.22241  0.023436647  0.023115551            4 
 2697000   0.83997621   -7.4364902    758.67712  0.023442007  0.023109453            3 
 2698000   0.80448202   -7.4266606    758.71665   0.02343454  0.023103395            4 
 2699000   0.83732938   -7.4162103    759.53672  0.023451177  0.023097338            2 
 2700000   0.83528478   -7.4716328    758.40298  0.023407499  0.023091218            5 
 2701000   0.82220915    -7.476843    758.15781  0.023391269  0.023085105            2 
 2702000   0.81704581   -7.4482922    759.21757  0.023415296  0.023078975            2 
 2703000   0.80986481   -7.4507161    760.05634  0.023432493  0.023072896            3 
 2704000   0.80237729   -7.4780822    758.33368  0.023370737  0.023066792            2 
 2705000   0.80678787   -7.4707316    759.01546  0.023383101  0.023060706            7 
 2706000   0.80386919    -7.464187    759.35098  0.023384792  0.023054625            9 
 2707000   0.81075911   -7.4348778    758.68529  0.023355661   0.02304852           12 
 2708000   0.83885886   -7.4411255    759.88894  0.023384076  0.023042413            3 
 2709000   0.80514075   -7.4724617    758.74832  0.023340357  0.023036342            5 
 2710000   0.81904082   -7.4427315    760.55176    0.0233872   0.02303027            3 
 2711000   0.81066443   -7.4521448     759.0027  0.023330957  0.023024186            5 
 2712000   0.81255889   -7.4357928    760.63553  0.023372527  0.023018137            6 
 2713000   0.82857988   -7.4563568    759.55854  0.023330831    0.0230121            5 
 2714000   0.82154715   -7.4207631    761.28564  0.023375265  0.023006014            2 
 2715000   0.82772246   -7.4499604    762.01838  0.023389146  0.022999955            3 
 2716000    0.8309244   -7.4837637    760.38389  0.023330384  0.022993903            2 
 2717000    0.8242198   -7.4739684    760.04125  0.023311289  0.022987837            5 
 2718000   0.80311722   -7.4763104    760.94354  0.023330376  0.022981745            4 
 2719000   0.83491573   -7.4697142    761.45292  0.023337407  0.022975662            4 
 2720000   0.82264803   -7.4544065    760.75932  0.023307577  0.022969611            4 
 2721000   0.80254417   -7.4476564    761.23107  0.023313459  0.022963527           15 
 2722000   0.81682486   -7.4466669    761.82593  0.023323106  0.022957436            5 
 2723000   0.82516485    -7.476216    761.97696  0.023319163  0.022951371            6 
 2724000   0.79946372   -7.4460678    760.99143  0.023280453   0.02294527            2 
 2725000    0.8180481   -7.4750121    760.77735  0.023265362  0.022939192            4 
 2726000   0.82300747   -7.4729513    760.12737  0.023236958  0.022933148            7 
 2727000   0.81089631   -7.4226759    760.92175  0.023252712  0.022927066            3 
 2728000   0.83766746   -7.4639832    762.52878  0.023293279  0.022921016            8 
 2729000   0.81819407    -7.473409    761.26673  0.023246205  0.022914934            4 
 2730000   0.82199257   -7.4794879    762.30558  0.023269401  0.022908837            3 
 2731000   0.80335721    -7.471934    762.58802  0.023269499  0.022902787            3 
 2732000   0.81942596   -7.4746065    762.19142  0.023248884  0.022896706            4 
 2733000   0.82515025   -7.5047833    760.69087  0.023194623  0.022890634            3 
 2734000   0.81911016   -7.4812809    763.12644  0.023260377  0.022884589            4 
 2735000    0.8076763   -7.4810636     762.1617  0.023222477  0.022878565            2 
 2736000   0.81089246   -7.4542534    763.41144  0.023252054  0.022872539            2 
 2737000   0.80038555   -7.4381649    763.04496    0.0232324  0.022866535            5 
 2738000   0.81217552   -7.4470453    763.73064  0.023244784  0.022860544            4 
 2739000   0.80372024   -7.4453633    764.35376  0.023255256  0.022854559            3 
 2740000    0.7993569   -7.4795881    763.83884  0.023231108   0.02284856            4 
 2741000   0.80068592    -7.462831     764.5915  0.023245516  0.022842579            4 
 2742000   0.80272649   -7.4596674    763.84154  0.023214246  0.022836586            4 
 2743000   0.79054012   -7.4606784    764.42667  0.023223559  0.022830581            3 
 2744000   0.80945557   -7.4643604    764.74848  0.023224869  0.022824595            5 
 2745000   0.81826328   -7.4742711    763.65679  0.023183266   0.02281863            3 
 2746000   0.79422798   -7.4236515     763.7593  0.023177934  0.022812663            3 
 2747000   0.83349042   -7.4511156    763.92443  0.023174506  0.022806708            3 
 2748000   0.80133109      -7.4586    764.67317  0.023188779  0.022800739            4 
 2749000   0.81669531   -7.4813491    763.94309  0.023158212  0.022794741            3 
 2750000   0.82309441   -7.4924014    766.27997  0.023220605  0.022788729            4 
 2751000   0.78906992    -7.482588     763.9399  0.023141279  0.022782674            4 
 2752000   0.80708272   -7.4822498    765.52424  0.023180845  0.022776656            5 
 2753000   0.81714418   -7.5043881    763.86355  0.023122156  0.022770663            4 
 2754000   0.81045312   -7.4745279    764.24884  0.023125419  0.022764628            3 
 2755000   0.79372015    -7.487801    764.10839  0.023112776  0.022758595            3 
 2756000   0.81793235   -7.4615754    764.18209  0.023106618  0.022752541            5 
 2757000   0.80561042   -7.4744572    765.03179  0.023123921  0.022746502            4 
 2758000    0.7995293   -7.4688449    764.31505   0.02309388  0.022740481            8 
 2759000   0.80209256    -7.438687     765.6138  0.023124737  0.022734437            3 
 2760000   0.81576606   -7.4925581    764.71257  0.023089148  0.022728446            5 
 2761000   0.80570689   -7.4577988    764.37449  0.023070581  0.022722452            1 
 2762000   0.80905178   -7.4799135    764.28091  0.023059405  0.022716471            4 
 2763000   0.81331787   -7.4839807     764.3031  0.023051728  0.022710512            8 
 2764000   0.81461516    -7.467777    765.74246  0.023086784  0.022704549            6 
 2765000   0.79133526   -7.4953524    765.86372  0.023082089  0.022698594            2 
 2766000   0.79213423   -7.4531553    765.12988  0.023051635  0.022692596            2 
 2767000   0.80922921   -7.4903823     765.4791  0.023053822    0.0226866            3 
 2768000   0.79852585   -7.5031526    765.44329  0.023044415  0.022680601            5 
 2769000   0.80798256   -7.4999028    764.70586    0.0230139  0.022674572            5 
 2770000   0.82110603   -7.4658829    766.13829  0.023048685   0.02266857            3 
 2771000   0.80341916    -7.467112    767.19324  0.023072093   0.02266257           10 
 2772000   0.80185368    -7.506941    765.78407  0.023021406  0.022656572            3 
 2773000   0.79894582   -7.4528346    765.71549  0.023011044  0.022650583            4 
 2774000   0.81257759   -7.4855423    765.54744    0.0229977  0.022644622            4 
 2775000   0.78592546   -7.4441896     768.4729  0.023077264  0.022638729            3 
 2776000   0.81603435   -7.4710381     769.5089  0.023100051  0.022632802            4 
 2777000   0.79900002   -7.4849795    767.02207  0.023017107  0.022626888            3 
 2778000   0.81061699   -7.4930078    767.93715  0.023036271  0.022620948            3 
 2779000   0.82093759    -7.470701     768.4127  0.023042242  0.022615045            7 
 2780000   0.80981437   -7.4820823    767.86731  0.023017605  0.022609171            5 
 2781000   0.80738971   -7.5023479    767.37019  0.022994432  0.022603303            4 
 2782000    0.8007528   -7.4999415    769.02763  0.023035814   0.02259739            1 
 2783000   0.79271231   -7.4900668    767.29188  0.022975562  0.022591442            6 
 2784000   0.79936303   -7.4830856    766.96241  0.022957448  0.022585495            5 
 2785000   0.79587862   -7.4854713    768.75523  0.023002849   0.02257957            4 
 2786000   0.79005602    -7.472669    767.78758  0.022965649  0.022573645            5 
 2787000   0.79928446    -7.507649    768.37081  0.022974848  0.022567699            2 
 2788000   0.80209083   -7.4986306    769.89475  0.023012158  0.022561707            6 
 2789000    0.8183752   -7.4868659      769.622  0.022995757  0.022555763            3 
 2790000   0.80121169   -7.4849278    766.89827  0.022906161  0.022549824            5 
 2791000   0.80768106    -7.496905    767.97528  0.022930111  0.022543934            6 
 2792000   0.79995412   -7.4894127    768.74844  0.022944975  0.022538049            4 
 2793000   0.80207705   -7.4810365    770.26748  0.022982083  0.022532159            3 
 2794000   0.81864458    -7.503378    769.01567  0.022936521  0.022526242            5 
 2795000   0.80505287   -7.4817129    769.43946   0.02294095  0.022520323            3 
 2796000   0.79081844    -7.489856    769.23527  0.022926659  0.022514349            5 
 2797000   0.79568171   -7.5013422    767.16527  0.022856789  0.022508392           14 
 2798000   0.82034408    -7.497017    766.67369  0.022833979  0.022502463            5 
 2799000   0.80001933   -7.4889993    768.47384  0.022879416  0.022496522            4 
 2800000   0.79213733   -7.4811791    769.03409  0.022887919  0.022490587            3 
 2801000   0.81065351   -7.4729731    770.21803  0.022914972  0.022484657            2 
 2802000   0.80818171   -7.4698453    768.47338  0.022854906  0.022478768            3 
 2803000   0.79612039   -7.4747156     770.1787  0.022897452  0.022472879            3 
 2804000    0.8158443    -7.476131    768.30918  0.022833725  0.022466961            3 
 2805000   0.81086225   -7.4767042    769.80351   0.02286998  0.022461045            4 
 2806000   0.80063423   -7.5087692    768.27719    0.0228165  0.022455106            3 
 2807000   0.78399053    -7.510934    769.03997  0.022831017  0.022449169            6 
 2808000   0.81577112   -7.5036823    769.80707  0.022845651  0.022443197            3 
 2809000   0.80418956   -7.5013868     768.1099  0.022787169  0.022437238            4 
 2810000   0.80266973   -7.4927681    767.31946  0.022755619  0.022431275            2 
 2811000   0.78578685   -7.4837294    770.43244  0.022839809  0.022425318            4 
 2812000   0.80755234   -7.5022982    770.91433  0.022845968  0.022419347            4 
 2813000   0.79087482   -7.5108087    769.64689  0.022800299  0.022413358            4 
 2814000    0.8131479   -7.5311317    768.24873  0.022750792  0.022407323            6 
 2815000   0.79894483   -7.4897633     769.0745  0.022767155   0.02240132            3 
 2816000   0.80065937   -7.4932168    769.60451  0.022774755   0.02239537            4 
 2817000   0.79906786   -7.5137893    769.93602  0.022776477  0.022389412            7 
 2818000   0.78971582   -7.4883645    771.07524  0.022802083  0.022383445            8 
 2819000   0.80941579   -7.4768139    771.29734   0.02280056  0.022377519            4 
 2820000   0.78153463   -7.4782282    770.39912  0.022765932  0.022371574            6 
 2821000   0.80464415   -7.5185895    768.33846  0.022696989   0.02236561            8 
 2822000   0.79948667    -7.525195    770.18491  0.022743471  0.022359614            3 
 2823000   0.78426903   -7.5056299    768.14729  0.022675265  0.022353648            3 
 2824000   0.82221528   -7.5089393    769.85974  0.022717769  0.022347679            5 
 2825000   0.81373378   -7.5056342     770.7108  0.022734832  0.022341716            2 
 2826000   0.79486375   -7.5108386    771.83785  0.022760022  0.022335783            2 
 2827000    0.7907439   -7.5251756    772.90698  0.022783486  0.022329859            4 
 2828000   0.79661836   -7.5126629    770.49489  0.022704352  0.022323966            5 
 2829000   0.80422018   -7.4856188    772.27727   0.02274883  0.022318066            3 
 2830000   0.82265088   -7.5091723    770.41312  0.022685899  0.022312148            5 
 2831000   0.79981243   -7.5089714    770.09277  0.022668455  0.022306178            5 
 2832000   0.79124232   -7.4944369    770.19456  0.022663446   0.02230021            3 
 2833000    0.7825393   -7.5374243    770.54919  0.022665878  0.022294232            3 
 2834000   0.81054733   -7.5139273    769.48561  0.022626606  0.022288275            6 
 2835000    0.8104569   -7.5168175    769.45259  0.022617654  0.022282336            5 
 2836000   0.80343384   -7.5129418    773.57751  0.022730886  0.022276334            2 
 2837000   0.80324873   -7.5413117    770.08197  0.022620196  0.022270377            3 
 2838000   0.80869637   -7.4760953    771.53153   0.02265479  0.022264435            3 
 2839000   0.79283633   -7.5025361    772.06155  0.022662368  0.022258513            5 
 2840000   0.78647047   -7.5182377     771.9988  0.022652547  0.022252587            8 
 2841000   0.80655211   -7.5144191    771.78383  0.022638268   0.02224665            4 
 2842000   0.80325289   -7.5130875    771.72359  0.022628536  0.022240696            6 
 2843000   0.77682373   -7.4943324    772.24786  0.022635944  0.022234757           11 
 2844000   0.77925016   -7.4844945    770.86782  0.022587548  0.022228787            3 
 2845000   0.79916733   -7.5165608    772.80768  0.022636429  0.022222822            4 
 2846000     0.796355   -7.4805185    770.91917  0.022573178  0.022216875            7 
 2847000   0.78082754   -7.5143003    770.09162  0.022541026  0.022210912            3 
 2848000   0.79849403   -7.5248228    770.55227   0.02254659  0.022204937            3 
 2849000   0.79742637   -7.5221181    770.24234  0.022529611  0.022198975            5 
 2850000   0.81591827   -7.5128384    771.43266  0.022556511  0.022192977            5 
 2851000   0.78263164   -7.5151173    769.68477  0.022497509  0.022186974            2 
 2852000   0.81165959   -7.5524289    771.34227  0.022538051  0.022180995            4 
 2853000   0.80352348    -7.499624     773.0441   0.02257986  0.022175044            3 
 2854000   0.80425818   -7.5053296    772.25029   0.02254877  0.022169122            4 
 2855000    0.7930908   -7.5095515    772.74677  0.022555364  0.022163206            5 
 2856000   0.79403059   -7.5230399    771.24313  0.022503593  0.022157256            3 
 2857000   0.78505505    -7.528757    773.49052  0.022561268  0.022151282            5 
 2858000   0.78521998   -7.5303394    771.89846  0.022506953  0.022145274            6 
 2859000   0.78778958   -7.5304791    771.67726  0.022492633  0.022139268            6 
 2860000   0.79181954   -7.4976312    774.26063  0.022560042  0.022133297            6 
 2861000   0.78833503   -7.5292323    772.53128  0.022501785  0.022127342            3 
 2862000   0.77918231   -7.5324985    771.75528  0.022471328  0.022121394            7 
 2863000   0.80656462   -7.5112407    772.61997  0.022488648  0.022115452            4 
 2864000   0.79773009    -7.498683    773.76775  0.022514192   0.02210955            4 
 2865000   0.80780948   -7.5044861     774.1007  0.022516018  0.022103648            9 
 2866000   0.79227895   -7.4980214    773.64635  0.022494951  0.022097776            3 
 2867000   0.77438425   -7.5117912    773.52182  0.022483485   0.02209187            3 
 2868000   0.80178992   -7.5226322    773.70011  0.022480826   0.02208599            3 
 2869000   0.80706461   -7.5100476    775.09592  0.022513533  0.022080095            9 
 2870000   0.80767946   -7.4841707    774.45097  0.022486962  0.022074232            5 
 2871000   0.79759101   -7.4976341    775.18255  0.022500364  0.022068354            4 
 2872000   0.79118573    -7.494892    774.97241  0.022486433  0.022062503            5 
 2873000   0.80225722   -7.5067415    775.46974  0.022493031  0.022056648            2 
 2874000   0.79594723   -7.4925155    774.35772  0.022452961  0.022050783            5 
 2875000   0.79615864   -7.5028649    773.30991   0.02241478  0.022044889            2 
 2876000   0.79666241   -7.5309973    774.78706  0.022449787   0.02203899            4 
 2877000   0.77516296   -7.4958541    775.80925  0.022471592  0.022033095           12 
 2878000   0.78943508    -7.489806    772.08938  0.022356074  0.022027193            3 
 2879000   0.77352217   -7.5053994    775.26691  0.022440283   0.02202132            2 
 2880000   0.79476901   -7.5164548    775.10258  0.022427737  0.022015417           10 
 2881000   0.78984351   -7.5047404    775.88934  0.022442709  0.022009493            7 
 2882000   0.80997505   -7.5208035    774.39022  0.022391575  0.022003561            4 
 2883000   0.77621949   -7.5095693    774.01208  0.022372878  0.021997642            4 
 2884000   0.77707762   -7.5332035    774.41434  0.022376743  0.021991701            2 
 2885000   0.77156303   -7.5273807    775.09759  0.022388723  0.021985785            5 
 2886000   0.78579424   -7.5180577    773.58211  0.022337206  0.021979858            4 
 2887000   0.77552382   -7.5270084    774.38809  0.022352733  0.021973926            9 
 2888000   0.78596598   -7.5308685    773.33369  0.022314569  0.021967996            5 
 2889000   0.77832038   -7.5076612    775.62989  0.022373079  0.021962034            4 
 2890000    0.7905256   -7.5264846    774.37961  0.022329285  0.021956057            8 
 2891000   0.79684477   -7.5411352    773.91503   0.02230817  0.021950097            5 
 2892000   0.78421315   -7.5561565    771.89529  0.022242257  0.021944104            7 
 2893000   0.78126768   -7.5232356    775.09357  0.022326696  0.021938112            2 
 2894000   0.79383843   -7.5173189    775.41355  0.022328195  0.021932134            2 
 2895000   0.78989412   -7.5212265    774.87622  0.022305015  0.021926169            3 
 2896000   0.79123237   -7.5240069    773.48839  0.022257378  0.021920156            7 
 2897000   0.79300181   -7.5191007    774.76589  0.022286443  0.021914168            4 
 2898000   0.78861496   -7.5263176    773.36656  0.022238514  0.021908162            3 
 2899000   0.79406556   -7.5306403    775.32566  0.022287158  0.021902139            8 
 2900000   0.79362582   -7.5092999    775.95467  0.022297548  0.021896125            4 
 2901000   0.79133438   -7.5069943    773.78437  0.022227518  0.021890084            6 
 2902000   0.78457975   -7.5312557    773.00573    0.0221975  0.021884042            5 
 2903000   0.78132298   -7.5227574    774.03595  0.022219427  0.021877973            6 
 2904000   0.79526276   -7.5585561    773.20874  0.022188038  0.021871919            3 
 2905000   0.78236163   -7.5229014    773.72027  0.022195074  0.021865896            4 
 2906000    0.7923543    -7.533884     772.8091  0.022161307   0.02185985            5 
 2907000   0.79525077   -7.5356598    773.70084  0.022179247  0.021853794            4 
 2908000   0.79119158   -7.5413018    774.03935   0.02218132  0.021847757            7 
 2909000   0.79434388   -7.5405674    774.27522  0.022180452  0.021841756            5 
 2910000   0.78355391   -7.5794229    773.22165  0.022142659  0.021835706            6 
 2911000    0.7822347   -7.5228059    773.85686  0.022153237   0.02182967            6 
 2912000   0.79089486   -7.5125928    775.91816  0.022204618  0.021823665            4 
 2913000   0.79538216    -7.528592     773.9644  0.022141103  0.021817655            5 
 2914000   0.79605864   -7.5117065    775.33677  0.022172751  0.021811646            4 
 2915000    0.7770935   -7.5694505    774.18592  0.022132245   0.02180562            7 
 2916000   0.79449441   -7.5366613    774.58272  0.022135995  0.021799628            5 
 2917000   0.76653194   -7.5366707     775.5531  0.022156128  0.021793638            2 
 2918000   0.78399995   -7.5393671    775.02559   0.02213347  0.021787639            5 
 2919000   0.78102034   -7.5431232    773.67127  0.022087224  0.021781624            8 
 2920000   0.78086271   -7.5350119    774.02388  0.022089722  0.021775582           11 
 2921000   0.77868334   -7.5445857    773.56705  0.022069127  0.021769519            3 
 2922000   0.79689878   -7.5489221    775.65828  0.022121215   0.02176351            8 
 2923000   0.78210103    -7.540748    773.08525  0.022040291  0.021757475            7 
 2924000   0.81963006   -7.5346742    775.56008  0.022103285  0.021751438            5 
 2925000   0.77169595   -7.5378486    776.33307  0.022117751  0.021745403            5 
 2926000   0.79516109   -7.5291271    774.77897  0.022065931  0.021739382            3 
 2927000   0.79388167   -7.5247909    774.69971  0.022056136  0.021733351            4 
 2928000    0.7900687   -7.5071097    775.43436  0.022069512  0.021727311            4 
 2929000   0.79757766   -7.5356764    776.23729  0.022084821  0.021721303            3 
 2930000   0.78354615   -7.5470225    775.24023  0.022048926  0.021715296            4 
 2931000   0.79027938   -7.5282986    777.12292  0.022094931   0.02170931            2 
 2932000   0.77542893   -7.5395825    777.05128  0.022085359  0.021703318            2 
 2933000   0.79198141   -7.5013001     777.3718  0.022086936   0.02169734            4 
 2934000   0.77448373   -7.5411526    777.11078  0.022071994  0.021691381            4 
 2935000   0.78191737   -7.4916154    776.56347  0.022048934  0.021685432            2 
 2936000    0.7785755   -7.5362984    779.01085  0.022110889  0.021679471            3 
 2937000   0.79144346   -7.5546789    776.98299  0.022045823  0.021673517            3 
 2938000   0.77310826   -7.5059643    777.80937  0.022061759  0.021667552            2 
 2939000   0.78880974   -7.5577922    777.02984  0.022032149  0.021661542            7 
 2940000   0.79524672   -7.5687296    776.93573  0.022021988  0.021655519            6 
 2941000   0.77413525   -7.5553667    776.19099  0.021993398  0.021649554            5 
 2942000    0.7878835   -7.5487136    776.70939  0.022000606  0.021643547            5 
 2943000   0.79723358   -7.5471669    776.95041  0.021999955  0.021637554            6 
 2944000   0.79173269    -7.563532    776.85701  0.021989838  0.021631558            2 
 2945000   0.77641898    -7.542271    776.65343  0.021976611  0.021625526            4 
 2946000   0.77511223   -7.5513194    776.89482  0.021975979  0.021619533           11 
 2947000   0.77701888   -7.5704749     776.6431  0.021961404   0.02161354            3 
 2948000   0.79449788   -7.5753293    776.40916  0.021947342  0.021607557            6 
 2949000    0.7795917   -7.5699926    777.07298  0.021958658  0.021601555            8 
 2950000   0.78455625   -7.5696319    777.63961  0.021967221   0.02159554            8 
 2951000   0.77749526   -7.5798462    776.41541  0.021925206  0.021589559            4 
 2952000   0.80427716   -7.5672196    776.02767  0.021906834   0.02158356            5 
 2953000   0.77195281   -7.5736923    776.93056  0.021924894  0.021577581            2 
 2954000   0.77769568   -7.5433146    776.11045  0.021894337   0.02157162            3 
 2955000   0.78666915   -7.5064774    776.71961  0.021904106  0.021565687            4 
 2956000   0.78733928   -7.5235166     779.4524  0.021973737  0.021559749            5 
 2957000   0.78706838   -7.5405512     778.7195  0.021945652  0.021553823            2 
 2958000   0.78933629    -7.558312    777.22353  0.021896088   0.02154788            4 
 2959000   0.77023282   -7.5507137    778.40357  0.021921921  0.021541923            4 
 2960000   0.77406325   -7.5661737    778.34735  0.021912932  0.021535963            6 
 2961000   0.77977514   -7.5499486    777.79744  0.021890055  0.021529977            4 
 2962000     0.786954   -7.5521878    776.40127  0.021843385  0.021523982            2 
 2963000   0.77038353   -7.5592227    777.42187  0.021864717  0.021517988            2 
 2964000   0.76081055   -7.5465076     777.4043  0.021856846  0.021512034            5 
 2965000   0.75777537   -7.5153813    779.82194  0.021917424  0.021506092            5 
 2966000    0.7642873   -7.5224669    779.31742  0.021895859  0.021500171            5 
 2967000   0.77907093   -7.5430183    779.14026  0.021883503  0.021494201            7 
 2968000   0.79618353   -7.5620583      779.131   0.02187587  0.021488204            3 
 2969000   0.76516161   -7.5254782    779.91983  0.021890643   0.02148221            4 
 2970000   0.77472501    -7.510537     776.7681   0.02179484  0.021476203            3 
 2971000   0.77299032   -7.5225301    776.87222  0.021790425  0.021470195            5 
 2972000    0.7694025   -7.5555582    776.31891  0.021767578  0.021464159           10 
 2973000   0.78572673   -7.5582532    775.55016  0.021738708  0.021458097            6 
 2974000   0.77500641   -7.5627139    776.61133  0.021761133  0.021452022            5 
 2975000   0.80052379   -7.5741033    776.66643  0.021755362  0.021445973            5 
 2976000   0.78008123   -7.5640351    779.21937  0.021819539  0.021439919            4 
 2977000   0.76465911   -7.5340235    777.61627  0.021767335  0.021433868            3 
 2978000   0.77284487   -7.5549438    778.16921  0.021775498  0.021427815           11 
 2979000   0.79056551   -7.5716669    775.16223  0.021684073   0.02142172            9 
 2980000   0.78445304   -7.5885758    776.43123  0.021712283  0.021415616            3 
 2981000   0.76475017   -7.5641888    774.40337  0.021648311  0.021409525            6 
 2982000   0.77886058   -7.5819623    776.07601  0.021687794  0.021403397            3 
 2983000   0.77819311   -7.5664326    776.32471  0.021687471   0.02139729            3 
 2984000   0.77203182   -7.5426239     777.8062  0.021721576  0.021391214            2 
 2985000   0.78496638   -7.5734376     776.6757  0.021682739   0.02138516            3 
 2986000   0.75716887   -7.5573618    777.56098  0.021700184  0.021379096            5 
 2987000   0.77435105   -7.5614234    777.93039  0.021703225  0.021373006            8 
 2988000   0.78205559   -7.5686979     777.5382  0.021685023  0.021366932            8 
 2989000   0.78099268   -7.5679428    778.09026   0.02169316  0.021360851            3 
 2990000    0.7684847    -7.546313    779.11232   0.02171439  0.021354804            3 
 2991000   0.78126492   -7.5581766    778.02716  0.021676896   0.02134875            6 
 2992000   0.77617095    -7.574038    777.14792  0.021645163  0.021342718            5 
 2993000   0.78730317   -7.5556638    778.19443  0.021667068  0.021336672            3 
 2994000   0.77855987   -7.5522089    776.93865  0.021624879  0.021330631            2 
 2995000   0.77532653   -7.5464219    778.51315  0.021661468  0.021324604            2 
 2996000   0.79286166   -7.5338896    780.23063  0.021702009  0.021318566            6 
 2997000   0.76985975    -7.578647    777.92974   0.02163079  0.021312524            4 
 2998000   0.77695705   -7.5825489    777.82935  0.021620785  0.021306441            5 
 2999000   0.77401478   -7.5661676    777.25153  0.021597519  0.021300374            4 
 3000000   0.75911228    -7.516009    779.64974  0.021656937  0.021294318            2 
 3001000   0.75654756   -7.5812938    778.23509  0.021610438  0.021288256            5 
 3002000   0.78145657   -7.5941399    778.38364  0.021607363  0.021282213            5 
 3003000   0.77158858   -7.5789882     778.9454  0.021615757  0.021276159            3 
 3004000   0.76192423   -7.5690231    778.73673  0.021602772  0.021270133            4 
 3005000   0.76883226   -7.5955615    778.26641   0.02158254  0.021264089            8 
 3006000   0.78421925   -7.5763895    777.42802  0.021552119  0.021258021            3 
 3007000    0.7558611   -7.5736053    777.38824  0.021543849  0.021251956            5 
 3008000     0.779252   -7.5359379    779.79347  0.021603321  0.021245953            7 
 3009000   0.76931582   -7.5614853    777.71902   0.02153869  0.021239949            3 
 3010000   0.77197017   -7.5818333    779.35925  0.021576945  0.021233902            3 
 3011000   0.76907903   -7.5473377    779.83472  0.021582938  0.021227849            6 
 3012000   0.77164765   -7.5474146    779.01679  0.021553143  0.021221796            5 
 3013000   0.75115196   -7.5796265    779.00087  0.021545549  0.021215733            3 
 3014000   0.76845769   -7.5572187    780.28016  0.021573771  0.021209716            5 
 3015000   0.78074693   -7.5822421    777.96757  0.021502697  0.021203694            5 
 3016000   0.79476269   -7.5789328    779.37049  0.021534331  0.021197656            3 
 3017000   0.76299204   -7.5826413    777.78763  0.021483472   0.02119163            8 
 3018000   0.74716758   -7.5549988    778.49857  0.021495984  0.021185591            3 
 3019000   0.76945747   -7.5630488    777.39018  0.021458269  0.021179538            4 
 3020000   0.76177748   -7.5742334    777.75441  0.021461214   0.02117348            6 
 3021000   0.75988976   -7.5824224    777.42527  0.021445031  0.021167434            4 
 3022000   0.77555068   -7.5822754    779.29894  0.021489602   0.02116134            3 
 3023000   0.76301532   -7.5598642    779.75694  0.021495119  0.021155247            3 
 3024000   0.76135869   -7.5872919    777.07573  0.021414124  0.021149174            5 
 3025000   0.75434708   -7.5857287    778.73327  0.021452707  0.021143103            4 
 3026000   0.77503286   -7.5848002    778.49692  0.021439109  0.021137028            2 
 3027000   0.76730272     -7.55861     778.7917  0.021440141  0.021130982            5 
 3028000   0.77490213   -7.5743188    777.56049  0.021399177  0.021124881            8 
 3029000   0.76236935   -7.5716961    779.52056  0.021446037   0.02111875            2 
 3030000   0.75632566   -7.5987795    778.29798  0.021405335  0.021112611            4 
 3031000   0.75891369   -7.5836167    778.42985  0.021401898  0.021106492            2 
 3032000   0.76225653   -7.5699775    777.70399   0.02137489  0.021100384            4 
 3033000   0.74663879   -7.5814739    777.33761  0.021357776  0.021094278            6 
 3034000   0.76502574   -7.5977194    777.61624  0.021358389  0.021088175            3 
 3035000   0.76230052   -7.5655625     776.4459  0.021319217  0.021082025            2 
 3036000   0.75717375   -7.5900241     779.4687  0.021395166   0.02107594            4 
 3037000   0.77216401    -7.607989    779.91802   0.02140045  0.021069859            8 
 3038000   0.74600548   -7.6154113    779.34067  0.021377569  0.021063742            5 
 3039000   0.76134371    -7.583163    779.48963   0.02137462  0.021057631            4 
 3040000    0.7655903   -7.5758915    780.60136  0.021398063  0.021051593            4 
 3041000   0.75783814   -7.6106226    779.54669  0.021362126  0.021045551            5 
 3042000   0.77140643   -7.5721564     780.6526  0.021385399  0.021039464            4 
 3043000    0.7578797   -7.5835137    780.24394   0.02136718  0.021033378            8 
 3044000   0.75627436   -7.6036438    778.15209  0.021302893   0.02102732            3 
 3045000   0.76647203   -7.5888239    779.99734  0.021346397  0.021021255            4 
 3046000   0.75080227   -7.5928119    779.11233  0.021315176  0.021015212            3 
 3047000   0.76929649   -7.5703218    781.51487  0.021373889  0.021009172            2 
 3048000   0.75614546   -7.5574749     781.6515  0.021370612  0.021003149            3 
 3049000   0.76517731   -7.5573604    780.78235  0.021339848  0.020997132            3 
 3050000    0.7778262   -7.5467198    781.60945  0.021355449   0.02099117            4 
 3051000    0.7517354   -7.5325321    781.28784  0.021339666  0.020985187            3 
 3052000   0.75328222    -7.569597    779.65191  0.021288005   0.02097921            3 
 3053000   0.75157306   -7.5691344    781.11529  0.021320976  0.020973219            4 
 3054000   0.76595734   -7.5814783    778.72044  0.021248648  0.020967239            5 
 3055000   0.76981781   -7.5808249    780.57454  0.021292268  0.020961225            2 
 3056000   0.77187379   -7.5884605    780.17277  0.021274345  0.020955222            3 
 3057000   0.75472798   -7.5968567    781.67354  0.021308296  0.020949221            5 
 3058000   0.75551698   -7.5748745    781.14698  0.021286979  0.020943194            5 
 3059000   0.76315292   -7.6003122    779.61571  0.021238305  0.020937162            3 
 3060000   0.75947115   -7.5875078    780.74506   0.02126212  0.020931163            5 
 3061000   0.74806709   -7.5919474    781.46247  0.021274705  0.020925161            5 
 3062000   0.76514548   -7.5978935    782.15041   0.02128648  0.020919171            2 
 3063000   0.75538641   -7.5718543    781.41282  0.021259463  0.020913195            4 
 3064000   0.74310037   -7.5758218    782.96555  0.021294755  0.020907226            3 
 3065000   0.76260042   -7.5553916    782.77993   0.02128276  0.020901266            4 
 3066000   0.76740782   -7.5736853    782.37871  0.021264914  0.020895313            6 
 3067000   0.76202485   -7.5893376    781.49578   0.02123399   0.02088935            5 
 3068000   0.75817642   -7.5660433    782.02952  0.021241567  0.020883369            5 
 3069000   0.74087907   -7.6194042    781.48576  0.021219881  0.020877393            6 
 3070000   0.76836746   -7.5651534    781.70314  0.021218869  0.020871401           12 
 3071000   0.75905322   -7.5748945    780.32391  0.021174534  0.020865394            4 
 3072000   0.77158745   -7.5722595    782.26207  0.021220217   0.02085941            2 
 3073000   0.74401087   -7.5593782    780.28489  0.021159694  0.020853429            4 
 3074000   0.76002009   -7.5700995      781.807  0.021194074  0.020847452            3 
 3075000   0.76293817   -7.5743953    781.17532  0.021170063  0.020841486            3 
 3076000   0.75695941   -7.5837325    782.81916  0.021207715  0.020835491            4 
 3077000   0.76034071   -7.6309303    779.08621  0.021099724  0.020829504            3 
 3078000   0.77016654   -7.6105634     780.7508  0.021137936  0.020823478            5 
 3079000   0.76587802   -7.6047519    784.40412  0.021229948  0.020817442            6 
 3080000   0.75456075   -7.6044571    782.40904  0.021169076   0.02081144            9 
 3081000   0.76198337   -7.5930741    781.43792  0.021135938  0.020805413            6 
 3082000     0.745885   -7.5910526    780.79066   0.02111158  0.020799405            4 
 3083000   0.75832805   -7.5843444      781.863  0.021133717  0.020793381            9 
 3084000   0.74019925   -7.6034446    780.36895  0.021086494   0.02078738            5 
 3085000   0.76800318    -7.614362    780.26494  0.021076849  0.020781365            6 
 3086000     0.753211   -7.5992682    782.01843   0.02111737  0.020775323            6 
 3087000   0.76417951    -7.601839    781.67104  0.021101151  0.020769291            3 
 3088000   0.76381753   -7.6026802    783.02374  0.021130822  0.020763274            3 
 3089000   0.75485431   -7.5938967    781.59606  0.021085466  0.020757307            2 
 3090000   0.74171315   -7.5961725     781.7138  0.021081818  0.020751307            3 
 3091000   0.75692881   -7.5830621    782.41759  0.021093972   0.02074533            5 
 3092000   0.75878155   -7.5802642    783.23064  0.021109062  0.020739355            2 
 3093000   0.75336467     -7.62524    781.16506  0.021046585  0.020733373            1 
 3094000   0.75094728   -7.6051523    781.74144  0.021055307  0.020727383            6 
 3095000   0.74922341   -7.6063286    784.00747  0.021109517  0.020721386            6 
 3096000   0.75958748   -7.5926976    782.76939  0.021069374  0.020715377            3 
 3097000   0.76275568   -7.6120645    781.77372   0.02103578  0.020709374            5 
 3098000   0.76683198   -7.6271482    782.18608  0.021040082  0.020703362            5 
 3099000   0.75838558   -7.6142481    782.54399  0.021042917  0.020697361            4 
 3100000   0.75684547   -7.6117045    781.53761  0.021009075  0.020691336            8 
 3101000   0.74315278   -7.6228524    780.83984  0.020983549   0.02068533            4 
 3102000   0.75202583   -7.6007425    784.17557  0.021066397  0.020679331            4 
 3103000    0.7636354   -7.5908585    781.96737  0.021000305   0.02067334            2 
 3104000   0.77651257   -7.5784858    783.06044  0.021022885  0.020667383           10 
 3105000   0.75743539   -7.6187959    783.21383  0.021020232  0.020661414            4 
 3106000   0.73883676   -7.6240054    781.99952  0.020980884  0.020655426            9 
 3107000   0.76955742   -7.5838852    782.88267  0.020997819  0.020649491            7 
 3108000   0.74560237   -7.6320876    783.51572  0.021008036  0.020643527            6 
 3109000   0.74851961   -7.5968827    783.65051  0.021004892  0.020637553            5 
 3110000    0.7843993   -7.5834882    782.76664  0.020974454  0.020631611            2 
 3111000   0.75258622     -7.62563    783.21528   0.02097973  0.020625666            3 
 3112000   0.76152113   -7.6029397     784.0188  0.020994505  0.020619713            6 
 3113000   0.75722671   -7.5936084    784.79684  0.021008589  0.020613775            5 
 3114000   0.75299645   -7.6010739    783.12561  0.020957119  0.020607821            4 
 3115000   0.75268539   -7.5913619    782.43859  0.020932012  0.020601856            2 
 3116000   0.75277502    -7.589147    782.57039  0.020928819  0.020595911            6 
 3117000     0.747157   -7.6135208    781.43978  0.020891877  0.020589963            6 
 3118000   0.74635778   -7.5974494    784.02597  0.020954297  0.020584018            2 
 3119000   0.75929423   -7.5743635     785.3253  0.020982294  0.020578091            3 
 3120000   0.74911147   -7.6247952    782.52124  0.020900674   0.02057216           14 
 3121000   0.74493446   -7.6146177    782.55846  0.020894971    0.0205662            5 
 3122000   0.77064299   -7.6008575    785.17499  0.020958119  0.020560265            4 
 3123000   0.75016464   -7.6064448    782.11694  0.020869808  0.020554319            9 
 3124000   0.76853053   -7.6106859    783.33355  0.020895581  0.020548371            5 
 3125000    0.7429394   -7.5857102    784.95931  0.020932248  0.020542424            4 
 3126000    0.7582074   -7.6105713    785.65217  0.020944022  0.020536465            4 
 3127000   0.75489263   -7.6294109    784.11465   0.02089635  0.020530488            4 
 3128000   0.75460135   -7.6221429    784.00755  0.020886817  0.020524507            9 
 3129000   0.76141179   -7.6100099    783.74137  0.020873052  0.020518533            4 
 3130000   0.76576502   -7.6177589    783.09596    0.0208492  0.020512561            9 
 3131000   0.75369193   -7.6280307    783.61169  0.020856268  0.020506586            8 
 3132000     0.772043   -7.6371157    783.43719  0.020844966  0.020500601            4 
 3133000   0.77198404   -7.6344064    785.13825  0.020883558  0.020494629            5 
 3134000    0.7675097   -7.6119405    783.74302  0.020839795  0.020488657            4 
 3135000   0.76777571   -7.6272134    783.58285   0.02082889    0.0204827            3 
 3136000   0.74016737   -7.6080964    784.36239  0.020842963  0.020476727            7 
 3137000   0.73232588   -7.6210272    782.79671  0.020794727  0.020470788            5 
 3138000   0.74387947   -7.6107286    785.07538  0.020848613  0.020464872            5 
 3139000   0.74302022   -7.6069796    784.23457   0.02081965  0.020458964            3 
 3140000    0.7433042   -7.6201326    784.23786  0.020813107  0.020453069            3 
 3141000   0.75035792   -7.6156867    782.44719  0.020758972  0.020447168            5 
 3142000   0.75131773   -7.6255302    784.95756  0.020818946  0.020441259            4 
 3143000    0.7354082    -7.621087    782.36523   0.02074359  0.020435351            6 
 3144000   0.75389432   -7.6219022    784.32987  0.020789066  0.020429411            5 
 3145000   0.73764866   -7.6136102    783.95177  0.020772437  0.020423493            7 
 3146000   0.75217339   -7.5902226     784.8631  0.020789974   0.02041758            6 
 3147000   0.74318967   -7.6091942    785.89027  0.020810568   0.02041168            5 
 3148000   0.74058935   -7.6477354    783.56574  0.020742422  0.020405769            3 
 3149000   0.74875281   -7.6118756    785.94649  0.020798838  0.020399853            9 
 3150000   0.73321699   -7.6148506    787.22846   0.02082615  0.020393982            3 
 3151000   0.72985118   -7.5935617    785.52124   0.02077439    0.0203881            2 
 3152000   0.72624344   -7.6205823    785.53942   0.02076828  0.020382202           10 
 3153000   0.75992013   -7.6507234    784.68351  0.020739071  0.020376295            4 
 3154000   0.76014679   -7.6141344    786.72011  0.020786306  0.020370407            2 
 3155000   0.75476318   -7.6350782    784.83638  0.020729963  0.020364523            6 
 3156000   0.73388779   -7.5953016    786.11634  0.020757191  0.020358644            4 
 3157000   0.76223736   -7.6319893    786.10512   0.02075032  0.020352741            5 
 3158000   0.73745842   -7.5995513    784.66884  0.020705849  0.020346855            4 
 3159000   0.73865534    -7.613739    785.43771  0.020719576  0.020340975            3 
 3160000   0.74144485   -7.6321593    785.88817  0.020724899  0.020335084            3 
 3161000   0.74854067   -7.6386878    787.05971  0.020749228   0.02032919            3 
 3162000   0.76173427   -7.6136667    786.91906  0.020738959  0.020323339            4 
 3163000   0.74474507   -7.6466428    785.77474  0.020702254  0.020317491            2 
 3164000   0.75299189   -7.6230503    786.87154  0.020724598  0.020311645            6 
 3165000   0.75663008   -7.6298701    785.37619  0.020678678  0.020305823            4 
 3166000    0.7578186   -7.5982876    787.49288  0.020727861  0.020299971            5 
 3167000   0.75970574   -7.6326894    786.07238  0.020683938   0.02029412            7 
 3168000   0.74064968   -7.6364823    785.63917  0.020666014  0.020288255            5 
 3169000   0.72422642   -7.6569402    785.97311  0.020668274  0.020282383            3 
 3170000   0.73052127   -7.6301576    787.92831  0.020713152  0.020276516            2 
 3171000   0.74949708   -7.6209552    786.13265   0.02065943  0.020270661            4 
 3172000   0.74697045   -7.6293283    787.24548  0.020682153  0.020264819            3 
 3173000   0.75269863    -7.632235     787.3786  0.020679131  0.020258966           16 
 3174000   0.74575794   -7.6367859    785.95252  0.020635174  0.020253115            6 
 3175000   0.75297472   -7.6135851     784.9302  0.020601842  0.020247261            3 
 3176000   0.73628031   -7.6354479     785.4888  0.020610013  0.020241383            5 
 3177000   0.73649203   -7.6150429     786.2042   0.02062229  0.020235506            7 
 3178000   0.74850826   -7.6218719    784.90287  0.020581678  0.020229623            3 
 3179000   0.73640039   -7.6632543    786.11831  0.020607065  0.020223733            3 
 3180000    0.7367855   -7.6494158    787.77485  0.020643995  0.020217833            3 
 3181000   0.73996808    -7.611727    787.15583  0.020621289   0.02021196            4 
 3182000   0.73038338   -7.6225704    787.00976  0.020610983  0.020206098            7 
 3183000   0.72450777   -7.6537026    786.73627  0.020597347  0.020200218            5 
 3184000   0.74263074   -7.6207262    786.35488  0.020580896  0.020194327            3 
 3185000   0.74498096   -7.6376849    787.26724  0.020598305  0.020188487            2 
 3186000   0.73331695   -7.6122463    788.24402  0.020617389  0.020182657            6 
 3187000   0.74538161   -7.5985552     787.0299  0.020579173  0.020176811            3 
 3188000   0.74366388   -7.6266088    786.32062  0.020554178   0.02017098            5 
 3189000   0.73757979   -7.6495964    787.31268  0.020573656   0.02016512            7 
 3190000    0.7493331   -7.6322763    786.24466  0.020539307  0.020159255            9 
 3191000   0.72935803   -7.6601955    787.09865  0.020555172  0.020153389            5 
 3192000   0.72324583   -7.6180795    786.84622  0.020542142  0.020147529            7 
 3193000   0.74060423   -7.6465869    788.66865  0.020583272  0.020141669            3 
 3194000   0.74659483    -7.667312    786.23868  0.020513428  0.020135816            4 
 3195000   0.75853225   -7.6419945    787.49563  0.020539792  0.020129957            5 
 3196000    0.7533121   -7.6252021    789.25913  0.020579347  0.020124115            4 
 3197000   0.76037745   -7.6553912    786.64569  0.020504788  0.020118271            5 
 3198000   0.74263674   -7.6393097     786.1491  0.020485436   0.02011241            3 
 3199000   0.74505899   -7.6275423    786.32252   0.02048355  0.020106599            6 
 3200000   0.74952463   -7.6429274    788.93228  0.020545111  0.020100788            3 
 3201000   0.75381645   -7.6287708     790.4128  0.020577236  0.020094975            5 
 3202000   0.74436089   -7.6560726    788.59283  0.020523445   0.02008918            7 
 3203000   0.74121902   -7.6463955    789.06808  0.020529401  0.020083366            4 
 3204000   0.72489652   -7.6289632    788.50651  0.020508388  0.020077571            6 
 3205000   0.74151846   -7.6572755    787.86873  0.020485406  0.020071766            2 
 3206000   0.72870971   -7.6574728    788.65734  0.020499515  0.020065962            4 
 3207000   0.73591026   -7.6205881    789.85162  0.020524156  0.020060182            5 
 3208000   0.74742979   -7.6597769    786.77346  0.020437798  0.020054392            6 
 3209000   0.73109576   -7.6494502     787.5618  0.020451901  0.020048586            4 
 3210000   0.74911341   -7.6402108    790.49578  0.020521697  0.020042799            3 
 3211000   0.75323395   -7.6255569     788.3641  0.020459984  0.020037006            3 
 3212000   0.74355588   -7.6423065     785.8626  0.020388714  0.020031193            6 
 3213000   0.73009545   -7.6490651    787.21794  0.020417521  0.020025379            6 
 3214000   0.74590198   -7.6315619    786.42537  0.020390619  0.020019583            3 
 3215000   0.74075738   -7.6179091    788.52833  0.020438785  0.020013773            4 
 3216000     0.727323   -7.6645545    787.18084  0.020397514   0.02000797            4 
 3217000   0.73969431    -7.640089     788.8522  0.020434468   0.02000213            4 
 3218000   0.70328252   -7.6359211    789.37693  0.020441706  0.019996306            3 
 3219000   0.74221796   -7.6661585    788.33515  0.020408386  0.019990471            6 
 3220000   0.73796309   -7.6745527    789.01526   0.02041965  0.019984631            8 
 3221000    0.7329562   -7.6624704    788.91183  0.020410634  0.019978786            6 
 3222000   0.73396296   -7.6450835    787.93404   0.02037901  0.019972937            4 
 3223000   0.73224641   -7.6635823    789.27567  0.020407376  0.019967079            5 
 3224000   0.73165087   -7.6480604    788.32018  0.020376349  0.019961236            7 
 3225000   0.74485023   -7.6496261    787.07019  0.020337731  0.019955399            4 
 3226000   0.75151152   -7.6403279    788.63469   0.02037184  0.019949562            7 
 3227000    0.7313339   -7.6442706    786.71433  0.020315937  0.019943725            6 
 3228000   0.72762186   -7.6638128     787.6292  0.020333261  0.019937902            3 
 3229000   0.72810894   -7.6278317    787.68133  0.020328309  0.019932091            8 
 3230000   0.75046891   -7.6527052    788.27468  0.020337324   0.01992629            5 
 3231000   0.74742266   -7.6751545    788.69136  0.020341777  0.019920464            5 
 3232000   0.74660418   -7.6715588    787.38291  0.020301746   0.01991465            7 
 3233000   0.74157188   -7.6663588    788.11278  0.020314279  0.019908825            4 
 3234000   0.73506536   -7.6557285    788.18693  0.020309909  0.019902999            3 
 3235000   0.73501127   -7.6967975    787.84852  0.020294913  0.019897191            3 
 3236000   0.73842069     -7.64476    789.91187  0.020341777  0.019891371            7 
 3237000   0.73027655   -7.6413545    789.29012  0.020319486  0.019885551            3 
 3238000   0.73820219   -7.6727906    789.40171  0.020316083  0.019879713            3 
 3239000   0.72315191   -7.6741549    790.45672  0.020336954  0.019873907            7 
 3240000   0.74421142   -7.6616846    788.70508  0.020285624  0.019868111            2 
 3241000   0.73117909   -7.6510828    789.06039  0.020288501  0.019862305            3 
 3242000    0.7243069   -7.6617068    789.33361  0.020289266   0.01985649            4 
 3243000   0.72079164   -7.6473074    789.69619  0.020292327  0.019850682            5 
 3244000   0.72384974   -7.6546881    790.26664  0.020300725  0.019844886            7 
 3245000   0.71860262   -7.6654651    790.52577  0.020301124  0.019839092            2 
 3246000   0.73502354   -7.6585115     788.6614  0.020247007  0.019833308            6 
 3247000   0.73840156   -7.6294936    789.38825  0.020259425  0.019827526            9 
 3248000   0.73761435   -7.6372525    789.09167  0.020245578  0.019821735            7 
 3249000   0.74883137   -7.6453896    789.42992  0.020248023  0.019815935            4 
 3250000   0.74102392   -7.6506155    789.18735  0.020235573  0.019810115            5 
 3251000   0.72028501   -7.6483942     790.5648  0.020264657   0.01980432            3 
 3252000   0.72711991   -7.6282238    789.69807  0.020236215  0.019798532            3 
 3253000   0.73774611   -7.6460647     786.5376  0.020149032  0.019792735            5 
 3254000   0.72403184   -7.6536643    787.62914  0.020170793  0.019786934            4 
 3255000   0.75437273   -7.6657389    788.82419  0.020195192  0.019781117            6 
 3256000   0.72748944   -7.6334626    789.04435  0.020194624   0.01977532            5 
 3257000   0.72389081    -7.638753    790.70313  0.020230865  0.019769541            4 
 3258000   0.71339488   -7.6548831    790.71024  0.020224837  0.019763757            4 
 3259000   0.73849585   -7.6367768    789.52986  0.020188449  0.019758008            4 
 3260000   0.72326134   -7.6605226    789.57764  0.020183478  0.019752233            8 
 3261000   0.71898792   -7.6527642    789.17826  0.020167082  0.019746455            7 
 3262000   0.72255347   -7.6877744    789.32353  0.020164611  0.019740679            5 
 3263000   0.71453693   -7.6757905    789.03531   0.02015107  0.019734901            3 
 3264000   0.73522498   -7.6528411    790.37547  0.020179112  0.019729136            6 
 3265000   0.73342817   -7.6474729    789.79962  0.020158234  0.019723353            3 
 3266000   0.73433294   -7.6718591    789.45525  0.020143275  0.019717578            5 
 3267000   0.72186659   -7.6490187    791.07958  0.020178542  0.019711804            6 
 3268000   0.73553848   -7.6474342    789.79225  0.020139541  0.019706065            3 
 3269000   0.73995988   -7.6630192    791.07641  0.020166116  0.019700337            5 
 3270000   0.72962158   -7.6700652    789.75721   0.02012633  0.019694586            3 
 3271000   0.72296489   -7.6514143    791.35079  0.020160776  0.019688833            3 
 3272000   0.72765857   -7.6807205    791.27422  0.020152664  0.019683095            4 
 3273000   0.72843938   -7.6595886     791.9949  0.020164856  0.019677378            8 
 3274000   0.73358974   -7.6598471    790.96239  0.020132417  0.019671653            7 
 3275000   0.73618406   -7.6416456    790.14239  0.020105404  0.019665908            3 
 3276000   0.72592727   -7.6455801    791.11344  0.020123968  0.019660171            3 
 3277000    0.7179957    -7.678161    788.32443  0.020046903  0.019654412            7 
 3278000   0.70794367   -7.6578179    792.39849  0.020144359   0.01964865            4 
 3279000   0.73141946   -7.6565096    791.19909  0.020107733    0.0196429            4 
 3280000   0.73833167   -7.6957883    790.22578  0.020076874  0.019637139            8 
 3281000   0.74332602    -7.646393    790.91673  0.020088305  0.019631382           15 
 3282000   0.72489172   -7.6768929    791.41574  0.020094854  0.019625625            5 
 3283000   0.71576676   -7.6717648    790.11489  0.020055714  0.019619877            5 
 3284000   0.72878473   -7.7017939    788.90696  0.020018954  0.019614111            3 
 3285000   0.74354518   -7.7060692    789.41399  0.020025723  0.019608334            3 
 3286000   0.73295013   -7.6708082    789.52507  0.020022445  0.019602574            4 
 3287000   0.72693899   -7.6529473    790.33936  0.020036998  0.019596823            9 
 3288000   0.73088371   -7.7031702    790.25273  0.020028709  0.019591048            4 
 3289000   0.72980915   -7.6461763    791.48801  0.020053917  0.019585283            3 
 3290000   0.73003411   -7.6706684    790.12793  0.020013372  0.019579542            5 
 3291000   0.72200534   -7.6854889    790.83879  0.020025291  0.019573773            3 
 3292000   0.73053219   -7.6847087    790.52921  0.020011371  0.019568033            4 
 3293000   0.71890769    -7.668558    791.34703   0.02002599  0.019562275            4 
 3294000   0.72009904   -7.6700458    790.64686  0.020002197  0.019556523            4 
 3295000   0.72044782   -7.6534111    790.44139  0.019990931   0.01955078            4 
 3296000   0.71613625   -7.6520354    792.42061  0.020034906  0.019545045            5 
 3297000   0.72247789   -7.6825885    791.31295  0.020000833  0.019539309            6 
 3298000   0.70985348   -7.6678736    791.71029  0.020004808  0.019533575            6 
 3299000   0.72587258   -7.6579113    791.64584  0.019997116  0.019527836            5 
 3300000   0.71197902   -7.6569876    792.46468  0.020011734  0.019522091            6 
 3301000   0.71412823     -7.66382    790.61725  0.019959034  0.019516349            9 
 3302000    0.7459166   -7.6719419    790.91011   0.01996038  0.019510627            9 
 3303000   0.72398051    -7.640677    791.12911  0.019959862  0.019504898            5 
 3304000   0.74000107   -7.6578922    790.32172  0.019933457  0.019499181            6 
 3305000   0.70585297   -7.6433665    791.61563  0.019960051  0.019493485            4 
 3306000   0.71876917   -7.6577984    791.31163  0.019946351  0.019487767           10 
 3307000   0.71322704   -7.6669018    793.09703   0.01998531  0.019482045            3 
 3308000   0.73645403   -7.6647645    793.40169  0.019986943  0.019476357            6 
 3309000   0.73043987   -7.6536784    792.40965  0.019955919   0.01947066            3 
 3310000    0.7331989   -7.6415077    791.42191  0.019925023  0.019464959            4 
 3311000   0.70260168   -7.6622444    792.28322  0.019940683  0.019459277            2 
 3312000   0.72397797   -7.6802865    792.61856    0.0199431  0.019453588            4 
 3313000   0.73237176   -7.6982807    792.36681  0.019930748  0.019447888            5 
 3314000   0.71663644    -7.680979      791.179  0.019894865   0.01944219            5 
 3315000   0.71711902   -7.6647813    792.73874  0.019928073  0.019436496            5 
 3316000   0.71260471   -7.6723963    792.15087   0.01990729  0.019430803            5 
 3317000   0.72357929   -7.6768504    792.16492  0.019901641  0.019425105            6 
 3318000   0.71792457   -7.6821774    792.87719  0.019913532  0.019419426            4 
 3319000   0.72208002   -7.6973382    793.48342  0.019922753  0.019413757            5 
 3320000   0.71294196   -7.6662623    792.45481  0.019890934  0.019408092            3 
 3321000   0.72599755   -7.6948112    792.57158  0.019887875  0.019402421            3 
 3322000   0.71977408    -7.682092    792.77202  0.019886916  0.019396753            6 
 3323000   0.71770089    -7.701574    792.70026  0.019879132  0.019391075            4 
 3324000   0.71843234   -7.6887647    793.10583  0.019883319  0.019385416            6 
 3325000   0.73965252   -7.6615807    792.91828  0.019872639  0.019379752            7 
 3326000   0.73132097   -7.6851104    792.26647  0.019850332  0.019374084            4 
 3327000   0.72950216   -7.6981629    791.43681  0.019823585  0.019368414           14 
 3328000   0.72914153    -7.683894    791.88978  0.019828971  0.019362733            3 
 3329000   0.72262335   -7.6743844    793.84564  0.019871975  0.019357071            5 
 3330000   0.71767191   -7.6776839    793.63482  0.019860731  0.019351399            4 
 3331000   0.72819577   -7.6850976    792.20086  0.019818895  0.019345709            6 
 3332000   0.72149077   -7.6838463    793.40056  0.019842951  0.019340008            4 
 3333000   0.72044759    -7.717874     793.5343  0.019840341   0.01933431            3 
 3334000   0.72071617   -7.6912373    792.70447  0.019813649  0.019328621            4 
 3335000   0.70762142   -7.7233417    792.59348  0.019804935  0.019322917            5 
 3336000   0.70919092   -7.6989241    793.22004  0.019814649  0.019317239            3 
 3337000   0.71558519   -7.6841881    793.34163  0.019811748  0.019311568            3 
 3338000   0.71097949   -7.7128663    793.84834  0.019818463  0.019305902            3 
 3339000   0.72556003   -7.7141507    792.30853  0.019774097   0.01930024            5 
 3340000   0.73185651   -7.6959156    793.24298  0.019791491  0.019294595            5 
 3341000   0.72116593   -7.6949071    792.72659  0.019772687  0.019288961            4 
 3342000   0.71988733     -7.70274    792.12429  0.019751753  0.019283331            3 
 3343000   0.71622556   -7.6959638    792.31488  0.019750595  0.019277701            5 
 3344000   0.72014515   -7.6779218    792.43047  0.019747569  0.019272033            4 
 3345000   0.70767729   -7.6777766     792.3778  0.019740354  0.019266388            3 
 3346000   0.72804048   -7.6832347    792.74171  0.019743517  0.019260736            5 
 3347000   0.70171145   -7.7026081     793.8746  0.019765825  0.019255089            4 
 3348000   0.71216016   -7.7263653    793.60878  0.019753305  0.019249464            6 
 3349000   0.72292837   -7.6920297    795.23186  0.019787794  0.019243838            7 
 3350000    0.7222885   -7.6864856    795.96764   0.01980019   0.01923824            4 
 3351000   0.72146393   -7.7025692    794.99538  0.019770103  0.019232631            5 
 3352000   0.71164183   -7.7167801    793.86456  0.019736092  0.019226996            6 
 3353000   0.74325736   -7.7131203    793.01371  0.019709059  0.019221368            4 
 3354000    0.7111494   -7.7096341    792.90308  0.019700434  0.019215753            4 
 3355000   0.71389446   -7.7200806    793.95767  0.019720757   0.01921012            6 
 3356000   0.70310357   -7.7524645    794.24373  0.019721984  0.019204479           10 
 3357000   0.70862461   -7.7306238    793.25377  0.019691534  0.019198841           12 
 3358000   0.70980827   -7.7243031    793.90185  0.019701753  0.019193208            5 
 3359000    0.7073552   -7.7011176    795.05501  0.019724497  0.019187588            4 
 3360000   0.70562568   -7.7291353    793.95499  0.019691344  0.019181981            2 
 3361000   0.70769647   -7.7047646    794.68433  0.019703569  0.019176378            4 
 3362000   0.71083251   -7.6854173    795.09864  0.019707977  0.019170774            6 
 3363000    0.7180322   -7.7008689    793.68405  0.019667064  0.019165164            9 
 3364000    0.6988428   -7.6870813    793.65353  0.019660462  0.019159565            8 
 3365000   0.71045941   -7.6967579    793.96615  0.019662361  0.019153978           15 
 3366000    0.7243675   -7.7028929    793.31972  0.019640516  0.019148386           19 
 3367000   0.71372975   -7.7311438    793.83193   0.01964736  0.019142772            4 
 3368000   0.71571696   -7.7058187    793.29166  0.019628159  0.019137154            5 
 3369000   0.70154489   -7.7389371    792.91184  0.019612938  0.019131554            3 
 3370000   0.70597998   -7.7047578    794.91759  0.019656716  0.019125947            5 
 3371000   0.72136068   -7.7236184    793.13475  0.019606812   0.01912035            9 
 3372000   0.73602213   -7.6865716    794.47579  0.019634139  0.019114757            7 
 3373000   0.71112514   -7.6994197    794.98929  0.019641004  0.019109148            6 
 3374000   0.70888107   -7.7070417    794.58532  0.019625205  0.019103571            4 
 3375000   0.71780051   -7.6958835    795.03827  0.019630574  0.019098014            4 
 3376000   0.71729686   -7.7096343     795.7003  0.019641101  0.019092452            5 
 3377000   0.69429945   -7.6911649    796.51263  0.019655331   0.01908689            6 
 3378000   0.70019403    -7.703918     794.6378  0.019603261  0.019081328           10 
 3379000   0.69868155   -7.6967861    795.64239  0.019622235  0.019075748           14 
 3380000    0.6975683   -7.7178917     795.1753  0.019604914  0.019070165           11 
 3381000   0.72067383    -7.685939    796.78654  0.019638828  0.019064603            8 
 3382000     0.705515   -7.7050344    794.51643  0.019577085  0.019059037            5 
 3383000   0.70592652   -7.6988262    796.02779  0.019608528  0.019053446            8 
 3384000   0.70042586   -7.6898371     795.1577  0.019581307  0.019047857            2 
 3385000   0.70816206    -7.746039    795.48466  0.019583571   0.01904227            3 
 3386000   0.71441066   -7.7227285    794.55769  0.019554974  0.019036684            5 
 3387000   0.72789037   -7.7231035    794.09552  0.019537829  0.019031106           10 
 3388000   0.72010413   -7.7138625    794.21562  0.019535016  0.019025507            2 
 3389000   0.70167364    -7.732366    795.63612  0.019564181  0.019019934            2 
 3390000    0.7176249    -7.694914    794.92056   0.01954082  0.019014374            6 
 3391000   0.70914905   -7.7282804    794.99319  0.019536842  0.019008801            3 
 3392000   0.71157104   -7.7003763    795.73249  0.019549245  0.019003243            3 
 3393000   0.70783784   -7.7308827    795.16582  0.019529566  0.018997712            9 
 3394000   0.69488849   -7.7347334    794.89233  0.019517097  0.018992173           17 
 3395000   0.70285509   -7.7035186    795.38976  0.019523558  0.018986632            5 
 3396000   0.70639224   -7.7169114    795.69444  0.019525286   0.01898107            2 
 3397000   0.70161859   -7.7105477    796.09538  0.019529374   0.01897551            8 
 3398000   0.70435625   -7.7308917    794.14507  0.019475796  0.018969957            5 
 3399000    0.7132322   -7.7315826    795.63293  0.019506544  0.018964414            2 
 3400000   0.71245986   -7.7051392    796.54736   0.01952322  0.018958882            5 
 3401000   0.70865695   -7.6640927    794.48766  0.019467011  0.018953359            4 
 3402000   0.68708776   -7.7293435    795.31018  0.019481437  0.018947825            5 
 3403000   0.70004122   -7.7142956    796.10467  0.019495168  0.018942272            6 
 3404000   0.70895413   -7.7068861    796.78405  0.019506073  0.018936735            3 
 3405000   0.70448093    -7.737487    796.81362  0.019501068  0.018931191            5 
 3406000   0.70281137    -7.724673    795.47902  0.019462689  0.018925642            6 
 3407000    0.6939536   -7.7273852    797.30197  0.019501565   0.01892009            7 
 3408000   0.68998995   -7.7166447    795.28378  0.019446493  0.018914536            4 
 3409000   0.70323588   -7.7155825    797.20265  0.019487696  0.018908995            4 
 3410000    0.7097489   -7.7285718    795.88596  0.019449803   0.01890346            2 
 3411000   0.70901736   -7.7289678    796.01636  0.019447287  0.018897922            4 
 3412000   0.70275872   -7.7105339    796.14543   0.01944474  0.018892376            4 
 3413000    0.6990549   -7.7447569    794.21766  0.019391973  0.018886821            5 
 3414000   0.70548314   -7.7482638    796.55298  0.019443297  0.018881261            5 
 3415000   0.69843806   -7.7400453    796.39816  0.019433825  0.018875713            4 
 3416000   0.71968033   -7.7179016    796.95572  0.019441738  0.018870157            5 
 3417000   0.69441531   -7.7040657     796.7536  0.019431119  0.018864619            3 
 3418000   0.71630445   -7.7324556    797.57146  0.019445374  0.018859099            4 
 3419000    0.7005882   -7.7031978    795.87702  0.019398387  0.018853583            5 
 3420000   0.69876166   -7.7307672    794.50573  0.019359301  0.018848053            5 
 3421000      0.70715   -7.7242952    794.95379  0.019364557   0.01884254            6 
 3422000   0.71010431    -7.722727    796.55176  0.019397812  0.018837027            3 
 3423000   0.71415832   -7.7332244    797.94735  0.019426121  0.018831547            3 
 3424000   0.69267267   -7.7208808    797.19579  0.019402156  0.018826043            4 
 3425000   0.71337846   -7.7109518     797.0468  0.019392866  0.018820542            7 
 3426000    0.7075609   -7.7483305    796.73811  0.019379697  0.018815029            9 
 3427000   0.70540472    -7.707247    796.21261  0.019361264  0.018809503            8 
 3428000   0.70277956   -7.7377218    795.91865   0.01934847  0.018803987            4 
 3429000   0.70275816   -7.7281419    796.08341  0.019346831  0.018798471            3 
 3430000   0.70234919   -7.7396653    795.81744  0.019334729  0.018792954            2 
 3431000   0.70510893   -7.7358574    795.95541  0.019332445  0.018787439            8 
 3432000   0.69587088   -7.7357121    796.71304  0.019345208  0.018781924            2 
 3433000   0.69886162   -7.7266773    797.71796  0.019363966  0.018776442            2 
 3434000   0.72112197   -7.7187089    796.84778  0.019337211  0.018770955            4 
 3435000   0.70579177   -7.7144024    798.30887  0.019367027  0.018765473            6 
 3436000   0.69348634   -7.7238676      796.165  0.019309395  0.018760003            3 
 3437000   0.69925104   -7.6971035    797.60951  0.019338801  0.018754523            5 
 3438000   0.70180141   -7.6938072    797.63146  0.019333708  0.018749049            3 
 3439000   0.69520361   -7.7327878    798.00989  0.019337256   0.01874359            3 
 3440000   0.70760591   -7.7332687    796.97402  0.019306541  0.018738096            5 
 3441000    0.6929757    -7.708993    798.46151  0.019336954  0.018732621            5 
 3442000   0.70266737   -7.7356765    798.50143  0.019332303  0.018727154            9 
 3443000    0.7036659   -7.7439515    795.52178  0.019254569  0.018721686            4 
 3444000   0.70468835   -7.7278298    796.77365  0.019279269  0.018716198            3 
 3445000    0.6900101   -7.7490754    796.93668  0.019277617  0.018710724            3 
 3446000   0.71015061   -7.7164795    796.97909  0.019273048  0.018705254            5 
 3447000   0.69612972   -7.6999422     797.7521  0.019286145  0.018699805            3 
 3448000   0.70561822   -7.7430345    796.52575  0.019250912  0.018694343            3 
 3449000   0.71049264   -7.7427549    795.99353  0.019232471  0.018688852            2 
 3450000   0.72094945   -7.7361787    799.08872   0.01930166   0.01868338            5 
 3451000   0.70259921   -7.7414612    796.50334  0.019233636  0.018677906            3 
 3452000   0.69684312   -7.7570948    796.15161  0.019219573  0.018672414            2 
 3453000   0.69563574   -7.7298791     798.0993  0.019261012  0.018666915            2 
 3454000   0.68389316   -7.7488621    797.50881  0.019241189  0.018661434            5 
 3455000   0.68941837   -7.7225728     798.6641  0.019263485   0.01865597            5 
 3456000    0.7064008    -7.718932    797.24815  0.019223769  0.018650509            7 
 3457000   0.69151368   -7.7272615    798.73595  0.019254073  0.018645056            3 
 3458000   0.70793372   -7.7316662    797.34626  0.019215015  0.018639594            5 
 3459000   0.68925121   -7.7255774      798.779  0.019243977  0.018634146            9 
 3460000   0.68376215    -7.737549    798.55112  0.019232927  0.018628689            6 
 3461000   0.70400194   -7.7162813    798.37175  0.019223051  0.018623259            5 
 3462000   0.71360928   -7.7317996    799.65139    0.0192483  0.018617853            6 
 3463000   0.69621867   -7.7272245    797.33849  0.019187085   0.01861243            3 
 3464000   0.70026915   -7.7413079    798.26025   0.01920372  0.018607009            3 
 3465000   0.69776878   -7.7244331    797.12102   0.01917078   0.01860158            3 
 3466000   0.70448386   -7.7346561    799.18192  0.019214799  0.018596157            3 
 3467000   0.70144825   -7.7205914    798.73661  0.019198553  0.018590745           11 
 3468000   0.72320072   -7.7376503    798.44119  0.019185919   0.01858532            5 
 3469000   0.70182062   -7.7394053    799.86303  0.019214544    0.0185799            8 
 3470000   0.71359299   -7.7484156    798.40247  0.019173931  0.018574469            7 
 3471000   0.70771374   -7.7262431    798.59123  0.019172938   0.01856904            4 
 3472000   0.69407006   -7.7472443    799.12063  0.019180123  0.018563593            8 
 3473000   0.69137626   -7.7302483    799.28714  0.019178595  0.018558145            2 
 3474000   0.69570309   -7.7557511     798.3709  0.019151096  0.018552724            5 
 3475000   0.69923437   -7.7423546    798.32064   0.01914438  0.018547277            5 
 3476000   0.70026644   -7.7377035    797.25396    0.0191133  0.018541843            6 
 3477000   0.69387882   -7.7136325    799.27964  0.019156352  0.018536411            3 
 3478000    0.6933768   -7.7315149    799.88247  0.019165288  0.018530992            6 
 3479000   0.69496575   -7.7583715    799.01473  0.019138994  0.018525569            6 
 3480000   0.68575717   -7.7243658     797.1905  0.019089811   0.01852014            5 
 3481000   0.70597044   -7.7385624    798.35789  0.019112274   0.01851472            3 
 3482000   0.71293119   -7.7102373    798.53155  0.019110941  0.018509308            3 
 3483000   0.68747893   -7.7123865    798.20396  0.019097616  0.018503894            2 
 3484000    0.7102867   -7.7171741    799.23411  0.019116775  0.018498495            4 
 3485000   0.69857333   -7.7049116    798.18566  0.019086219  0.018493082            2 
 3486000   0.71246108   -7.7313537     798.9551  0.019099137   0.01848769           22 
 3487000   0.70454948   -7.7322489    798.55707  0.019084148    0.0184823            5 
 3488000    0.7075653   -7.7336053    797.67837  0.019057683  0.018476895            4 
 3489000   0.69576558    -7.704984    798.88792   0.01908111  0.018471479            5 
 3490000   0.68565056   -7.7218252    798.42015  0.019064473   0.01846607            6 
 3491000   0.70264408   -7.7337024    798.15928  0.019052785  0.018460656            8 
 3492000    0.6919137   -7.7335687     797.7139    0.0190367  0.018455235            4 
 3493000   0.69365993   -7.7176239    800.02946  0.019086494  0.018449814            8 
 3494000   0.70117434   -7.7447341    798.20493  0.019037515  0.018444399           19 
 3495000   0.69373416   -7.7337194    798.99093  0.019050809  0.018438949           13 
 3496000   0.68786882   -7.7516579    797.88522  0.019019003  0.018433503           12 
 3497000   0.69549944   -7.7554333    798.62299  0.019031145  0.018428046            9 
 3498000   0.69687289   -7.7381093    798.67422  0.019026925  0.018422595            4 
 3499000   0.68832569   -7.7296733    797.28174  0.018988324  0.018417159            6 
 3500000   0.69958083   -7.7135719    799.89247  0.019045059  0.018411724            5 
 3501000   0.68592268    -7.736827    797.82817  0.018990483  0.018406286            8 
 3502000   0.68294579   -7.7720262    797.76476  0.018983551  0.018400826            4 
 3503000   0.68088692   -7.7534845    798.20533  0.018988613  0.018395368            7 
 3504000   0.67922645   -7.7571917    799.60344  0.019016444   0.01838991            6 
 3505000   0.68498738   -7.7569905    795.60922  0.018916054  0.018384461            3 
 3506000   0.69179127   -7.7495193    798.17062   0.01897154  0.018379002           10 
 3507000   0.68624715   -7.7619636    798.24269  0.018967843  0.018373548            6 
 3508000   0.68312907   -7.7749857     795.4631  0.018896406  0.018368057            9 
 3509000   0.68255653   -7.7600222    798.70296  0.018967962  0.018362589            5 
 3510000   0.66914777   -7.7382667    798.20658  0.018950774  0.018357125            5 
 3511000   0.69608878   -7.7407159    797.13244  0.018919881  0.018351663            4 
 3512000   0.69395347   -7.7406813    797.80287  0.018930402   0.01834621            9 
 3513000   0.66683597   -7.7592472    796.65609   0.01889781  0.018340768            6 
 3514000   0.69609885    -7.760484    798.68407  0.018940525  0.018335316            4 
 3515000   0.69582364   -7.7664168    796.57366  0.018885103  0.018329836            4 
 3516000   0.69354132   -7.7718379    796.25164    0.0188721  0.018324363            4 
 3517000   0.69256854   -7.7697196    797.03942    0.0188854  0.018318895            6 
 3518000   0.68800066   -7.7643725    795.40492  0.018841314  0.018313434            6 
 3519000   0.70445313   -7.7783486      797.941  0.018896017  0.018307963            2 
 3520000   0.68259247   -7.7555687    797.17393  0.018872489  0.018302503            4 
 3521000   0.68538603   -7.7529027    797.01614  0.018863394  0.018297035            6 
 3522000   0.70198522   -7.7351675    797.71718  0.018874626  0.018291603            8 
 3523000   0.67903174   -7.7568958    797.91982  0.018874061  0.018286159            4 
 3524000    0.6808975   -7.7574833    796.78758  0.018841931  0.018280688            5 
 3525000   0.69698438   -7.7442435    797.15629  0.018845302  0.018275232            5 
 3526000   0.68591872   -7.7365569    796.86409  0.018833052  0.018269763            5 
 3527000   0.68591927   -7.7284806    796.45599   0.01881807  0.018264297            5 
 3528000   0.69152015   -7.7639955    796.79741  0.018820801  0.018258838            6 
 3529000   0.68591308   -7.7635834    798.05395  0.018845139  0.018253366           10 
 3530000   0.67807595    -7.756902    795.56954  0.018781151    0.0182479            5 
 3531000   0.68014888   -7.7495519    797.62488  0.018824339  0.018242456            8 
 3532000   0.68416964   -7.7736177    797.21079  0.018809239  0.018237008            9 
 3533000   0.67266901   -7.7458523    797.60904  0.018813309   0.01823156            2 
 3534000   0.69089273   -7.7612791    796.05015  0.018771226  0.018226112            2 
 3535000   0.68961135   -7.7505813     797.4272  0.018798378  0.018220656            3 
 3536000   0.67855711   -7.7793526    795.95225  0.018758301  0.018215199            5 
 3537000   0.69296566   -7.7702459    796.66507  0.018769793  0.018209745            4 
 3538000    0.6817168   -7.7618022     796.3602  0.018757306  0.018204302            7 
 3539000   0.68295636   -7.7607595    797.62103  0.018781695  0.018198865            4 
 3540000   0.67468423    -7.755337    796.84907  0.018758217  0.018193414            3 
 3541000   0.68584194   -7.7688396    795.37066  0.018718127  0.018187966            3 
 3542000    0.6855393   -7.7544143    798.46855  0.018785727  0.018182508            6 
 3543000   0.67152387    -7.788843    796.42289   0.01873231  0.018177047            4 
 3544000   0.67083342   -7.7694001    798.21607  0.018769189  0.018171574            6 
 3545000   0.68172655   -7.7679114    796.85363  0.018731867   0.01816612            4 
 3546000   0.69739869   -7.7668844    797.94462  0.018752224  0.018160656           12 
 3547000   0.69137661   -7.7613222    795.78549   0.01869621    0.0181552            4 
 3548000   0.69762011   -7.7695666     797.7833  0.018737864  0.018149742            3 
 3549000    0.6817609   -7.7599775    797.00594  0.018714331  0.018144283            7 
 3550000   0.68588834   -7.7421257    797.80103  0.018727724  0.018138823            8 
 3551000   0.68072977   -7.7721408    797.51952  0.018715843  0.018133362            8 
 3552000   0.68101639   -7.7600124    798.85296  0.018741858  0.018127928            6 
 3553000   0.69133664   -7.7632718    797.45618  0.018703823  0.018122483            6 
 3554000   0.68600428    -7.761729    797.80268  0.018706685  0.018117055            6 
 3555000   0.68698996   -7.7660332    797.18925  0.018687043  0.018111629            3 
 3556000   0.68915211   -7.7691893    796.49003  0.018665402  0.018106192            5 
 3557000   0.68814858   -7.7831236    797.83733  0.018691719  0.018100759            4 
 3558000   0.69091984   -7.7573331    798.46353  0.018701132  0.018095316            4 
 3559000    0.6774565   -7.7937298    797.57783  0.018675139  0.018089867            5 
 3560000   0.68028793   -7.7734349    797.07865  0.018658208  0.018084425            4 
 3561000   0.67087604   -7.7515206    798.03986  0.018675462  0.018078984            6 
 3562000   0.67849081   -7.7363854    798.49907  0.018680963  0.018073559            3 
 3563000   0.68641191   -7.7748134    798.73711  0.018681287  0.018068143            3 
 3564000   0.67809978   -7.7876465    798.24651  0.018664574  0.018062713            3 
 3565000   0.66684141   -7.7740031    799.07316  0.018678662  0.018057286            4 
 3566000   0.68527202   -7.7873711    798.83123   0.01866777  0.018051865            3 
 3567000   0.67626527   -7.7567228    798.52225  0.018655318  0.018046444            5 
 3568000   0.68248827   -7.7731246    798.20194  0.018642609  0.018041024            6 
 3569000   0.68660308   -7.7793925    798.18941  0.018637093  0.018035598            7 
 3570000   0.67856929   -7.7894437    797.71171  0.018620722  0.018030177            6 
 3571000   0.67900169   -7.7583598    798.06259  0.018623695  0.018024757            4 
 3572000   0.69465139   -7.7433726     797.0415   0.01859466  0.018019334            6 
 3573000   0.67556729    -7.770853    796.94326  0.018587164  0.018013924            7 
 3574000   0.67638712   -7.7564128     798.4666  0.018617483  0.018008508            4 
 3575000   0.68453421   -7.7700461    798.21555  0.018606423  0.018003074            4 
 3576000    0.6836432    -7.784175      797.687  0.018588903   0.01799765            3 
 3577000   0.69186636   -7.7807485    797.91416  0.018588998  0.017992231            3 
 3578000    0.6810072    -7.791781    796.53931  0.018551782  0.017986825            8 
 3579000   0.67611762   -7.7745969     797.5661  0.018570506  0.017981402            9 
 3580000   0.68276153   -7.7791068    797.82815  0.018571419  0.017975977            9 
 3581000   0.66093584   -7.7895819    796.67689  0.018539442  0.017970558           10 
 3582000   0.69712109    -7.763801    797.52015  0.018553884  0.017965144            8 
 3583000      0.66292   -7.7665947     798.6746  0.018575556  0.017959733            3 
 3584000   0.66704717   -7.8068696     796.9536  0.018530357    0.0179543            6 
 3585000   0.68202755   -7.7866756    797.60315  0.018540287  0.017948877            7 
 3586000   0.67931086   -7.7816514    798.15796   0.01854801  0.017943458            4 
 3587000   0.67772092   -7.7797038    796.87708  0.018513082  0.017938019            5 
 3588000   0.67735116   -7.8296949    797.52956  0.018523076  0.017932596            7 
 3589000   0.69002108   -7.7929749     797.1701  0.018509569  0.017927178            5 
 3590000   0.67699241   -7.7897408    799.82738  0.018566095  0.017921754            3 
 3591000   0.67683061   -7.8288194    796.39143   0.01848119  0.017916334           10 
 3592000   0.67701722   -7.8135397     796.3622  0.018475367  0.017910904            6 
 3593000   0.67662787   -7.7959638    797.03015  0.018485716  0.017905493            6 
 3594000   0.66474281   -7.8076666    798.23879  0.018508597  0.017900086            3 
 3595000   0.67511826   -7.8012941    798.68554  0.018513805  0.017894682            5 
 3596000   0.67613885   -7.8004242    799.58476  0.018529495  0.017889282            7 
 3597000     0.656169   -7.7899535    796.93655  0.018462991  0.017883876            6 
 3598000   0.68444051   -7.7815707    797.02486  0.018459905  0.017878481            7 
 3599000   0.65142236   -7.8121548    797.77037  0.018472038  0.017873077            5 
 3600000   0.69271792     -7.81665    797.66055  0.018464364  0.017867668            6 
 3601000   0.67053687   -7.8100225    798.98483  0.018489883  0.017862255            4 
 3602000   0.66180576   -7.8057474    795.54223  0.018405104  0.017856844            6 
 3603000    0.6959852   -7.8000261    798.55448  0.018469666   0.01785144            9 
 3604000   0.66890928   -7.7977405    797.06254  0.018430044  0.017846026            5 
 3605000   0.67412395   -7.7721994    799.47393  0.018480673  0.017840622            2 
 3606000   0.66479138   -7.7911349    798.92016  0.018462751  0.017835226            6 
 3607000   0.68129323   -7.8270875    797.73027  0.018430142  0.017829831            5 
 3608000   0.67346563   -7.8029632    798.71492  0.018447776  0.017824424            5 
 3609000   0.67292385   -7.8068531    797.66757  0.018418481  0.017819006            6 
 3610000   0.68575404   -7.8117068    797.70627  0.018414272  0.017813593            3 
 3611000   0.67172875   -7.8086667    798.50752  0.018427664  0.017808197            4 
 3612000   0.68197897   -7.8137657    798.73737  0.018427865  0.017802791            6 
 3613000   0.65828288   -7.7868782    797.10961   0.01838522  0.017797388            3 
 3614000   0.68613369   -7.7956457     796.8343  0.018373785  0.017791984            5 
 3615000   0.67521425   -7.8023342    797.98405  0.018395206  0.017786584            7 
 3616000    0.6842961   -7.7913572    799.46438  0.018424234  0.017781195            4 
 3617000   0.67771218   -7.8102651    795.74318  0.018333407  0.017775798            3 
 3618000    0.6721076   -7.8014843    796.58618  0.018347756  0.017770398            6 
 3619000   0.67836755   -7.8098577    797.58455  0.018365675  0.017765028            4 
 3620000   0.66835088    -7.791702    799.36988  0.018401701  0.017759661            4 
 3621000   0.68117928   -7.7809037    799.24178  0.018393671  0.017754295            4 
 3622000   0.67737438   -7.7892861    800.70334  0.018422219  0.017748939            5 
 3623000   0.66945452    -7.843681    798.07312  0.018356636  0.017743576            3 
 3624000   0.67618189   -7.8182859    796.79732  0.018322234  0.017738208            7 
 3625000   0.67789357   -7.8126233    797.73921  0.018338833  0.017732854            3 
 3626000   0.66689726   -7.7992065    798.29001  0.018346433  0.017727498            6 
 3627000   0.67503582   -7.7929619    796.76366  0.018306306  0.017722143            5 
 3628000   0.68046212   -7.8109204    797.40882  0.018316079  0.017716778            4 
 3629000   0.66688988   -7.8184851      797.095  0.018303826  0.017711413            7 
 3630000   0.68020595   -7.8177004    796.86202  0.018293435  0.017706047            7 
 3631000    0.6680868   -7.8212164    797.64989  0.018306479  0.017700679           10 
 3632000   0.68945983   -7.8059587    799.88919  0.018352817  0.017695333            5 
 3633000   0.68128962   -7.8012395    800.54816  0.018362881  0.017689985            5 
 3634000   0.67475873   -7.8139272    799.31555  0.018329562  0.017684633            7 
 3635000   0.67411854   -7.8025485    798.07654  0.018296115   0.01767928            7 
 3636000   0.67294455   -7.7753901    797.36986  0.018274887  0.017673923            4 
 3637000   0.66468074   -7.8225006    798.68612  0.018300021  0.017668566            3 
 3638000    0.6708574   -7.8191512    797.50876  0.018268022  0.017663209            7 
 3639000   0.67672564   -7.8241325    797.16336  0.018255092  0.017657857            5 
 3640000   0.67903108   -7.7890676    798.72006  0.018285716  0.017652503            7 
 3641000   0.67488514    -7.802527    797.25266  0.018247108  0.017647143            5 
 3642000   0.65863934   -7.7902788    798.97041  0.018281402  0.017641787            5 
 3643000   0.67339603   -7.8109029    797.38203   0.01824005  0.017636436            5 
 3644000   0.67577638   -7.8121553    798.14698  0.018252538  0.017631077           10 
 3645000   0.67152153   -7.8336833    797.05632  0.018222595  0.017625716            5 
 3646000    0.6710847   -7.8147858    796.23706  0.018198872  0.017620353            4 
 3647000   0.66662237   -7.8283579    798.02647   0.01823477  0.017614988            7 
 3648000   0.67199122   -7.8311376    796.68882  0.018199215  0.017609615            6 
 3649000   0.67812286   -7.8463235    798.62622  0.018238472  0.017604251            3 
 3650000   0.68429045   -7.8304159    797.86595  0.018216118  0.017598861            7 
 3651000   0.66743641   -7.8437942    796.96697  0.018190609  0.017593469           12 
 3652000   0.65698029   -7.8105817    798.13313  0.018212238  0.017588078            5 
 3653000   0.67045282   -7.8439338    795.99407  0.018158456  0.017582701            2 
 3654000   0.66282368   -7.8334146    796.14965  0.018157034  0.017577321            5 
 3655000    0.6674875   -7.8077008    798.72799  0.018210853   0.01757196            9 
 3656000   0.65538677   -7.8234401    798.42431   0.01819895  0.017566603            7 
 3657000   0.65422035   -7.8285396    797.93987  0.018182934  0.017561253            4 
 3658000     0.680748   -7.8135927    797.43518  0.018166466  0.017555919            6 
 3659000   0.66484709   -7.7951525    798.01043  0.018174602  0.017550583            4 
 3660000    0.6675097   -7.8154673    798.78747  0.018187329  0.017545248            6 
 3661000   0.66328361   -7.8142903    798.62417  0.018178644   0.01753992            7 
 3662000   0.66310919   -7.7738876    798.41337  0.018168882  0.017534602            5 
 3663000    0.6719819   -7.8110141    798.41382  0.018163933  0.017529279            7 
 3664000   0.67600746   -7.7939446    799.65097  0.018187113  0.017523971            3 
 3665000   0.67161218   -7.8030199    799.11009  0.018169852  0.017518669            7 
 3666000   0.66994935   -7.7809695      799.431   0.01817219  0.017513382           10 
 3667000   0.66544225   -7.8078393    799.20486  0.018162096  0.017508077            3 
 3668000   0.68635989   -7.8104118    800.51737  0.018186963  0.017502775            6 
 3669000   0.66672269   -7.7945166    798.07252  0.018126477  0.017497484            5 
 3670000   0.66783288    -7.806918    799.36901  0.018150977  0.017492179            7 
 3671000   0.67306141   -7.8054961    799.60973  0.018151497  0.017486866            6 
 3672000   0.65450264   -7.7887342    796.94901   0.01808617  0.017481564            6 
 3673000   0.67847171    -7.826991    798.10093  0.018107381   0.01747626            9 
 3674000   0.67718011   -7.8360399    798.81509  0.018118651  0.017470944            9 
 3675000   0.66555504   -7.8152606    798.44144  0.018105248  0.017465622            4 
 3676000    0.6732876   -7.8308774    796.95456  0.018066616  0.017460309            4 
 3677000   0.66072981   -7.8305331    797.93218  0.018083859  0.017454996           15 
 3678000   0.67489583   -7.8082563    798.03572  0.018081288  0.017449691           10 
 3679000   0.64278536   -7.8301569    799.18753  0.018102463  0.017444368            7 
 3680000   0.64619367   -7.8387309    796.69822  0.018041173  0.017439036           12 
 3681000   0.66216335   -7.8078079    799.17426  0.018092327  0.017433712            5 
 3682000   0.65423874   -7.8132537    798.55906  0.018073489  0.017428406            3 
 3683000   0.65991784     -7.80883    797.53715   0.01804546    0.0174231            4 
 3684000    0.6649357   -7.8221852    798.66603  0.018066097  0.017417796            5 
 3685000    0.6592617   -7.8022567    798.37931  0.018054711   0.01741249            3 
 3686000   0.65101102   -7.8127812    799.21107  0.018068617  0.017407178            3 
 3687000   0.65362477   -7.8080674    797.14108  0.018016931  0.017401865            5 
 3688000    0.6643842   -7.8075142    797.87765  0.018028689  0.017396562            7 
 3689000    0.6580536   -7.8190803    798.33426  0.018034116   0.01739125           10 
 3690000   0.67580781   -7.8159033    799.00393  0.018044353  0.017385937            4 
 3691000   0.66434412   -7.8080225    797.60112  0.018007792  0.017380621           11 
 3692000   0.65804735   -7.8128947    797.02805  0.017989979  0.017375318            9 
 3693000   0.66466872   -7.8020485    799.13485  0.018032649  0.017370017            8 
 3694000   0.65552852   -7.8256333     799.2797  0.018031035   0.01736472           11 
 3695000   0.66093911   -7.8138638    799.17353   0.01802376  0.017359434            9 
 3696000   0.66513462   -7.8150595    799.59699  0.018028431  0.017354148            4 
 3697000   0.65365167   -7.8089327    798.25051  0.017993204  0.017348866            5 
 3698000   0.64881725   -7.8220752    798.28361  0.017989084   0.01734358            5 
 3699000   0.65805744   -7.8030858      800.531  0.018034852  0.017338316            9 
 3700000   0.66858515   -7.8359475    798.64135  0.017987418  0.017333054            4 
 3701000   0.66665899   -7.8162188    798.47264  0.017978759  0.017327779            5 
 3702000   0.68342414   -7.8269034    798.50126  0.017974547  0.017322495            9 
 3703000   0.66172527   -7.8413726    797.40158  0.017944945  0.017317218            7 
 3704000   0.66178814   -7.8397198    797.85168  0.017950227  0.017311935            9 
 3705000    0.6647975   -7.8250464    799.85912  0.017990534  0.017306657            5 
 3706000   0.65163018   -7.8337815    798.93635   0.01796493  0.017301375            3 
 3707000   0.66745703   -7.8404433    797.44406  0.017926537  0.017296079            4 
 3708000   0.66538289    -7.836449    798.94229  0.017955373  0.017290801            4 
 3709000   0.65529443    -7.824885    799.36175  0.017959957    0.0172855           11 
 3710000   0.65096078   -7.8429027    797.60292  0.017915609  0.017280194            5 
 3711000   0.65781891   -7.8463463    797.06873  0.017898786  0.017274899            5 
 3712000   0.66148346   -7.8245333    796.90928  0.017890384    0.0172696            5 
 3713000   0.66296712   -7.8112016    797.91746  0.017908193  0.017264323            3 
 3714000   0.66026777   -7.8315471    796.04878  0.017861443   0.01725903            6 
 3715000   0.65890097   -7.8285831     798.2979  0.017907086  0.017253718            8 
 3716000   0.65950484   -7.8277602    799.59102  0.017931266  0.017248426            6 
 3717000   0.66467848   -7.8545093    797.68179  0.017883638  0.017243139            4 
 3718000   0.66947005   -7.8432593    798.00016  0.017885964   0.01723785            5 
 3719000   0.64306859   -7.8613863    796.91117  0.017856753  0.017232552            3 
 3720000   0.65299858   -7.8397194    798.20578  0.017880954  0.017227251            4 
 3721000   0.64704918   -7.8413574    797.86003  0.017868405  0.017221962            4 
 3722000   0.67308102   -7.8208125    799.44944   0.01789919   0.01721668            5 
 3723000   0.65396396   -7.8380913    797.91847  0.017860114  0.017211409            2 
 3724000   0.66823273    -7.852181    798.19021  0.017861399  0.017206135            6 
 3725000   0.65716582   -7.8251205    798.37504  0.017860739  0.017200858            5 
 3726000   0.65543338   -7.8653895    799.14199  0.017873099  0.017195579            4 
 3727000   0.65832439   -7.8277551    798.99968  0.017865121  0.017190305            3 
 3728000   0.66023405   -7.8683948    797.19289  0.017819941   0.01718502            5 
 3729000   0.65226553   -7.8395888    796.42619  0.017798029  0.017179743            4 
 3730000   0.64955378    -7.811608    797.25623  0.017811801  0.017174466           12 
 3731000   0.64194587    -7.850487    798.17534  0.017827556  0.017169187            3 
 3732000   0.65713606    -7.832953    799.35482  0.017849116  0.017163922            4 
 3733000   0.64638405   -7.8276566    799.73913  0.017852914  0.017158665            3 
 3734000   0.65098121   -7.8245952    797.44672  0.017796972  0.017153407            2 
 3735000   0.65737716   -7.8190391    797.20613  0.017786839  0.017148147            4 
 3736000   0.65589069   -7.8695367    797.00861  0.017777672  0.017142888            7 
 3737000   0.65893573   -7.8466118    798.51486  0.017806504  0.017137619           13 
 3738000   0.65313403   -7.8543028    798.27259  0.017796339  0.017132368            5 
 3739000   0.64767316   -7.8587503    799.12979  0.017810684  0.017127117            6 
 3740000    0.6529102   -7.8322324    798.73586  0.017797145  0.017121869           13 
 3741000    0.6519786   -7.8321309    796.93138  0.017752192  0.017116613            6 
 3742000   0.65176891   -7.8318871    798.03854  0.017772104  0.017111359            5 
 3743000   0.65746661   -7.8508333    798.58899  0.017779611  0.017106103            8 
 3744000   0.65182823   -7.8369735    798.47668  0.017772362  0.017100864            4 
 3745000   0.64611968   -7.8246567    798.21314  0.017761752  0.017095621            4 
 3746000   0.63062867   -7.8489991    798.45359   0.01776236  0.017090372            7 
 3747000   0.65864723   -7.8276147    799.32924  0.017777094  0.017085131            5 
 3748000   0.63615497   -7.8197764    798.66449   0.01775757  0.017079905            5 
 3749000   0.63416395   -7.8389916    797.38093  0.017724303  0.017074666            7 
 3750000    0.6503535   -7.8412212    798.03542   0.01773412  0.017069418           13 
 3751000   0.63474546   -7.8305109    797.21414  0.017711147  0.017064169           12 
 3752000   0.65839233   -7.8539714    796.16367  0.017683095   0.01705892            8 
 3753000   0.64297045   -7.8263059    797.26453  0.017702827   0.01705368            5 
 3754000   0.63897793   -7.8303174    797.85194  0.017711151  0.017048446            9 
 3755000    0.6319271   -7.8086364    798.12184  0.017712424  0.017043208           14 
 3756000   0.64807176   -7.8334017    797.59584  0.017696038  0.017037981            5 
 3757000   0.65107098   -7.8142886    798.59784  0.017713553  0.017032752            5 
 3758000   0.64715005   -7.8366714    799.15007  0.017721085  0.017027536            6 
 3759000   0.63593305    -7.826069    797.78785  0.017686172  0.017022332            5 
 3760000   0.64629732   -7.8277272    799.36869  0.017716505  0.017017124            8 
 3761000   0.64125835   -7.8197304     798.0501  0.017682578  0.017011912           10 
 3762000   0.64745263   -7.8611911    798.05929  0.017678081  0.017006685           14 
 3763000   0.64978197    -7.861153    796.78289  0.017645117  0.017001438           11 
 3764000   0.65130465   -7.8420582    797.56007  0.017657635   0.01699617            4 
 3765000   0.64948217   -7.8531579    800.02246  0.017707447  0.016990904            7 
 3766000   0.63566833   -7.8606566    796.76579  0.017630682  0.016985642           14 
 3767000   0.64418113   -7.8666505    797.96706  0.017652576  0.016980374            7 
 3768000   0.64282755   -7.8823686    797.70899  0.017642184  0.016975114           22 
 3769000   0.63529974   -7.8421862    798.15181  0.017647294  0.016969856           11 
 3770000   0.66634708   -7.8648977    797.93109  0.017637734  0.016964614            5 
 3771000   0.66682498   -7.8135389    797.63936   0.01762661  0.016959378            8 
 3772000   0.62834378   -7.8478107    797.94816  0.017628759  0.016954145            4 
 3773000   0.65140915   -7.8754303    796.74957  0.017597614  0.016948916            7 
 3774000   0.66035518   -7.8366402    799.91662  0.017662882  0.016943698            6 
 3775000   0.64411899   -7.8620066    797.48579  0.017604543  0.016938482           11 
 3776000   0.65104549   -7.8746904    798.91186  0.017631353  0.016933272            7 
 3777000   0.63904976    -7.847597    796.94355  0.017583257  0.016928067            6 
 3778000   0.63888109   -7.8573937    798.78658  0.017619256  0.016922851            7 
 3779000   0.63930042   -7.8549259    799.19608  0.017623624  0.016917657            6 
 3780000   0.64766939   -7.8453128    798.40923  0.017601614  0.016912474            6 
 3781000   0.63113555   -7.8469124    798.95758  0.017609045  0.016907299            5 
 3782000   0.66214462   -7.8382785    799.39327  0.017613989   0.01690211            6 
 3783000   0.64324431   -7.8232249    798.09899  0.017580822  0.016896931            6 
 3784000   0.63543206   -7.8550473    797.89586  0.017571702  0.016891748            7 
 3785000   0.64310915   -7.8433228     797.9057  0.017567276  0.016886547            7 
 3786000   0.65021836   -7.8448359    797.83709  0.017561126  0.016881355            5 
 3787000   0.64302046   -7.8586903     796.7652  0.017532902  0.016876151            5 
 3788000   0.64320685   -7.8581166    797.98599   0.01755513  0.016870952            3 
 3789000   0.64468118   -7.8656473    798.34183  0.017558323  0.016865758            5 
 3790000   0.65783513   -7.8608564    797.04008  0.017525068  0.016860555            5 
 3791000   0.63975378   -7.8665763    797.62834  0.017533376  0.016855357            6 
 3792000   0.63915946   -7.8421009    798.17947  0.017540864  0.016850154           10 
 3793000   0.64697254   -7.8411337    798.72854  0.017548303  0.016844962            3 
 3794000   0.64355295   -7.8605058    798.90133  0.017547472  0.016839761            7 
 3795000   0.63890624   -7.8631564    798.22388  0.017527973  0.016834559            6 
 3796000   0.63765111   -7.8590455    798.15281  0.017521795  0.016829364            3 
 3797000   0.64453763   -7.8672333    797.25619  0.017497502  0.016824157            6 
 3798000   0.64573842   -7.8631483    797.26147  0.017493011  0.016818955            8 
 3799000   0.63509648   -7.8451363      797.683  0.017497653  0.016813753            5 
 3800000   0.64850716   -7.8639845    796.79911  0.017473665  0.016808548            4 
 3801000   0.63144602    -7.875113    798.68983   0.01751052  0.016803346            4 
 3802000   0.65409463   -7.8877482    796.40132  0.017455754  0.016798142            4 
 3803000   0.63718888     -7.86195    795.58833  0.017433349  0.016792939            6 
 3804000   0.64654708   -7.8505595    797.11479  0.017462206  0.016787741            6 
 3805000   0.64359436   -7.8549683    797.97291  0.017476411  0.016782546            6 
 3806000    0.6466513   -7.8626336     796.8818  0.017447929  0.016777355            5 
 3807000   0.64824758   -7.8594641    798.19856  0.017472169  0.016772161           11 
 3808000   0.65408716   -7.8623811    796.03477  0.017420229  0.016766956            7 
 3809000   0.63342609   -7.8716508    797.94256  0.017457394  0.016761749            7 
 3810000     0.640525   -7.8756729    798.62546  0.017467748  0.016756544            9 
 3811000   0.65093309   -7.8722423    796.92244  0.017425926  0.016751347            2 
 3812000   0.63112693   -7.8728055    798.57726   0.01745753  0.016746133            3 
 3813000   0.63265749   -7.8962492    797.18329  0.017422486  0.016740934            8 
 3814000   0.64526055   -7.8721796    796.93898   0.01741258  0.016735715            7 
 3815000   0.63807148   -7.8778418    796.65366  0.017401784  0.016730523            5 
 3816000   0.64196539    -7.869691    798.44591  0.017436363  0.016725321            5 
 3817000   0.63509912   -7.8744495    797.16322   0.01740379  0.016720127            7 
 3818000   0.64714614   -7.8946184    796.06422  0.017375245  0.016714928            6 
 3819000   0.63531261   -7.8995811    797.91006  0.017410973  0.016709727            4 
 3820000    0.6435138   -7.8884405    797.02861  0.017387186  0.016704517            6 
 3821000   0.63444939   -7.8948188     796.3025    0.0173668  0.016699314            5 
 3822000   0.65471803    -7.887722    797.77743  0.017394415  0.016694106            5 
 3823000   0.62575127   -7.8865684    797.80634  0.017390495  0.016688903            6 
 3824000   0.64137048   -7.8876189     798.6326  0.017403953  0.016683705            5 
 3825000   0.64543137   -7.8720052    796.34736  0.017349616  0.016678505            5 
 3826000   0.63671775   -7.8864871     797.2953  0.017365728    0.0166733            6 
 3827000   0.64926924   -7.8934059    797.60446  0.017367922  0.016668095            5 
 3828000   0.64953447   -7.8857738     796.3571  0.017336231  0.016662885            4 
 3829000   0.63743625   -7.9021323    796.06394  0.017325323  0.016657676            7 
 3830000   0.63197721   -7.9031921    797.41446  0.017350184  0.016652477            5 
 3831000   0.64924176   -7.8770583    798.64729  0.017372472  0.016647304            4 
 3832000   0.63216464   -7.8726424    795.85076  0.017307123  0.016642136            5 
 3833000   0.64010493   -7.8957455    796.89363  0.017325281  0.016636941            4 
 3834000   0.64674214   -7.8857811     796.7232  0.017317058  0.016631752            4 
 3835000   0.63081488   -7.8608815    797.61105  0.017331835  0.016626579            7 
 3836000   0.62823272   -7.8957555    798.15513  0.017339136  0.016621398            6 
 3837000   0.65584116   -7.8681176    797.28348  0.017315687  0.016616225            6 
 3838000   0.63271481   -7.8787314    798.75961  0.017343226  0.016611045            4 
 3839000   0.63399927   -7.8947036    797.45099  0.017310302  0.016605867            5 
 3840000   0.65345468   -7.8862904    797.54461  0.017307826  0.016600695            6 
 3841000     0.625739   -7.9097654    798.56634  0.017325487  0.016595533            8 
 3842000   0.63441131   -7.8697062    798.80605  0.017326177  0.016590362            7 
 3843000   0.63327126   -7.8921185    798.50612  0.017315164  0.016585198            6 
 3844000   0.63295189   -7.8800183    796.71589   0.01727185   0.01658003            4 
 3845000   0.64057223   -7.8784675    796.31001  0.017258561  0.016574863            3 
 3846000   0.62510201   -7.8873582    796.81863  0.017265094  0.016569706            3 
 3847000   0.64803511   -7.9103089    797.66305  0.017278898  0.016564539            5 
 3848000   0.64129503    -7.880239    798.10845  0.017284053  0.016559388            6 
 3849000   0.64801095   -7.8800247    796.16389  0.017237462  0.016554221            4 
 3850000   0.63176501    -7.894784    797.46701  0.017261191  0.016549048            4 
 3851000   0.63461504   -7.9024703    797.00268  0.017246661  0.016543897            6 
 3852000   0.63611351    -7.891601     796.5598  0.017232602  0.016538733            4 
 3853000   0.63865665   -7.9196727       797.31  0.017244355  0.016533574            6 
 3854000   0.63382193    -7.901766    796.84017  0.017229722  0.016528398            4 
 3855000    0.6313649   -7.8849567     797.1142  0.017231176  0.016523244            4 
 3856000   0.63169075   -7.8687697    797.89036  0.017243481  0.016518084            4 
 3857000   0.63245324   -7.8901638    798.64108   0.01725523  0.016512935            5 
 3858000   0.63322332   -7.8855789    798.68646  0.017251738  0.016507798            6 
 3859000    0.6297234   -7.8854724    797.32668  0.017217904  0.016502664            6 
 3860000   0.63639875    -7.903744    796.01748  0.017185179   0.01649752            3 
 3861000   0.62009623   -7.8975068    797.12195  0.017204566  0.016492384           10 
 3862000   0.63428275   -7.8830756    797.16157  0.017200966  0.016487254           14 
 3863000   0.63392776   -7.8865782    797.42998  0.017202303  0.016482119            6 
 3864000   0.62826506   -7.8927745     798.1546  0.017213479  0.016476983            3 
 3865000   0.63054087   -7.8879576    796.60415  0.017175596  0.016471849            5 
 3866000   0.61621529   -7.9125533      797.215  0.017184321    0.0164667            8 
 3867000   0.63402022   -7.8998693    795.40394  0.017140849  0.016461553            4 
 3868000     0.624827   -7.8830425    796.26927   0.01715506   0.01645641            5 
 3869000   0.63193364   -7.9018316    796.06493  0.017146225   0.01645127            6 
 3870000   0.63644591   -7.9091007    795.65269  0.017132917  0.016446135            4 
 3871000   0.64027431   -7.9237116    797.67577  0.017172044  0.016440998            3 
 3872000   0.65462798   -7.8936089     796.6894   0.01714638  0.016435862            4 
 3873000   0.62687731   -7.8885564    797.32909  0.017155717  0.016430721            8 
 3874000    0.6190138   -7.8939036    796.42471  0.017131834  0.016425576            6 
 3875000   0.63893039   -7.9015455    796.24348  0.017123516  0.016420439            4 
 3876000   0.63587164   -7.9080736    797.06063  0.017136666  0.016415308            2 
 3877000   0.62520255   -7.8947473    796.82249  0.017127128  0.016410176            8 
 3878000   0.63801813   -7.9105469    796.56322   0.01711714  0.016405049            5 
 3879000   0.63390277   -7.9001214    795.75079  0.017095274  0.016399912            6 
 3880000   0.62360901   -7.9138875    796.32206  0.017103137  0.016394774           11 
 3881000   0.61817428   -7.9205899    795.64559  0.017084205   0.01638964            5 
 3882000   0.62955791   -7.8971052    796.60526  0.017100405   0.01638451            4 
 3883000    0.6412933   -7.8923834    799.20706  0.017151838  0.016379391            4 
 3884000   0.61725592   -7.8752772    795.90137  0.017076497  0.016374281            3 
 3885000   0.63950952   -7.8932235    796.64768   0.01708811   0.01636916            5 
 3886000    0.6268745   -7.8889554      795.704  0.017063476  0.016364033            7 
 3887000   0.61621503   -7.9249608    796.75668  0.017081654  0.016358904            5 
 3888000   0.63017854   -7.9086912    798.05214  0.017105027  0.016353769            7 
 3889000   0.63088592      -7.9125    796.73272  0.017072356  0.016348643            4 
 3890000   0.62200755   -7.9025008    797.42256  0.017082746  0.016343516            5 
 3891000   0.61711385    -7.888133    797.94232  0.017089487  0.016338401            5 
 3892000   0.63839904    -7.896342    796.55869   0.01705547  0.016333291            3 
 3893000   0.63457564   -7.9155782    796.98893  0.017060299  0.016328181            4 
 3894000   0.61615073   -7.8993207    797.11735  0.017058666  0.016323073            6 
 3895000   0.62973134   -7.9257111    796.32506  0.017037335   0.01631796            3 
 3896000    0.6472852   -7.9192748    797.69988  0.017062369  0.016312854            5 
 3897000   0.62851722   -7.9115075    796.79094  0.017038554  0.016307745            8 
 3898000   0.64051587   -7.8969879    798.20187  0.017064347  0.016302648            5 
 3899000   0.62029413   -7.9150933    798.07294  0.017057214  0.016297541            3 
 3900000   0.64492099    -7.920142    796.04355  0.017009478  0.016292438            6 
 3901000   0.62211925   -7.9295699    796.19549  0.017008363  0.016287341            6 
 3902000    0.6174005   -7.9188658    796.69822  0.017014741   0.01628223            5 
 3903000    0.6269052   -7.9248308    797.57396  0.017029079  0.016277131            5 
 3904000   0.63186864   -7.9047896    797.08282  0.017014234  0.016272033            5 
 3905000   0.63592482   -7.9051913    796.73664  0.017002489  0.016266943            3 
 3906000   0.62200772   -7.9038338    796.38923  0.016990724  0.016261851            7 
 3907000   0.61432729   -7.9148728    798.71717  0.017036029  0.016256768            6 
 3908000   0.61813826   -7.9042454     798.0135  0.017016664  0.016251686            6 
 3909000   0.62399296   -7.9039444    797.42968  0.016999865  0.016246615            5 
 3910000   0.63150329   -7.9154992    797.84714  0.017004415  0.016241536            7 
 3911000     0.631127    -7.918563    798.32248  0.017010195  0.016236453            7 
 3912000   0.63675726   -7.9092089    799.21668  0.017024895  0.016231385            5 
 3913000   0.62666551   -7.9092334    797.84583   0.01699135  0.016226305           13 
 3914000   0.63067154    -7.916299    795.99088  0.016947515  0.016221224            8 
 3915000    0.6207204   -7.9182012     796.8282  0.016961009  0.016216148            5 
 3916000   0.63133519    -7.917851    796.80464  0.016956176  0.016211067            5 
 3917000   0.62021486   -7.9291674    796.36283  0.016942448  0.016205973            9 
 3918000   0.61209179   -7.9147918    797.29096  0.016957865  0.016200889            7 
 3919000   0.61421294   -7.9333168    797.67689  0.016961744  0.016195815            6 
 3920000   0.61267695   -7.9072429    798.73082  0.016979822  0.016190741            8 
 3921000   0.62500552   -7.9234256    795.86996  0.016914689  0.016185669            4 
 3922000   0.60882298   -7.9214636    798.05473  0.016956798  0.016180608            3 
 3923000   0.63015237   -7.9326339    797.62656   0.01694338  0.016175552            7 
 3924000   0.62671371   -7.9288452    796.77904  0.016921064  0.016170494            4 
 3925000   0.61107507   -7.9271594    796.09593  0.016902249  0.016165426            8 
 3926000   0.62381238   -7.9260954    796.33136  0.016902941  0.016160363            9 
 3927000   0.63472338   -7.9304605    797.57565  0.016925041  0.016155298            5 
 3928000    0.6330772    -7.943206    795.63185  0.016879494  0.016150237            5 
 3929000   0.60246938   -7.9175302     796.1761  0.016886742  0.016145173            5 
 3930000   0.63528861   -7.9408209    796.90091  0.016897814  0.016140103            4 
 3931000   0.62725632   -7.9433204    798.23672  0.016921833  0.016135037            6 
 3932000   0.61987694    -7.929482    796.92315   0.01688969  0.016129964            5 
 3933000   0.62451664   -7.9164325    797.17531  0.016890739    0.0161249            4 
 3934000   0.63451006   -7.9119003    796.36186  0.016869214  0.016119843            4 
 3935000   0.63916908   -7.9283116    796.46135  0.016867034  0.016114774            3 
 3936000   0.61718592   -7.9371856    796.62013   0.01686611  0.016109717            5 
 3937000   0.62077813   -7.9060045    796.94828  0.016868772  0.016104652           11 
 3938000    0.6320565   -7.9233716    796.31099  0.016851003  0.016099584            5 
 3939000   0.60940041   -7.9355144    795.14675  0.016822094  0.016094522            3 
 3940000   0.62728353   -7.9261603    796.33632  0.016842985  0.016089463            4 
 3941000   0.61727974    -7.926373    795.91404  0.016829782  0.016084405            5 
 3942000   0.62283469   -7.9209024    797.22975  0.016853326  0.016079361            3 
 3943000   0.62273322   -7.9345604     795.9289  0.016821559  0.016074301            4 
 3944000    0.6172898   -7.9220282    795.14433  0.016800717  0.016069244            2 
 3945000    0.6189424   -7.9240755    796.50608  0.016825224  0.016064185            6 
 3946000   0.62000278   -7.9154332    797.65697  0.016845265  0.016059134            5 
 3947000   0.61548801   -7.9119853    796.01522  0.016806334  0.016054088            5 
 3948000    0.6143709   -7.9315173    795.17327  0.016784306   0.01604904            7 
 3949000   0.62392505    -7.947734    797.63195   0.01683194  0.016043999            7 
 3950000   0.61664816   -7.9209119    797.12954  0.016817079  0.016038956            6 
 3951000   0.60943999   -7.9484772    794.31369  0.016753431  0.016033896            6 
 3952000    0.6155683   -7.9389105    795.87298  0.016782072  0.016028833            9 
 3953000   0.61811181   -7.9340296    796.11792   0.01678299  0.016023778            5 
 3954000   0.60852405   -7.9469033     796.3055  0.016782699  0.016018719            4 
 3955000   0.61719577   -7.9350519    796.51664  0.016782904   0.01601367           10 
 3956000   0.61018267    -7.917741    796.46454  0.016777564  0.016008622            8 
 3957000   0.60706765   -7.9226583    796.90118   0.01678252  0.016003584            5 
 3958000    0.6168506   -7.9362063    796.22184  0.016763977  0.015998541            7 
 3959000   0.62391707   -7.9434758    796.45532  0.016764657   0.01599349            5 
 3960000    0.6208488   -7.9404002    797.35712  0.016779401  0.015988446            6 
 3961000   0.60554904   -7.9477473    795.55723  0.016737298  0.015983404            7 
 3962000    0.6344158    -7.943225    795.93207  0.016740957  0.015978364            5 
 3963000   0.61526318   -7.9381704    795.52203  0.016728111  0.015973329            6 
 3964000    0.6159096   -7.9231792    795.64787  0.016726536  0.015968294            9 
 3965000   0.62465388   -7.9195503    797.69459  0.016765334  0.015963263            6 
 3966000   0.60955967   -7.9298323    797.34993  0.016753865  0.015958236            6 
 3967000   0.61703868   -7.9495978     796.2083   0.01672566  0.015953202            5 
 3968000   0.63063577   -7.9388881      795.343  0.016703272  0.015948168            8 
 3969000   0.62884657   -7.9345972    794.61211  0.016683718  0.015943149            7 
 3970000   0.61592479    -7.935288    796.14356  0.016711662  0.015938125            5 
 3971000   0.62337781   -7.9466606    796.25228  0.016709735  0.015933099            8 
 3972000   0.62123439   -7.9391188    796.82407  0.016717524  0.015928079            5 
 3973000    0.6247978   -7.9527902    795.49359   0.01668541  0.015923058            3 
 3974000   0.61795288   -7.9454604    795.99088  0.016691639  0.015918046            6 
 3975000   0.60908044   -7.9420219    796.24587  0.016692785  0.015913025            9 
 3976000   0.62386821   -7.9365756    796.06583  0.016684814  0.015908005            4 
 3977000   0.60048149    -7.960015    795.05163  0.016659367  0.015902987            7 
 3978000   0.61076239   -7.9284055    796.87277  0.016693329  0.015897972            5 
 3979000   0.60690836   -7.9372286    795.91863  0.016669151  0.015892958            9 
 3980000   0.60564004   -7.9363467    797.26364  0.016693125   0.01588795            4 
 3981000   0.61672631   -7.9313761    797.10615  0.016685635  0.015882937            7 
 3982000   0.61155103   -7.9271834    797.44585  0.016688554  0.015877931            4 
 3983000   0.62287213   -7.9464066    796.39454  0.016662368  0.015872927            5 
 3984000   0.62186329   -7.9463387    795.84215  0.016646631  0.015867918            7 
 3985000   0.61484137   -7.9563138    795.42705  0.016633774  0.015862911            5 
 3986000   0.61424021   -7.9494669    794.99826  0.016620636  0.015857919            5 
 3987000   0.61643348   -7.9472884    796.12721  0.016640064  0.015852923            4 
 3988000   0.61800183   -7.9463282    797.64988  0.016667709  0.015847926            5 
 3989000   0.61978794    -7.941579    796.62075  0.016642031  0.015842934            5 
 3990000   0.61044379   -7.9321504    797.86006  0.016663744  0.015837934            3 
 3991000   0.61624044   -7.9506358    796.76863  0.016636779   0.01583295            8 
 3992000    0.6106461   -7.9398534    794.78417  0.016591186  0.015827962            8 
 3993000   0.61891283   -7.9330602    796.58466  0.016624607  0.015822977            3 
 3994000   0.59676834   -7.9275757    796.10646  0.016610467  0.015817987           15 
 3995000   0.61610449   -7.9478167    793.92575  0.016560821  0.015813002            4 
 3996000   0.62156366    -7.951298    795.47089  0.016588899  0.015808012            6 
 3997000   0.61407764    -7.933047    797.21249  0.016621059  0.015803019            5 
 3998000   0.61759033   -7.9299975    795.84977  0.016588498  0.015798039            6 
 3999000   0.61373093   -7.9479249     797.0593  0.016609554  0.015793068            5 
 4000000   0.59157457   -7.9326671    797.26668  0.016609723  0.015788101            8 
 4001000   0.60216316   -7.9362313    796.24911  0.016584377  0.015783135            9 
 4002000    0.6143337   -7.9396311    796.89643  0.016593712  0.015778174            7 
 4003000   0.61201437   -7.9379131    796.95509  0.016590788  0.015773211            7 
 4004000   0.60712751   -7.9510919    796.95292  0.016586599  0.015768253            8 
 4005000   0.61716656   -7.9481551     796.5019  0.016573073    0.0157633            4 
 4006000   0.60073114   -7.9486577    796.15249  0.016561668  0.015758351           15 
 4007000   0.60982158   -7.9377671    796.60805  0.016567009  0.015753399            6 
 4008000   0.60230411   -7.9647377    798.61392  0.016604581  0.015748454            3 
 4009000   0.61573408   -7.9572078    796.33759  0.016553122  0.015743501            4 
 4010000   0.60746401   -7.9590646    793.94645  0.016499303  0.015738539            3 
 4011000   0.60809179   -7.9606727    797.57572  0.016570592  0.015733578            5 
 4012000    0.6051221   -7.9657435    797.13853  0.016557381  0.015728624            7 
 4013000   0.62381367   -7.9417439    796.67177  0.016543562  0.015723671            4 
 4014000   0.61526162   -7.9399066    796.04484  0.016526425  0.015718721            8 
 4015000   0.60920126   -7.9571569    796.18695  0.016525258  0.015713772            7 
 4016000   0.61773904   -7.9363386     796.5599  0.016528882  0.015708841            5 
 4017000   0.60831057   -7.9624631    795.98245  0.016512788   0.01570391            3 
 4018000   0.60187859   -7.9570366    797.29113  0.016535821  0.015698972           12 
 4019000    0.6203626   -7.9410194    796.14523  0.016507946  0.015694039            5 
 4020000   0.60538446   -7.9379491    794.50295  0.016469796  0.015689101            7 
 4021000   0.61165433   -7.9471932    794.91984   0.01647434   0.01568416           12 
 4022000   0.61902159   -7.9685213    795.93022  0.016491178  0.015679219           12 
 4023000   0.60570471   -7.9559701    797.00609  0.016509365  0.015674268           10 
 4024000   0.60288759   -7.9506572    795.75812  0.016479418  0.015669321            9 
 4025000   0.61154965   -7.9539519    797.19355  0.016505042  0.015664382           11 
 4026000   0.60389686   -7.9565231    796.79781  0.016492752  0.015659447            5 
 4027000   0.62284338   -7.9702594    798.79458  0.016529976  0.015654513            4 
 4028000   0.60389738   -7.9258971     796.2863   0.01647398  0.015649587            5 
 4029000   0.61339791   -7.9460198    796.42107  0.016472679  0.015644667            3 
 4030000   0.60050303   -7.9542015    797.96255  0.016500466  0.015639742            7 
 4031000   0.60939488   -7.9400496    796.20932  0.016460128   0.01563482            6 
 4032000   0.60033937   -7.9502669     795.6955  0.016445426  0.015629898            7 
 4033000   0.61204614   -7.9597082    795.70186   0.01644148  0.015624975           10 
 4034000    0.6145172   -7.9581192    796.89541   0.01646206  0.015620053            8 
 4035000   0.61701501    -7.939536    797.20582  0.016464391  0.015615135           10 
 4036000   0.60620792   -7.9629622    796.83395  0.016452634   0.01561022           13 
 4037000   0.60361491    -7.955816     796.3202  0.016437953  0.015605303           10 
 4038000   0.60352512   -7.9641889    796.38057  0.016435128  0.015600386            7 
 4039000    0.5963472   -7.9425864    795.96205  0.016422424  0.015595468            4 
 4040000   0.61139747   -7.9589346    796.21443  0.016423565  0.015590547            9 
 4041000   0.59523947   -7.9543955    796.81807  0.016431949  0.015585626           15 
 4042000   0.59567764   -7.9460842    796.77936  0.016427086  0.015580715           19 
 4043000   0.60290334   -7.9618344    796.27593  0.016412646  0.015575804            8 
 4044000   0.60938267   -7.9596641    795.32636   0.01638902   0.01557089           10 
 4045000   0.60787185   -7.9629668    797.57872   0.01643137  0.015565976            5 
 4046000   0.60133944   -7.9677896    797.68297  0.016429456  0.015561071            4 
 4047000   0.60119111   -7.9601434    796.01405  0.016391031  0.015556158            3 
 4048000   0.61629328   -7.9633285    796.13159  0.016389402   0.01555125            5 
 4049000   0.60038867   -7.9403056    796.44241  0.016391751  0.015546345            6 
 4050000   0.59894809   -7.9536207    795.43235  0.016366921  0.015541439            8 
 4051000    0.6056933   -7.9599494    794.80187  0.016349911  0.015536533            7 
 4052000   0.60508513   -7.9417265     794.9064  0.016348026  0.015531625            5 
 4053000   0.60220046   -7.9527691    794.93376  0.016344555  0.015526718            6 
 4054000   0.60811321   -7.9578138    795.00179  0.016341921  0.015521804            5 
 4055000   0.59571348   -7.9590236    796.28262  0.016364213  0.015516908            3 
 4056000   0.60083339   -7.9504824    795.70092  0.016348227  0.015512019            5 
 4057000   0.59645762    -7.950835    795.33387  0.016336658   0.01550713            8 
 4058000   0.62025524   -7.9538025    797.01515  0.016367159  0.015502243            6 
 4059000   0.60567573   -7.9609279    796.38067    0.0163501  0.015497352            7 
 4060000   0.61005004   -7.9615648    796.42539  0.016346991  0.015492448            5 
 4061000   0.60498242   -7.9647327    796.09439  0.016336173  0.015487561            5 
 4062000    0.6105101   -7.9592877    797.70434   0.01636518  0.015482671            7 
 4063000   0.59413863   -7.9348348    796.97157  0.016346123  0.015477784            5 
 4064000   0.61531847   -7.9575833    796.61937  0.016334879  0.015472901            2 
 4065000   0.60613827    -7.958854    796.69622  0.016332436  0.015468019            3 
 4066000    0.5927558   -7.9526895    794.98232  0.016293292  0.015463131            6 
 4067000   0.59751974   -7.9683781    795.97683  0.016309664  0.015458245            8 
 4068000   0.61065036    -7.960105    795.20868  0.016289919  0.015453351            8 
 4069000   0.60599609   -7.9592651    796.09276  0.016304021  0.015448461            9 
 4070000   0.61956847   -7.9490418    796.09038  0.016299967  0.015443574           10 
 4071000   0.62067725   -7.9869235    793.62768  0.016245551   0.01543869            5 
 4072000   0.60286444   -7.9712307     794.4469  0.016258327   0.01543381            3 
 4073000   0.59849611   -7.9448541    795.96225   0.01628534  0.015428921            6 
 4074000   0.58822228    -7.973601     796.2043  0.016286293  0.015424024            6 
 4075000   0.59911528   -7.9826395    796.22939   0.01628281  0.015419133            5 
 4076000   0.59008072   -7.9604139    795.61374  0.016266228  0.015414244            5 
 4077000   0.59586987   -7.9869985    795.14439  0.016252645  0.015409364            3 
 4078000   0.60797714   -7.9592162    796.24775  0.016271206  0.015404487            3 
 4079000   0.60154931   -7.9699012     796.6432  0.016275296  0.015399614            4 
 4080000   0.59838442   -7.9679848    795.82576  0.016254611  0.015394742            4 
 4081000   0.59034261   -7.9754194     795.7001  0.016248062  0.015389869            7 
 4082000    0.6012974   -7.9759801    795.56866  0.016241398  0.015385001            4 
 4083000   0.58933255   -7.9845617    795.86017   0.01624337  0.015380138            5 
 4084000    0.6132827   -7.9519701     795.5975  0.016234033  0.015375277            5 
 4085000   0.59925894    -7.980676    795.85427  0.016235297  0.015370423            8 
 4086000   0.59709146   -7.9815098    796.12937  0.016236934  0.015365571            5 
 4087000   0.58721379   -7.9677912     794.6263  0.016202314  0.015360721            6 
 4088000   0.59227209   -7.9721945    796.66674  0.016239945  0.015355877            4 
 4089000   0.60123661    -7.965588    795.35408  0.016209222  0.015351028            7 
 4090000   0.59875714   -7.9587677    796.54961  0.016229617  0.015346183            9 
 4091000   0.58338853   -7.9729623    796.36667  0.016221924  0.015341338            4 
 4092000   0.60006195   -7.9711058    795.59072  0.016202157  0.015336498           11 
 4093000   0.62160976   -7.9790913    796.07472  0.016208053  0.015331656            7 
 4094000   0.59297093   -7.9760654    795.44478  0.016191271  0.015326809            9 
 4095000   0.58981904    -7.984243    795.14896  0.016181298  0.015321958            4 
 4096000   0.58945359   -7.9713282    793.75858   0.01614906  0.015317107            8 
 4097000   0.61047435   -7.9875623    796.82041  0.016207396  0.015312257            9 
 4098000   0.59501362   -7.9828961    795.31179  0.016172763  0.015307417            7 
 4099000   0.60043483   -7.9817738    794.95099  0.016161482  0.015302574            5 
 4100000   0.59207277    -7.975745    794.90254  0.016156556  0.015297734           10 
 4101000   0.59133109   -8.0014099    795.08598  0.016156344  0.015292891            4 
 4102000   0.59168439   -7.9845054    796.40684  0.016179239  0.015288048            9 
 4103000   0.59904625   -7.9670076    796.52636  0.016177723    0.0152832            5 
 4104000   0.59977364   -7.9696392    795.18585  0.016146561  0.015278359            5 
 4105000   0.59917288   -7.9878185    793.99522  0.016118458  0.015273522           10 
 4106000   0.59361257   -7.9825841      797.003  0.016175576  0.015268683            3 
 4107000   0.59624356   -7.9994611    794.25908  0.016115962  0.015263848            6 
 4108000   0.58505317   -7.9827472    794.38049  0.016114502  0.015259011            5 
 4109000   0.60184089   -7.9891329    796.49657  0.016153496  0.015254177            9 
 4110000    0.5873346    -7.968811    796.32643  0.016146116  0.015249353            8 
 4111000   0.59278324   -7.9921545    794.87251  0.016112716  0.015244519            7 
 4112000   0.59547321   -7.9807077    795.25562  0.016116562   0.01523968            7 
 4113000   0.59494459   -7.9818962    794.96332  0.016106721  0.015234848            7 
 4114000   0.58230128   -7.9933985    795.42752  0.016112209  0.015230007           10 
 4115000    0.6002461   -8.0012766    796.00401  0.016119968  0.015225178           12 
 4116000   0.57955763   -7.9788569    794.38231  0.016083218  0.015220356            7 
 4117000   0.59506985   -7.9771752    794.54458  0.016082596   0.01521554            7 
 4118000   0.58437117    -7.995998    795.05812  0.016089083  0.015210719            5 
 4119000   0.58327225   -7.9884455    794.60224  0.016075954    0.0152059           12 
 4120000   0.59268031   -7.9992381    796.09377   0.01610222  0.015201085            9 
 4121000   0.58750325   -7.9915637    795.20598   0.01608036  0.015196267           18 
 4122000   0.59274174   -8.0075334    794.18553  0.016055829  0.015191453            5 
 4123000    0.5758692   -7.9995644    796.32518  0.016095181  0.015186638            5 
 4124000   0.59624656   -7.9889248    794.72671  0.016058978  0.015181826            6 
 4125000    0.5864191   -7.9846843    796.14935  0.016083825  0.015177016           11 
 4126000   0.58929552    -7.999214    796.45613  0.016086123  0.015172208            8 
 4127000   0.60210604   -7.9979566    795.90023  0.016071001  0.015167398           13 
 4128000   0.59612973   -7.9940705     796.0907  0.016070952  0.015162595           20 
 4129000   0.60613236   -7.9926922    796.21121  0.016069492  0.015157793            8 
 4130000   0.58470012   -7.9742676    795.00946  0.016041353  0.015152995            6 
 4131000   0.59510248   -7.9900565    794.39214  0.016025017  0.015148191            4 
 4132000   0.58875769   -7.9876307    795.36389  0.016040737  0.015143392            7 
 4133000   0.59530666       -7.983    795.36546  0.016036887  0.015138595           12 
 4134000   0.58598899   -7.9876534    795.48196  0.016035356  0.015133788            8 
 4135000    0.5828994     -7.99749     793.6118  0.015993789  0.015128991            8 
 4136000   0.58006472   -7.9971389    795.67419  0.016031475  0.015124188            3 
 4137000   0.61123932   -7.9982838    797.18961  0.016058126  0.015119394            3 
 4138000   0.58969247   -7.9903296    794.89465  0.016008028  0.015114599            7 
 4139000   0.61369432   -8.0123952    794.83047  0.016002868  0.015109803            5 
 4140000   0.60745333   -7.9797541    794.49623  0.015992275  0.015105009            5 
 4141000    0.5954672   -8.0032482    795.94851  0.016017639  0.015100225            5 
 4142000   0.59810354   -7.9934831    795.39536  0.016002643  0.015095435            7 
 4143000   0.58807081   -7.9956806    794.60053  0.015982793   0.01509065           13 
 4144000   0.59622717    -7.986234    795.28239  0.015992648  0.015085871            6 
 4145000   0.58077871   -7.9828056    795.72723  0.015997733  0.015081086           17 
 4146000   0.58918347   -8.0086882    793.79516   0.01595504  0.015076308            5 
 4147000   0.59267807   -7.9997904      794.474  0.015964834  0.015071528            6 
 4148000   0.57928498   -7.9916161    796.39772  0.015999633   0.01506675            4 
 4149000   0.58841968   -7.9987524    794.54696  0.015958604  0.015061973            5 
 4150000   0.60177536   -8.0030002    795.21574  0.015968188  0.015057194            8 
 4151000   0.59574137   -7.9911477    794.22845   0.01594452  0.015052418            9 
 4152000   0.59008778   -8.0050099    794.75467  0.015951242  0.015047645           16 
 4153000   0.58925924   -7.9959588    794.05743   0.01593341  0.015042867            8 
 4154000   0.60021881   -7.9727257    795.85694  0.015965674  0.015038099           10 
 4155000   0.58754392   -8.0031363    794.58865  0.015936395   0.01503334           18 
 4156000   0.57904989   -8.0038168    794.61412  0.015933071  0.015028572           13 
 4157000   0.58095021   -8.0143525    795.33043  0.015943598    0.0150238           21 
 4158000   0.59437968    -7.989369    795.61329  0.015945432  0.015019042           16 
 4159000   0.59579418   -8.0026364     793.5189  0.015899633  0.015014277           15 
 4160000   0.58376113   -7.9922779     794.4129   0.01591372  0.015009513           25 
 4161000   0.58083036   -8.0198685    795.81527  0.015937981  0.015004744           14 
 4162000   0.58852497   -7.9919093    794.59474  0.015909714  0.014999983           14 
 4163000   0.58203349   -8.0083075    793.73111  0.015888604  0.014995228           20 
 4164000   0.58233327   -8.0101493    795.56138  0.015921417  0.014990468           21 
 4165000   0.59216476    -8.015356    795.28646  0.015912094  0.014985709           24 
 4166000    0.5821141    -8.004706    795.67188  0.015915984  0.014980949           24 
 4167000   0.58883697   -8.0037663     795.3573  0.015905873  0.014976192           21 
 4168000   0.58330232   -8.0110378    794.11522  0.015877224  0.014971436           19 
 4169000   0.57525487   -8.0180122      795.177  0.015894639  0.014966682           21 
 4170000   0.58211788   -8.0125644    794.77682   0.01588283  0.014961924           19 
 4171000   0.58324434   -8.0026147    796.09318  0.015905322   0.01495717           26 
 4172000   0.57286116   -8.0056347    794.65831  0.015872849  0.014952414           20 
 4173000   0.58942875   -8.0068882    795.48633   0.01588558  0.014947664           18 
 4174000   0.57126414   -7.9879444    795.88566  0.015889747  0.014942912           18 
 4175000   0.58934487   -7.9918351    793.76964  0.015843705  0.014938163           21 
 4176000   0.58140935   -8.0161901    794.73837  0.015859243  0.014933414           20 
 4177000   0.59002919    -7.999531    794.76349  0.015855947  0.014928673           20 
 4178000   0.57797031   -8.0017671    794.36951  0.015844294   0.01492393            5 
 4179000   0.57953206   -8.0134873    793.61666   0.01582549  0.014919188            6 
 4180000   0.58226125   -8.0177588    794.33672  0.015836059   0.01491445           14 
 4181000   0.58359619    -8.001267    794.21859  0.015829917  0.014909711           20 
 4182000   0.56329116   -8.0041589    793.32199  0.015808265  0.014904969            5 
 4183000   0.59465973   -8.0012881    794.32707  0.015824509  0.014900233            8 
 4184000   0.58088519   -7.9885305    793.99162  0.015814046  0.014895503            8 
 4185000   0.57722778   -8.0250216    794.15568  0.015813534   0.01489077            6 
 4186000   0.58181677   -8.0100549    793.69011  0.015800488  0.014886045            6 
 4187000   0.57827058   -8.0028288    794.63405  0.015815501  0.014881318           10 
 4188000   0.57899784   -8.0222764    794.64401  0.015811923  0.014876597            6 
 4189000   0.57833561   -8.0166367    793.21041  0.015779629  0.014871875            6 
 4190000   0.57257923   -7.9985794    794.28545  0.015797244  0.014867156           13 
 4191000   0.57785893    -8.025279    794.02309  0.015788258  0.014862436            6 
 4192000   0.57317143   -8.0398408    795.11319  0.015806162  0.014857715            4 
 4193000   0.58263325    -7.996814    795.00145  0.015800172  0.014853004            5 
 4194000   0.59153833   -8.0158675     793.6738  0.015770025  0.014848296            5 
 4195000   0.58414833   -8.0240881    795.41382  0.015800831  0.014843587            7 
 4196000   0.58182969   -8.0047022    794.93307  0.015787517  0.014838871            6 
 4197000   0.57904046   -8.0177555    793.80529  0.015761363  0.014834156            8 
 4198000   0.58346472   -8.0187217    794.88434  0.015779029  0.014829445           14 
 4199000   0.57539971    -8.003484    794.49867  0.015767617  0.014824737           21 
 4200000   0.58217248   -8.0249576    795.11151  0.015776022  0.014820034           11 
 4201000   0.57459801   -8.0057162    794.59943  0.015762109  0.014815329           15 
 4202000   0.57843343   -8.0168605    794.82561  0.015762843  0.014810628            8 
 4203000   0.57552846   -8.0130216    794.84531  0.015759483  0.014805934            7 
 4204000   0.59088724   -8.0108957    794.32021  0.015745326  0.014801239            7 
 4205000   0.57791887   -8.0325746    793.83589  0.015731984  0.014796537            8 
 4206000   0.57386776   -8.0175129    794.23366  0.015736124  0.014791839            5 
 4207000   0.59957115   -8.0081893     793.4485  0.015716831  0.014787148            6 
 4208000    0.5935186   -8.0245847    794.00012   0.01572402  0.014782454           13 
 4209000   0.59316701   -8.0365875    794.92903  0.015738676   0.01477776           13 
 4210000   0.59022311   -8.0398175    795.05433  0.015737418  0.014773064            8 
 4211000   0.59029182   -8.0135649    793.45812  0.015702092  0.014768375            9 
 4212000   0.57912113   -8.0339939    794.82111  0.015725331  0.014763688            8 
 4213000   0.58158503   -8.0344157    794.06462  0.015706635  0.014759004            8 
 4214000   0.57912243   -8.0203754    794.59489  0.015713394  0.014754313            9 
 4215000   0.58002447   -8.0079255     793.9302  0.015696524  0.014749625            6 
 4216000   0.57222841   -8.0315899    793.31869  0.015680714   0.01474494            5 
 4217000   0.58028169   -8.0216215    795.55632  0.015721214   0.01474026           15 
 4218000   0.56294587   -8.0098203    794.18988  0.015690491  0.014735583           17 
 4219000   0.57987373   -8.0265379      794.842  0.015699652  0.014730904           12 
 4220000   0.59474567   -8.0456933    795.92426  0.015717304  0.014726224            8 
 4221000   0.56889406   -8.0188349    795.49013  0.015705009  0.014721543            9 
 4222000   0.59124464   -8.0202133    794.56051  0.015682941  0.014716859            4 
 4223000   0.57096387   -8.0221954    794.11593  0.015670454  0.014712177            9 
 4224000   0.58055967   -8.0379531    795.66918  0.015697388  0.014707499            9 
 4225000   0.57693557   -8.0414219    796.30072  0.015706129  0.014702824            9 
 4226000    0.5665524   -8.0205203    794.12267  0.015659463  0.014698156           15 
 4227000   0.58256227   -8.0375552    794.96548  0.015672374  0.014693487           10 
 4228000   0.59089153   -8.0236029    794.73917  0.015664206  0.014688827           15 
 4229000   0.56872662   -8.0259109     793.3033  0.015632208  0.014684159           18 
 4230000   0.57171366   -8.0265422    794.72442   0.01565651  0.014679492           17 
 4231000    0.5896168    -8.032296    793.80783  0.015634756  0.014674832           15 
 4232000   0.57779533   -8.0275926    792.43854  0.015604098  0.014670165           14 
 4233000   0.56954865   -8.0417132    794.69841  0.015644901  0.014665501           17 
 4234000   0.57094059   -8.0302908    793.46517  0.015616934  0.014660844           12 
 4235000   0.57362214   -8.0260785    794.23824  0.015628458  0.014656188           13 
 4236000    0.5657335   -8.0414859     793.7485  0.015615134  0.014651531            8 
 4237000   0.57807058   -8.0536886    794.75081  0.015631162  0.014646874           14 
 4238000   0.58965166   -8.0366352    794.31678  0.015618939  0.014642224           17 
 4239000   0.57381638   -8.0326301    795.00973  0.015628877  0.014637568           12 
 4240000   0.57839782   -8.0203341    795.19958  0.015628922  0.014632918           13 
 4241000   0.57711183   -8.0253566    794.53767  0.015612231  0.014628273           13 
 4242000     0.590289   -8.0377242    794.75716  0.015612863  0.014623627           12 
 4243000   0.56880389   -8.0304686    792.17954  0.015558558  0.014618982           14 
 4244000   0.57493993   -8.0381774    794.56061  0.015601646  0.014614334           12 
 4245000   0.58877083   -8.0194438    795.08068   0.01560818  0.014609693           14 
 4246000   0.59162581   -8.0270773    793.98942  0.015583086  0.014605057            9 
 4247000   0.56557609   -8.0543427    793.87645  0.015577201  0.014600419            9 
 4248000   0.57622138   -8.0221317    794.61151  0.015587953  0.014595787           10 
 4249000   0.56341605   -8.0324156     794.7108  0.015586232  0.014591158           12 
 4250000   0.56547576   -8.0344291     794.8486  0.015585267  0.014586535            7 
 4251000   0.57106464   -8.0253899     796.1537  0.015607185  0.014581906           15 
 4252000   0.56973888   -8.0362765    793.23537  0.015546319  0.014577283            7 
 4253000   0.57389204   -8.0305263    794.28837  0.015563296  0.014572666            6 
 4254000   0.57073103   -8.0260818    793.95008  0.015553011  0.014568047            6 
 4255000   0.56452124   -8.0263211    796.96421  0.015608386  0.014563425            8 
 4256000   0.56977316   -8.0086305     795.9461  0.015584784  0.014558817            9 
 4257000   0.56767927   -8.0211233    794.70054  0.015556741  0.014554206           11 
 4258000   0.56053787    -8.029106    796.39057  0.015586163  0.014549595            8 
 4259000   0.57681458   -8.0252515    794.81301  0.015551636  0.014544986            4 
 4260000   0.56906974   -7.9948964    794.73554   0.01554647  0.014540383            8 
 4261000   0.56825077   -8.0343182    796.26608  0.015572755  0.014535782            9 
 4262000   0.56317649   -8.0289457     794.5612  0.015535766  0.014531183            6 
 4263000   0.56937351     -8.02053    795.99514  0.015560152  0.014526583            6 
 4264000     0.556043   -8.0252672    794.67432  0.015530689   0.01452198            3 
 4265000   0.56582147   -8.0278691    794.05286  0.015514905  0.014517376           10 
 4266000   0.56994296   -8.0286599    794.55267  0.015521032  0.014512775           10 
 4267000   0.55931194   -8.0208559    796.52022   0.01555582  0.014508177            9 
 4268000    0.5556292    -8.012736    794.52856  0.015513288  0.014503582           10 
 4269000   0.56200495   -8.0251216    793.75816  0.015494615  0.014498979           10 
 4270000    0.5639766   -8.0504036    794.48448  0.015505162  0.014494384           17 
 4271000   0.57599051   -8.0423316    793.91815  0.015490481  0.014489793           10 
 4272000    0.5683151   -8.0165919     793.5557  0.015479785  0.014485203            8 
 4273000   0.57755237   -8.0191624    794.93559  0.015503073  0.014480621           13 
 4274000    0.5915838   -8.0520468    794.37979  0.015488609  0.014476036            9 
 4275000   0.57298681   -8.0168735    793.45093   0.01546688  0.014471447            7 
 4276000    0.5675714   -8.0386173    793.79898  0.015470046  0.014466863           10 
 4277000   0.56095842   -8.0304569    795.38509  0.015497332  0.014462277           19 
 4278000   0.55718529   -8.0393936    794.11188  0.015468908  0.014457694            6 
 4279000    0.5763569    -8.055063    794.02996  0.015463698  0.014453113            6 
 4280000   0.55995435    -8.034907    794.48552  0.015468955  0.014448538           10 
 4281000   0.57423733    -8.038671    794.68271   0.01546918  0.014443961            4 
 4282000   0.57665538    -8.042371    794.14156  0.015455036  0.014439377           10 
 4283000    0.5487338   -8.0127372    792.77593  0.015424857  0.014434799            5 
 4284000   0.57096769   -8.0233657    793.15689  0.015428666  0.014430224           10 
 4285000   0.57948638   -8.0307631    793.11452  0.015424242  0.014425646           10 
 4286000   0.56523385   -8.0065363    794.09226  0.015439653  0.014421068            8 
 4287000   0.55756234   -8.0323876    794.64199  0.015446738  0.014416497            7 
 4288000    0.5624753   -8.0255394    793.76828  0.015426156  0.014411929            8 
 4289000   0.57954868   -8.0382724    792.84131  0.015404549  0.014407357            4 
 4290000   0.55938734   -8.0252209    792.94925  0.015403055  0.014402792           14 
 4291000   0.55957078     -8.04584    794.35991  0.015426861  0.014398231            5 
 4292000   0.56558766    -8.044917    794.70206   0.01542991  0.014393663            7 
 4293000   0.57967154   -8.0326628    794.99858  0.015432071  0.014389103            8 
 4294000   0.57480557   -8.0367321    794.67641  0.015422225  0.014384539           13 
 4295000   0.56088764   -8.0550303    792.99128  0.015385939  0.014379979            7 
 4296000   0.56103423   -8.0387368    794.22431  0.015406275  0.014375415            4 
 4297000   0.56198835   -8.0450893    794.45939  0.015407249  0.014370865            3 
 4298000   0.56472022    -8.038783    793.74024  0.015389721  0.014366315           10 
 4299000   0.56030151   -8.0266838    795.47445  0.015419758  0.014361761            4 
 4300000   0.55951331   -8.0446675    794.55977  0.015398445  0.014357207           10 
 4301000    0.5418026   -8.0382226    793.84948  0.015381103  0.014352658            6 
 4302000   0.57221102   -8.0429617    793.44876  0.015369765  0.014348106            5 
 4303000   0.55295089   -8.0206708    794.61125  0.015388706  0.014343557            4 
 4304000   0.56364749   -8.0571436    793.32019  0.015360134  0.014339011            7 
 4305000   0.55128309   -8.0461875    793.87482  0.015367302  0.014334472            5 
 4306000    0.5696584   -8.0364695     795.3361  0.015392013  0.014329936            8 
 4307000   0.57676996   -8.0294492    792.89084  0.015341128  0.014325395           17 
 4308000   0.55557519   -8.0225162    794.95254  0.015377448  0.014320862           10 
 4309000   0.55685069   -8.0453168    793.89436  0.015353415  0.014316328            7 
 4310000   0.55665199   -8.0269012    795.58257  0.015382494  0.014311802            8 
 4311000   0.57006082   -8.0412717    794.63558   0.01536062  0.014307277            9 
 4312000   0.55849208   -8.0574373    794.17292  0.015348116  0.014302745            7 
 4313000   0.56848494    -8.059801    793.19321  0.015325628  0.014298217            6 
 4314000   0.56634672   -8.0395394    793.54801  0.015328929  0.014293691            7 
 4315000   0.56989652    -8.036265    794.69828  0.015347591  0.014289162           10 
 4316000   0.54996372    -8.043931     794.6508  0.015343119  0.014284644            7 
 4317000   0.56004992   -8.0604083    794.09085  0.015328756  0.014280124            8 
 4318000   0.56493315   -8.0455993    794.17754  0.015326879  0.014275602           10 
 4319000   0.56904797   -8.0574627    793.86187  0.015317239  0.014271082           14 
 4320000   0.55369248   -8.0642084    793.73511  0.015311248  0.014266559           12 
 4321000   0.56700741   -8.0322856    792.82886  0.015290227  0.014262037            7 
 4322000   0.55586978   -8.0541996    794.48538  0.015318629  0.014257511           11 
 4323000   0.55595196   -8.0499093    794.84637  0.015322044  0.014252984           10 
 4324000   0.56679328   -8.0442987    794.20071  0.015306057  0.014248463            8 
 4325000   0.55551839   -8.0637622    795.29947  0.015323689  0.014243944           11 
 4326000   0.55952414   -8.0471268    793.90525   0.01529329  0.014239423           13 
 4327000   0.55828917   -8.0552228    793.56875  0.015283275  0.014234903           14 
 4328000   0.55785022   -8.0529543    793.24385  0.015273488  0.014230378            9 
 4329000   0.56964819   -8.0562323    793.78128  0.015280305  0.014225859           16 
 4330000   0.56724115   -8.0577848    793.59494   0.01527319  0.014221343           10 
 4331000   0.56488516   -8.0471956    793.48065  0.015267464  0.014216821           15 
 4332000   0.55121384   -8.0617847    792.04479  0.015236319  0.014212304           17 
 4333000   0.55145469   -8.0772983    792.06908  0.015233269  0.014207787            8 
 4334000   0.55962932   -8.0568398    793.07859  0.015249165  0.014203269           11 
 4335000   0.54455597   -8.0626836    793.88304  0.015261112  0.014198757            8 
 4336000   0.55308864   -8.0697648     792.8116     0.015237  0.014194248            9 
 4337000   0.55517094   -8.0628977     792.8911  0.015235015  0.014189737           17 
 4338000   0.54963796   -8.0610056    792.41289  0.015222316  0.014185226           11 
 4339000   0.57695113   -8.0496091    793.72468  0.015244002   0.01418072           20 
 4340000   0.54991256    -8.055552    793.49425  0.015236065  0.014176211            6 
 4341000   0.55933306   -8.0583317     793.9428  0.015241166  0.014171708           12 
 4342000   0.55219229   -8.0670239    792.86963  0.015217059  0.014167201           12 
 4343000   0.54887084   -8.0457529    794.36818  0.015242309  0.014162703           12 
 4344000   0.55258302   -8.0590304    794.13359    0.0152343  0.014158204           14 
 4345000   0.55220009   -8.0548178     793.0156  0.015209352  0.014153706           13 
 4346000    0.5496467   -8.0791311    793.79703  0.015220836  0.014149216           11 
 4347000   0.54725803   -8.0751425    793.96704  0.015220593  0.014144728            8 
 4348000   0.55898713   -8.0660175    793.05083  0.015199533  0.014140238            7 
 4349000   0.53700738   -8.0582517    793.16037  0.015198137  0.014135752           11 
 4350000   0.55284205   -8.0661162    793.96381  0.015210035  0.014131266           12 
 4351000   0.55495395   -8.0571674    793.32998  0.015194399   0.01412678           15 
 4352000   0.54922519   -8.0563518    793.24598    0.0151893    0.0141223           10 
 4353000   0.55881834   -8.0722018    793.12979  0.015183586  0.014117813           17 
 4354000     0.552908   -8.0726885    793.11534  0.015179822  0.014113339           15 
 4355000   0.55621773   -8.0477216    793.53529  0.015184372  0.014108862           13 
 4356000   0.56423067   -8.0692834    793.75481  0.015185086  0.014104386           20 
 4357000   0.55932303     -8.06218    792.84058  0.015164115  0.014099907            8 
 4358000    0.5555184   -8.0763773    793.74969  0.015178019  0.014095434           10 
 4359000   0.56308926   -8.0571545    793.43063  0.015168437  0.014090963            9 
 4360000   0.55288351   -8.0818444    793.58481  0.015167905  0.014086495           12 
 4361000    0.5369571   -8.0723548    793.81579  0.015168841  0.014082028           11 
 4362000   0.56186207    -8.060396     792.3569  0.015137492  0.014077559           22 
 4363000   0.56183488   -8.0649421    794.64814  0.015177786  0.014073096           16 
 4364000   0.55559204   -8.0650189    792.13668   0.01512635  0.014068632           11 
 4365000   0.55330931   -8.0855673    793.31794  0.015145436  0.014064166           12 
 4366000   0.54483254    -8.073503    793.32052  0.015142016  0.014059706           12 
 4367000   0.55341552   -8.0729222    793.84963  0.015148646   0.01405525           13 
 4368000   0.54540851    -8.078613    792.57335  0.015120828  0.014050791           10 
 4369000   0.55608817   -8.0805727    793.31382  0.015131491  0.014046329           18 
 4370000   0.55802104   -8.0603717    793.35425    0.0151288  0.014041876           13 
 4371000   0.55656159   -8.0850559    794.09527  0.015139466   0.01403742           18 
 4372000   0.53770588   -8.0654256    792.67681  0.015108966  0.014032964           14 
 4373000   0.55967509   -8.0555014    794.51481  0.015140537  0.014028513           12 
 4374000   0.54469887   -8.0593411    792.95006  0.015107264  0.014024065           11 
 4375000   0.55912912   -8.0655653    792.27288  0.015090912  0.014019615           13 
 4376000   0.55057266   -8.0885128    793.05904  0.015102434   0.01401516           18 
 4377000   0.55708117   -8.0627496     794.5529  0.015127426  0.014010714           24 
 4378000   0.55365604   -8.0747009    792.41338  0.015083245  0.014006269           18 
 4379000   0.54487041   -8.0632885    793.29215  0.015096524  0.014001823           21 
 4380000   0.54324881   -8.0668998    792.32019  0.015074585  0.013997376           25 
 4381000   0.55980374   -8.0500806      792.047  0.015065948  0.013992938           17 
 4382000    0.5534573    -8.068401    793.51931  0.015090509  0.013988498           21 
 4383000   0.55383266   -8.0760853    794.87261  0.015112796  0.013984063           15 
 4384000   0.53415027   -8.0769047    793.04636  0.015074634   0.01397963           14 
 4385000   0.55521628   -8.0952445    793.00839  0.015070475  0.013975192           19 
 4386000   0.55459311   -8.0743771    793.75371    0.0150812  0.013970763           23 
 4387000   0.55625528   -8.0790528    792.15431  0.015047381  0.013966335           17 
 4388000   0.55436716    -8.075279    793.08324  0.015061593  0.013961909           13 
 4389000   0.56275074   -8.0760717    793.50708  0.015066209  0.013957482           23 
 4390000   0.55912646   -8.0610213    793.18362  0.015056637  0.013953058           16 
 4391000   0.54790511   -8.0826525     791.7908  0.015026774  0.013948639           18 
 4392000    0.5555315   -8.0764526    793.52432  0.015056245  0.013944222           17 
 4393000   0.55802327   -8.0741028    792.70477  0.015037271  0.013939799           11 
 4394000   0.54830778    -8.091661    792.95595  0.015038612  0.013935376           11 
 4395000   0.54400437   -8.0830873    791.95607  0.015016232  0.013930955           11 
 4396000   0.55295161   -8.0806237     792.1347  0.015016202  0.013926531           24 
 4397000   0.55387758   -8.0779035    793.14715  0.015031975  0.013922116           12 
 4398000   0.54468471   -8.0671188    792.94248  0.015024679  0.013917695           16 
 4399000   0.53395128   -8.0805321    793.40503  0.015030026  0.013913274           20 
 4400000   0.54093868   -8.0762213    792.48981  0.015009277  0.013908858           20 
 4401000   0.54513007    -8.074791    793.69662  0.015028717  0.013904442           16 
 4402000   0.55672331   -8.1073296    791.99548  0.014993099  0.013900025           15 
 4403000   0.54705875   -8.0963868     793.0686  0.015010004  0.013895614           16 
 4404000   0.55332389   -8.0977375    791.91012  0.014984675  0.013891201           27 
 4405000   0.55209754   -8.0862701    792.83894  0.014998845  0.013886794           12 
 4406000   0.55969388   -8.0815812    792.91193  0.014996821  0.013882388           21 
 4407000   0.54233913   -8.0767994    792.90633  0.014993312  0.013877985           13 
 4408000   0.54155131   -8.0880744    792.67646  0.014985565  0.013873582           19 
 4409000   0.54249902   -8.0744846    794.07564  0.015008612  0.013869182           29 
 4410000   0.53620175   -8.0947875    793.25534  0.014989708  0.013864783           27 
 4411000   0.54514767   -8.0861762    791.54759  0.014954047  0.013860388           21 
 4412000   0.53357943   -8.0737811    792.18075  0.014962616  0.013855992           21 
 4413000   0.55130612    -8.091217    793.57696  0.014985591  0.013851601           24 
 4414000     0.547351   -8.0820181    792.73359  0.014966274  0.013847209           29 
 4415000   0.54233359   -8.0820522    791.67076  0.014942823  0.013842823           27 
 4416000   0.54711338   -8.0804462    792.58113  0.014956619  0.013838435           23 
 4417000   0.54899273   -8.0853999    793.15532  0.014964065   0.01383405           27 
 4418000   0.55184033   -8.1119159    792.29013  0.014944359  0.013829664           28 
 4419000    0.5465879   -8.0815818    792.32378  0.014941612  0.013825279           23 
 4420000   0.54635194   -8.0711913    793.56337  0.014961602  0.013820895           24 
 4421000   0.55149848   -8.0775826    793.63511   0.01495957  0.013816517           26 
 4422000   0.53636559   -8.1000836    793.46606  0.014953001  0.013812134           23 
 4423000   0.53006742   -8.0974514    792.16107  0.014925033  0.013807758           20 
 4424000   0.54827859   -8.1038614    793.19547  0.014941144  0.013803378           20 
 4425000   0.53590566   -8.1075904    792.59441  0.014926448  0.013799002           27 
 4426000   0.54176332   -8.0978613    792.39641  0.014919348  0.013794621           30 
 4427000   0.54910855   -8.0972112    794.05959  0.014947285  0.013790244           25 
 4428000   0.54086959   -8.0880169    792.47575  0.014914103  0.013785868           29 
 4429000   0.53458497   -8.0889718    793.10854  0.014922641  0.013781494           30 
 4430000   0.54289732   -8.1018087    794.85615  0.014952147  0.013777131           29 
 4431000    0.5496293    -8.074503      792.582  0.014906003  0.013772769           16 
 4432000   0.55157642   -8.0911527    792.07125  0.014893036  0.013768408           22 
 4433000   0.54070302   -8.0895829    792.41547  0.014896148  0.013764041           25 
 4434000   0.55335629   -8.1011368    792.03184  0.014885578  0.013759673           23 
 4435000   0.54569813   -8.0743464    792.34423  0.014888092  0.013755308           28 
 4436000   0.55132683   -8.0911823    792.55993  0.014888787  0.013750945           21 
 4437000   0.54607512   -8.0980101    792.64047  0.014886945  0.013746579           21 
 4438000   0.53543262   -8.0730319    791.54747  0.014863067  0.013742215           19 
 4439000   0.53779893   -8.0920265    791.69968  0.014862576  0.013737861           20 
 4440000   0.53125419   -8.0632714    792.84999  0.014880818  0.013733507           15 
 4441000   0.52850835   -8.0968292    792.33691   0.01486784  0.013729149           26 
 4442000   0.53577929   -8.1037614    791.06113  0.014840558  0.013724789           24 
 4443000    0.5265193   -8.1020483    791.80533  0.014851177  0.013720429           21 
 4444000   0.53622378   -8.1111611     791.8788  0.014849212  0.013716066           19 
 4445000   0.53444432   -8.0860886    791.19675  0.014833085  0.013711705           28 
 4446000   0.54017635   -8.0956677    792.84569  0.014860656  0.013707351           23 
 4447000   0.54131219   -8.1017175    792.07631  0.014842896  0.013702997           29 
 4448000   0.53784802   -8.1022015    793.18031  0.014860243  0.013698651           29 
 4449000   0.53126791   -8.1187037    791.52677   0.01482593  0.013694297           26 
 4450000   0.53636893   -8.1109354    791.50368  0.014822166  0.013689951           17 
 4451000   0.55734899   -8.0929708    793.99049  0.014865395  0.013685606           21 
 4452000   0.54392682   -8.0953156    791.05523  0.014807113   0.01368126           28 
 4453000   0.53188526   -8.0894265    791.35839  0.014809462  0.013676914           23 
 4454000    0.5367799   -8.1095557    792.05453  0.014819161  0.013672568           22 
 4455000   0.53501777   -8.0985297    791.83298  0.014811691  0.013668224           16 
 4456000   0.53797452   -8.0948332    792.66748  0.014823973  0.013663885           20 
 4457000    0.5408017   -8.0910512    790.75093  0.014784813  0.013659541           19 
 4458000   0.54031459   -8.0969273    792.37358  0.014811829  0.013655203           24 
 4459000   0.53066775   -8.0987019     792.9319  0.014818941  0.013650866           20 
 4460000   0.53912821   -8.1011096    791.50872  0.014789027  0.013646532           26 
 4461000   0.54874127   -8.1042183    792.22262  0.014799048    0.0136422           20 
 4462000   0.53317782   -8.0854567    792.35893  0.014798277  0.013637866           14 
 4463000    0.5526079   -8.1023332    792.39286  0.014795594  0.013633539           19 
 4464000   0.52702924    -8.099662     791.9451  0.014783921  0.013629209           26 
 4465000   0.53066613   -8.1086495    791.32418  0.014769022  0.013624878           19 
 4466000   0.54345658   -8.0899061    792.00658  0.014778448  0.013620551           16 
 4467000   0.53885667   -8.1043234    791.40935  0.014763998  0.013616224           19 
 4468000   0.53181336   -8.0816803    792.49735  0.014780986  0.013611899           38 
 4469000   0.53376774   -8.1235205     791.6512    0.0147619  0.013607572           13 
 4470000   0.53721239   -8.1023354    791.34955  0.014752975  0.013603247           15 
 4471000   0.53320862   -8.1145769    791.25256  0.014747867  0.013598923           15 
 4472000   0.54314802    -8.104961    792.41088  0.014766154  0.013594597           17 
 4473000   0.51495143   -8.1078383    791.17145  0.014739762  0.013590273           23 
 4474000   0.54269838   -8.1183246    790.42936  0.014722645   0.01358595           18 
 4475000   0.55411717   -8.0951997    792.89699  0.014765307  0.013581626           24 
 4476000   0.53862491   -8.0973554    791.30997  0.014732462  0.013577309           17 
 4477000   0.53664841   -8.1097566    791.31785  0.014729317  0.013572988           16 
 4478000   0.53408583   -8.1124758    790.10908  0.014703534  0.013568673           33 
 4479000   0.53953024   -8.1032312    790.95565  0.014716002   0.01356436           23 
 4480000   0.53235236   -8.1137326    791.74006  0.014727308  0.013560052           30 
 4481000    0.5510032   -8.0986676    791.29682  0.014715778  0.013555745           22 
 4482000   0.53586109   -8.1168818    790.64515  0.014700378  0.013551441           17 
 4483000   0.53547656   -8.0962741    791.22418  0.014707863  0.013547134           15 
 4484000   0.53858936   -8.1235271    791.36396   0.01470718  0.013542829           19 
 4485000   0.54164456   -8.1116825    792.06121  0.014716856  0.013538527           14 
 4486000   0.53232025   -8.1054524    790.23242  0.014679604  0.013534226           12 
 4487000   0.53424744   -8.1082007     792.7073  0.014722296  0.013529928           13 
 4488000   0.52707634   -8.0981423    791.24558  0.014691874  0.013525631           19 
 4489000   0.52983799   -8.1139463    793.00806   0.01472132   0.01352134           17 
 4490000   0.52491948   -8.0986279    791.53419  0.014690687  0.013517047           19 
 4491000   0.52658919   -8.1211854    791.75926  0.014691592  0.013512753           14 
 4492000   0.52755352   -8.1166481    791.53542  0.014684169   0.01350846           13 
 4493000   0.52871841   -8.1179354    791.41857  0.014678733  0.013504175           14 
 4494000   0.53977488     -8.10411    791.04599  0.014668558  0.013499887           24 
 4495000    0.5242518   -8.1058292    791.70815   0.01467757  0.013495603           20 
 4496000   0.53599107   -8.1226249    790.59656  0.014653703  0.013491318           20 
 4497000   0.51924298   -8.1049951    790.71593  0.014652656  0.013487033           19 
 4498000   0.53323895   -8.1314211    792.06187  0.014674334  0.013482752           15 
 4499000   0.51991081   -8.1196509    792.72131  0.014683287  0.013478478           18 
 4500000   0.52423456   -8.1130731    791.32162  0.014654104  0.013474197           22 
 4501000   0.54209596   -8.1239519    791.41995  0.014652669  0.013469921           20 
 4502000    0.5280865   -8.1134659    790.80583  0.014638047  0.013465643           14 
 4503000   0.52900565   -8.1010351    790.64017   0.01463173  0.013461375           18 
 4504000   0.52803428   -8.1054284    792.18245  0.014657017  0.013457104           21 
 4505000   0.52314689   -8.1118448    791.97069  0.014649846  0.013452836           10 
 4506000   0.53631779   -8.1059905    791.84056  0.014644189  0.013448564           12 
 4507000   0.53055912   -8.1130649    792.75406   0.01465783  0.013444298           26 
 4508000   0.52653927   -8.1218047    790.90957  0.014620482   0.01344003           12 
 4509000   0.51862152   -8.1309317    790.80646  0.014615333  0.013435763           20 
 4510000   0.52284107   -8.1070564    790.90799  0.014613969  0.013431492            9 
 4511000   0.53581822   -8.1243952    791.30013  0.014617973  0.013427226           21 
 4512000   0.52675725   -8.1271056     790.9528  0.014608319  0.013422961           26 
 4513000   0.53224983   -8.1092431    791.36361  0.014612667    0.0134187           13 
 4514000   0.52947215   -8.1137238    791.52182  0.014612351   0.01341444           15 
 4515000   0.53736752   -8.1245966    791.34215  0.014605798  0.013410173           13 
 4516000   0.54016839   -8.1298054    790.50612  0.014587137  0.013405914           17 
 4517000   0.51816957   -8.1077506    790.97463  0.014592551  0.013401658           19 
 4518000   0.52499243   -8.1330496    790.95854  0.014589024  0.013397401           13 
 4519000   0.52434272   -8.1265304    793.23699  0.014627812  0.013393146           14 
 4520000   0.52349735   -8.1153021    790.40977  0.014572452  0.013388894           14 
 4521000   0.52980145   -8.1123754    792.53275   0.01460836  0.013384644           13 
 4522000   0.52536839   -8.1238356    792.65486   0.01460738  0.013380393           14 
 4523000   0.52993325   -8.1178183    791.46577  0.014582242  0.013376141           19 
 4524000   0.53260087   -8.1076462    790.61384  0.014563326  0.013371889           16 
 4525000   0.52139916   -8.1001628     789.8135  0.014545368  0.013367641           18 
 4526000   0.52472622    -8.125858    791.80738  0.014578866    0.0133634           20 
 4527000   0.53488514   -8.1386987    792.01811  0.014579525   0.01335916           19 
 4528000   0.52175425   -8.1292472    791.83426  0.014572921  0.013354921            9 
 4529000   0.51101045    -8.129693    791.57267  0.014564891  0.013350684           18 
 4530000   0.52154036   -8.1176636    791.91321   0.01456794  0.013346449           14 
 4531000   0.53119197   -8.1045177    791.38537  0.014555017  0.013342213           18 
 4532000   0.53118408   -8.1282896    792.32438  0.014569071  0.013337984            9 
 4533000   0.51717511   -8.1280205    790.87722  0.014539253  0.013333747           17 
 4534000   0.52523996   -8.1118636    791.34219  0.014544593  0.013329511           13 
 4535000   0.52109533   -8.1188708    790.14547  0.014519395  0.013325277           14 
 4536000   0.52994115   -8.1352534    790.71923  0.014526735  0.013321049           25 
 4537000   0.52498302   -8.1191272    791.27367  0.014533717  0.013316823           18 
 4538000    0.5354225   -8.1163241    790.80219  0.014521856  0.013312599           11 
 4539000   0.52690631   -8.1261546    791.74878  0.014536036  0.013308375           21 
 4540000    0.5196089   -8.1136932    789.38323  0.014489413  0.013304149           26 
 4541000   0.52920334   -8.1465435    791.48742  0.014524837  0.013299923           18 
 4542000   0.52364311   -8.1246142    790.62572  0.014505829  0.013295697           11 
 4543000   0.53677881   -8.1149446    789.93325  0.014489934  0.013291475           15 
 4544000   0.51948064   -8.1364942    790.55012  0.014498058  0.013287255           19 
 4545000   0.52772125   -8.1286435    790.71242  0.014497844  0.013283039           14 
 4546000   0.51542785   -8.1186174    789.15062  0.014466026   0.01327882           15 
 4547000   0.52499043   -8.1317734    790.77912   0.01449269  0.013274605           13 
 4548000   0.52721298   -8.1228035    791.04555  0.014494385  0.013270392           18 
 4549000   0.51556123   -8.1244142    790.10013  0.014473879  0.013266179           19 
 4550000   0.52611078   -8.1340798    792.02954  0.014506036  0.013261969           13 
 4551000   0.52902161   -8.1366633    790.98461  0.014483714  0.013257762           14 
 4552000   0.52011899   -8.1320596    791.69439  0.014493527  0.013253553           22 
 4553000   0.52735983    -8.138315    790.84648  0.014474824  0.013249346           20 
 4554000    0.5205664   -8.1339507    790.04375  0.014456956  0.013245143           14 
 4555000   0.52111412   -8.1318836    790.50785  0.014462273  0.013240937           21 
 4556000   0.52082104   -8.1245418    790.95722  0.014467318  0.013236738           23 
 4557000    0.5357463   -8.1243063    789.42848  0.014436188  0.013232537           15 
 4558000   0.51460531   -8.1320045    790.90204  0.014459961  0.013228339           16 
 4559000   0.53232895   -8.1304688    790.80341  0.014454987  0.013224138           16 
 4560000   0.52157727   -8.1368026    791.77052   0.01446949   0.01321994           11 
 4561000   0.52165832   -8.1290195    790.16408  0.014436967  0.013215745            7 
 4562000   0.52740503    -8.134593    790.13477  0.014433267  0.013211552           11 
 4563000   0.52146285   -8.1267442    790.96826  0.014445326  0.013207364           20 
 4564000   0.52207576    -8.128523     789.3666  0.014412916   0.01320317           23 
 4565000   0.51350969     -8.12597    791.55703  0.014449745  0.013198979           21 
 4566000   0.52321024   -8.1229824    792.16745  0.014457721  0.013194794           18 
 4567000   0.51757583   -8.1247893    790.66193  0.014427084  0.013190609           25 
 4568000   0.51918582   -8.1295935    790.07535  0.014413225  0.013186426           11 
 4569000   0.52360903   -8.1327297    790.11479   0.01441079  0.013182238           15 
 4570000   0.52705596   -8.1353453    789.44634  0.014395448  0.013178055           11 
 4571000   0.52393084   -8.1354549    791.39355  0.014427798  0.013173871           15 
 4572000   0.51064949   -8.1405811    790.85463  0.014414819  0.013169686           19 
 4573000   0.51696676   -8.1244173    790.35024  0.014402475   0.01316551           11 
 4574000   0.52478474   -8.1298443    791.01397  0.014411419  0.013161333           10 
 4575000   0.52052668    -8.131504    792.00896  0.014426393  0.013157157            9 
 4576000   0.51179812   -8.1232925    788.85811   0.01436586  0.013152982           13 
 4577000   0.51637128   -8.1515799    790.97087  0.014401188  0.013148807           14 
 4578000   0.51239872   -8.1395663    790.48803  0.014389253  0.013144633           14 
 4579000   0.52117231   -8.1335813    789.25936  0.014363751  0.013140463           15 
 4580000   0.52733066   -8.1328431     791.8136  0.014407089  0.013136294           15 
 4581000   0.52128938   -8.1503968    790.94033  0.014388058  0.013132125           15 
 4582000   0.51815255    -8.137349    790.58407  0.014378439  0.013127962           10 
 4583000   0.51519129   -8.1619011    791.16372  0.014385841  0.013123803           14 
 4584000   0.52203627   -8.1412469     790.9452   0.01437873  0.013119641           13 
 4585000    0.5134894   -8.1413845    791.66835  0.014388738  0.013115483           13 
 4586000   0.52533819   -8.1352752    790.24838  0.014359798  0.013111326            7 
 4587000   0.51595625   -8.1479754     790.5939  0.014362944  0.013107171           11 
 4588000    0.5169225   -8.1520624     789.6504  0.014342676  0.013103016           16 
 4589000   0.51487457   -8.1406715    790.68064   0.01435826  0.013098863           12 
 4590000   0.51109471   -8.1391605       790.79  0.014357117  0.013094711           19 
 4591000   0.51499586   -8.1281818    789.35466  0.014327936  0.013090563           19 
 4592000   0.53264686   -8.1265971    789.96075  0.014335815  0.013086416           11 
 4593000   0.51762136   -8.1256334     790.5197  0.014342835  0.013082269           20 
 4594000   0.52023441    -8.139631    789.98689  0.014330048  0.013078123           20 
 4595000   0.50735543     -8.13855    789.79366  0.014323425  0.013073975           12 
 4596000   0.51902845   -8.1173114    789.78322  0.014320119  0.013069832           11 
 4597000   0.52058565   -8.1249036    790.63926  0.014332522  0.013065692           13 
 4598000   0.51309455   -8.1354694    791.52054  0.014345377  0.013061551           15 
 4599000   0.49982377   -8.1395103    790.39602  0.014321882  0.013057411           11 
 4600000   0.51623533   -8.1541637    790.25189  0.014316158  0.013053273           13 
 4601000   0.52325459   -8.1484349    790.36793  0.014315148  0.013049138           16 
 4602000    0.5038315   -8.1462091    791.53586  0.014333186  0.013045003           13 
 4603000   0.51551551    -8.152928    790.66085  0.014314231  0.013040867           15 
 4604000   0.51090451    -8.146027    790.84106  0.014314383   0.01303673           10 
 4605000   0.51634051   -8.1405705    790.10781  0.014298006  0.013032596           17 
 4606000   0.51384764   -8.1531092     791.0527  0.014311997  0.013028466           15 
 4607000   0.52964988   -8.1272148    791.11318  0.014309984   0.01302434           11 
 4608000   0.52418727   -8.1222903     788.7617  0.014264354  0.013020213           14 
 4609000    0.5057311   -8.1341492    789.64794  0.014277283  0.013016086           19 
 4610000   0.50952986      -8.1323    789.36655  0.014269099   0.01301196           10 
 4611000   0.51070345   -8.1422692     790.2295    0.0142816  0.013007837           16 
 4612000   0.51082896   -8.1464307    789.94783  0.014273414  0.013003715           24 
 4613000   0.52235613   -8.1357891    790.02625  0.014271737  0.012999593           11 
 4614000    0.5202793   -8.1473517    791.33245  0.014292235  0.012995473           11 
 4615000   0.50362008   -8.1311294    790.51583  0.014274392  0.012991357           12 
 4616000   0.52428761   -8.1482753    789.59282  0.014254636  0.012987241           19 
 4617000   0.51468725   -8.1269165    789.67353  0.014253006  0.012983126           11 
 4618000   0.50009187   -8.1536938    789.50736  0.014246921  0.012979012           17 
 4619000   0.50271416    -8.130431    790.48356  0.014261448  0.012974898           15 
 4620000   0.50971388   -8.1524881    788.86235  0.014229119  0.012970788           24 
 4621000   0.50239838   -8.1436358    790.63135  0.014257941   0.01296668           12 
 4622000   0.52146605   -8.1574937    788.86387  0.014222989  0.012962574           12 
 4623000   0.50001821   -8.1458793    789.84482  0.014237595  0.012958469           11 
 4624000   0.51145098   -8.1498968    789.37138  0.014225984  0.012954368           13 
 4625000   0.51890633   -8.1612434    790.13821  0.014236724  0.012950264           11 
 4626000   0.52224718   -8.1460391    789.19494  0.014216655  0.012946166           14 
 4627000   0.51136599   -8.1621141    789.26919   0.01421492  0.012942066           18 
 4628000   0.50322254     -8.14275    790.18853  0.014228402  0.012937968           21 
 4629000   0.50859556   -8.1582152    790.53944  0.014231645  0.012933873           15 
 4630000   0.51423312   -8.1430644    789.35862  0.014207319  0.012929776           12 
 4631000   0.50805218   -8.1556177    788.86015  0.014195281  0.012925684           18 
 4632000   0.51799745   -8.1540815    789.14556  0.014197351  0.012921595           15 
 4633000   0.50171733   -8.1500705    790.40261  0.014216897  0.012917507           10 
 4634000   0.52353496    -8.153327    790.69973  0.014219172   0.01291342           13 
 4635000   0.51291856   -8.1523051    789.74819  0.014198997  0.012909336           12 
 4636000   0.51083369   -8.1588463    790.87406  0.014216172  0.012905253           14 
 4637000   0.50479353   -8.1609374    790.44972   0.01420548  0.012901169           11 
 4638000   0.51816039   -8.1684596    790.24956  0.014198821  0.012897086           22 
 4639000   0.50635426   -8.1489506    789.90793  0.014189623  0.012893005            7 
 4640000   0.51348086   -8.1557502    790.12441  0.014190453  0.012888922           19 
 4641000   0.51281012   -8.1581126    788.85266   0.01416456  0.012884846           22 
 4642000   0.50710269   -8.1477626    790.16527  0.014185072  0.012880769            9 
 4643000   0.50724531   -8.1712122    789.24469  0.014165495  0.012876695           14 
 4644000   0.50437113   -8.1534224    791.67131  0.014205988  0.012872623           12 
 4645000   0.50599334   -8.1463319    789.66671  0.014166966  0.012868556            9 
 4646000   0.51537913   -8.1569949    788.98421  0.014151676  0.012864488           11 
 4647000   0.51759682   -8.1630973    789.95283     0.014166  0.012860416            8 
 4648000   0.51649679   -8.1500305    789.26118  0.014150552  0.012856351            8 
 4649000     0.510294   -8.1388473    789.24445  0.014147208   0.01285228           16 
 4650000   0.50242758   -8.1617277    789.38857  0.014146749  0.012848217            9 
 4651000   0.50385931   -8.1585179     789.2779  0.014141724  0.012844155           14 
 4652000   0.51122015   -8.1449016    789.99284  0.014151491  0.012840094           14 
 4653000   0.50432405    -8.139916     789.7078  0.014143345  0.012836036            8 
 4654000   0.51857996   -8.1566338     790.4577  0.014153733  0.012831977           12 
 4655000   0.51342565   -8.1479878    790.33862  0.014148561   0.01282792           11 
 4656000   0.50221092   -8.1354623    789.73885  0.014134787  0.012823864            8 
 4657000    0.5036939   -8.1644726    789.88853  0.014134431  0.012819809           16 
 4658000   0.50983775   -8.1563804    789.64271  0.014126998  0.012815754            7 
 4659000   0.50610695   -8.1393648    791.59009  0.014158798  0.012811703           13 
 4660000   0.50485492   -8.1498726    789.38349    0.0141163  0.012807649            5 
 4661000     0.517805   -8.1677821    789.86515  0.014121883  0.012803596           15 
 4662000   0.50583313   -8.1352649     790.3471  0.014127468  0.012799545           12 
 4663000   0.51634304   -8.1674721    789.95955  0.014117513  0.012795493           12 
 4664000    0.5005331   -8.1537451    790.66467  0.014127085   0.01279144            7 
 4665000   0.49210071   -8.1629317    789.98256  0.014111871  0.012787391            7 
 4666000   0.50618585   -8.1517813    788.96643  0.014090699  0.012783341            6 
 4667000    0.5075018   -8.1567443    789.13105  0.014090619  0.012779291           13 
 4668000   0.49691155   -8.1732657    788.31703  0.014073069  0.012775245            7 
 4669000   0.50736847      -8.1639     789.0756  0.014083594  0.012771203           13 
 4670000   0.51385875    -8.177344    789.10194  0.014081048   0.01276716            7 
 4671000   0.50442639   -8.1436523    789.95173  0.014093194  0.012763123            8 
 4672000   0.50268046   -8.1603203    787.78551  0.014051539  0.012759084           11 
 4673000   0.50376758   -8.1543297    789.09358  0.014071859  0.012755047           12 
 4674000   0.48789472   -8.1688164     788.8332  0.014064206  0.012751012            9 
 4675000    0.4951947   -8.1904959    789.57247  0.014074376  0.012746974            5 
 4676000   0.50289855   -8.1633136    789.86939  0.014076657  0.012742938            9 
 4677000   0.49579432   -8.1686012    788.65075  0.014051934  0.012738905            8 
 4678000   0.51307406   -8.1771684    788.65783  0.014049056  0.012734875            9 
 4679000   0.51310135   -8.1642752    788.93223  0.014050941  0.012730846           20 
 4680000   0.50870309   -8.1677441    789.49229  0.014057911  0.012726819           13 
 4681000   0.50740764   -8.1660431    787.89633  0.014026496  0.012722793           12 
 4682000   0.50498264   -8.1665396    789.56257  0.014053157  0.012718763           21 
 4683000   0.50398761   -8.1754356    789.05774  0.014041173  0.012714742            9 
 4684000   0.49469829   -8.1691549    788.37623   0.01402605  0.012710717           10 
 4685000   0.50331626   -8.1707229      788.346  0.014022519  0.012706695            8 
 4686000   0.50045533   -8.1743381    789.03986  0.014031865  0.012702675           16 
 4687000   0.50748284   -8.1453449    787.52329  0.014001908  0.012698657           16 
 4688000    0.4995175   -8.1773091    788.35709  0.014013742  0.012694642           11 
 4689000   0.49726777   -8.1779342    789.19202  0.014025592  0.012690626            9 
 4690000   0.50313377   -8.1535408    788.20228  0.014005016  0.012686613           17 
 4691000   0.50348164   -8.1791128    789.04297  0.014016965  0.012682604            9 
 4692000   0.51728648   -8.1534988    788.44157  0.014003296  0.012678592           18 
 4693000    0.5094787   -8.1560451    789.30282  0.014015605  0.012674586            9 
 4694000   0.49382748   -8.1667175     788.3178  0.013995132  0.012670582           12 
 4695000   0.49962519   -8.1744656    789.07194  0.014005537  0.012666581           14 
 4696000   0.49268697   -8.1642299    789.83399  0.014016077  0.012662576            9 
 4697000    0.5021729   -8.1632546    789.83049  0.014013031  0.012658575            8 
 4698000   0.50874928   -8.1544501    788.96906  0.013994768  0.012654577            8 
 4699000   0.49271408   -8.1690397    787.63963  0.013968214  0.012650581           13 
 4700000   0.49385822   -8.1575753    789.02377  0.013989783  0.012646585           12 
 4701000   0.50100365   -8.1828994    788.65325  0.013980239  0.012642591           11 
 4702000   0.50319815   -8.1644249    789.30288  0.013988779  0.012638596           15 
 4703000   0.49663437   -8.1671574    788.50637  0.013971691  0.012634599            9 
 4704000   0.50235398   -8.1923778    790.44241  0.014003019  0.012630611           14 
 4705000   0.50435185   -8.1736665    790.57139  0.014002327  0.012626621           14 
 4706000   0.49139564   -8.1803557    789.09266  0.013973167  0.012622633            8 
 4707000    0.4921227   -8.1599002    788.78395  0.013964733  0.012618642           22 
 4708000    0.4922771   -8.1734103    789.89622  0.013981454  0.012614655           11 
 4709000   0.49029079   -8.1619572    788.46904  0.013953229  0.012610669           10 
 4710000   0.49925384   -8.1721274    789.45332  0.013967681  0.012606687            6 
 4711000    0.5088067   -8.1753335    789.49483   0.01396545  0.012602705            8 
 4712000   0.49239556   -8.1722719    788.75749  0.013949446  0.012598724           10 
 4713000   0.50295471   -8.1874231    787.96917  0.013932548  0.012594742            9 
 4714000   0.49509665   -8.1771813     790.0685  0.013966704  0.012590767            8 
 4715000   0.48914838   -8.1874856    788.76809  0.013940758  0.012586787           12 
 4716000   0.48202507   -8.1760371    787.82839  0.013921197  0.012582809            8 
 4717000   0.49717113   -8.1685498    788.16515  0.013924195  0.012578833            8 
 4718000   0.48398545   -8.1918624    788.99516  0.013935904  0.012574862           12 
 4719000    0.4881459   -8.1818485    787.68581  0.013909829  0.012570886           10 
 4720000   0.50489494   -8.1790632    787.60304  0.013905421  0.012566915            8 
 4721000   0.49621193   -8.1788847    789.16479  0.013930043  0.012562944           16 
 4722000   0.49807062   -8.1837997    789.20038  0.013927721  0.012558977            8 
 4723000   0.49674855   -8.1760043    790.23099  0.013942956   0.01255501            9 
 4724000   0.48988457   -8.1660042    788.72658  0.013913466  0.012551044            7 
 4725000   0.48704755   -8.1772383     788.6878  0.013909838  0.012547084           11 
 4726000   0.49706039    -8.175246     787.8151  0.013891506  0.012543125            9 
 4727000   0.50475584   -8.1750069    788.33877  0.013897799  0.012539162           11 
 4728000   0.49251912   -8.1713147    788.33608  0.013894812  0.012535202           11 
 4729000   0.49933806   -8.1874443    789.11941  0.013905678  0.012531244            9 
 4730000   0.49309686   -8.1905126    789.36055  0.013906987  0.012527288            8 
 4731000   0.49060664   -8.1890049    789.32857  0.013903484  0.012523335           11 
 4732000   0.49406386   -8.1789205    787.78113  0.013873294  0.012519385           17 
 4733000   0.50515553   -8.1562057    788.50677  0.013883139  0.012515431            6 
 4734000   0.49348013   -8.1706386    789.10853  0.013890799   0.01251148           14 
 4735000   0.49058621   -8.1762398    788.83797  0.013883104  0.012507528            7 
 4736000   0.49190516   -8.1855358    788.49088  0.013874065  0.012503579           12 
 4737000   0.49159233   -8.1715334    789.90956  0.013896094  0.012499634            8 
 4738000   0.48549678   -8.1796836    788.95694  0.013876406  0.012495692            9 
 4739000   0.49666858    -8.189123     787.9532  0.013855828  0.012491747            8 
 4740000   0.50906243   -8.1862127    788.63363  0.013864867  0.012487805            8 
 4741000   0.49542149   -8.1751972     788.4078  0.013857973  0.012483865            4 
 4742000   0.49329469   -8.1842492     787.9554    0.0138471  0.012479922            8 
 4743000   0.49252343   -8.1632169    788.39307  0.013851871  0.012475981           13 
 4744000   0.49593407   -8.1965016    788.44132  0.013849798  0.012472043           10 
 4745000   0.49110878   -8.1817316    789.71922  0.013869322  0.012468106            9 
 4746000   0.48907887   -8.1742829    789.56838  0.013863752  0.012464169            8 
 4747000   0.48546419   -8.1727226     789.5187  0.013859959  0.012460237            7 
 4748000   0.48656681   -8.1769011    787.74785  0.013825959  0.012456305            4 
 4749000   0.48755619   -8.1680927    789.08339  0.013846483  0.012452376           13 
 4750000   0.49418595   -8.1806074    788.05361  0.013825502  0.012448448            7 
 4751000   0.49255399   -8.1848346    789.61072  0.013849904   0.01244452            7 
 4752000   0.49000527   -8.1813297    788.80697  0.013832894  0.012440596           13 
 4753000   0.48526776   -8.1914393     788.9431  0.013832371  0.012436678            9 
 4754000    0.4816231   -8.1779613    787.93451  0.013811782  0.012432756            9 
 4755000     0.496805   -8.1792033    788.82815  0.013824538  0.012428839            9 
 4756000    0.4886795   -8.1877916     787.9139  0.013805612  0.012424922           11 
 4757000   0.48216959   -8.1910074    788.02143  0.013804594  0.012421007            6 
 4758000   0.48408234   -8.1753478    787.67997  0.013795712  0.012417091           14 
 4759000   0.49781205   -8.2066364    789.47173  0.013824188  0.012413179           12 
 4760000   0.49283309   -8.1854183    788.87699  0.013810872  0.012409266            8 
 4761000   0.50029419   -8.1811819     788.9178  0.013808685  0.012405357           10 
 4762000   0.48493382   -8.1839901    787.93822  0.013788643  0.012401449            8 
 4763000   0.48489653   -8.1890967    788.62412  0.013797749  0.012397544           12 
 4764000    0.4827765   -8.1927319    788.61309  0.013794659  0.012393639           11 
 4765000   0.49325376   -8.1892393     787.9881  0.013780834  0.012389736            8 
 4766000   0.47163166   -8.1855063    788.63157  0.013789194  0.012385833            5 
 4767000   0.48722254   -8.1709974    788.42998  0.013782777  0.012381928            9 
 4768000   0.49049089   -8.1877208    788.75993  0.013785653  0.012378026           15 
 4769000   0.49034571   -8.1897846    789.07292  0.013788232  0.012374126            9 
 4770000   0.48552794   -8.1871472    788.51625  0.013775616  0.012370227           11 
 4771000   0.49263396   -8.1855925     788.6181  0.013774507   0.01236633           15 
 4772000   0.49364503   -8.1773704    788.61068  0.013771491  0.012362436            9 
 4773000   0.47663125   -8.1784318     789.5139  0.013784376  0.012358542            9 
 4774000    0.5012246   -8.1898445    788.64872  0.013766386   0.01235465            8 
 4775000   0.49068611   -8.2026099    788.28866  0.013757219  0.012350761           24 
 4776000   0.48444279   -8.1771878    788.34425  0.013755309  0.012346875           13 
 4777000   0.49033085   -8.1900597    787.88638  0.013744442  0.012342988           14 
 4778000   0.47647303   -8.1801108    789.25615  0.013765455  0.012339103           10 
 4779000   0.49234311   -8.1964088    788.06522  0.013741808   0.01233522           19 
 4780000   0.49745147   -8.1939326    788.97798  0.013754846   0.01233134            9 
 4781000   0.48712489   -8.2093997    787.69947  0.013729685  0.012327459            9 
 4782000    0.4858927   -8.1892567    789.20532  0.013753055  0.012323578            8 
 4783000    0.4901744   -8.1897141      788.351  0.013735295  0.012319702            7 
 4784000   0.48234548    -8.176936    787.78034  0.013722484  0.012315828           19 
 4785000   0.49471967   -8.1856657     788.5527  0.013733067  0.012311955           17 
 4786000   0.47329909   -8.1993101    788.37799  0.013727155  0.012308079           10 
 4787000   0.48261142   -8.1823939    787.14281  0.013702785  0.012304206           10 
 4788000    0.4851569   -8.1850988    789.01687  0.013732541  0.012300336            8 
 4789000   0.47602624   -8.1881694    787.19776  0.013698019  0.012296465            8 
 4790000   0.47679133   -8.1868332    788.07251  0.013710378  0.012292595            9 
 4791000   0.48621662   -8.2003342    787.96031  0.013705564  0.012288726            9 
 4792000   0.48562766   -8.1859868    787.96169  0.013702728  0.012284858            9 
 4793000   0.48080285   -8.2039098     787.5318  0.013692395  0.012280993            5 
 4794000   0.48447899   -8.1907713    788.09736   0.01369937  0.012277126            9 
 4795000   0.49423388   -8.1977166    788.30249  0.013700078  0.012273263           10 
 4796000     0.483866   -8.2072881    788.40945   0.01369908  0.012269402            7 
 4797000   0.48457035   -8.2092121    789.19843   0.01370993  0.012265544           10 
 4798000   0.46885438   -8.2117486    789.24626  0.013707904  0.012261687            5 
 4799000   0.47603491   -8.1989757    787.94474  0.013682447  0.012257829           13 
 4800000   0.48831184   -8.1757351    787.39435  0.013670041  0.012253972            9 
 4801000   0.48255905   -8.1812222    788.91045  0.013693509  0.012250121           11 
 4802000    0.4821015   -8.1903629    788.20253  0.013678372  0.012246271            9 
 4803000    0.4894743    -8.199484     788.3104  0.013677396   0.01224242            6 
 4804000   0.47417921   -8.1864127    787.79981  0.013665692  0.012238573            7 
 4805000    0.4910343   -8.2055684    787.21828  0.013652762  0.012234721           12 
 4806000   0.49174724    -8.184897    787.82782  0.013660491   0.01223088            6 
 4807000    0.4736583   -8.1988116    787.65818  0.013654708  0.012227035           10 
 4808000    0.4829936   -8.2132888    788.38867  0.013664529  0.012223191           14 
 4809000    0.4775829   -8.2102682     788.0692  0.013656152   0.01221935            7 
 4810000     0.479803   -8.1912076     788.0981  0.013653813  0.012215508            6 
 4811000   0.49261189   -8.1895772    787.69626  0.013644015  0.012211666           10 
 4812000   0.48098353   -8.2129253    787.41216  0.013636259   0.01220783           12 
 4813000   0.48496908   -8.1854807    787.96027  0.013642916  0.012203992            5 
 4814000   0.49359909   -8.1973714    788.61333  0.013651387  0.012200157           14 
 4815000   0.48030305   -8.2064073    788.17961  0.013641046  0.012196325            5 
 4816000   0.47556167   -8.1986469    787.93323   0.01363395  0.012192493            5 
 4817000   0.48095167    -8.179293    789.09985  0.013651302  0.012188665            8 
 4818000   0.47110231   -8.2132565    787.28252  0.013617035  0.012184835           11 
 4819000   0.48842763   -8.2030256    788.39798  0.013633499  0.012181007           12 
 4820000   0.47740711   -8.1987447    788.53759  0.013633084  0.012177182            9 
 4821000   0.48050464   -8.1889437    788.55367  0.013630534  0.012173359            8 
 4822000   0.48539773   -8.1841169    788.96772  0.013634863  0.012169535            8 
 4823000   0.47430723   -8.2030551     788.5701  0.013625166  0.012165715            7 
 4824000   0.48374075   -8.2083029    785.96643  0.013577364  0.012161892           10 
 4825000   0.47956531   -8.1822153    787.36494  0.013598704  0.012158072           10 
 4826000   0.47878522   -8.1930244    787.85937  0.013604424  0.012154257            6 
 4827000    0.4743344   -8.1916654    787.43063  0.013594203  0.012150441           11 
 4828000   0.48045598   -8.2076374    787.75512  0.013596988  0.012146626            7 
 4829000   0.48226361   -8.2072425    787.39037  0.013587878  0.012142811           14 
 4830000   0.48291408   -8.2012742    787.82509  0.013592565  0.012138997           12 
 4831000   0.48685326   -8.2211676    787.26999  0.013580176  0.012135186            8 
 4832000    0.4726702   -8.1974182    787.65674  0.013584036  0.012131376           12 
 4833000    0.4766199   -8.2000597    787.76085   0.01358302  0.012127569            8 
 4834000   0.48068391   -8.2016762    788.59638  0.013594614  0.012123761            8 
 4835000   0.46766725   -8.1877518    787.34855  0.013570296  0.012119956            9 
 4836000   0.48268754   -8.2080338    788.21643  0.013582445  0.012116149            9 
 4837000   0.48079268   -8.2086854    787.37124  0.013565076  0.012112346           13 
 4838000   0.48001327   -8.1966014     787.4139  0.013563006  0.012108541           11 
 4839000   0.47309952   -8.2018616    787.37209  0.013559483  0.012104741            9 
 4840000   0.48215753   -8.2126458    787.48609  0.013558645  0.012100941            6 
 4841000   0.47684762   -8.1994061    787.57703  0.013557409  0.012097142           10 
 4842000   0.47638819   -8.2015982      788.131  0.013564144  0.012093344           11 
 4843000   0.47304053   -8.1982797    787.59761  0.013552165   0.01208955            8 
 4844000   0.46995637   -8.2063201    788.69253  0.013568203  0.012085755           10 
 4845000   0.47513425   -8.2013121    787.27498  0.013541021  0.012081962           19 
 4846000   0.47504645   -8.2103573    787.09157  0.013535073  0.012078169            8 
 4847000   0.47100398     -8.20231    787.19502  0.013534059  0.012074379           11 
 4848000   0.47539619   -8.2093299    788.37466  0.013551545  0.012070591           10 
 4849000   0.47107367   -8.2034051    787.55463  0.013534657  0.012066802            8 
 4850000    0.4719743     -8.20682    786.61565  0.013515733  0.012063012            7 
 4851000   0.46922102   -8.1981687    787.35816  0.013525702  0.012059229            6 
 4852000   0.48284353   -8.2076425    787.70592  0.013528887  0.012055446            8 
 4853000   0.46682261   -8.2191009    788.07054   0.01353236  0.012051665            9 
 4854000    0.4684666   -8.2022226     787.5096  0.013519942  0.012047882            7 
 4855000   0.47184845   -8.2134216    788.24908   0.01352985  0.012044098           10 
 4856000   0.46836449    -8.208301    787.63233   0.01351648   0.01204032           11 
 4857000   0.47105989   -8.2154702    787.01512  0.013503108  0.012036544            9 
 4858000   0.46267805    -8.203905    787.02336  0.013500469  0.012032767            6 
 4859000   0.47888417   -8.2118039    787.70918  0.013509453  0.012028992            7 
 4860000   0.47190956   -8.2154327    786.58319  0.013487366  0.012025215           10 
 4861000   0.47852134   -8.2075567    786.73155  0.013487135  0.012021443           11 
 4862000   0.48552357   -8.2212698    786.49158  0.013480248  0.012017672            6 
 4863000   0.47840611   -8.2056135    787.39247  0.013492914  0.012013901           10 
 4864000   0.47659071   -8.2017233    787.91691  0.013499125  0.012010136           12 
 4865000   0.47263529   -8.2266264    787.95983  0.013497085  0.012006367            5 
 4866000   0.47791842    -8.222212    786.15951   0.01346348  0.012002598            4 
 4867000   0.47850883    -8.200971    786.97026  0.013474595  0.011998834            9 
 4868000   0.46920615   -8.2273114    788.47606  0.013497604  0.011995073           11 
 4869000   0.47759346   -8.2192693    787.56512  0.013479242  0.011991312           11 
 4870000   0.47297355   -8.2113974     788.6985  0.013495868  0.011987553           10 
 4871000    0.4727627   -8.2325728    787.29433  0.013469074  0.011983795           10 
 4872000   0.47007259   -8.2348065    788.03592  0.013478994  0.011980034           12 
 4873000   0.46589446   -8.2187202    786.49357  0.013449853  0.011976276            9 
 4874000   0.46787457   -8.2105791     787.4976  0.013464259  0.011972524            9 
 4875000   0.47184397   -8.2082745    787.38109  0.013459506  0.011968772           10 
 4876000   0.47696852   -8.2135474    787.65549  0.013461435   0.01196502            9 
 4877000    0.4795794   -8.2199301    785.96931  0.013429863   0.01196127            5 
 4878000   0.46945836   -8.2174643    788.08182  0.013463199  0.011957521           14 
 4879000   0.46750061   -8.2334416    788.00324  0.013459097  0.011953776            7 
 4880000   0.47145992   -8.2303953    787.64988  0.013450305  0.011950031            9 
 4881000   0.47924778   -8.2226957    786.88284  0.013434454  0.011946288           10 
 4882000   0.47203941   -8.2002664    787.54411   0.01344299  0.011942546           13 
 4883000   0.46947126   -8.2053502    786.73909  0.013426498  0.011938803           13 
 4884000    0.4751374   -8.2021852    787.60536   0.01343853   0.01193506            7 
 4885000   0.46875002   -8.2162237    788.05578  0.013443463  0.011931319           11 
 4886000   0.46902092   -8.2232568     788.1379  0.013442112  0.011927583           11 
 4887000   0.46805547   -8.1997505    786.02373   0.01340331  0.011923843            8 
 4888000   0.45896266   -8.2051605    787.20522  0.013420711   0.01192011           11 
 4889000   0.47458476    -8.228977    786.52702  0.013406406  0.011916375            9 
 4890000    0.4729464   -8.2137807    786.16071  0.013397422  0.011912644           15 
 4891000   0.46992391   -8.2080796    788.22279  0.013429817  0.011908914           10 
 4892000   0.47031378   -8.2028131     787.3152  0.013411611  0.011905186           12 
 4893000    0.4926507   -8.2074744    786.95526   0.01340274  0.011901461           11 
 4894000   0.46368974   -8.2220387    786.07643  0.013385037  0.011897734           10 
 4895000    0.4538617   -8.2130246    787.55094  0.013407404  0.011894013           10 
 4896000   0.47893623   -8.2122494    787.08262  0.013396695  0.011890289           11 
 4897000   0.45535099   -8.2118362    788.05743  0.013410548  0.011886566           12 
 4898000   0.47304599   -8.2232681    787.30386  0.013394989   0.01188284           11 
 4899000   0.46258011   -8.2320675    785.88069  0.013368046  0.011879119           14 
 4900000   0.47237879   -8.2361063    786.82504  0.013381378  0.011875401           13 
 4901000   0.46153808   -8.2118133     786.6667  0.013375956  0.011871682           12 
 4902000   0.46948439   -8.2375965    787.78926   0.01339231  0.011867966           15 
 4903000   0.45810196     -8.21712    786.59425  0.013369268  0.011864252           11 
 4904000   0.45698758   -8.2023534    785.41193  0.013346451   0.01186054           10 
 4905000   0.46795784   -8.2220467     786.1608  0.013356453  0.011856829           14 
 4906000   0.46241747   -8.2181718     787.5566  0.013377439   0.01185312           12 
 4907000   0.46624019   -8.2164865    786.13631  0.013350593   0.01184941           15 
 4908000   0.46417848   -8.2273739    787.02612  0.013362981  0.011845704           15 
 4909000    0.4688491    -8.216405     786.1795  0.013345887     0.011842           12 
 4910000   0.46662107   -8.2141613    786.58386  0.013350032  0.011838299           13 
 4911000   0.46847749   -8.2254145    786.11679  0.013339388  0.011834595            9 
 4912000   0.47560158   -8.2109363    786.67813  0.013346195  0.011830896            9 
 4913000   0.47063085   -8.2244704    788.18302  0.013369004  0.011827193           18 
 4914000   0.46653448   -8.2255682    786.80524  0.013342919  0.011823495           10 
 4915000   0.45631045   -8.2119405    788.61763  0.013370933  0.011819797           17 
 4916000   0.47471428   -8.2217017    786.96421  0.013340185  0.011816099            9 
 4917000   0.46421883   -8.2362416    787.51893  0.013346874  0.011812404           11 
 4918000   0.46544812   -8.2214794    786.93413   0.01333425  0.011808708            9 
 4919000    0.4504977   -8.2350223    787.54882  0.013341953  0.011805016           11 
 4920000   0.45983123   -8.2257226    785.83866  0.013310275  0.011801325           14 
 4921000   0.45419478   -8.2219962    786.86262  0.013324911  0.011797632           12 
 4922000   0.45972586   -8.2208044    786.82154  0.013321508  0.011793944           13 
 4923000    0.4617369   -8.2142369    787.21488   0.01332546  0.011790255            7 
 4924000   0.46744849   -8.2339733    787.52438  0.013327992  0.011786571           10 
 4925000   0.45175235   -8.2303072    787.11312  0.013318327  0.011782886           13 
 4926000   0.46874094   -8.2238627    785.95366  0.013296009  0.011779198           11 
 4927000   0.46176937   -8.2367925    786.86598  0.013308741  0.011775514           12 
 4928000   0.46517422     -8.24461    786.42504  0.013298584  0.011771832           10 
 4929000    0.4639605   -8.2451262    786.68501  0.013300281  0.011768152           11 
 4930000   0.46213369   -8.2239788    785.61718  0.013279533  0.011764471            8 
 4931000    0.4557039    -8.234374    786.10335  0.013285056  0.011760796           11 
 4932000    0.4626914   -8.2222852    786.29087  0.013285531   0.01175712            9 
 4933000   0.46917691   -8.2298676    787.23783  0.013298835  0.011753445           13 
 4934000   0.46584618   -8.2292328    786.60801  0.013285502  0.011749767           13 
 4935000   0.45632798   -8.2300857    786.84951  0.013286888  0.011746098            8 
 4936000   0.46299897   -8.2246485    786.07974    0.0132712  0.011742425            7 
 4937000   0.46342866   -8.2211372    785.41209  0.013257243  0.011738757            7 
 4938000   0.47655712   -8.2345219    786.68665  0.013276067  0.011735088            7 
 4939000   0.46027594   -8.2288275     785.5494  0.013254191   0.01173142           12 
 4940000   0.47303856   -8.2205038    786.33524  0.013264765  0.011727757           12 
 4941000   0.47238114   -8.2400292     786.6505  0.013267397  0.011724093           18 
 4942000   0.47457968   -8.2282391    787.65122  0.013281587  0.011720432            7 
 4943000   0.46046964   -8.2261254    787.16111  0.013270637  0.011716769            8 
 4944000   0.45319284   -8.2257583    787.65406  0.013276262  0.011713108           13 
 4945000   0.47556943   -8.2380673    786.10858  0.013247532   0.01170945           14 
 4946000   0.45250389   -8.2310479     786.7701     0.013256  0.011705795           14 
 4947000    0.4551474   -8.2509309    787.29535  0.013262168  0.011702142           18 
 4948000   0.45381288   -8.2326014    786.43399  0.013244981  0.011698486           12 
 4949000   0.46703992    -8.229236    786.41527   0.01324199  0.011694834           12 
 4950000   0.45346345   -8.2351093    785.43619  0.013222832  0.011691183           15 
 4951000   0.45454557   -8.2430024    786.96791  0.013245942  0.011687531           11 
 4952000   0.45837288   -8.2322582    785.66898  0.013221408  0.011683881           16 
 4953000   0.46656007   -8.2277347    785.89182  0.013222488  0.011680234            7 
 4954000   0.46120063   -8.2308869    787.02805  0.013238932  0.011676587           14 
 4955000   0.45583504   -8.2384595    787.04753  0.013236588  0.011672944           13 
 4956000    0.4622752    -8.219283    786.08363   0.01321771  0.011669302           12 
 4957000   0.46385584   -8.2587385    787.43949  0.013237837  0.011665661            9 
 4958000   0.44818693   -8.2216446    786.58321  0.013220775   0.01166202           11 
 4959000   0.47229667   -8.2363328    786.55602  0.013217652  0.011658381           15 
 4960000   0.46108589   -8.2316221    786.65754  0.013216693  0.011654744           13 
 4961000   0.46005524   -8.2396485    787.52272  0.013228561  0.011651106           11 
 4962000   0.46761108   -8.2309055     786.0663  0.013201436  0.011647473            9 
 4963000    0.4481564   -8.2180407     785.4216  0.013187951  0.011643839           12 
 4964000   0.46388869   -8.2529245    787.19521  0.013215069  0.011640208            8 
 4965000   0.45963187   -8.2296676    786.00086  0.013192361  0.011636575            8 
 4966000   0.44212776   -8.2279285    786.88186  0.013204488  0.011632946           13 
 4967000   0.45953304   -8.2370736    786.49654  0.013195365  0.011629318           13 
 4968000   0.45429673   -8.2502843    785.74832  0.013180158  0.011625691            8 
 4969000    0.4578808   -8.2590547    786.82957  0.013195639  0.011622067           13 
 4970000   0.46247818   -8.2452131    786.24149  0.013183124  0.011618442           13 
 4971000    0.4517508   -8.2463401    786.13144  0.013178627  0.011614819           13 
 4972000   0.46191624    -8.227885    785.31368   0.01316227  0.011611199           13 
 4973000   0.46662005   -8.2408658    785.95008  0.013170288  0.011607577            9 
 4974000   0.45567618   -8.2395525    785.84541  0.013165886  0.011603955           11 
 4975000   0.45034514   -8.2337766    785.17811  0.013152062  0.011600335            9 
 4976000   0.44875339   -8.2488655    786.59424  0.013173135   0.01159672            9 
 4977000   0.45540947   -8.2347199     786.0648  0.013161623  0.011593107           10 
 4978000   0.45929824    -8.229017    786.35386  0.013163818  0.011589492           13 
 4979000     0.463039   -8.2388833    786.22349  0.013158993  0.011585883           11 
 4980000    0.4465159   -8.2379915    785.84153  0.013149959  0.011582272           14 
 4981000    0.4583564   -8.2338891    785.16408  0.013135985  0.011578661            7 
 4982000   0.45294967    -8.240279    786.64925   0.01315819  0.011575053           11 
 4983000    0.4568109   -8.2371486    785.97458  0.013144267  0.011571445           12 
 4984000   0.46990236   -8.2479176    786.40712  0.013148862  0.011567839           10 
 4985000   0.45316558   -8.2630522    786.95974  0.013155462  0.011564234           10 
 4986000   0.46025828   -8.2384551    786.54685  0.013145923  0.011560632           14 
 4987000   0.45569829   -8.2505871    785.86434  0.013131882   0.01155703            7 
 4988000   0.44790405   -8.2240096    785.00374  0.013114871  0.011553428           11 
 4989000   0.45942248   -8.2496045    785.87236  0.013126751   0.01154983           11 
 4990000   0.45155323   -8.2456635    785.39642  0.013116173  0.011546233           11 
 4991000   0.44773527   -8.2261935    785.05971  0.013107923  0.011542639            8 
 4992000   0.45604649   -8.2427667    785.35909  0.013110295  0.011539043           13 
 4993000   0.44642516   -8.2324515    785.76316  0.013114413  0.011535451           16 
 4994000   0.44938433   -8.2439084    785.33947  0.013104717  0.011531858            9 
 4995000   0.45502292   -8.2476619    786.66228  0.013124162  0.011528268           14 
 4996000   0.45068337     -8.25848     786.0074  0.013110612  0.011524678           15 
 4997000   0.46074782   -8.2402593    785.87664  0.013105807  0.011521089           12 
 4998000   0.44167328   -8.2557738    785.06186    0.0130896  0.011517498           11 
 4999000    0.4512836    -8.252251    787.55648  0.013128567  0.011513913           13 
 5000000   0.45550972   -8.2446078    785.38768  0.013089795  0.011510329           11 
 5001000   0.45730418   -8.2534778    785.38427   0.01308712  0.011506747           15 
 5002000   0.44369428    -8.247175    786.63556  0.013105351  0.011503167           10 
 5003000   0.44850505   -8.2393589    784.96691  0.013074937  0.011499588            8 
 5004000   0.44674045   -8.2529301     786.1658   0.01309229   0.01149601           13 
 5005000   0.44475204   -8.2562134    786.61226  0.013097107  0.011492432            9 
 5006000   0.43833275    -8.244005    786.50638  0.013092728  0.011488857            6 
 5007000   0.45574542   -8.2534964    785.95258  0.013080896  0.011485282            9 
 5008000   0.45451018   -8.2418777    786.04104  0.013079756   0.01148171           11 
 5009000   0.44905732   -8.2355802    784.58845  0.013052979  0.011478137           13 
 5010000   0.45434698   -8.2418702    785.41791   0.01306417  0.011474567            7 
 5011000   0.44889139   -8.2497303    785.63529  0.013065178  0.011470997            9 
 5012000   0.45611651   -8.2359235    785.73973  0.013064308  0.011467428           11 
Loop time of 11456.7 on 48 procs for 5000000 steps with 4000 atoms

Performance: 75414.354 tau/day, 436.426 timesteps/s
99.4% CPU use with 48 MPI tasks x no OpenMP threads

MPI task timing breakdown:
Section |  min time  |  avg time  |  max time  |%varavg| %total
---------------------------------------------------------------
Pair    | 723.01     | 763.17     | 805.4      |  65.8 |  6.66
Neigh   | 74.076     | 76.548     | 79.754     |  13.7 |  0.67
Comm    | 700.44     | 735.11     | 783.53     |  76.8 |  6.42
Output  | 13.504     | 13.509     | 13.592     |   0.3 |  0.12
Modify  | 9729       | 9758.5     | 9789.8     |  15.1 | 85.18
Other   |            | 109.8      |            |       |  0.96

Nlocal:        83.3333 ave          94 max          75 min
Histogram: 3 2 7 7 8 13 1 6 0 1
Nghost:        1934.90 ave        1967 max        1899 min
Histogram: 1 1 7 2 5 12 12 5 2 1
Neighs:        12231.1 ave       13700 max       10614 min
Histogram: 3 2 2 6 10 8 6 3 4 4
FullNghs:      24461.9 ave       28224 max       21867 min
Histogram: 3 5 8 6 9 10 3 3 0 1

Total # of neighbors = 1174169
Ave neighs/atom = 293.54225
Neighbor list builds = 268567
Dangerous builds = 0

#clear
#
#next RN
#
#jump SELF
Total wall time: 3:10:59
