
units lj                  # Use reduced LJ style units
atom_style atomic         # Uncharged point particles
atom_modify map hash      # Needed for indexing of clusters etc
                          # Used to be able to find where atoms are in relation to each other.

lattice fcc 1.0 spacing 1 1 1
Lattice spacing in x,y,z = 1.5874011 1.5874011 1.5874011
region box block 0 10 0 10 0 10 units lattice
create_box 2 box
Created orthogonal box = (0.0000000 0.0000000 0.0000000) to (15.874011 15.874011 15.874011)
  3 by 4 by 4 MPI processor grid
create_atoms 1 box
Created 4000 atoms
  using lattice units in orthogonal box = (0.0000000 0.0000000 0.0000000) to (15.874011 15.874011 15.874011)
  create_atoms CPU = 0.012 seconds
set type 1 type/fraction 2 0.07 78393
Setting atom values ...
  309 settings made for type/fraction
mass 1 1.0
mass 2 1.0
pair_style lj/cut  3.5
pair_modify tail  yes
pair_coeff 1  1  1.0  1.0   # Intearaction between 1 and 1 set with epsilon = 1 and sigma = 1
pair_coeff 1  2  1.5  0.8
pair_coeff 2  2  0.5  0.88

write_data data.0
System init for write_data ...
Neighbor list info ...
  update every 1 steps, delay 10 steps, check yes
  max neighbors/atom: 2000, page size: 100000
  master list distance cutoff = 3.8
  ghost atom cutoff = 3.8
  binsize = 1.9, bins = 9 9 9
  1 neighbor lists, perpetual/occasional/extra = 1 0 0
  (1) pair lj/cut, perpetual
      attributes: half, newton on
      pair build: half/bin/atomonly/newton
      stencil: half/bin/3d
      bin: standard
WARNING: Not all mixed pair coeffs generated from mixing. Use write_data with 'pair ij' option to store all pair coeffs. (../write_data.cpp:312)


#############################
#   M E L T   S Y S T E M   #
#############################

velocity all create 2.4 3143649 mom yes dist gaussian # Assign velocities
                                                    # Temperature 2.4, random number seed, zero linear momentum
                                                                                # Gaussian distribution

timestep 0.002   # simulation timestep
thermo 1000       # output thermodynamic data every 1000 steps bf 100

# Define a fix  in this case with index 1 applied to all
# particles in the simulation. This fix is for simulations
# in the anisotropic NPT ensemble. Note that we use the MTK
# correction.
fix 1 all npt temp 2.4 2.4 0.1 iso 5.68 5.68 0.5 mtk yes tchain 5 pchain 5 # Use NPT ensemble
                                                                         # Set temperature and pressure and damping
                                                                         # Numbers of thermostats in chain and in barostat
run 10000          # run for 10000 steps
Per MPI rank memory allocation (min/avg/max) = 3.642 | 3.644 | 3.648 Mbytes
Step Temp E_pair E_mol TotEng Press Volume 
       0          2.4   -7.8774228            0   -4.2783228   -2.8368304         4000 
    1000    2.4209823   -4.5446803            0  -0.91411475    5.5521104    4966.4627 
    2000     2.394079   -4.6079251            0   -1.0177044    5.2797923    4957.3149 
    3000    2.4556549   -4.5343033            0  -0.85174185    5.5638735    4968.4255 
    4000    2.3878737   -4.5470602            0  -0.96614505    5.9987182     4896.187 
    5000    2.3665147   -4.6027216            0    -1.053837    5.4540772    4938.9872 
    6000    2.4176219   -4.5386874            0  -0.91316119    5.5638353     4961.578 
    7000    2.3801388   -4.5324471            0  -0.96313144    5.8727305    4927.7509 
    8000    2.3688919   -4.5921596            0   -1.0397101    5.6226438    4923.4922 
    9000    2.4534222   -4.5225923            0  -0.84337898    5.9893829    4918.5068 
   10000    2.4049605   -4.5224815            0  -0.91594257    5.7503988    4946.3154 
Loop time of 2.21142 on 48 procs for 10000 steps with 4000 atoms

Performance: 781399.742 tau/day, 4521.989 timesteps/s
99.6% CPU use with 48 MPI tasks x no OpenMP threads

MPI task timing breakdown:
Section |  min time  |  avg time  |  max time  |%varavg| %total
---------------------------------------------------------------
Pair    | 0.8874     | 0.94959    | 1.0927     |   3.5 | 42.94
Neigh   | 0.18893    | 0.19733    | 0.22449    |   1.2 |  8.92
Comm    | 0.65809    | 0.78042    | 0.89369    |   5.6 | 35.29
Output  | 0.00024329 | 0.00025045 | 0.00031491 |   0.0 |  0.01
Modify  | 0.2167     | 0.26936    | 0.31484    |   6.4 | 12.18
Other   |            | 0.01446    |            |       |  0.65

Nlocal:        83.3333 ave          91 max          74 min
Histogram: 3 3 3 4 5 12 4 3 6 5
Nghost:        1427.88 ave        1455 max        1401 min
Histogram: 2 1 5 6 10 12 4 2 1 5
Neighs:        7700.46 ave        8666 max        6602 min
Histogram: 4 3 1 4 7 10 7 5 4 3

Total # of neighbors = 369622
Ave neighs/atom = 92.405500
Neighbor list builds = 906
Dangerous builds = 214

# Equilibrate just above the melting temperature to avoid step fn in T

fix 1 all npt temp 1.25 1.25 0.1 iso 5.68 5.68 0.5 mtk yes tchain 5 pchain 5
run 2000
Per MPI rank memory allocation (min/avg/max) = 3.643 | 3.645 | 3.649 Mbytes
Step Temp E_pair E_mol TotEng Press Volume 
   10000    2.4049605   -4.5224815            0  -0.91594257    5.7503988    4946.3154 
   11000    1.2395592    -6.097367            0   -4.2384931    5.7346217    4077.3239 
   12000    1.2517017   -6.1198822            0    -4.242799    5.4641186    4090.8751 
Loop time of 0.471312 on 48 procs for 2000 steps with 4000 atoms

Performance: 733272.812 tau/day, 4243.477 timesteps/s
99.7% CPU use with 48 MPI tasks x no OpenMP threads

MPI task timing breakdown:
Section |  min time  |  avg time  |  max time  |%varavg| %total
---------------------------------------------------------------
Pair    | 0.20404    | 0.22307    | 0.24525    |   2.1 | 47.33
Neigh   | 0.031161   | 0.033293   | 0.035582   |   0.5 |  7.06
Comm    | 0.13846    | 0.16226    | 0.18252    |   2.7 | 34.43
Output  | 5.0931e-05 | 5.3271e-05 | 6.8559e-05 |   0.0 |  0.01
Modify  | 0.041759   | 0.048139   | 0.054482   |   1.5 | 10.21
Other   |            | 0.004503   |            |       |  0.96

Nlocal:        83.3333 ave          91 max          74 min
Histogram: 2 0 7 3 8 8 4 9 5 2
Nghost:        1623.60 ave        1642 max        1599 min
Histogram: 1 4 5 2 2 8 9 7 5 5
Neighs:        9319.94 ave       10450 max        8066 min
Histogram: 2 1 5 7 8 7 5 9 3 1

Total # of neighbors = 447357
Ave neighs/atom = 111.83925
Neighbor list builds = 143
Dangerous builds = 16

#############################
# L I N E A R  Q U E N C H  #
#############################

# Define solid atoms. This closely follows ten Wolde  Ruiz-Montero and Frenkel  Faraday Discuss  1996  104  93-110
# Compute components of the per-atom q6 vector
compute q6 all orientorder/atom degrees 1 6 components 6 nnn NULL cutoff 1.3 # compute the Q6 parameter.
                                                                             # Use all neighbours within 1.3 unit cell.

# get number of connections
compute coord_number all coord/atom orientorder q6 0.5

# An atom is solid if it has 8 or more connections (of a possible 14)
variable is_solid atom c_coord_number>=8
group solid dynamic all var is_solid    # Must be dynamic to update
dynamic group solid defined

# do clustering
compute cluster solid cluster/atom 1.3 # Create a cluster where all atoms within are solid and max 1.3 units from another member

# define chunks one chunk per cluster
compute clus_chunks solid chunk/atom c_cluster nchunk every compress yes  # Says which atoms are in which chunk

# count the size of each chunk
compute size_chunks solid property/chunk clus_chunks count


# Find the maximum entry in the vector of chunk sizes
variable max_n equal max(c_size_chunks)


# Thermo style which includes this variable
# thermo_style custom step temp pe vol v_max_n

thermo ${N}  # Print the thermo information every 100 steps
thermo 1000  

# Reset the npt fix at a lower temperature (below freezing)
fix 1  all npt temp  ${temp} ${temp}  0.1  iso  5.68  5.68  0.5  mtk yes tchain  5  pchain  5
fix 1  all npt temp  0.45 ${temp}  0.1  iso  5.68  5.68  0.5  mtk yes tchain  5  pchain  5
fix 1  all npt temp  0.45 0.45  0.1  iso  5.68  5.68  0.5  mtk yes tchain  5  pchain  5

dump dmp2 all dcd ${N} traj.dcd
dump dmp2 all dcd 1000 traj.dcd


compute msd all msd com yes
variable twopoint equal c_msd[4]/6/(step*dt+1.0e-6)
fix 9 all vector 10 c_msd[4]
variable fit equal slope(f_9)/6/(10*dt)
thermo_style custom step temp pe c_msd[4] v_twopoint v_fit v_max_n

fix 1 all npt temp 1.25 ${temp} 0.1 iso 5.68 5.68 0.5 mtk yes tchain 5 pchain 5
fix 1 all npt temp 1.25 0.45 0.1 iso 5.68 5.68 0.5 mtk yes tchain 5 pchain 5
run 2000000 # 5000000  # Run for this many steps
Neighbor list info ...
  update every 1 steps, delay 10 steps, check yes
  max neighbors/atom: 2000, page size: 100000
  master list distance cutoff = 3.8
  ghost atom cutoff = 3.8
  binsize = 1.9, bins = 9 9 9
  4 neighbor lists, perpetual/occasional/extra = 1 3 0
  (1) pair lj/cut, perpetual
      attributes: half, newton on
      pair build: half/bin/atomonly/newton
      stencil: half/bin/3d
      bin: standard
  (2) compute orientorder/atom, occasional
      attributes: full, newton on
      pair build: full/bin/atomonly
      stencil: full/bin/3d
      bin: standard
  (3) compute coord/atom, occasional
      attributes: full, newton on
      pair build: full/bin/atomonly
      stencil: full/bin/3d
      bin: standard
  (4) compute cluster/atom, occasional
      attributes: full, newton on
      pair build: full/bin/atomonly
      stencil: full/bin/3d
      bin: standard
Per MPI rank memory allocation (min/avg/max) = 9.742 | 9.748 | 9.756 Mbytes
Step Temp PotEng c_msd[4] v_twopoint v_fit v_max_n 
   12000    1.2517017   -6.1198822 3.0554555e-30 2.121844e-32 8.3333333e+20            6 
   13000    1.2383372   -6.1293384   0.56319125 0.0036102002  0.046412588            3 
   14000    1.2671705   -6.0896858    1.1025504 0.0065627995  0.045259117            1 
   15000    1.2374952   -6.0954516    1.6756934 0.0093094076  0.046047693            3 
   16000    1.2528392   -6.1251451     2.170719  0.011305828  0.045737967            2 
   17000    1.2646368   -6.1200065    2.6648236   0.01306286  0.044776876            4 
   18000    1.2518017   -6.1441365    3.1653474  0.014654386   0.04374101            1 
   19000    1.2398941   -6.1285183    3.7142571  0.016290601  0.043522479            4 
   20000    1.2566467   -6.1314356    4.1841327  0.017433886  0.043410378            5 
   21000    1.2404644   -6.1116332    4.7301921  0.018770603  0.043235447            2 
   22000     1.217574   -6.1268884    5.2630418  0.019935764  0.043162715            4 
   23000     1.232832   -6.1060461    5.8033402  0.021026594  0.043280153            3 
   24000    1.2514428   -6.0867469    6.3736857  0.022130853  0.043431477            5 
   25000    1.2375102   -6.1459552    6.8575876  0.022858625  0.043498732            2 
   26000    1.2218441   -6.1112308    7.3772209  0.023644938  0.043509655            4 
   27000    1.2349146   -6.1414675    7.9562723  0.024556396  0.043569596            3 
   28000    1.2512947   -6.1199942     8.445035  0.025134032  0.043622122            3 
   29000    1.2648593   -6.0946763     8.905948  0.025591804  0.043604948            1 
   30000    1.2468648    -6.062108    9.5304657  0.026473515   0.04359575            2 
   31000    1.2533772   -6.0847016    10.039092  0.026986807  0.043659507            4 
   32000    1.2094569   -6.1183882    10.506242  0.027360005  0.043614886            1 
   33000    1.2635309   -6.1294682    10.947602  0.027645459  0.043575507            3 
   34000    1.2530547   -6.1215284    11.457073   0.02808106  0.043499699            2 
   35000    1.2608526   -6.1359047    12.018633  0.028615793  0.043419688            3 
   36000    1.2529342   -6.1434095    12.538731  0.029024841  0.043360299            5 
   37000    1.2262143   -6.1436533    12.888548   0.02902826  0.043276919            2 
   38000    1.2508674   -6.1523905     13.44421  0.029482917  0.043186061            8 
   39000    1.2163823   -6.1450589    14.102053  0.030132591  0.043169147            2 
   40000    1.2160346   -6.1329999    14.542501  0.030296876  0.043157515            3 
   41000    1.2108986   -6.1023516    15.224624  0.030944356  0.043177309            2 
   42000    1.2492582   -6.1435937    15.668039  0.031087378  0.043240273            4 
   43000    1.2498466   -6.1448041    16.246093  0.031484677  0.043273526            9 
   44000    1.2233374   -6.1725493    16.740964   0.03170637  0.043300924            3 
   45000    1.2446271   -6.1335347    17.247868  0.031940496  0.043320273            3 
   46000    1.2031964   -6.1317823     17.77623  0.032203314   0.04333165            4 
   47000    1.2295193   -6.1429864    18.416261  0.032652945  0.043366285            3 
   48000    1.2104901   -6.1482128    19.084811  0.033133352  0.043433606            4 
   49000    1.2137936   -6.1185357     19.76357  0.033611513  0.043544168            5 
   50000    1.2484095   -6.0791479    20.512449  0.034187415  0.043690838            4 
   51000    1.2667094   -6.1264864    21.114436  0.034500712  0.043881297            3 
   52000    1.2330006   -6.1331946    21.816316  0.034962045  0.044063505            5 
   53000    1.2517497   -6.1234715    22.311654  0.035081217  0.044246275            2 
   54000    1.2611747   -6.1432106    22.728195  0.035074375  0.044387251            2 
   55000    1.2279198   -6.1703167    23.155085  0.035083461  0.044488323            3 
   56000    1.2191447   -6.1364756    23.626288  0.035158166  0.044567499            3 
   57000    1.2384258   -6.1520677    24.315384  0.035548807  0.044649668            3 
   58000     1.252499   -6.1222535    25.106982   0.03607325   0.04475792            3 
   59000    1.2269938   -6.1221484    25.619617  0.036185899  0.044873944            3 
   60000    1.2199315   -6.1730284    26.024269  0.036144818  0.044960521            3 
   61000    1.2332295   -6.0893837    26.569018  0.036296473  0.045030625            2 
   62000    1.2397082   -6.0991042    26.950562  0.036223873  0.045067795            3 
   63000    1.2235073   -6.1014797    27.379961  0.036216879  0.045076982            3 
   64000    1.2153823   -6.1415504    27.921894  0.036356633  0.045073482            4 
   65000    1.2241593   -6.1343115    28.194138   0.03614633  0.045056403            2 
   66000    1.2174194   -6.1339033    28.668764  0.036197934  0.045013668            2 
   67000    1.2306215   -6.1502503    29.254485  0.036386175  0.044961988            2 
   68000    1.2299119    -6.159597    29.574309  0.036243025  0.044907749            1 
   69000    1.2528416   -6.1446655    30.097938  0.036350166  0.044836421            3 
   70000    1.2074965   -6.1599192     30.65018   0.03648831  0.044781518            1 
   71000    1.2145924   -6.1528263    31.153378  0.036564998   0.04472741            2 
   72000    1.2263236   -6.1918321    31.546855  0.036512564  0.044670106            2 
   73000     1.231324   -6.1142608    32.124332  0.036671612  0.044605114            7 
   74000    1.2117849   -6.1490941    32.752658  0.036883624  0.044549329            1 
   75000    1.2477358   -6.1803829    33.245541   0.03693949  0.044501902            2 
   76000    1.2134798    -6.153671    33.881819  0.037151117  0.044457969            2 
   77000    1.2200156   -6.1689223     34.21322  0.037027295  0.044418599            1 
   78000    1.2273324   -6.1626991    34.687082  0.037058848  0.044376495            2 
   79000     1.198399   -6.1611336    35.188757  0.037118942  0.044333241            2 
   80000    1.2374479   -6.1260892    35.999658  0.037499644   0.04430642            3 
   81000    1.2050171   -6.1467805     36.59071  0.037644763  0.044300121            2 
   82000    1.2336664   -6.1534638    36.961961  0.037562968  0.044286233            2 
   83000    1.2173525    -6.147319    37.513891  0.037664549  0.044274121            3 
   84000    1.2063492   -6.1906594     38.25474  0.037951131  0.044262892            2 
   85000    1.2333714   -6.1888352    38.765501  0.038005393  0.044265818            2 
   86000    1.2463891     -6.16849    39.370934   0.03815013  0.044271085            2 
   87000    1.2308107     -6.14936    39.703533  0.038030204  0.044260602            1 
   88000    1.1994322   -6.1649588    40.187103  0.038055968  0.044244178            3 
   89000    1.2239689   -6.1575058    40.678057  0.038088068  0.044242235            2 
   90000    1.2286128   -6.1496617    41.299573  0.038240345  0.044229163            1 
   91000    1.2202777   -6.1750432    41.622107  0.038115483  0.044215032            5 
   92000    1.2005556   -6.1673708    42.240535  0.038261354  0.044193246            3 
   93000    1.2159391   -6.1737072    42.510376  0.038091735  0.044165823            4 
   94000    1.2028992   -6.1683362    42.643172   0.03780423  0.044117339            4 
   95000    1.2246197   -6.1966471    43.376628  0.038049673  0.044074385            2 
   96000    1.2052714   -6.1738055    43.906026   0.03811287  0.044032351            3 
   97000    1.2178938   -6.1931471    44.245792  0.038011849  0.043979934            3 
   98000    1.2444709   -6.1244399    44.803046  0.038097828  0.043937259            1 
   99000    1.2044376   -6.1583208    45.505829   0.03830457   0.04390195            5 
  100000    1.2167001   -6.1893426    45.750319  0.038125265  0.043864443            4 
  101000    1.2298398   -6.1752646     46.23774   0.03814995  0.043827012            4 
  102000    1.2227219    -6.211724    46.920681   0.03833389  0.043795067            2 
  103000    1.2189886   -6.1967828    47.410847   0.03835829  0.043759687            2 
  104000    1.1935859   -6.1594845    47.760729  0.038269815  0.043725896            7 
  105000    1.2523574   -6.1719168    48.171112  0.038231041  0.043684109            2 
  106000    1.2262679   -6.1525881    48.714918  0.038297891  0.043641427            2 
  107000    1.1785902   -6.1918803    49.419877     0.038489  0.043602737            2 
  108000    1.2134627   -6.2044272    49.668634  0.038324563  0.043563014            3 
  109000    1.2051305   -6.1968336    50.583317   0.03867226  0.043533016            4 
  110000    1.2046709   -6.1845828    50.949843  0.038598365  0.043506714            4 
  111000    1.2042266   -6.1647197    51.541384  0.038694733  0.043485668            1 
  112000    1.2206859   -6.1690573    51.808604  0.038548069  0.043454622            3 
  113000     1.230183   -6.1791611    52.263353  0.038542295  0.043420146            2 
  114000    1.1914822   -6.1928606    52.515245  0.038388336  0.043381245            2 
  115000    1.2061318   -6.1383901    53.373919  0.038676753  0.043351942            2 
  116000    1.2315531   -6.1624361    53.766094  0.038625067  0.043329234            3 
  117000    1.2173893    -6.218652    53.955944  0.038430159  0.043296456            4 
  118000    1.1950362   -6.1724423    54.651024  0.038595356  0.043259217            6 
  119000    1.1964974   -6.1901334     55.05404  0.038553249   0.04322445            4 
  120000    1.2348323   -6.1774017    55.607049  0.038616006  0.043192143            3 
  121000    1.1896707   -6.2005427    56.101914  0.038637681  0.043158266            3 
  122000    1.1825347   -6.1647717    56.791815  0.038792223  0.043128131            3 
  123000    1.1983533   -6.1595734    57.118039  0.038697858  0.043106364            3 
  124000     1.173405   -6.2016773    57.947022  0.038942891  0.043083503            2 
  125000    1.1851563   -6.1750755    58.420957  0.038947304  0.043063114            3 
  126000    1.1871198   -6.2030562    58.779822  0.038875543  0.043048441            2 
  127000    1.2083082   -6.2024421    59.132312   0.03880073  0.043022022            4 
  128000    1.2155154   -6.1701214    59.706022  0.038871108  0.042994254            5 
  129000    1.2042595   -6.1893753    60.166406  0.038867187  0.042968238            2 
  130000    1.2201305   -6.1891237    60.543218  0.038809755  0.042939745            6 
  131000    1.1999371    -6.181534    60.610848  0.038556519   0.04290366            4 
  132000    1.2021772   -6.1759341    61.093928  0.038569399  0.042864158            5 
  133000    1.1850713   -6.1945193    61.691879  0.038654059  0.042823465            3 
  134000    1.1980332   -6.2126733    62.058375  0.038593517  0.042785764            3 
  135000    1.2236612   -6.1613295    62.194191  0.038391476   0.04273989            2 
  136000    1.2138096   -6.1064185     63.10468  0.038667083  0.042692745            1 
  137000    1.1865824   -6.1828182    63.417657  0.038575217   0.04265006            4 
  138000    1.1878747   -6.2026594    63.601522  0.038406716  0.042604263            4 
  139000    1.2149011   -6.2325685    63.964112  0.038347789  0.042558754            3 
  140000    1.1799668    -6.166456    64.813324   0.03857936  0.042515579            2 
  141000    1.1660841   -6.1832598    65.188135  0.038527266  0.042477255            3 
  142000    1.1955076   -6.2067129     65.76416   0.03859399  0.042437274            2 
  143000    1.2013411   -6.2414504    65.885887  0.038395039  0.042396788            3 
  144000    1.1968895   -6.1839028    66.436628  0.038447123  0.042355217            2 
  145000    1.1997942   -6.1900124    67.044654   0.03853141  0.042316379            4 
  146000    1.1994207   -6.2086967    67.487326  0.038520163  0.042279123            3 
  147000     1.195664   -6.1810324     68.07062  0.038588786  0.042241636            2 
  148000    1.1631785   -6.1716806     68.53651  0.038590377  0.042206114            2 
  149000    1.2052434   -6.1925893    69.038131   0.03861193  0.042174311            3 
  150000    1.1947101   -6.2328378    69.453935  0.038585519  0.042143834            3 
  151000     1.216975    -6.190918    70.112132   0.03869323  0.042114924            2 
  152000    1.1836888   -6.2216729    70.547588  0.038677406  0.042087953            6 
  153000    1.1725817   -6.2141025    71.150244  0.038752856  0.042061445            2 
  154000    1.1827392    -6.182699    71.748773  0.038825094  0.042039732            4 
  155000    1.1939682   -6.2335809    72.141909  0.038785972  0.042018113            2 
  156000    1.1843012   -6.2199217    72.128825  0.038530355  0.041992342            4 
  157000    1.1871722   -6.1962595    72.585528   0.03852735   0.04196111            2 
  158000    1.2139778    -6.235776    73.505194  0.038768562  0.041932618            2 
  159000    1.1865444   -6.1873458     74.02107   0.03879511  0.041911101            3 
  160000    1.1932024   -6.2047208    74.537869  0.038821806   0.04188808            4 
  161000    1.1902566    -6.207714    74.600763  0.038613231  0.041862035            2 
  162000    1.1763323   -6.1793913    75.425809  0.038799284   0.04183757            5 
  163000    1.2011161   -6.2178933    75.585376   0.03864283  0.041813825            3 
  164000    1.1750149   -6.2452495    76.253484  0.038746689  0.041790602            3 
  165000    1.1947629   -6.2699521    76.796024  0.038785871  0.041770171            3 
  166000    1.2166822   -6.2383692     77.35812  0.038834397  0.041750465            4 
  167000     1.202151   -6.2071268    77.915871  0.038880175  0.041730281            2 
  168000    1.1489098   -6.2202545    78.447022  0.038912213  0.041711514            5 
  169000    1.1849909   -6.2308037    78.767298   0.03883989  0.041694066            1 
  170000    1.1837925    -6.232486    79.422279  0.038932489  0.041680079            6 
  171000    1.2015578   -6.1912818    79.726717  0.038853176  0.041664623            2 
  172000    1.1810613   -6.2343223    80.427247  0.038966689   0.04165038            3 
  173000    1.1700449   -6.2394515    80.845035  0.038942695  0.041636047            3 
  174000    1.1848876   -6.1945746     81.65492  0.039106762  0.041624769            2 
  175000    1.1616279   -6.2025346    81.928145  0.039013402  0.041613956            5 
  176000    1.1907547   -6.1918256    82.455628  0.039041491  0.041602121            3 
  177000    1.1874237    -6.248349    82.853333   0.03900816  0.041590209            3 
  178000    1.1832308   -6.1922314    83.405579  0.039047556  0.041575601            2 
  179000    1.1799153   -6.1845489    83.402473  0.038827967    0.0415605            4 
  180000    1.1737747   -6.2146078    84.048374  0.038911284  0.041541795            3 
  181000    1.1896238   -6.2088169    84.277216  0.038801665  0.041521365            4 
  182000    1.1917036    -6.208176    85.038416  0.038937003  0.041503293            4 
  183000    1.1766104   -6.2314492    85.285847  0.038836906  0.041484076            4 
  184000    1.1823917   -6.2507164    85.543624  0.038742583  0.041467135            2 
  185000    1.1724394   -6.2810756    85.933647   0.03870885  0.041446022            3 
  186000    1.1666521   -6.2540663    86.587606   0.03879373  0.041426656            4 
  187000    1.1854101   -6.2566558    87.177003  0.038848932  0.041410385            4 
  188000    1.1925201   -6.2303156     87.58988  0.038825301  0.041393655            3 
  189000    1.1778578   -6.2290412     88.15115   0.03886735  0.041378311            6 
  190000    1.1583047   -6.1793154    88.679034  0.038894313   0.04136109            2 
  191000    1.2028177   -6.2146081    89.394657  0.039002905  0.041344134            3 
  192000    1.1733711   -6.2069593    89.590904  0.038884941   0.04132757            2 
  193000    1.1868674   -6.2472811    89.938656  0.038833616  0.041310015            4 
  194000    1.1928138   -6.2262835    90.474877  0.038863779   0.04129478            3 
  195000    1.1765356   -6.2352261     90.98461  0.038882312  0.041279693            1 
  196000    1.1675698   -6.2560098     91.36548  0.038845867  0.041263007            3 
  197000    1.1493999   -6.2386732    92.175222  0.038991211  0.041247499            3 
  198000     1.177409   -6.2378471    92.189591  0.038800333   0.04122998            3 
  199000    1.1698639    -6.272877    92.808807  0.038864659  0.041213563            3 
  200000    1.1621233    -6.207797    93.453816   0.03893909  0.041197274            3 
  201000     1.139874   -6.3048801     93.48134  0.038756774  0.041180805            9 
  202000     1.159153   -6.2489262    94.104926  0.038822164  0.041163312            3 
  203000    1.1831051   -6.2472469     94.75494  0.038897758  0.041144978            5 
  204000    1.1651607   -6.2437244    94.784044  0.038718972  0.041128421            3 
  205000     1.188242   -6.2181232    95.430131  0.038792736  0.041110642            4 
  206000    1.1677977   -6.2249964    96.160978  0.038900072  0.041093266            3 
  207000    1.1775379   -6.2718038    96.462975  0.038833726  0.041075535            2 
  208000    1.1801244   -6.2788253    96.851569  0.038802712  0.041057783            3 
  209000    1.1718779   -6.2226748    97.521153  0.038884032   0.04104284            3 
  210000    1.1549577   -6.2769519    97.628171  0.038741338  0.041025439            7 
  211000      1.16854   -6.2555547    98.196257  0.038782092  0.041005818            2 
  212000    1.1648105   -6.2753483    98.729485   0.03880876  0.040988292            3 
  213000    1.1429675   -6.2689789    99.218679  0.038817949  0.040972611            3 
  214000    1.1669849   -6.2290591    99.963663   0.03892666  0.040956533            3 
  215000    1.1817474   -6.2690822    100.20342  0.038838535  0.040941686            4 
  216000    1.1814612   -6.2650066    100.43808  0.038749257  0.040926123            5 
  217000    1.1553107   -6.2934396    100.90737  0.038750909  0.040911111            3 
  218000    1.1569378   -6.2517628    101.27983   0.03871553  0.040895312            2 
  219000    1.1724182   -6.2732341     102.2901  0.038923175  0.040879542            3 
  220000    1.1815158   -6.2599174    102.42538  0.038797492  0.040863397            2 
  221000    1.1678711   -6.2556869    102.48313  0.038643715  0.040846172            4 
  222000    1.1503275   -6.2521588    102.77755  0.038580162  0.040826381            4 
  223000    1.1436598    -6.272501    103.75156  0.038771138  0.040807523            3 
  224000     1.184057   -6.2892566    103.74435   0.03859537  0.040789541            4 
  225000     1.169421   -6.2565361     103.9861  0.038513371  0.040770144            3 
  226000    1.1756038   -6.2444898    104.38139  0.038488714  0.040748476            3 
  227000     1.163377   -6.2609558    105.12137  0.038590813  0.040726888            2 
  228000      1.16403   -6.2245911    105.75144  0.038651843  0.040706019            5 
  229000    1.1993739   -6.2927471    106.17493  0.038637167  0.040688873            4 
  230000    1.1670359   -6.2517852    106.52371  0.038595549  0.040670564            5 
  231000    1.1514274   -6.2667954     107.0644  0.038623522  0.040653581            5 
  232000    1.1835877   -6.2533788    107.39042  0.038574144   0.04063692            5 
  233000    1.1494901   -6.2683899    107.98725  0.038622048  0.040620921            2 
  234000    1.1436989   -6.2709231    108.66814  0.038699482  0.040603912            2 
  235000    1.1475515   -6.2418031    109.06461  0.038675392   0.04058869            4 
  236000    1.1669935   -6.2571312    109.58223  0.038694289   0.04057381            4 
  237000    1.1472494   -6.2472104    109.75009  0.038590046  0.040559868            3 
  238000    1.1707978   -6.2610383    110.45181  0.038673602  0.040546229            4 
  239000    1.1965679   -6.3128203    110.64759  0.038580053  0.040529905            8 
  240000    1.1424735   -6.2579948     111.2348  0.038623193  0.040512896            5 
  241000    1.1727985   -6.2421148    111.45435  0.038538847  0.040496756            4 
  242000    1.1263883   -6.2894642    111.75956  0.038484696  0.040479779            2 
  243000     1.174421   -6.2777252     112.6597  0.038635014  0.040462491            2 
  244000    1.1672203   -6.3132051    113.14265  0.038641615  0.040447066            5 
  245000    1.1474476   -6.2643201    113.93438   0.03875319  0.040432893            5 
  246000    1.1551499   -6.2550962    114.56719  0.038810022  0.040421054            5 
  247000    1.1623542   -6.2457326    115.20966  0.038869657  0.040412402            2 
  248000    1.1555129    -6.288511    115.01888  0.038648816  0.040404061            4 
  249000    1.1517699   -6.2598504    115.77365  0.038746203  0.040393759            3 
  250000    1.1489193   -6.2634027      116.046     0.038682  0.040383692            3 
  251000    1.1489722   -6.2520561    117.12719  0.038886848  0.040373817            4 
  252000    1.1354951   -6.2867815    117.24918  0.038772876  0.040363834            2 
  253000    1.1653489   -6.2747782    117.58945  0.038731702  0.040352592            2 
  254000    1.1201507   -6.2798638    118.36234  0.038832788  0.040341491            3 
  255000    1.1455786    -6.267767    118.73089  0.038800946  0.040329499            4 
  256000    1.1570422   -6.2627924    118.58304  0.038601248  0.040315927            2 
  257000    1.1366024   -6.2904358    119.18153  0.038645113  0.040301382            3 
  258000    1.1295038   -6.2952914    119.79752  0.038694289  0.040288681            8 
  259000    1.1342101   -6.3027677    120.16029  0.038661612  0.040277004            2 
  260000    1.1462751   -6.2965235    120.77548  0.038710089  0.040265185            2 
  261000    1.1405021   -6.2681843    121.17423  0.038689091  0.040253518            5 
  262000    1.1419141   -6.2748623    121.53757  0.038656988  0.040241279            3 
  263000    1.1417797   -6.2724266    121.87912  0.038618227  0.040227258            4 
  264000    1.1410574   -6.2934286    122.52374  0.038675424   0.04021643            3 
  265000    1.1726323   -6.2985708    122.91722  0.038653214  0.040206114            2 
  266000    1.1538915   -6.2874201    123.44608  0.038673583  0.040194761            4 
  267000    1.1478782   -6.2844586    124.51297  0.038861725  0.040183202            2 
  268000    1.1535526   -6.3239638    124.04132  0.038570061  0.040171116            4 
  269000    1.1549608    -6.269236    125.08293  0.038749359  0.040160424            1 
  270000    1.1542052   -6.3142962    125.19383  0.038640071  0.040148957            4 
  271000    1.1525907   -6.2745297    125.62983  0.038631559  0.040139941            2 
  272000    1.1511668   -6.3180668    126.33129   0.03870444  0.040130536            3 
  273000    1.1399301   -6.2801384    126.50197  0.038614765  0.040119792            3 
  274000    1.1553964   -6.2602626    127.22606  0.038694058  0.040108849            2 
  275000    1.1623845   -6.2828301    127.15117  0.038530657  0.040097547            3 
  276000    1.1551785    -6.294549    127.60976  0.038529518  0.040084997            9 
  277000    1.1571061   -6.2894702    127.62462  0.038394892  0.040071779            4 
  278000     1.135999   -6.2845596    128.74506  0.038592643  0.040058243            3 
  279000    1.1316117   -6.2991696    128.75275  0.038456615  0.040046751            5 
  280000    1.1412501   -6.2784481    129.76747  0.038621271  0.040034783            2 
  281000    1.1405595   -6.2747825    129.75644  0.038480556  0.040021387            3 
  282000    1.1489897   -6.2853241     130.1869  0.038471308  0.040007518            2 
  283000    1.1381203   -6.2946092    130.72131  0.038492729  0.039992976            2 
  284000    1.1680801   -6.2827193    130.60835  0.038324045  0.039978219            2 
  285000     1.153099   -6.2894132     130.8372   0.03825649  0.039961628            3 
  286000    1.1128883   -6.2915866    131.19118  0.038225869  0.039945011            4 
  287000    1.1132542   -6.3082459     131.6949  0.038238938  0.039927293            2 
  288000    1.1196276   -6.3039263    132.27174  0.038273073  0.039909511            3 
  289000    1.1658725   -6.3202438    132.67626  0.038257283  0.039892119            3 
  290000    1.1366319    -6.323911    132.82416  0.038167863  0.039875816            3 
  291000    1.1414581    -6.288969    133.82813  0.038324207  0.039860276            3 
  292000    1.1494605    -6.300322    134.12955   0.03827898  0.039846256            2 
  293000    1.1526001   -6.3019448    134.73627  0.038320895  0.039831286            6 
  294000    1.1307447   -6.3281147    135.22891  0.038330191  0.039815901            3 
  295000    1.1130231   -6.3057258     135.8023  0.038362231  0.039801588            5 
  296000    1.1280965   -6.3126502    136.37487  0.038393825  0.039788078            3 
  297000    1.1228062   -6.3131913    135.89722  0.038130532  0.039773064            5 
  298000    1.1336465   -6.3651327    136.85062   0.03826919  0.039758861           10 
  299000    1.1438823     -6.31888    137.70999   0.03838071  0.039745319            3 
  300000    1.1141569   -6.3045124    138.16243  0.038378454  0.039733276            5 
  301000    1.1296535   -6.3142323    138.88642  0.038451388  0.039722028            2 
  302000    1.1303806   -6.3273367    139.07162   0.03837517  0.039710692            6 
  303000    1.1400395   -6.3234316    139.68292  0.038416645  0.039698108            7 
  304000    1.1302623    -6.303914    140.15453  0.038419553  0.039686829            4 
  305000    1.1254488    -6.298682    140.90049  0.038497401  0.039678182            2 
  306000    1.1335592   -6.2819301    141.36206  0.038497293  0.039669115            3 
  307000    1.1314377   -6.3223756    141.79424  0.038489208  0.039659011            3 
  308000    1.1388097   -6.3111944    142.16009  0.038463228  0.039650106            3 
  309000    1.1024423   -6.3130417    142.75632  0.038499546  0.039639673            3 
  310000      1.12936   -6.3310833    142.45518  0.038294404   0.03963038            2 
  311000    1.1182445   -6.2911156    143.57751  0.038472001  0.039619298            3 
  312000    1.1144245   -6.2959276    143.05048  0.038207926  0.039607482            2 
  313000    1.1283223   -6.3208141    143.83797   0.03829552  0.039594528            5 
  314000    1.1295404   -6.3311476     144.0796  0.038237686  0.039581217            3 
  315000    1.1151978   -6.3551016    144.21089   0.03815103  0.039568235            8 
  316000    1.1217701    -6.311539    144.90842  0.038214247  0.039553987            2 
  317000    1.1134285    -6.312589    145.11608  0.038148287  0.039540275            2 
  318000    1.1425647    -6.334411    145.33083  0.038084598  0.039525083            8 
  319000    1.1072335   -6.3119093    145.64038  0.038046076    0.0395101            5 
  320000     1.126195   -6.3448943    146.29693  0.038098159  0.039495693            3 
  321000     1.154783    -6.317178    146.66666  0.038075458  0.039480992            2 
  322000    1.0928709   -6.2735656    147.69282  0.038222779  0.039467689            1 
  323000    1.1341533   -6.3189069    147.93641  0.038167289  0.039455823            3 
  324000    1.1390165   -6.3525861    148.06725  0.038083139  0.039440793            3 
  325000    1.1036142   -6.3219787    148.51531  0.038080849  0.039425491            5 
  326000    1.1286688   -6.3055324    149.09419  0.038112012  0.039411327            3 
  327000    1.0917013   -6.3641612    149.71269  0.038153081   0.03939923            5 
  328000    1.1229921    -6.336523    149.87588  0.038078222  0.039386731            3 
  329000    1.0981237   -6.3118691    150.21203  0.038047627  0.039373644            4 
  330000    1.1224224   -6.3287177    150.58439  0.038026361  0.039360395            3 
  331000     1.092691   -6.3269295    151.07422  0.038034798  0.039346576            5 
  332000    1.1045806   -6.3301437    151.30427   0.03797798  0.039332708            2 
  333000    1.1040052   -6.3477443     151.4435  0.037898774  0.039317538            2 
  334000    1.1031183   -6.3369369    152.09298  0.037947351  0.039302294            6 
  335000    1.1140333   -6.3342681    152.26363  0.037876525  0.039288018            4 
  336000    1.1213488   -6.3332141    152.47878  0.037817158  0.039273869            2 
  337000    1.1146321   -6.3547122    153.37202  0.037925822  0.039258555            3 
  338000     1.122551   -6.3303186    153.76759  0.037911142  0.039243849            3 
  339000    1.1166988   -6.3495943    154.02537  0.037862677  0.039228229            3 
  340000    1.1203131   -6.3350933     154.3886  0.037840344  0.039210542            6 
  341000     1.103997   -6.3524639    154.28331  0.037703643  0.039193826            3 
  342000    1.0970924   -6.3424408    154.71299  0.037698096  0.039177542            3 
  343000    1.1276028   -6.3443879    155.53053  0.037786815  0.039159703            4 
  344000    1.1102997   -6.3406079    156.01118  0.037793405  0.039141968            3 
  345000    1.1203505   -6.3711987     155.9785  0.037675967  0.039124172            5 
  346000    1.1354777   -6.3456158    156.50309  0.037693423   0.03910595            3 
  347000    1.1288213   -6.3312906    156.85523  0.037669362  0.039087254            3 
  348000    1.1381432    -6.354175     156.7646  0.037539416  0.039067385           11 
  349000    1.1168094   -6.3871124    157.14261  0.037522112  0.039048555            6 
  350000    1.1328074   -6.3535162    157.90022  0.037595291  0.039028361            3 
  351000    1.1422164   -6.3374087    157.55876  0.037407113  0.039008243            3 
  352000    1.1050548   -6.3253114    158.38889   0.03749737  0.038987251            4 
  353000     1.100805   -6.3452207    158.62454  0.037446776  0.038968522            3 
  354000    1.1375994   -6.3329394    159.18894  0.037473857  0.038949239            4 
  355000    1.1215513   -6.3246716    159.80409  0.037512697  0.038928893            6 
  356000    1.1305647   -6.3470596    159.69341  0.037381417  0.038908987            9 
  357000    1.1031803   -6.3143806    160.02813   0.03735484  0.038887885            6 
  358000    1.1162135   -6.3495721    160.56519   0.03737551  0.038866659            3 
  359000    1.1195096    -6.327212    160.69704  0.037302006   0.03884515            2 
  360000    1.0972613   -6.3196989    161.77863  0.037448758  0.038824155            6 
  361000     1.106565    -6.355611     161.5568  0.037293814  0.038803467            4 
  362000    1.1056031   -6.3485933    161.62968   0.03720757  0.038781978            4 
  363000    1.1136255   -6.3796779    161.72037  0.037125887  0.038759434            4 
  364000    1.1046875   -6.3690743    162.27648  0.037151208  0.038736098            2 
  365000    1.1060884   -6.3887902    162.90608  0.037193169  0.038713815            5 
  366000    1.1213893   -6.3548646    162.91833  0.037094338  0.038691313            3 
  367000    1.1072365   -6.3747049    163.66241  0.037162219  0.038669376            3 
  368000     1.102216   -6.3980629    163.76719  0.037084961  0.038647455            5 
  369000    1.1257067   -6.3519358    164.25663  0.037094993  0.038626061            3 
  370000    1.1091112   -6.3427087    164.64831  0.037082952  0.038604184            6 
  371000    1.1030852   -6.3192657    164.81783  0.037021076   0.03858205            3 
  372000    1.0991753   -6.3499309    165.30122  0.037029843  0.038559513            4 
  373000    1.0912928   -6.3451874    166.00547  0.037087906   0.03853762            5 
  374000    1.0878801   -6.3863613    166.48733  0.037096107  0.038516058            1 
  375000    1.1154926   -6.3718986    166.24492  0.036943315  0.038494678            5 
  376000    1.0940646   -6.3976427    167.12743  0.037040654  0.038472897            3 
  377000    1.0873224   -6.3568399    167.24223  0.036967778  0.038451517            3 
  378000    1.1097657   -6.3365153    167.93045  0.037021704  0.038430442            2 
  379000    1.1152434   -6.3640428    168.13131  0.036968185  0.038408342            4 
  380000    1.0951348   -6.3375331    167.92162  0.036824916  0.038386624            3 
  381000    1.1293231   -6.3458868    168.35921  0.036823975  0.038364817            3 
  382000    1.0976576   -6.3725535    169.35836  0.036945542  0.038343342            3 
  383000    1.1273658   -6.3769672    169.23862  0.036823024   0.03832215            4 
  384000    1.1030937   -6.3533541    170.53774  0.037009058  0.038301299            6 
  385000    1.1079597   -6.3204269    170.86553   0.03698388  0.038281424            6 
  386000    1.0967392   -6.3708213    171.25283  0.036971682  0.038262213            3 
  387000    1.0861606   -6.3903893    170.83156  0.036785434  0.038242305            4 
  388000    1.1194583   -6.3656331    171.19542  0.036768775  0.038221824            3 
  389000    1.1376221   -6.3907174    171.69945   0.03678223  0.038201216            5 
  390000    1.1165025   -6.3445301    172.07221  0.036767566  0.038180601            2 
  391000    1.0966877   -6.3980746    173.45591  0.036968439  0.038160454            3 
  392000     1.098042   -6.3564039    173.55977  0.036896209  0.038141492            3 
  393000    1.1016164   -6.3397378    174.21225  0.036940681  0.038122695            3 
  394000    1.1041686   -6.3688238    174.78102  0.036967222  0.038104356            7 
  395000    1.1088342    -6.383195    174.31449   0.03677521   0.03808496            5 
  396000    1.1145107   -6.3711512    174.57029  0.036736172  0.038065409            2 
  397000     1.097239   -6.3553669    175.02845   0.03673981  0.038045164            3 
  398000    1.0730551   -6.3678047    174.98899  0.036639236  0.038025475            3 
  399000    1.0653514   -6.3528022     175.8076  0.036718379  0.038004586            3 
  400000    1.0871942   -6.3836836    176.05073  0.036677235  0.037984873            4 
  401000    1.1220379   -6.3408371    177.13603  0.036811312  0.037965027            2 
  402000    1.0910109   -6.4094085    176.46689  0.036581029   0.03794497            4 
  403000    1.0713447   -6.4016344    176.96513  0.036593285  0.037924948            3 
  404000    1.1208138   -6.3883072    177.61025  0.036635777  0.037905375            3 
  405000    1.0993995   -6.4054541     177.8821  0.036601255   0.03788598            6 
  406000    1.0847078    -6.355524    178.72754  0.036684635  0.037866731            6 
  407000    1.0941256   -6.4111065    178.19276  0.036485003  0.037847018            5 
  408000    1.0680721   -6.3685326    179.01406  0.036563329  0.037826242            2 
  409000    1.0960293   -6.3887229    179.16681  0.036505054  0.037805363            3 
  410000    1.0942271   -6.3813794    179.38757  0.036460889  0.037784526            3 
  411000    1.0878388   -6.3997668    179.48696  0.036392328  0.037762985            4 
  412000    1.0777101   -6.3865603    180.10804   0.03642962  0.037741601            4 
  413000    1.0732704   -6.3823929    180.13084  0.036346013  0.037720499            3 
  414000    1.0972262   -6.4284114    180.86697  0.036406395  0.037699858            6 
  415000    1.0860235   -6.3772363    181.32688  0.036411021  0.037679197            5 
  416000    1.0692713   -6.4039486    181.66673  0.036391573  0.037658596            5 
  417000    1.0819153   -6.3945655    181.92477  0.036355868  0.037637685            2 
  418000    1.0564359   -6.3639245    182.31988  0.036347663  0.037615985            3 
  419000     1.079973   -6.3837954    182.27386  0.036251763  0.037593787            5 
  420000     1.072966   -6.4327261    182.14825  0.036140525    0.0375711            2 
  421000    1.0915109   -6.3852438    182.71274  0.036166416  0.037547994            6 
  422000    1.0702132   -6.4104465    182.67965   0.03607418  0.037525513            6 
  423000     1.065474   -6.4101475    183.37243  0.036125381  0.037502925            4 
  424000    1.0701874   -6.4091824    184.13299   0.03618966  0.037480696            4 
  425000     1.078019   -6.4144621    183.79113  0.036037476  0.037458813            6 
  426000    1.0807627   -6.4048622    184.39214  0.036070449   0.03743639            4 
  427000    1.0718116   -6.3715045    184.91961  0.036088916  0.037414268            3 
  428000    1.0923703    -6.392108     185.9737  0.036209833   0.03739312            2 
  429000    1.0693653   -6.4085382    186.00177  0.036130881   0.03737216            7 
  430000    1.1016461   -6.3947598    186.33219  0.036110889  0.037351395            3 
  431000    1.0930129   -6.3997479    187.16758  0.036188627  0.037331852            3 
  432000     1.094529   -6.4145132     187.7213   0.03621167  0.037312301            3 
  433000    1.0719304    -6.410632    188.11014  0.036202875   0.03729268            3 
  434000    1.0522486   -6.4169883    188.59904  0.036213333  0.037273464            4 
  435000    1.0707378   -6.4265991    188.51413  0.036113818  0.037254728            3 
  436000    1.0650365   -6.3964806    188.94114  0.036112603  0.037235912            2 
  437000    1.0928952   -6.4021161    189.51544  0.036139482  0.037216432            3 
  438000    1.0844413   -6.4322051    189.49108  0.036052335  0.037197316            3 
  439000    1.0634637   -6.3974753    190.40058  0.036142858  0.037178339            4 
  440000     1.091374   -6.3787568     190.8033  0.036136989  0.037159592            3 
  441000    1.0694206   -6.4122062    190.14792  0.035931202   0.03713954            3 
  442000    1.0745706   -6.4208479     190.5121  0.035918571  0.037118314            9 
  443000    1.0701716   -6.4089615    191.05369  0.035939369  0.037096553            3 
  444000    1.0607635   -6.4108332    190.69639  0.035791364  0.037075164            4 
  445000    1.0729678   -6.4065182    191.30219   0.03582438  0.037054127            3 
  446000    1.0666441   -6.4028951    191.44285  0.035770339   0.03703266            2 
  447000    1.0597908   -6.4314074    191.87229  0.035770374  0.037011504            2 
  448000    1.0864186   -6.4297776    192.57081  0.035820463  0.036990022            7 
  449000    1.0561453   -6.4197442    193.40001  0.035894582  0.036968507            4 
  450000    1.1180992   -6.3880133    193.19592  0.035777021  0.036947412            4 
  451000     1.069064   -6.4015802    193.48236   0.03575062  0.036925509            2 
  452000     1.076061   -6.4299396    193.26837  0.035632074  0.036903745            8 
  453000    1.0619798   -6.4188223    194.05587  0.035698284  0.036882268            3 
  454000    1.0536934   -6.4673481    193.37548  0.035494765  0.036859441            3 
  455000    1.0685136   -6.4101884    194.57107  0.035635727  0.036836789            4 
  456000    1.1057706   -6.3877873    194.64598  0.035571268  0.036814263            3 
  457000    1.0687473   -6.4265145    193.94214  0.035365088  0.036791219            7 
  458000    1.0743807   -6.4172646    194.86385  0.035455578  0.036767756            5 
  459000    1.0598254   -6.4168418    195.19144  0.035437807   0.03674514            3 
  460000    1.0874139   -6.4274634    195.10858  0.035345758  0.036722005            6 
  461000     1.084528   -6.4226435    195.51742   0.03534299  0.036697986            3 
  462000    1.0736044   -6.4325266    195.55853  0.035273906  0.036673976            3 
  463000     1.054888   -6.4233204    195.90044  0.035259258  0.036650056            3 
  464000    1.0515522    -6.474829    196.47786  0.035286973  0.036626139            6 
  465000    1.0632743   -6.4005663    197.25695  0.035350708  0.036602534            3 
  466000     1.071026   -6.4445405    196.50001  0.035139486  0.036578921            3 
  467000    1.0504791   -6.4473911    197.21453  0.035191744  0.036554603            2 
  468000    1.0420686   -6.4679632    197.49715  0.035166871  0.036529736            8 
  469000    1.0467224   -6.4347694    198.02727  0.035186082  0.036505197            1 
  470000    1.0626977   -6.4316669    197.82278  0.035074962  0.036480638            2 
  471000    1.0533044   -6.4263508    198.73411  0.035161733  0.036456362            5 
  472000    1.0734483   -6.4297567    199.28992  0.035185367  0.036432171            5 
  473000    1.0692409   -6.4013696    199.20899  0.035096722   0.03640788            3 
  474000    1.0634543   -6.4467613    199.12028  0.035007081  0.036383482           10 
  475000    1.0532829    -6.429857    199.66784  0.035029445  0.036359063            4 
  476000    1.0610892    -6.426157    200.09451  0.035030551  0.036335514            3 
  477000    1.0737446   -6.4394012    200.11541  0.034960763  0.036312098            2 
  478000    1.0666109   -6.4491487    200.79176  0.035005537  0.036287905            4 
  479000    1.0612139   -6.4290824    200.93124  0.034956721  0.036263898            3 
  480000    1.0609202   -6.4598971    201.12235  0.034917075  0.036240497            4 
  481000    1.0546962   -6.4569254    201.79912  0.034961733   0.03621666            2 
  482000    1.0870786   -6.4543176    202.35878  0.034985958  0.036193381            7 
  483000    1.0751487   -6.4674611    202.05913  0.034861824  0.036169688            4 
  484000    1.0727374   -6.4659607    202.75055  0.034908841  0.036146203            1 
  485000    1.0434971   -6.4273517    202.84645  0.034853343  0.036122661            4 
  486000    1.0583558   -6.4196233    203.01839  0.034811109  0.036098511            4 
  487000    1.0496892   -6.4204016    203.20754  0.034771995  0.036074882            7 
  488000    1.0545327   -6.4437147     204.1757  0.034866069  0.036051503            3 
  489000    1.0833287   -6.4294641    204.68079  0.034880844  0.036028459            6 
  490000     1.075523   -6.4343063    205.04816  0.034872136  0.036005697            4 
  491000    1.0561777   -6.4218703    205.43989  0.034867598  0.035982952            3 
  492000    1.0555088   -6.4251933    205.93706  0.034880939  0.035960737            3 
  493000    1.0553606   -6.4511726    205.86173  0.034797453  0.035939205            3 
  494000    1.0670879   -6.4592638    206.62312  0.034855452  0.035916829            6 
  495000    1.0483845   -6.4343951    206.64444  0.034788626  0.035894299            3 
  496000    1.0538823   -6.4505723     206.8115  0.034746556  0.035872142            2 
  497000    1.0484697   -6.4317913    206.94152  0.034698444  0.035849902            2 
  498000    1.0331748   -6.4508643    207.69926  0.034755565  0.035827529            5 
  499000    1.0274015   -6.4376218    208.39186   0.03480158  0.035805302            6 
  500000    1.0490975   -6.4561072    208.18581  0.034697636  0.035784264            3 
  501000     1.058555   -6.4446795    208.50956  0.034682229  0.035762909            3 
  502000    1.0584458   -6.4616691    208.56502  0.034622347  0.035741324            5 
  503000    1.0623395   -6.4732912    208.95652  0.034618377  0.035719249            6 
  504000    1.0516972   -6.4791539    209.55473  0.034648599  0.035696832            5 
  505000    1.0454784   -6.4304814    209.63362  0.034593006  0.035674382            7 
  506000     1.062818   -6.4859646    209.67304  0.034531133  0.035652224            3 
  507000    1.0332297   -6.4594398    209.40175  0.034418434  0.035629102            8 
  508000    1.0408209   -6.4585347    210.13567  0.034471074  0.035606194            3 
  509000    1.0393966   -6.4404403      211.004  0.034545515  0.035583184            4 
  510000    1.0461222   -6.4320613    210.78963  0.034442749  0.035559926            7 
  511000    1.0513151   -6.4613839    210.76217  0.034370869  0.035537029            2 
  512000    1.0503708   -6.4786751    210.54793  0.034268869  0.035513562            4 
  513000    1.0350473   -6.4797061    211.10801  0.034293049  0.035490228            4 
  514000      1.05069    -6.441833    212.26883  0.034414531  0.035467584            3 
  515000    1.0829548   -6.4448058    212.11047  0.034322082  0.035445095            6 
  516000    1.0179436   -6.4701692    212.21708  0.034272784  0.035423309            5 
  517000    1.0551549   -6.4440625    213.38145  0.034394173  0.035401346            5 
  518000    1.0297613   -6.4612434    213.35867   0.03432411  0.035380153            3 
  519000     1.069697   -6.4752345    214.08199  0.034374115  0.035358634            3 
  520000    1.0661057   -6.4659395    214.33004  0.034347763  0.035336595            5 
  521000    1.0284057   -6.4779726    214.24077  0.034267558  0.035314173            5 
  522000    1.0524382   -6.4996856    213.96767  0.034158313  0.035291561            4 
  523000    1.0338999   -6.4628782    215.05188  0.034265756  0.035268887            3 
  524000    1.0258209   -6.5295729    214.40643  0.034097715  0.035245881            6 
  525000    1.0582628   -6.4840846    215.09742  0.034142447  0.035223264            5 
  526000    1.0302033   -6.4656326    215.99825  0.034220254   0.03520111            4 
  527000    1.0343709   -6.4929963    216.17355  0.034183041  0.035179049            3 
  528000    1.0445743   -6.4705871    216.30431  0.034138937  0.035157268            4 
  529000    1.0452126   -6.4737791    217.29191   0.03422998  0.035135093            6 
  530000    1.0323564   -6.4746971    216.52722  0.034045161  0.035113121            3 
  531000    1.0276661   -6.5074844    217.09899  0.034070776  0.035090989            7 
  532000    1.0568511   -6.4913262    217.89023  0.034130676  0.035068981            5 
  533000   0.99954484   -6.4845492    217.80551  0.034053395  0.035047277            6 
  534000    1.0266717   -6.4879089    218.79287  0.034143707  0.035025982            4 
  535000     1.054479   -6.5088643    218.75538  0.034074047  0.035005239            3 
  536000    1.0196955   -6.5121284    219.00526  0.034049325  0.034984901            2 
  537000    1.0366095   -6.5068674    219.70101  0.034093887  0.034964382            7 
  538000    1.0348079   -6.4752666    220.40491  0.034139546  0.034944624            4 
  539000    1.0438011   -6.4845577    219.97807  0.034010215  0.034924317            9 
  540000    1.0166124   -6.4813376    220.39812  0.034012056  0.034903743            4 
  541000    1.0624151   -6.4929904    220.81076  0.034012749  0.034882988            3 
  542000    1.0288378   -6.4973125    221.03435  0.033984372  0.034862179            3 
  543000    1.0486447    -6.506604    221.76173  0.034033414  0.034841357            4 
  544000    1.0333685   -6.4819164    222.16617  0.034032808  0.034821097            5 
  545000    1.0419504   -6.4891352    222.03166  0.033949795  0.034800532            5 
  546000    1.0290389   -6.5044226     222.8345  0.034010149  0.034780081            6 
  547000    1.0359521   -6.4872203    223.04205  0.033979593  0.034759786            4 
  548000    1.0344515   -6.5102023    223.23683  0.033947206  0.034739956            4 
  549000    1.0484049   -6.4659102    224.03917   0.03400716  0.034719936            4 
  550000    1.0112513   -6.4686551    224.44175  0.034006326  0.034699967            3 
  551000    1.0433147   -6.4777841    224.11421  0.033895072  0.034680241            8 
  552000     1.015678   -6.4709668    224.03144  0.033821172  0.034659964            5 
  553000    1.0421652   -6.5036647    224.23363  0.033790481  0.034639422            8 
  554000    1.0289517   -6.4703038    224.78332  0.033812172  0.034618984            4 
  555000    1.0572041   -6.4989709    224.12614  0.033652573  0.034598329            3 
  556000    1.0281318   -6.4791562    225.20015  0.033753021  0.034577576            2 
  557000    1.0335053   -6.4867066     225.4618  0.033731568  0.034556877            3 
  558000     1.031876   -6.4767887    225.51772  0.033679468  0.034536214            4 
  559000    1.0486427   -6.5013422    226.14623  0.033712914  0.034515598            2 
  560000     1.014459   -6.5083551     226.9768   0.03377631  0.034495636            4 
  561000      1.04247    -6.512993    227.25959  0.033758108  0.034475931            2 
  562000    1.0170273   -6.5202829    228.03656   0.03381325  0.034456747            9 
  563000    1.0356246   -6.4351147    229.21683  0.033927891  0.034437847            6 
  564000    1.0392329   -6.5228583    228.95219  0.033828634  0.034419456            3 
  565000     1.045785   -6.5248681    228.10092  0.033643204  0.034400578            4 
  566000    1.0436193   -6.5397242    228.86711   0.03369657  0.034381411            3 
  567000    1.0414143     -6.54044    229.46988  0.033725733  0.034362537            3 
  568000     1.033747   -6.5381129     229.3078  0.033642576  0.034343672            3 
  569000    1.0444265   -6.5114954     229.3201  0.033585252  0.034324616            4 
  570000    1.0272452   -6.5361395    229.68216  0.033579263  0.034305403           10 
  571000    1.0120438   -6.5212216    230.82081  0.033686633  0.034286507            3 
  572000    1.0408687   -6.4987742    230.96419  0.033648629  0.034267814            2 
  573000    1.0207472   -6.5516094    230.87474  0.033576896  0.034249134            4 
  574000    1.0243831   -6.5226929    231.30776  0.033581266  0.034230719            3 
  575000    1.0354391   -6.5286007    231.59885  0.033565051  0.034212105            3 
  576000     1.018592   -6.5194876    232.02431  0.033568331  0.034193353            7 
  577000    1.0538544   -6.5133097    232.37099  0.033560224  0.034175063            5 
  578000    1.0391871   -6.5145899    233.13318   0.03361205  0.034156704            3 
  579000    1.0097133   -6.4831993    234.13087  0.033697592   0.03413855            3 
  580000    1.0288291   -6.5416406    233.15391  0.033499125  0.034120427            3 
  581000     1.026827   -6.5209412    233.97926  0.033559848  0.034102352            2 
  582000    1.0285633   -6.5283074    234.60112  0.033591226  0.034084441            5 
  583000    1.0204798   -6.4990716    234.30519  0.033491308  0.034066607            6 
  584000     1.004487   -6.5404303    235.29674  0.033575448   0.03404871            8 
  585000    1.0339961   -6.5064882    235.03956  0.033481418  0.034030513            4 
  586000    1.0132905   -6.5245272    235.90502  0.033547357  0.034012552            6 
  587000    1.0142225   -6.5272294    235.67936  0.033458171  0.033994619            4 
  588000   0.98497625   -6.5535075    234.96968  0.033300692  0.033976202            8 
  589000   0.98846341   -6.5367816    235.54082   0.03332496  0.033957398            4 
  590000    1.0035106   -6.5114878    235.88808  0.033317525  0.033938564            5 
  591000    1.0175324   -6.5461959    236.12042  0.033293912  0.033919997            3 
  592000    1.0471375   -6.5189109    236.39499  0.033276322  0.033900935            5 
  593000    1.0218338   -6.5265509    236.58678  0.033247158  0.033882207            7 
  594000    1.0171104   -6.5282632    237.16911  0.033272883  0.033863135            5 
  595000    1.0242989   -6.5773642    236.91012  0.033180689  0.033843828            5 
  596000   0.99562408    -6.523564    237.86427  0.033258428   0.03382436            3 
  597000    1.0177029   -6.5324594    237.76472  0.033188822  0.033805145            4 
  598000    1.0009022   -6.5281984     237.8735  0.033148481  0.033785995           13 
  599000    1.0403463   -6.5370253    237.95442    0.0331044  0.033766867            4 
  600000    1.0150669   -6.5581824    238.23082  0.033087614  0.033747312            5 
  601000    1.0288746   -6.5521973    238.13877  0.033019796  0.033727561            4 
  602000    1.0146022   -6.5375876    238.64822  0.033035468  0.033708057            6 
  603000     1.009153   -6.5580815    238.73889  0.032993213  0.033688132            3 
  604000    1.0118636   -6.5238465    238.73523  0.032938084  0.033668675            3 
  605000    1.0223828   -6.5569928    239.63791  0.033007977  0.033649181            5 
  606000    1.0174401   -6.4996855    239.85449  0.032983291  0.033629401            5 
  607000     1.004056   -6.5480096    239.57301  0.032890309  0.033609895            3 
  608000    1.0087136   -6.5658295     239.7822  0.032864884   0.03359021            5 
  609000    1.0251479   -6.5140356    239.98339   0.03283845  0.033570448            3 
  610000    1.0046545   -6.5563577    240.54584  0.032861453  0.033550936            3 
  611000    1.0082309    -6.537112    240.69504   0.03282802  0.033530986            3 
  612000    1.0285406   -6.5608973    241.33631  0.032861698  0.033510813            5 
  613000    1.0153945   -6.5609476    240.86818  0.032744451  0.033490921            4 
  614000    1.0017729   -6.5746511    241.75932  0.032812069  0.033471264            5 
  615000    1.0065898   -6.5448923    242.14398  0.032810837  0.033451126            4 
  616000   0.99991503   -6.5358673    242.41396  0.032794097   0.03343129            3 
  617000    1.0087403   -6.5523961    243.21879  0.032849648  0.033411637           16 
  618000     1.003003   -6.5790852    242.18456  0.032657034  0.033391962            3 
  619000   0.99786403    -6.550925    242.27626  0.032616621  0.033372338           21 
  620000    1.0201051   -6.5724544    243.16896     0.032684  0.033352757            6 
  621000    1.0073799   -6.5642406    243.22556  0.032638964  0.033333251            4 
  622000    1.0092321   -6.5388949    243.99662  0.032689794  0.033313453            4 
  623000   0.99260371   -6.5183451    244.19143   0.03266338   0.03329421            5 
  624000    1.0021972   -6.5539696    243.80042  0.032558817  0.033274555            3 
  625000    1.0123727   -6.5244121    244.21022  0.032561363  0.033254352            4 
  626000    1.0070916   -6.5317947    245.35568  0.032661831  0.033234547            3 
  627000     1.016228   -6.5496321     244.7646   0.03253118  0.033214691           10 
  628000   0.98132896   -6.5876566    245.12577  0.032527305  0.033194799            2 
  629000   0.98722106   -6.5464351    245.58562  0.032536515  0.033174838            4 
  630000   0.99606485   -6.5581931    245.39921  0.032460213  0.033155115            4 
  631000    1.0074158   -6.5384989     246.0155  0.032490161  0.033135211           10 
  632000   0.98621372   -6.5324919    246.66273  0.032524094  0.033115132            9 
  633000    1.0019979   -6.5662047    246.56573  0.032459943  0.033094641            2 
  634000    1.0052034   -6.5306706    246.57464  0.032409916  0.033074196           12 
  635000    1.0181931    -6.544438     246.3099  0.032324133  0.033053752            7 
  636000   0.99895632   -6.5836735    246.49205  0.032297177  0.033033382            4 
  637000    1.0192814   -6.5540509    246.99073  0.032311713  0.033012995            5 
  638000   0.99058182   -6.5914135    246.72465  0.032226312  0.032992485           14 
  639000    1.0082081    -6.565945    247.35491  0.032258073  0.032971925            4 
  640000    1.0024151   -6.5766341    247.36102  0.032208467  0.032951201            8 
  641000    1.0019064   -6.5500876    248.19505  0.032266647  0.032930361            2 
  642000   0.99454604   -6.5593061    248.00213  0.032191346  0.032909587            3 
  643000   0.97908383   -6.6032836    247.91283  0.032129708  0.032888495            6 
  644000   0.97670892   -6.5762224    248.12197   0.03210688  0.032867689            7 
  645000    1.0018786   -6.5703589     249.1011  0.032183605  0.032846729            4 
  646000   0.99899607   -6.5730052    247.50302  0.031927634  0.032825604           10 
  647000    1.0115557   -6.5805391    248.10701   0.03195608  0.032804437            5 
  648000    1.0059151   -6.5626576    249.23522  0.032051854  0.032782922            4 
  649000   0.99648159   -6.5843632    248.80055  0.031946655  0.032761369            8 
  650000    1.0080917   -6.5533144    249.08214  0.031933608  0.032739552            7 
  651000   0.98159878   -6.5874809    248.73696  0.031840368  0.032717587            5 
  652000    0.9943751   -6.5421711    249.56779  0.031897724   0.03269585            4 
  653000   0.99283246   -6.5709481    249.28907  0.031813307  0.032673994            5 
  654000    1.0238128   -6.6001828      250.058   0.03186264  0.032652665            5 
  655000   0.98066099   -6.5902589    250.40351  0.031857952  0.032631891           11 
  656000    1.0049136   -6.5863475    251.37212  0.031932434  0.032611282            4 
  657000    1.0022464   -6.5637527    251.37152  0.031883755  0.032590579            2 
  658000    1.0208336   -6.5953924    251.49784  0.031851297  0.032569742            5 
  659000   0.98984755   -6.5555376    251.33522  0.031782401  0.032548816            5 
  660000    1.0094077   -6.6067868    252.18575  0.031841635  0.032527873            4 
  661000   0.97384042   -6.5856472    252.72694  0.031861691  0.032507289            3 
  662000   0.97171212   -6.5810363    252.45515  0.031779349   0.03248627           17 
  663000   0.99335336   -6.5547405    252.60324   0.03175003  0.032465315            5 
  664000   0.97177287   -6.5983677    252.91004  0.031740718  0.032444314            5 
  665000    0.9873015   -6.6003194    253.31814  0.031744128  0.032423601            4 
  666000     1.002824   -6.5606553    252.87882  0.031641494  0.032402228            2 
  667000    1.0044598     -6.57505    252.32035  0.031524282  0.032380767            4 
  668000    1.0129726   -6.5819905    253.07388  0.031571093  0.032359158           18 
  669000    0.9938497   -6.5908253     253.4873  0.031575398  0.032337843            7 
  670000   0.99843691   -6.5937785    253.73431  0.031558994   0.03231709            4 
  671000   0.98531789   -6.5784806    253.66741  0.031503652  0.032296003            4 
  672000    1.0130238   -6.6156073    254.13903  0.031515256  0.032274711            4 
  673000   0.99095821   -6.5840347     255.3707  0.031620938  0.032253745            6 
  674000   0.98605367   -6.5731914    255.37699  0.031574801  0.032232813            4 
  675000   0.96342332   -6.5700067    254.78128  0.031454479  0.032211496            7 
  676000   0.95984703   -6.5933316    255.04528  0.031440493  0.032190458            5 
  677000   0.98511652   -6.6168488    255.73133    0.0314785  0.032168906            5 
  678000   0.99217989   -6.5911308      255.128  0.031357916  0.032147648            4 
  679000   0.96964996   -6.5943102    255.59469   0.03136901  0.032126454            3 
  680000   0.98707862   -6.6246889    256.11378  0.031386492  0.032105364            5 
  681000   0.97051691   -6.5766697    256.16304  0.031346432  0.032084388            6 
  682000   0.98333343   -6.5815168    256.58786  0.031352377  0.032063318            4 
  683000   0.98290109   -6.6130289    256.41872  0.031285837  0.032042404            3 
  684000   0.98018192    -6.579449    257.33648   0.03135191  0.032021488            7 
  685000   0.97014119   -6.6013443    257.79544  0.031361976  0.032000393            2 
  686000   0.97993153   -6.6064908    258.33614  0.031381942  0.031980089            6 
  687000   0.96027441   -6.5923536     258.0444  0.031300874  0.031959593            5 
  688000   0.97089923    -6.596984    258.53175  0.031314408  0.031939144            6 
  689000   0.97602877   -6.5733737     259.2429  0.031354971  0.031919127            6 
  690000   0.98925626   -6.6028173     258.9245  0.031271074  0.031898781            3 
  691000   0.96756944   -6.5883693    259.31707  0.031273163  0.031878292           10 
  692000   0.97624132   -6.6276177    259.38497  0.031236148   0.03185746            7 
  693000   0.98329263   -6.6218537    259.22645  0.031172012  0.031836804            5 
  694000   0.95752695   -6.6028244    259.59969  0.031171913  0.031815901            5 
  695000   0.96233417   -6.6151052     260.8445  0.031276319  0.031795389            4 
  696000   0.96639424    -6.581595      259.682  0.031092193  0.031774611            7 
  697000   0.97413242   -6.5982956    260.26774  0.031117616  0.031754171            9 
  698000   0.97420968   -6.6008391    260.86733   0.03114462   0.03173345            5 
  699000   0.98221033   -6.6332254     260.3273  0.031035682  0.031712663            8 
  700000   0.97442091   -6.5706033    260.63496  0.031027971  0.031692117            8 
  701000   0.96393516   -6.6071479    261.24559  0.031056299  0.031671688            3 
  702000   0.97322524   -6.6182868    261.40929  0.031031493   0.03165095            5 
  703000   0.97180549   -6.6277077     261.4913  0.030997072   0.03163033            6 
  704000   0.97054899   -6.5870016    262.47275  0.031069217  0.031609943            2 
  705000   0.95536925   -6.6673933     261.5287  0.030913558  0.031589449            6 
  706000   0.95624234   -6.6326875    262.34967  0.030966675  0.031568856            5 
  707000    0.9917618   -6.5841243    262.69365  0.030963419  0.031548574           11 
  708000   0.97275788   -6.5890922    263.56694  0.031022474  0.031528495            3 
  709000   0.98934024    -6.590047    263.44942  0.030964906  0.031508105            4 
  710000   0.95910381   -6.6335629    263.46951  0.030923652  0.031487869            3 
  711000   0.96902645   -6.5981085    263.41504  0.030873774  0.031467521           12 
  712000   0.97579573   -6.6222068    263.66418  0.030859572  0.031447473            3 
  713000   0.97132902   -6.6191705     264.4789  0.030911512  0.031427227            5 
  714000   0.96185805   -6.6194475    264.30535  0.030847964  0.031407175            5 
  715000   0.96965883   -6.6160158    264.31327  0.030805743  0.031387015            4 
  716000   0.96468198   -6.6309924    265.13582  0.030858452  0.031367398            5 
  717000   0.96222057   -6.6090356    265.88731  0.030902756  0.031347825            3 
  718000   0.97822924   -6.6017023    266.13769  0.030888775  0.031328207           13 
  719000   0.96941791   -6.6355184    265.92817  0.030821531  0.031308516            2 
  720000   0.98552543   -6.6185271    266.21919  0.030812406  0.031289056            5 
  721000   0.94856567    -6.655665    266.39112  0.030789542  0.031269534           11 
  722000   0.98807471   -6.6026791    266.63428  0.030774963  0.031250305            7 
  723000   0.97255626   -6.6305021    266.57514  0.030725581  0.031230858            7 
  724000   0.95352768    -6.619394    267.15389  0.030749757  0.031211297            2 
  725000   0.97720765   -6.6452627    267.48118  0.030744963  0.031191806            6 
  726000    0.9579054   -6.6227016    267.90089  0.030750791  0.031172563            5 
  727000   0.98499242   -6.6138273    267.53781  0.030666874  0.031153219            6 
  728000   0.96155047   -6.6532878    267.35266  0.030603556  0.031133669            7 
  729000   0.96209707   -6.6034718    268.51564  0.030694517  0.031114007            6 
  730000   0.95901216   -6.6117629    267.82416  0.030573534  0.031094607           10 
  731000   0.96998467    -6.647169    267.90269  0.030540663  0.031074964            5 
  732000   0.98702791   -6.6644713    268.41391  0.030557139  0.031055346           11 
  733000   0.96401194   -6.6501339    268.71129   0.03054926  0.031035705            5 
  734000   0.94620232   -6.6162923    269.56806  0.030604911  0.031016608            7 
  735000   0.96405703   -6.6350553    269.56317  0.030562718  0.030997219            5 
  736000   0.97174885   -6.6211783    269.47226  0.030510899  0.030978133            6 
  737000   0.95890332   -6.6304484    270.25856  0.030558408  0.030959078            4 
  738000   0.95840543   -6.6162502    269.42575  0.030422961  0.030939919            4 
  739000   0.97302002   -6.6478507    269.26987  0.030364216  0.030920039            7 
  740000   0.96669486   -6.6228512    270.47395  0.030458779  0.030900532            3 
  741000   0.97265509   -6.6218476    270.38701  0.030407896  0.030881067            4 
  742000   0.97161383   -6.6576454    270.37649  0.030365734  0.030861404           10 
  743000   0.95039693   -6.6727886     270.4779  0.030336239  0.030841687            5 
  744000   0.95446074   -6.6327203    270.73097  0.030323809  0.030821824            6 
  745000   0.96939345   -6.6258916    270.76782  0.030287228  0.030801915            4 
  746000   0.96295252   -6.6478134    270.76374  0.030246173   0.03078219           10 
  747000   0.95238407   -6.6184139    271.27677  0.030262914  0.030762515            4 
  748000   0.95923343   -6.6333671    272.97726  0.030411905  0.030743319            8 
  749000   0.96055347   -6.6631844    271.82604  0.030243218  0.030724074            5 
  750000   0.94818669   -6.6306725    272.65843  0.030295381  0.030704288            6 
  751000   0.94200728   -6.6464447    272.92489  0.030284609  0.030684728            8 
  752000   0.93892516    -6.666644    271.62746   0.03010056  0.030665056           10 
  753000   0.94080132   -6.6861339    272.43556  0.030150018  0.030645392            5 
  754000   0.96423248   -6.6244648    273.18637  0.030193012  0.030625851            6 
  755000   0.94424794   -6.6395449    273.25353  0.030160433  0.030606287           16 
  756000   0.94934379   -6.6602506    273.42386  0.030139315  0.030586803            5 
  757000   0.95322474   -6.6649349     272.9157   0.03004356  0.030567638            5 
  758000   0.94755553   -6.6472149    274.13786  0.030138287  0.030548308            5 
  759000   0.94722584   -6.7077024     274.2779  0.030113955  0.030528968            5 
  760000   0.95103016    -6.628946    274.55603  0.030104827  0.030509477           11 
  761000   0.94840259    -6.626723    274.69252  0.030080215  0.030489977           10 
  762000   0.94136372   -6.6484307    274.40181  0.030008947  0.030470389            7 
  763000   0.94534676   -6.6255041    273.83772  0.029908008  0.030450532            4 
  764000   0.95580138   -6.6462475    274.68586  0.029961372  0.030430666            9 
  765000   0.94246717   -6.6677679    274.57034  0.029909623  0.030410721            3 
  766000   0.93237986   -6.6860438    275.04365  0.029922068  0.030390714            7 
  767000   0.94935713   -6.6840308     274.5668  0.029831247  0.030370948            2 
  768000   0.95210553   -6.6588377     275.7291  0.029918522  0.030351087            4 
  769000    0.9502128   -6.6691404    275.81273  0.029888679  0.030331374            5 
  770000    0.9312339   -6.6314502    276.08973  0.029879841  0.030311634            3 
  771000    0.9261025   -6.6522054    275.56789  0.029784683  0.030292009            9 
  772000   0.95195153   -6.6412636      276.237  0.029818329  0.030272193            4 
  773000   0.94292053   -6.6851394    276.02538   0.02975694  0.030252081            4 
  774000      0.94048   -6.6586338    276.46689  0.029766031  0.030232062            8 
  775000   0.94553077   -6.6823916    276.66436  0.029748856  0.030211942            7 
  776000   0.94594789   -6.7064616    275.94199  0.029632946  0.030192144            8 
  777000   0.95104109    -6.644404    277.79374  0.029793408  0.030172214            4 
  778000   0.93362786   -6.6629234    276.84085  0.029653047  0.030152394            6 
  779000   0.94716753   -6.6803717     276.5367  0.029582446  0.030132642            4 
  780000   0.93486381   -6.6769808    276.82723  0.029575559  0.030112706            5 
  781000   0.94516917   -6.6382777    276.91336   0.02954688  0.030092539            7 
  782000    0.9488041   -6.6769013    277.47654  0.029569111  0.030072619            4 
  783000   0.95586702   -6.6551278    277.89434  0.029575813  0.030052645            3 
  784000   0.92735295   -6.6864717    277.70414  0.029517872   0.03003256            3 
  785000   0.95051589   -6.6801552    278.46853  0.029561415  0.030012541            6 
  786000   0.94474363   -6.7352618     277.8945  0.029462945  0.029992428            8 
  787000   0.94481426   -6.6617874    278.89147  0.029531075  0.029972419            3 
  788000   0.94246635   -6.6890587     278.9698  0.029501882  0.029952661            3 
  789000   0.94979815    -6.683996    279.60122  0.029531181  0.029933075            2 
  790000   0.93691094   -6.6811237    278.94738  0.029424829  0.029913204            8 
  791000   0.93130088   -6.7285714    279.21911  0.029416257  0.029893242           10 
  792000   0.93781057   -6.6656075    280.70303  0.029535251   0.02987329            3 
  793000   0.93593485   -6.6786585    280.05104  0.029429492  0.029853653            8 
  794000   0.92402596   -6.6980139     279.5875  0.029343776  0.029834045           11 
  795000   0.91755505   -6.6887249    280.25386  0.029376715  0.029814433            6 
  796000   0.93371893   -6.6892765     280.2601  0.029340463  0.029794707            4 
  797000   0.91495493    -6.637698    281.00713  0.029381757  0.029775328            3 
  798000   0.92371381   -6.6701778    281.22165   0.02936734   0.02975611            6 
  799000   0.92885677    -6.680811    281.76776  0.029387543  0.029737001            5 
  800000   0.94655962   -6.6968512    282.58518  0.029435956   0.02971794            5 
  801000     0.948495   -6.6920879    281.96821  0.029335019  0.029699014            5 
  802000    0.9187787   -6.7013315    282.23538  0.029326203  0.029680078            4 
  803000   0.92538626   -6.6700763    282.85628  0.029354118  0.029661062            5 
  804000   0.92054884   -6.6952542    282.41784  0.029272164   0.02964223            8 
  805000   0.93240555   -6.6841957    282.80026  0.029275389  0.029623165            8 
  806000   0.94178153   -6.7250486     282.1226  0.029169003  0.029603801            4 
  807000   0.95144679   -6.7157486    283.00995  0.029224489  0.029584514            6 
  808000   0.94669475    -6.695247    282.58509  0.029144501  0.029565036            6 
  809000   0.93144607   -6.6866068    282.53879  0.029103707  0.029545505            7 
  810000   0.92000431   -6.6795504    282.68895  0.029083225  0.029525896            5 
  811000   0.93309444   -6.6806044    283.57079  0.029137977  0.029506474            5 
  812000   0.92897723   -6.7043249    283.40554  0.029085133   0.02948684            5 
  813000   0.94850166   -6.6555475    284.82203   0.02919455  0.029467382            7 
  814000   0.92074194   -6.7059222    284.01759   0.02907633  0.029448043            5 
  815000   0.92259264   -6.6893661    283.77897  0.029016255  0.029428512            3 
  816000   0.92039615   -6.6886016    283.86201  0.028989176  0.029408872            5 
  817000   0.93028233    -6.713504    283.82246  0.028949659  0.029389136            4 
  818000   0.93032657   -6.6701868    284.42044  0.028975188  0.029369496            4 
  819000   0.93147619   -6.6981089    284.06012  0.028903146  0.029349734            5 
  820000   0.92234256   -6.7121093    284.96086  0.028959437  0.029329866            8 
  821000   0.92753168   -6.7108195     284.4686  0.028874198  0.029309918            6 
  822000   0.91858927   -6.7208449    283.90388  0.028781821  0.029289933            4 
  823000   0.93231444   -6.7108387    284.76463  0.028834005  0.029269958            4 
  824000   0.93800191   -6.7043389    285.12163  0.028835116  0.029250003            6 
  825000   0.91192321   -6.7234777    285.46911  0.028835263  0.029230345            5 
  826000   0.95323458   -6.7495089    285.38552   0.02879192  0.029210551            7 
  827000   0.91323449   -6.7297674    285.17601  0.028735994  0.029190836            6 
  828000   0.93130465   -6.7168844     285.4768  0.028731562  0.029171131            6 
  829000   0.92103013   -6.6922179    285.78915  0.028728302  0.029151721            8 
  830000   0.91938267   -6.6953769    285.44946  0.028659584   0.02913212            6 
  831000   0.90068744   -6.7156646    285.74394  0.028654627  0.029112368           12 
  832000   0.92864085   -6.7372542     286.4928  0.028695192  0.029092561            5 
  833000   0.93335918   -6.7278404     285.5409  0.028565516  0.029072658            5 
  834000   0.91383879   -6.6901388     285.9033  0.028567476  0.029052701            4 
  835000    0.9171182   -6.7274597    287.33767  0.028676414  0.029032833            4 
  836000   0.91545622   -6.6999256     286.3954  0.028548186  0.029012785            4 
  837000   0.92073485   -6.7508814    286.78512  0.028552879  0.028992904            7 
  838000   0.90714437   -6.6915576    287.57337  0.028597193  0.028973214           14 
  839000   0.94230331   -6.7383046    286.80977  0.028487264  0.028953593            4 
  840000   0.91191921   -6.7197225    287.37951  0.028509872  0.028933903            5 
  841000   0.90732927   -6.7134501    288.07738  0.028545123  0.028914219            4 
  842000   0.91439979   -6.6893898    287.47364  0.028451469   0.02889461            9 
  843000   0.90234352   -6.7476752    287.61389  0.028431583  0.028874811            5 
  844000   0.91477974   -6.7047827    288.69702   0.02850484   0.02885523            8 
  845000   0.91378257   -6.7214475    288.82954  0.028484176  0.028835805            5 
  846000   0.92761198   -6.7118998    288.54525  0.028422503  0.028816304            5 
  847000   0.91147707    -6.765316     288.4918  0.028383688  0.028796559            5 
  848000   0.93271226   -6.7401351    289.51228  0.028450499  0.028777151            5 
  849000   0.90826453   -6.7402883    290.09819  0.028474498  0.028757912            9 
  850000   0.91384435   -6.7311565    289.41556  0.028374074  0.028738627            4 
  851000   0.89889763   -6.7581865    289.54565  0.028353471  0.028719348            5 
  852000   0.91551998   -6.7369898    289.41289  0.028307207    0.0287001            4 
  853000   0.92747783   -6.7159558    290.11618  0.028342729  0.028680939            8 
  854000   0.91291138   -6.7215593    290.51521  0.028348478  0.028661781            5 
  855000   0.90051107   -6.7313721    289.87271  0.028252701  0.028642353            6 
  856000   0.90527624   -6.6757472    290.27982  0.028259328  0.028623172            5 
  857000   0.91677677   -6.7555209     290.8265  0.028279512  0.028603786            4 
  858000   0.93413752   -6.7251564    291.10694   0.02827379  0.028584699            6 
  859000   0.90561579   -6.7345353    291.57793  0.028286567  0.028565465            4 
  860000   0.91555772   -6.7413789     291.7274  0.028268159  0.028546048            7 
  861000   0.91411774   -6.7585457    291.29737  0.028193706  0.028526783           11 
  862000   0.90908466   -6.7513191    290.95474  0.028127875  0.028507418            4 
  863000   0.90713305   -6.7342728    291.70059  0.028167303  0.028488237            5 
  864000   0.91420301   -6.7445373    292.07713   0.02817102  0.028469329            7 
  865000   0.89544015   -6.7466875    291.71042  0.028103123  0.028450305            8 
  866000   0.91337912   -6.7310623    292.19884  0.028117672  0.028431206           11 
  867000   0.91394281   -6.7502448    292.86847  0.028149603  0.028412169           10 
  868000   0.90813769   -6.7359747    293.06212  0.028135764  0.028393376            4 
  869000    0.9095861    -6.755633    292.53575  0.028052911  0.028374348            7 
  870000   0.88906187   -6.7569226    292.81504  0.028047418   0.02835528           11 
  871000     0.892962   -6.7526518    293.28859  0.028060524  0.028336134           15 
  872000   0.89617951   -6.7371429    293.05213  0.028005747  0.028317104            7 
  873000   0.90233213   -6.7444435    293.23777  0.027991387  0.028298063           11 
  874000   0.91272047   -6.7545128    293.08829  0.027945108  0.028278968            5 
  875000    0.9043442   -6.7454629    293.41389   0.02794418  0.028259781           10 
  876000   0.91280248   -6.7395356    293.28465  0.027899986  0.028240391           10 
  877000   0.91465767   -6.7831852    293.00791  0.027841877  0.028220739            9 
  878000   0.87823139   -6.7824178    293.47836  0.027854817  0.028201059            4 
  879000   0.89056938   -6.7518091    293.82462  0.027855955  0.028181432           10 
  880000   0.90474991   -6.7381476    293.53369  0.027796751  0.028161791           10 
  881000   0.90014082   -6.7524932    293.99974  0.027809283  0.028142293            7 
  882000    0.9068098   -6.7670923     294.2562  0.027801985  0.028122892            4 
  883000   0.90546504   -6.7545767    294.51944  0.027795342  0.028103602            8 
  884000   0.87024745   -6.7261142    295.08809  0.027817504  0.028084411            3 
  885000   0.90632805   -6.7648121    294.48992  0.027729747  0.028065123            5 
  886000    0.8857765   -6.7679871    294.97416  0.027743995  0.028045839           10 
  887000   0.89764985   -6.7416643    295.19424  0.027733393  0.028026688            5 
  888000   0.90834131   -6.7495502    295.74765  0.027754096  0.028007731            5 
  889000   0.88730489   -6.7249813     295.9883  0.027745435  0.027988849            9 
  890000   0.87481498   -6.7680376    296.01442  0.027716706  0.027969899            5 
  891000   0.88471016   -6.7810335    296.41548  0.027723109  0.027950954            4 
  892000   0.89378058   -6.7588333     295.9964  0.027652877   0.02793184            7 
  893000   0.90086834   -6.7663606    295.88018  0.027611066  0.027912774            7 
  894000   0.91678536   -6.7125471    296.49805  0.027637775  0.027893715            8 
  895000   0.89186441   -6.7790177    296.28495  0.027587053  0.027874782            9 
  896000   0.90376178   -6.7357159    296.54618   0.02758056  0.027855829            4 
  897000   0.88198474   -6.7749286    296.54601  0.027549797  0.027836525            6 
  898000   0.88404816   -6.7648143    296.17227  0.027484435    0.0278172            8 
  899000   0.90579995   -6.7526612    296.36538  0.027471763  0.027797985            8 
  900000   0.86652951   -6.7690625    296.90915  0.027491588  0.027778785           14 
  901000   0.91986128   -6.7809061     296.5828  0.027430891  0.027759627            8 
  902000   0.85914113   -6.7414201    298.00107   0.02753151  0.027740443            7 
  903000   0.88827309   -6.7559547    297.86989  0.027488916  0.027721449            5 
  904000   0.90047143   -6.7739661    298.20239  0.027489159  0.027702581            4 
  905000   0.88626673   -6.7797157    297.83166  0.027424647  0.027683804            6 
  906000   0.88913251   -6.7586052    298.21123  0.027429289  0.027665123           11 
  907000   0.91698456   -6.7681232    298.99451  0.027471013  0.027646295            4 
  908000    0.8938554   -6.7867803    298.82376  0.027425089  0.027627545            6 
  909000   0.89330981     -6.75727    298.44103   0.02735983  0.027608795            4 
  910000   0.89700261   -6.7395512    298.48449  0.027333744  0.027590121            9 
  911000   0.88102217   -6.7769405    298.92377  0.027343923  0.027571596            7 
  912000   0.89227371   -6.7802641    299.34418  0.027352356  0.027552897            7 
  913000   0.88184897   -6.8093095    298.29302  0.027226453  0.027533996           11 
  914000   0.86757021    -6.788399    298.65907  0.027230039  0.027515185           12 
  915000   0.88519716    -6.757585    299.13883  0.027243973  0.027496286           17 
  916000   0.87763674   -6.7851686    299.69227   0.02726458  0.027477699            6 
  917000   0.88744066   -6.7793414    299.90799  0.027254452  0.027459143            6 
  918000   0.88939675   -6.7752942    300.45638  0.027274545  0.027440501           21 
  919000   0.90323135   -6.7614309    299.52625  0.027160523  0.027421902            4 
  920000   0.89365522   -6.7586491     300.4734  0.027216793  0.027403344            7 
  921000   0.87233013   -6.7568894    301.14324  0.027247851  0.027384886            6 
  922000    0.8979297   -6.7807263    301.03072  0.027208127  0.027366549            5 
  923000   0.89822643   -6.7934909    301.16427  0.027190707   0.02734821            7 
  924000   0.88942979   -6.7894029    301.72603  0.027211943  0.027329894           13 
  925000   0.88147745   -6.7659918    300.75645  0.027095176  0.027311551            6 
  926000   0.89002355   -6.7939322    302.01381  0.027179069  0.027293226            7 
  927000   0.87960128   -6.8041342    301.15654  0.027072684  0.027274795            5 
  928000   0.89421949   -6.8151338    301.42681  0.027067781  0.027256395           14 
  929000   0.89537783   -6.7936069    302.57886  0.027141986  0.027237775            7 
  930000   0.88010418    -6.779672     301.3137  0.026999436  0.027219282            4 
  931000    0.8771918   -6.7856411    301.30409  0.026969575  0.027200812            3 
  932000   0.87198011   -6.7807063    302.50176  0.027047725  0.027182443            3 
  933000   0.88017358   -6.7717647    302.90648  0.027054883  0.027164177            8 
  934000   0.89654656   -6.7597458    303.32289   0.02706307  0.027145864            6 
  935000   0.87474449   -6.8037594    302.00683   0.02691683  0.027127471            7 
  936000   0.87349629   -6.8172994    302.14396  0.026900282  0.027109091            9 
  937000    0.8850396   -6.7957555    303.25363  0.026970263  0.027090688            4 
  938000   0.87257249   -6.7795247    302.61221  0.026884525  0.027072285            5 
  939000   0.87152298   -6.7914679     302.7601  0.026869019  0.027053798            4 
  940000    0.8829038    -6.829323     303.1458  0.026874627  0.027035455            4 
  941000   0.86788724   -6.7843303     304.3294  0.026950886  0.027017088            4 
  942000   0.89211075   -6.7633094    303.22657  0.026824714  0.026998767            8 
  943000   0.89795595   -6.7946613    303.91325   0.02685695  0.026980452            7 
  944000   0.90114138   -6.7944275     303.7495  0.026814045   0.02696228            3 
  945000   0.87785601   -6.8049262    304.82094  0.026880153  0.026944227            8 
  946000   0.87937448   -6.8161466    303.42381  0.026728665  0.026925955            4 
  947000   0.87862437   -6.8075221    303.09469  0.026671479  0.026907507            5 
  948000   0.87628942   -6.8005023    303.68653   0.02669537  0.026889023            3 
  949000   0.87855637   -6.8151297    305.08645   0.02679017  0.026870637            6 
  950000   0.85435422   -6.8217395    304.15745  0.026680478  0.026852209            4 
  951000   0.86707411     -6.83062    304.24674  0.026660247  0.026833874           10 
  952000   0.88092627   -6.8130203    305.22214  0.026717624  0.026815548            6 
  953000    0.8607647   -6.8250289    305.50685  0.026714485  0.026797314            8 
  954000   0.87353858   -6.7937335    305.89916  0.026720751  0.026779125            6 
  955000   0.87325869   -6.7968623    305.35413  0.026645212  0.026760828            5 
  956000   0.87062311    -6.800314    305.56084   0.02663536  0.026742634            9 
  957000   0.88369117   -6.8160222    304.87377  0.026547698  0.026724518           19 
  958000   0.88512424   -6.8099768    306.17969  0.026633584   0.02670628           11 
  959000   0.86492297   -6.7981252     305.8459  0.026576807  0.026688095            7 
  960000    0.8771373   -6.8145523    306.07409  0.026568931  0.026670038            4 
  961000   0.84643262   -6.8434329     305.3702  0.026480246  0.026651979           10 
  962000   0.87864897   -6.7968291    306.08499  0.026514638  0.026634027            9 
  963000   0.85858761   -6.7986303    306.81083  0.026549916  0.026616197            3 
  964000   0.86390633   -6.8069419    306.83115  0.026524131   0.02659833            8 
  965000   0.87864168   -6.8181979    306.85451  0.026498663  0.026580402           11 
  966000   0.86741733   -6.8466722    305.85441  0.026384956  0.026562328           11 
  967000   0.85230583   -6.8422877    306.93339  0.026450654  0.026544009            8 
  968000   0.87409662   -6.8265066    307.25705  0.026451192  0.026525825           15 
  969000   0.85473367   -6.8155138    306.92261  0.026395133  0.026507809           20 
  970000   0.84266249   -6.8144994    307.52633  0.026419788  0.026489692           10 
  971000    0.8468517   -6.8267533    306.96614  0.026344502  0.026471623            5 
  972000   0.85926678   -6.8473879    306.63216  0.026288765  0.026453589            8 
  973000   0.85933186   -6.8316677    307.93797  0.026373584  0.026435499            4 
  974000   0.89493118   -6.8043521    307.31634  0.026293321  0.026417334            7 
  975000    0.8769853   -6.7953156    308.01716  0.026326253  0.026399216            8 
  976000   0.85755892   -6.7969684    307.59232  0.026263005  0.026381239           10 
  977000   0.87352684   -6.8082414    309.07466  0.026362561  0.026363382            5 
  978000   0.85772616   -6.7737435    307.79461  0.026226535  0.026345453            8 
  979000   0.88217003   -6.8376321    309.04844  0.026306473  0.026327477            6 
  980000   0.86446106   -6.8126734    308.36716  0.026221697  0.026309449            6 
  981000   0.86935481   -6.8200343    308.12964  0.026174791  0.026291481            6 
  982000   0.85557432   -6.8358639    308.36821  0.026168381  0.026273354           14 
  983000    0.8718223   -6.8425731    308.51686  0.026154362   0.02625533            5 
  984000   0.86845081   -6.8207921    308.52715  0.026128654  0.026237232           15 
  985000   0.85611043    -6.881831     308.6884   0.02611577  0.026219122           10 
  986000   0.84146409    -6.841591    309.23644  0.026135602  0.026201073            7 
  987000   0.84747051   -6.8465912    309.53999  0.026134751   0.02618305            5 
  988000   0.84930461   -6.8451579    308.56796  0.026026313  0.026165225            7 
  989000   0.86077941   -6.8340216    310.79033  0.026187254  0.026147673            4 
  990000   0.83366734   -6.8386703    309.72161  0.026070842  0.026130139            4 
  991000   0.86152118   -6.8534296    310.86633  0.026140794  0.026112661            9 
  992000   0.85128837   -6.8380153    311.19329  0.026141909  0.026095167           12 
  993000   0.86631411   -6.8370001    310.91184  0.026091964   0.02607758            8 
  994000   0.86409416   -6.8457373    311.08637  0.026080347  0.026060125            7 
  995000   0.85408576   -6.8064692    310.75428  0.026026322  0.026042722           11 
  996000   0.84518024   -6.8533558    310.07738  0.025943556  0.026025044           11 
  997000   0.86832167   -6.8544723    310.94109  0.025989726  0.026007414            7 
  998000    0.8553445   -6.8486191    310.92485  0.025962328  0.025989634            4 
  999000    0.8662627   -6.8658773    310.84262  0.025929481  0.025971772            6 
 1000000   0.83825621   -6.8492801    311.15889  0.025929907  0.025953906           10 
 1001000   0.85290164   -6.8370042    311.54162  0.025935866  0.025936026            5 
 1002000   0.86507199   -6.8796444    311.78022  0.025929826  0.025918102            4 
 1003000   0.85782031   -6.8670501    311.13964  0.025850751  0.025900229           12 
 1004000   0.86595576   -6.8257662    311.15826  0.025826549  0.025882434           10 
 1005000   0.84842729   -6.8187776     312.0942  0.025878458  0.025864694            4 
 1006000   0.83543744   -6.8259405    312.26104  0.025866554  0.025847139           14 
 1007000     0.843922   -6.8058753    312.85489  0.025890011  0.025829653            7 
 1008000   0.85478386   -6.8427542    312.81959  0.025861408  0.025812239            5 
 1009000   0.86721301   -6.8760094    312.17066  0.025782182  0.025794824           11 
 1010000   0.85741407   -6.8346137    312.52872  0.025786198  0.025777252           12 
 1011000   0.84387291    -6.835985    312.33398   0.02574464  0.025759791            5 
 1012000   0.85621295   -6.8411366    312.62381  0.025743067  0.025742143            6 
 1013000   0.85547302   -6.8657119    312.60732  0.025716298  0.025724694            9 
 1014000    0.8461361   -6.8344133    313.65714  0.025777214  0.025707183            6 
 1015000   0.83402859   -6.8573636     312.6323  0.025667677   0.02568962            8 
 1016000    0.8466877    -6.867488    312.42081  0.025625067  0.025671955            6 
 1017000   0.84190202   -6.8271554    312.35158  0.025594197  0.025654118            5 
 1018000   0.85489135   -6.8682835    312.72843  0.025599905  0.025636173            6 
 1019000   0.85218616   -6.8339653    312.99026  0.025596194  0.025618387           11 
 1020000   0.84111888   -6.8429259    311.74975   0.02546975  0.025600483           10 
 1021000   0.85239861   -6.8653527    311.62523  0.025434642  0.025582572           20 
 1022000   0.84409466   -6.8631763    312.73054  0.025499881  0.025564662            7 
 1023000    0.8301404   -6.8610664    312.84267  0.025484088  0.025546759            9 
 1024000   0.85432571   -6.8853996    312.92606  0.025465988  0.025528856            7 
 1025000   0.84444025   -6.8635638    312.93918   0.02544221  0.025510937            6 
 1026000   0.83582567    -6.896527    312.79231  0.025405483  0.025492945            5 
 1027000   0.85443661   -6.8600173    313.03637   0.02540055  0.025474818           13 
 1028000    0.8443198     -6.89068    312.35878  0.025320913  0.025456773            6 
 1029000   0.85139423   -6.8496018    314.15874  0.025442075  0.025438823            8 
 1030000   0.84661154   -6.8755927    314.93384  0.025480084  0.025420943            5 
 1031000   0.85144387   -6.8796869    313.25315  0.025319524  0.025403224           11 
 1032000   0.84168728   -6.8814032    313.96984  0.025352862  0.025385503            7 
 1033000   0.83714435   -6.8784962    314.51259  0.025372103  0.025367789           17 
 1034000   0.86067036   -6.8561876    314.13069  0.025316787   0.02535003            7 
 1035000    0.8524022   -6.9204499    313.50198  0.025241705  0.025332189            4 
 1036000   0.85036567   -6.8944134     314.1212   0.02526715  0.025314458            7 
 1037000   0.84441496   -6.8618322    314.08017  0.025239486  0.025296705            5 
 1038000   0.83745961   -6.8705769     315.2871  0.025312066  0.025278959            7 
 1039000   0.82910778    -6.880947    314.73183  0.025243169   0.02526114            7 
 1040000   0.83749234   -6.9089893    314.52719  0.025202499  0.025243356            6 
 1041000   0.84593735   -6.8685241    314.66066  0.025188973  0.025225514            6 
 1042000   0.83893149   -6.8634614    314.43186  0.025146502  0.025207691           18 
 1043000   0.81993676   -6.8790011    314.71042  0.025144649   0.02518976           18 
 1044000   0.82079761    -6.905347     315.0864  0.025150575  0.025171841           16 
 1045000   0.84962623   -6.8468237    314.94718  0.025115405  0.025154037            6 
 1046000   0.83792805   -6.8775658    315.36096  0.025124359  0.025136336            7 
 1047000   0.82599962    -6.870667    315.03803   0.02507466  0.025118567           10 
 1048000   0.82893152   -6.8805147     315.1601   0.02506044  0.025100785            4 
 1049000   0.84229536   -6.8537234    316.04847  0.025107124  0.025082924            5 
 1050000   0.82769631   -6.8793046    315.05472  0.025004343  0.025065121            9 
 1051000     0.846272   -6.8588905    316.65658  0.025107562    0.0250473            3 
 1052000   0.84045004   -6.8968257    314.94877  0.024948413   0.02502952            8 
 1053000   0.83316618   -6.8833519     316.1301   0.02501821  0.025011732           10 
 1054000   0.85029037   -6.8807742    315.42485  0.024938714   0.02499397            5 
 1055000   0.84210309   -6.8665148    316.37534  0.024990153  0.024976313            9 
 1056000   0.82798799   -6.8701352    316.65454  0.024988521  0.024958657           12 
 1057000   0.81837917    -6.889183     316.6196  0.024962126  0.024940903            5 
 1058000   0.83698489   -6.8653551    317.11823  0.024977806   0.02492335           11 
 1059000   0.83279353   -6.8771613    316.57024  0.024911099  0.024905715            6 
 1060000   0.82224811   -6.9149399    315.68315  0.024817857  0.024888055            6 
 1061000   0.83280027   -6.9067352    316.01792  0.024820761  0.024870368           13 
 1062000   0.82679458   -6.8735433     316.8966  0.024866337  0.024852609            7 
 1063000   0.82424497   -6.8785277    316.10533  0.024780913  0.024834934            6 
 1064000   0.83704092    -6.894764    316.65074   0.02480034  0.024817389            8 
 1065000   0.82643346   -6.8815472    317.45532  0.024840009    0.0247998            8 
 1066000   0.82911863   -6.9105151    316.21083  0.024719421  0.024782143            5 
 1067000   0.82712866   -6.8955025    317.03243  0.024760421  0.024764452            8 
 1068000   0.82728794   -6.9030479    317.47246  0.024771571  0.024746755           15 
 1069000   0.83753528   -6.8628342    317.24367  0.024730563  0.024729042           19 
 1070000   0.82069262   -6.9223612    316.52789  0.024651705  0.024711409           10 
 1071000   0.83139102   -6.8938924    316.89723  0.024657426  0.024693658           20 
 1072000   0.83785067   -6.8890307    316.70595  0.024619555   0.02467586            8 
 1073000    0.8177187   -6.9085484    316.85313   0.02460804  0.024658046           19 
 1074000   0.81487137   -6.8846008    317.71058  0.024651659   0.02464038           10 
 1075000   0.82058116   -6.8844862     317.8711   0.02464117  0.024622713            8 
 1076000   0.81508281     -6.90308    317.73674  0.024607864  0.024605056           13 
 1077000   0.83222839   -6.8916248    317.96336  0.024602551  0.024587416           12 
 1078000   0.81232188   -6.9183159    317.96798  0.024580085  0.024569705            9 
 1079000   0.81511648    -6.887422    317.64315  0.024532217  0.024552163           10 
 1080000   0.82270431   -6.8802805    318.22504  0.024554401  0.024534582            9 
 1081000   0.81309992   -6.9277008    317.73435  0.024493859  0.024516962           14 
 1082000   0.82581437   -6.9070638    318.64416  0.024541294  0.024499225            5 
 1083000   0.81096731   -6.8834841    317.90178   0.02446151  0.024481626           16 
 1084000   0.80447879   -6.9021205    318.19628  0.024461583  0.024464053            8 
 1085000   0.81180698   -6.8962083    318.18049  0.024437826  0.024446403            9 
 1086000   0.83575289   -6.8699022    318.47915  0.024438241  0.024428765           11 
 1087000   0.82122135    -6.910916    318.96008  0.024452628  0.024411254           16 
 1088000   0.82367919   -6.9180112    319.09504   0.02444049  0.024393661           15 
 1089000   0.82926366   -6.9092604    318.30867  0.024357872   0.02437604            3 
 1090000   0.81493984   -6.9074475    318.95007  0.024384562  0.024358479           14 
 1091000   0.82693168   -6.8999007    320.04676  0.024445979  0.024341021            7 
 1092000   0.83671417   -6.9364299    319.20883  0.024359648  0.024323514           31 
 1093000    0.7958443   -6.9246605    318.86561  0.024311193  0.024305885           15 
 1094000   0.79786588   -6.9378164     318.2404  0.024241347  0.024288315            7 
 1095000   0.83736087   -6.9009277    319.42658  0.024309481  0.024270921           11 
 1096000   0.82679416   -6.9050587    320.19895  0.024346027  0.024253545            7 
 1097000   0.82732018   -6.9182466      319.214  0.024249012   0.02423621            9 
 1098000   0.81368096   -6.9283347    319.91303  0.024279981   0.02421894           24 
 1099000   0.79825504   -6.9444044    319.59113  0.024233479  0.024201652           10 
 1100000   0.82348636   -6.9447031    319.31668  0.024190657  0.024184292           25 
 1101000   0.81018072   -6.9356184    320.03013  0.024222686  0.024166922            7 
 1102000   0.81438115   -6.9562065    320.13049  0.024208294  0.024149624           16 
 1103000   0.82314859   -6.9617728    319.92617  0.024170911  0.024132359            8 
 1104000   0.80092449   -6.9367633    319.92676  0.024149061  0.024115008            6 
 1105000   0.82110817   -6.8964719    320.88816   0.02419971  0.024097888            7 
 1106000    0.8142041   -6.9179154    320.32793  0.024135619  0.024080798            6 
 1107000   0.79676863   -6.9126283    321.39636  0.024194246  0.024063759            8 
 1108000   0.81495159   -6.9152641    321.59033  0.024186998    0.0240468           10 
 1109000   0.79133556   -6.9123787    322.71262  0.024249521  0.024029869            7 
 1110000   0.82787327   -6.9365131    321.32817  0.024123737  0.024012978            5 
 1111000   0.81583761   -6.9351338    321.85362  0.024141436  0.023996194            9 
 1112000   0.81828872   -6.9408544    321.30897   0.02407891  0.023979348            4 
 1113000   0.83037591    -6.902777    323.23005  0.024201112  0.023962535            5 
 1114000   0.80438524   -6.9462346    322.27617  0.024108032  0.023945789           12 
 1115000    0.8248773   -6.9406104    321.99099  0.024065096  0.023929001            7 
 1116000   0.79736771   -6.9267998    322.70835  0.024097099   0.02391223            8 
 1117000   0.83410227    -6.935339    323.22061  0.024113743  0.023895506            9 
 1118000   0.78960953   -6.9322744    322.33638  0.024026265  0.023878708            9 
 1119000    0.7987786   -6.9370934    321.62475  0.023951798   0.02386187           13 
 1120000   0.81563834   -6.9430953     321.6872  0.023935059  0.023844854            9 
 1121000   0.81750339   -6.9591772    322.30431  0.023959583   0.02382784           15 
 1122000   0.81672586    -6.950946    322.02324  0.023917353  0.023810835            8 
 1123000   0.81099476   -6.9246949    322.06828  0.023899397  0.023793806            7 
 1124000   0.82468898   -6.9592372    322.28815  0.023894436  0.023776771           13 
 1125000   0.80014761   -6.9790903    322.23351  0.023869149  0.023759715           12 
 1126000   0.79122797   -6.9407992    321.74773  0.023811999  0.023742666           10 
 1127000    0.8077553   -6.9380413    322.59576  0.023853576  0.023725663           21 
 1128000   0.80885544   -6.9577493    323.51609  0.023900421  0.023708645            9 
 1129000   0.80588859   -6.9482177    322.47944  0.023802734  0.023691585            7 
 1130000   0.81559203   -6.9378847     322.7189  0.023799329  0.023674627            9 
 1131000   0.79013303   -6.9005992    323.43291  0.023830895  0.023657756           14 
 1132000   0.77562905    -6.912979    322.65396    0.0237525  0.023640914           18 
 1133000   0.79128712    -6.959676    322.43189  0.023715202  0.023623954           11 
 1134000   0.79839026   -6.9450917    323.32102  0.023759628  0.023606956           13 
 1135000   0.79517471   -6.9903295    322.82153  0.023702022  0.023590024           22 
 1136000   0.80643888   -6.9361143    322.45799  0.023654489  0.023573134           13 
 1137000   0.79688212   -6.9639183    323.10804  0.023681328   0.02355626            6 
 1138000   0.79687639   -6.9310903    323.72367    0.0237056  0.023539322            6 
 1139000   0.80629864   -6.9494427    322.82734  0.023619208   0.02352232           12 
 1140000   0.79094454   -6.9146854     323.2422  0.023628816  0.023505376           11 
 1141000   0.79925032   -6.9822391    323.34091  0.023615316  0.023488346           11 
 1142000   0.81370833    -6.979041    322.37985  0.023524508  0.023471224           11 
 1143000    0.7881806   -6.9671627    323.03181  0.023551459   0.02345419            6 
 1144000   0.78712914   -7.0011552    322.92906  0.023523387  0.023437107            7 
 1145000   0.80327285   -6.9814175    323.20585  0.023522987  0.023419955           12 
 1146000   0.78379791   -6.9748735    323.51464  0.023524916  0.023402868            9 
 1147000   0.79411499   -6.9638094    324.35778  0.023565663  0.023385935            5 
 1148000   0.79915449   -6.9516227    324.06857  0.023524141  0.023369064            8 
 1149000   0.78109447   -6.9669907    324.56829  0.023539911  0.023352211            7 
 1150000   0.78280201   -7.0135998    324.29306  0.023499497  0.023335251            6 
 1151000   0.80831291   -7.0108757     323.7185  0.023437482  0.023318292           14 
 1152000   0.78943602   -6.9836985    323.54922  0.023404892  0.023301309            7 
 1153000    0.7796277    -7.003503    324.36662   0.02344367  0.023284377            8 
 1154000   0.78965726   -7.0032307    324.19681  0.023411092  0.023267536           10 
 1155000   0.80163978    -6.982635    324.58489  0.023418823  0.023250882            5 
 1156000    0.7823023   -6.9542408    325.08687  0.023434751  0.023234317            5 
 1157000   0.80501679   -6.9602066    325.23152  0.023424915   0.02321765           10 
 1158000     0.805214   -6.9684412     325.4541  0.023420704  0.023200956            9 
 1159000   0.78203711    -6.982954    325.38191  0.023395305  0.023184243            7 
 1160000   0.78860156   -6.9730617     325.7127  0.023398901  0.023167526           17 
 1161000   0.79750754   -6.9860128    325.37563  0.023354552  0.023150877            6 
 1162000   0.79121624   -6.9668878    325.07483  0.023312882  0.023134221           25 
 1163000   0.78228793   -6.9907393    325.29171  0.023308377   0.02311759            8 
 1164000   0.76493534   -6.9556346     325.4206   0.02329758  0.023100924           17 
 1165000   0.78408457   -6.9845022    326.72566  0.023370934  0.023084366           19 
 1166000   0.77754329   -6.9779664    325.03053  0.023229741  0.023067748           36 
 1167000   0.77738445     -6.99567    325.64077  0.023253411  0.023051175            4 
 1168000   0.78675255   -6.9798588    326.43755   0.02329035    0.0230347           17 
 1169000   0.78646499   -6.9911934    326.03145  0.023241478  0.023018214           10 
 1170000   0.76725435   -6.9505903      325.571  0.023188817  0.023001738           10 
 1171000   0.79506403    -6.967515    325.30499  0.023150085  0.022985335           12 
 1172000   0.79531025   -6.9808555    326.27669  0.023199423  0.022968864           15 
 1173000   0.78133812   -6.9914825    326.02845   0.02316201  0.022952359           16 
 1174000   0.76533907   -6.9921304    325.90327  0.023133395  0.022935852           16 
 1175000    0.7750212   -6.9841647    326.49282  0.023155519  0.022919395            8 
 1176000   0.79608232   -6.9850516    327.63277  0.023216608  0.022903014            6 
 1177000   0.75743196    -6.964405    326.23531   0.02309794  0.022886614            4 
 1178000   0.76554849   -6.9942954    326.67854  0.023109687  0.022870331            9 
 1179000   0.77920077   -6.9961088     326.8715  0.023103725  0.022853939           13 
 1180000   0.79042879   -6.9879878    327.25728   0.02311139  0.022837709           11 
 1181000   0.77244765   -7.0022869    327.10648   0.02308118   0.02282145           21 
 1182000   0.78517608   -6.9866721    326.89374  0.023046654  0.022805197            4 
 1183000   0.77716452   -6.9842924    327.77861  0.023089505  0.022789018            8 
 1184000   0.79250592   -6.9742064    327.49877  0.023050307  0.022772931            6 
 1185000   0.77806566   -6.9861781     327.1695  0.023007701  0.022756766           20 
 1186000   0.78808319   -6.9675354    327.76804  0.023030357  0.022740586           12 
 1187000   0.77337664   -6.9957119    327.06527  0.022961617  0.022724341            9 
 1188000   0.78001199   -7.0110036    327.80767  0.022994366  0.022708062           10 
 1189000   0.77609944   -6.9967127    327.97767  0.022986941  0.022691773            8 
 1190000   0.76875417   -6.9667051    327.58945  0.022940438  0.022675556           17 
 1191000   0.76344318   -7.0045827    328.03831  0.022952582  0.022659355            7 
 1192000    0.7723947   -7.0035954    327.57835  0.022901171  0.022643138            8 
 1193000   0.79123751   -6.9820643    328.10201  0.022918553  0.022626976            8 
 1194000   0.78331616   -7.0010368    327.85035  0.022881795  0.022610872            9 
 1195000   0.77936162   -7.0254885    327.14285  0.022813309  0.022594712           19 
 1196000   0.77166495   -7.0022723    328.03475  0.022856379  0.022578479           13 
 1197000   0.78565977   -7.0054969    328.50257  0.022869853  0.022562333           11 
 1198000   0.78546869   -7.0060437    328.06373  0.022820237  0.022546172            5 
 1199000   0.76536261   -6.9993019    328.35459   0.02282142  0.022530095           33 
 1200000   0.78983788   -7.0038268    328.18758  0.022790804  0.022514006           16 
 1201000   0.78197896   -6.9847637    328.21758  0.022773909  0.022498009           15 
 1202000   0.78250539   -7.0059826    328.36152  0.022764942  0.022481956           13 
 1203000   0.76817382   -7.0165563    328.46379  0.022753103  0.022465931            8 
 1204000   0.77263805   -7.0113116    329.04335  0.022774319  0.022449853           13 
 1205000   0.77463607   -7.0132902    328.78621  0.022737636  0.022433722            8 
 1206000   0.77499132   -7.0212436    328.05563    0.0226683  0.022417615           17 
 1207000   0.76577345   -7.0307225    327.95353   0.02264247  0.022401376           32 
 1208000   0.77302566   -7.0394543    328.16612  0.022638392  0.022385192           10 
 1209000   0.75381473   -7.0118547    328.91593  0.022671349  0.022369089           30 
 1210000    0.7717686    -7.016527    328.66524  0.022635347  0.022352964           31 
 1211000   0.77585131   -7.0395379    328.75926  0.022623125  0.022336845           12 
 1212000   0.77225251   -7.0012576    329.06949   0.02262579  0.022320787           39 
 1213000   0.76533332   -7.0247821    329.09743  0.022609057  0.022304701           47 
 1214000    0.7548372   -7.0226342    329.34761  0.022607607  0.022288606           20 
 1215000   0.77604002   -7.0496757    329.11681  0.022573169  0.022272473           16 
 1216000   0.77494209   -7.0106945    328.31724  0.022499811  0.022256328           18 
 1217000   0.75437072   -7.0173579    328.28047  0.022478805  0.022240179           12 
 1218000   0.75490783   -7.0319944    328.96656  0.022507291  0.022224059           21 
 1219000   0.76258569   -7.0186126    328.91359  0.022485206  0.022208003           14 
 1220000   0.74534998   -7.0099395     329.4111  0.022500758  0.022191917           15 
 1221000   0.77071224   -7.0178641    330.36238  0.022547255  0.022175829           17 
 1222000   0.76602724   -7.0228391    329.37232  0.022461288  0.022159812            9 
 1223000   0.76941039   -7.0224348    329.23589  0.022433626  0.022143827           17 
 1224000   0.77798229   -7.0289203    329.68861   0.02244612  0.022127812           16 
 1225000   0.77269937   -7.0138156    329.57953  0.022420376   0.02211189           27 
 1226000   0.76560761   -7.0082501    329.73171  0.022412433  0.022095901           14 
 1227000   0.76539088   -6.9903604    330.33944  0.022435441  0.022079955            6 
 1228000   0.76600893    -6.995602    329.96871  0.022392014  0.022063951           11 
 1229000   0.75964244   -7.0371408    329.43549  0.022337638  0.022047922           28 
 1230000   0.75665882     -7.03037    329.32394   0.02231192  0.022031957           19 
 1231000   0.75325052   -7.0452568     330.0525  0.022343116  0.022015992            9 
 1232000   0.76624354   -7.0242929    330.17501  0.022333266  0.021999977           12 
 1233000   0.76067463   -7.0351684    329.99176  0.022302769  0.021983962           11 
 1234000   0.76849051   -7.0172873    329.90452  0.022278804  0.021967942           16 
 1235000     0.762147   -7.0493073     330.4155  0.022295243  0.021951885            6 
 1236000   0.75485983   -7.0392828    330.01014  0.022249874  0.021935874            8 
 1237000   0.76552831   -7.0346486    329.82766  0.022219594  0.021919818            6 
 1238000   0.73860402   -7.0474178    329.95971  0.022210535  0.021903892            7 
 1239000   0.76494842   -7.0566591    329.58769  0.022167587  0.021887838            8 
 1240000   0.75887441   -7.0595544    329.99633  0.022177172  0.021871869           16 
 1241000   0.76837128   -7.0327167    330.66629   0.02220429  0.021855968           16 
 1242000    0.7602696   -7.0291832     330.4464  0.022171659  0.021840105           19 
 1243000   0.75895457   -7.0500152     330.2267  0.022139093  0.021824244           15 
 1244000    0.7629441   -7.0323739    329.88036  0.022098095  0.021808385           16 
 1245000   0.75743461   -7.0497641    330.55603  0.022125571  0.021792456           19 
 1246000   0.75529477   -7.0283924    330.37495  0.022095703  0.021776566           13 
 1247000   0.74084085   -7.0272691    330.78227  0.022105204  0.021760701           18 
 1248000   0.76254529   -7.0401642    330.92346  0.022096919  0.021744813           29 
 1249000   0.76485758   -7.0257156    331.10053  0.022091041  0.021728979           16 
 1250000   0.75972908   -7.0445671    330.61136  0.022040757   0.02171309           25 
 1251000   0.75208179   -7.0445371    330.17329  0.021993957  0.021697217           23 
 1252000    0.7479365   -7.0512304    331.40226  0.022058191  0.021681404           26 
 1253000   0.75982722   -7.0669234    330.41649  0.021975026  0.021665661           15 
 1254000   0.74720411   -7.0471437    331.27761  0.022014727  0.021649913           21 
 1255000   0.74705545   -7.0503608    331.29233  0.021998163   0.02163422            8 
 1256000   0.76664601    -7.049862    331.74419  0.022010628  0.021618572           10 
 1257000   0.76112003   -7.0248769    332.42731  0.022038406  0.021603006           14 
 1258000    0.7307516   -7.0168131    332.24206  0.022008615  0.021587522           13 
 1259000    0.7700252   -7.0013119    331.67671  0.021953714  0.021572045           11 
 1260000   0.74696912   -7.0316313    332.55618  0.021994456   0.02155658           24 
 1261000   0.75751935   -7.0548716    332.40215  0.021966835  0.021541058           28 
 1262000   0.75142138   -7.0560291    332.04945  0.021926139  0.021525567            8 
 1263000   0.74936109   -7.0353096    332.19206  0.021918188  0.021510015           13 
 1264000   0.75848373   -7.0604476    332.34944  0.021911224  0.021494534           17 
 1265000   0.72825952   -7.0548102    333.25838   0.02195378  0.021479094            5 
 1266000   0.73778142   -7.0754754    332.42626  0.021881666  0.021463605           11 
 1267000   0.74343167   -7.0735558    332.32192  0.021857532  0.021448131           22 
 1268000   0.74432808   -7.0569146    333.28534  0.021903611  0.021432673           16 
 1269000   0.73659757   -7.0805995    332.34506  0.021824603  0.021417144           12 
 1270000   0.74865568   -7.0660583    332.89811  0.021843708  0.021401547            7 
 1271000   0.77018167   -7.0775118    332.45327  0.021797356  0.021386079           16 
 1272000   0.74635689   -7.0543725    331.68809  0.021730089  0.021370572            9 
 1273000   0.73804259   -7.0574662    332.59445  0.021772352  0.021355111           17 
 1274000   0.76390783   -7.0656894    333.22463  0.021796483  0.021339693           19 
 1275000   0.74270132   -7.0601653    333.36291  0.021788425  0.021324335           10 
 1276000   0.75260831   -7.0547994     332.0686  0.021686821  0.021308988            7 
 1277000   0.73059289   -7.0514088    332.60848  0.021705069  0.021293648            6 
 1278000   0.75801289   -7.0599872    332.96406  0.021711271  0.021278351           15 
 1279000   0.74868413   -7.0600077    333.86537  0.021753021  0.021263148            5 
 1280000   0.73817738   -7.0725622    333.14786  0.021689314  0.021247906            7 
 1281000   0.73408503   -7.1030887    333.16042  0.021673199  0.021232645           11 
 1282000   0.73106083   -7.0956336    333.25763  0.021662612  0.021217422           16 
 1283000   0.71929738   -7.0760726    333.37124  0.021653107  0.021202147           10 
 1284000     0.746233   -7.0796534    333.95934  0.021674412  0.021186899           19 
 1285000   0.72345918   -7.1128247    333.48016   0.02162647  0.021171636           16 
 1286000   0.73646841   -7.0991692    334.28393  0.021661737  0.021156421           12 
 1287000   0.73567799   -7.0664631    333.11361  0.021569128  0.021141275           12 
 1288000   0.73618384   -7.0715548    333.35521  0.021568013  0.021126087            8 
 1289000   0.72956131   -7.0889924    333.65709  0.021570797  0.021110917           11 
 1290000   0.73469125   -7.0718845     334.1559  0.021586298  0.021095724            7 
 1291000    0.7357464   -7.0826645    333.94571   0.02155601  0.021080569            6 
 1292000   0.73858015   -7.0665575    334.39848  0.021568529  0.021065375           12 
 1293000   0.73118503     -7.09058    333.86557  0.021517502  0.021050197           12 
 1294000   0.74382977    -7.108143    333.55705  0.021481005  0.021035012           15 
 1295000   0.73709642   -7.0656128     333.7935  0.021479633  0.021019843           13 
 1296000     0.747224   -7.0769342    333.41208  0.021438534  0.021004619           12 
 1297000     0.723652   -7.1053321    334.29428  0.021478687   0.02098938           32 
 1298000   0.72839149   -7.0983166     333.1493   0.02138863  0.020974193           10 
 1299000   0.73329637     -7.09668    333.88905  0.021419621  0.020958993           15 
 1300000   0.72244245   -7.0939413     333.7882  0.021396679  0.020943832           23 
 1301000   0.73677822   -7.0804418    333.99694  0.021393604  0.020928697           29 
 1302000   0.73824394   -7.0845402    334.37264  0.021401218  0.020913581           19 
 1303000   0.73845993   -7.0891313    333.65485  0.021338888  0.020898445           12 
 1304000   0.72637707   -7.0778151    334.29269  0.021363286  0.020883316            5 
 1305000   0.73640728   -7.0935875    334.22219  0.021342413  0.020868231            5 
 1306000   0.73996707   -7.0816877    335.03091  0.021377674  0.020853201           14 
 1307000   0.72601735   -7.0657561    334.26073  0.021312212  0.020838188            7 
 1308000   0.72811246   -7.0758576    334.55692  0.021314788  0.020823176           13 
 1309000   0.71361983   -7.0730699    335.04742  0.021329731  0.020808201           14 
 1310000   0.72837625   -7.0837584    335.20813  0.021323672  0.020793236           10 
 1311000   0.71709117     -7.08386     334.9821   0.02129304  0.020778235            7 
 1312000    0.7267652   -7.0910231     335.2066  0.021291069  0.020763263           19 
 1313000   0.72858327   -7.0846353    334.45267  0.021227004  0.020748332           17 
 1314000   0.73517153   -7.0897583     334.8257  0.021234507  0.020733373           12 
 1315000   0.72169333   -7.0891234    334.49408  0.021197343  0.020718382           48 
 1316000   0.73185718   -7.1077645    334.81949  0.021201842  0.020703358           13 
 1317000   0.72369503   -7.0987293    335.39376  0.021222081  0.020688358           10 
 1318000   0.71944982   -7.0924949    334.34706  0.021139799  0.020673368           27 
 1319000   0.73735655   -7.0854423     334.7657  0.021150221  0.020658376           20 
 1320000   0.72893181   -7.1054068    334.28003  0.021103537  0.020643368           19 
 1321000   0.71927287   -7.0855172    334.61295  0.021108564   0.02062836           12 
 1322000   0.72434671    -7.094169    335.65381  0.021158208  0.020613446           24 
 1323000   0.74226947   -7.0998858    334.78301  0.021087365  0.020598535            9 
 1324000   0.72958227   -7.0853437    335.08641  0.021090534  0.020583653           11 
 1325000   0.72696925    -7.087695    335.83081  0.021121435  0.020568799           19 
 1326000   0.71424731   -7.1107603    335.53441  0.021086879  0.020553958           16 
 1327000   0.71233297   -7.1014576    335.11775  0.021044822  0.020539109           63 
 1328000   0.71466995   -7.1152045    335.13968  0.021030352  0.020524239           38 
 1329000   0.72113218   -7.1293028    335.19622  0.021018072  0.020509361           50 
 1330000   0.71799356   -7.1286389    334.84794  0.020980448  0.020494475           45 
 1331000   0.71461145   -7.1406169     334.9556  0.020971425  0.020479513           27 
 1332000    0.7371309   -7.1218872    335.94763  0.021017745  0.020464594           28 
 1333000    0.7297271   -7.1454949    335.21297   0.02095605  0.020449733           15 
 1334000   0.71635548   -7.1154024    336.14981  0.020998864   0.02043484           29 
 1335000   0.73191095   -7.1104124    335.52904  0.020944384  0.020419983           21 
 1336000   0.70957881   -7.1278522    335.97712  0.020956656  0.020405131           22 
 1337000   0.72175076   -7.1571596    335.35932  0.020902475  0.020390291           25 
 1338000   0.71355221   -7.1202242    335.91185  0.020921266   0.02037551           17 
 1339000   0.72149936   -7.1117287    336.77274   0.02095922  0.020360742           15 
 1340000    0.7223556   -7.1422088    336.01848  0.020896672  0.020346012           13 
 1341000   0.70935873   -7.1253329    335.72182  0.020862654  0.020331286           11 
 1342000   0.71183255   -7.1235186    337.32717  0.020946794  0.020316571           21 
 1343000   0.72503121   -7.1254526    335.80874  0.020836978   0.02030188           13 
 1344000   0.72950332   -7.1367461    335.93623  0.020829379  0.020287134           14 
 1345000    0.7127139   -7.1193319    336.43075  0.020844532  0.020272407           32 
 1346000   0.72692333   -7.1330733    336.69794  0.020845588  0.020257672           20 
 1347000   0.71441504   -7.1505333     335.6127  0.020762973  0.020242948           19 
 1348000   0.72612344   -7.1325068    335.98284  0.020770453  0.020228206           18 
 1349000   0.70802974   -7.1097575    335.41952  0.020720257  0.020213408           21 
 1350000   0.70704202   -7.1234825    336.46992  0.020769748  0.020198713           19 
 1351000   0.71167788   -7.1153425       336.68  0.020767333  0.020184014           14 
 1352000   0.71074525   -7.1082689    335.91445  0.020704786   0.02016935           10 
 1353000   0.69236196   -7.1035411    336.82198   0.02074538  0.020154697           15 
 1354000   0.72318042   -7.1451433    336.33591  0.020700142   0.02014003           27 
 1355000    0.7161795   -7.1267531    336.34808  0.020685613  0.020125347           17 
 1356000   0.70947163   -7.1150498     335.7962  0.020636443  0.020110674           18 
 1357000   0.69206214   -7.1377145    336.09754  0.020639741  0.020095986           18 
 1358000   0.69965236   -7.1391365     335.9398  0.020614862  0.020081229           24 
 1359000   0.71152034   -7.1399146    335.90475  0.020597544  0.020066546           37 
 1360000   0.70600834   -7.1476136    336.19403  0.020600125  0.020051802           41 
 1361000    0.7015096   -7.1601798    335.82421  0.020562344  0.020037096           24 
 1362000   0.69890583   -7.1466373    335.88984  0.020551263  0.020022417           25 
 1363000   0.69105128    -7.137252    336.06704  0.020547019   0.02000773           25 
 1364000   0.70238513   -7.1612655    336.76224  0.020574428  0.019993044           29 
 1365000   0.69000955   -7.1365623    335.47256   0.02048062  0.019978352           16 
 1366000     0.713453   -7.1585615    335.60465  0.020473685   0.01996364           14 
 1367000   0.70832462    -7.176121    336.52204  0.020514633  0.019948874           24 
 1368000    0.7112767   -7.1596434    335.93928  0.020464137  0.019934143           38 
 1369000   0.72617617   -7.1700367    335.38445  0.020415416    0.0199194           28 
 1370000   0.69307667   -7.1541946    335.69441  0.020419368  0.019904637           17 
 1371000   0.69667777   -7.1365055    336.53649  0.020455658  0.019889896           13 
 1372000   0.69234838   -7.1438937    336.53985  0.020440953  0.019875182           17 
 1373000   0.70039398   -7.1550584    336.59301  0.020429292  0.019860503           22 
 1374000   0.70820214   -7.1581054    336.27844  0.020395344  0.019845831           12 
 1375000   0.70979486   -7.1838066    336.13173   0.02037162  0.019831102           23 
 1376000   0.70827651   -7.1764965    336.69826  0.020391125  0.019816438           14 
 1377000   0.69441201   -7.1471451    336.18438  0.020345218  0.019801764           29 
 1378000    0.7030887   -7.1612398    336.24341  0.020334024  0.019787043           24 
 1379000   0.70118518   -7.1641903     335.7903  0.020291897  0.019772308           17 
 1380000    0.7105759   -7.1630429    336.55658  0.020323465  0.019757564           51 
 1381000   0.71936065   -7.1932817    335.79821  0.020262987  0.019742803           48 
 1382000   0.69622197    -7.176078    336.13528   0.02026865  0.019728035           27 
 1383000   0.69250516   -7.1807509    336.13748  0.020254126  0.019713265           24 
 1384000   0.70435831   -7.1668454    336.46599  0.020259272  0.019698534           53 
 1385000   0.70469307   -7.1696866    336.13682  0.020224839  0.019683813           50 
 1386000   0.71049945   -7.1668853    335.57439  0.020176431  0.019669104           55 
 1387000    0.7048848   -7.1599019    336.79007  0.020234924  0.019654379          100 
 1388000   0.69242008    -7.176054    336.41523   0.02019784  0.019639702           39 
 1389000   0.70786744   -7.1527514    336.81194    0.0202071  0.019625105           39 
 1390000   0.70241792   -7.1549089    336.75657  0.020189243  0.019610507           45 
 1391000   0.69291623   -7.1499765    336.22177   0.02014269  0.019595907           78 
 1392000   0.70119187   -7.1770809     336.7415  0.020159333  0.019581315           48 
 1393000   0.69914376    -7.175376    336.12774  0.020108144  0.019566732           30 
 1394000   0.69336154   -7.1716141    336.32111  0.020105279  0.019552124           44 
 1395000   0.68976624   -7.1648977    337.02574  0.020132959  0.019537593           54 
 1396000   0.68113501   -7.1514584    337.16278  0.020126718  0.019523095           30 
 1397000    0.6991738   -7.1495779    337.63337  0.020140383  0.019508622           29 
 1398000   0.68643579    -7.178793    337.17006  0.020098359  0.019494146           31 
 1399000   0.71501597   -7.1862423    337.17155  0.020084081   0.01947963           28 
 1400000   0.69534121   -7.1856697    336.98545  0.020058658  0.019465054           32 
 1401000   0.69833575   -7.1836072    336.74694  0.020030153  0.019450534           46 
 1402000    0.6981614   -7.1755519     336.7625  0.020016791  0.019435983           54 
 1403000   0.69779469   -7.1680975    336.81316  0.020005533  0.019421467           61 
 1404000   0.67993679   -7.1997926    336.99553  0.020002109  0.019406961           47 
 1405000    0.6925631   -7.1682957    336.35975  0.019950163  0.019392457           87 
 1406000   0.68857044   -7.1885241    335.69468  0.019896556  0.019377929           45 
 1407000   0.68997255   -7.1548471    337.19865   0.01997149  0.019363458           61 
 1408000   0.68783205   -7.1411083    337.30315  0.019963491   0.01934903           15 
 1409000   0.68741476   -7.1787631    336.98557   0.01993054  0.019334646           17 
 1410000   0.69813374   -7.1866247    337.48189  0.019945738  0.019320261           31 
 1411000   0.68717572   -7.2059403    336.98866  0.019902472  0.019305871           25 
 1412000   0.68921127   -7.1705417    336.88583  0.019882308  0.019291554           25 
 1413000   0.69555536   -7.1804956    337.58864  0.019909686  0.019277191           34 
 1414000    0.6743501   -7.1983852    337.28507  0.019877715  0.019262806           36 
 1415000   0.68305954   -7.1941792    338.00272  0.019905932  0.019248413           42 
 1416000   0.68846485   -7.1952512    337.19072  0.019844087  0.019234075           24 
 1417000   0.68346023   -7.1912022    337.37329  0.019840819  0.019219711           24 
 1418000   0.70586431    -7.180173    337.64906  0.019843034  0.019205348           20 
 1419000   0.68405115   -7.1936012    337.56378  0.019824042  0.019190987           42 
 1420000   0.69760069   -7.1688988    337.62114  0.019813447   0.01917664           23 
 1421000   0.69919883   -7.2011762    337.80252  0.019810141  0.019162363           34 
 1422000   0.69031655   -7.1948902    337.31406  0.019767585  0.019148067           17 
 1423000   0.69584009   -7.2054826    337.20541   0.01974733  0.019133799           15 
 1424000   0.68934195   -7.1972604    338.08603  0.019784997  0.019119568           21 
 1425000   0.66823675   -7.1739803    338.16039  0.019775461  0.019105345           16 
 1426000   0.68513311   -7.2042482    337.99771  0.019752087  0.019091156           11 
 1427000   0.67346899   -7.1940593    337.11908  0.019686935  0.019076925           24 
 1428000   0.67172083   -7.2306732    337.30839  0.019684197  0.019062632           19 
 1429000   0.67187049   -7.1919469    337.44221  0.019678226  0.019048332           18 
 1430000   0.68342401   -7.1949121    336.72987  0.019622953   0.01903401           29 
 1431000   0.68588192   -7.2092502    338.08874  0.019688373  0.019019763           15 
 1432000   0.67041744    -7.198641    337.57681  0.019644833  0.019005506           16 
 1433000   0.68075819   -7.2269869    337.59543  0.019632207  0.018991252           22 
 1434000   0.67420083   -7.1992395    337.56521   0.01961676  0.018977012           35 
 1435000   0.67860836   -7.2337081    337.45574  0.019596733  0.018962706           51 
 1436000   0.67068948    -7.248004    337.32755  0.019575647  0.018948454           35 
 1437000   0.69017883   -7.2196321     337.6373  0.019579987  0.018934198           35 
 1438000   0.66089974   -7.2462409    337.16408  0.019538947  0.018919943           36 
 1439000   0.67239598   -7.2298555    337.66741  0.019554518  0.018905728           26 
 1440000   0.66785736   -7.2014449    337.97309  0.019558628  0.018891604           21 
 1441000   0.67433947   -7.2406012    337.61674  0.019524447  0.018877469           22 
 1442000   0.66894202   -7.1927481    338.29883  0.019550325  0.018863358           18 
 1443000   0.68166567   -7.2216462    338.75638  0.019563201  0.018849251           17 
 1444000    0.6741782   -7.2257093    337.11356  0.019454845  0.018835141           27 
 1445000    0.6761261    -7.228614    337.93882  0.019488975   0.01882104           43 
 1446000   0.66214275   -7.2482065    338.10179  0.019484889  0.018806919           37 
 1447000   0.67966004   -7.2295005    338.07054  0.019469623  0.018792828           15 
 1448000   0.68152716   -7.2552754    337.51137  0.019423997  0.018778741           25 
 1449000   0.68336831   -7.2322794    338.33186  0.019457779  0.018764629           50 
 1450000   0.67250883   -7.2229398    338.02833  0.019426916  0.018750577           86 
 1451000   0.67400243   -7.2313748    337.97425  0.019410421  0.018736489           95 
 1452000   0.68633094   -7.1950315    338.08847  0.019403608  0.018722418           24 
 1453000   0.67695062   -7.2325427     337.6333  0.019364149  0.018708383           69 
 1454000   0.68568903   -7.2168631    337.87531  0.019364701   0.01869436           26 
 1455000   0.66549328   -7.2220157    337.72964  0.019343049  0.018680314           44 
 1456000   0.68189668   -7.2321486    338.26254  0.019360264  0.018666221           42 
 1457000   0.66033391   -7.2190622    337.50462  0.019303627  0.018652143           56 
 1458000   0.66671269   -7.2336938    337.88496  0.019312126  0.018638062           40 
 1459000   0.66924064   -7.2352043    338.30026   0.01932261  0.018623964           45 
 1460000    0.6517185   -7.2439642    337.79154  0.019280339  0.018609884           41 
 1461000   0.67088414   -7.2224397    337.93597   0.01927538  0.018595821           29 
 1462000   0.67478408   -7.2330468    337.77712  0.019253142  0.018581767           27 
 1463000   0.66223786   -7.2314982     337.6408  0.019232217  0.018567693           62 
 1464000   0.67844855   -7.2392416    338.13523  0.019247224  0.018553675           29 
 1465000   0.66485554   -7.2376273    337.61054   0.01920424  0.018539687           61 
 1466000   0.66606803   -7.2290727    338.18993  0.019224075  0.018525691           69 
 1467000   0.65800142   -7.2619359    338.09548  0.019205605   0.01851168           55 
 1468000   0.65829188   -7.2468463    337.96866  0.019185324  0.018497656           52 
 1469000   0.67526657   -7.2527988    338.40385  0.019196951  0.018483643           88 
 1470000   0.68048548   -7.2272973    338.61884   0.01919608  0.018469657           23 
 1471000   0.65910215   -7.2339592    337.38184  0.019112952   0.01845568           59 
 1472000   0.66014252    -7.262158    337.82466  0.019125037  0.018441705           29 
 1473000   0.65132251    -7.248853    337.43689  0.019090116  0.018427742           40 
 1474000   0.66050047   -7.2397181    338.94964  0.019162689   0.01841379           86 
 1475000   0.66614913   -7.2512451    337.44495  0.019064687  0.018399861           75 
 1476000    0.6671324    -7.253305    338.17168  0.019092801  0.018385967           40 
 1477000   0.66980092   -7.2476124    337.43878  0.019038523  0.018372051           35 
 1478000   0.65964921   -7.2253443    338.06075   0.01906071  0.018358131           50 
 1479000   0.66154576   -7.2421273      338.448  0.019069642  0.018344235           81 
 1480000   0.66154481   -7.2444734    338.29174  0.019047958  0.018330334           59 
 1481000   0.68352129   -7.2566667    337.96534  0.019016731  0.018316478          109 
 1482000   0.66059526   -7.2577411     338.0885  0.019010824  0.018302581          118 
 1483000    0.6787727   -7.2541312    338.04925    0.0189958  0.018288724          113 
 1484000   0.67847207   -7.2525038    339.30298  0.019053402  0.018274853          154 
 1485000   0.66566989   -7.2216559    337.86756   0.01896002  0.018261026          162 
 1486000   0.66058403   -7.2374143    338.33044  0.018973219  0.018247218          139 
 1487000    0.6724948    -7.245188     338.2222  0.018954393  0.018233381          123 
 1488000   0.64841176   -7.2509902    338.07291  0.018933295  0.018219613           93 
 1489000    0.6537137   -7.2677776    338.22309  0.018928984  0.018205815          118 
 1490000   0.66945276   -7.2531451      338.596  0.018937136   0.01819203          133 
 1491000    0.6645472   -7.2678262    338.94389  0.018943879  0.018178276          158 
 1492000   0.65550731    -7.259462    337.53072  0.018852252  0.018164504          121 
 1493000   0.64746353   -7.2628121    338.53597  0.018895734  0.018150706          135 
 1494000    0.6625689   -7.2770156     338.0109  0.018853799  0.018136879          137 
 1495000   0.65697645   -7.2628156    338.90501  0.018891026  0.018123062          184 
 1496000   0.65634613   -7.2755885    338.60348  0.018861602  0.018109271          181 
 1497000   0.64729148   -7.2743503    338.46218  0.018841137  0.018095471          118 
 1498000    0.6449906   -7.2596155    337.18153  0.018757317  0.018081695          152 
 1499000   0.64827578   -7.2549151    337.88792  0.018784074  0.018067911          195 
 1500000   0.65347728   -7.2763768    337.97273  0.018776263  0.018054141          120 
 1501000   0.65395049   -7.2956059    338.46378  0.018791016  0.018040404          119 
 1502000   0.65650026   -7.2699445    338.26734  0.018767607  0.018026722          189 
 1503000   0.65988931   -7.2856119    337.76434  0.018727231  0.018013018          135 
 1504000   0.65345341   -7.2745296    338.32334  0.018745753  0.017999348          210 
 1505000   0.65189213   -7.2751833    338.80759   0.01876011  0.017985728          157 
 1506000   0.65685071   -7.2919625    338.37348  0.018723632  0.017972103          113 
 1507000   0.64749283   -7.2653607    338.28947  0.018706562  0.017958432          147 
 1508000   0.65316898   -7.2641237    338.16746  0.018687415   0.01794476          129 
 1509000   0.66070031   -7.2729789    338.34064  0.018684594  0.017931107          166 
 1510000   0.65247851   -7.2830978    338.27452  0.018668572  0.017917466          193 
 1511000   0.66775769   -7.2856952    338.54183  0.018670959  0.017903838          222 
 1512000   0.65329015   -7.2879698    338.48209  0.018655318  0.017890192          145 
 1513000   0.65716488   -7.2791066    338.26008   0.01863076  0.017876594          290 
 1514000   0.63940176    -7.284912     338.4276  0.018627675  0.017863012          274 
 1515000   0.64995489   -7.2916068    338.67213   0.01862883  0.017849383          340 
 1516000   0.63927429   -7.2692663    338.24729  0.018593189   0.01783581          174 
 1517000   0.65500274   -7.2827527    338.45229  0.018592194   0.01782223          236 
 1518000   0.65902935   -7.2883529    338.44974  0.018579806  0.017808683          254 
 1519000   0.66234496   -7.2836335    338.28102  0.018558318  0.017795119          264 
 1520000   0.65971362   -7.2952993    337.75657  0.018517356  0.017781532          305 
 1521000   0.64320737   -7.2935518    338.23499  0.018531393  0.017767939          302 
 1522000   0.63808451   -7.3173233    338.46673  0.018531906  0.017754388          238 
 1523000   0.63821415   -7.3130891    338.74609  0.018535024  0.017740867          233 
 1524000   0.64529869   -7.3082514    337.99314   0.01848169  0.017727342          320 
 1525000   0.64018979   -7.3139388    338.87786  0.018517916  0.017713815          361 
 1526000   0.64910032   -7.3238181    338.69215  0.018495639  0.017700334          323 
 1527000   0.64873336   -7.3271862    338.29505  0.018461856  0.017686846          260 
 1528000   0.65734844   -7.2835131    338.10964  0.018439662  0.017673348          211 
 1529000   0.64488609   -7.3226933    338.06436  0.018425134  0.017659862          168 
 1530000   0.64518358   -7.3071809    338.43734  0.018433406   0.01764637          238 
 1531000   0.64886124   -7.2948636    338.81824  0.018442099   0.01763291          276 
 1532000   0.63812211   -7.3116967    338.44331  0.018409667  0.017619456          283 
 1533000   0.63926116   -7.3231524    338.50944  0.018401253  0.017605998          251 
 1534000   0.63189349   -7.3202531     339.0599   0.01841916  0.017592567          278 
 1535000    0.6532367   -7.3021704    338.34384  0.018368287  0.017579151          190 
 1536000   0.64810081   -7.3354593    338.98792  0.018391272  0.017565751          241 
 1537000   0.65949973   -7.2894036    338.91081  0.018375125    0.0175524          158 
 1538000   0.63077884   -7.2853706    339.07122  0.018371869  0.017539091          139 
 1539000   0.63412607    -7.315483    339.40152  0.018377817  0.017525769          221 
 1540000   0.63696885    -7.307275    339.25207  0.018357796  0.017512464          166 
 1541000    0.6370107   -7.3208546    339.14396  0.018340037   0.01749915          150 
 1542000   0.64263903   -7.3169763    338.60253  0.018298883  0.017485822          287 
 1543000   0.62765538   -7.3132346    339.21156  0.018319916  0.017472505          258 
 1544000   0.64758391   -7.3130469    339.09917  0.018301985  0.017459208          176 
 1545000   0.64359613   -7.3285573    338.88473  0.018278572  0.017445918          254 
 1546000   0.62529682    -7.313503     338.8076  0.018262592  0.017432655          250 
 1547000   0.64873924   -7.2954667    339.06166  0.018264472  0.017419397          266 
 1548000   0.64642624   -7.3360643    339.61779  0.018282611  0.017406168          188 
 1549000   0.63973058   -7.3196959    339.06302  0.018240963  0.017392944          243 
 1550000   0.63229833   -7.3230175     339.1217   0.01823235   0.01737975          201 
 1551000   0.63305036   -7.3161888     338.4688  0.018185515  0.017366558          222 
 1552000   0.63021344   -7.3224951    338.93975  0.018199084    0.0173534          279 
 1553000   0.63802085    -7.302505    339.31607  0.018207559  0.017340248          236 
 1554000   0.62565369   -7.3351248    339.22538  0.018190979   0.01732713          241 
 1555000   0.65153103   -7.3099356    340.05131  0.018223543  0.017314036          227 
 1556000   0.63772008   -7.3173243    339.16234  0.018164222  0.017300986          222 
 1557000   0.63435628   -7.3292914    339.52596  0.018172017  0.017287911          220 
 1558000    0.6270495   -7.3244813    339.55076  0.018161679  0.017274833          228 
 1559000   0.63663047   -7.3456873    339.83145  0.018165033  0.017261792          244 
 1560000   0.63990601   -7.3192816    340.16147  0.018171019   0.01724876          243 
 1561000   0.63613428   -7.3400573    339.12485  0.018104039  0.017235736          298 
 1562000   0.63911117   -7.3320397    339.74675  0.018125627  0.017222749          286 
 1563000   0.62788394   -7.3219308    339.50602  0.018101195  0.017209726          237 
 1564000   0.62962263   -7.3264505    339.62299  0.018095854  0.017196725          274 
 1565000   0.63080753   -7.3321222    339.39443  0.018072121  0.017183735          279 
 1566000   0.61639766   -7.3079145    339.38074  0.018059852  0.017170722          237 
 1567000   0.63660463   -7.3438558    339.01462  0.018028856  0.017157688          359 
 1568000   0.63365496   -7.3364064    338.98303   0.01801568  0.017144654          295 
 1569000   0.61966858   -7.3329685    339.39811  0.018026244  0.017131655          295 
 1570000   0.62916194   -7.3392447    339.51406  0.018020916  0.017118667          255 
 1571000   0.62886058   -7.3379949    339.44488  0.018005776  0.017105693          350 
 1572000   0.63082115   -7.3509927    338.95448  0.017968325  0.017092686          293 
 1573000   0.62029007    -7.327842    339.13129  0.017966269  0.017079718          293 
 1574000   0.63573817   -7.3582672      339.441  0.017971252  0.017066769          313 
 1575000   0.61503505   -7.3513199     338.7746  0.017924582  0.017053808          363 
 1576000   0.62846571   -7.3351073    339.48898  0.017950982  0.017040848          272 
 1577000   0.61514401   -7.3344492    338.90774  0.017908885  0.017027926          318 
 1578000   0.62126093   -7.3398808    339.30532  0.017918532   0.01701502          280 
 1579000   0.62751107   -7.3630051    339.64333  0.017925023  0.017002102          284 
 1580000   0.61987312   -7.3369865    340.02018  0.017933554  0.016989223          291 
 1581000   0.62637737   -7.3334803    340.04736  0.017923643  0.016976416          278 
 1582000   0.62182609   -7.3386244    339.44566  0.017880618  0.016963589          312 
 1583000   0.60913799   -7.3466612     339.8189  0.017888971  0.016950751          322 
 1584000   0.62020346   -7.3689875    339.74984  0.017874044  0.016937873          282 
 1585000   0.61150626   -7.3402157    339.68287  0.017859246  0.016925008          280 
 1586000   0.61774153    -7.343925    340.10604  0.017870221  0.016912151          262 
 1587000   0.63069756   -7.3435028     339.5148  0.017827914  0.016899312          254 
 1588000   0.62589678   -7.3616923    339.99488  0.017841881   0.01688649          274 
 1589000   0.61628979   -7.3487308    339.80141  0.017820506  0.016873651          296 
 1590000   0.62301142   -7.3529793     339.3163  0.017783873  0.016860839          288 
 1591000   0.59961501   -7.3456678    338.97578  0.017754859  0.016848032          330 
 1592000   0.61024563   -7.3281001     339.7757  0.017785579  0.016835239          249 
 1593000   0.61005668   -7.3628476    339.23908  0.017746343  0.016822487          285 
 1594000   0.60200573   -7.3513839    339.62199  0.017755227  0.016809687          322 
 1595000   0.61769726   -7.3692024    339.32441  0.017728548   0.01679689          205 
 1596000   0.62225297   -7.3438862    339.23611   0.01771283   0.01678415          245 
 1597000   0.61117418   -7.3564674    339.40681  0.017710646  0.016771407          295 
 1598000   0.63221861   -7.3332529    339.45159  0.017701898  0.016758651          261 
 1599000   0.61329532   -7.3558231    339.26362  0.017681031   0.01674594          242 
 1600000    0.6191874   -7.3752159    340.14575  0.017715925  0.016733218          326 
 1601000   0.61378951   -7.3707101    339.02758  0.017646657   0.01672048          245 
 1602000   0.60690668   -7.3708267    339.33702  0.017651738  0.016707743          275 
 1603000   0.62840152   -7.3531643    339.17625  0.017632369  0.016695021          248 
 1604000    0.6052398   -7.3731392    339.85899  0.017656847  0.016682305          306 
 1605000   0.61695309   -7.3658905    339.48957  0.017626665  0.016669574          306 
 1606000   0.61155897   -7.3780489    339.19687  0.017600502  0.016656842          354 
 1607000   0.61409144   -7.3998148    339.63098  0.017612061  0.016644112          308 
 1608000   0.62012415   -7.3622019    339.50529  0.017594594  0.016631403          296 
 1609000   0.61238557   -7.3720828    338.65647  0.017539697  0.016618706          290 
 1610000   0.60111269   -7.3927483    339.51056   0.01757301   0.01660601          297 
 1611000   0.61226791   -7.3443455      339.549  0.017564091  0.016593339          302 
 1612000   0.61014212   -7.3580628    339.24496  0.017537477  0.016580664          290 
 1613000   0.60784259   -7.3711044    339.38473  0.017533826  0.016567998          294 
 1614000   0.59875875   -7.3755188    338.70449   0.01748784  0.016555349          254 
 1615000   0.62486414   -7.3912277    339.06799  0.017495769  0.016542706          329 
 1616000   0.61078177    -7.373251    339.48182  0.017506282  0.016530078          333 
 1617000   0.60887953   -7.3767672     339.4835  0.017495542  0.016517456          329 
 1618000   0.59112038   -7.3816762    339.24208  0.017472295  0.016504852          392 
 1619000   0.60697507    -7.390847    339.14391   0.01745645  0.016492223          315 
 1620000   0.61920236    -7.401762     339.2604  0.017451667  0.016479606          335 
 1621000   0.59891639   -7.3639134    338.92549  0.017423683   0.01646698          311 
 1622000   0.60117006   -7.3953724     339.2838   0.01743135  0.016454347          359 
 1623000    0.5863572   -7.3984082    338.96626  0.017404306  0.016441745          327 
 1624000   0.61455862   -7.4025757    339.04955  0.017397863  0.016429171          390 
 1625000   0.61286124    -7.396689    339.18482  0.017394093  0.016416591          296 
 1626000   0.59900498   -7.3926709    338.80641  0.017364002  0.016404003          342 
 1627000   0.59304608   -7.4002547    339.41192  0.017384343  0.016391438          385 
 1628000   0.59041535   -7.3821241    339.39771  0.017372938  0.016378896          463 
 1629000    0.6161132   -7.4223923    339.25195  0.017354817  0.016366348          403 
 1630000   0.59836225   -7.4147096    339.57032  0.017360446  0.016353837          430 
 1631000   0.60546738   -7.3829925    339.05214  0.017323326    0.0163413          374 
 1632000   0.60262024   -7.4056858    339.32976  0.017326887   0.01632878          359 
 1633000   0.60820346   -7.4055411    340.20221  0.017360799  0.016316271          385 
 1634000   0.60709858   -7.3815593    339.64705  0.017321861  0.016303793          414 
 1635000   0.60512855   -7.3957899    339.07441   0.01728208  0.016291333          366 
 1636000   0.59792068   -7.3929476    339.66445  0.017301571  0.016278901          560 
 1637000   0.59014761   -7.4110139    339.43712   0.01727943  0.016266474          556 
 1638000   0.60126804   -7.4092886    338.99444  0.017246359  0.016254034          488 
 1639000    0.6113912   -7.4069078    339.29221  0.017250977  0.016241606          627 
 1640000    0.5963874   -7.4299393    338.74622  0.017212715  0.016229168          610 
 1641000   0.58486821   -7.3976415    339.02158  0.017216209  0.016216736          603 
 1642000    0.6037754   -7.4137358     338.0442  0.017156121  0.016204319          584 
 1643000   0.58296488   -7.4165853    339.19416  0.017204005  0.016191913          491 
 1644000   0.59303282   -7.4148859    339.14007  0.017190798  0.016179513          554 
 1645000   0.59941388   -7.3913006    338.85984  0.017166152  0.016167115          586 
 1646000   0.59282271   -7.4060126    338.46422  0.017135694  0.016154739          598 
 1647000   0.59279809   -7.3885078    339.17405  0.017161205  0.016142365          612 
 1648000   0.60584368   -7.4281959    338.68838  0.017126233  0.016129996          615 
 1649000     0.592749   -7.3959527    339.61251  0.017162548  0.016117653          573 
 1650000   0.60027457    -7.423802    338.75757  0.017108968  0.016105326          472 
 1651000   0.60114902   -7.4281308    339.07161  0.017114456  0.016092963          551 
 1652000   0.57340644   -7.4200938    339.34577  0.017117926  0.016080601          453 
 1653000   0.59349239   -7.4157767    339.02356  0.017091327  0.016068251          549 
 1654000   0.58306302   -7.4291508    338.73842  0.017066627  0.016055905          588 
 1655000   0.58982109   -7.4140741    339.03049  0.017071022  0.016043549          494 
 1656000   0.59184135   -7.4199004    338.29794  0.017023849  0.016031225          688 
 1657000   0.59237581   -7.4183127    338.92913  0.017045319  0.016018881          551 
 1658000   0.58582856   -7.4199051    339.39205  0.017058306  0.016006579          674 
 1659000   0.58130805   -7.4214873    338.66367  0.017011436  0.015994268          689 
 1660000   0.58905113     -7.42185    338.86033  0.017011061  0.015981959          579 
 1661000   0.58745021   -7.4175121     338.8877  0.017002192  0.015969648          661 
 1662000   0.58313382   -7.4295612    338.79153  0.016987141  0.015957366          628 
 1663000   0.58054747   -7.4353054    338.98112  0.016986426    0.0159451          657 
 1664000    0.5918823   -7.4180297    339.16406   0.01698538  0.015932825          717 
 1665000   0.59092498   -7.4237131    339.31229  0.016982597   0.01592055          783 
 1666000   0.59682794   -7.4413294    338.67218  0.016940385  0.015908266          771 
 1667000   0.57741725   -7.4486607    338.82459  0.016937842  0.015895996          752 
 1668000   0.59561796    -7.440527    338.76041  0.016924481  0.015883733          767 
 1669000   0.57782785   -7.4317072    338.76321   0.01691448  0.015871473          771 
 1670000   0.60036706   -7.4177329    338.49508  0.016890972  0.015859244          735 
 1671000   0.60376361   -7.4442982    338.64185  0.016888183  0.015847001          664 
 1672000   0.58563348   -7.4554314    338.28145   0.01686012  0.015834768          597 
 1673000    0.5748228   -7.4517573    338.80656  0.016876198  0.015822553          787 
 1674000   0.59485189   -7.4368545    338.62077  0.016856868  0.015810352          748 
 1675000   0.57545663   -7.4628623    338.98947  0.016865148  0.015798134          780 
 1676000     0.567746   -7.4651438    338.55769  0.016833616  0.015785932          699 
 1677000   0.57538548   -7.4406573    338.10462  0.016801064  0.015773745          736 
 1678000    0.5811143   -7.4500312     338.7178  0.016821504  0.015761574          679 
 1679000   0.58743538   -7.4435145    339.19875  0.016835356  0.015749428          674 
 1680000   0.58056967   -7.4486239    339.18749  0.016824776  0.015737267          520 
 1681000   0.57290201   -7.4437415    338.63483   0.01678737  0.015725118          691 
 1682000   0.58803391   -7.4469286    338.84746  0.016787924  0.015712968          725 
 1683000   0.57870723   -7.4291193    338.79023  0.016775115  0.015700843          682 
 1684000   0.57182575   -7.4356156    338.44104  0.016747874  0.015688711          717 
 1685000   0.58879023    -7.452029    337.94824  0.016713563  0.015676571          786 
 1686000   0.57842205    -7.458017    338.36167  0.016724084  0.015664452          769 
 1687000   0.59235934   -7.4493016    338.79996  0.016735821  0.015652344          730 
 1688000   0.57665218   -7.4803001    338.74313  0.016723101  0.015640248          702 
 1689000   0.57389563    -7.457652     338.9042  0.016721147   0.01562816          606 
 1690000    0.5929449   -7.4600965    338.25522  0.016679252  0.015616056          756 
 1691000   0.57536383   -7.4701835    338.79516  0.016695996  0.015603968          727 
 1692000   0.58019474   -7.4650343    338.65898  0.016679422  0.015591901          710 
 1693000   0.57886678   -7.4578164    338.86169  0.016679548  0.015579816          755 
 1694000   0.58265994   -7.4492474    339.20642   0.01668666  0.015567744          713 
 1695000   0.57927132   -7.4642702    338.31946  0.016633208  0.015555683          794 
 1696000   0.56544908    -7.463631    337.98212  0.016606826  0.015543612          797 
 1697000   0.57335671   -7.4546361    337.87946  0.016591999  0.015531552          825 
 1698000   0.57393232   -7.4714274    337.95756   0.01658606  0.015519485          715 
 1699000    0.5664489   -7.4509075    338.13098  0.016584804  0.015507445          689 
 1700000   0.57786469   -7.4640761    338.11252  0.016574143  0.015495431          756 
 1701000   0.57717989   -7.4683526    338.14771  0.016566123  0.015483438          782 
 1702000   0.58645507   -7.4456561    338.44705  0.016571046  0.015471433          741 
 1703000    0.5820647   -7.4721936    338.44429  0.016561181  0.015459441          787 
 1704000   0.56971783    -7.477534    338.30804  0.016544799  0.015447462          621 
 1705000   0.56701276   -7.4849043     338.0761  0.016523759  0.015435493          826 
 1706000   0.56199848   -7.4664391    338.13128  0.016516768  0.015423521          743 
 1707000   0.57670783   -7.4732668    338.19354  0.016510132  0.015411584          673 
 1708000   0.56940165   -7.4724424    338.14268  0.016497984  0.015399642          801 
 1709000   0.56333809   -7.4752777    338.12896  0.016487661  0.015387703          741 
 1710000   0.56948207    -7.475303    338.27842  0.016485303  0.015375769          761 
 1711000   0.57488315   -7.4774976    338.27244  0.016475377  0.015363833          768 
 1712000   0.56942748   -7.4880966    338.31815  0.016467979  0.015351907          883 
 1713000   0.56756961   -7.4725403    337.70223  0.016428402  0.015340001          805 
 1714000   0.57511843   -7.4885912    338.25996  0.016445934  0.015328108          797 
 1715000   0.56413634   -7.4873184    338.17903  0.016432411  0.015316203          752 
 1716000   0.57001552   -7.4922529      338.047  0.016416424  0.015304307          878 
 1717000   0.57421666   -7.4678887    337.91415  0.016400415  0.015292432          790 
 1718000   0.56347895   -7.4659601    337.60362  0.016375806  0.015280545          909 
 1719000   0.57945758   -7.4795422    337.75231  0.016373488  0.015268667          896 
 1720000   0.56162751   -7.4862429    337.26043  0.016340137  0.015256787          828 
 1721000   0.56022908   -7.4843392    337.78046  0.016355823  0.015244933          871 
 1722000   0.56976234   -7.4856972    337.87767   0.01635103  0.015233081          857 
 1723000   0.56536844   -7.4804383    337.89559  0.016342406  0.015221229          872 
 1724000   0.56680095   -7.4922485    337.48997   0.01631332  0.015209412          718 
 1725000   0.56573029   -7.4946329    337.97675  0.016327379  0.015197592          862 
 1726000   0.56502697   -7.4589474    338.43639  0.016340111  0.015185787          830 
 1727000   0.56820219    -7.488525    337.82458  0.016301128  0.015173997          810 
 1728000   0.56579748   -7.4744072    338.42234  0.016320522    0.0151622          818 
 1729000   0.56903301   -7.5016834    338.64199  0.016321669  0.015150426          864 
 1730000   0.55785125   -7.4719305    337.66876  0.016265354   0.01513865          842 
 1731000   0.56645758   -7.4776507     337.7534  0.016260033  0.015126872          869 
 1732000   0.55476652   -7.4713401    337.01426  0.016215082  0.015115123          818 
 1733000   0.55740018   -7.4857301    337.39307   0.01622394  0.015103379          834 
 1734000   0.57407625   -7.4761028    338.16693  0.016251775  0.015091648          908 
 1735000   0.55660212   -7.4880192    338.20418  0.016244197  0.015079925          915 
 1736000   0.55499023   -7.5018821    337.71314  0.016211268  0.015068209          823 
 1737000   0.55695978   -7.4830375    337.65688  0.016199236  0.015056505          836 
 1738000   0.55502985   -7.5135928    337.74615  0.016194196  0.015044808          827 
 1739000   0.54910746   -7.4943204    338.08837  0.016201283  0.015033111          884 
 1740000   0.55994679   -7.4775997    337.58736  0.016167977  0.015021422          777 
 1741000   0.56121219   -7.4912277     337.5885  0.016158745   0.01500975          870 
 1742000   0.56235069   -7.4812534    338.00413  0.016169352  0.014998089          833 
 1743000   0.56217065   -7.4886114    337.98453  0.016159138  0.014986426          922 
 1744000   0.55631597   -7.4981794    338.07978  0.016154424  0.014974779          798 
 1745000   0.55629063   -7.5190917    337.83136  0.016133303  0.014963147          823 
 1746000   0.56010585   -7.5180899    337.47794  0.016107195   0.01495149          890 
 1747000    0.5566081   -7.4868322    337.71319  0.016109196  0.014939843          740 
 1748000   0.55502056   -7.4805892    337.73782  0.016101155  0.014928226          953 
 1749000   0.55370293   -7.4820543    338.10927  0.016109647  0.014916608          855 
 1750000   0.54323937   -7.5095545    337.82462  0.016086886  0.014905004          914 
 1751000   0.54379506   -7.5008147     337.6091  0.016067443    0.0148934          897 
 1752000   0.55152271   -7.4812826    338.10272   0.01608175  0.014881804          915 
 1753000   0.54867832   -7.5130603    337.88312  0.016062138  0.014870237          848 
 1754000   0.55701769   -7.4902855    337.50395  0.016034965  0.014858671          955 
 1755000   0.55202383   -7.4906792    337.77917  0.016038897  0.014847103          852 
 1756000   0.55112742    -7.497115    337.94515   0.01603764  0.014835551          929 
 1757000   0.56170612   -7.5033485    337.22577  0.015994392  0.014824025          861 
 1758000   0.54052459   -7.5148364    337.43703  0.015995309  0.014812487          867 
 1759000   0.55452765    -7.507457    337.52104  0.015990195  0.014800969          904 
 1760000   0.55579731   -7.4932231    338.21151  0.016013803  0.014789454          802 
 1761000   0.54477746   -7.5184767    338.06923  0.015997976   0.01477795          782 
 1762000   0.55437982   -7.5152562    337.72356  0.015972548  0.014766447          791 
 1763000   0.54295453   -7.4879932    336.65033  0.015912759  0.014754964          792 
 1764000   0.54039492    -7.510088    337.67539  0.015952163  0.014743494          868 
 1765000    0.5350964   -7.5259321    337.70771  0.015944651  0.014732026          797 
 1766000   0.54080968   -7.5145101    337.44365  0.015923162  0.014720562          796 
 1767000   0.55222627   -7.5254143    337.61581   0.01592227   0.01470912          818 
 1768000    0.5434889   -7.5116035    337.31132  0.015898912  0.014697676          843 
 1769000   0.54332886   -7.5097721    337.25508  0.015887275  0.014686241          796 
 1770000   0.54022934   -7.5172545     337.5113  0.015890362  0.014674817          823 
 1771000   0.54361529   -7.5067667    337.44974  0.015878493  0.014663414          807 
 1772000   0.55753751   -7.4976961    337.50906  0.015872322  0.014652019          850 
 1773000   0.55216014   -7.5179263    337.82972  0.015878442  0.014640631          805 
 1774000    0.5474944    -7.511022    338.18953  0.015886393   0.01462926          794 
 1775000   0.55359091   -7.5162843    337.71948  0.015855375  0.014617879          815 
 1776000   0.54382825   -7.5276292     337.6087  0.015841249  0.014606519          873 
 1777000   0.54453528   -7.5067088    338.02917  0.015852053  0.014595171          913 
 1778000   0.54011754   -7.4897455     337.1973  0.015804148  0.014583825          911 
 1779000   0.55325699   -7.5056884    337.64539  0.015816254  0.014572512          771 
 1780000   0.54278928   -7.5170188    337.50313  0.015800708  0.014561214          842 
 1781000   0.54938194   -7.5139218    337.64986  0.015798702  0.014549939          807 
 1782000   0.54699664   -7.5246266    337.89563   0.01580133   0.01453867          797 
 1783000   0.53946577   -7.5392616    337.95161  0.015795083    0.0145274          811 
 1784000   0.54268638   -7.5213507    337.31972  0.015756713  0.014516143          803 
 1785000   0.54984132   -7.5223241    337.09472  0.015737382  0.014504871          811 
 1786000   0.54612248    -7.524546    337.34924  0.015740446  0.014493593          831 
 1787000   0.52950412   -7.5457512    337.58084  0.015742438  0.014482325          860 
 1788000   0.53766557   -7.5240737    337.72792  0.015740489  0.014471061          806 
 1789000   0.53347295   -7.5272837    337.21139   0.01570763  0.014459817          859 
 1790000   0.53893017   -7.5344158    337.27542  0.015701835  0.014448587          957 
 1791000   0.54949207   -7.5198786    337.31393   0.01569486  0.014437353          902 
 1792000   0.54505461    -7.543877    337.55977  0.015697534  0.014426146          843 
 1793000   0.53604206   -7.5418033    337.33081  0.015678137  0.014414943          887 
 1794000   0.53775105   -7.5126704    337.25669  0.015665956  0.014403749          895 
 1795000   0.52375851   -7.5335867    337.63537  0.015674808  0.014392564          945 
 1796000   0.54915626   -7.5431886    337.22358  0.015646974  0.014381403          888 
 1797000   0.53459399   -7.5273627    337.45543  0.015649018  0.014370238          850 
 1798000    0.5349159   -7.5157347     337.5121  0.015642941  0.014359082          800 
 1799000   0.53229486   -7.5406337    337.29658  0.015624263  0.014347948          887 
 1800000   0.53943115   -7.5620521    338.00147  0.015648216  0.014336825          911 
 1801000   0.53745369   -7.5429443    337.18538  0.015601767  0.014325723          877 
 1802000   0.53751866   -7.5332379    337.71703  0.015617695  0.014314623          840 
 1803000   0.52984244   -7.5237272    337.04483  0.015577964  0.014303514          894 
 1804000   0.51430957   -7.5370278    337.76497  0.015602595  0.014292426          890 
 1805000   0.53237916   -7.5371479    337.94336  0.015602187  0.014281368          955 
 1806000   0.54081218   -7.5415343     337.9618  0.015594398  0.014270306          911 
 1807000   0.52763869     -7.52969    337.61583  0.015569813  0.014259276          889 
 1808000   0.52186889   -7.5188926    337.49513  0.015555638   0.01424825          900 
 1809000   0.53315412   -7.5451055    337.64737  0.015554052  0.014237235          897 
 1810000   0.53750334   -7.5493675    338.00698  0.015562016  0.014226237          905 
 1811000   0.53186237   -7.5651882    337.89883  0.015548446  0.014215246          911 
 1812000   0.54035192   -7.5570063    337.52799  0.015522811  0.014204266          871 
 1813000   0.54655421   -7.5494213    337.46923  0.015511548  0.014193289          914 
 1814000   0.52407654    -7.551762     337.7224  0.015514627  0.014182334          886 
 1815000   0.52244043   -7.5340186    337.62468  0.015501592  0.014171387          922 
 1816000   0.51547253   -7.5513947    337.72626  0.015497718  0.014160443          847 
 1817000    0.5243832   -7.5306245    338.07693  0.015505271  0.014149506          936 
 1818000   0.53218389   -7.5525481    337.23483  0.015458142  0.014138588          916 
 1819000   0.53255326   -7.5556991    337.69106  0.015470545  0.014127677          888 
 1820000   0.52654302    -7.531795    337.28944  0.015443656  0.014116765          939 
 1821000   0.53226373   -7.5533773    337.94068  0.015464977  0.014105858          928 
 1822000   0.53486241   -7.5570196    337.35493  0.015429698  0.014094958          940 
 1823000    0.5316646   -7.5640613    337.25745  0.015416779  0.014084061          949 
 1824000   0.52379559   -7.5670733    337.30019  0.015410279  0.014073186          912 
 1825000    0.5187348   -7.5670922    337.16709  0.015395757  0.014062307          955 
 1826000   0.52350689   -7.5560564    337.32334  0.015394457  0.014051437          936 
 1827000   0.51865531   -7.5623259    337.25982  0.015383134  0.014040573          928 
 1828000   0.53214478   -7.5641068    337.61961   0.01539112  0.014029732          856 
 1829000   0.52963011   -7.5570558    337.70524  0.015386607    0.0140189          853 
 1830000   0.52785705   -7.5835196    337.58816  0.015372867  0.014008068          943 
 1831000   0.51918324    -7.542421    336.87359  0.015331949  0.013997233          877 
 1832000   0.52817544   -7.5636047    337.51531  0.015352771  0.013986417         1019 
 1833000   0.52058522   -7.5381233     337.0737  0.015324318  0.013975608         1057 
 1834000   0.52951849   -7.5437375    336.82141  0.015304499  0.013964803          979 
 1835000   0.52311894   -7.5465379    337.60832  0.015331895  0.013954012          989 
 1836000    0.5239285   -7.5460741    337.29573  0.015309356  0.013943232         1078 
 1837000   0.52169052   -7.5757077    337.39098  0.015305343  0.013932462          970 
 1838000   0.52080638   -7.5599856    337.33304  0.015294389  0.013921698         1037 
 1839000   0.52909142   -7.5659037    337.41859  0.015289949  0.013910947         1011 
 1840000   0.51004736   -7.5512723    337.58373  0.015289118  0.013900208         1050 
 1841000   0.51490403   -7.5676965    337.11686   0.01525968  0.013889463          989 
 1842000   0.52820033   -7.5702576    337.10844  0.015251015  0.013878727          949 
 1843000   0.51405793   -7.5578836    337.21543  0.015247578  0.013868005         1101 
 1844000   0.52022192   -7.5853668    337.20107   0.01523866  0.013857275         1066 
 1845000   0.53509035   -7.5621024    337.16511  0.015228776  0.013846572         1053 
 1846000   0.52636811   -7.5766696    337.31254  0.015227182  0.013835871         1064 
 1847000   0.50991686   -7.5633115    337.47221  0.015226142  0.013825172         1066 
 1848000   0.50997672   -7.5699251    337.01218  0.015197158  0.013814488         1090 
 1849000   0.51325297   -7.5604453    336.72342  0.015175925   0.01380383         1122 
 1850000   0.51727313   -7.5648889    336.86135  0.015173935  0.013793162         1064 
 1851000   0.50958699   -7.5609345    336.87297   0.01516626  0.013782503         1040 
 1852000   0.51261291     -7.56632    336.92285  0.015160315  0.013771852         1085 
 1853000   0.50317345   -7.5665162    337.14285  0.015162028  0.013761194         1040 
 1854000   0.51406062   -7.5581453    336.77736  0.015137422  0.013750545         1101 
 1855000   0.49612254   -7.5634866    337.10282  0.015143882   0.01373992         1097 
 1856000   0.51779645   -7.5720939    336.93826  0.015128334  0.013729286         1079 
 1857000   0.52156209   -7.5870728    336.75802  0.015112099  0.013718647         1124 
 1858000   0.51921168   -7.5710427    336.21386   0.01507956  0.013708044         1146 
 1859000   0.51383911    -7.579492    337.13785  0.015112868  0.013697434         1061 
 1860000   0.50779169    -7.552477    336.87366  0.015092906  0.013686842         1147 
 1861000   0.49996565    -7.571033    336.96331   0.01508881  0.013676252         1087 
 1862000   0.50759742   -7.5979153    336.92367  0.015078933  0.013665681         1167 
 1863000   0.50641412   -7.5818815    336.66943  0.015059466  0.013655095         1101 
 1864000   0.50282274   -7.5691656    336.99715  0.015066038  0.013644532         1117 
 1865000   0.51032631   -7.5758805    336.88608  0.015052997  0.013633978         1156 
 1866000   0.50504501   -7.5761931    336.67537   0.01503552  0.013623433         1177 
 1867000   0.50312364    -7.583361    336.48394  0.015018923  0.013612883         1136 
 1868000   0.51548829   -7.5979459    336.81396  0.015025605  0.013602346         1215 
 1869000   0.49255875   -7.5896521    336.46152  0.015001851  0.013591812         1152 
 1870000   0.49786417   -7.5866104     336.9897  0.015017366  0.013581294         1136 
 1871000   0.50259912   -7.5943777    336.85388   0.01500329  0.013570791         1143 
 1872000   0.49657556   -7.5688096    336.43871  0.014976794   0.01356029         1169 
 1873000   0.50648379   -7.5747924    336.30657  0.014962919  0.013549798         1149 
 1874000   0.51591909   -7.5823524    336.59694  0.014967847    0.0135393         1160 
 1875000   0.50005212   -7.5956024    336.73915  0.014966184  0.013528819         1122 
 1876000   0.50984414   -7.5935378     336.6693  0.014955104  0.013518351         1187 
 1877000   0.50890977   -7.5854107    336.43877  0.014936902   0.01350789         1152 
 1878000   0.49798165    -7.586821    336.77257   0.01494376  0.013497445         1131 
 1879000   0.49654109   -7.5914029    336.59771  0.014928052  0.013487009         1135 
 1880000   0.51159769   -7.6005752    336.88753  0.014932958   0.01347658         1189 
 1881000   0.50202575   -7.5977035    336.55203  0.014910156  0.013466164         1164 
 1882000    0.4942049    -7.584825    336.57228   0.01490313  0.013455758         1148 
 1883000    0.5012221   -7.6057163    336.77859  0.014904345  0.013445358         1154 
 1884000    0.5004122   -7.6154423    336.53093   0.01488548  0.013434969         1166 
 1885000   0.50519743   -7.5960056    336.69219  0.014884712  0.013424591         1150 
 1886000   0.49939018   -7.5904127    336.33781  0.014861161  0.013414217         1121 
 1887000    0.4979064   -7.5820939     336.8087  0.014874082   0.01340387         1134 
 1888000   0.49756891    -7.596013    337.38089  0.014891459   0.01339353         1237 
 1889000   0.49942961   -7.6085522    336.72089   0.01485446  0.013383204         1185 
 1890000   0.48627603   -7.5914675    336.62224  0.014842251  0.013372874         1157 
 1891000    0.4928568   -7.5953017    337.08703  0.014854884  0.013362573         1115 
 1892000   0.49443716   -7.6042923    336.82199  0.014835359  0.013352265         1137 
 1893000   0.49050691   -7.6068936    336.73157  0.014823541  0.013341976         1100 
 1894000   0.49574469   -7.6001507    336.75611  0.014816795  0.013331701         1124 
 1895000   0.48683197   -7.6075839    336.52504  0.014798814  0.013321413         1157 
 1896000   0.49827107   -7.6210282    336.63997  0.014796061  0.013311147         1266 
 1897000   0.51306096   -7.6118776    336.90099  0.014799727  0.013300876         1224 
 1898000   0.50857825   -7.6112165    337.03823  0.014797955  0.013290616         1196 
 1899000   0.48114914    -7.597263    336.78613    0.0147791  0.013280363         1160 
 1900000   0.50146875   -7.5970905    336.05465  0.014739239   0.01327013         1200 
 1901000   0.48887676   -7.5964978    336.36755  0.014745202  0.013259909         1220 
 1902000   0.49072572   -7.6112124    336.49524  0.014743044  0.013249689         1160 
 1903000   0.48864904   -7.6090911    336.91289  0.014753586  0.013239477         1160 
 1904000   0.49899303   -7.6032957    336.15273  0.014712567  0.013229266         1155 
 1905000   0.50213441   -7.6192068    336.57453  0.014723295  0.013219069         1154 
 1906000   0.48622281   -7.6246494    336.40141  0.014708001  0.013208876         1174 
 1907000    0.4923067   -7.6040162    336.65528  0.014711383  0.013198696         1122 
 1908000   0.49243734    -7.603832    336.25675  0.014686266  0.013188518         1196 
 1909000   0.49110133   -7.6181047    336.47438  0.014688073  0.013178352         1121 
 1910000   0.50146863   -7.6096413    336.74143  0.014692034  0.013168193         1222 
 1911000   0.49939771   -7.6087823    336.30111  0.014665145  0.013158044         1181 
 1912000   0.48649043   -7.6201182     336.9521  0.014685848   0.01314791         1163 
 1913000   0.49826113   -7.5992552    336.53664  0.014660073  0.013137789         1194 
 1914000   0.48000236   -7.6001061    336.46262  0.014649191  0.013127668         1121 
 1915000   0.48409549   -7.6156322    336.26703   0.01463303  0.013117565         1178 
 1916000   0.48316586   -7.6074782     336.4211  0.014632094  0.013107468         1179 
 1917000   0.49645619   -7.6048315    336.10374  0.014610665  0.013097374         1120 
 1918000    0.4986661   -7.6079677    335.94792  0.014596277  0.013087306         1220 
 1919000   0.48567171   -7.5970625    336.21634  0.014600327  0.013077241         1118 
 1920000   0.48184604   -7.6088691    336.27304  0.014595184  0.013067179         1185 
 1921000   0.49067794    -7.589009    336.33398   0.01459023  0.013057128         1192 
 1922000   0.48962434   -7.6184391    336.22224  0.014577794  0.013047089         1156 
 1923000     0.488967   -7.6063979    336.11031  0.014565363  0.013037048         1188 
 1924000   0.48039388    -7.622978    336.42333   0.01457135  0.013027028         1160 
 1925000   0.48011487   -7.6104582    336.50589  0.014567355  0.013017028         1168 
 1926000    0.4927579    -7.623226    336.39718  0.014555087   0.01300702         1130 
 1927000   0.47876286   -7.6245161    336.55684  0.014554439  0.012997018         1207 
 1928000   0.49542264    -7.621586    336.50751  0.014544758  0.012987017         1167 
 1929000   0.47616726    -7.612706    335.59988  0.014498008  0.012977033         1198 
 1930000   0.48729569   -7.6255806    336.47016  0.014528072   0.01296706         1192 
 1931000   0.47842105   -7.6087859    336.28071  0.014512373  0.012957107         1152 
 1932000   0.48785441   -7.6415079    336.13287  0.014498485  0.012947149         1160 
 1933000    0.4849169   -7.6215074    336.46756  0.014505413  0.012937212         1076 
 1934000   0.48349791   -7.6264225    336.08216  0.014481306  0.012927271         1189 
 1935000   0.48985043   -7.6234005      335.904   0.01446615  0.012917333         1212 
 1936000   0.47679031   -7.6440514    336.05191  0.014465044  0.012907395         1195 
 1937000   0.48058751   -7.6245642    336.84813  0.014491831  0.012897472         1172 
 1938000   0.48137606   -7.6358993    336.61706  0.014474418  0.012887557         1196 
 1939000    0.4813082    -7.624071    336.18448  0.014448362  0.012877645         1179 
 1940000   0.48150348   -7.6396495    335.76604   0.01442294  0.012867738         1171 
 1941000   0.48053002    -7.634589    335.66921  0.014411352  0.012857837         1192 
 1942000    0.4889758   -7.6319981    336.50567  0.014439825  0.012847954         1182 
 1943000   0.47401032   -7.6274373     335.9397  0.014408119  0.012838078         1190 
 1944000   0.46544995   -7.6448451    336.24269  0.014413696  0.012828213         1214 
 1945000   0.46330404   -7.6395641    336.23801  0.014406085  0.012818357         1233 
 1946000   0.48818415   -7.6324136    336.22829  0.014398265  0.012808508         1195 
 1947000   0.48537895   -7.6297573    336.08988  0.014384946  0.012798676         1206 
 1948000   0.47904249   -7.6195139    336.31728   0.01438729  0.012788855         1207 
 1949000   0.47677915   -7.6256962    335.88084  0.014361247  0.012779047         1196 
 1950000   0.47649977   -7.6523365    336.53206  0.014381712  0.012769231         1154 
 1951000   0.48836014   -7.6317736    335.68301  0.014338075   0.01275944         1125 
 1952000   0.46650997   -7.6343078    335.57992  0.014326329  0.012749649         1189 
 1953000    0.4770972   -7.6271642    336.09462  0.014340955  0.012739866         1169 
 1954000   0.47136311   -7.6411308    335.92003   0.01432617  0.012730098         1164 
 1955000   0.47457342   -7.6362234    335.47811  0.014300005  0.012720328         1213 
 1956000   0.47034607   -7.6353621    336.04488   0.01431684  0.012710566         1161 
 1957000   0.46837019   -7.6287917     335.8094  0.014299498  0.012700823         1269 
 1958000   0.47299331   -7.6394136    335.92482  0.014297107   0.01269109         1220 
 1959000   0.46751586   -7.6457681    335.78365  0.014283803  0.012681357         1218 
 1960000   0.47584133   -7.6341208     336.0826  0.014289226  0.012671626         1220 
 1961000   0.47328518   -7.6329997    336.00876  0.014278802  0.012661927         1201 
 1962000   0.46826224   -7.6256948    335.26673  0.014240007  0.012652221         1178 
 1963000   0.47232348   -7.6611743    336.02944  0.014265131  0.012642519         1210 
 1964000   0.46851756   -7.6434452    335.70163  0.014243959  0.012632823         1246 
 1965000   0.47432141   -7.6571286    335.70576  0.014236885  0.012623135         1229 
 1966000    0.4632812   -7.6547759    335.43134  0.014218012  0.012613459         1263 
 1967000   0.47347435     -7.62343    335.38326  0.014208747  0.012603781         1228 
 1968000    0.4703767   -7.6502354    335.74333  0.014216774  0.012594128         1179 
 1969000   0.47110381   -7.6401911    335.47099  0.014198027  0.012584476         1229 
 1970000   0.47566028   -7.6407657    335.40456   0.01418801  0.012574834         1208 
 1971000   0.46510373    -7.654561    335.39105  0.014180241  0.012565198         1258 
 1972000   0.47052814   -7.6351061    335.21084  0.014165434  0.012555577         1283 
 1973000   0.46662068   -7.6526834    335.92289  0.014188329  0.012545967         1308 
 1974000   0.46496325   -7.6483744    335.80586  0.014176202  0.012536359         1254 
 1975000   0.47143752   -7.6446124      335.565  0.014158861  0.012526759         1224 
 1976000    0.4579965   -7.6566075    336.20263  0.014178586  0.012517173         1264 
 1977000   0.46113962   -7.6657034    335.88357  0.014157966  0.012507587         1324 
 1978000   0.46616652   -7.6518982    335.73439  0.014144523  0.012498007         1307 
 1979000   0.46476945    -7.661004    336.13645  0.014154306  0.012488429         1320 
 1980000   0.45640379   -7.6503644    335.78225   0.01413225   0.01247887         1290 
 1981000   0.46441474   -7.6512961    336.27075  0.014145665  0.012469325         1265 
 1982000   0.46644191   -7.6513308    335.74988  0.014116628  0.012459787         1263 
 1983000   0.47304523   -7.6495004    335.63278  0.014104588   0.01245025         1275 
 1984000   0.46264311   -7.6688118    335.72319  0.014101277  0.012440721         1308 
 1985000   0.46460816   -7.6590772    336.02172  0.014106705  0.012431209         1282 
 1986000   0.46868033   -7.6611921    335.34739  0.014071307  0.012421695         1336 
 1987000    0.4619707   -7.6519386    335.26175  0.014060634  0.012412196         1314 
 1988000   0.45681813   -7.6611051     335.3446  0.014057034  0.012402704         1270 
 1989000   0.44878991   -7.6685854     335.5539  0.014058735  0.012393216         1310 
 1990000   0.45857775   -7.6620263    335.29452  0.014040809  0.012383738         1313 
 1991000   0.46493688   -7.6640067    335.18441  0.014029148   0.01237427         1277 
 1992000   0.46392367   -7.6665297    335.38326  0.014030424  0.012364821         1204 
 1993000   0.45884139   -7.6731159    335.80987  0.014041222  0.012355372         1290 
 1994000   0.46478086   -7.6559595    335.16158  0.014007087  0.012345928         1258 
 1995000   0.45203135   -7.6665779    335.29404  0.014005599  0.012336497         1294 
 1996000   0.45779557   -7.6520949    335.55912  0.014009649  0.012327073         1285 
 1997000   0.45785817   -7.6712114    335.65643  0.014006695  0.012317656         1269 
 1998000   0.46337431   -7.6744542    335.71161  0.014001986   0.01230824         1324 
 1999000   0.45544987   -7.6531182    334.98188  0.013964561  0.012298829         1294 
 2000000   0.45035576   -7.6730113    335.58192   0.01398258  0.012289432         1290 
 2001000   0.44889045   -7.6603408    334.95072  0.013949305  0.012280043         1329 
 2002000   0.45552009   -7.6824016     335.3204  0.013957726  0.012270659         1318 
 2003000   0.45389445   -7.6667332    335.02796   0.01393859  0.012261295         1284 
 2004000   0.45079534   -7.6747143    335.52165  0.013952164  0.012251941         1306 
 2005000   0.45713227   -7.6789624    335.61254  0.013948983  0.012242593         1292 
 2006000   0.45325381   -7.6709402      335.265  0.013927592  0.012233241         1326 
 2007000   0.46143679   -7.6675658    335.48131  0.013929634  0.012223908         1340 
 2008000   0.45856433   -7.6770862    335.38486  0.013918694  0.012214582         1320 
 2009000   0.45101492    -7.678566    335.55807  0.013918951  0.012205263         1361 
 2010000   0.45033792   -7.6735647    334.96075  0.013887261  0.012195952         1288 
 2011000   0.45254942   -7.6854139    335.24877  0.013892291  0.012186635         1352 
 2012000   0.44255953   -7.6686181    335.35317   0.01388971  0.012177324         1344 
Loop time of 4303.96 on 48 procs for 2000000 steps with 4000 atoms

Performance: 80298.217 tau/day, 464.689 timesteps/s
99.4% CPU use with 48 MPI tasks x no OpenMP threads

MPI task timing breakdown:
Section |  min time  |  avg time  |  max time  |%varavg| %total
---------------------------------------------------------------
Pair    | 266.76     | 300.03     | 313.93     |  65.0 |  6.97
Neigh   | 26.815     | 27.327     | 27.734     |   4.0 |  0.63
Comm    | 232.81     | 249.86     | 279.47     |  65.0 |  5.81
Output  | 4.2796     | 4.2812     | 4.317      |   0.3 |  0.10
Modify  | 3658.1     | 3673.7     | 3686       |  13.9 | 85.36
Other   |            | 48.78      |            |       |  1.13

Nlocal:        83.3333 ave          90 max          78 min
Histogram: 4 6 4 4 8 11 4 3 2 2
Nghost:        1782.35 ave        1799 max        1741 min
Histogram: 1 0 1 1 1 10 4 16 6 8
Neighs:        10881.5 ave       11847 max       10063 min
Histogram: 3 4 6 9 5 6 7 3 3 2
FullNghs:      21763.3 ave       23602 max       20267 min
Histogram: 3 7 6 4 11 3 5 5 2 2

Total # of neighbors = 1044637
Ave neighs/atom = 261.15925
Neighbor list builds = 107875
Dangerous builds = 0

#clear
#
#next RN
#
#jump SELF
Total wall time: 1:11:46
