
units lj                  # Use reduced LJ style units
atom_style atomic         # Uncharged point particles
atom_modify map hash      # Needed for indexing of clusters etc
                          # Used to be able to find where atoms are in relation to each other.

lattice fcc 1.0 spacing 1 1 1
Lattice spacing in x,y,z = 1.5874011 1.5874011 1.5874011
region box block 0 10 0 10 0 10 units lattice
create_box 2 box
Created orthogonal box = (0.0000000 0.0000000 0.0000000) to (15.874011 15.874011 15.874011)
  3 by 4 by 4 MPI processor grid
create_atoms 1 box
Created 4000 atoms
  using lattice units in orthogonal box = (0.0000000 0.0000000 0.0000000) to (15.874011 15.874011 15.874011)
  create_atoms CPU = 0.003 seconds
set type 1 type/fraction 2 0.73 78393
Setting atom values ...
  2936 settings made for type/fraction
mass 1 1.0
mass 2 1.0
pair_style lj/cut  3.5
pair_modify tail  yes
pair_coeff 1  1  1.0  1.0   # Intearaction between 1 and 1 set with epsilon = 1 and sigma = 1
pair_coeff 1  2  1.5  0.8
pair_coeff 2  2  0.5  0.88

write_data data.0
System init for write_data ...
Neighbor list info ...
  update every 1 steps, delay 10 steps, check yes
  max neighbors/atom: 2000, page size: 100000
  master list distance cutoff = 3.8
  ghost atom cutoff = 3.8
  binsize = 1.9, bins = 9 9 9
  1 neighbor lists, perpetual/occasional/extra = 1 0 0
  (1) pair lj/cut, perpetual
      attributes: half, newton on
      pair build: half/bin/atomonly/newton
      stencil: half/bin/3d
      bin: standard
WARNING: Not all mixed pair coeffs generated from mixing. Use write_data with 'pair ij' option to store all pair coeffs. (../write_data.cpp:312)


#############################
#   M E L T   S Y S T E M   #
#############################

velocity all create 2.4 8172548 mom yes dist gaussian # Assign velocities
                                                    # Temperature 2.4, random number seed, zero linear momentum
                                                                                # Gaussian distribution

timestep 0.002   # simulation timestep
thermo 1000       # output thermodynamic data every 1000 steps bf 100

# Define a fix  in this case with index 1 applied to all
# particles in the simulation. This fix is for simulations
# in the anisotropic NPT ensemble. Note that we use the MTK
# correction.
fix 1 all npt temp 2.4 2.4 0.1 iso 5.68 5.68 0.5 mtk yes tchain 5 pchain 5 # Use NPT ensemble
                                                                         # Set temperature and pressure and damping
                                                                         # Numbers of thermostats in chain and in barostat
run 10000          # run for 10000 steps
Per MPI rank memory allocation (min/avg/max) = 3.642 | 3.644 | 3.648 Mbytes
Step Temp E_pair E_mol TotEng Press Volume 
       0          2.4   -4.0230884            0  -0.42398835   -3.6147038         4000 
    1000    2.3815337   -3.5670092            0 0.0043982911    5.3946274    3718.7231 
    2000    2.4450782   -3.5992998            0  0.067400615    5.2921685    3715.4529 
    3000    2.4665299   -3.5704268            0   0.12844319    5.6542333    3699.8969 
    4000    2.3845835   -3.5684444            0 0.0075366395    5.7212239    3678.4259 
    5000    2.3931848   -3.5884767            0 0.00040309442    5.3746814    3708.0116 
    6000    2.3483299   -3.5780175            0 -0.056403382    5.5473353    3695.4255 
    7000    2.4148768   -3.5814647            0  0.039944886    5.5653667    3698.3769 
    8000    2.4557994   -3.5832667            0  0.099511545    5.7511515    3687.5301 
    9000    2.3324516   -3.5645724            0 -0.066769735    5.5532987      3690.91 
   10000    2.3891573   -3.5939302            0  -0.01109013    5.6819703    3671.3642 
Loop time of 2.61318 on 48 procs for 10000 steps with 4000 atoms

Performance: 661263.153 tau/day, 3826.754 timesteps/s
99.6% CPU use with 48 MPI tasks x no OpenMP threads

MPI task timing breakdown:
Section |  min time  |  avg time  |  max time  |%varavg| %total
---------------------------------------------------------------
Pair    | 1.1403     | 1.2482     | 1.3451     |   3.2 | 47.77
Neigh   | 0.21308    | 0.22195    | 0.24013    |   0.9 |  8.49
Comm    | 0.7741     | 0.88033    | 0.97258    |   4.7 | 33.69
Output  | 0.00025312 | 0.00025792 | 0.00031971 |   0.0 |  0.01
Modify  | 0.2202     | 0.24654    | 0.28579    |   3.5 |  9.43
Other   |            | 0.01586    |            |       |  0.61

Nlocal:        83.3333 ave          93 max          76 min
Histogram: 2 9 9 2 8 7 2 4 3 2
Nghost:        1738.79 ave        1764 max        1714 min
Histogram: 2 6 7 6 4 4 5 6 2 6
Neighs:        10397.5 ave       11776 max        9398 min
Histogram: 7 7 5 3 7 9 1 2 5 2

Total # of neighbors = 499078
Ave neighs/atom = 124.76950
Neighbor list builds = 903
Dangerous builds = 178

# Equilibrate just above the melting temperature to avoid step fn in T

fix 1 all npt temp 1.25 1.25 0.1 iso 5.68 5.68 0.5 mtk yes tchain 5 pchain 5
run 2000
Per MPI rank memory allocation (min/avg/max) = 3.644 | 3.646 | 3.649 Mbytes
Step Temp E_pair E_mol TotEng Press Volume 
   10000    2.3891573   -3.5939302            0  -0.01109013    5.6819703    3671.3642 
   11000    1.2301487   -5.2920834            0   -3.4473216    5.6015719    2813.4678 
   12000    1.2723846   -5.2663939            0   -3.3582942    5.3263207    2839.8194 
Loop time of 0.662386 on 48 procs for 2000 steps with 4000 atoms

Performance: 521750.170 tau/day, 3019.388 timesteps/s
99.6% CPU use with 48 MPI tasks x no OpenMP threads

MPI task timing breakdown:
Section |  min time  |  avg time  |  max time  |%varavg| %total
---------------------------------------------------------------
Pair    | 0.29931    | 0.3222     | 0.34746    |   2.0 | 48.64
Neigh   | 0.041735   | 0.043741   | 0.048112   |   0.7 |  6.60
Comm    | 0.21658    | 0.24419    | 0.27193    |   2.7 | 36.86
Output  | 5.6131e-05 | 6.0008e-05 | 0.00019281 |   0.0 |  0.01
Modify  | 0.044123   | 0.047202   | 0.050967   |   0.9 |  7.13
Other   |            | 0.004995   |            |       |  0.75

Nlocal:        83.3333 ave          91 max          76 min
Histogram: 2 1 5 7 9 6 12 1 3 2
Nghost:        2066.62 ave        2091 max        2044 min
Histogram: 5 3 4 6 9 2 7 8 3 1
Neighs:        13434.8 ave       15003 max       11684 min
Histogram: 1 3 2 6 9 14 4 1 2 6

Total # of neighbors = 644868
Ave neighs/atom = 161.21700
Neighbor list builds = 143
Dangerous builds = 11

#############################
# L I N E A R  Q U E N C H  #
#############################

# Define solid atoms. This closely follows ten Wolde  Ruiz-Montero and Frenkel  Faraday Discuss  1996  104  93-110
# Compute components of the per-atom q6 vector
compute q6 all orientorder/atom degrees 1 6 components 6 nnn NULL cutoff 1.3 # compute the Q6 parameter.
                                                                             # Use all neighbours within 1.3 unit cell.

# get number of connections
compute coord_number all coord/atom orientorder q6 0.5

# An atom is solid if it has 8 or more connections (of a possible 14)
variable is_solid atom c_coord_number>=8
group solid dynamic all var is_solid    # Must be dynamic to update
dynamic group solid defined

# do clustering
compute cluster solid cluster/atom 1.3 # Create a cluster where all atoms within are solid and max 1.3 units from another member

# define chunks one chunk per cluster
compute clus_chunks solid chunk/atom c_cluster nchunk every compress yes  # Says which atoms are in which chunk

# count the size of each chunk
compute size_chunks solid property/chunk clus_chunks count


# Find the maximum entry in the vector of chunk sizes
variable max_n equal max(c_size_chunks)


# Thermo style which includes this variable
# thermo_style custom step temp pe vol v_max_n

thermo ${N}  # Print the thermo information every 100 steps
thermo 1000  

# Reset the npt fix at a lower temperature (below freezing)
fix 1  all npt temp  ${temp} ${temp}  0.1  iso  5.68  5.68  0.5  mtk yes tchain  5  pchain  5
fix 1  all npt temp  0.45 ${temp}  0.1  iso  5.68  5.68  0.5  mtk yes tchain  5  pchain  5
fix 1  all npt temp  0.45 0.45  0.1  iso  5.68  5.68  0.5  mtk yes tchain  5  pchain  5

dump dmp2 all dcd ${N} traj.dcd
dump dmp2 all dcd 1000 traj.dcd


compute msd all msd com yes
variable twopoint equal c_msd[4]/6/(step*dt+1.0e-6)
fix 9 all vector 10 c_msd[4]
variable fit equal slope(f_9)/6/(10*dt)
thermo_style custom step temp pe c_msd[4] v_twopoint v_fit v_max_n

fix 1 all npt temp 1.25 ${temp} 0.1 iso 5.68 5.68 0.5 mtk yes tchain 5 pchain 5
fix 1 all npt temp 1.25 0.45 0.1 iso 5.68 5.68 0.5 mtk yes tchain 5 pchain 5
run 5000000 # 5000000  # Run for this many steps
Neighbor list info ...
  update every 1 steps, delay 10 steps, check yes
  max neighbors/atom: 2000, page size: 100000
  master list distance cutoff = 3.8
  ghost atom cutoff = 3.8
  binsize = 1.9, bins = 8 8 8
  4 neighbor lists, perpetual/occasional/extra = 1 3 0
  (1) pair lj/cut, perpetual
      attributes: half, newton on
      pair build: half/bin/atomonly/newton
      stencil: half/bin/3d
      bin: standard
  (2) compute orientorder/atom, occasional
      attributes: full, newton on
      pair build: full/bin/atomonly
      stencil: full/bin/3d
      bin: standard
  (3) compute coord/atom, occasional
      attributes: full, newton on
      pair build: full/bin/atomonly
      stencil: full/bin/3d
      bin: standard
  (4) compute cluster/atom, occasional
      attributes: full, newton on
      pair build: full/bin/atomonly
      stencil: full/bin/3d
      bin: standard
Per MPI rank memory allocation (min/avg/max) = 9.839 | 9.846 | 9.852 Mbytes
Step Temp PotEng c_msd[4] v_twopoint v_fit v_max_n 
   12000    1.2723846   -5.2663939 3.1599796e-30 2.1944302e-32 8.3333333e+20            2 
   13000    1.2701412   -5.2813411   0.67173889 0.0043060184  0.056041115            3 
   14000    1.2529382   -5.2991818    1.3492946 0.0080315149   0.05537012            3 
   15000    1.2416783   -5.3096038    2.0699578  0.011499765  0.057303141            2 
   16000    1.2347138   -5.3270878    2.7865523  0.014513293  0.057948456            3 
   17000    1.2673765   -5.3159576    3.4032774  0.016682732  0.057620292            2 
   18000    1.2609185    -5.328444    4.0884108  0.018927827  0.057156446            2 
   19000    1.2239822   -5.2627255    4.6646511  0.020458995  0.056548691            2 
   20000    1.2745502   -5.2906049    5.2656502  0.021940209  0.055582202            2 
   21000    1.2355814   -5.2903435    5.8659395  0.023277537  0.054829044            3 
   22000    1.2331311   -5.3468604    6.5545146  0.024827706  0.054351193            2 
   23000    1.2675655   -5.3066468    7.2505752  0.026270199  0.054232091            5 
   24000    1.2444196   -5.2577862     8.109993  0.028159697  0.054466388            1 
   25000    1.2662214   -5.2715609    8.8092653  0.029364217  0.055093652            2 
   26000     1.225701   -5.2939915    9.3940409  0.030109105   0.05541022            1 
   27000     1.234694   -5.2723835     10.03209   0.03096324   0.05544686            7 
   28000    1.2232783   -5.3123262    10.615047  0.031592401   0.05538539            1 
   29000    1.2536873   -5.2828753     11.29842  0.032466723  0.055331237            6 
   30000    1.2474397   -5.3095383    11.896898  0.033046938  0.055199625            2 
   31000    1.2922375   -5.3080929    12.562524  0.033770224  0.055062102            2 
   32000    1.2593997   -5.3157626    13.343759  0.034749372  0.055078792            3 
   33000    1.2541129   -5.3005938    14.025797  0.035418678  0.055156033            5 
   34000    1.2432574   -5.3108174    14.657535   0.03592533   0.05524371            4 
   35000    1.2487349   -5.3030472    15.286036  0.036395324  0.055268879            2 
   36000    1.2505591   -5.3276741    15.913106  0.036835893  0.055250662            2 
   37000    1.2419732   -5.2952337    16.540631  0.037253672  0.055247759            1 
   38000    1.2425821   -5.2754938    17.156909    0.0376248  0.055177408            1 
   39000     1.233006    -5.319307    17.623385  0.037656805  0.055039476            1 
   40000    1.2417811   -5.3091186    18.222603  0.037963755  0.054834913            1 
   41000    1.2348702   -5.2738478    18.920104  0.038455495   0.05469129            2 
   42000    1.2433302    -5.311956    19.461201  0.038613493  0.054552815            3 
   43000    1.2639084   -5.3255558    20.215748  0.039177806  0.054403299            2 
   44000    1.2506976   -5.3075346    20.907962  0.039598413  0.054336807            3 
   45000    1.2315175   -5.3206276    21.564568  0.039934385  0.054313321            3 
   46000     1.252683   -5.3032375    22.087786  0.040014104  0.054225568            2 
   47000    1.2935529   -5.3011654    22.674153  0.040202399  0.054113363            2 
   48000    1.2520258    -5.302731    23.213264  0.040300805  0.054008793            3 
   49000     1.254202   -5.3013732    23.776118  0.040435575  0.053889737            3 
   50000     1.254872   -5.2742136    24.547351  0.040912251  0.053807586            1 
   51000    1.2452926   -5.3174152    25.265686    0.0412838   0.05375336            2 
   52000    1.2496726   -5.3573833    25.925766  0.041547702  0.053723631            2 
   53000    1.2415985   -5.3003689    26.718314  0.042009927  0.053700495            2 
   54000    1.2584726   -5.3142446     27.45024  0.042361481  0.053726696            1 
   55000    1.2302822   -5.3157528     28.14409  0.042642561  0.053781937            3 
   56000    1.2563141   -5.3329109    28.816815  0.042882165  0.053845609            2 
   57000    1.2287151   -5.3102625    29.572916  0.043235257  0.053918853            6 
   58000    1.2783998   -5.3063101     30.30694  0.043544453  0.053963066            1 
   59000    1.2326268   -5.2895728    30.950377  0.043715222  0.054029607            2 
   60000    1.2100148   -5.3324547    31.477028  0.043718094  0.054089793            3 
   61000    1.2475134   -5.3354223    32.157559  0.043931091  0.054138835            2 
   62000    1.2413024   -5.2856942    32.960143  0.044301267   0.05418833            2 
   63000    1.2485875   -5.3268184    33.407073   0.04418925  0.054225738            2 
   64000     1.254956    -5.296512    34.279147  0.044634306  0.054258764            4 
   65000    1.2144379   -5.3077658    34.833615   0.04465848  0.054304186            3 
   66000    1.2269542   -5.3261397    35.442902  0.044751139  0.054337349            1 
   67000    1.2334979   -5.2959903    36.232773  0.045065637  0.054376249            1 
   68000     1.228393   -5.2745795    36.869773  0.045183545  0.054414992            2 
   69000    1.2524157    -5.343533    37.575509  0.045381049  0.054453489            5 
   70000    1.2429639   -5.3394894    38.167651  0.045437679  0.054492152            2 
   71000    1.2450553   -5.3488754    38.802251  0.045542548  0.054512957            5 
   72000    1.2315137   -5.2945587    39.491457  0.045707705  0.054525859            2 
   73000    1.2388728    -5.351246    39.956754  0.045612732  0.054536577            4 
   74000    1.2087401   -5.3422623    40.591295  0.045710918   0.05453273            7 
   75000    1.2690881   -5.3081907    41.212642  0.045791824  0.054520378            3 
   76000    1.2428188   -5.2965059     41.91333  0.045957598  0.054516581            4 
   77000    1.2483518   -5.2989093    42.514572  0.046011441  0.054518895            2 
   78000    1.2497033   -5.3321931    43.405585  0.046373488  0.054524068            2 
   79000    1.2074161   -5.3103368     43.69514   0.04609192  0.054529345            2 
   80000    1.2173426   -5.3542091    44.259595  0.046103744  0.054505319            4 
   81000    1.2355725   -5.3057465    44.938889  0.046233425  0.054475382            3 
   82000    1.2075438   -5.3178499    45.409187  0.046147547  0.054441506            1 
   83000     1.241757   -5.2993962    46.161491  0.046346878  0.054411783            2 
   84000    1.2356344   -5.3404283    46.597432  0.046227611  0.054370635            2 
   85000    1.2274827   -5.2833835     47.18655  0.046261323  0.054327786            2 
   86000    1.2511213   -5.3108488    47.765091  0.046284003   0.05427853            1 
   87000    1.2439792   -5.3419787    48.860269  0.046801024  0.054246963            1 
   88000    1.2122071   -5.3038389     49.36257  0.046744858  0.054227703            4 
   89000    1.2553035   -5.3043496    50.087452  0.046898363  0.054217849            1 
   90000    1.2226928   -5.3255692    50.600148  0.046851989  0.054199198            3 
   91000    1.2403681   -5.3062315    51.275021  0.046955148  0.054177407            3 
   92000    1.2189982   -5.3357904    51.996197  0.047098005  0.054147933            3 
   93000    1.2378081   -5.3290975    52.370466  0.046926941  0.054122595            1 
   94000    1.2281513   -5.3368083    53.042829  0.047023784   0.05409722            4 
   95000    1.2358514   -5.2894073    53.760167  0.047158041  0.054071643            1 
   96000    1.2417605   -5.3232509    54.150953  0.047006035  0.054038713            2 
   97000    1.2332794   -5.3196109    55.019953  0.047268001  0.054006389            4 
   98000    1.2349282    -5.324759    55.519522  0.047210478  0.053980261            3 
   99000    1.2325632    -5.343741    56.261678  0.047358315  0.053968836            5 
  100000    1.2474683   -5.3266021    57.359808  0.047799839  0.053966196            3 
  101000    1.2705073   -5.3282909     58.16901  0.047994232  0.053975163            5 
  102000    1.2442124    -5.311185      58.6891  0.047948611  0.053985476            4 
  103000    1.2141951   -5.3232939    59.455509  0.048103163  0.053993666            5 
  104000    1.2451924   -5.3216887    60.369681  0.048373142  0.054020192            6 
  105000     1.245951   -5.3196364    60.810804  0.048262542  0.054040098            2 
  106000    1.2301696   -5.2820715    61.597345  0.048425585  0.054056479            1 
  107000    1.2533151   -5.3141359    61.935495  0.048236367  0.054071986            1 
  108000    1.2546652   -5.3268758    62.683081  0.048366575  0.054075909            2 
  109000    1.2583496   -5.3212229    63.515089  0.048558936  0.054098494            2 
  110000    1.2207732   -5.3433172    64.255732  0.048678585  0.054123189            3 
  111000    1.2306046   -5.3488323    64.910779  0.048731816  0.054144369            4 
  112000    1.2157216   -5.3227066    65.435644  0.048687235  0.054162012            3 
  113000    1.2376545   -5.3102021     65.96909  0.048649771  0.054172042            2 
  114000    1.2168292   -5.3176099    66.671747  0.048736657  0.054172358            4 
  115000    1.2294159   -5.3245675    67.020134  0.048565314  0.054165453            2 
  116000    1.2341791   -5.3255879    67.533807  0.048515666  0.054156261            5 
  117000    1.2503007   -5.3281064    68.334866  0.048671557   0.05414696            3 
  118000    1.2445008   -5.3411916    68.976998  0.048712569  0.054141447            2 
  119000    1.2470613   -5.3115848    69.490967  0.048663142   0.05413734            2 
  120000    1.2330197   -5.3778748    69.983714  0.048599801  0.054125356            3 
  121000    1.2561872   -5.3321105    70.474796  0.048536361  0.054109612            3 
  122000    1.1996206   -5.3351748    70.930341  0.048449686  0.054087995            1 
  123000    1.2461679   -5.3251434    71.769617  0.048624402  0.054066755            4 
  124000    1.2138896   -5.3631805    72.038354  0.048412872  0.054044769            2 
  125000    1.2190194   -5.3027067    73.053912  0.048702608   0.05401869            4 
  126000    1.2217077   -5.3482601    73.383298  0.048533927  0.053999171            1 
  127000    1.2291535   -5.3605726     73.71702  0.048370748  0.053970984            2 
  128000    1.2439313   -5.3440085     74.73448  0.048655261  0.053940871            2 
  129000    1.2318155   -5.3252249    75.212808  0.048587085  0.053916987            2 
  130000    1.2377419   -5.3312344    75.958878  0.048691588  0.053893538            4 
  131000    1.2560253   -5.3268012    76.499282  0.048663665  0.053873227            2 
  132000    1.2377637   -5.2788201    77.191686  0.048732125  0.053846702            2 
  133000    1.2393009   -5.3145688    77.459163   0.04853331  0.053817338            3 
  134000    1.2196394   -5.2858869    78.424281  0.048771319  0.053787383            1 
  135000    1.2060619   -5.3820103    78.712077  0.048587702  0.053762427            3 
  136000     1.246298   -5.3418918    79.418785  0.048663471  0.053735872            5 
  137000    1.2142088   -5.3414736    80.020104  0.048674029   0.05371266            7 
  138000    1.2269917     -5.34445    80.833245  0.048812346  0.053683382            4 
  139000    1.2426411   -5.3241222     81.51806  0.048871738  0.053655774            5 
  140000     1.265813   -5.3128628    82.348658  0.049017058  0.053634047            2 
  141000    1.1979124   -5.3394237    82.875061  0.048980532  0.053620039            2 
  142000    1.2460038   -5.3554585    83.388013  0.048936627  0.053603823            3 
  143000    1.2362907   -5.2987181    84.407255  0.049188377  0.053589534            3 
  144000    1.2107926   -5.3301275    84.595396  0.048955669  0.053576673            2 
  145000    1.2320223   -5.3005158    85.689352  0.049246754  0.053564293            2 
  146000    1.2113859    -5.351752    86.165077   0.04918098  0.053555292            2 
  147000    1.2454787   -5.3156624    87.402824  0.049548086  0.053550737            1 
  148000    1.2517858   -5.3674685    87.197192  0.049097518  0.053540518            2 
  149000    1.2294096   -5.3677244    87.927965  0.049176714  0.053526807            5 
  150000    1.2154388   -5.3894144    88.444052  0.049135584  0.053515088            3 
  151000     1.232154    -5.346969    89.029353  0.049133197  0.053501146            2 
  152000    1.2146426   -5.3794452    89.646097   0.04914808  0.053485678            2 
  153000    1.2231299   -5.3864525    90.264404  0.049163619  0.053472816            2 
  154000    1.2235095   -5.3762405    90.654475  0.049055452  0.053457818            7 
  155000    1.2305674   -5.3530217    91.562599  0.049227204  0.053442496            2 
  156000    1.2170782   -5.3225366    92.960547  0.049658412  0.053429796            2 
  157000     1.211421   -5.3383748    92.859132  0.049288287  0.053424728            3 
  158000    1.2419848   -5.3575157    94.060907  0.049610183  0.053419354            1 
  159000    1.2245921   -5.3800951    94.111154  0.049324504  0.053409976            8 
  160000    1.2334743   -5.3557317    95.112323  0.049537668  0.053405253            2 
  161000    1.2098532   -5.3754195    95.793562  0.049582589  0.053402037            4 
  162000    1.2320312   -5.3292767    96.693363  0.049739384  0.053398399            6 
  163000    1.1845228   -5.3417564    97.489169  0.049841088  0.053400173            2 
  164000    1.2249525   -5.3337286    98.415949  0.050008104  0.053405723            3 
  165000    1.2205986   -5.3817055    98.453085   0.04972378  0.053412511            1 
  166000    1.2487964   -5.3562777    99.371724  0.049885403  0.053417262            1 
  167000    1.2123366   -5.3041591    100.45309  0.050126292  0.053428883            2 
  168000     1.239889   -5.3328081     100.9278  0.050063394  0.053438516            2 
  169000    1.2264781   -5.3359901    101.76857   0.05018174   0.05344819            3 
  170000    1.2334895   -5.3447111    102.29863  0.050146385  0.053457179            7 
  171000    1.2306329   -5.3599029    103.04566  0.050217184  0.053467084            2 
  172000    1.2021192   -5.3564623    103.43737  0.050115005   0.05347558            8 
  173000    1.2312871   -5.3417957    104.08669  0.050138097  0.053477924            2 
  174000    1.2311761   -5.3301629    105.31455  0.050438003  0.053483532            2 
  175000    1.2358589   -5.3568382    105.59493    0.0502833  0.053485204            4 
  176000    1.2191113   -5.3366603    106.15593  0.050263224  0.053490226            2 
  177000    1.2026482   -5.3465379    106.08004  0.049943519  0.053490785            2 
  178000    1.2134755   -5.3524345    107.09704  0.050139062  0.053487311            1 
  179000    1.2175875   -5.3442879    107.65918  0.050120659  0.053486995            1 
  180000    1.2450135   -5.3603018    107.79004  0.049902795  0.053480827            2 
  181000    1.2301256   -5.3441415    108.25594  0.049841591  0.053475246            3 
  182000    1.2330452   -5.3473058    108.41789  0.049641891  0.053461357            2 
  183000    1.2312768   -5.3284163    109.55041  0.049886342  0.053447372            3 
  184000    1.2493916   -5.3548954    110.37288  0.049987716  0.053435004            1 
  185000    1.2065781    -5.345566    110.76219  0.049892877  0.053421378            4 
  186000    1.2395205   -5.3651448    111.87798  0.050124543  0.053410889            4 
  187000    1.2391924   -5.3698076    112.49438  0.050131185  0.053404235            2 
  188000    1.2069437   -5.3770327    112.22769  0.049746318   0.05339306            2 
  189000    1.2095848   -5.3554341    113.43653  0.050016106  0.053381671            3 
  190000    1.2296761    -5.382925    114.23515  0.050103134  0.053373325            6 
  191000    1.1925966   -5.3522529    115.59851   0.05043565   0.05337354            1 
  192000    1.2078827    -5.390379    114.88653  0.049863944  0.053369874            6 
  193000    1.2229323     -5.35621     116.2028  0.050173921  0.053363402            2 
  194000    1.2240605   -5.3720782     117.1116   0.05030567  0.053359992            2 
  195000    1.2158635   -5.3155863    117.78632  0.050336032  0.053356292            2 
  196000    1.2179566   -5.3814318    118.53859  0.050399061  0.053357358            2 
  197000    1.2024941   -5.3747096    119.58693  0.050586686  0.053358795            3 
  198000    1.2257733   -5.3577534    120.43334  0.050687435   0.05336464            3 
  199000    1.2226096    -5.380665    121.11976  0.050720169  0.053374316            1 
  200000    1.2147989   -5.3484275    121.90359  0.050793163  0.053387225            2 
  201000    1.2464224   -5.3436038    122.45847  0.050770511  0.053400166            2 
  202000     1.252658   -5.3374155    123.23894  0.050841147  0.053411751            3 
  203000    1.2326115   -5.3473406    123.64896  0.050759013  0.053421299            3 
  204000    1.2383744   -5.3706568    124.70685  0.050942341   0.05342892            2 
  205000    1.2254916    -5.364952    124.39323  0.050566353  0.053437272            2 
  206000    1.2175883   -5.3443671    125.56622  0.050795395  0.053442801            3 
  207000    1.2533784    -5.374893    125.50857  0.050526798  0.053446309            7 
  208000    1.2005303   -5.3705184    126.19177    0.0505576  0.053449719            4 
  209000    1.2045211     -5.37324    126.85498  0.050580135  0.053449782            2 
  210000    1.2193755   -5.3606891    127.63966  0.050650659  0.053449235            2 
  211000     1.192559   -5.3834872     128.4462  0.050729145  0.053452773            3 
  212000    1.2204162   -5.3453351    129.44119   0.05088097  0.053455613            3 
  213000     1.232422   -5.3545108    129.13485   0.05052224  0.053456576            1 
  214000    1.2060423   -5.3931503    130.00294  0.050624198  0.053456869            3 
  215000    1.2187691   -5.3330125     130.9661  0.050762056  0.053457823            2 
  216000    1.1949098   -5.3943688    131.66159  0.050795366  0.053461173            3 
  217000    1.2146005   -5.3878759    132.39534  0.050843063  0.053464949            2 
  218000    1.2089676   -5.3363843    133.34646  0.050973419  0.053473253            2 
  219000    1.2444718   -5.3909835    133.32599  0.050732872  0.053480227            5 
  220000    1.2195918   -5.3991578    134.15246  0.050815326  0.053483255            1 
  221000    1.2419598   -5.3621494    135.44152  0.051071461  0.053487183            3 
  222000    1.2075406   -5.3740518    135.74439  0.050955103  0.053496627            3 
  223000    1.2494877   -5.3430571    136.83066  0.051132535  0.053502166            1 
  224000    1.2206003   -5.3463059    137.21265  0.051046373  0.053509933            4 
  225000    1.2149518   -5.3513641    138.04336  0.051127171  0.053517269            2 
  226000    1.2389117    -5.361154     138.8732  0.051206931  0.053525662            3 
  227000    1.2206018   -5.3685807    139.63628  0.051261481  0.053536979            1 
  228000     1.192625   -5.3204482    140.37274  0.051305828  0.053548656            2 
  229000    1.2175303   -5.3755599    140.90758  0.051276413  0.053558635            3 
  230000    1.2182932   -5.3446267    141.79371  0.051374531  0.053567361            2 
  231000    1.2242356    -5.369817    141.79645  0.051153121  0.053574741            2 
  232000    1.2181585   -5.4146539    142.11285  0.051046283   0.05358115            3 
  233000    1.2189207   -5.3502342    143.17327  0.051206462  0.053589598            2 
  234000    1.2262256   -5.3843636      144.244  0.051368945  0.053600126            4 
  235000    1.2265901   -5.3415542    144.60618  0.051278787   0.05360948            1 
  236000    1.2123058   -5.3875108     144.5181  0.051030403  0.053615302            3 
  237000    1.2369784   -5.3832478     145.7784  0.051258228  0.053618742            4 
  238000     1.219873    -5.348136    146.35814  0.051245847  0.053622035            2 
  239000    1.2264528   -5.4083846    146.51503  0.051086132  0.053624208            2 
  240000    1.1989324   -5.4365774    146.96845  0.051030712  0.053627862            2 
  241000    1.1839555   -5.3653134     148.3061  0.051281501  0.053633309            2 
  242000    1.2099073   -5.3322036    148.86022  0.051260405  0.053636656            2 
  243000    1.2019354   -5.3883997     148.7591  0.051014779  0.053638308            2 
  244000    1.1825115   -5.3984313    149.93504  0.051207321  0.053639785            2 
  245000    1.2340258   -5.3754058     150.5827  0.051218604  0.053643184            2 
  246000    1.1997201   -5.3458866    151.09417  0.051183662  0.053644893            2 
  247000    1.2143552   -5.3516102    152.23003  0.051359658  0.053646102            2 
  248000    1.2413601   -5.3682421    152.19705  0.051141482  0.053645238            2 
  249000     1.185778   -5.3649387    152.35477  0.050988879  0.053644076            2 
  250000    1.1947681   -5.4166821    152.94715  0.050982382   0.05363994            3 
  251000    1.1995448    -5.371041    154.07002  0.051152066  0.053633641            2 
  252000    1.2329896    -5.380888    154.43676  0.051070358  0.053629654            1 
  253000    1.2328956   -5.3875505    154.73278     0.050966  0.053626489            3 
  254000    1.2281914   -5.3949335     155.6581   0.05106893  0.053623316            2 
  255000    1.2376354   -5.3678134    156.03309  0.050991207  0.053620874            2 
  256000    1.1799011   -5.3723511     156.5915  0.050973797  0.053616083            3 
  257000    1.2176428   -5.3569373    157.90578  0.051201614  0.053610778            2 
  258000    1.2229781   -5.3739508    158.59746  0.051226571  0.053607606            2 
  259000    1.2032613   -5.3969001    158.89888  0.051125766   0.05360395            3 
  260000    1.2012935   -5.3925034    159.50525  0.051123476  0.053599957            2 
  261000    1.2316785   -5.4175921    159.33956    0.0508747  0.053593241            2 
  262000    1.1935897    -5.351748    160.28831  0.050982287  0.053584944            2 
  263000    1.2005014    -5.370534    160.52275  0.050862722  0.053576112            2 
  264000     1.188691    -5.384231    161.74016  0.051054342  0.053569252            2 
  265000    1.2393159   -5.3971093    161.81791  0.050886137  0.053559782            3 
  266000    1.1972091    -5.347331    162.61492  0.050944524  0.053551028            1 
  267000    1.2080979   -5.3851751    162.02226  0.050568744  0.053537286            2 
  268000    1.1919748   -5.3642201    162.74461  0.050604668   0.05352266            3 
  269000    1.2238832   -5.3762421    163.74526  0.050726537  0.053508758            2 
  270000    1.1998718   -5.3328926    164.37125  0.050731869  0.053495039            1 
  271000    1.2006535   -5.3762888    163.88895  0.050396356  0.053478717            2 
  272000    1.1895123   -5.3802151    165.05656    0.0505688  0.053460528            6 
  273000     1.232708   -5.3476339    165.81594  0.050615366  0.053441718            3 
  274000    1.2138888   -5.3874279    165.73059   0.05040468  0.053424743            1 
  275000    1.2048692   -5.3802961    167.73505  0.050828802   0.05341004            1 
  276000    1.2163144   -5.3855071    167.23725  0.050494337   0.05339484            2 
  277000    1.2079922   -5.3548641    168.69287   0.05074996  0.053379955            2 
  278000     1.208507   -5.3979082    168.29007  0.050446663  0.053367091            1 
  279000    1.2230757   -5.4001146    169.14216  0.050520359  0.053353247            4 
  280000    1.2020304   -5.3902469    169.11699  0.050332436  0.053336698            2 
  281000    1.2283203   -5.4230865    170.12177  0.050451297  0.053317527            4 
  282000    1.2033233   -5.3260084    170.71983  0.050449121  0.053298369            1 
  283000     1.201364   -5.3570562    171.73035  0.050568418  0.053283544            2 
  284000    1.1863919   -5.4089178    172.24136  0.050540305  0.053267608            2 
  285000      1.21704   -5.4141712    172.80004  0.050526327   0.05325214            2 
  286000    1.2131966   -5.4186619    173.43997  0.050536121  0.053237464            2 
  287000    1.1983685   -5.3888645    174.05235  0.050537848  0.053218667            2 
  288000     1.187166   -5.3951383    174.04281  0.050359609  0.053202536            2 
  289000    1.2064985   -5.3766629    175.25664  0.050535364   0.05318496            3 
  290000    1.2258094   -5.3756558    175.13199  0.050325283  0.053164522            1 
  291000     1.208542    -5.395057    175.92044  0.050378134  0.053146395            3 
  292000    1.2283367   -5.4081689    176.06601  0.050247148  0.053128515            2 
  293000    1.2056982   -5.3396053    177.40621  0.050456829  0.053109907            2 
  294000     1.209249    -5.409438    177.69986  0.050368442  0.053092181            1 
  295000    1.2113488    -5.395973    178.54132  0.050435402  0.053073378            2 
  296000    1.2049155   -5.4305344    178.81015  0.050340696  0.053055871            2 
  297000    1.2094229   -5.3687313    180.08231  0.050528146  0.053039655            2 
  298000    1.1680815   -5.3817688    180.72484  0.050538267  0.053024479            3 
  299000    1.1866304   -5.4049698    181.56274  0.050602769  0.053011062            3 
  300000    1.1709414    -5.444822    181.38239  0.050383998  0.052997556            2 
  301000    1.1771359   -5.3385049     183.3999  0.050775166  0.052985105            2 
  302000    1.2161828   -5.3817465    183.24917  0.050565445  0.052972171            5 
  303000    1.2053674   -5.3891244    182.95219  0.050316882  0.052960035            4 
  304000    1.1757598   -5.3818615    184.22427  0.050500074   0.05294682            2 
  305000    1.1871189   -5.3503503    184.58884   0.05043411  0.052933712            1 
  306000    1.1888312   -5.3702834    186.63333  0.050826069  0.052921847            3 
  307000    1.2148194   -5.3558595    187.15962  0.050803372  0.052912161            3 
  308000    1.1987991   -5.3611949     187.0273  0.050602625  0.052902165            2 
  309000     1.206266   -5.4069834    187.13772  0.050468641  0.052892521            2 
  310000    1.1977782   -5.3706485    189.20979  0.050862847  0.052880668            3 
  311000    1.1744958   -5.3848618    189.80443  0.050858636  0.052870454            1 
  312000    1.2270318   -5.3551202    189.52375   0.05062066  0.052860387            2 
  313000    1.1908721   -5.3575418     190.3308  0.050673801  0.052850427            2 
  314000    1.1918838   -5.4331125    190.45214  0.050544623  0.052839356            3 
  315000    1.1847451    -5.379276    191.67877  0.050708669  0.052826208            5 
  316000    1.1750549   -5.3483097    191.80394  0.050581208  0.052814525            1 
  317000    1.2077771   -5.3879491    192.45284   0.05059223   0.05280249            3 
  318000    1.1915293   -5.4080791    192.30161  0.050393504  0.052790705            2 
  319000    1.2062293   -5.3928216    193.97287  0.050672118  0.052778451            1 
  320000    1.1876096   -5.3802263    193.88498  0.050490879  0.052767898            2 
  321000    1.1757867    -5.355641    195.05383  0.050637026  0.052757799            1 
  322000    1.1769328   -5.4122608    195.46631   0.05058652  0.052746631            3 
  323000    1.1805792   -5.3909736    195.92327  0.050547799  0.052735804            3 
  324000    1.1937369   -5.4037691    195.59225  0.050306649  0.052725621            2 
  325000    1.1936989   -5.3851238    197.34677  0.050601736  0.052715188            2 
  326000    1.2161036   -5.4202287    197.99165  0.050611363  0.052704723            3 
  327000    1.2181233   -5.4459363    197.99013  0.050456199  0.052697106            4 
  328000    1.1854588   -5.3814569    199.97719  0.050807214  0.052688906            2 
  329000    1.1884841   -5.4335368    199.71796  0.050587123  0.052682231            3 
  330000    1.1968076   -5.4002805    200.67029  0.050674315  0.052674885            1 
  331000    1.2164418   -5.3465954    202.03396  0.050864542  0.052667959            3 
  332000    1.2084184    -5.423105     201.7233  0.050633358  0.052660021            1 
  333000    1.1907339   -5.4227231    202.17453  0.050594225  0.052652185            1 
  334000    1.2145944   -5.3783009    203.64588   0.05080985  0.052642517            2 
  335000    1.2003649   -5.3939988    204.28651  0.050817539  0.052634654            3 
  336000    1.1932589   -5.4142855    205.00651  0.050844868  0.052628598            1 
  337000    1.2018422   -5.4037483    205.07792  0.050711651  0.052622138            2 
  338000    1.1926785   -5.3656566      206.505   0.05091346  0.052615632            3 
  339000    1.2048516   -5.3720443    206.10261  0.050664359  0.052609333            4 
  340000    1.2007838   -5.4197116    206.22454   0.05054523  0.052602762            2 
  341000    1.1862814   -5.4374029    207.14537  0.050622034  0.052594237            1 
  342000    1.1981173   -5.4169154    208.16051  0.050721371  0.052586915            4 
  343000    1.1656723   -5.4455334    208.71575  0.050708394  0.052581251            1 
  344000    1.1800168   -5.3742922    211.50199  0.051235947  0.052577694            2 
  345000    1.2051213   -5.4111612    211.47943  0.051081988  0.052575296            2 
  346000     1.187633   -5.3985926    211.33608  0.050899826  0.052572464            2 
  347000    1.1873966   -5.4023633    212.15888  0.050950739  0.052569154            5 
  348000    1.1701302   -5.3896962    213.07692  0.051024166  0.052567494            4 
  349000    1.2070707   -5.4417021    212.51343  0.050743418  0.052564541            2 
  350000    1.1989162   -5.4070659    213.25265  0.050774439  0.052559562            4 
  351000    1.2286734   -5.4657306    213.70285  0.050736668  0.052552347            2 
  352000    1.1901562    -5.400666    214.15386  0.050699304   0.05254786            1 
  353000    1.1912749    -5.401226    215.02559  0.050761472  0.052543633            3 
  354000    1.2132913   -5.4005062    215.82057  0.050805219  0.052537569            4 
  355000    1.2139361    -5.455153    215.20741   0.05051817  0.052530285            2 
  356000    1.1842933   -5.4407964    216.81975  0.050753687  0.052524389            2 
  357000    1.2004902   -5.3951704    217.67176  0.050810402   0.05251799            1 
  358000    1.1923945   -5.3717097    219.10223  0.051001449  0.052513706            1 
  359000    1.1836885   -5.3950383    219.08262  0.050854832  0.052508117            2 
  360000    1.1975383   -5.4576275    218.64626   0.05061256  0.052501695            2 
  361000    1.2196035   -5.4175108     219.5599  0.050683263  0.052494486            6 
  362000    1.2145369   -5.3993584    220.96226  0.050866082  0.052486602            2 
  363000    1.2018971    -5.395993    220.63927  0.050651806  0.052478664            3 
  364000    1.2062877   -5.3873064    221.78711  0.050775437  0.052470227            2 
  365000    1.1941066   -5.4237703     222.1661  0.050722853  0.052461807            3 
  366000    1.1860014   -5.3841047    222.34078   0.05062404   0.05245331            1 
  367000    1.1760903   -5.3967845    223.64953  0.050783272  0.052443662            1 
  368000    1.1998881   -5.3818563    224.37873    0.0508104  0.052435322            2 
  369000    1.1618696   -5.4267972    223.20167  0.050406881  0.052425912            4 
  370000    1.1765154   -5.4056279    223.93917  0.050436749  0.052414565            5 
  371000    1.1946028   -5.4207652    224.86674  0.050509151  0.052403041            2 
  372000    1.1721406   -5.4125369     225.5784  0.050532797  0.052392526            3 
  373000    1.2053263    -5.414354    226.31093  0.050560976  0.052383196            1 
  374000    1.1647523   -5.4261554    227.23276  0.050631186  0.052375304            2 
  375000    1.2239735   -5.4317932    227.64835  0.050588521   0.05236779            1 
  376000    1.2069428   -5.4358808    228.48305  0.050638974  0.052360632            4 
  377000     1.191526    -5.418203    229.78308  0.050792015   0.05235562            3 
  378000    1.1976529   -5.3878013    230.46078  0.050807051  0.052351658            5 
  379000    1.1944299   -5.4323576     231.3113  0.050860004  0.052348444            2 
  380000    1.1919112   -5.4485048    231.09848  0.050679491  0.052342692            2 
  381000    1.1916758     -5.42455    232.29847  0.050808939  0.052335318            2 
  382000    1.2052551    -5.397134    232.64931  0.050752468  0.052328535            2 
  383000    1.1769458   -5.4281653    232.92448  0.050679827  0.052321554            1 
  384000    1.1821515   -5.3852983    233.35823  0.050641977  0.052314999            1 
  385000    1.1782062   -5.4243203    233.30322  0.050498532  0.052306065            2 
  386000     1.177498   -5.3938388    234.14824  0.050550138  0.052297538            3 
  387000    1.1957416   -5.4697204    232.94809  0.050161088  0.052287819            2 
  388000    1.1813526   -5.4181296    235.59956   0.05060128  0.052277997            2 
  389000    1.1733754   -5.4454886    235.99998   0.05055698   0.05226853            3 
  390000    1.1805408   -5.4099392    236.67222  0.050570986  0.052260451            2 
  391000     1.190201   -5.4081825    237.11358  0.050535715  0.052252454            3 
  392000     1.191613   -5.4069971    237.42485   0.05047297  0.052243972            5 
  393000    1.2134064    -5.458182    237.73386  0.050410063  0.052234055            2 
  394000    1.1697964    -5.398199    238.68067  0.050482375  0.052224397            2 
  395000     1.213065   -5.4365378    239.61698  0.050552105  0.052215716            2 
  396000    1.2000152   -5.3821413    241.20128  0.050757845  0.052206845            3 
  397000    1.1812444   -5.4265214    240.50985  0.050484855  0.052197452            3 
  398000    1.2248309   -5.4352425    240.40684   0.05033644  0.052187242            3 
  399000    1.1867427   -5.4135602     241.2006  0.050376065  0.052175298            2 
  400000    1.1802833   -5.4237034    241.64825  0.050343386  0.052164814            2 
  401000    1.1727509    -5.435222    242.82039  0.050461427  0.052153567            2 
  402000    1.1743645   -5.4203715    242.70771  0.050312544  0.052143542            2 
  403000    1.1746586   -5.4194505    243.58853  0.050369836  0.052131525            2 
  404000    1.1942738   -5.4447487    244.03841  0.050337956  0.052119457            2 
  405000    1.1888916   -5.4105434    244.21655  0.050250319  0.052108059            2 
  406000    1.2114634   -5.3995336    245.24049  0.050336719  0.052095453            3 
  407000    1.1963636   -5.4396043     245.6272  0.050292219  0.052083385            3 
  408000    1.1778382   -5.4241095    246.05949  0.050257249  0.052071522            1 
  409000    1.2100548   -5.4233204    245.91787  0.050105515  0.052058708            2 
  410000    1.1721083   -5.4478901    246.72378  0.050147109  0.052046047            7 
  411000    1.1860894   -5.4218975    247.19504  0.050120648  0.052033204            3 
  412000    1.2011988   -5.4159203    247.72744  0.050106682  0.052020552            2 
  413000    1.1735399   -5.4029544    249.09309  0.050260915  0.052007145            2 
  414000    1.1827752   -5.4060177    249.27945  0.050177023  0.051993677            2 
  415000    1.2073441   -5.3924001    249.38504  0.050077317  0.051980293            2 
  416000    1.1737827   -5.3767256    250.73203  0.050226768  0.051966044            2 
  417000    1.1838863   -5.3737074    251.08316  0.050176491  0.051952454            2 
  418000    1.1707827   -5.4558689    250.88841  0.050017627  0.051938247            6 
  419000    1.1891628   -5.4015051    252.23873  0.050166812  0.051924041            3 
  420000    1.1988453   -5.4529599    250.56045  0.049714374  0.051909362            3 
  421000    1.1757166   -5.4089266    252.41518  0.049963417  0.051893849            2 
  422000     1.186445   -5.3756195    252.40504  0.049843018   0.05187883            1 
  423000    1.1882312   -5.4078745    253.25465  0.049892564  0.051861697            3 
  424000    1.1893732    -5.461176    252.62305  0.049650756  0.051842567            4 
  425000    1.1788298   -5.3963859    253.86361  0.049777178  0.051824051            5 
  426000    1.1795419   -5.4144198    254.30605   0.04974688  0.051806585            2 
  427000    1.1764842   -5.4315835    254.58708  0.049685222  0.051789079            3 
  428000    1.1601806   -5.4441432    254.89894  0.049629856  0.051771598            4 
  429000    1.2456782    -5.425194    255.47477  0.049626023  0.051754549            3 
  430000    1.1929991   -5.4555416    255.95302  0.049603297  0.051737125            3 
  431000    1.1592376   -5.4539883    255.83314  0.049465031  0.051718113            5 
  432000     1.180693   -5.4831857    256.35475  0.049451148  0.051697461            2 
  433000     1.175007   -5.4324282    257.30852    0.0495205  0.051677971            3 
  434000     1.188515   -5.4659836    257.20854    0.0493872  0.051659315            2 
  435000     1.200908   -5.4593262    259.21715  0.049658458   0.05164127            6 
  436000     1.223464   -5.4409313    259.36835  0.049573462  0.051624258            3 
  437000    1.1822067   -5.4035497     260.2235  0.049623092  0.051605962            3 
  438000    1.1603489    -5.399212    260.72801  0.049605786  0.051588694            3 
  439000    1.1857112   -5.3946983     261.6284  0.049663706   0.05157014            1 
  440000    1.1885772   -5.4473292    261.02203   0.04943599  0.051552326            1 
  441000    1.1589392   -5.4239101     260.9481  0.049309921   0.05153431            2 
  442000    1.1859629   -5.4080296    262.96419  0.049578467  0.051516024            2 
  443000    1.1632808   -5.4608434     261.9875  0.049282826  0.051496803            2 
  444000    1.1681687   -5.4288488    263.70823  0.049494787   0.05147752            3 
  445000    1.1973185   -5.4656499     263.3451  0.049315562  0.051458769            4 
  446000    1.1619262   -5.4345474    264.83867  0.049484055  0.051440967            2 
  447000    1.1632239    -5.463063    264.76253   0.04935916  0.051423392            2 
  448000    1.1996847    -5.468996    264.72323  0.049241672  0.051405823            2 
  449000     1.177048   -5.4189785    266.04967  0.049378187  0.051386617            2 
  450000    1.1664251   -5.4718285    266.05392  0.049269244   0.05136786            2 
  451000    1.1899214   -5.4278777    266.94845  0.049325287   0.05135012            3 
  452000    1.1813602    -5.453857    268.36746  0.049477776  0.051333314            1 
  453000    1.1764927   -5.4108568    268.13561  0.049325904   0.05131602            1 
  454000    1.1623707   -5.4483761    268.71083   0.04932284  0.051299064            3 
  455000    1.1554329   -5.4061465    270.49307  0.049540856   0.05128217            2 
  456000    1.1542764   -5.4078523    270.53389  0.049439672  0.051264911            4 
  457000    1.1873078   -5.4063995    271.08421   0.04943184  0.051246822            1 
  458000    1.2034033   -5.4460058    269.33205  0.049005103   0.05122778            2 
  459000     1.177697   -5.4261117    271.49057  0.049290227  0.051208994            2 
  460000    1.1825085   -5.4349269    272.64003  0.049391309  0.051191884            4 
  461000    1.1717986   -5.4361402    273.56058  0.049450575  0.051176132            3 
  462000    1.2057997   -5.4763529      272.171  0.049092893  0.051157824            2 
  463000    1.1885947   -5.4833705    274.15896  0.049344665  0.051139065            2 
  464000    1.1867617   -5.4766651    273.78711  0.049171536  0.051121823            1 
  465000    1.1888802   -5.4383856     274.5571  0.049203782  0.051104123            3 
  466000    1.1809234   -5.5054425     273.8599  0.048973515  0.051086711            1 
  467000    1.1629002   -5.4415435    275.82463  0.049219242  0.051068447            4 
  468000    1.1634533   -5.4264304    276.33566  0.049205067  0.051051176            4 
  469000    1.1685707   -5.4829066    275.83174  0.049010615  0.051032554            3 
  470000    1.1736793   -5.4656544    276.87821  0.049091881  0.051013478            6 
  471000    1.1782581   -5.4647459    276.66946  0.048950718  0.050994978            4 
  472000    1.1820865   -5.4500187     277.3165  0.048961246  0.050976722            3 
  473000    1.1844044   -5.4918567    276.67506  0.048744725  0.050959253            2 
  474000    1.1741297   -5.4950486    278.81666    0.0490184  0.050940722            6 
  475000    1.1892789   -5.4408318    280.57032  0.049222863  0.050923025            5 
  476000    1.1616531   -5.4341937    280.74182  0.049149478  0.050906585            3 
  477000    1.1537024   -5.3967498    281.94576  0.049256771  0.050891918            4 
  478000    1.1870624   -5.4849654    281.30469  0.049041961  0.050875513            5 
  479000    1.1784846   -5.4415608     283.1359  0.049258159  0.050861168            2 
  480000    1.1898076   -5.4556012     283.5323  0.049224357  0.050847226            2 
  481000    1.1762514   -5.4476765    283.95061  0.049194493  0.050832461            3 
  482000    1.1844536   -5.4660212    285.43481  0.049349034  0.050818529            1 
  483000    1.1790709   -5.4539009    284.98503  0.049169259  0.050804103            2 
  484000    1.1770369   -5.4586684     284.5201   0.04898762  0.050788649            1 
  485000    1.1806694   -5.4200294    286.17323  0.049170658   0.05077328            2 
  486000     1.174584   -5.4662936     286.2639  0.049085031  0.050757307            3 
  487000     1.180886   -5.4733785    286.07581  0.048952056  0.050741098            1 
  488000    1.1680906   -5.4619587    287.85314  0.049155249  0.050724584            2 
  489000    1.1628103   -5.4212982    287.70542  0.049029554  0.050708139            2 
  490000    1.1910852   -5.4148343    287.50228  0.048894946  0.050691864            2 
  491000     1.167333    -5.461958    288.74172  0.049005723  0.050675281           10 
  492000    1.1780986   -5.4439291    289.50665  0.049035679  0.050659215            1 
  493000    1.1927616   -5.4186854    289.83609  0.048991901  0.050643349            2 
  494000     1.164848   -5.5043986     289.5124  0.048838124  0.050627001            4 
  495000    1.2003712    -5.466001    289.94396  0.048812114  0.050609148            1 
  496000    1.1731171    -5.453847    291.88035  0.049039037  0.050593706            2 
  497000     1.182383   -5.4424061    292.93464  0.049117142  0.050578802            1 
  498000    1.1849379    -5.476316    292.79749  0.048995564  0.050563963            3 
  499000    1.1656358   -5.4613257    292.17641  0.048793656  0.050549203            4 
  500000    1.1846937   -5.4521639    293.25808  0.048876346  0.050534136            6 
  501000    1.1815733   -5.4582856    294.66938  0.049013536  0.050518491            1 
  502000    1.1612911   -5.4558712     295.3017  0.049020866  0.050504567            4 
  503000    1.1703298   -5.4250462    296.66917  0.049149962   0.05049011            1 
  504000    1.1579502   -5.4914239    295.98304  0.048938995  0.050476263            2 
  505000    1.1895962   -5.4089326    297.65668  0.049118264  0.050463156            3 
  506000     1.183535    -5.404885    298.32448  0.049131173  0.050450284            1 
  507000    1.1692409   -5.4514533    299.97906  0.049306224  0.050437501            3 
  508000    1.1528848   -5.5035259    298.34128  0.048940498   0.05042344            2 
  509000    1.1939767   -5.4337784    299.79459  0.049082284  0.050411234            2 
  510000     1.183215   -5.4394647    301.87987  0.049326776  0.050399638            3 
  511000    1.1703761   -5.4405087    301.53417   0.04917387  0.050388095            3 
  512000    1.1896583   -5.4598205    301.67578  0.049100875   0.05037609            2 
  513000    1.1574874   -5.4548201    302.26255   0.04910048  0.050363345            2 
  514000    1.1463989   -5.4318347    302.76942   0.04908713  0.050351595            3 
  515000    1.1902768    -5.485282    302.32701  0.048920228  0.050338816            3 
  516000    1.1688978   -5.4797766    303.97364   0.04909135  0.050327116            2 
  517000    1.1665011   -5.4664745    303.36557  0.048898383  0.050314656            3 
  518000     1.159358   -5.4380332    304.57231   0.04899812  0.050301419            2 
  519000    1.1715661   -5.4787251    304.19381  0.048842937  0.050288358            2 
  520000    1.1650918   -5.5261643    304.35218  0.048774388  0.050274636            3 
  521000    1.2027658   -5.4616827    305.46519  0.048858795  0.050259882           12 
  522000    1.1935673   -5.4530958    306.91529  0.048996694   0.05024649            4 
  523000    1.1891432   -5.4625166    307.36721  0.048975018  0.050234089            2 
  524000    1.1531076   -5.4693801    305.32199  0.048556295  0.050221509            5 
  525000    1.1576509   -5.4856277    307.06251  0.048740082  0.050209439            3 
  526000    1.1640449   -5.4715279    307.44142  0.048707449  0.050195921            4 
  527000    1.1294611   -5.4564914    309.28645  0.048906776  0.050182865            4 
  528000    1.1665703   -5.4437308    310.71444  0.049039527  0.050169073            3 
  529000    1.1871079   -5.4547794    308.98894  0.048675006  0.050155289            2 
  530000    1.1576706    -5.452873    311.10769  0.048916303  0.050141719            2 
  531000    1.1626845   -5.4797951      310.333  0.048702606  0.050127431            2 
  532000    1.1774902   -5.4359658    311.99414  0.048871262  0.050113855            2 
  533000    1.1619943   -5.4592131    310.97048  0.048619524  0.050099874            2 
  534000    1.1427631   -5.5021053    310.90615  0.048518438  0.050085255            8 
  535000    1.1720401   -5.4451119    313.21518  0.048787411  0.050070298            4 
  536000    1.1670074    -5.432683    314.39437  0.048879721  0.050055593            3 
  537000     1.167669   -5.4088293    314.20163  0.048758788  0.050040871            3 
  538000    1.1593696   -5.4793843    312.33403  0.048378877  0.050026106            4 
  539000    1.1555425   -5.4807184    313.57623  0.048481173  0.050011088            1 
  540000    1.1724791   -5.5051547    313.59912  0.048394926  0.049995198            2 
  541000    1.1358288   -5.4774375    315.36768  0.048577894  0.049980662            3 
  542000    1.1643609   -5.4642371    316.33576  0.048637109  0.049966058            2 
  543000    1.1554731   -5.4627207    317.05946  0.048658603  0.049952307            6 
  544000     1.162698   -5.4886764    317.70018  0.048667307  0.049937756            6 
  545000    1.1498167   -5.4569342    317.40251  0.048532494  0.049923438            2 
  546000    1.1560525   -5.4589048    318.34084  0.048586819  0.049908897            6 
  547000    1.1423044   -5.4705487    318.45222  0.048514964  0.049895124            3 
  548000    1.1618832   -5.4684415    319.80058  0.048631475  0.049881854            5 
  549000    1.1732422   -5.4730423    319.56983  0.048507867  0.049868084            4 
  550000    1.1420113   -5.4673045    319.71394  0.048441505  0.049853216            3 
  551000    1.1734302   -5.5081936     319.4697  0.048316651  0.049838266            5 
  552000    1.1381366   -5.5136837    319.71489  0.048266136  0.049822137            1 
  553000    1.1442126   -5.4426833    322.28006   0.04856541  0.049806922            5 
  554000    1.1320913   -5.4347435    321.48809  0.048358618  0.049792314            2 
  555000    1.1661652   -5.5144488    321.48026  0.048270309  0.049777216            1 
  556000    1.1530803   -5.4882908     323.3033  0.048456729  0.049761486            2 
  557000    1.1361671   -5.4813841    322.56769  0.048259678  0.049747562            1 
  558000    1.1603246    -5.473653    323.96913  0.048382486  0.049733372            1 
  559000    1.1725386   -5.4916537    323.06115  0.048160577  0.049718374            3 
  560000    1.1562463   -5.4863586    324.31303  0.048260867  0.049703079            4 
  561000    1.1587739   -5.4624616     324.1349  0.048148381   0.04968728            2 
  562000    1.1401981   -5.4674267    325.51502  0.048267351  0.049672417            2 
  563000    1.1679669   -5.5366929    324.31789  0.048004424  0.049656224            2 
  564000    1.1857353   -5.4765578    326.37617   0.04822343  0.049639776            2 
  565000    1.1357939   -5.4439625    327.54246  0.048310097  0.049624824            2 
  566000    1.1398378   -5.4980666    327.77418   0.04825886  0.049609656            2 
  567000    1.1628866   -5.5095995    326.73186  0.048020555  0.049594359            5 
  568000    1.1590522   -5.4516302    329.56876  0.048352225  0.049579403            2 
  569000    1.1535205   -5.4655776    328.91243  0.048171123  0.049564426            2 
  570000    1.1524956   -5.5000498     327.5808   0.04789193  0.049549424            3 
  571000    1.1437679   -5.4686042    330.27456  0.048201191  0.049534569            2 
  572000    1.1599598   -5.4690391    330.46409  0.048144536  0.049518899            3 
  573000    1.1450334   -5.4775058    330.75167  0.048102337  0.049505082            2 
  574000    1.1549541   -5.4692031     333.5049  0.048418249  0.049491285            2 
  575000    1.1609739   -5.4711408     332.1007  0.048130536  0.049477374            3 
  576000    1.1625903   -5.5079033    332.77632  0.048144722  0.049462386            7 
  577000    1.1652571   -5.4825519    332.41652  0.048009319  0.049447998            2 
  578000    1.1662519   -5.5279799    334.05306  0.048162206  0.049432851            2 
  579000    1.1650429   -5.4995939    334.28764  0.048112786  0.049419015            3 
  580000    1.1627601   -5.4498226    336.03699  0.048281177  0.049405499            3 
  581000    1.1369063   -5.5320935    335.54634  0.048127703   0.04939164            2 
  582000    1.1393927   -5.4788814    337.68422   0.04835112  0.049379698            3 
  583000    1.1553676   -5.5402917    337.44406  0.048233856  0.049367431            2 
  584000    1.1690969   -5.5137807    337.95234  0.048223793  0.049355433            3 
  585000    1.1479039   -5.4628173    339.45306  0.048355136  0.049343513            4 
  586000    1.1611956   -5.5109024    339.42657  0.048268853  0.049330951            3 
  587000    1.1678137   -5.5217162    340.94766  0.048402563  0.049319121            2 
  588000     1.191622   -5.4759339    340.83633  0.048304469  0.049308022            3 
  589000    1.1351392    -5.520032    340.81031  0.048218776  0.049295922            2 
  590000    1.1669934   -5.4774569    341.35921  0.048214578  0.049283234            2 
  591000    1.1470903   -5.4874601    341.13582  0.048101498  0.049269963            2 
  592000    1.1562799    -5.539253     341.0119  0.048002801  0.049256419            3 
  593000    1.1432173   -5.4911662    341.24565  0.047954701  0.049242543            2 
  594000    1.1604948   -5.4646966    341.80123  0.047951912  0.049227877            3 
  595000    1.1712609   -5.4354729    343.90839  0.048166442  0.049214097            4 
  596000    1.1550229   -5.5071778    341.78482  0.047788706  0.049199133            3 
  597000    1.1397413    -5.483651    343.46543  0.047943248  0.049184144            3 
  598000    1.1386996   -5.4727741    343.84218  0.047915577  0.049169399            4 
  599000    1.1331163   -5.4622252    345.69048   0.04809272  0.049155343            3 
  600000    1.1673041   -5.4485048     345.1356    0.0479355  0.049141233            2 
  601000    1.1562389   -5.5034916    344.96508  0.047832097  0.049127197            2 
  602000    1.1515026   -5.5504217      344.997  0.047757059  0.049113328            2 
  603000    1.1695128   -5.5127377    347.09225   0.04796742  0.049098682            5 
  604000    1.1749143   -5.4819271    347.45973  0.047938705  0.049084761            3 
  605000    1.1425531   -5.5072811    346.54416  0.047733356  0.049070865            2 
  606000    1.1527807   -5.5110661     348.4481  0.047916406  0.049056523            1 
  607000    1.1643913   -5.5160739    348.63285  0.047862829  0.049043048            3 
  608000    1.1384875   -5.4816665    348.27416  0.047734945  0.049029285            2 
  609000    1.1691344   -5.5212334    348.20981  0.047647757  0.049014701            6 
  610000    1.1440512    -5.459525    350.70109  0.047909985  0.049000822            3 
  611000    1.1125396   -5.4840106    350.89278  0.047857717    0.0489874            4 
  612000    1.1473308   -5.4744251    351.54213  0.047867936  0.048973757            3 
  613000    1.1594466   -5.5225919    350.34764  0.047627465   0.04896044           11 
  614000    1.1503295   -5.4866729    352.73273  0.047873606  0.048947249            3 
  615000    1.1442678   -5.4810308    354.33766  0.048013233    0.0489352            3 
  616000    1.1601042   -5.5103345    353.38836  0.047806867  0.048922214            1 
  617000    1.1421488   -5.5076082    354.27569  0.047849229  0.048910152            3 
  618000    1.1415895   -5.5466543    353.15542  0.047620742  0.048897904            3 
  619000    1.1708136   -5.4695462    356.99999  0.048061388  0.048886447            3 
  620000    1.1496263   -5.4782415    356.91681  0.047972689   0.04887507            2 
  621000    1.1338103   -5.4964483    357.40981  0.047961595  0.048863274            7 
  622000    1.1699301   -5.4907765    358.60548  0.048044679  0.048851904            2 
  623000    1.1683439   -5.4974778    358.54131  0.047958977  0.048840657            4 
  624000    1.1567453   -5.4663212    360.45374  0.048137519  0.048829802            2 
  625000    1.1841366   -5.4906279    358.78016  0.047837355  0.048818306            3 
  626000    1.1430689   -5.5138115    359.04149  0.047795725  0.048806769            2 
  627000    1.1494528   -5.4871088    358.93335  0.047705124   0.04879425            5 
  628000    1.1271648   -5.4993906    360.38754  0.047822126  0.048782257            2 
  629000    1.1403442   -5.4866167    361.12112  0.047843286  0.048771099            6 
  630000    1.1602603   -5.4709415    363.03464  0.048020455  0.048759901            3 
  631000    1.1797667   -5.4754859    362.81119  0.047914843  0.048749364            4 
  632000    1.1546867   -5.5045877    364.59967  0.048074851   0.04873841            7 
  633000    1.1567162   -5.5252068    363.99523  0.047919329  0.048727724            2 
  634000    1.1430596   -5.5069873    364.32125  0.047886599  0.048717285            1 
  635000    1.1453254   -5.5717199     364.1521   0.04778899  0.048706323            5 
  636000    1.1509158   -5.5584795    363.67986  0.047651974  0.048694749            6 
  637000    1.1322858   -5.4914754    365.57881  0.047825589  0.048683556            2 
  638000    1.1169042   -5.5174138    365.08144  0.047685663  0.048672485            2 
  639000    1.1559728   -5.5178248    367.76611  0.047961151  0.048661605            2 
  640000      1.15458   -5.5002544    369.61667  0.048127171  0.048651989            4 
  641000    1.1423669   -5.5037753    368.87083  0.047955126  0.048642729            3 
  642000    1.1668946   -5.5425673    369.40994  0.047950408   0.04863326            4 
  643000    1.1451347   -5.4700539    368.90995  0.047811036  0.048623632            4 
  644000    1.1537438    -5.479489    370.99288  0.048006325  0.048613033            3 
  645000    1.1593372   -5.5310511    370.33658  0.047847104  0.048602741            4 
  646000     1.164915   -5.4861374    371.52097  0.047925821  0.048593071            5 
  647000    1.1692331   -5.4962889    373.11766  0.048057401   0.04858323            2 
  648000    1.1477221   -5.5179886    372.37678   0.04788796  0.048573968            2 
  649000    1.1536275   -5.4951752    372.29861  0.047804136  0.048563919            2 
  650000    1.1486435   -5.5047788    373.43353  0.047876094   0.04855396            3 
  651000    1.1619102   -5.4882346    373.97923  0.047872405  0.048544154            2 
  652000    1.1393712   -5.4964798    374.94691  0.047922662  0.048534105            3 
  653000    1.1447289   -5.5552423    374.01606  0.047730483  0.048523928            2 
  654000    1.1302516   -5.5236831    374.22808  0.047684516  0.048513588            3 
  655000      1.13729   -5.5190543    376.64682  0.047919443  0.048503751            3 
  656000    1.1433749   -5.4827513    376.62239  0.047843291  0.048494169            3 
  657000    1.1241005   -5.4989421    376.09475  0.047703546  0.048484474            2 
  658000    1.1402241   -5.5176344    376.60284  0.047695395   0.04847418            2 
  659000    1.1605371   -5.4758005    378.59875  0.047875411  0.048463516            2 
  660000    1.1595984   -5.4976612    378.25705  0.047759729  0.048454185            3 
  661000    1.1550406    -5.515176    380.58349  0.047980773  0.048444235            6 
  662000    1.1534187   -5.5101255    378.76854  0.047679826  0.048434509            3 
  663000    1.1590682   -5.5291794    381.03733  0.047893078   0.04842602            3 
  664000    1.1373194   -5.5011704    380.50055  0.047753584  0.048416784            4 
  665000    1.1404064   -5.5160631    383.36629  0.048040888  0.048407377            2 
  666000    1.1500411   -5.5100203     382.8579  0.047905143  0.048398359            4 
  667000    1.1199034   -5.4979661     381.8766   0.04771072  0.048389382            1 
  668000     1.170206   -5.4871245    381.99469  0.047654028  0.048380129            4 
  669000    1.1498544   -5.4859418    383.37457   0.04775468  0.048370794            2 
  670000    1.1436824   -5.5411391    382.73507  0.047603865  0.048361318            3 
  671000    1.1611642   -5.4692574    384.58451  0.047762607  0.048351985            3 
  672000    1.1695584   -5.4730769    385.01355  0.047744736  0.048341928            4 
  673000    1.1444345   -5.4755118    385.52685  0.047737352  0.048332144            3 
  674000      1.15121   -5.5512074    384.74671  0.047570068  0.048322079            1 
  675000    1.1166853   -5.5419412    385.38554  0.047578461  0.048312091            2 
  676000    1.1305411   -5.5100034    384.86673  0.047444123  0.048301337            4 
  677000    1.1614941   -5.5186737    385.97287  0.047510201  0.048290792            6 
  678000    1.1436977    -5.505038    386.72651  0.047532756  0.048280248            3 
  679000    1.1670228   -5.5190036    387.03269   0.04750033  0.048269924            2 
  680000     1.151374   -5.5198385    388.21093  0.047574869  0.048260082            3 
  681000    1.1561264   -5.5449621    387.79545  0.047454166  0.048249122            4 
  682000    1.1543646   -5.4713949    390.14045   0.04767112  0.048238825            4 
  683000    1.1662281   -5.4982375     389.4378  0.047515593  0.048229268            6 
  684000    1.1676948   -5.5130286    389.62098  0.047468443  0.048218571            3 
  685000    1.1447739   -5.5157008    390.31807   0.04748395  0.048208288            3 
  686000     1.141605   -5.5231231    391.76325  0.047590288  0.048198681            2 
  687000    1.1460563   -5.5318782    391.05198  0.047434737  0.048187845            5 
  688000    1.1414678   -5.5596965     390.1063  0.047251247  0.048176353            6 
  689000    1.1295877   -5.5653288    390.00765  0.047170736  0.048165489            1 
  690000    1.1685754   -5.5308859    392.53786  0.047407955  0.048154833            2 
  691000    1.1307352   -5.5517666    391.40258  0.047202433  0.048144013            2 
  692000    1.1370828   -5.5145661    392.83497  0.047306716  0.048133777            3 
  693000    1.1421982    -5.525496    394.89697  0.047486409  0.048123398            4 
  694000     1.165073   -5.5142778    393.78486  0.047284446  0.048112453            3 
  695000    1.1456737   -5.4905882    396.11317  0.047495584  0.048102374            3 
  696000    1.1413493   -5.5374899    396.51732  0.047475732   0.04809252            6 
  697000     1.123329   -5.5192034    397.16921  0.047485559  0.048082697            4 
  698000    1.1322498   -5.5587695    396.65435  0.047356059  0.048072534            6 
  699000     1.163547   -5.5355939     397.2056   0.04735403  0.048062669            2 
  700000    1.1637572    -5.553695    399.29783  0.047535456  0.048053384            3 
  701000    1.1869184   -5.5335046    399.16095  0.047451373  0.048044046            3 
  702000    1.1437085   -5.4836249    401.29283  0.047636851  0.048034695            2 
  703000    1.1548858   -5.5116046    399.46386  0.047352283  0.048025538            2 
  704000    1.1577743   -5.5612566    399.88225  0.047334547  0.048016053            2 
  705000    1.1648248   -5.5366822    401.57528  0.047467527  0.048006564            2 
  706000    1.1231804   -5.5157973    402.08085  0.047459968  0.047996819            3 
  707000    1.1465602   -5.5129382    402.77675  0.047474864   0.04798781            5 
  708000    1.1493969   -5.5111044    403.32025   0.04747178   0.04797834            3 
  709000    1.1232119   -5.5147907    402.40418  0.047297153  0.047968302            2 
  710000    1.1435497   -5.4887542    404.58923  0.047486999  0.047958565            4 
  711000    1.1835119   -5.5479978    403.22375  0.047260167  0.047949663            4 
  712000     1.120404   -5.5320523    404.01852  0.047286812  0.047939953            2 
  713000    1.1479365   -5.5396162     404.2027  0.047242017  0.047930098            3 
  714000      1.13438   -5.5128766    405.96099  0.047381068  0.047920298            4 
  715000    1.1167212   -5.5245695    405.72032  0.047286751  0.047910834            3 
  716000    1.1415854    -5.563131    406.27626  0.047285412  0.047900563            2 
  717000    1.1331719   -5.5222983    407.07565  0.047312372   0.04789096            5 
  718000    1.1264095   -5.5148453    407.65248  0.047313426   0.04788135            8 
  719000    1.1291341   -5.5382412    407.08771  0.047182164  0.047870928            2 
  720000    1.1412625   -5.5234831    407.72875  0.047190827     0.047861            3 
  721000    1.1395143   -5.4942094    408.64614  0.047231408  0.047851115            4 
  722000     1.121837   -5.5588358    407.95081  0.047085735   0.04784143            3 
  723000    1.1404115    -5.512751    410.62971  0.047329381  0.047831739            3 
  724000    1.1174602    -5.523452    411.25898  0.047336439  0.047822155            3 
  725000    1.1408026   -5.5225962    412.09449  0.047367183  0.047812676            3 
  726000    1.1089213   -5.5366544    411.28774  0.047209337  0.047803647            3 
  727000    1.1552137   -5.5436185    411.89573  0.047214091  0.047794447            6 
  728000     1.122131    -5.580268    410.97625  0.047043985  0.047785484            3 
  729000    1.1078648   -5.5201812    412.52026  0.047155951  0.047775312            3 
  730000    1.1161452   -5.5105445     413.5143  0.047204829   0.04776613            2 
  731000     1.123218   -5.5378293     412.8061  0.047059519  0.047756816            2 
  732000    1.1273305   -5.5129495    415.14263  0.047261228  0.047747751            3 
  733000    1.1332164   -5.5161807    413.90356  0.047055884  0.047737884            2 
  734000    1.1334876   -5.5166002    415.97078  0.047226474  0.047728257            2 
  735000    1.1218695   -5.5517706    416.05701  0.047171997  0.047718919            2 
  736000    1.1294816   -5.6062334    414.87172  0.046973701  0.047710003            3 
  737000    1.1230857   -5.5817344    416.94062  0.047143897   0.04769986            7 
  738000    1.1500908   -5.5384741    417.58704  0.047153008  0.047691342            2 
  739000    1.1570499   -5.5178228    420.75792  0.047446765  0.047682212            5 
  740000    1.1129542    -5.527553    418.61087  0.047140864  0.047673236            3 
  741000    1.1473489   -5.5321051    418.91294  0.047111216  0.047664623            3 
  742000    1.1214384   -5.5341316    420.27767  0.047200996  0.047655884            3 
  743000    1.1151636   -5.4934326    422.67273  0.047406094  0.047647216            4 
  744000    1.1546451   -5.5234462    419.28769  0.046963227  0.047638589            1 
  745000    1.1377042   -5.5219282    421.09278  0.047102101  0.047629657            1 
  746000    1.1363654   -5.5343613    422.45521  0.047191154  0.047620646            2 
  747000    1.1466843   -5.5539874    424.14452  0.047316435  0.047611518            6 
  748000    1.1413561   -5.5161136    424.02807  0.047240204  0.047603181            2 
  749000    1.1311986   -5.5332076     426.0792   0.04740534   0.04759516            2 
  750000    1.1204931   -5.5360935    424.53605  0.047170673   0.04758737            3 
  751000    1.1535229    -5.549105    423.96292  0.047044266  0.047578941            3 
  752000    1.1192224   -5.5345324    424.82186  0.047076891  0.047570063            1 
  753000    1.1360347   -5.5819191     424.9557  0.047029183  0.047561591            4 
  754000    1.1271538   -5.5235081    427.32329  0.047228481  0.047552531            5 
  755000    1.1460854   -5.5318339    427.70199  0.047207725     0.047544            2 
  756000    1.1808585   -5.5342162    427.28412   0.04709922  0.047535972            2 
  757000    1.1114061   -5.5292366    428.43763  0.047163984  0.047527749            2 
  758000    1.1077989   -5.5393518    428.04055  0.047058108  0.047518998            4 
  759000     1.143036   -5.5597907    428.14883  0.047007996  0.047510209            2 
  760000    1.1134781   -5.5274913    429.68601  0.047114694  0.047501606            1 
  761000    1.1351951   -5.5375539    430.96065  0.047192362  0.047493845            3 
  762000    1.1232595   -5.5555592    431.66928  0.047207926  0.047486135            1 
  763000    1.1373844   -5.5518487    433.99724   0.04740031   0.04747808            6 
  764000    1.0914126   -5.5462811    431.51584  0.047067609  0.047470719            3 
  765000    1.1090487   -5.5737954       432.81  0.047147059  0.047463577            2 
  766000    1.1315292   -5.5340454    434.02818  0.047218035  0.047456965            2 
  767000    1.1238382   -5.5096301    435.63492  0.047331043  0.047450818            3 
  768000    1.1220349    -5.521835    434.82063  0.047181058   0.04744461            3 
  769000    1.0991686   -5.6093607    433.92058   0.04702217   0.04743829            2 
  770000    1.1556405   -5.5614015    436.48183  0.047238293  0.047431353            5 
  771000    1.1287139   -5.5444597    437.03519  0.047236834  0.047424507            2 
  772000    1.1371499   -5.5687723    438.47666  0.047331245  0.047417958            6 
  773000    1.0858002   -5.5410973    438.39908  0.047261651  0.047411361            4 
  774000    1.1502799   -5.5806388    436.99563  0.047049486  0.047404466            2 
  775000    1.1227032   -5.5541038    439.77854  0.047288015  0.047397447            3 
  776000    1.1236869   -5.5426172     437.8681  0.047021918  0.047390055            2 
  777000    1.0914492   -5.5583891    438.92971  0.047075259   0.04738245            3 
  778000    1.1367033    -5.558547    438.83382  0.047004479   0.04737478            3 
  779000     1.114683   -5.4992018    441.43514  0.047222415  0.047366916            7 
  780000    1.1111659   -5.5713081    439.08433  0.046910719  0.047359022            1 
  781000    1.1059808   -5.5378153    440.65197  0.047017923  0.047351142            2 
  782000    1.1086477   -5.5451267    441.86846  0.047087432   0.04734374            2 
  783000      1.12064   -5.5297358     441.6318  0.047002107  0.047336213            2 
  784000    1.1076984   -5.5613952    442.71351  0.047057133  0.047329311            2 
  785000     1.134624   -5.5261412    443.00247  0.047027863  0.047321435            5 
  786000    1.1056564   -5.5504736    443.62626  0.047034167  0.047313741            2 
  787000    1.1145794   -5.5334304    443.91457  0.047004932  0.047305541            3 
  788000    1.1208772   -5.5705558    444.26751  0.046982604  0.047297184            4 
  789000    1.1150077   -5.5821941    443.45292  0.046837022   0.04728934            5 
  790000    1.1405596    -5.573139    444.04417  0.046840103  0.047280419            2 
  791000    1.1368826   -5.5686094    445.07958  0.046889968  0.047271486            2 
  792000     1.128067   -5.5466264    447.42591  0.047077642   0.04726429            3 
  793000    1.1265237   -5.5339939    446.14359  0.046883522  0.047256644            3 
  794000    1.1156483   -5.5745567    445.31585    0.0467376  0.047248779            4 
  795000    1.1276421   -5.5982532    447.64241  0.046922684  0.047241012            2 
  796000     1.147652   -5.5422846    449.12128  0.047018559  0.047233002            4 
  797000    1.1178082   -5.5466955    447.60449  0.046800972  0.047225521            2 
  798000    1.1377084   -5.5784907    449.54969  0.046945457  0.047217837            5 
  799000    1.1259898   -5.5609185    449.60222   0.04689218  0.047210549            6 
  800000     1.121398   -5.5531314    449.16183  0.046787691  0.047202717            2 
  801000    1.1129093   -5.5375939    450.47645  0.046866048  0.047194407            7 
  802000    1.1438335   -5.5765215    449.07777  0.046662278  0.047185765            3 
  803000     1.134344   -5.5244477    451.28807  0.046833548  0.047177772            1 
  804000     1.136069   -5.5755959    451.40957  0.046787891  0.047170296            3 
  805000    1.1282384   -5.5652504    452.30619  0.046822587  0.047162531            3 
  806000    1.0926825   -5.6061692    450.08249  0.046534583  0.047154129            2 
  807000    1.1333693   -5.5443526    455.72653   0.04705974  0.047146132            2 
  808000    1.1023043   -5.5805101    452.84654   0.04670447  0.047138185            7 
  809000    1.1221441   -5.5372066    456.18548  0.046990676  0.047129421            3 
  810000    1.1191732   -5.5672852    452.81044  0.046585436  0.047120859            4 
  811000    1.1200348   -5.5480604     456.2327  0.046879645  0.047112726            3 
  812000    1.1013664   -5.5536736    454.89413  0.046684538    0.0471045            2 
  813000    1.1086329   -5.5501478    454.67238  0.046604385  0.047096208            5 
  814000    1.1194852   -5.5767752    455.23707  0.046604941  0.047087472            3 
  815000    1.1186109   -5.5600512    455.89294   0.04661482   0.04707898            2 
  816000    1.1256873   -5.5745038    456.41387  0.046610894  0.047070445            3 
  817000      1.10895    -5.528455    459.48021  0.046866606   0.04706252            3 
  818000    1.1215892   -5.5716676    456.81478  0.046537773  0.047054407            4 
  819000    1.1275788   -5.5677715    459.93261   0.04679819  0.047046443            1 
  820000    1.1383452    -5.563513    459.43947  0.046691003  0.047038528            3 
  821000    1.1303006   -5.5753669    458.97737  0.046587228  0.047030283            2 
  822000    1.1086315   -5.5740712    461.14073  0.046749871  0.047022424            3 
  823000     1.117123   -5.5598279    460.98713  0.046677515  0.047014542            4 
  824000    1.1160146   -5.5836068    460.58175  0.046579869  0.047006684            2 
  825000    1.1422525   -5.6000994    461.27891   0.04659383  0.046998162            7 
  826000    1.1377997   -5.5613132    463.60634   0.04677223  0.046990384            4 
  827000     1.110464   -5.5346163    463.22768  0.046677517  0.046982377            4 
  828000    1.1291325   -5.5276372    464.35821  0.046734924  0.046974518            4 
  829000    1.1256187   -5.6275744    461.30973  0.046372108  0.046965982            4 
  830000     1.130612   -5.5849431    465.01556  0.046688309  0.046957294            2 
  831000    1.1321865   -5.5922793    464.07408  0.046537713  0.046949308            5 
  832000    1.1113252   -5.5531891     465.5371  0.046628316  0.046940753            3 
  833000    1.1128215   -5.5756008    465.31119  0.046549739  0.046932298            3 
  834000    1.1170749    -5.574603    464.87019  0.046449859  0.046924039            2 
  835000    1.1339569   -5.5575433    466.63543  0.046570402  0.046915585            3 
  836000     1.081473   -5.5686102    467.40665  0.046591572  0.046907276            4 
  837000    1.1484058   -5.5560337    465.84938  0.046380862  0.046898942            3 
  838000    1.1281484   -5.6066004    466.28702  0.046369035  0.046890489            3 
  839000    1.1252799   -5.5771447    467.71376  0.046455478  0.046882155            3 
  840000    1.1177994   -5.5921122    470.12262  0.046639149   0.04687436            4 
  841000    1.1200586   -5.5583763    469.54839  0.046526792  0.046865965            2 
  842000    1.1376779   -5.5578117    469.93735   0.04651003  0.046857628            4 
  843000     1.122611    -5.558114    469.04364  0.046366512  0.046849021            2 
  844000    1.1146115   -5.5660445    470.16393  0.046422189   0.04684057            2 
  845000    1.1180287   -5.5765565    471.02289  0.046451962  0.046831968            4 
  846000    1.1073939   -5.5992853    468.54654  0.046153126  0.046823268            8 
  847000    1.1136645    -5.571893    471.45712  0.046384998  0.046814105            3 
  848000    1.0969289   -5.5571519    472.30699  0.046413815  0.046805315            2 
  849000    1.1138101   -5.5705756    470.58353  0.046189981  0.046796514            5 
  850000    1.1071186   -5.5345083    473.86805  0.046457652  0.046788124            1 
  851000    1.1196478   -5.5897641    474.17917  0.046433526  0.046779542            4 
  852000    1.0893854   -5.5642405     473.6608  0.046328326   0.04677104            2 
  853000    1.1055573   -5.5759892    474.59959  0.046365728  0.046761963            3 
  854000     1.110701   -5.5484803    476.18452  0.046466093  0.046753699            8 
  855000    1.1158875   -5.5774146    475.19979  0.046315769  0.046745178           11 
  856000    1.1297391   -5.5642915    477.02232  0.046439089   0.04673619            5 
  857000    1.0746377    -5.580592     477.0341  0.046386046  0.046727864            2 
  858000    1.1214667    -5.590211    476.21696  0.046252619  0.046719047            2 
  859000    1.1043906   -5.5675327    476.27927  0.046204819  0.046709764            2 
  860000    1.1316193   -5.5699253    477.41915  0.046261546  0.046700757            5 
  861000    1.1122015   -5.5920582    477.12665  0.046179505  0.046691484            2 
  862000    1.1149995   -5.6027633    475.61602  0.045979893  0.046682434            1 
  863000    1.0935811   -5.5895313     477.4917  0.046107735  0.046672652            3 
  864000    1.1106441   -5.5594816    479.90718  0.046287344  0.046663485            4 
  865000    1.1077578   -5.6023413    477.70483   0.04602166  0.046653715            2 
  866000    1.1217389   -5.6040751    477.73213  0.045971144  0.046643519            3 
  867000    1.1109409   -5.5492608    481.12059  0.046243809  0.046633663            3 
  868000    1.1271943   -5.5804259    479.95823  0.046078939  0.046623726            3 
  869000    1.1223008   -5.5798084    480.28545  0.046057293  0.046613535            3 
  870000    1.1319345    -5.583051    481.07997  0.046080457   0.04660336            3 
  871000    1.0926716   -5.5969832    481.75842  0.046092463   0.04659389            3 
  872000    1.1182487   -5.5686671    483.22014  0.046179294  0.046584185            5 
  873000    1.1139274    -5.594811    481.03708  0.045918011  0.046574507            4 
  874000    1.1130586   -5.5815998    482.98654  0.046051348  0.046564639            2 
  875000     1.123431   -5.5820112    482.50581  0.045952934  0.046555047            4 
  876000    1.1171595   -5.5654515    483.70845  0.046014883  0.046545128            4 
  877000    1.1336728   -5.5888329    485.50856  0.046133463  0.046536213            5 
  878000    1.1006225   -5.5607886    485.89403  0.046117505  0.046527046            4 
  879000    1.1200023   -5.5810607     485.6779  0.046044549  0.046517444            3 
  880000    1.1061571    -5.632205    484.12917  0.045845565  0.046507862            3 
  881000    1.0930412   -5.5616645    486.55104  0.046022611  0.046498934            3 
  882000    1.1282524    -5.586007    486.22163  0.045939307  0.046490367            3 
  883000    1.1029205   -5.6130957    486.55542  0.045918782   0.04648161            3 
  884000    1.1235444   -5.5968898    489.73612  0.046166678  0.046473132            3 
  885000     1.128771   -5.5789203    488.81532  0.046027808   0.04646433            3 
  886000    1.1059882   -5.5925285    488.88299  0.045982222  0.046455209            3 
  887000    1.1216678   -5.5917244    490.67333  0.046098584  0.046446153            4 
  888000    1.1295818   -5.5584591    491.59516   0.04613318  0.046437353            2 
  889000    1.1287166   -5.5772231    489.96583  0.045928556  0.046428308            2 
  890000    1.0965602   -5.5598088    490.34591  0.045912538  0.046418774            6 
  891000    1.1189522   -5.5544689     492.2276     0.046037  0.046410269            2 
  892000    1.0984628   -5.5815624    491.13692  0.045883494   0.04640108            3 
  893000    1.1200411   -5.5944377     491.1281   0.04583129  0.046392255            2 
  894000    1.1053014   -5.6126391    492.40652   0.04589919  0.046383258            3 
  895000    1.0882263   -5.5924874    492.69446  0.045874717  0.046373954            6 
  896000    1.1237714    -5.583924    492.19945  0.045777479  0.046364801            3 
  897000    1.1217842   -5.5906138    494.33688  0.045925016  0.046355326            4 
  898000    1.0986235   -5.6134696    493.64707  0.045809862     0.046346            2 
  899000     1.106673    -5.577488    496.12654  0.045988741  0.046336983            4 
  900000    1.1204348   -5.5486495    495.84539   0.04591161  0.046327823            3 
  901000    1.1107863   -5.6009468    497.53915  0.046017309  0.046318462            3 
  902000    1.1333356   -5.5805962    498.25373  0.046032311  0.046309305            3 
  903000    1.1213177   -5.5963486     497.0973  0.045874613  0.046300483            3 
  904000    1.1049878   -5.6227194    497.08392  0.045822633  0.046291624            2 
  905000    1.1009162   -5.5673728    497.83561  0.045841216  0.046282689            7 
  906000    1.0905344   -5.6231191    498.06348  0.045811579  0.046273954            5 
  907000    1.0972457   -5.5788566    498.41954  0.045793783  0.046264402            5 
  908000    1.0990197   -5.6204926    497.82204  0.045688514  0.046255084            2 
  909000    1.1180409   -5.6008518    497.02648  0.045565317  0.046245896            3 
  910000    1.1145758   -5.6487254    497.25076  0.045535784   0.04623591            3 
  911000    1.1029404   -5.5765528    501.16958  0.045844272  0.046226456           10 
  912000    1.1238866   -5.5954618    500.06118  0.045692725  0.046216905            5 
  913000    1.0838887   -5.6447403    498.87165  0.045534104  0.046207108            3 
  914000    1.0878349   -5.5631076    502.13238  0.045781581  0.046197443            3 
  915000    1.1038101   -5.5621819    503.88427    0.0458911  0.046187568            2 
  916000     1.100715    -5.604091    500.97871  0.045576666   0.04617772            3 
  917000    1.0978024   -5.6502087    500.15579   0.04545218   0.04616821            5 
  918000    1.1274533   -5.5543664    505.14654  0.045855714  0.046159024            3 
  919000    1.1090095    -5.603507    502.99135  0.045610388  0.046149537            2 
  920000    1.1211906   -5.6153012    504.13218  0.045664147  0.046140101            5 
  921000    1.1166096   -5.6309361    505.21033  0.045712118  0.046129804            3 
  922000    1.1038656   -5.5698255    504.47807  0.045596355  0.046120258            3 
  923000    1.1205425   -5.6160988    506.31139  0.045712476  0.046111039            4 
  924000    1.1225065   -5.6054442    505.20811  0.045563502  0.046101887            7 
  925000    1.1202799   -5.5956196    508.40288  0.045802061   0.04609288            3 
  926000    1.1257806   -5.6319312    506.87483  0.045615085  0.046083524            3 
  927000    1.0809328   -5.5815741    509.25371  0.045779729  0.046074568            2 
  928000    1.1093097   -5.5833461    508.84892  0.045694048  0.046065678            5 
  929000    1.0935968   -5.5851733     509.1219  0.045669349  0.046056617            3 
  930000    1.0936261   -5.6134361    506.45652  0.045381409  0.046046837            3 
  931000    1.1192676   -5.5845513    509.30041  0.045587219  0.046036708            3 
  932000     1.102399   -5.5815293     507.6976  0.045394993  0.046026793            2 
  933000    1.1189554   -5.6087849    507.81567  0.045356883  0.046016723            4 
  934000     1.074623   -5.6206547     510.3708  0.045536295  0.046006665            3 
  935000    1.1012231   -5.6151369    509.20823  0.045383978  0.045996634            2 
  936000    1.0870714   -5.6139871    508.72354  0.045292338  0.045986515            1 
  937000    1.1133772   -5.5681035    511.43908   0.04548551  0.045976114            5 
  938000    1.1255943   -5.5941188    511.68733  0.045459073  0.045966255            2 
  939000    1.1047003   -5.6107691    512.80599  0.045509938  0.045956901            3 
  940000    1.0890319   -5.5942808    512.74045  0.045455714  0.045947156            2 
  941000    1.1027759   -5.6069571    513.64932  0.045487895  0.045937216            7 
  942000    1.1335567   -5.5988512    511.81029  0.045276918  0.045927488            4 
  943000    1.1058878   -5.5694106    512.96944  0.045331339  0.045917808            2 
  944000    1.0839426   -5.6040883    513.63406   0.04534199   0.04590785            2 
  945000    1.1265301   -5.5845925    514.12696  0.045337474  0.045897904            3 
  946000    1.1296761   -5.6277557    513.90272  0.045269796  0.045887979            2 
  947000    1.1213798   -5.5900399    514.70833  0.045292883  0.045877865            3 
  948000    1.1046171   -5.6148167    515.30352  0.045297426  0.045867999            2 
  949000    1.1142338   -5.6333129     515.7878   0.04529222   0.04585832            3 
  950000    1.1050589    -5.637092    517.71705  0.045413777  0.045848574            4 
  951000    1.0884016    -5.582886     516.7951  0.045285234  0.045838595            1 
  952000    1.1268313   -5.6206365    516.22389  0.045187665  0.045828435            5 
  953000    1.0901348   -5.6312562    517.73644  0.045272511  0.045817932            4 
  954000    1.1036734    -5.597572    519.81266  0.045406417  0.045808134            3 
  955000    1.1278447   -5.6182457     519.3846  0.045321518  0.045797232            2 
  956000     1.102274   -5.6014095    518.75196  0.045218964  0.045787198            4 
  957000    1.0962827   -5.6168061    517.59009  0.045070541  0.045776718            3 
  958000    1.1034419   -5.6127386    520.47742  0.045274654  0.045766129            2 
  959000    1.1020823   -5.5758712    519.65313  0.045155816  0.045755642            3 
  960000    1.1025503    -5.643506    518.30924  0.044992121   0.04574518            3 
  961000    1.0677177    -5.607038    520.06248  0.045097336  0.045734688            5 
  962000    1.1065484   -5.5913863    520.48777  0.045087298  0.045723929            3 
  963000     1.123082   -5.6082622    519.23078  0.044931704  0.045713299            3 
  964000    1.0937004    -5.598881    521.25917   0.04506044  0.045702462            1 
  965000    1.0917752   -5.6076434    522.40361  0.045112574  0.045691893            6 
  966000    1.1000752   -5.6374053    522.51958  0.045075878  0.045681762            2 
  967000    1.0644613   -5.5734416    524.33529  0.045185736  0.045671085            2 
  968000    1.0951763   -5.5967101     523.2193  0.045042984  0.045660888            2 
  969000    1.1183141   -5.5979703    525.06664   0.04515537  0.045650783            3 
  970000     1.086154   -5.6383669    524.61117  0.045069688  0.045640674            4 
  971000    1.0964242   -5.6250401    526.08932   0.04515013  0.045630625            2 
  972000    1.0916334   -5.5939948    526.58171  0.045145894   0.04562065            5 
  973000    1.1030949   -5.5810796    524.94141  0.044959011   0.04560995            4 
  974000     1.076743   -5.6109815    525.85248  0.044990801  0.045599109            1 
  975000    1.1004392   -5.6053728    525.56237   0.04491986  0.045587967            3 
  976000    1.0921998   -5.6389761    526.34536   0.04494069  0.045577068            3 
  977000    1.1191409   -5.5955358    525.88557  0.044855473  0.045566419            5 
  978000     1.093468   -5.5783844    528.40416  0.045024213  0.045555994            4 
  979000    1.0841201   -5.6371358    526.02202  0.044775453  0.045545121            5 
  980000    1.0906427   -5.6137585    529.26851  0.045005825  0.045534391            4 
  981000    1.0953555   -5.6171852    526.38663   0.04471514  0.045523236            5 
  982000    1.0978686   -5.6370162    529.57634  0.044940287  0.045512034            1 
  983000    1.1172171   -5.6139693    529.22658  0.044864919  0.045501745            3 
  984000    1.0920095    -5.666533    528.78272  0.044781734  0.045491054            3 
  985000    1.0838499   -5.6052118    531.15458  0.044936936  0.045480174            2 
  986000    1.0823644   -5.6598944    532.89926  0.045038815  0.045470145            4 
  987000    1.0743119   -5.6320076    530.14702  0.044760809  0.045459589            2 
  988000    1.0782736   -5.6425412    531.62707   0.04484034  0.045449317            3 
  989000    1.0821012   -5.6405385    531.81997  0.044811255  0.045439018            3 
  990000    1.1073289   -5.5974116    531.91684  0.044774145  0.045428283            3 
  991000    1.0985235   -5.6589608     531.4059  0.044685999  0.045417558            4 
  992000    1.0906625   -5.6050664    534.14982  0.044871457  0.045406889            6 
  993000    1.1036752   -5.6060178    532.85593  0.044717685  0.045396611            6 
  994000    1.0883917   -5.6181241    533.46412  0.044723686  0.045385775            4 
  995000    1.0889291   -5.6293011    533.92849  0.044717629  0.045374864            2 
  996000    1.0977322   -5.6361133    532.56169  0.044558374  0.045363712            3 
  997000    1.0788707   -5.6466267    533.34637  0.044579269  0.045352476            2 
  998000    1.0850323   -5.6372989    535.83209  0.044742158   0.04534146            5 
  999000    1.0985906   -5.5800649    534.74768  0.044606914  0.045330403            2 
 1000000    1.0903451    -5.608931    535.84077  0.044653397   0.04531976            2 
 1001000    1.0892199   -5.6337248    536.63658   0.04467504  0.045309094            3 
 1002000    1.0923799   -5.6371916    535.40394  0.044527939   0.04529819            2 
 1003000    1.0935907   -5.6027744    539.01232  0.044783343  0.045287489            5 
 1004000    1.0748902   -5.6434538     536.9045  0.044563786  0.045276506            7 
 1005000    1.0743861   -5.5978757    538.35707   0.04463989  0.045265491            3 
 1006000    1.0738431   -5.6564989    538.06528  0.044571345   0.04525462            2 
 1007000    1.1094501   -5.6202537    541.61853   0.04482113   0.04524403            5 
 1008000    1.0847614   -5.6148531    542.43525  0.044844184  0.045234214            2 
 1009000    1.0995652   -5.5724637     544.1685  0.044942889  0.045224341            4 
 1010000     1.096228   -5.6097103    541.43657  0.044672984  0.045214705            2 
 1011000    1.0770611   -5.6561133    542.39548  0.044707837  0.045204317            1 
 1012000    1.0850973   -5.6253935    544.19034  0.044811458  0.045194327            3 
 1013000    1.1148931   -5.6472174    541.52974   0.04454835  0.045184291            2 
 1014000    1.0866792   -5.6773398    542.60271  0.044592596  0.045174354            2 
 1015000    1.1033326   -5.6334472    546.23894  0.044847203  0.045164118            2 
 1016000      1.07739   -5.6355226    543.56944  0.044584108  0.045154097            5 
 1017000    1.0758787   -5.5929567    546.23978  0.044759077  0.045143832            3 
 1018000     1.088304   -5.6553832    544.93631  0.044608408  0.045134058            4 
 1019000    1.1003791   -5.6519353    543.17272  0.044420405  0.045123756            3 
 1020000    1.0679875   -5.6007478    544.53809  0.044488406  0.045113355            2 
 1021000     1.097041   -5.6077542    546.34211  0.044592076  0.045103116            3 
 1022000    1.1032738   -5.6205591    545.67431  0.044493991  0.045092985            4 
 1023000    1.0557898   -5.6309234     547.3681  0.044588473  0.045082468            1 
 1024000     1.069995    -5.611666    545.88646  0.044424354  0.045071942            3 
 1025000    1.0825253   -5.6269132    546.14631  0.044402139  0.045061279            3 
 1026000    1.0776186   -5.6683597    546.82243  0.044413777  0.045050412            3 
 1027000    1.0984157    -5.649383    547.61458  0.044434808  0.045039587            2 
 1028000    1.0897326   -5.6709546    548.69066  0.044478815  0.045029038            2 
 1029000    1.0883504   -5.6143224    548.93998   0.04445578  0.045018526            2 
 1030000    1.1135115   -5.6137496    551.31545   0.04460481  0.045008488            2 
 1031000    1.0673791   -5.6789666    549.42645  0.044408863  0.044997905            1 
 1032000    1.0782819   -5.6233394    549.51965  0.044373357  0.044987603            3 
 1033000    1.0951892   -5.6686532    549.14963  0.044300551  0.044977119            2 
 1034000    1.1107162   -5.6116847     550.7792  0.044389039  0.044966652            2 
 1035000    1.0837025   -5.6521704    551.34311  0.044391555  0.044956526            3 
 1036000    1.0814537   -5.6405717    552.02073  0.044403211  0.044946493            3 
 1037000    1.0789126   -5.6152916    551.52514  0.044320567  0.044936017            5 
 1038000     1.074121   -5.6420324    551.98912  0.044315118  0.044925758            2 
 1039000    1.0778013   -5.6526568    552.67025  0.044327097  0.044915173            4 
 1040000    1.0877332   -5.6136358    553.86459  0.044380175   0.04490444            2 
 1041000    1.1012993   -5.6417662     553.1176  0.044277745   0.04489337            2 
 1042000      1.07874   -5.6805314     552.3083  0.044170529  0.044882417            3 
 1043000    1.0753306   -5.6356219     553.5636  0.044228475  0.044871377            5 
 1044000    1.0814692   -5.6273893    555.45743  0.044337279  0.044860743            2 
 1045000    1.0508324    -5.622985    557.61228  0.044466689  0.044850203            2 
 1046000    1.1131518   -5.6354933    554.45673  0.044172779  0.044839441            4 
 1047000    1.0763004   -5.6417904    557.76371  0.044393801  0.044828807            5 
 1048000    1.1107373   -5.6560463    557.53873  0.044333551  0.044817859            3 
 1049000    1.1193426   -5.6494031    557.25712  0.044268916  0.044807104            4 
 1050000    1.0724167   -5.6294003    559.58545  0.044411544  0.044796795            4 
 1051000    1.0730606   -5.6761101    558.06546  0.044248768   0.04478616            3 
 1052000    1.0720538   -5.6811044    556.94254  0.044117755  0.044775567            9 
 1053000     1.068274   -5.6543092    556.93241  0.044075056  0.044764817            2 
 1054000    1.0666419   -5.6526685    558.32921  0.044143675   0.04475408            4 
 1055000    1.0869608   -5.5815783     562.2929  0.044414921  0.044743525            3 
 1056000    1.0641208   -5.6370458    559.94016  0.044187197  0.044733158            4 
 1057000    1.0683734   -5.6712694     560.7435  0.044208727  0.044722722            3 
 1058000    1.0703851   -5.6536351    560.28153  0.044130555  0.044712084            2 
 1059000    1.0785626   -5.6698641    560.11024  0.044075404  0.044701593            4 
 1060000    1.0809977   -5.6898429    560.44945  0.044060491  0.044691078            4 
 1061000    1.1001334   -5.6625436    559.76665  0.043965335  0.044680668            3 
 1062000    1.1030968   -5.6738732    561.62627  0.044069858  0.044669902            2 
 1063000    1.0853518   -5.6596272    562.59707  0.044104505  0.044659227            2 
 1064000    1.0818528   -5.6609592    562.44164   0.04405088  0.044648457            3 
 1065000    1.1187085    -5.628723    564.46927  0.044168174  0.044637903            3 
 1066000    1.0862509   -5.6579897    564.80532  0.044153011  0.044627512            3 
 1067000    1.0685571   -5.6698173    562.30882  0.043916653  0.044616952            3 
 1068000     1.082988   -5.6335715    563.00989  0.043930235  0.044606077            3 
 1069000    1.1136429   -5.6492216    563.71131  0.043943819  0.044595307            6 
 1070000    1.0951267   -5.6372713    565.03081  0.044005515  0.044584331            5 
 1071000    1.0643012    -5.612877    566.67009  0.044091977  0.044573701            5 
 1072000    1.0846208   -5.6336416    564.09997  0.043851055  0.044562393            3 
 1073000    1.0700773    -5.619618    568.77874  0.044173559   0.04455133            2 
 1074000    1.0926106   -5.7037112    565.03645  0.043842059  0.044540439            3 
 1075000    1.0784859   -5.6084697    568.35881  0.044058822  0.044529565            3 
 1076000    1.1036867   -5.6786703     564.5876  0.043725806  0.044518547            5 
 1077000    1.0841134   -5.6612225    567.27465  0.043893117   0.04450749            1 
 1078000     1.039619   -5.6777631    567.31956  0.043855872  0.044496422            5 
 1079000    1.0865726   -5.6622317    567.30135  0.043813821  0.044485374            3 
 1080000    1.0662046   -5.6276891    569.42047  0.043936764   0.04447433            3 
 1081000    1.0725595   -5.6996136     565.3196  0.043579988  0.044462951            7 
 1082000    1.0906097   -5.6494676    568.85935  0.043812335  0.044451531            4 
 1083000    1.1131269   -5.6525105     569.0637  0.043787604  0.044440403            3 
 1084000    1.0967575   -5.6635165    567.36428  0.043616565  0.044429059            4 
 1085000    1.0725397   -5.6279669     572.1383  0.043943034  0.044417917            3 
 1086000    1.0750982   -5.6380727    571.14901  0.043826658  0.044406103            4 
 1087000    1.0569237   -5.6611069    568.28049  0.043566428  0.044394299            2 
 1088000    1.0871738   -5.6270866    569.94685  0.043654017  0.044382723            1 
 1089000    1.0718333    -5.649932    571.89702  0.043763164  0.044371314            2 
 1090000    1.1123473   -5.6795204    571.17647  0.043667926  0.044359991            4 
 1091000     1.080701   -5.6629172    572.08232  0.043697092  0.044348865            4 
 1092000    1.0969041   -5.6456073    572.31883  0.043675125  0.044337575            3 
 1093000    1.0856607    -5.620734    573.40851  0.043718245  0.044326827            4 
 1094000    1.0762792   -5.6555605    573.95437  0.043719864  0.044315367            5 
 1095000    1.0582399   -5.6436656    574.09138  0.043690364  0.044303842            4 
 1096000    1.0788425   -5.6649873    572.05665  0.043495792  0.044292794            4 
 1097000    1.0669438   -5.6975257    573.74623  0.043584491  0.044281435            2 
 1098000    1.0630951   -5.6465617    575.90411   0.04370857  0.044270222            4 
 1099000    1.0592851   -5.6606127    574.28156  0.043545766  0.044258731            5 
 1100000    1.0764121   -5.6755542    575.70325  0.043613883  0.044247554            2 
 1101000    1.0986742   -5.6741073    575.55629  0.043563147  0.044236297            6 
 1102000     1.052151   -5.6343634    576.02065  0.043558731  0.044225108            5 
 1103000    1.0657778   -5.6954132    577.48835  0.043630126  0.044214208            4 
 1104000    1.0659071   -5.6748021    576.57457  0.043521631  0.044203089            5 
 1105000     1.078873   -5.6773598    576.54151  0.043479752  0.044191604            4 
 1106000    1.0536705   -5.6717768    579.87605  0.043691686  0.044180863            3 
 1107000    1.0869839   -5.6656684    577.64637   0.04348437    0.0441701            4 
 1108000     1.075078   -5.6571161    580.29271  0.043644157  0.044159356            4 
 1109000    1.0793443   -5.6773944    580.50817  0.043620993  0.044148983            5 
 1110000    1.0743907   -5.6626831    582.31012  0.043716976   0.04413847            3 
 1111000    1.0687691   -5.6495671    581.00629   0.04357983  0.044128716            3 
 1112000    1.0619159   -5.6553997    585.09743  0.043847229  0.044118704            1 
 1113000     1.074071   -5.6776696    583.05342  0.043654793  0.044108631            2 
 1114000    1.0848993   -5.6677515    584.43183  0.043718718  0.044098968            2 
 1115000    1.0812087    -5.667206    583.78977  0.043631522  0.044089266            8 
 1116000    1.0488489    -5.665209    586.35247  0.043783787  0.044078941            4 
 1117000    1.0772976   -5.6600671    585.08106  0.043649736  0.044069046            9 
 1118000    1.0627776   -5.6391457    586.81434  0.043739888  0.044059273            6 
 1119000    1.0820709   -5.6431953    586.23207  0.043657438  0.044049459            8 
 1120000    1.0624936   -5.6651962     586.3476  0.043627053  0.044039495            4 
 1121000     1.065693   -5.6580256    589.76282  0.043842018  0.044029459            2 
 1122000    1.0654909   -5.6501936     587.8264  0.043659121  0.044019516            4 
 1123000    1.0471157   -5.6511492    587.74043  0.043613864   0.04400948            3 
 1124000    1.0662072   -5.6640493     589.4536  0.043702076  0.043999773            7 
 1125000    1.0781324   -5.6178318     591.1673   0.04379017  0.043989834            3 
 1126000    1.0553698   -5.6691528    588.64249  0.043564424   0.04397997            5 
 1127000    1.0554246    -5.686392    587.80246  0.043463654  0.043969945            4 
 1128000    1.0703401   -5.6557087    587.51116  0.043403602  0.043959557            5 
 1129000     1.049238   -5.6887425    588.38911  0.043429961  0.043949434            3 
 1130000    1.0685565    -5.681016    587.43254  0.043320984  0.043938772            3 
 1131000     1.060939   -5.6139158     592.2783  0.043639722  0.043928329            2 
 1132000     1.026744   -5.6230757    591.18239  0.043520494  0.043918047            2 
 1133000     1.092068   -5.6399501    590.50486  0.043432249  0.043907749            3 
 1134000    1.0869676   -5.6748919    590.77646  0.043413908  0.043897534            2 
 1135000     1.059606   -5.6907223    589.63551  0.043291887  0.043887107            4 
 1136000    1.0829154   -5.6828163    591.86982   0.04341768  0.043876894            3 
 1137000    1.0707753   -5.6647141    593.11011  0.043470398  0.043867137            3 
 1138000    1.0807086   -5.6799286    594.12054  0.043506191  0.043856859            6 
 1139000    1.0692028   -5.6844449    593.16656  0.043398197  0.043846854            2 
 1140000     1.077938   -5.6756603     595.0457  0.043497493    0.0438371            5 
 1141000    1.0630975   -5.6592266    599.19762  0.043762607   0.04382765            3 
 1142000    1.0690502   -5.6679833     596.6789  0.043540492  0.043818206            4 
 1143000    1.0685143   -5.6841583     595.4376  0.043411898  0.043808321            3 
 1144000    1.0584737   -5.6377942    597.46955  0.043521966  0.043798906            3 
 1145000    1.0693856   -5.6868483    597.01901  0.043451165  0.043789246            4 
 1146000    1.0821167   -5.6835753    597.59958  0.043455467   0.04377985            3 
 1147000    1.0688125   -5.6243415    599.95727  0.043588875  0.043770128            3 
 1148000    1.0741349    -5.671088    600.41038  0.043583796  0.043760714            3 
 1149000    1.0524095   -5.7091535    597.15288  0.043309608  0.043751139            6 
 1150000    1.0729205   -5.6807197    598.80788  0.043391875   0.04374134            2 
 1151000    1.0590681   -5.6973348    599.78458   0.04342489  0.043731501            2 
 1152000    1.0469103   -5.6922798    598.58671  0.043300543  0.043721718            1 
 1153000    1.0591946    -5.732958    597.93242  0.043215699  0.043711687            4 
 1154000     1.064908   -5.6975124    598.01723  0.043184375  0.043701759            4 
 1155000    1.1023229   -5.6888912    599.33309  0.043241926  0.043691587            3 
 1156000    1.0597475   -5.6946577    602.45826  0.043429805  0.043681768            3 
 1157000    1.0785902   -5.7206569    601.12606  0.043296317  0.043671914            7 
 1158000    1.0702404   -5.6701654     602.0764  0.043327317   0.04366232            2 
 1159000    1.0898902   -5.6683031    603.19299  0.043370218  0.043652708            3 
 1160000    1.0867499   -5.6788747     602.5926  0.043289698  0.043642981            2 
 1161000    1.0652873   -5.7186135    601.76521  0.043193024  0.043632712            2 
 1162000    1.0844141   -5.7209392    600.70586  0.043079881  0.043622505            4 
 1163000    1.0622458   -5.7016261    603.68444  0.043256266  0.043612163            3 
 1164000    1.0962394   -5.6839881    602.16696  0.043110464  0.043602105            3 
 1165000     1.059222   -5.6839497    604.08431  0.043210609  0.043592126            2 
 1166000    1.0780871   -5.6694984     605.5851   0.04328081  0.043582064            3 
 1167000    1.0861189   -5.6970247    605.49574  0.043237342  0.043571944            4 
 1168000    1.0737033    -5.722439    605.30989  0.043187064  0.043561714            3 
 1169000    1.0330934   -5.7214182     605.3257  0.043151247  0.043551574            3 
 1170000    1.0536221   -5.7413632    605.90929  0.043155932  0.043541364            3 
 1171000    1.0698217   -5.6723717     607.0308   0.04319889  0.043531668            2 
 1172000    1.0586806   -5.6690744    607.35645  0.043185186  0.043521766            5 
 1173000    1.1068888   -5.6343947    607.57876  0.043164163  0.043511938            3 
 1174000    1.0643384   -5.6819116     607.9733  0.043155402  0.043501908            2 
 1175000    1.0398423   -5.7109679     608.4023  0.043149099  0.043491585            5 
 1176000    1.0639339   -5.6705837    609.77299  0.043209537   0.04348162            2 
 1177000    1.0359352    -5.676391    608.30651  0.043068997  0.043471612            3 
 1178000    1.0880244   -5.6388938    610.77961  0.043207386  0.043461667            6 
 1179000     1.034289   -5.6895032    607.42727   0.04293379  0.043451561            2 
 1180000    1.0842263   -5.7446202    606.68204  0.042844777   0.04344118            3 
 1181000    1.0306228   -5.6908882    610.72973   0.04309411  0.043431018            4 
 1182000    1.0557804   -5.6777916     611.3933  0.043104435  0.043421009            4 
 1183000    1.0639031     -5.67939    612.32164  0.043133393  0.043410961            4 
 1184000    1.0607909   -5.6945958    613.20233  0.043158948  0.043401143            3 
 1185000    1.0567099   -5.6434296    615.56759   0.04328886  0.043391561            5 
 1186000    1.0794393   -5.6629072    612.08704  0.043007802  0.043381927            4 
 1187000     1.058202   -5.7032909    611.83994  0.042954222  0.043372114            8 
 1188000    1.0558796   -5.6668888    612.74365  0.042981457  0.043362051            4 
 1189000    1.0636829   -5.6930555    612.42234  0.042922788  0.043352038            2 
 1190000    1.0577129   -5.7065745    612.77959  0.042911736  0.043341789            3 
 1191000    1.0518971   -5.7029982      613.156  0.042902043  0.043331769            3 
 1192000      1.05742   -5.7071778    612.79907  0.042841098  0.043321385            3 
 1193000    1.0595261   -5.6981663    613.43694  0.042849744  0.043311062            4 
 1194000    1.0589766   -5.7163307    615.53284  0.042960137  0.043300765            2 
 1195000    1.0671188   -5.6390618    617.13653   0.04303602  0.043290139            6 
 1196000     1.066485   -5.6910009    615.90932  0.042914529  0.043279374            4 
 1197000    1.0701656   -5.7137135    616.62587  0.042928563  0.043268868            3 
 1198000    1.0646349   -5.6947537    615.36317  0.042804895  0.043258621            3 
 1199000    1.0653903   -5.6868873    616.24984   0.04283082  0.043248527            3 
 1200000    1.0506549   -5.7169089    613.40927  0.042597866  0.043238216            4 
 1201000    1.0488227   -5.6761326    617.48963  0.042845519  0.043227984            4 
 1202000     1.049358   -5.6935281    618.05857  0.042849319  0.043218011            4 
 1203000    1.0641218   -5.6927388    619.53586  0.042916033  0.043207671            2 
 1204000    1.0608278   -5.7201071    615.84649  0.042625034  0.043197224            3 
 1205000    1.0555946   -5.6976242    617.42752  0.042698999  0.043186765            5 
 1206000    1.0605253   -5.6847926    619.09297  0.042778674  0.043176374            4 
 1207000    1.0739262   -5.6454865    620.04616  0.042809042  0.043166286            1 
 1208000    1.0690519    -5.689089    617.44527  0.042594183  0.043155822            4 
 1209000    1.0638813   -5.6887816    621.11916  0.042812184  0.043145675            3 
 1210000    1.0515772   -5.6916986    619.44242  0.042661323   0.04313539            6 
 1211000    1.0800607   -5.6902228    619.82799  0.042652628  0.043125043            1 
 1212000    1.0561292   -5.7450997    618.76154   0.04254411  0.043114498            7 
 1213000    1.0412874   -5.7373289    620.22744  0.042609744  0.043104432            3 
 1214000    1.0345918    -5.706856    622.49063      0.04273  0.043094034            4 
 1215000    1.0559795   -5.7289567     621.7758  0.042645802  0.043083759            3 
 1216000    1.0825337   -5.7148871    623.15303  0.042705114  0.043073802            3 
 1217000    1.0993993   -5.7036128    622.87511  0.042650994   0.04306379            5 
 1218000     1.052105   -5.6696157    624.18661  0.042705707   0.04305391            8 
 1219000    1.0422335   -5.7383942    622.59753   0.04256204  0.043043649            6 
 1220000    1.0533522   -5.7356642    624.45703  0.042654169  0.043033451            3 
 1221000    1.0477863   -5.6934249     623.2806  0.042538943  0.043023579            5 
 1222000    1.0496931   -5.7577784    622.95761  0.042482106  0.043013415            2 
 1223000    1.0492811   -5.6506684    627.23405  0.042738761  0.043003144            2 
 1224000    1.0566626   -5.6847048    625.40449  0.042579282  0.042992829            4 
 1225000    1.0781012   -5.7037519    626.64547  0.042628944  0.042982582            5 
 1226000    1.0641164   -5.6861005     628.5447  0.042723267  0.042972421            3 
 1227000    1.0576809   -5.7152123    624.64239  0.042423417  0.042962062            4 
 1228000    1.0610981   -5.7216994     624.6908  0.042392156  0.042951839            2 
 1229000     1.029053   -5.7395545    627.03706  0.042516752  0.042941396            3 
 1230000    1.0527821   -5.7131707    628.76021   0.04259893  0.042931031            4 
 1231000    1.0458166   -5.6960295    627.25906  0.042462704  0.042920771            3 
 1232000    1.0685517   -5.6905011    627.74846   0.04246134  0.042910538            3 
 1233000    1.0393358    -5.746436    627.22594  0.042391588  0.042900283            3 
 1234000    1.0533855   -5.7015342    627.50552  0.042376115   0.04288986            2 
 1235000    1.0590873    -5.720219    627.07199   0.04231255  0.042879637            4 
 1236000    1.0820562   -5.6981241    631.00481  0.042543474  0.042869215            4 
 1237000     1.044249   -5.6624194    632.14842  0.042586124   0.04285896            3 
 1238000    1.0437227   -5.6890231    630.97582  0.042472793  0.042848878            3 
 1239000    1.0411889   -5.6782935    630.61135     0.042414  0.042838464            2 
 1240000    1.0384318   -5.6958897    630.24569  0.042355221   0.04282801            3 
 1241000    1.0596217   -5.7393752    630.46528  0.042335837  0.042817622            4 
 1242000    1.0430394   -5.6725154    633.27064  0.042489978  0.042807393            4 
 1243000    1.0661297   -5.7038583    631.89844    0.0423638  0.042797015            3 
 1244000    1.0546612   -5.7216613    633.07365   0.04240847  0.042786658            3 
 1245000    1.0445432   -5.7320562    633.02983  0.042371474   0.04277623            5 
 1246000    1.0686603   -5.7061244    633.26208  0.042353002  0.042765849            4 
 1247000    1.0720943   -5.7403286    631.79785  0.042221188  0.042755265            2 
 1248000    1.0314013    -5.728347    633.52122  0.042302432  0.042744715            3 
 1249000    1.0760071   -5.7180532    633.80509  0.042287502  0.042734359            3 
 1250000    1.0413176   -5.7044515    635.59931  0.042373288  0.042723898            5 
 1251000    1.0471597   -5.7102397    634.86409   0.04229044  0.042713554            4 
 1252000    1.0493571   -5.7440102    634.62981  0.042241068  0.042703367            7 
 1253000    1.0578335   -5.6896544    636.18754  0.042310956  0.042692993            8 
 1254000    1.0492994   -5.7140459    637.24337   0.04234738  0.042682326            4 
 1255000    1.0400408   -5.6851301     638.9805  0.042428984  0.042671842            5 
 1256000    1.0513268   -5.7516151    632.52394  0.041966822  0.042661343            7 
 1257000    1.0338777   -5.6932633    635.79242  0.042150121  0.042650289            7 
 1258000    1.0567481   -5.7275547     634.0173  0.041999026  0.042639829            4 
 1259000    1.0452478   -5.6827585    639.02115  0.042296872  0.042629288            2 
 1260000    1.0607758   -5.7228578    636.84427   0.04211933  0.042619067            4 
 1261000    1.0318504   -5.7007828    637.64662  0.042138952  0.042608777            3 
 1262000    1.0405177   -5.6933913    640.62371  0.042302147  0.042598563            3 
 1263000    1.0625337    -5.692405    639.91854  0.042222126  0.042588441            3 
 1264000    1.0403955   -5.7562914    637.50219  0.042029417   0.04257789            4 
 1265000    1.0394064   -5.7510921    638.36732  0.042053183   0.04256755            7 
 1266000    1.0605965   -5.6963047    640.60924  0.042167538  0.042557063            4 
 1267000    1.0598763   -5.7387264    642.70989  0.042272421   0.04254698            3 
 1268000    1.0552237   -5.7535169    640.99704  0.042126514   0.04253664            3 
 1269000    1.0414282   -5.7210899    640.40355  0.042054344  0.042526276            4 
 1270000    1.0310836   -5.7551685    642.43815  0.042154735  0.042515757            2 
 1271000    1.0481231    -5.711655    641.66478  0.042070862  0.042505437            3 
 1272000     1.052202   -5.7026402    642.94551  0.042121692   0.04249529            4 
 1273000    1.0520675   -5.7465457    642.65828  0.042069801  0.042485074            4 
 1274000    1.0401847   -5.7186431    644.14237  0.042133855  0.042475026            6 
 1275000    1.0321564    -5.739685    641.05476  0.041899004  0.042464639            3 
 1276000    1.0523417   -5.7692837    642.71944  0.041974885   0.04245432            6 
 1277000    1.0304954   -5.7365111    640.80864  0.041817322  0.042443498            6 
 1278000    1.0508539   -5.7098794    642.26792  0.041879755  0.042432762            7 
 1279000    1.0813425    -5.734583    642.92277  0.041889678  0.042421895            3 
 1280000    1.0625858   -5.7281585    642.73286  0.041844587  0.042410904            7 
 1281000     1.070585   -5.7167681    644.61769  0.041934536  0.042400236            2 
 1282000    1.0393734   -5.7245676    643.27703   0.04181468  0.042389426            1 
 1283000    1.0714219   -5.7219642    643.69538  0.041809261  0.042378353            4 
 1284000    1.0532859   -5.7628835      642.111  0.041673871  0.042367225            3 
 1285000    1.0710831   -5.6987267    646.27545  0.041911508  0.042356265            7 
 1286000    1.0490409    -5.757718    644.23682  0.041746813  0.042345354            2 
 1287000    1.0519325   -5.7305802    644.38608  0.041724041  0.042334359            6 
 1288000    1.0602025   -5.7110306     645.6269  0.041771927  0.042323256            4 
 1289000    1.0222165   -5.7178222    646.78331  0.041814282  0.042312692            4 
 1290000    1.0307338   -5.7352717    649.19392  0.041937592   0.04230165            8 
 1291000    1.0673352    -5.718105     646.1033  0.041705609   0.04229048            4 
 1292000    1.0272737   -5.7458162    646.20556  0.041679925   0.04227955            3 
 1293000     1.068727   -5.7182553    647.63603  0.041739884  0.042268287            2 
 1294000    1.0510034   -5.7512357    646.18166  0.041613966  0.042257032            4 
 1295000    1.0401736   -5.7722793    646.48993  0.041601669  0.042245475            3 
 1296000     1.059281   -5.7288479    646.85855  0.041593271  0.042234169            5 
 1297000    1.0395334   -5.7242426    647.43908  0.041598501  0.042222801            3 
 1298000    1.0164331   -5.7752252    648.70665  0.041647833  0.042211517            1 
 1299000    1.0442944   -5.7933706    648.86012  0.041625617  0.042200285           10 
 1300000    1.0261165   -5.7295812    651.55028  0.041766044  0.042189259            3 
 1301000    1.0318734   -5.7163301    652.07946  0.041767836  0.042178556            5 
 1302000    1.0333366   -5.7292492    649.89313  0.041595822  0.042167642            2 
 1303000    1.0356777   -5.7682413    650.21695  0.041584609  0.042156631            4 
 1304000    1.0315732   -5.7409559    652.77798  0.041716384  0.042145416            2 
 1305000    1.0186695   -5.7193453    649.52029  0.041476392   0.04213441            3 
 1306000     1.051827   -5.7572442    650.88427  0.041531666  0.042123436            4 
 1307000    1.0386081   -5.7658473    650.20977  0.041456884  0.042112078            3 
 1308000    1.0417203    -5.739256    653.30435  0.041622347  0.042101209            3 
 1309000    1.0450902   -5.7673817    650.16412  0.041390637   0.04209003            5 
 1310000    1.0358725   -5.7372022    652.35031  0.041498111  0.042078926            4 
 1311000    1.0331169   -5.7290776    652.84168  0.041497691  0.042067803            3 
 1312000    1.0219079   -5.7320482    654.16005    0.0415498  0.042056429            5 
 1313000    1.0502619   -5.7375774    653.40465  0.041470211  0.042045094            3 
 1314000    1.0315518   -5.7279011    653.89913  0.041470011  0.042033589            3 
 1315000    1.0359525   -5.7445766    652.69488   0.04136216  0.042022135            7 
 1316000    1.0290303   -5.7259079     653.5911  0.041387481  0.042010777            5 
 1317000     1.014068    -5.735599    654.86143  0.041436436  0.041999198            4 
 1318000    1.0367159   -5.7630335    654.19921  0.041363126   0.04198748            5 
 1319000    1.0414385   -5.7495008    652.06396  0.041196864  0.041975923            4 
 1320000    1.0406632   -5.7541446    654.18244  0.041299397  0.041964305            2 
 1321000    1.0646895   -5.7546903    654.52356  0.041289652  0.041952926            5 
 1322000    1.0323287   -5.7438145    655.73449  0.041334751  0.041941224            4 
 1323000    1.0320599   -5.7365666    657.07225  0.041387771  0.041929651            3 
 1324000    1.0495043   -5.7002104    658.18526  0.041426565  0.041918074            5 
 1325000    1.0282339   -5.7002736    656.94655  0.041317393  0.041906625            2 
 1326000    1.0557572   -5.7446391    656.38812  0.041251139  0.041894926            3 
 1327000    1.0570694   -5.7525218    656.52432  0.041228606  0.041883451            6 
 1328000    1.0359098   -5.7425476    658.57496   0.04132624  0.041871851            3 
 1329000    1.0652466   -5.7418009    659.16453  0.041332113  0.041860198            5 
 1330000    1.0423879   -5.7659346    659.30376  0.041309759  0.041848659            4 
 1331000     1.040583   -5.7479751    658.60967  0.041235266  0.041836982            4 
 1332000    1.0462223   -5.7525599    658.24513  0.041181502  0.041825519            4 
 1333000    1.0167196   -5.7575877    659.27598  0.041215053  0.041813807            7 
 1334000    1.0430183   -5.7437491    659.45755  0.041195499  0.041802192            5 
 1335000    1.0272512   -5.7268115    662.03037  0.041325242  0.041790741            3 
 1336000    1.0463822   -5.7633654    659.83468  0.041157353  0.041779343            6 
 1337000    1.0378441   -5.7326482     662.3729  0.041284773  0.041767965            5 
 1338000    1.0730902   -5.7363922    659.50696  0.041075421   0.04175652            4 
 1339000    1.0277486   -5.7632117    662.88823   0.04125518  0.041744984            5 
 1340000    1.0436176   -5.7425436    662.58974  0.041205829  0.041733601            6 
 1341000    1.0228063   -5.7546583    661.58662  0.041112765    0.0417223            3 
 1342000     1.045474   -5.7311923    665.07893   0.04129899  0.041711399            4 
 1343000    1.0370458   -5.7386262    665.25114  0.041278924  0.041700322            2 
 1344000    1.0227863   -5.7377686    664.50607  0.041202013  0.041689413            3 
 1345000    1.0444522   -5.7131419    664.62274  0.041178608  0.041678411            4 
 1346000    1.0320588   -5.7469746    664.61458   0.04114751   0.04166763            5 
 1347000    1.0281608    -5.729285    665.54834   0.04117473  0.041656498            3 
 1348000    1.0208942   -5.7473878    664.52294  0.041080795  0.041645294            6 
 1349000    1.0465236   -5.7402082    665.57626   0.04111541  0.041634012            3 
 1350000    1.0401922   -5.7581127    665.30293  0.041068082  0.041622937            5 
 1351000    1.0420416   -5.7370519    666.47482  0.041109969  0.041612153            4 
 1352000    1.0407573   -5.7443069    667.07292  0.041116427  0.041601393            3 
 1353000     1.025512   -5.7203587    669.49755  0.041235375  0.041590712            6 
 1354000    1.0252005   -5.7572526    666.26684  0.041006083  0.041580146            5 
 1355000    1.0360989   -5.7581139    665.22608  0.040911813  0.041569032           11 
 1356000    1.0497683   -5.7772812    667.76964  0.041037957  0.041557958            5 
 1357000    1.0557345   -5.7532908    669.69413  0.041125899  0.041546923            1 
 1358000    1.0365599   -5.7650158    668.36895  0.041014295   0.04153596            2 
 1359000    1.0282826    -5.723927    670.23123  0.041098309  0.041525019            3 
 1360000    1.0322628   -5.7169261     669.9584  0.041051373  0.041514224            4 
 1361000    1.0498098   -5.7366883    669.30552  0.040981234   0.04150323            4 
 1362000    1.0425497   -5.7763971    668.70799  0.040914586  0.041492217            3 
 1363000    1.0291884   -5.7479862    673.55695  0.041181032  0.041481288            7 
 1364000    1.0460149   -5.7543049     669.5685  0.040907166   0.04147059            4 
 1365000    1.0374192   -5.7636099    671.26452   0.04098074  0.041459726            3 
 1366000    1.0404089   -5.7448511    671.13194  0.040942652   0.04144871            6 
 1367000    1.0352463   -5.7388352    673.42937  0.041052754  0.041437971            4 
 1368000    1.0359537   -5.7419104    671.54222  0.040907786  0.041427323            4 
 1369000    1.0252946   -5.7373521    672.35971  0.040927667  0.041416386            4 
 1370000    1.0508874   -5.7893017     670.4246  0.040780085  0.041405127            2 
 1371000    1.0581769   -5.7507839    671.56991  0.040819956  0.041393962            4 
 1372000    1.0162245   -5.7426622    672.72418  0.040860312  0.041382791            5 
 1373000    1.0277031   -5.7613724    672.72443  0.040830568  0.041371834            3 
 1374000    1.0383012   -5.7922931    672.23308   0.04077105  0.041361194            6 
 1375000    1.0230083   -5.7402679    675.49155  0.040938882  0.041350364           10 
 1376000     1.015201   -5.7494082    673.99571  0.040818539  0.041339493            2 
 1377000    1.0186153   -5.7564245    676.43214  0.040936343  0.041328637            5 
 1378000    1.0339193   -5.7303184    676.54631  0.040913541  0.041317789            4 
 1379000    1.0324616   -5.6978997    677.37621  0.040934023  0.041307027            3 
 1380000    1.0146954   -5.7869405    677.41771  0.040906866  0.041296131            3 
 1381000    1.0397403   -5.7459992    677.83951  0.040902698  0.041285238            2 
 1382000    1.0319637   -5.7446333    678.06459  0.040886673  0.041274149            7 
 1383000    1.0326428   -5.7722567    675.84322   0.04072326  0.041263041            3 
 1384000    1.0347847   -5.7886002    677.53883  0.040795932  0.041251993            3 
 1385000    1.0353824   -5.7383454    676.87625   0.04072661  0.041241126            3 
 1386000    1.0467869    -5.785318    676.83847  0.040694954  0.041229927            2 
 1387000    1.0482646   -5.7758742     676.4304  0.040641096  0.041218776            3 
 1388000      1.00127   -5.7824906    678.11654  0.040713048  0.041207782            6 
 1389000    1.0452249   -5.7560047    681.64606  0.040895492  0.041196882            3 
 1390000    1.0180513   -5.7558106    678.84268  0.040698002  0.041186098            7 
 1391000    1.0448676   -5.7325014    681.39348   0.04082156    0.0411753            4 
 1392000    1.0268294   -5.7649589    677.80017  0.040577118  0.041164589            5 
 1393000    1.0296346   -5.7526875    679.78855  0.040666939  0.041153984            9 
 1394000    1.0187007   -5.7903299    679.82702  0.040640066  0.041143262            6 
 1395000    1.0260577   -5.7478149    681.98928    0.0407401   0.04113218            6 
 1396000    1.0196489   -5.8108031    680.22354  0.040605512  0.041121077            4 
 1397000    1.0367995   -5.7874083    679.02841  0.040505155  0.041110128            2 
 1398000    1.0385025   -5.7752524    682.89467  0.040706645  0.041099004            5 
 1399000    1.0197874   -5.7818306    681.22972  0.040578373  0.041088232            3 
 1400000    1.0216177   -5.7759159     682.0807  0.040600042  0.041077536            4 
 1401000    1.0246844   -5.8136227    681.27355  0.040523052  0.041066664            3 
 1402000    1.0163555   -5.7469832    685.16683  0.040725561  0.041055795            3 
 1403000    1.0333925   -5.7952793     679.6378  0.040368128  0.041045037            5 
 1404000    1.0068303   -5.7961043    683.40094  0.040562734  0.041034036            5 
 1405000   0.99088641   -5.7468045     687.6325  0.040784846  0.041023303            2 
 1406000    1.0045948   -5.7576475    683.66011  0.040520395  0.041012438            4 
 1407000    1.0133034   -5.7636613    684.66861  0.040551327  0.041001759            7 
 1408000    1.0222469   -5.7836178    685.24163  0.040556441  0.040990915            6 
 1409000    1.0159426   -5.7794931    683.38603   0.04041791  0.040980169            3 
 1410000    1.0432688   -5.7610832    686.54311  0.040575834  0.040969292            3 
 1411000   0.99935963   -5.7348668    685.92318  0.040510464  0.040958562            5 
 1412000    1.0300026     -5.78566    686.52562  0.040517329  0.040947878            4 
 1413000    1.0081819   -5.7621236    685.84716  0.040448641  0.040937155            2 
 1414000    1.0261533   -5.7442412    688.46895  0.040574549  0.040926447            4 
 1415000    1.0242539   -5.7642973    689.45031   0.04060367   0.04091561            2 
 1416000    1.0308361     -5.78705    687.70029  0.040472004  0.040905035            6 
 1417000    1.0073727   -5.7780422    688.33036  0.040480497  0.040894272            3 
 1418000    1.0454694   -5.7491744     691.0353  0.040610913  0.040883685            4 
 1419000    1.0272238   -5.7521725    689.41337  0.040487043  0.040873246            3 
 1420000    1.0076826   -5.7466606    692.64974  0.040648459  0.040863115            3 
 1421000    1.0126051   -5.7849127    689.05611  0.040409108  0.040852743            9 
 1422000    1.0085389   -5.7805465    689.88947  0.040429528  0.040842038            3 
 1423000    1.0373456   -5.7904585    690.70507   0.04044888  0.040831723            5 
 1424000     1.028731   -5.7470161    690.15367  0.040388206  0.040820995            2 
 1425000    1.0143182   -5.7762817    693.20243  0.040538154   0.04081029            4 
 1426000    1.0172768   -5.7609651    692.65799  0.040477909  0.040799593            4 
 1427000    1.0063273   -5.7504541    692.92071  0.040464886  0.040789051            5 
 1428000    1.0158984    -5.772277    692.16567  0.040392488  0.040778653            5 
 1429000    1.0330897   -5.8081243    692.55322  0.040386822   0.04076828            3 
 1430000     1.020882   -5.7698107    694.00272  0.040443049  0.040757924            2 
 1431000    1.0352005   -5.7612128    692.63136  0.040334926  0.040747671            2 
 1432000     1.041988   -5.7708067    694.04402  0.040388968  0.040737226            2 
 1433000    1.0215294   -5.7859802    694.94865  0.040413389  0.040726767            2 
 1434000    1.0284843   -5.8053437    694.60525  0.040365252  0.040716448            5 
 1435000    1.0078923   -5.7610576    695.36319  0.040381138  0.040706292            4 
 1436000    1.0221521   -5.8037057    696.00804  0.040390439  0.040695878            7 
 1437000    1.0232078   -5.7901684     696.1249  0.040369108  0.040685496            3 
 1438000    1.0226722   -5.7872694    694.03738  0.040220062  0.040675074            9 
 1439000    1.0105912   -5.7865202    696.22325  0.040318696  0.040664378            4 
 1440000    1.0094712   -5.7990863    696.49322  0.040306321  0.040653405            3 
 1441000    1.0238245   -5.7785105    698.41014  0.040389205  0.040642863            9 
 1442000    1.0238348   -5.7509799    697.95172  0.040334704  0.040632234            5 
 1443000    1.0423663   -5.8023707     699.2116   0.04037951  0.040621751            4 
 1444000   0.99861831   -5.7635839    697.30297    0.0402414  0.040611001            2 
 1445000    1.0262716   -5.7694366    697.85637  0.040245465  0.040600288            5 
 1446000    1.0295879   -5.7945244    697.23888  0.040182047  0.040589693            2 
 1447000     1.046658   -5.8442364    697.20895  0.040152554  0.040579033            3 
 1448000   0.99822036   -5.7858145    697.83055  0.040160598  0.040568351            5 
 1449000    1.0041393   -5.7920744    698.10377  0.040148595  0.040557843            5 
 1450000    1.0134276   -5.7614099    697.16413  0.040066904  0.040547183            4 
 1451000    1.0288837   -5.7918456    698.26128  0.040102302  0.040536373            2 
 1452000    1.0060352   -5.7743428    697.15376   0.04001112  0.040525472            3 
 1453000    1.0279093   -5.7990581    697.44506   0.04000029  0.040514594            3 
 1454000    1.0057088   -5.7746846    700.83228  0.040166912  0.040503647            8 
 1455000    1.0106368   -5.7971219    698.07868  0.039981597  0.040492686            2 
 1456000    1.0419214   -5.7899653    702.29334   0.04019536  0.040481865            5 
 1457000    1.0410637   -5.7950418     700.8278  0.040083951  0.040471281            6 
 1458000   0.99597585   -5.8044096    700.88975      0.04006  0.040460464            6 
 1459000    1.0163857   -5.7654262     701.6104  0.040073703  0.040449511            5 
 1460000    1.0315203   -5.7893196    701.36183  0.040032068  0.040438767            4 
 1461000    1.0391257   -5.7998058    700.84695  0.039975299  0.040427903            3 
 1462000    1.0407665   -5.7783312    701.44782  0.039982206  0.040416933            3 
 1463000   0.99355898   -5.8059043     698.3579  0.039778873  0.040405927            2 
 1464000    1.0220673   -5.7803137    704.21118  0.040084881   0.04039506            6 
 1465000    1.0086109   -5.7954367    703.58496  0.040021898  0.040384167            5 
 1466000    1.0014543   -5.7964783    702.92285   0.03995696  0.040373556            5 
 1467000   0.98428669   -5.7971344    705.01275  0.040048441  0.040362705            3 
 1468000   0.99800756   -5.8038618    703.08609   0.03991179  0.040351648            6 
 1469000    1.0120894   -5.8368517    699.48896  0.039680563  0.040340783            3 
 1470000    1.0144707   -5.7914815    702.55354  0.039827298  0.040329614            7 
 1471000    1.0069314   -5.7952553    705.06695   0.03994261  0.040318517            9 
 1472000    1.0401257   -5.8151279    704.30528  0.039872355  0.040307578            5 
 1473000    1.0080779   -5.7819668    704.36839  0.039848857  0.040296754            5 
 1474000    1.0142316   -5.8010877    702.54352  0.039718652  0.040285903            4 
 1475000    1.0015869   -5.8065602    704.63757  0.039810032  0.040274999            3 
 1476000    1.0235343   -5.8019278    705.83801  0.039850836  0.040264378            5 
 1477000   0.99893321   -5.7968245    707.70332  0.039929097  0.040253457            5 
 1478000   0.99800262   -5.8143139    706.44371  0.039831062  0.040242576            9 
 1479000    1.0070781   -5.7853545     707.8796  0.039885035  0.040231731            5 
 1480000    1.0112046    -5.798291    708.75292  0.039907259  0.040221016            3 
 1481000    1.0212004    -5.790588    707.93526  0.039834305   0.04021022            4 
 1482000    1.0185502   -5.8399095    707.72156   0.03979541   0.04019949            4 
 1483000    1.0144466   -5.7932802    707.33581  0.039746899  0.040188726            2 
 1484000    1.0156947   -5.8328807    707.56717  0.039733107  0.040178154            5 
 1485000   0.98933651   -5.7654079    708.93538   0.03978313    0.0401676            4 
 1486000    1.0344208   -5.8597429    707.61782  0.039682471  0.040157046            5 
 1487000     1.014518   -5.8390757    710.09183  0.039794431  0.040146357            4 
 1488000    1.0191103   -5.8212931    711.12645   0.03982563  0.040135701            4 
 1489000    1.0139959   -5.7853377    710.14148  0.039743759  0.040125249            3 
 1490000    1.0000444   -5.8134705    711.98089   0.03981996  0.040115026            4 
 1491000    1.0342624   -5.8146587    711.69465  0.039777255  0.040104583            4 
 1492000    1.0096475   -5.7969406    710.00952  0.039656475  0.040093856            3 
 1493000    1.0206329    -5.786763    711.20046  0.039696387  0.040083464            2 
 1494000    1.0205845   -5.7909997    712.31128  0.039731776  0.040072925            2 
 1495000    1.0300641   -5.8082969    712.35789  0.039707797  0.040062165            2 
 1496000    1.0276794   -5.7719335    713.78065  0.039760508  0.040051736            2 
 1497000    1.0076201   -5.8222925    712.24957  0.039648718  0.040040869            7 
 1498000    0.9904918   -5.8021233    713.79076  0.039707986   0.04003034            5 
 1499000    1.0170809   -5.7839725    715.50591  0.039776846  0.040019955            3 
 1500000   0.99753799   -5.8112973    715.01319  0.039722955  0.040009701            4 
 1501000    1.0201137   -5.7901436    713.62865  0.039619623  0.039999256            5 
 1502000   0.99532861   -5.8112754    714.95596  0.039666886  0.039988986            8 
 1503000    1.0037557   -5.7667017    714.25131  0.039601425  0.039978488            5 
 1504000   0.99927696   -5.8101849    716.98998  0.039726838  0.039967997            2 
 1505000    1.0227174   -5.7935795    716.92045  0.039696592  0.039957403            6 
 1506000    1.0147538   -5.8002623    717.73864  0.039715507  0.039946788            2 
 1507000    1.0196239   -5.8297971    715.42763   0.03956136   0.03993615            7 
 1508000   0.99719682   -5.8322792    715.59803  0.039544542   0.03992539            5 
 1509000    1.0278458   -5.8153805    714.67728  0.039467488  0.039914423            4 
 1510000    1.0087253   -5.7888355    717.14901   0.03957776  0.039903535            5 
 1511000    1.0092555   -5.8277249    714.10021  0.039383422  0.039892666            2 
 1512000    1.0157831   -5.8086053    716.80401  0.039506394  0.039881693            6 
 1513000   0.98404153   -5.8145907    715.82108  0.039426145   0.03987097            5 
 1514000   0.99319874   -5.8365845     717.1129  0.039471207  0.039860241            3 
 1515000    1.0021337    -5.796399    717.14218  0.039446764  0.039849433            3 
 1516000     1.017268   -5.8470932    714.25235  0.039261893  0.039838547            5 
 1517000    1.0148341   -5.7888016    719.06222  0.039500232   0.03982776            5 
 1518000   0.97959961   -5.8151259    719.12101  0.039477438  0.039817073            5 
 1519000     1.011298   -5.8120017     716.6994  0.039318598  0.039806186            5 
 1520000    1.0253148   -5.8078885    720.95191  0.039525872  0.039795355            4 
 1521000     1.012413   -5.8194935     721.7367  0.039542883  0.039784714            7 
 1522000    1.0286957   -5.8319419    718.27057  0.039327123  0.039774005            3 
 1523000    1.0032487   -5.7996282    721.94149  0.039502161   0.03976337            7 
 1524000    1.0253825   -5.8137617    722.32772   0.03949736  0.039752713            4 
 1525000    1.0100571   -5.8533272    719.26162  0.039303914  0.039742127           11 
 1526000    1.0025282   -5.8210496    719.60012  0.039296643  0.039731232            6 
 1527000    1.0076888   -5.8220771    722.59789  0.039434506  0.039720746            3 
 1528000   0.99265116   -5.7897008    723.08485  0.039435256  0.039710291            8 
 1529000   0.99496383   -5.8354161    721.54966  0.039325793  0.039699745            4 
 1530000    1.0006953   -5.8188286    720.22272  0.039227817  0.039689222            6 
 1531000    1.0211483   -5.8556785      724.105  0.039413509  0.039678698            4 
 1532000    1.0022671   -5.8140191    726.51372  0.039518805  0.039668172            3 
 1533000   0.99719015   -5.7887544    724.73667  0.039396427  0.039657892            4 
 1534000   0.99530391   -5.8121022    721.98187  0.039221093  0.039647536            4 
 1535000   0.99304123   -5.8484264    724.19355  0.039315611   0.03963696            5 
 1536000    1.0120742   -5.8361331     724.2202   0.03929146  0.039626503            2 
 1537000   0.99019341   -5.7929252     724.2756    0.0392689  0.039615985            6 
 1538000   0.98686668   -5.8046944    724.53958  0.039257671   0.03960549            5 
 1539000   0.98751721   -5.7883109    728.34594  0.039438269  0.039595139            3 
 1540000    1.0202994   -5.8174408    724.92108  0.039227331  0.039584756            4 
 1541000    1.0085189   -5.8339517    725.54304   0.03923551  0.039574199            4 
 1542000    1.0293202   -5.8012122    727.91221    0.0393381  0.039563849            4 
 1543000    1.0143083   -5.8159344    729.51118  0.039398962  0.039553461            8 
 1544000   0.98989298    -5.815592    727.26225  0.039252064  0.039542997            3 
 1545000    1.0116683   -5.8664045     726.6305  0.039192583  0.039532597            5 
 1546000    1.0054024    -5.803536    727.81856  0.039231272  0.039522482            5 
 1547000    1.0096868   -5.8229855    729.28551  0.039284934   0.03951233            3 
 1548000   0.99375911   -5.7821044    731.27128  0.039366455  0.039502244            4 
 1549000    1.0006193    -5.867738     728.8386  0.039210168  0.039492054            8 
 1550000   0.97860639   -5.8191225    731.61479  0.039334128  0.039481984            2 
 1551000    1.0115845   -5.8365015     734.1687  0.039445986  0.039472004            4 
 1552000    1.0207499   -5.8179274    733.26874  0.039372248  0.039462199            4 
 1553000    1.0159319    -5.809408    734.16226  0.039394841  0.039452516            3 
 1554000    1.0037004   -5.7802804    734.89314  0.039408684  0.039442851            4 
 1555000    1.0329759   -5.8186934    732.62153  0.039261604  0.039433081            4 
 1556000     1.001097   -5.7957169    736.19758  0.039427891  0.039423243            3 
 1557000   0.99299033   -5.8428895    732.78954  0.039220164   0.03941321            7 
 1558000   0.98774335   -5.8214315    734.21059  0.039270999   0.03940324            3 
 1559000    1.0124838   -5.8490075    733.93503  0.039231079  0.039393542            9 
 1560000   0.98729381   -5.8501868    735.12456  0.039269475  0.039383571            9 
 1561000     1.014969   -5.8423891      733.741  0.039170457  0.039373731            3 
 1562000    1.0264356   -5.8384006    735.17479  0.039221873  0.039364112            7 
 1563000     1.033539   -5.8636631    738.77451  0.039388703  0.039354272            2 
 1564000    1.0058203   -5.8351424    736.89582  0.039263417  0.039344674            5 
 1565000     1.014085   -5.7977375     739.3135  0.039367066  0.039335161            5 
 1566000    1.0245759    -5.790366    740.79994  0.039421027  0.039325837            4 
 1567000   0.99609366   -5.8043107    741.63396  0.039440223  0.039316432            7 
 1568000    1.0046574    -5.854655    738.38739  0.039242527  0.039306863            4 
 1569000    0.9974445   -5.8146559    739.81513  0.039293346   0.03929774            3 
 1570000   0.99911723   -5.8084655    739.98239  0.039277197  0.039288137            4 
 1571000   0.98320169   -5.7841215    742.40681  0.039380798  0.039278692            4 
 1572000    1.0032022   -5.8328543    742.56065  0.039363902  0.039269408            1 
 1573000   0.98432542   -5.8395794    738.82377  0.039140907  0.039259989            3 
 1574000   0.99168923    -5.834813    740.53608  0.039206696  0.039250699            3 
 1575000    1.0174603   -5.8178101     743.4585  0.039336428  0.039241183            4 
 1576000     1.015014   -5.8266203    741.29858   0.03919726   0.03923189            3 
 1577000   0.97780831    -5.841875     741.4718  0.039181558  0.039222519            3 
 1578000     1.006164   -5.8443447    740.14197    0.0390865  0.039213165            2 
 1579000    0.9944944   -5.8335927    743.91439   0.03926084  0.039203813            9 
 1580000    1.0220051   -5.7991144    744.23474  0.039252887  0.039194538            6 
 1581000   0.99111442   -5.8667139    742.21368  0.039121531  0.039185202            3 
 1582000   0.97284623   -5.8091409    742.75466  0.039125298   0.03917574            2 
 1583000    1.0030401   -5.8390539    742.23703  0.039073333  0.039166133           10 
 1584000   0.99151546   -5.8385928    743.90315  0.039136319   0.03915644            3 
 1585000   0.99415652   -5.8417434     743.0028   0.03906429  0.039146883            4 
 1586000    1.0125583   -5.8367432    745.29833  0.039160274  0.039137444            2 
 1587000    1.0064507   -5.8161396    747.75576  0.039264638   0.03912819            2 
 1588000    1.0043307   -5.8232972    744.76473  0.039082952  0.039118786            2 
 1589000    1.0111902   -5.8786468      743.361  0.038984739  0.039109421           11 
 1590000    1.0045322   -5.8162619    745.35809  0.039064889  0.039099949            2 
 1591000    1.0005931   -5.8194298    748.62388  0.039211391   0.03909057            2 
 1592000   0.98777915   -5.8350721    747.41625  0.039123548   0.03908117            3 
 1593000     1.017872    -5.857068    744.79255  0.038961736  0.039071901            4 
 1594000    1.0077969   -5.8536101    746.97828  0.039051562  0.039062633            4 
 1595000   0.98746009   -5.8776101     744.1498    0.0388793  0.039053199            6 
 1596000   0.98386782   -5.8224704    747.63448  0.039036888  0.039043856            3 
 1597000   0.98881395   -5.8434786    750.75348  0.039175197  0.039034446            4 
 1598000   0.99440379   -5.8429367    745.80904  0.038892837  0.039025151            6 
 1599000   0.99869845   -5.8557853    748.01415  0.038983435  0.039015557            7 
 1600000   0.98456345   -5.8554229    748.24866  0.038971285  0.039006156            6 
 1601000   0.99825687   -5.8421426    749.54344  0.039014337  0.038996846            4 
 1602000    0.9844024   -5.8101668    747.82247  0.038900461  0.038987354            3 
 1603000   0.99784397   -5.8808118    749.27917  0.038951922  0.038978046            3 
 1604000   0.99990969   -5.8438764    748.56176  0.038890366   0.03896856            3 
 1605000    1.0064226   -5.8323219    749.59747   0.03891991  0.038959019            3 
 1606000     1.013396    -5.819278    750.68609  0.038952163  0.038949778            4 
 1607000   0.98661548    -5.812184    750.95686  0.038941965  0.038940371            2 
 1608000   0.97408203   -5.8554552    749.34258  0.038834089  0.038930866            2 
 1609000   0.97796939   -5.8523422    749.07098  0.038795886  0.038921407            2 
 1610000   0.99692708   -5.8776095    749.68867  0.038803762  0.038911829            6 
 1611000    1.0057289   -5.8448294    750.96526   0.03884571  0.038902356           13 
 1612000   0.98613355   -5.8415019    751.58115  0.038853451  0.038892898            4 
 1613000   0.99441627   -5.8510483    750.78123  0.038788036  0.038883333            4 
 1614000   0.98983981    -5.809141    751.89959  0.038821747  0.038873703            5 
 1615000   0.98237366   -5.8111681    753.85127  0.038898414  0.038864347            6 
 1616000    1.0165211   -5.8272532    752.92824  0.038826745  0.038855057            2 
 1617000   0.97439965   -5.8778957    752.45493  0.038778341  0.038845667            8 
 1618000   0.98614751   -5.8136298    754.29705   0.03884925  0.038836214            4 
 1619000   0.99159545   -5.8401504    751.40979  0.038676642  0.038826621            6 
 1620000    1.0102684   -5.8388715    754.07843  0.038790043  0.038816912            6 
 1621000   0.98868459   -5.8512755    755.38422  0.038833242  0.038807431            3 
 1622000     1.000763    -5.851945     753.7557  0.038725632    0.0387979            3 
 1623000   0.99005403   -5.8153581    757.67987  0.038903259  0.038788318            4 
 1624000   0.97459446    -5.853332    753.92836    0.0386868  0.038778698            9 
 1625000   0.99085833   -5.8314112    757.73053  0.038857976  0.038769124            5 
 1626000   0.99676169   -5.8226677    756.66301  0.038779367  0.038759606            3 
 1627000   0.99739526   -5.8647884    756.08836  0.038726099   0.03875004            5 
 1628000   0.98669093   -5.8414861    756.89956  0.038743835  0.038740469            2 
 1629000   0.98988376   -5.8396092    758.25506  0.038789393  0.038731256            6 
 1630000   0.99876419   -5.8887761    756.55823  0.038678846  0.038721809            6 
 1631000   0.99753639   -5.8538214    758.63127   0.03876105  0.038712356            5 
 1632000    1.0090658   -5.8292256    760.00549   0.03880747  0.038703247            2 
 1633000    1.0004015    -5.873931    759.80557  0.038773503  0.038693893            3 
 1634000   0.99737973   -5.8481996    758.43862   0.03868006  0.038684703            5 
 1635000     1.003887   -5.8225074    758.96588  0.038683276  0.038675567            3 
 1636000   0.97722533   -5.8468247    762.87646  0.038858825  0.038666486            5 
 1637000   0.98969243   -5.8641504    759.66488  0.038671598  0.038657466            4 
 1638000   0.98334154    -5.875268    759.73153   0.03865138  0.038648511            5 
 1639000   0.96359482   -5.8792114     760.6246  0.038673205  0.038639647            5 
 1640000   0.99680121   -5.8311903    761.01738  0.038669582  0.038630758            5 
 1641000   0.97913812   -5.8900035    759.12378  0.038549857  0.038621922            7 
 1642000   0.99440426   -5.8605925    762.58655  0.038702119   0.03861283            5 
 1643000   0.96121305   -5.8234395    765.46083  0.038824347  0.038603958            3 
 1644000    0.9610471   -5.8882727    760.29991  0.038539128  0.038595178            4 
 1645000    1.0004445   -5.8570005    762.54904  0.038629637  0.038586328            3 
 1646000   0.96661012   -5.8677098    764.21289  0.038690405  0.038577506            3 
 1647000     0.988353   -5.8676737    765.19324  0.038716517  0.038568538            4 
 1648000    1.0070871   -5.8033602    767.73928  0.038821768  0.038559764            3 
 1649000   0.97248136   -5.8552136    767.82425  0.038802519   0.03855115            3 
 1650000   0.99076667   -5.8547552     764.1396  0.038592909  0.038542323            4 
 1651000   0.97279627   -5.8768576    768.61527  0.038795441  0.038533623            5 
 1652000   0.99748387   -5.8491457    766.13556   0.03864687  0.038524794            3 
 1653000    0.9851635   -5.8710739    765.69872  0.038601468   0.03851602            3 
 1654000   0.97029452   -5.8956643    765.71154  0.038578775   0.03850725            8 
 1655000    1.0017716   -5.8429705    768.61988  0.038701908  0.038498317            4 
 1656000   0.99368649   -5.8630716    765.55664  0.038524388  0.038489506            3 
 1657000   0.98760645   -5.8609531    765.88121  0.038517462  0.038480696            5 
 1658000   0.98647495   -5.8693174    767.81873  0.038591613  0.038471794            2 
 1659000   0.97879231   -5.8782051    768.88378  0.038621849  0.038462869            3 
 1660000   0.95388893   -5.8826587    768.30118  0.038569336  0.038454069            3 
 1661000   0.98996653   -5.8632755    768.76415  0.038569343  0.038445105            3 
 1662000   0.97664304   -5.8489358    768.93212  0.038554559  0.038436095            2 
 1663000    0.9939565   -5.8771119    767.66728  0.038467993  0.038427303            6 
 1664000   0.98099762   -5.8864346    770.15849  0.038569636   0.03841851            4 
 1665000   0.99069461   -5.8340468    768.14214  0.038445553  0.038409637            5 
 1666000    0.9696341   -5.8834344    768.22317  0.038426529  0.038400927            4 
 1667000   0.97822242   -5.8453301    770.08339   0.03849647  0.038391869            5 
 1668000    1.0117163   -5.8906961    773.11367  0.038624784  0.038382859            2 
 1669000    1.0032231   -5.8685877    772.05309  0.038548686  0.038373927            5 
 1670000   0.96875583   -5.8539614    772.12081  0.038528982  0.038365268            2 
 1671000   0.98636019   -5.8577145    773.88712  0.038594012   0.03835671            6 
 1672000    1.0066454   -5.8558325    770.81736  0.038417931  0.038348094            3 
 1673000   0.99233213   -5.8888533    772.77208  0.038492333  0.038339485            3 
 1674000   0.97084077   -5.8931185    774.22436  0.038541635  0.038330866            2 
 1675000   0.97074827   -5.8287413    775.85907  0.038599954  0.038322413            3 
 1676000   0.99440819   -5.8352968    778.25535  0.038696069  0.038313747            4 
 1677000   0.99288868   -5.9123653    773.65541  0.038444415  0.038305292            7 
 1678000   0.99135858    -5.897912    777.88712  0.038631661  0.038296996            4 
 1679000   0.97663062   -5.8652017    777.42059  0.038585497  0.038288692            4 
 1680000   0.98699048   -5.8533059    778.77459  0.038629692  0.038280465            6 
 1681000   0.99857916     -5.90062    776.38952  0.038488475  0.038271921            3 
 1682000   0.97523404   -5.8619252    774.84473  0.038389057    0.0382634            3 
 1683000   0.97086648   -5.8874663    775.45649  0.038396538  0.038254821            9 
 1684000   0.99773798   -5.8849576    776.25199  0.038413103  0.038246145            3 
 1685000   0.96880393   -5.8483502    779.76662  0.038564126  0.038237541            4 
 1686000   0.97701174    -5.843338    778.54247  0.038480747   0.03822913            3 
 1687000   0.98852435   -5.8799058    778.52092  0.038456872  0.038220523            5 
 1688000    1.0045845   -5.8965098    778.07426  0.038412039  0.038212016            5 
 1689000    0.9666944   -5.8660327    776.19822  0.038296735  0.038203536            3 
 1690000     0.976767   -5.8648721    780.78924  0.038500455  0.038195246            3 
 1691000   0.97902686   -5.8905735    779.35189  0.038406855  0.038186741            4 
 1692000   0.98036582    -5.891268    777.89171  0.038312239  0.038178145            6 
 1693000   0.97688144   -5.8571589    781.87975   0.03848591  0.038169708            2 
 1694000   0.98431769    -5.865188    780.07742  0.038374529   0.03816125            5 
 1695000   0.98925232   -5.8919528    780.89782  0.038392223  0.038152962            3 
 1696000   0.98282378   -5.8390263    782.35222  0.038441048  0.038144796            2 
 1697000   0.97814243   -5.8692622    780.29419  0.038317334  0.038136592            4 
 1698000   0.98662287   -5.9012005    780.98774  0.038328805  0.038128247            3 
 1699000   0.99600056   -5.8914165    782.53058   0.03838192  0.038119689            3 
 1700000   0.98244532   -5.8953045    781.53541  0.038310559  0.038110978            4 
 1701000   0.95183221   -5.8529405    784.28002  0.038422498    0.0381025            4 
 1702000    1.0045665   -5.8613548    781.39693  0.038258761  0.038094145            5 
 1703000   0.96888482   -5.8664452    783.90072  0.038358814  0.038085588            9 
 1704000   0.99449788   -5.9163244    778.91725  0.038092588  0.038077005            5 
 1705000   0.98750885   -5.8688713    783.53611  0.038295997  0.038068405            3 
 1706000    0.9882268   -5.8622218    782.79032   0.03823712  0.038059791            5 
 1707000    1.0011688   -5.8569488    784.90665  0.038318036  0.038051033            3 
 1708000   0.96910171   -5.8850396    784.80367  0.038290577  0.038042365            3 
 1709000   0.99346775      -5.9063    781.74261   0.03811891  0.038033544            6 
 1710000   0.97249125   -5.8660569    783.75957  0.038194911  0.038024693            2 
 1711000   0.97862726   -5.9071875    783.02121  0.038136626  0.038015814            8 
 1712000   0.97741786    -5.870707     784.6471  0.038193492  0.038006878            5 
 1713000   0.99192169   -5.8994706    781.90151  0.038037629  0.037998139            5 
 1714000   0.96565735   -5.8872131    784.45134  0.038139408  0.037989369            4 
 1715000   0.98667395   -5.8924839    783.97272  0.038093913  0.037980744            4 
 1716000   0.98766952   -5.8753664    782.49862  0.038000127  0.037971986            4 
 1717000   0.99534801   -5.8654304    785.69559  0.038133158  0.037963179            4 
 1718000   0.97276948   -5.8916146    783.44631  0.038001858  0.037954333            3 
 1719000   0.97944027   -5.8947498    786.02113  0.038104573  0.037945363            3 
 1720000   0.98344259    -5.897938    786.63394  0.038112109  0.037936426            4 
 1721000   0.97491232   -5.8614809    786.46686  0.038081874  0.037927583            3 
 1722000   0.98170687   -5.8949281    785.52838  0.038014343  0.037918559            3 
 1723000   0.99216576   -5.9125469    783.75644   0.03790658  0.037909425            3 
 1724000   0.95647277   -5.8648822    786.94164  0.038038556  0.037900222            3 
 1725000   0.98587132   -5.8391527    788.66187  0.038099607   0.03789119            3 
 1726000      0.99546   -5.9034486    785.16577  0.037908737  0.037882125            5 
 1727000   0.97731341   -5.8759411    787.45526  0.037997262  0.037872925           12 
 1728000   0.96249984   -5.8863252    785.58463  0.037885061   0.03786386            4 
 1729000   0.96923401   -5.8998214    783.92581  0.037783199  0.037854708            3 
 1730000   0.97037402   -5.9017419    786.53239  0.037886917  0.037845573            7 
 1731000   0.99525499   -5.9063777    784.73158  0.037778335  0.037836564            7 
 1732000   0.96575999   -5.8897072    787.43837  0.037886758  0.037827357            3 
 1733000   0.97542868   -5.8549484    789.93102  0.037984757  0.037818346            2 
 1734000   0.96762697   -5.8877139     789.6136  0.037947597  0.037809239            3 
 1735000   0.96616361   -5.9168039    787.86045   0.03784152  0.037800135            5 
 1736000   0.97884701   -5.8765473    787.28787  0.037792237  0.037790975            4 
 1737000   0.97106158   -5.8812421    786.85797  0.037749855  0.037781807            3 
 1738000    1.0175991    -5.875456    787.87296  0.037776801  0.037772626            5 
 1739000    1.0005379   -5.8566603    790.21505  0.037867311  0.037763454            3 
 1740000   0.97416524   -5.8798277    790.20908  0.037845262  0.037754342            3 
 1741000   0.98633259   -5.8896633    787.56847  0.037697132  0.037745112            2 
 1742000    0.9806878   -5.8568884    790.40639  0.037811251  0.037735958            3 
 1743000   0.97916359   -5.9304395     785.8011  0.037569377  0.037726737            6 
 1744000   0.96926378   -5.9184371    790.27245  0.037761489    0.0377174            2 
 1745000   0.97719378   -5.9092877     789.6671  0.037710941  0.037708092            4 
 1746000   0.98581924   -5.9102412     789.6408  0.037688087  0.037698764            4 
 1747000   0.95887038   -5.9036047    791.00639  0.037731654  0.037689667            3 
 1748000   0.97465566   -5.8844761    793.12921  0.037811271  0.037680435            4 
 1749000   0.97077909   -5.8880637    790.16085  0.037648221  0.037671321            5 
 1750000   0.98268916   -5.8857086    791.08575   0.03767075  0.037662104            3 
 1751000   0.96889074   -5.8856888    792.07597  0.037696362  0.037652824            2 
 1752000   0.95949954   -5.9100166    791.46162  0.037645625  0.037643646            5 
 1753000   0.97921148   -5.9073087    791.23314  0.037613289  0.037634454            3 
 1754000   0.96853484   -5.8575689    793.74998  0.037711421  0.037625481            4 
 1755000   0.98625995   -5.8793753    793.98388  0.037701039  0.037616356            3 
 1756000    1.0001203   -5.8844444    793.48663  0.037655971  0.037607064            5 
 1757000   0.95460168   -5.9083153      794.625  0.037688532   0.03759782            7 
 1758000   0.95456318   -5.8941609    792.97732   0.03758899  0.037588681            5 
 1759000   0.94780927   -5.9319884    791.27434  0.037486941  0.037579342            3 
 1760000   0.96181121   -5.8647811    795.07737  0.037645709  0.037570052            2 
 1761000   0.97784111   -5.9151159    791.81743  0.037470066    0.0375611            6 
 1762000   0.97359757   -5.8788905    794.58951  0.037579905  0.037551779            3 
 1763000   0.96517157   -5.8721333    794.05786  0.037533459  0.037542371            2 
 1764000    0.9723397   -5.9230546    794.03235  0.037510976  0.037533174            4 
 1765000   0.97130128   -5.9052174     792.8391  0.037433385  0.037523772            6 
 1766000   0.94352615   -5.9015132    796.21386  0.037571435  0.037514637            4 
 1767000   0.97685195     -5.91801    793.94443  0.037443144  0.037505349            5 
 1768000   0.97383115   -5.8888526    796.84176  0.037558529  0.037496089            3 
 1769000   0.96281542   -5.8805325    795.92404  0.037494066  0.037486977            4 
 1770000   0.96648073   -5.9091055    794.24653  0.037393905  0.037477928            2 
 1771000    0.9481169   -5.8858077    795.50026  0.037431783  0.037468654            5 
 1772000   0.95328913   -5.8929531     798.4876  0.037551147   0.03745952            3 
 1773000   0.95581366   -5.8952793    796.76898  0.037449191  0.037450451            4 
 1774000   0.95387701   -5.9256135    794.07864  0.037301702  0.037441176            6 
 1775000   0.95824085   -5.9010424    797.03368  0.037419421  0.037431934            9 
 1776000   0.96800109   -5.9499537    795.50506  0.037326626  0.037422594            4 
 1777000   0.96178971   -5.9161779    798.36499  0.037439739  0.037413269            7 
 1778000    1.0035588   -5.8993478    798.33457  0.037417256  0.037403893            4 
 1779000   0.96705422   -5.9135175    796.95287    0.0373315  0.037394454            6 
 1780000   0.96006762   -5.8710384    798.73856  0.037394127  0.037385047            4 
 1781000   0.95130675   -5.9085027    798.25087  0.037350312  0.037375599            7 
 1782000   0.98159485   -5.9255025    797.77822   0.03730725  0.037366187            3 
 1783000   0.95230218    -5.849448    799.39953  0.037362102  0.037356843            5 
 1784000   0.95228073   -5.8968402    800.54589  0.037394707  0.037347575            6 
 1785000    0.9623787   -5.9166805    800.19455  0.037357355  0.037338218            3 
 1786000   0.97741159   -5.9449732    798.94026  0.037277914  0.037328882            5 
 1787000   0.99073997   -5.9299724    800.92654   0.03734968  0.037319567            6 
 1788000   0.98231162   -5.9228415    798.03645  0.037194093  0.037310101            3 
 1789000   0.96600468    -5.917488    801.19693   0.03732052  0.037300585            4 
 1790000   0.96451074   -5.9287202    799.63276  0.037226851  0.037291204            2 
 1791000    0.9707367     -5.89714     799.4379  0.037196999  0.037281805            7 
 1792000   0.99183309   -5.9270063    799.91856  0.037198594  0.037272384            3 
 1793000   0.97321063   -5.9248075    801.69656  0.037260483  0.037262776            5 
 1794000   0.98102501   -5.9200933    802.19159  0.037262708  0.037253204            3 
 1795000   0.96588334   -5.9083172    801.53479  0.037211457  0.037243772            3 
 1796000   0.96152659   -5.9457932    802.27234   0.03722496  0.037234399            7 
 1797000   0.96320524      -5.9435    798.74573  0.037040704  0.037224922            3 
 1798000   0.97007717   -5.9077243     802.1779  0.037179176  0.037215343            3 
 1799000   0.95472493   -5.9058214    805.83553  0.037327938  0.037206044            4 
 1800000    0.9504728   -5.9119194    801.43109  0.037103291  0.037196734            4 
 1801000   0.97287674   -5.8967105     804.4732   0.03722345  0.037187379            5 
 1802000    0.9601981     -5.92759    801.99355  0.037088122  0.037177924            3 
 1803000   0.95075719   -5.9253653    804.13415  0.037166489  0.037168326            6 
 1804000   0.96703084   -5.9050332    804.41113  0.037158681  0.037158866            2 
 1805000   0.95291633   -5.9387814    804.46215   0.03714045  0.037149478            5 
 1806000   0.97490211   -5.9016442    805.00124   0.03714476  0.037140123            5 
 1807000   0.97293513   -5.9474856    806.14896  0.037177133  0.037130852            3 
 1808000   0.97567262   -5.8920946    807.89456  0.037237028  0.037121562            3 
 1809000   0.96050741   -5.9147124     806.1063  0.037134066  0.037112267            5 
 1810000   0.95951251   -5.8882482    806.32999  0.037123848  0.037102818            3 
 1811000   0.96093293   -5.9169403    806.60128  0.037115833  0.037093498            4 
 1812000   0.97448282   -5.9243553    805.89406  0.037062824  0.037084098            5 
 1813000   0.99144551   -5.8990251    807.11971  0.037098718  0.037074867            7 
 1814000   0.95959965   -5.9361661    806.50337  0.037049953  0.037065545            4 
 1815000   0.95549828   -5.9215012    804.96559  0.036958934  0.037056012            2 
 1816000    0.9475787   -5.9540096    806.05364  0.036988512  0.037046641            3 
 1817000   0.94731021   -5.9151433    808.42216  0.037076782  0.037037279            4 
 1818000   0.94763324   -5.9692659    804.91141  0.036895462  0.037027937            9 
 1819000   0.96616779   -5.9361434    806.14384   0.03693164   0.03701852            5 
 1820000   0.95849776   -5.9411302    805.43565  0.036878922  0.037009047            4 
 1821000   0.97872559   -5.9019721    809.22028  0.037031863    0.0369996            3 
 1822000   0.94576523    -5.945017    806.51477  0.036887796  0.036990349            4 
 1823000   0.94546397   -5.9057735    809.38015  0.036998544   0.03698096            5 
 1824000   0.94805252   -5.9029142    809.22074  0.036970977  0.036971672            7 
 1825000   0.96457213   -5.9538833    809.87239  0.036980474  0.036962312            4 
 1826000   0.95717428   -5.8976231    808.77095  0.036909956  0.036953064            4 
 1827000   0.95758737   -5.9002876    812.55132  0.037062184  0.036943862            4 
 1828000   0.95771199   -5.9186643    810.64459  0.036954987  0.036934601            3 
 1829000   0.96918158   -5.9467207    810.18029  0.036913627  0.036925291            9 
 1830000   0.93398398   -5.9266048    810.08505  0.036889119   0.03691601            3 
 1831000   0.95021325   -5.9227615    807.14594  0.036735206  0.036906424            5 
 1832000   0.95529014   -5.9631049    807.57619  0.036734725  0.036896836            3 
 1833000   0.95566393   -5.9085949    808.59995  0.036761227  0.036887263            4 
 1834000   0.94197864   -5.9238885    809.50146  0.036782146  0.036877683            3 
 1835000   0.95205144   -5.9436303    808.85007  0.036732519  0.036867974            6 
 1836000   0.94348742   -5.9456697    808.32761  0.036688798  0.036858253            4 
 1837000    0.9592493   -5.9319353    812.45804  0.036856199  0.036848633            5 
 1838000   0.95177987   -5.9390565    808.39792  0.036652064  0.036839018            5 
 1839000   0.95585972   -5.9121984    812.00885  0.036795761  0.036829448            6 
 1840000   0.97410688   -5.9162875    812.51483  0.036798679  0.036819919            4 
 1841000   0.95988594    -5.920626    813.23266  0.036811183  0.036810272            3 
 1842000   0.98278344   -5.9062561    811.39479  0.036708052  0.036800677            3 
 1843000   0.94035644   -5.9032223    812.44267  0.036735516  0.036791183            3 
 1844000    0.9409835   -5.9339373    810.86226  0.036644173  0.036781574            3 
 1845000   0.94803671   -5.9315305    811.72204  0.036663146  0.036771893            5 
 1846000   0.96280947   -5.9261094    812.70825  0.036687805  0.036762186            2 
 1847000   0.92277283    -5.933421    813.09758  0.036685507  0.036752461            6 
 1848000   0.96474253    -5.936785    812.14932  0.036622895  0.036742932            5 
 1849000   0.95918275   -5.9604933    812.63551     0.036625  0.036733317            5 
 1850000   0.94982498   -5.9519359    812.15501  0.036583559  0.036723583            3 
 1851000   0.96627949   -5.9161986    813.96983  0.036645499  0.036714092            4 
 1852000   0.93613195   -5.9610207    815.21981  0.036681957  0.036704568            2 
 1853000   0.98337341   -5.9468826    812.13021  0.036523215  0.036695011            3 
 1854000   0.95079709     -5.93938    817.30578  0.036736146  0.036685438            3 
 1855000   0.95384409   -5.9198632     814.4634  0.036588652  0.036675917            8 
 1856000     0.936323   -5.9369313    814.79775  0.036583951  0.036666263            3 
 1857000   0.95604768   -5.9437041     814.0516  0.036530767  0.036656575            3 
 1858000   0.95181887   -5.9276613    815.25931  0.036565272  0.036646933            4 
 1859000   0.96214965   -5.9002854    820.00539  0.036758355  0.036637489            4 
 1860000   0.96064764   -5.9174978    816.45461  0.036579508  0.036627979            4 
 1861000   0.95923504   -5.9331477    816.05551   0.03654198  0.036618424            4 
 1862000   0.94196746   -5.9401615      815.761  0.036509175  0.036608762            3 
 1863000   0.96164511    -5.920722    817.02062  0.036545921  0.036599075            6 
 1864000   0.95502972   -5.9289144    817.77127  0.036559874  0.036589594            7 
 1865000   0.96029257   -5.9519221    815.47858  0.036437827   0.03658011            4 
 1866000    0.9219834   -5.9311465    819.07441  0.036578886  0.036570459            3 
 1867000   0.94474503     -5.91763    817.91322  0.036507464  0.036560966            4 
 1868000   0.94177409   -5.9449291     816.4897  0.036424416  0.036551492            2 
 1869000   0.93640272   -5.9356177    818.63712  0.036500674  0.036541956            5 
 1870000   0.94778656   -5.9473483    816.68084  0.036393977  0.036532283            3 
 1871000   0.96756673   -5.9611571     817.7517  0.036422221  0.036522573            2 
 1872000    0.9548709   -5.9492048    815.93823  0.036322036  0.036512944            5 
 1873000   0.96489942   -5.9334847    818.80805  0.036430328  0.036503375            4 
 1874000   0.94148048   -5.9350648    819.27281  0.036431555  0.036493745            2 
 1875000   0.93661108    -5.936505    821.09687  0.036493194  0.036484193            4 
 1876000   0.93989835   -5.9630475    820.20674  0.036434201  0.036474558            3 
 1877000   0.95252866   -5.9105317    820.26327    0.0364173  0.036464905            5 
 1878000   0.96299197   -5.9688349    817.77082   0.03628731  0.036455345            6 
 1879000   0.96318116    -5.917595    821.97857  0.036454611  0.036445726            7 
 1880000   0.95450641   -5.9241907    820.90165  0.036387485   0.03643616            2 
 1881000   0.96300263    -6.006985    815.51129  0.036129332  0.036426513            4 
 1882000   0.94670069   -5.9223659    822.36091   0.03641343  0.036416906            4 
 1883000   0.94193464   -5.9367984     819.0322  0.036246778  0.036407392            5 
 1884000   0.94621423   -5.9151881    822.07866   0.03636229  0.036397792            5 
 1885000   0.94801089   -5.9204014    822.69765  0.036370365  0.036388257            5 
 1886000   0.95965874   -5.9510139    818.06901  0.036146563  0.036378847            7 
 1887000   0.95286793    -5.955991    819.34671  0.036183833  0.036369289            4 
 1888000   0.92450224   -5.9252236    822.73694  0.036314307  0.036359765            3 
 1889000   0.93695395    -5.948591    821.63234  0.036246353  0.036350357            4 
 1890000   0.94964131   -5.9602896    823.96924  0.036330213   0.03634082            5 
 1891000    0.9433642   -5.9481136    821.25122  0.036191223   0.03633132            9 
 1892000   0.94874245   -5.9500966    823.04134   0.03625094  0.036321998            7 
 1893000   0.94385905   -5.9377909    823.93498   0.03627113  0.036312459            6 
 1894000   0.95083175   -5.9482917      824.679  0.036284715   0.03630296            4 
 1895000   0.94904088   -5.9423731     821.6455  0.036132168  0.036293386            3 
 1896000   0.94946609   -5.9401278    823.84732  0.036209886  0.036283918            5 
 1897000   0.94488371   -5.9199485    825.63496  0.036269327  0.036274343            3 
 1898000   0.95461078   -5.9098312    826.07322   0.03626946  0.036264967            6 
 1899000   0.94649037    -5.955968    824.21683  0.036168897  0.036255517            4 
 1900000   0.95491234   -5.9458835     825.7588  0.036217491  0.036246047            6 
 1901000   0.92111026   -5.9452654    826.65078  0.036237541  0.036236517            5 
 1902000    0.9711641   -5.9361353    823.87301  0.036096785  0.036227044            5 
 1903000   0.94270015   -5.9714044    825.70852  0.036158194   0.03621742            4 
 1904000   0.97325254    -5.978209    824.47936  0.036085406  0.036207748            6 
 1905000   0.95198589   -5.9583303    825.05728  0.036091744  0.036198069            3 
 1906000   0.94493455   -5.9471221    825.08561  0.036074047  0.036188302            7 
 1907000   0.94065724   -5.9676165     823.5412  0.035987642  0.036178671            4 
 1908000   0.92486228   -5.9486072    825.17265  0.036040036  0.036169232            6 
 1909000   0.95300416   -5.9512487    827.21729  0.036110411   0.03615967           10 
 1910000   0.92849547   -5.9465048    829.75866  0.036202385   0.03615007            4 
 1911000   0.92736067   -5.9691247    823.56248  0.035913242  0.036140432            5 
 1912000   0.92876462   -5.9307036    828.56035  0.036112289  0.036130707            3 
 1913000   0.93059472   -5.9759983     824.8128  0.035930162  0.036121152            5 
 1914000   0.95955376   -5.9893191    825.12898  0.035925156  0.036111432            4 
 1915000   0.94132073    -5.934713    829.21682  0.036084283  0.036101851            7 
 1916000   0.93809143   -5.9543571    829.57986   0.03608124  0.036092286            3 
 1917000   0.94646881   -5.9561172    827.32476  0.035964387   0.03608261            5 
 1918000   0.94885942   -5.9451211    829.13743  0.036024393  0.036073027            6 
 1919000   0.95656379   -5.9444135    830.36513  0.036058934   0.03606354            5 
 1920000   0.91720266   -5.9562157    827.95121  0.035935383  0.036054051            5 
 1921000   0.91572982   -5.9619648    829.05958  0.035964757  0.036044374            7 
 1922000    0.9529592   -5.9592958    829.89925  0.035982451  0.036034923            3 
 1923000   0.95276453   -5.9380258    832.24576  0.036065426  0.036025496            4 
 1924000   0.94903734    -5.959938    829.35787  0.035921599  0.036015976            7 
 1925000   0.93804091   -5.9369398    830.86373  0.035968127  0.036006439           10 
 1926000   0.96642468   -5.9614705    830.89328   0.03595073  0.035996835            7 
 1927000   0.95144488   -5.9589215    831.21101  0.035945814  0.035987325            5 
 1928000   0.94642173   -5.9905447    827.75049  0.035777597  0.035977572            3 
 1929000   0.93842667   -5.9178701    830.66212  0.035884833  0.035967878            9 
 1930000   0.95622861   -5.9540335    830.04454  0.035839574  0.035958394           10 
 1931000    0.9514454   -5.9753304     831.2077  0.035871211  0.035948874            6 
 1932000   0.94088732    -5.919722    831.14798  0.035850068  0.035939321            6 
 1933000    0.9575038   -5.9338528    833.50969  0.035933337  0.035929829            4 
 1934000   0.93697766   -5.9434791    832.34532  0.035864586  0.035920237            5 
 1935000   0.94947911   -5.9733188    832.73225  0.035862715  0.035910688            6 
 1936000   0.94755516   -5.9716918    830.64646   0.03575441  0.035901119            4 
 1937000   0.94140337   -5.9540063    833.22245  0.035846775  0.035891508           17 
 1938000   0.93156785   -5.9937777    830.29373  0.035702345  0.035881946            2 
 1939000   0.93275208   -5.9786491    833.88058  0.035838086  0.035872352            7 
 1940000   0.95617036   -5.9676113    833.35948  0.035797228  0.035862732            3 
 1941000   0.90848649   -5.9649294    831.67485  0.035706459  0.035853026            4 
 1942000   0.94877316   -5.9848869    830.99733     0.035659  0.035843194            3 
 1943000   0.92046817   -5.9861592    832.72763  0.035714858  0.035833426            6 
 1944000   0.94515451   -5.9655456    833.07778  0.035711496  0.035823663            3 
 1945000    0.9543048   -5.9501918    836.66578  0.035846863  0.035814083            5 
 1946000   0.93158694   -5.9566176    836.25522  0.035810861  0.035804509            6 
 1947000   0.95796585   -6.0159267     834.3704  0.035711796  0.035794826            4 
 1948000    0.9491539   -5.9717189    835.24915  0.035731055  0.035785222            5 
 1949000   0.94420663    -5.989316    835.00054  0.035702093   0.03577566            7 
 1950000   0.95013201   -5.9796764    835.56955  0.035708101  0.035766104            3 
 1951000   0.94358865   -5.9239964    837.19089  0.035759051  0.035756679            4 
 1952000   0.94745201   -5.9763677    836.69312  0.035719481  0.035747101            7 
 1953000   0.92640957   -6.0036235    833.83175  0.035579098  0.035737419            5 
 1954000   0.93444785   -5.9695728    835.00944  0.035611115  0.035727829            3 
 1955000   0.93541506   -5.9869264     835.8003  0.035626611  0.035718325            6 
 1956000    0.9414923   -6.0027215    833.92639  0.035528561  0.035708729            4 
 1957000   0.93044383   -5.9724132    836.08853  0.035602475  0.035699149            7 
 1958000    0.9366976   -5.9940126    836.20637  0.035589307  0.035689645            6 
 1959000   0.92054329   -5.9940552    837.03921  0.035606568  0.035680133            3 
 1960000    0.9340638   -6.0075552    835.87834  0.035539045  0.035670615            4 
 1961000   0.94139573   -5.9795294    837.09346  0.035572559  0.035660992            3 
 1962000   0.95015134    -5.991032    839.26889  0.035646827  0.035651589            3 
 1963000   0.93923686   -5.9759572     839.9304   0.03565675  0.035642318            5 
 1964000   0.93818243   -5.9857291    837.94404  0.035554312  0.035632844            3 
 1965000    0.9187565   -5.9626969     841.4517  0.035684975  0.035623353            3 
 1966000   0.92700854   -5.9759971    839.57299   0.03558719  0.035613875            6 
 1967000   0.93296583   -5.9616543    840.45246  0.035606357  0.035604403            3 
 1968000   0.94137232   -5.9844329    838.69053  0.035513657  0.035594972            2 
 1969000   0.96366304   -6.0038935    839.23036  0.035518468  0.035585527            4 
 1970000   0.94091528   -5.9817454     839.4089  0.035507991  0.035576054            5 
 1971000   0.93136573   -5.9958303     840.7835  0.035548093  0.035566624            7 
 1972000   0.91768993   -5.9999415    840.92658  0.035536113  0.035557214            3 
 1973000   0.91424204   -5.9704025    842.49804  0.035584475  0.035547804            5 
 1974000   0.94311494   -5.9827998    842.93899  0.035585064  0.035538487            5 
 1975000   0.92628114   -5.9612671    842.91969  0.035566231  0.035529111            3 
 1976000   0.93217321   -6.0154116    838.78277  0.035373767  0.035519757            3 
 1977000   0.94785753   -5.9944172    839.57313  0.035389189  0.035510389            3 
 1978000    0.9207752   -5.9645106    843.53184  0.035538079  0.035501025            5 
 1979000   0.92127078   -6.0113546    840.47021  0.035391199  0.035491774            7 
 1980000   0.92863883    -5.988944    844.03301  0.035523275  0.035482426           12 
 1981000   0.95242039   -5.9749893    845.48889  0.035566586  0.035473057            2 
 1982000    0.9330246   -5.9935528     843.2606  0.035454953  0.035463844            5 
 1983000   0.93843341   -5.9725449    845.84487  0.035545675  0.035454564            5 
 1984000   0.91744498   -5.9708376    845.67289  0.035520535  0.035445354            6 
 1985000   0.92173061    -5.985974     845.7252  0.035504836  0.035435984           11 
 1986000   0.93033729    -5.976908    843.61783  0.035398533  0.035426747            5 
 1987000   0.92731744   -5.9802857    845.76728  0.035470864  0.035417527            5 
 1988000   0.93611144   -5.9901583    847.05223  0.035506884  0.035408229           13 
 1989000    0.9228269   -5.9703101    847.43055  0.035504883  0.035398982            4 
 1990000    0.9328017   -5.9743472    848.58944  0.035535571   0.03538986            4 
 1991000   0.91631017    -5.989309     848.0823  0.035496497  0.035380683            7 
 1992000   0.92236267    -6.005655    847.99233  0.035474913   0.03537154            5 
 1993000   0.92974549   -5.9773916    847.41552  0.035432996  0.035362342            6 
 1994000   0.93923145     -5.97685    848.27817  0.035451277  0.035353284            7 
 1995000   0.93091824   -5.9957923    847.12149  0.035385192  0.035344193            5 
 1996000   0.92122871    -5.980217     850.5077  0.035508838   0.03533508            5 
 1997000   0.94858907   -5.9981146    848.16566  0.035393326  0.035325903            6 
 1998000   0.91602605   -6.0027694    848.47523  0.035388523    0.0353167            2 
 1999000   0.92378151   -5.9770958    851.43765  0.035494316  0.035307707            2 
 2000000    0.9278215   -5.9850903    850.02567  0.035417736  0.035298734           10 
 2001000   0.94308642   -6.0170616      848.821  0.035349867  0.035289617            5 
 2002000   0.94044744     -5.98044    850.04663  0.035383227  0.035280631            4 
 2003000   0.92364425    -5.974618    850.79413   0.03539666  0.035271701            3 
 2004000   0.93341139   -5.9955608    852.42381  0.035446765  0.035262614            5 
 2005000   0.95194793   -5.9820199    852.07981  0.035414789  0.035253588            7 
 2006000   0.92478351     -5.97069    852.51064  0.035415032  0.035244796            9 
 2007000   0.94355005   -6.0093059    852.55204  0.035399105  0.035235846            7 
 2008000   0.94934936   -5.9862488     850.3661  0.035290758  0.035226722            6 
 2009000   0.93927841     -5.97737    853.92344   0.03542075  0.035217778            4 
 2010000   0.92618252   -5.9990173    853.74505  0.035395732  0.035209009            6 
 2011000   0.93835091   -5.9530218    854.05615  0.035391022  0.035200048            2 
 2012000   0.94294984   -5.9887207     854.7769  0.035403284  0.035191167            4 
 2013000   0.95544056   -6.0009543    855.06957  0.035397813  0.035182277            6 
 2014000   0.92963087   -5.9437363    856.72829   0.03544887  0.035173484            8 
 2015000   0.92552563   -5.9486158    853.87831  0.035313412  0.035164624            3 
 2016000   0.93129239   -5.9811591    855.73573  0.035372674  0.035155777            3 
 2017000   0.93481245   -6.0036111    856.59026  0.035390442  0.035147102            5 
 2018000    0.9171483   -6.0226501     852.8329  0.035217744   0.03513824            4 
 2019000   0.90825526   -6.0125364    852.76464  0.035197484   0.03512915            8 
 2020000   0.91124339   -6.0068262    855.73338  0.035302532  0.035120233            4 
 2021000   0.93187198   -5.9909438    854.35162  0.035228089  0.035111242            4 
 2022000    0.9262811   -6.0375523     852.7592  0.035145038  0.035102266            9 
 2023000   0.93726879   -6.0228547    853.28757   0.03514943  0.035093236            5 
 2024000   0.92310819   -5.9925423    855.82025  0.035236341  0.035084193            9 
 2025000   0.91619527    -5.996497    854.43614  0.035161981  0.035075155            2 
 2026000   0.93707517      -5.9728    855.42448  0.035185278  0.035066127            5 
 2027000   0.92232227   -6.0186327    851.38131  0.035001698  0.035057089            2 
 2028000   0.92106887   -5.9866327    854.91732  0.035129739  0.035048054            3 
 2029000    0.9178252   -5.9746882     858.3659  0.035254062   0.03503906           14 
 2030000   0.93346941   -5.9933956    859.74087  0.035293139  0.035030171            3 
 2031000   0.93608642   -6.0159009    860.65597  0.035313309  0.035021293            8 
 2032000    0.9179755   -6.0137251    857.11158  0.035150573  0.035012436            7 
 2033000   0.92476765   -5.9803806    857.10234  0.035132905  0.035003638            4 
 2034000   0.95444116   -6.0148732    856.94603  0.035109228  0.034994753            3 
 2035000   0.90475519   -6.0099633    859.01414  0.035176664  0.034985841            5 
 2036000   0.92800319   -6.0094025    855.54647  0.035017455  0.034977014            7 
 2037000   0.92849779   -6.0160792    860.40358  0.035198968  0.034968163            5 
 2038000   0.91375845   -6.0021544    858.04519  0.035085263  0.034959333            4 
 2039000   0.91246474   -6.0315512    859.24821  0.035117223  0.034950448            4 
 2040000   0.91499992   -5.9811036    862.05427  0.035214635  0.034941767            4 
 2041000   0.92821265   -6.0046755    860.88685  0.035149716  0.034933063            4 
 2042000   0.92814585    -5.976166    863.08786  0.035222325  0.034924427            6 
 2043000   0.93457533    -5.966518    861.85265  0.035154701  0.034915751            4 
 2044000   0.93125701   -5.9749785    862.02439  0.035144504  0.034906972            5 
 2045000   0.92687264   -6.0111492    861.68269  0.035113394  0.034898148            6 
 2046000   0.93232964   -6.0148828    860.07829  0.035030885   0.03488933            5 
 2047000   0.93204184   -5.9736094    864.87924  0.035209218  0.034880625            6 
 2048000   0.89914938   -6.0330298    859.32148  0.034965881  0.034871823            7 
 2049000   0.91503116   -6.0529766     858.8084  0.034927949  0.034862981            4 
 2050000   0.91935998   -5.9847763    864.17191  0.035128939  0.034854165            5 
 2051000   0.91486584    -5.985855    864.15238  0.035111018  0.034845317            4 
 2052000   0.90219004   -6.0304149    861.34714  0.034979984  0.034836506            4 
 2053000   0.94597149   -5.9939715    863.92361  0.035067527  0.034827701            4 
 2054000   0.93254026   -6.0031835    865.23013  0.035103462   0.03481889            5 
 2055000   0.94745353   -6.0228123    862.49407  0.034975429  0.034810082            4 
 2056000   0.94317656   -6.0252431    861.18195  0.034905235  0.034801157           15 
 2057000   0.93314778   -6.0308659    864.64375   0.03502851  0.034792262           17 
 2058000   0.91818246    -6.004211    864.92674  0.035022949  0.034783373            9 
 2059000   0.91034356   -6.0675044    861.61046   0.03487172  0.034774491            6 
 2060000    0.9329729   -5.9983812    864.38236  0.034966924  0.034765637            8 
 2061000    0.9226964   -5.9676346    863.91923  0.034931232  0.034757097            6 
 2062000   0.93950453   -6.0357146     864.4803  0.034936967  0.034748388            7 
 2063000   0.91374706   -6.0150326    865.74872  0.034971268  0.034739543            4 
 2064000   0.91732915    -6.003968    864.37949  0.034899043  0.034730715            8 
 2065000   0.89775181    -6.030027    865.21839  0.034915996  0.034721903            6 
 2066000   0.91933088   -6.0292607    865.97113  0.034929458   0.03471314            4 
 2067000   0.92579361   -5.9899781    867.59561  0.034978052  0.034704363            4 
 2068000   0.89847335   -6.0110509     868.0025  0.034977535  0.034695675            4 
 2069000   0.92886954   -6.0438314    863.91974  0.034796187  0.034686929            4 
 2070000   0.93404125   -6.0166216    864.96849  0.034821598  0.034678253            5 
 2071000   0.93145406   -5.9729999    868.75925  0.034957317  0.034669744            3 
 2072000   0.91567293    -6.027102    866.16312  0.034836033  0.034661157            6 
 2073000   0.93195199   -5.9916475    868.74649  0.034923078  0.034652441            2 
 2074000   0.92032982   -6.0015283    870.69863  0.034984676  0.034643915            7 
 2075000   0.91581556   -6.0211476    869.68229     0.034927  0.034635447            4 
 2076000   0.90665539   -5.9962649     868.4742  0.034861681  0.034626843            3 
 2077000   0.91809872   -5.9941315    869.42165   0.03488291  0.034618268            7 
 2078000   0.91975994   -6.0103262    868.92768  0.034846314  0.034609778            3 
 2079000   0.90424548   -6.0434174    867.12079  0.034757126  0.034601315            3 
 2080000   0.92781159   -6.0003299    871.88334  0.034931223  0.034592699            9 
 2081000   0.92488647    -6.056581     868.6677  0.034785668  0.034584162            4 
 2082000   0.92381275   -6.0095748    868.34526  0.034756054  0.034575505            3 
 2083000   0.91545189   -5.9909342    869.71264  0.034794073  0.034566831            3 
 2084000   0.92291188   -6.0242026    869.46038   0.03476729  0.034558094            6 
 2085000   0.89866561   -6.0022725    869.54417  0.034753963  0.034549419           11 
 2086000   0.92933343   -6.0081218    870.02126  0.034756362  0.034540722            5 
 2087000   0.92322932   -5.9839106    870.28595  0.034750278  0.034532158            7 
 2088000   0.90618047    -6.044843    868.75336  0.034672468  0.034523571            7 
 2089000   0.92658727    -6.000858    871.24589  0.034755301  0.034515009            5 
 2090000   0.91304172   -6.0453946     870.3394  0.034702528  0.034506306            5 
 2091000    0.9228695    -6.030519    873.02856  0.034793104  0.034497773           15 
 2092000   0.91384912   -6.0265432    871.32129  0.034708464  0.034489199            5 
 2093000   0.89641303   -6.0264583    871.40528  0.034695225  0.034480562            3 
 2094000   0.94345257   -6.0232195    870.96475  0.034661125  0.034471839            7 
 2095000   0.91809957   -6.0111614    874.59499  0.034788981  0.034463141            2 
 2096000   0.91787875   -6.0188232    870.20177  0.034597717  0.034454529            6 
 2097000   0.92835092    -6.027359    871.14817  0.034618827  0.034445823            7 
 2098000   0.92416306   -6.0315241    870.06298  0.034559222  0.034437103            9 
 2099000   0.90278846   -6.0520137    873.35097  0.034673296  0.034428416            5 
 2100000   0.91423928   -6.0453798     871.9275  0.034600297  0.034419846            5 
 2101000   0.90652012   -6.0464097    869.91113  0.034503853   0.03441126            5 
 2102000   0.94622464   -6.0319605    873.61406  0.034634239   0.03440255            5 
 2103000   0.93289004   -6.0187451    872.41407   0.03457022  0.034393922            7 
 2104000   0.90086659   -6.0464621    874.76754  0.034647003  0.034385227            8 
 2105000   0.90901237   -5.9952622    873.48834  0.034579902  0.034376507            3 
 2106000   0.90295085   -6.0626289    872.61919  0.034529091  0.034367861           11 
 2107000   0.91439851   -6.0567341    874.11368  0.034571811  0.034359114            4 
 2108000   0.95329659    -6.029495    876.52079  0.034650569  0.034350272            3 
 2109000   0.91659484   -6.0101503    873.01302  0.034495536  0.034341511            2 
 2110000   0.90207051   -6.0090323    876.26656  0.034607684  0.034332695            6 
 2111000   0.92728648   -6.0345658    874.90414  0.034537508  0.034324034            9 
 2112000    0.8992816   -6.0794011    871.67776  0.034393851  0.034315181            4 
 2113000   0.91030284   -6.0047864    876.63245  0.034572979  0.034306387            5 
 2114000   0.90987354   -6.0207176     876.1906  0.034539207  0.034297778            4 
 2115000   0.90276529   -6.0752917      873.464  0.034415445  0.034289094            8 
 2116000   0.91754456   -6.0469989    874.44782  0.034437926  0.034280238            2 
 2117000   0.92097589   -6.0309435     874.3641  0.034418363  0.034271321            6 
 2118000   0.91364329    -6.061738    875.24731  0.034436863  0.034262404            6 
 2119000    0.9045925   -6.0264399    877.15954  0.034495813  0.034253542            4 
 2120000   0.90300117   -6.0352753    875.85628  0.034428313  0.034244781            4 
 2121000   0.88689124   -6.0771784    873.90487   0.03433541   0.03423604            4 
 2122000   0.90401183   -6.0088002    876.07472  0.034404442  0.034227144            3 
 2123000   0.93090831   -6.0050921    876.22216  0.034394024  0.034218351            5 
 2124000   0.91244657   -6.0310487    876.92966  0.034405589  0.034209515            5 
 2125000   0.89287981   -6.0595483    873.36421  0.034249577  0.034200621            6 
 2126000   0.91680856   -6.0078858    876.15301   0.03434278  0.034191698            3 
 2127000   0.89960467   -6.0015556    879.05408  0.034440294   0.03418295            4 
 2128000   0.90953395   -6.0443233    877.66062  0.034369542  0.034174116            6 
 2129000   0.91724717   -5.9979189    878.11152  0.034371047  0.034165429            7 
 2130000   0.90406117   -6.0588047    876.17205  0.034279032  0.034156653            5 
 2131000   0.93233258    -6.032774    878.05729  0.034336669  0.034147762            6 
 2132000   0.92545449    -6.057283     877.6295  0.034303842  0.034138955            7 
 2133000   0.90761179   -6.0618649    878.96921    0.0343401  0.034130225            2 
 2134000   0.93193119   -6.0333723     880.5448  0.034385536  0.034121411            3 
 2135000   0.91883226   -6.0704974    878.06555   0.03427266  0.034112524            2 
 2136000   0.93366594   -6.0295699    881.61696  0.034395169  0.034103624            3 
 2137000   0.89961574   -6.0571588    878.22819  0.034246927  0.034094891            6 
 2138000   0.89723523   -6.0715624    877.92234  0.034218987  0.034086126            7 
 2139000    0.9284685   -6.0600861    879.80435  0.034276311  0.034077323            6 
 2140000   0.91575894   -6.0252695    879.84647  0.034261934  0.034068553            4 
 2141000   0.91328375   -6.0434028    879.86348  0.034246594  0.034059779           12 
 2142000   0.92202977   -6.0191462     881.1759  0.034281664  0.034050993            8 
 2143000   0.89615013   -6.0136174    883.37598   0.03435122  0.034042342           11 
 2144000   0.91650529   -6.0391253    882.67338  0.034307889  0.034033582            6 
 2145000   0.91963362   -6.0779663    880.42299  0.034204467  0.034024784            5 
 2146000   0.92104147   -6.0344819    881.00644  0.034211185  0.034015965            9 
 2147000   0.93364404   -6.0394459    883.43737  0.034289605   0.03400727            5 
 2148000   0.90443855   -6.0525984    884.03274  0.034296739  0.033998665            4 
 2149000   0.90325903    -6.057837    880.68707  0.034151042  0.033989931            2 
 2150000   0.90728329   -6.0440721    881.41524  0.034163381  0.033981279            3 
 2151000   0.89615327   -6.0293722    885.43972  0.034303414  0.033972558            3 
 2152000   0.90776275   -6.0706758     880.1473  0.034082532  0.033963844            3 
 2153000   0.90022828   -6.0452251    883.76657  0.034206788  0.033955149            9 
 2154000   0.90450089   -6.0471997    883.87346  0.034195042   0.03394655            9 
 2155000    0.9144919   -6.0564936    883.71219  0.034172939   0.03393799            4 
 2156000   0.92087385   -6.0493135    885.23085  0.034215787   0.03392935            4 
 2157000   0.90479752   -6.0767772     882.0545   0.03407721  0.033920808            8 
 2158000    0.9018138   -6.0549057     884.9592  0.034173587  0.033912047            3 
 2159000   0.90010433   -6.0170992     886.3179  0.034210201  0.033903486            3 
 2160000   0.91873889   -6.0469013    885.82485  0.034175341  0.033894918           12 
 2161000   0.89597648   -6.0699258    885.80746  0.034158856  0.033886399            5 
 2162000   0.92341017   -6.0530203    884.48293  0.034092003  0.033877784            7 
 2163000    0.8887483   -6.0381754    889.37644  0.034264773  0.033869267            3 
 2164000   0.88162265   -6.0703589    884.77149  0.034071607  0.033860727            5 
 2165000   0.91141139   -6.0356367    886.00096  0.034103193    0.0338522            7 
 2166000   0.91535241   -6.0674322    886.95273  0.034124066  0.033843633            7 
 2167000   0.89844508   -6.0505814    886.56137  0.034093269  0.033835186            4 
 2168000   0.90875239   -6.0497599    888.61444  0.034156459  0.033826664            2 
 2169000   0.90545752   -6.0492171    888.13493  0.034122289  0.033818147            5 
 2170000   0.89708369   -6.0549857    888.59363  0.034124179  0.033809734            6 
 2171000   0.90312174   -6.0701782    888.80442  0.034116552  0.033801404            4 
 2172000   0.94027875    -6.082754    887.90731  0.034066425  0.033793041            6 
 2173000   0.88774216    -6.069067    887.86689  0.034049198  0.033784554            7 
 2174000   0.90727417   -6.0560597    888.58181   0.03406094  0.033776116            3 
 2175000   0.89517511   -6.0488255    891.71388  0.034165283  0.033767621            3 
 2176000   0.90953124   -6.0743408    890.22196  0.034092447  0.033759178            5 
 2177000   0.89990407   -6.0453983    889.28541  0.034040936  0.033750679            3 
 2178000   0.89664184   -6.0553859    888.84354    0.0340084  0.033742209            3 
 2179000   0.90340257   -6.0473601    889.96177  0.034035558  0.033733675            7 
 2180000   0.89150196   -6.0269625    890.89906  0.034055775  0.033725192            5 
 2181000   0.89572844   -6.0829477    890.73428  0.034033864  0.033716576            3 
 2182000    0.8869663   -6.0697943    888.27638  0.033924396  0.033708026            5 
 2183000   0.89817004   -6.0911686    888.07084  0.033901009  0.033699464            4 
 2184000   0.91127129   -6.0831531    888.18999  0.033890033  0.033690945            6 
 2185000   0.92227462   -6.0529426    889.38635   0.03392015  0.033682532            5 
 2186000   0.91613911   -6.0727442    888.77077  0.033881167  0.033674058            2 
 2187000   0.91444559   -6.0733926    891.56834  0.033972273  0.033665594            8 
 2188000   0.90827581     -6.08106    891.88537  0.033968821  0.033657038            8 
 2189000   0.88131075   -6.0514256    892.44155  0.033974477  0.033648432           10 
 2190000   0.90935049   -6.1024246    890.05607  0.033868191  0.033640016           10 
 2191000   0.90781489   -6.0723455    892.35799  0.033940286  0.033631616            5 
 2192000   0.92625228   -6.0373978    894.04885  0.033989083  0.033623255            8 
 2193000   0.91681225   -6.0465717    893.36751  0.033947694  0.033614903            8 
 2194000   0.89360949   -6.0434279    895.19772  0.034001737  0.033606573            4 
 2195000   0.90861276   -6.0681973     893.0533  0.033904833  0.033598338            5 
 2196000   0.89837234     -6.07891    894.36989  0.033939355  0.033590023            5 
 2197000   0.89029233   -6.0863109    891.69407  0.033822412   0.03358153            4 
 2198000   0.90525684   -6.0449955    895.98274  0.033969622  0.033573228            5 
 2199000   0.90787771   -6.0805334    894.24098  0.033888168  0.033564797            5 
 2200000    0.9079641   -6.0579015    895.51555  0.033921044  0.033556406            6 
 2201000   0.90300935   -6.0473163    899.05927  0.034039803   0.03354807            6 
 2202000   0.90266302   -6.0546241    895.57248  0.033892389  0.033539807            5 
 2203000   0.90920573   -6.0845536    894.99481  0.033855153  0.033531417            6 
 2204000   0.90582559   -6.0847219    894.30661  0.033813771  0.033522983            5 
 2205000   0.89676965   -6.0697849     892.9976  0.033748965   0.03351454            6 
 2206000   0.89939663   -6.0422412    896.93088  0.033882248  0.033506063            6 
 2207000   0.90001312   -6.0462708    895.72422  0.033821334  0.033497767            4 
 2208000   0.91083975    -6.032913    897.84773  0.033886161  0.033489484            7 
 2209000   0.89052638   -6.0710116    896.67873  0.033826721  0.033481152            4 
 2210000   0.87900712   -6.1060815    892.74516   0.03366309  0.033472696            9 
 2211000   0.90978003   -6.0430465    896.43361  0.033786884  0.033464222            3 
 2212000   0.89238456   -6.0433574    896.02049  0.033756046  0.033455801            7 
 2213000   0.89384537   -6.0748176    894.76753  0.033693611  0.033447379            7 
 2214000   0.92200645     -6.08026    895.43267  0.033703428  0.033438949            7 
 2215000   0.90826431    -6.055802    896.93646  0.033744788  0.033430505            5 
 2216000   0.88825298   -6.1083791    898.47634  0.033787467  0.033422091            8 
 2217000   0.90473207   -6.1155928    896.74281  0.033707067  0.033413661           12 
 2218000   0.89161872   -6.0874727    895.09968  0.033630135  0.033405157            7 
 2219000   0.89594681   -6.0478716    900.83695   0.03383044  0.033396874            2 
 2220000   0.91267337   -6.0682273    898.61378  0.033731748   0.03338858            2 
 2221000   0.88209787   -6.0959755    896.04479  0.033620171  0.033380146            7 
 2222000   0.87206066   -6.0541058    899.23124  0.033724544  0.033371869            7 
 2223000   0.91902459   -6.0565504    900.53307  0.033758175  0.033363688            3 
 2224000   0.89193371   -6.0607959     897.7269  0.033637848  0.033355536            3 
 2225000   0.89604176   -6.0800132    900.76221  0.033736413  0.033347255            3 
 2226000   0.90709695    -6.074873    900.69855  0.033718873  0.033338874            6 
 2227000   0.91911011   -6.0614954    901.42569  0.033730942  0.033330621            7 
 2228000   0.89779082   -6.0814556    898.32287  0.033599748  0.033322202            5 
 2229000   0.88428532     -6.01591    902.98635  0.033759023  0.033313884           10 
 2230000   0.88987583   -6.1057992    896.70661  0.033509216  0.033305541            8 
 2231000   0.88498558   -6.0907417    899.98445  0.033616631  0.033297141            5 
 2232000   0.91414573   -6.1242513    895.31008  0.033427049  0.033288759            2 
 2233000   0.88836909    -6.073174    901.29217  0.033635325  0.033280389            6 
 2234000   0.89340696     -6.04901    902.41405  0.033662118   0.03327206           10 
 2235000   0.89850838   -6.0683743    899.27389  0.033529974  0.033263728            6 
 2236000   0.90416645   -6.0973117    900.25432  0.033551518  0.033255402            7 
 2237000   0.89538572   -6.0700643    903.20272  0.033646354   0.03324707            2 
 2238000   0.89944351   -6.1190178    899.95704  0.033510465  0.033238646            5 
 2239000   0.89511384    -6.058532     904.6431  0.033669909  0.033230277           13 
 2240000   0.89836368   -6.0743622    903.92653  0.033628219  0.033222055            7 
 2241000   0.90401902   -6.0779607     902.6499  0.033565741  0.033213823            4 
 2242000    0.8994582   -6.0743849    903.71861  0.033590493  0.033205592            4 
 2243000   0.89722271    -6.104903    901.02274  0.033475358  0.033197248            7 
 2244000   0.89462873   -6.0817032    904.69407  0.033596779  0.033188876            7 
 2245000   0.89120679   -6.0806423    903.85793  0.033550777   0.03318056            3 
 2246000   0.89172437    -6.092376    901.56543   0.03345078  0.033172253            6 
 2247000   0.88014766   -6.0655477    906.88755  0.033633272  0.033163928            5 
 2248000   0.89812715   -6.0921231    903.28114  0.033484621  0.033155716            7 
 2249000   0.90071597    -6.090084    902.35206  0.033435307  0.033147346            8 
 2250000   0.89517111   -6.0583229    904.69243  0.033507127  0.033139064            8 
 2251000   0.91499307   -6.0984663    902.87752  0.033425052  0.033130663            3 
 2252000   0.88347443   -6.0777548    906.05052  0.033527624  0.033122258            9 
 2253000   0.88060063   -6.0891461    905.30532   0.03348518  0.033113806            6 
 2254000   0.91196651   -6.0917019    904.22873  0.033430521  0.033105411            3 
 2255000   0.90157269   -6.0632841    905.54032  0.033464165  0.033097032            3 
 2256000   0.90172456     -6.07889    905.13666  0.033434422  0.033088727            5 
 2257000   0.89135801   -6.1049714     904.6449  0.033401451  0.033080465            9 
 2258000   0.91427418   -6.0842568     908.7313  0.033537471  0.033072142            7 
 2259000   0.86781602   -6.0481669    908.36989  0.033509292  0.033063864            4 
 2260000   0.89088232    -6.092647    903.67016  0.033321171   0.03305558            4 
 2261000   0.89732921   -6.0657299    907.72671  0.033455945  0.033047341            3 
 2262000    0.9048524   -6.0971019    903.01008  0.033267392  0.033038944            6 
 2263000   0.89960518   -6.0738696    902.89844   0.03324858  0.033030556            6 
 2264000   0.90586734    -6.077424    903.93997  0.033272231  0.033022116            5 
 2265000   0.88007663   -6.0973051    902.35212  0.033199121   0.03301361            5 
 2266000   0.87066902   -6.1368055    903.72642  0.033235011  0.033005108            2 
 2267000    0.8934048   -6.0700395    906.83792  0.033334727  0.032996615            7 
 2268000   0.88869918   -6.1454896    905.61658  0.033275154  0.032988089            4 
 2269000    0.8976388   -6.0932258    902.65826  0.033151839  0.032979463            4 
 2270000   0.87929604   -6.1119141    904.34653  0.033199212  0.032970938            3 
 2271000   0.86965821   -6.0768174    904.25284  0.033181155   0.03296234            8 
 2272000   0.89389334   -6.0706937    905.56301  0.033214606  0.032953849            3 
 2273000   0.89137538    -6.075703    905.27431  0.033189409  0.032945331            8 
 2274000    0.8854908   -6.0971779     905.8433  0.033195665  0.032936842            4 
 2275000   0.89496865   -6.0934794    908.55941  0.033280564  0.032928332            5 
 2276000   0.88019534     -6.07756    908.99571  0.033281917  0.032919851            6 
 2277000   0.89451849   -6.1187236    906.38217   0.03317165  0.032911388            5 
 2278000   0.88414039   -6.0765304    907.86454  0.033211316  0.032903084            6 
 2279000   0.89252334   -6.0998945    907.04795  0.033166884  0.032894588            3 
 2280000   0.88776575   -6.0983702    904.96005  0.033076025  0.032886106            8 
 2281000   0.87723268   -6.1009931    908.10741  0.033176509  0.032877648           10 
 2282000   0.90135644   -6.1019629    908.41588  0.033173235  0.032869215            6 
 2283000   0.89190865   -6.1253015    907.39475  0.033121432  0.032860766            6 
 2284000   0.87599851   -6.0900438     910.5292  0.033221293  0.032852266           11 
 2285000   0.88766797   -6.0665926    910.48693  0.033205213  0.032843662            5 
 2286000   0.87565946   -6.1575404    904.07165  0.032956826   0.03283508            5 
 2287000   0.89364067   -6.1253779    905.32479  0.032988077  0.032826465            6 
 2288000   0.90514647    -6.105112    908.58219    0.0330923  0.032817859            5 
 2289000   0.87860325   -6.1289338    908.26263  0.033066209  0.032809315           16 
 2290000   0.88307035   -6.0843322    909.28925  0.033089128  0.032800714            6 
 2291000   0.88864469   -6.1024439    907.05583  0.032993446  0.032792153            6 
 2292000   0.86805581   -6.1123194     908.6448  0.033036824  0.032783476            4 
 2293000    0.8868489   -6.1135077    905.02776  0.032890964  0.032774799            5 
 2294000   0.88628488    -6.105096    906.68505   0.03293683  0.032766087            8 
 2295000   0.87699801   -6.0975984    910.04323  0.033044417  0.032757411            5 
 2296000   0.88243846   -6.1300006    905.27648  0.032857015  0.032748735            8 
 2297000   0.89138038   -6.0900307    909.44559  0.032993963  0.032740107            3 
 2298000   0.88187267   -6.1217236    908.30841  0.032938367  0.032731418            9 
 2299000   0.90158609   -6.0956058    911.35104  0.033034328  0.032722671            4 
 2300000   0.86749642   -6.1137132    907.66701  0.032886486  0.032713904            5 
 2301000    0.8582126    -6.086715    908.45668  0.032900792  0.032705208            7 
 2302000   0.88200529   -6.1105231    905.47214  0.032778459  0.032696507            4 
 2303000   0.88718158   -6.0963838    908.77096  0.032883593  0.032687809            7 
 2304000    0.8986025   -6.1293429     907.1046   0.03280905  0.032679043            3 
 2305000   0.89049178   -6.1046371    906.57443  0.032775648  0.032670242            4 
 2306000   0.89119644   -6.1015196    911.24313  0.032930151  0.032661575            6 
 2307000   0.86392055   -6.0733235    911.45525  0.032923539  0.032652895            4 
 2308000    0.8742725   -6.1129586    907.04458  0.032750021  0.032644099            5 
 2309000   0.87606627   -6.1176107    909.80551  0.032835481  0.032635382            9 
 2310000   0.88023728    -6.102325    908.93197  0.032789754  0.032626676            6 
 2311000   0.87345346   -6.1104976    910.08676  0.032817206  0.032617929            6 
 2312000   0.88000364   -6.1399737    908.76773  0.032755469   0.03260929            4 
 2313000   0.88639321   -6.1164691    909.61376  0.032771788  0.032600592            7 
 2314000   0.88993825   -6.0993506    912.07281  0.032846183  0.032592032            3 
 2315000   0.87614659   -6.0860526    912.13988  0.032834409  0.032583583            6 
 2316000   0.89833434   -6.1055023    912.41614  0.032830172  0.032575031            4 
 2317000   0.87510969   -6.0985184    913.96088  0.032871561   0.03256646            5 
 2318000   0.88220919   -6.1060116    910.53284   0.03273414  0.032557836            6 
 2319000   0.89661939   -6.1266172    913.69728  0.032833739  0.032549278            6 
 2320000   0.88163789   -6.1141158    914.04323  0.032832013  0.032540754            4 
 2321000   0.90000192   -6.1287059    912.68262  0.032769015  0.032532209            3 
 2322000   0.86878682   -6.0861481     912.7862  0.032758621   0.03252365            5 
 2323000   0.88270111   -6.0702913      916.791  0.032888184  0.032515132            3 
 2324000   0.87460264   -6.1021177    913.07647  0.032740837  0.032506647            6 
 2325000   0.87100586   -6.1264976    913.74248  0.032750626  0.032498199            7 
 2326000   0.87545667   -6.1372634    913.44008  0.032725712  0.032489675            7 
 2327000   0.88444062   -6.1301331    914.50187  0.032749673  0.032481193            3 
 2328000   0.88447605   -6.1273597    914.23527  0.032726062  0.032472641            7 
 2329000   0.87365546   -6.1189043    914.86316  0.032734477  0.032464165            5 
 2330000   0.87611773   -6.0992859    918.42952   0.03284798  0.032455643            5 
 2331000   0.87862907   -6.0998514    917.60045  0.032804249  0.032447139            4 
 2332000   0.88191403   -6.1076381    914.51898  0.032680066  0.032438653            4 
 2333000    0.8923319   -6.1223178     915.9012  0.032715431  0.032430171            6 
 2334000   0.85072176   -6.1043672    915.74308  0.032695768  0.032421618            9 
 2335000   0.87726823   -6.0988627    916.61812  0.032712995  0.032413202            4 
 2336000   0.87990281   -6.1457311    916.94505  0.032710654  0.032404841           11 
 2337000   0.86706155   -6.1224009    916.74605  0.032689561  0.032396453            3 
 2338000   0.88696381   -6.1030679    917.22071  0.032692497  0.032388027            5 
 2339000   0.89103846   -6.1295535    916.28133  0.032645052  0.032379607            4 
 2340000   0.85441104   -6.1058206    916.43952  0.032636735  0.032371177            6 
 2341000   0.87350122   -6.1679254    916.63929  0.032629905  0.032362708            5 
 2342000   0.87066743     -6.12084    918.30331  0.032675182  0.032354169            6 
 2343000   0.86312089   -6.1182813    916.67819  0.032603435   0.03234565            4 
 2344000   0.89788303   -6.1076542    916.84067  0.032595302   0.03233711            7 
 2345000   0.87837063   -6.1511044     915.7066  0.032541101  0.032328628            4 
 2346000   0.86721983   -6.1055158    919.49539  0.032661814  0.032320112            5 
 2347000   0.89364033   -6.1451405    916.38986  0.032537632  0.032311633            3 
 2348000   0.84516704   -6.1251346    921.54465  0.032706724  0.032303168            4 
 2349000   0.87911466   -6.0991449    920.75376  0.032664742  0.032294738           10 
 2350000   0.87811153   -6.0827261    920.25601  0.032633192  0.032286344            4 
 2351000   0.88664939   -6.0842349    920.75581  0.032637027  0.032277987            4 
 2352000   0.87350646   -6.1146753    918.49858  0.032543175  0.032269649            4 
 2353000   0.88463012    -6.118734    917.99286  0.032511434  0.032261183            9 
 2354000    0.8780609   -6.1269556    917.21491  0.032470083  0.032252684            3 
 2355000   0.86353151    -6.130254    917.02662  0.032449633  0.032244123            8 
 2356000   0.86279992   -6.1252364    919.86505  0.032536257  0.032235666            6 
 2357000    0.8796104   -6.1209982      917.422  0.032436077  0.032227191            4 
 2358000   0.87592823   -6.1085899    920.06773  0.032515823  0.032218698            6 
 2359000   0.90170303   -6.1519941    920.65889  0.032522922  0.032210061            4 
 2360000   0.87623319   -6.1399594    915.66511  0.032332808  0.032201447           10 
 2361000   0.85955892   -6.1350092    918.02985  0.032402578  0.032192909            6 
 2362000   0.87359652   -6.1307026    919.39038  0.032436861  0.032184443            5 
 2363000   0.85816201   -6.1403378    919.78319  0.032436986  0.032175979            5 
 2364000   0.86389597   -6.1280183    920.42437  0.032445868  0.032167492            6 
 2365000   0.87810825   -6.1062598    923.84726  0.032552758  0.032159126            5 
 2366000    0.8661417   -6.1212005    920.91358  0.032435671  0.032150779            4 
 2367000   0.87425636   -6.1108071    923.69665   0.03251995  0.032142382            5 
 2368000   0.87579149   -6.1286853    919.42894   0.03235603  0.032134071            5 
 2369000   0.87194783   -6.1699993     920.3546  0.032374933  0.032125658            3 
 2370000   0.88524009   -6.1563372    920.01539  0.032349346  0.032117212            4 
 2371000    0.8637029   -6.1287752      923.009  0.032440918  0.032108763            8 
 2372000   0.88424284   -6.1232067    920.58815  0.032342192  0.032100377           10 
 2373000   0.86485292   -6.1252879    922.61581  0.032399768  0.032091999            5 
 2374000   0.87897513   -6.1333282    922.93883   0.03239746  0.032083604            4 
 2375000   0.88598215   -6.1289517    922.53251  0.032369562  0.032075206            7 
 2376000   0.87523231    -6.135484    924.32059  0.032418652  0.032066699            7 
 2377000   0.88657492   -6.1507994    923.31664  0.032369816  0.032058236            4 
 2378000   0.86060798   -6.1263518    923.85319  0.032375007  0.032049782            6 
 2379000   0.87153463   -6.1458117    922.85596  0.032326466  0.032041364            4 
 2380000   0.86849919   -6.1407136    923.92107  0.032350177  0.032032912            5 
 2381000   0.87152629   -6.1600299    921.54993  0.032253603  0.032024375            7 
 2382000   0.87448187   -6.1506831    921.34857  0.032233017   0.03201583            9 
 2383000   0.87737388   -6.1767374    922.93397  0.032274932  0.032007349            5 
 2384000   0.87751208    -6.108992    925.44694  0.032349236  0.031998912            3 
 2385000   0.88032537    -6.174147    920.75214  0.032171633  0.031990447            3 
 2386000   0.85263976   -6.1077418    927.38318  0.032389745  0.031982078            3 
 2387000   0.86457285    -6.161187    921.17983  0.032159608  0.031973529            5 
 2388000   0.87384787   -6.1353597    921.98483  0.032174233  0.031964979            3 
 2389000   0.87051447   -6.1435074    924.26422  0.032240275  0.031956449            4 
 2390000   0.85691497   -6.1653613    920.45061  0.032093815  0.031947962            8 
 2391000   0.86920486   -6.1824256     921.0128  0.032099986  0.031939371            9 
 2392000    0.8719984   -6.1281589    926.01829  0.032260949  0.031930862           17 
 2393000   0.87369138   -6.1290045    925.39806  0.032225869  0.031922427            7 
 2394000   0.88194513   -6.1447362    926.82376  0.032262036  0.031913983           11 
 2395000   0.85719791   -6.1578916    923.41584  0.032129987  0.031905611            4 
 2396000   0.86999142   -6.1295704    925.29432  0.032181911   0.03189719            5 
 2397000   0.85089583   -6.1112973    924.42083  0.032138118  0.031888867            5 
 2398000   0.87007855   -6.1344227     926.7379  0.032205237  0.031880597            4 
 2399000   0.87280338   -6.1233804    928.20368  0.032242729  0.031872242           10 
 2400000   0.87526739   -6.1435159    926.51689  0.032170725  0.031863833            6 
 2401000   0.87303913   -6.1368115    927.90396  0.032205469  0.031855504            5 
 2402000   0.84860625   -6.1429794    927.44901  0.032176277  0.031847165            4 
 2403000   0.86450222   -6.1679301    924.57366  0.032063173  0.031838741            8 
 2404000   0.86747552   -6.1433411    925.39072  0.032078159  0.031830319            5 
 2405000   0.87444236   -6.1802753    922.03305  0.031948477  0.031821853            5 
 2406000   0.87072994   -6.1502525     928.3948  0.032155542  0.031813506            6 
 2407000   0.86775266   -6.1189506    928.96966  0.032162085  0.031805113           11 
 2408000   0.85228772   -6.1304225    929.13492  0.032154448  0.031796777           10 
 2409000    0.8932434   -6.1204422    928.05505  0.032103745  0.031788409            7 
 2410000    0.8787409   -6.1684227    926.70199  0.032043637  0.031779979            4 
 2411000   0.88086192   -6.1401515    928.14932  0.032080372  0.031771646            8 
 2412000   0.85376462   -6.1409003    931.68265  0.032189146  0.031763278            9 
 2413000   0.88294035   -6.1600038    929.97415  0.032116803  0.031754859            6 
 2414000   0.88750719   -6.1381104    926.01261  0.031966743  0.031746474            3 
 2415000   0.86266778   -6.1590614      927.847  0.032016805  0.031738073            5 
 2416000   0.87977452   -6.1257195    931.23736  0.032120494  0.031729664            8 
 2417000   0.85127714   -6.1376177    929.68086  0.032053539  0.031721313            3 
 2418000   0.87868268   -6.1712385    927.84676  0.031977073  0.031712904            4 
 2419000   0.85817532   -6.1543826    927.66718  0.031957668  0.031704571            4 
 2420000   0.86377624   -6.1304339    930.65909  0.032047489  0.031696217            6 
 2421000   0.87976647   -6.1373448    931.33835  0.032057633  0.031687965            4 
 2422000   0.86075084   -6.1492505    931.22703  0.032040567  0.031679659            7 
 2423000   0.88611659   -6.1798245    929.70741   0.03197508  0.031671314            4 
 2424000   0.87347654   -6.1585393    928.12206  0.031907386   0.03166282            5 
 2425000   0.87114015   -6.1234058    932.17844  0.032033623  0.031654438            7 
 2426000   0.86694725    -6.130219    931.91834  0.032011485  0.031646201            4 
 2427000   0.85550665   -6.1458598    932.84342  0.032030058  0.031637934            8 
 2428000   0.89700982   -6.1229461    933.04744  0.032023869  0.031629657            4 
 2429000   0.85613702   -6.1347549    931.34386  0.031952239  0.031621411            5 
 2430000   0.85888879   -6.1423221    932.53417   0.03197991  0.031613109            8 
 2431000   0.85644193   -6.1436135    932.48566  0.031965092  0.031604832            8 
 2432000   0.86842215     -6.14927    932.84362  0.031964214  0.031596481            4 
 2433000   0.86164293   -6.1553924     928.3042  0.031795595  0.031588035            4 
 2434000   0.85939169   -6.1409524    930.70228  0.031864636  0.031579535            4 
 2435000   0.87211007   -6.1630804    930.97195  0.031860778  0.031571016           12 
 2436000   0.85868566   -6.1324745    927.72985   0.03173679  0.031562501            4 
 2437000   0.85642749   -6.1836842    928.70783  0.031757209  0.031553921            9 
 2438000   0.85814891   -6.1297539    929.95039  0.031786655  0.031545408            9 
 2439000   0.86758196   -6.1343683    931.83616  0.031838054   0.03153694            9 
 2440000   0.86646743    -6.171937    930.38529  0.031775454  0.031528497            6 
 2441000   0.86479765   -6.1450836    930.16149  0.031754796  0.031519917           17 
 2442000   0.86539102   -6.1949927    931.91645  0.031801681  0.031511379            8 
 2443000   0.84794706   -6.1647662    928.41027  0.031669064  0.031502832            4 
 2444000   0.88471049   -6.1458774    930.25557  0.031719025  0.031494271            6 
 2445000   0.84720861   -6.1356713    930.95654  0.031729943  0.031485814            6 
 2446000   0.86384384   -6.1548429    929.41903  0.031664589  0.031477333            7 
 2447000   0.87534917   -6.1393109    931.57875  0.031725199  0.031468905            3 
 2448000   0.85885648   -6.1655423    930.03351  0.031659637  0.031460452            5 
 2449000   0.84836777   -6.1929609    931.00071  0.031679621  0.031451908            8 
 2450000   0.84451121   -6.1649391    932.13849  0.031705391  0.031443418            6 
 2451000    0.8708902   -6.1636075      931.287  0.031663505  0.031434929            4 
 2452000   0.85454762   -6.1772197    930.07042  0.031609245   0.03142644            7 
 2453000   0.85842098   -6.1715159    931.42018  0.031642213  0.031417884            3 
 2454000   0.83656173    -6.170485    933.01058  0.031683326  0.031409349            9 
 2455000   0.86231734   -6.1799848    931.04745  0.031603783  0.031400782            8 
 2456000    0.8524112   -6.1510423    934.11262  0.031694918  0.031392183            7 
 2457000   0.84628621   -6.1815858    930.67994  0.031565593  0.031383638            5 
 2458000   0.85937997   -6.1233928    936.62636  0.031754352  0.031375125           10 
 2459000   0.85425366   -6.1460633     932.9364  0.031616389  0.031366582            3 
 2460000   0.86235651   -6.1966633    932.44882   0.03158702  0.031358024            6 
 2461000   0.84903926   -6.1486271     933.2162  0.031600169  0.031349514            4 
 2462000   0.83530371   -6.1759296    933.14791  0.031585023  0.031340997            5 
 2463000   0.85387893   -6.1456063    934.04523  0.031602559   0.03133253            7 
 2464000   0.85501721   -6.1975447    931.10892  0.031490426  0.031323938            8 
 2465000   0.84143615   -6.1659178    934.87832  0.031605082   0.03131545            4 
 2466000   0.86320485   -6.1657441    933.81194  0.031556229  0.031306851            8 
 2467000   0.87424135   -6.1595909    932.44131  0.031497139   0.03129829            6 
 2468000   0.85645914   -6.1667552    935.27129  0.031579933  0.031289737            9 
 2469000   0.83963419   -6.1879271    931.97254  0.031455803   0.03128123            6 
 2470000   0.84538399   -6.1730139    932.67642  0.031466816  0.031272666            4 
 2471000   0.86030001   -6.1439191    936.37976  0.031578975  0.031264174            7 
 2472000   0.87197986   -6.1829418    932.54016  0.031436764  0.031255693           11 
 2473000   0.85538707   -6.1595939    935.82091  0.031534604  0.031247113           12 
 2474000   0.85848136   -6.1504049    936.09514  0.031531095  0.031238595            6 
 2475000   0.85226426    -6.172729    932.39826  0.031393881  0.031230033           12 
 2476000   0.84165911   -6.1389825      936.963  0.031534834  0.031221391            4 
 2477000   0.87838403   -6.1540259    934.85539  0.031451197  0.031212821            6 
 2478000   0.85028839   -6.1697696    934.65684  0.031431828  0.031204274           12 
 2479000   0.86019455   -6.1729347    935.93346  0.031462063   0.03119575            6 
 2480000   0.86227804   -6.1817799     934.0292   0.03138539  0.031187136            6 
 2481000    0.8532523   -6.1750391     935.2332   0.03141318  0.031178568            4 
 2482000   0.85483446   -6.1863945    934.17774  0.031365086  0.031169913            9 
 2483000   0.85391738   -6.1589612    934.78946  0.031372985  0.031161328            6 
 2484000   0.84093792   -6.1631108    935.30727  0.031377726  0.031152732            6 
 2485000   0.85494213   -6.1635236    934.45952  0.031336671  0.031144114            6 
 2486000    0.8595379   -6.1520207    937.28797  0.031418878  0.031135599            6 
 2487000   0.86957385   -6.1595536    935.85008  0.031358064  0.031127124            5 
 2488000   0.85337265   -6.1689857    933.57707  0.031269329  0.031118608            5 
 2489000   0.86823243   -6.1383105    936.36378  0.031350066  0.031110042            9 
 2490000   0.86166341   -6.1583577     936.6902    0.0313484  0.031101586            4 
 2491000   0.85627246   -6.1855204    933.79388  0.031238923  0.031093019            6 
 2492000   0.83514669   -6.1929998    935.61525  0.031287294  0.031084406            6 
 2493000   0.82504581   -6.1571513    938.15158  0.031359526  0.031075891            5 
 2494000   0.83131857   -6.1690963    936.65963  0.031297101  0.031067423            9 
 2495000   0.86109386   -6.1927092    937.25779  0.031304536  0.031058861            7 
 2496000   0.82900219   -6.2026126    937.88563  0.031312955  0.031050274            8 
 2497000   0.86079133   -6.1838217    935.49556   0.03122065  0.031041661            8 
 2498000   0.85340103   -6.2287266    934.32855   0.03116922  0.031033006            9 
 2499000   0.85306222   -6.1840548    937.94875  0.031277469  0.031024463            8 
 2500000   0.86712135   -6.2070711    935.81482  0.031193827  0.031015921            8 
 2501000   0.83818502   -6.1992477    938.73621  0.031278696  0.031007372            3 
 2502000   0.84937975   -6.2225996    937.77795  0.031234278  0.030998818           13 
 2503000   0.84637442   -6.1664752    941.90609  0.031359239  0.030990276            6 
 2504000   0.85641787   -6.2204976    937.10247   0.03118685   0.03098184            6 
 2505000   0.83761707   -6.2015918    939.64307  0.031258918  0.030973391            5 
 2506000   0.86016421   -6.1971557    938.72115  0.031215787  0.030964877            9 
 2507000   0.82638732   -6.1857589    940.53745   0.03126371  0.030956365            5 
 2508000   0.82504637   -6.1700953    940.89177  0.031263017  0.030947916            6 
 2509000   0.86039577   -6.1997751    940.11069  0.031224614  0.030939444            5 
 2510000   0.83989238   -6.1399753    942.06664  0.031277113  0.030931031            4 
 2511000   0.84928367   -6.1761214     940.4404  0.031210686  0.030922574           12 
 2512000    0.8424108   -6.1713234     938.4743  0.031133038  0.030914082           20 
 2513000   0.82919504   -6.1875897    940.37363  0.031183633  0.030905653            2 
 2514000   0.85307151    -6.175776    940.31365   0.03116924  0.030897286            6 
 2515000   0.85028743   -6.1858595    941.70241  0.031202863  0.030888794            5 
 2516000    0.8528858   -6.2087409    939.89468  0.031130587  0.030880388            2 
 2517000   0.84237355   -6.1612364    940.89008  0.031151175  0.030871856            3 
 2518000   0.85039632   -6.2067264     939.3886  0.031089112  0.030863416           10 
 2519000   0.84737448   -6.2153145    939.17886  0.031069831  0.030855014            6 
 2520000   0.84896684   -6.2322539     937.8156  0.031012421  0.030846558           11 
 2521000   0.83556751   -6.1892931    936.08372  0.030942871  0.030837968            7 
 2522000   0.84184418   -6.1904683    943.97088  0.031191213   0.03082949            5 
 2523000   0.85429737   -6.1764961    942.11062  0.031117407  0.030821088            7 
 2524000   0.85387059   -6.2344965    940.34622  0.031046825  0.030812632           12 
 2525000   0.83527086   -6.2051678     941.0983   0.03105935   0.03080417            4 
 2526000   0.84207753   -6.2159787     940.8923  0.031040258  0.030795684            4 
 2527000   0.83980472   -6.2206046    940.91664  0.031028777  0.030787245            8 
 2528000   0.85459026   -6.1993185    941.65562  0.031040863  0.030778796           10 
 2529000   0.86037849   -6.1694459    940.40543  0.030987394  0.030770299            8 
 2530000    0.8510474   -6.2434224    941.16683  0.031000225  0.030761714            7 
 2531000   0.86191403   -6.1916695    940.60392  0.030969443  0.030753227           10 
 2532000   0.84423445   -6.1702037    941.46742  0.030985631  0.030744761           12 
 2533000   0.82763161   -6.1807999    941.32594  0.030968744  0.030736228            9 
 2534000   0.83745173   -6.1700325    943.63238  0.031032372  0.030727709            3 
 2535000   0.84330123   -6.2104074    941.93533  0.030964344  0.030719261            8 
 2536000    0.8445812    -6.201381    944.61248  0.031040105  0.030710765           12 
 2537000   0.86563946   -6.1759341    944.03053  0.031008755  0.030702299            7 
 2538000   0.84997047   -6.2435417    939.91731  0.030861482  0.030693737            9 
 2539000   0.85145659   -6.2127665    944.61672  0.031003568  0.030685152            7 
 2540000    0.8532622   -6.1927553    943.02152  0.030939026  0.030676682            6 
 2541000   0.84726103   -6.1896288    945.47648  0.031007362  0.030668264           18 
 2542000   0.83568559   -6.1721568    946.25273  0.031020611  0.030659806            3 
 2543000   0.83267908   -6.1917781    943.86782   0.03093026  0.030651395           15 
 2544000   0.85325557   -6.2257141    941.86687  0.030852557  0.030642949           15 
 2545000   0.84698488   -6.1953269     945.4738   0.03095854  0.030634393            7 
 2546000   0.83649604   -6.1910109    944.95965  0.030929551  0.030625954            9 
 2547000    0.8498289   -6.2216252    942.09506  0.030823683  0.030617529            9 
 2548000   0.82780113   -6.1906163    945.71441  0.030929958  0.030609185           14 
 2549000   0.85855735   -6.2141563    946.62716  0.030947664  0.030600856           11 
 2550000   0.85515316   -6.2013019     947.3031  0.030957618  0.030592548            5 
 2551000   0.84243672   -6.1847376    947.33193  0.030946424  0.030584263            7 
 2552000   0.83026122   -6.1922872    945.67001  0.030880029  0.030576042            5 
 2553000   0.84799311   -6.1758905    947.88274   0.03094016  0.030567759            5 
 2554000   0.83716831    -6.203255     946.7074  0.030889696   0.03055944            6 
 2555000   0.82736441   -6.2168472     949.2407  0.030960231   0.03055115            5 
 2556000   0.84639844   -6.2257743     946.9887  0.030874697  0.030542814            5 
 2557000   0.84821474   -6.1977959    949.26145  0.030936692  0.030534474           13 
 2558000   0.84360624    -6.203862    947.41222  0.030864354  0.030526115            8 
 2559000   0.83945892   -6.2021642    945.67581  0.030795747  0.030517817            7 
 2560000   0.85065498    -6.225836    945.62189  0.030781962  0.030509562           10 
 2561000   0.82775968   -6.2160209    947.66741  0.030836503  0.030501204            4 
 2562000   0.85032493   -6.2240868    948.88388  0.030864035  0.030492864            3 
 2563000   0.82979417    -6.216005    948.77277   0.03084838   0.03048455            5 
 2564000   0.83629965    -6.196708    949.20548  0.030850412  0.030476322            6 
 2565000   0.82972186   -6.2070279    948.32154  0.030809667  0.030468084            6 
 2566000   0.83955418   -6.2182135    946.31481  0.030732489   0.03045981            5 
 2567000   0.84145976   -6.2167248     950.4207  0.030853808  0.030451507           16 
 2568000   0.84325027    -6.215282    949.31758  0.030805996  0.030443191           11 
 2569000    0.8416799   -6.2047692    947.07046  0.030721113  0.030434873            7 
 2570000   0.84751819    -6.212995    949.08937  0.030774623  0.030426601            5 
 2571000   0.84696151    -6.254785    948.18224   0.03073325  0.030418251            6 
 2572000   0.83090418    -6.236772    948.74543  0.030739549  0.030409864            4 
 2573000   0.85271538   -6.2136593    949.40895  0.030749091  0.030401581           10 
 2574000   0.83878016   -6.2036696    950.88818  0.030785036  0.030393269            7 
 2575000   0.83134068   -6.2172782    951.86552  0.030804709  0.030385079            5 
 2576000   0.85114691   -6.2227099     949.1185  0.030703885   0.03037686            7 
 2577000   0.85824434   -6.2187632    950.38739  0.030733003  0.030368689            9 
 2578000   0.82310001   -6.2022245    953.34379  0.030816647  0.030360514           11 
 2579000   0.82730048   -6.1918438    950.23885   0.03070437  0.030352342           11 
 2580000   0.84743068   -6.2046536    951.94403  0.030747546  0.030344181            3 
 2581000   0.83086748   -6.1754236    952.59018  0.030756496  0.030336088            5 
 2582000   0.85291498   -6.2488014     951.9424  0.030723677  0.030327891           11 
 2583000   0.84113588   -6.2231575    950.79793  0.030674859  0.030319594            3 
 2584000   0.83554419   -6.2136125    952.05879   0.03070365   0.03031134            9 
 2585000   0.83180981   -6.1968876    951.27166  0.030666398    0.0303031            7 
 2586000   0.81997077   -6.2446866    952.49297  0.030693896  0.030294838            8 
 2587000   0.83522666   -6.2254674    950.95388  0.030632453  0.030286596            4 
 2588000    0.8328361   -6.2085702    952.47044   0.03066945  0.030278412            4 
 2589000   0.82956005   -6.2024639    953.93144   0.03070463  0.030270258            6 
 2590000   0.84609014   -6.1985171    954.01666  0.030695517  0.030262074            9 
 2591000   0.84079572   -6.2355763    952.93238  0.030648796  0.030253871            4 
 2592000   0.84641254   -6.2463766    951.86661  0.030602707  0.030245691            3 
 2593000   0.84118897   -6.2412019    952.55351  0.030612981  0.030237501            5 
 2594000   0.84895991   -6.2175855    952.78027  0.030608464  0.030229384            6 
 2595000   0.84102693   -6.2314384    954.02056  0.030636498   0.03022133            8 
 2596000   0.82140184   -6.2342574    954.78105  0.030649109  0.030213227            9 
 2597000   0.82482009   -6.2414109    951.79307  0.030541428  0.030205027            7 
 2598000   0.83795788    -6.217159    955.84267  0.030659567  0.030196833            5 
 2599000   0.83208678   -6.2283165    954.37105  0.030600585  0.030188665            7 
 2600000   0.82336868    -6.218331    954.02515  0.030577729  0.030180575            4 
 2601000   0.84494006   -6.2293781    952.72984  0.030524472  0.030172465            3 
 2602000   0.82871957   -6.2077318    953.65762  0.030542455  0.030164314            4 
 2603000   0.84245038   -6.2523779    951.99044  0.030477348  0.030156203           14 
 2604000   0.85277691   -6.2198027    954.82384  0.030556318  0.030148119            7 
 2605000   0.84661187   -6.2084063    955.91962  0.030579642  0.030140003            7 
 2606000     0.830195   -6.2272903    955.96958  0.030569506  0.030131887            9 
 2607000   0.82482377   -6.2539926    953.40949  0.030475946   0.03012374            9 
 2608000   0.83388796   -6.2209989    956.07278   0.03054936  0.030115703           11 
 2609000   0.82967993   -6.2504584    956.02866  0.030536242  0.030107679            5 
 2610000   0.83291484   -6.2472249    951.68618  0.030385893  0.030099591            7 
 2611000   0.83197496   -6.2575855    954.91851   0.03047742  0.030091469            4 
 2612000   0.85533358   -6.2167637    958.48408  0.030579507  0.030083406            5 
 2613000   0.81114518   -6.2229795    958.04318  0.030553743  0.030075344            6 
 2614000   0.83574265   -6.2346767    954.89928  0.030441829  0.030067233            9 
 2615000   0.84619752   -6.2321112    956.57543  0.030483602  0.030059145            4 
 2616000   0.84302153   -6.2386183    956.77576  0.030478331  0.030051097            9 
 2617000   0.83905538   -6.2148714    957.05366  0.030475534   0.03004301            6 
 2618000   0.83887304   -6.2144191    959.41052  0.030538914   0.03003495            7 
 2619000   0.81493525   -6.2317744    956.13654  0.030423079    0.0300269            4 
 2620000   0.83865748   -6.2148426    955.88991  0.030403623  0.030018866            4 
 2621000   0.83333166   -6.2441346    954.83941  0.030358623  0.030010793            4 
 2622000    0.8316452   -6.2357292    955.69865  0.030374353  0.030002684            6 
 2623000   0.84353473   -6.2132026    956.81772  0.030398326  0.029994656           10 
 2624000   0.85861688   -6.2441826    956.79825  0.030386123  0.029986555            6 
 2625000   0.82132509   -6.2391575    959.63665  0.030464655    0.0299784            7 
 2626000   0.82537753   -6.2389346    955.79307  0.030331082  0.029970277            6 
 2627000   0.84828796   -6.2274199    958.16734  0.030394853  0.029962157           13 
 2628000   0.83113276   -6.2394718    957.78961  0.030371309  0.029954025           13 
 2629000   0.82239632   -6.2379055    957.91579  0.030363757  0.029945899           10 
 2630000    0.8359413   -6.2192057    956.92452  0.030320802  0.029937786            6 
 2631000   0.85801938    -6.223286    954.50501  0.030232643  0.029929657            5 
 2632000   0.82568675   -6.2383492    955.78102  0.030261557  0.029921494           10 
 2633000   0.81915032   -6.2383381    958.27213  0.030328906  0.029913378            6 
 2634000   0.84009518   -6.2513898    957.21958  0.030284092  0.029905321            7 
 2635000   0.81986114   -6.2477491    958.79392  0.030322388  0.029897258           11 
 2636000   0.81514896   -6.2712571    955.09367  0.030193907  0.029889135            9 
 2637000    0.8352479   -6.2432789    960.42332  0.030350882  0.029881014           12 
 2638000   0.82615775   -6.2535144    957.26406  0.030239577  0.029872866           11 
 2639000   0.83930511   -6.2211392      961.877  0.030373784  0.029864773            5 
 2640000   0.81003297   -6.2759305    958.79674  0.030265049  0.029856589            3 
 2641000   0.82155113   -6.2280742    960.07213  0.030293832  0.029848513            6 
 2642000   0.83295901   -6.2436804    959.58151  0.030266891  0.029840449            5 
 2643000   0.83462357   -6.2527247    957.53912  0.030191043  0.029832356            4 
 2644000   0.82848741   -6.2275052    960.15016  0.030261919  0.029824251            9 
 2645000   0.79715252   -6.2717662    959.20659  0.030220749  0.029816123            5 
 2646000   0.82992894   -6.2054849    964.02122  0.030360961  0.029808142            4 
 2647000   0.80654703    -6.236471    958.88053   0.03018765  0.029800162            4 
 2648000   0.82040644   -6.2305558    962.10939  0.030277864  0.029792131            7 
 2649000   0.82225577   -6.2385613    959.98095  0.030199476  0.029784093            4 
 2650000   0.82140718   -6.2312829    960.45189   0.03020289   0.02977598            7 
 2651000    0.8352246   -6.2500009    959.02405  0.030146613  0.029767888            7 
 2652000   0.83936552   -6.2471463    959.64934  0.030154894  0.029759807            6 
 2653000   0.82246373   -6.2499103    958.05255  0.030093371  0.029751712           10 
 2654000   0.83107889   -6.2347212    961.71696  0.030197091  0.029743722            5 
 2655000   0.83259356   -6.2445372     962.0347   0.03019569  0.029735747            8 
 2656000   0.83124593   -6.2247186    962.32321  0.030193374  0.029727781           10 
 2657000   0.82452287   -6.2509824     962.2862  0.030180849  0.029719739            8 
 2658000   0.82540419   -6.2218869    962.91534  0.030189219  0.029711622            5 
 2659000   0.82797761   -6.2534794    960.61525  0.030105781   0.02970355            5 
 2660000   0.83224547    -6.244423     961.1604  0.030111541  0.029695449            5 
 2661000   0.81939131   -6.2261998    962.10221   0.03012972  0.029687405            7 
 2662000   0.85160875   -6.2647046    959.51517  0.030037415  0.029679387           10 
 2663000   0.82393069   -6.2704374     963.4753  0.030150059  0.029671419           15 
 2664000   0.81851745   -6.2378287    963.54592  0.030140951  0.029663453           10 
 2665000   0.83259844   -6.2782871    961.86546  0.030077094  0.029655396            9 
 2666000   0.82866561   -6.2348763     962.1692  0.030075306  0.029647384            4 
 2667000   0.81698995   -6.2383723     964.3591  0.030132455   0.02963928            8 
 2668000   0.82554282   -6.2687543    964.02911  0.030110854  0.029631267            5 
 2669000   0.84077589   -6.2510769    962.27006   0.03004465  0.029623179            4 
 2670000      0.82047   -6.2591238    961.59368  0.030012287  0.029615117           11 
 2671000   0.82000546   -6.2816893    962.80836  0.030038948  0.029607023            6 
 2672000   0.81228623   -6.2682494    961.26275  0.029979502  0.029598914           10 
 2673000   0.82474309   -6.2618623    960.84827  0.029955364  0.029590875            5 
 2674000   0.83914718   -6.2637709    962.27225  0.029988539  0.029582781            9 
 2675000   0.82151162   -6.2566113    963.02735  0.030000852  0.029574697            8 
 2676000    0.8285281   -6.2901475    962.00255  0.029957728  0.029566666           13 
 2677000   0.82098229   -6.2095055    964.26648  0.030017012  0.029558603            4 
 2678000   0.83484277   -6.2699733    962.17019  0.029940571  0.029550601            8 
 2679000   0.82674946   -6.2580756    964.51406  0.030002304  0.029542602            7 
 2680000   0.80629705   -6.2607866    962.53577  0.029929595  0.029534464            8 
 2681000   0.81481704   -6.2437965    964.62731  0.029983442  0.029526358            5 
 2682000   0.83106313   -6.2772569    962.25267   0.02989848   0.02951825            6 
 2683000   0.80373382    -6.274752    963.85488    0.0299371  0.029510117            6 
 2684000   0.83040086    -6.262495    960.65288   0.02982653  0.029502006           14 
 2685000   0.82775813   -6.2898895    962.47514  0.029871978  0.029493771            8 
 2686000    0.8256611   -6.2727587    961.25736  0.029823075  0.029485555            9 
 2687000   0.81683439   -6.2513593    961.86741  0.029830896  0.029477352           15 
 2688000   0.81989721   -6.2576333    962.39952  0.029836295  0.029469021            5 
 2689000   0.82247588   -6.2702933    964.00527  0.029874962  0.029460788            7 
 2690000   0.80946791   -6.2542832    964.97951  0.029894037  0.029452616            5 
 2691000   0.82455793   -6.2470812    961.69519  0.029781221  0.029444487            8 
 2692000    0.8162718   -6.2715273    963.62479  0.029829891  0.029436335           11 
 2693000   0.82680339   -6.2467993    965.97831  0.029891642  0.029428243            5 
 2694000   0.82141517   -6.2747867    962.83279  0.029783246  0.029420113           10 
 2695000   0.83630105    -6.239841    963.12813  0.029781328  0.029412089            5 
 2696000    0.8212825    -6.212803    966.27417  0.029867525   0.02940409            4 
 2697000   0.82269756   -6.2714085    964.68072  0.029807215  0.029395967            5 
 2698000   0.83229824   -6.2888919    960.44968  0.029665483  0.029387858            8 
 2699000   0.83013752    -6.233423    964.50609  0.029779736  0.029379682            3 
 2700000   0.84582476   -6.2885365    962.06788  0.029693453  0.029371519            4 
 2701000   0.81525102   -6.2611355    966.26291  0.029811888  0.029363343            5 
 2702000   0.82258286   -6.2582703    965.45435  0.029775918  0.029355266            7 
 2703000   0.81888535   -6.2618907    963.30164  0.029698534  0.029347131            4 
 2704000   0.81531442   -6.2700967    965.89204  0.029767383  0.029338943            5 
 2705000   0.82072851   -6.2740297    961.79586  0.029630187  0.029330721            6 
 2706000   0.81635846   -6.2507901    960.28752  0.029572786  0.029322449            7 
 2707000   0.81626334   -6.2737592     961.9346  0.029612566  0.029314301            5 
 2708000   0.82370916   -6.2500112    965.01974   0.02969657  0.029306097            5 
 2709000   0.80881512    -6.255341    964.87108  0.029681035  0.029297889            6 
 2710000   0.80907767   -6.2563179    965.82735  0.029699488  0.029289734           10 
 2711000   0.81691507   -6.2605777    966.42181  0.029706806   0.02928156            5 
 2712000   0.82194598   -6.2760686    966.50377   0.02969837  0.029273458            8 
 2713000   0.81570845   -6.2530151    965.00641   0.02964143  0.029265281            7 
 2714000   0.81908371   -6.2687733    966.19078  0.029666875  0.029257139            6 
 2715000   0.82175845   -6.2587872    963.55283  0.029574979  0.029248975            9 
 2716000   0.81594831   -6.2505681     967.6136  0.029688684  0.029240792            7 
 2717000   0.82406561   -6.2653991    966.18633  0.029633982  0.029232677            4 
 2718000   0.81278365      -6.2749     966.5397  0.029633913   0.02922455            5 
 2719000   0.81861278   -6.2818775     967.0581  0.029638902   0.02921642            7 
 2720000    0.8033219   -6.2792747    964.48829  0.029549274  0.029208272           10 
 2721000   0.82015277   -6.2625801    963.71801  0.029514823  0.029200161            8 
 2722000   0.82947217   -6.2958585    964.89185  0.029539917  0.029192028            9 
 2723000   0.79314721   -6.2685149    966.35571  0.029573868  0.029183873           15 
 2724000   0.80157315   -6.3070075    966.02903  0.029553017  0.029175703            7 
 2725000   0.80907999   -6.2708649    966.32884  0.029551341  0.029167535            8 
 2726000   0.80296902     -6.24586    967.04354  0.029562348  0.029159454           13 
 2727000   0.81608756   -6.2515731    968.22803  0.029587704  0.029151374            5 
 2728000   0.81379104   -6.2650896    968.60932  0.029588505  0.029143289            7 
 2729000   0.80803123   -6.2870021    965.56188  0.029484606  0.029135203            5 
 2730000   0.80157416    -6.249867    965.97348   0.02948637  0.029127172            9 
 2731000   0.80351395   -6.2744667    968.22127  0.029544162  0.029119064           13 
 2732000   0.80937438   -6.2932522    966.79989  0.029489992  0.029110903           15 
 2733000   0.81463273   -6.2873081    967.59985  0.029503594  0.029102753            8 
 2734000   0.80473973   -6.2881858    966.94363    0.0294728  0.029094618            5 
 2735000   0.82472017   -6.2881266     966.5843  0.029451075  0.029086499            6 
 2736000   0.82300378   -6.2998751    964.55274  0.029378434  0.029078301            9 
 2737000   0.82050753   -6.2624666    969.50702  0.029518543  0.029070155            6 
 2738000   0.80666473   -6.2840739    964.95691  0.029369275  0.029061965           20 
 2739000   0.81535143   -6.2981726    968.87755  0.029477837  0.029053756            7 
 2740000   0.82438559   -6.3093931    965.96926  0.029378627  0.029045521           14 
 2741000   0.81829422    -6.269931    968.85182  0.029455546   0.02903744            4 
 2742000   0.83069194   -6.2779615     967.1731  0.029393785  0.029029288            7 
 2743000   0.80916026   -6.2769205    967.92609  0.029405945  0.029021066            6 
 2744000   0.80035767   -6.2886079    967.47783  0.029381615  0.029012881            4 
 2745000   0.80450887   -6.2685026    968.23762  0.029393978  0.029004704           22 
 2746000   0.80895794   -6.2790146    968.29614  0.029385049  0.028996545            8 
 2747000   0.80711937    -6.325031    966.72485  0.029326685  0.028988349            3 
 2748000    0.8178706   -6.3097126    967.21987  0.029331025  0.028980227           18 
 2749000   0.81533862   -6.2620116    968.54343  0.029360477  0.028972111            7 
 2750000   0.80678856   -6.2513373     968.2568  0.029341115  0.028964014            7 
 2751000   0.81172211   -6.2715441    966.79245  0.029286091  0.028955905            3 
 2752000   0.79962846   -6.2837782    969.00279  0.029342381  0.028947764            5 
 2753000   0.80494442    -6.278931    969.86135  0.029357711  0.028939671           10 
 2754000   0.80691691    -6.301097    970.39388  0.029363165  0.028931503            4 
 2755000   0.81433376   -6.3008454    972.34199  0.029411433  0.028923376           10 
 2756000   0.79117378   -6.2765145    968.85098  0.029295204  0.028915234            7 
 2757000   0.81031867   -6.2987108    967.64488  0.029248122  0.028907121           10 
 2758000   0.80459195   -6.3000747    968.49548  0.029263219  0.028898921            6 
 2759000    0.8022675   -6.3028489    967.89641  0.029234517  0.028890753           12 
 2760000   0.80732628   -6.2897044    968.17296  0.029232275   0.02888267            5 
 2761000    0.8212822   -6.3035914    969.45672  0.029260435  0.028874584            9 
 2762000   0.82757892   -6.2764933    970.88793  0.029293022  0.028866518            7 
 2763000   0.81034962   -6.3031697    968.02355  0.029196029  0.028858364            9 
 2764000   0.82691152   -6.2556473    972.77682  0.029328775  0.028850234            8 
 2765000   0.79005351    -6.324229    970.80371  0.029258701  0.028842146            6 
 2766000   0.82121562   -6.2996717    969.21563  0.029200278  0.028834026            6 
 2767000    0.8118282   -6.2958029     968.1658  0.029158107  0.028825912            5 
 2768000   0.82798778   -6.2881309    969.05157   0.02917424  0.028817749            6 
 2769000   0.81832183   -6.3020139    969.88316  0.029188731  0.028809684            6 
 2770000   0.82393781   -6.2934336    970.60278  0.029199843  0.028801628            5 
 2771000   0.81165815   -6.2701095    971.66133  0.029221139  0.028793536            6 
 2772000   0.82110373   -6.2963699    968.85225   0.02912615  0.028785407            8 
 2773000   0.81744924   -6.2964016    971.97092  0.029209368  0.028777311           12 
 2774000   0.79767112   -6.2666302    968.06787  0.029081587  0.028769255            7 
 2775000   0.78824988   -6.3214338    969.28893  0.029107776  0.028761182            2 
 2776000   0.79314478   -6.2821032    974.67497  0.029258975  0.028753098            4 
 2777000   0.82707084   -6.2752238     972.9374  0.029196297  0.028745043            9 
 2778000   0.80600545   -6.2865189    971.17847  0.029133024  0.028737009           13 
 2779000   0.82019934   -6.3142803    971.12962  0.029121075  0.028728929           10 
 2780000   0.80329181    -6.286963    971.21138  0.029113051   0.02872086           10 
 2781000   0.81031093   -6.2927496    974.59053   0.02920384  0.028712787            4 
 2782000   0.78703517   -6.2903204    970.99129  0.029085529  0.028704808            8 
 2783000   0.77934667   -6.2854097    971.13554  0.029079397  0.028696822            7 
 2784000   0.80564646   -6.2656486    971.74702  0.029087255  0.028688771            8 
 2785000   0.81369192    -6.334996    970.33904  0.029034681  0.028680758            5 
 2786000   0.80357699   -6.2805961    970.77316  0.029037244  0.028672742           27 
 2787000   0.81169206   -6.3185423    971.78721  0.029057147  0.028664659            7 
 2788000   0.80289942   -6.3226828    972.55174  0.029069576  0.028656548           16 
 2789000    0.8161215   -6.2964009    972.22882  0.029049505  0.028648517            5 
 2790000   0.80064711   -6.3127914    972.29633  0.029041109  0.028640508           15 
 2791000   0.83743194   -6.2944972    975.50737  0.029126579  0.028632499            8 
 2792000   0.78605499   -6.2959507    972.67348  0.029031563  0.028624392           12 
 2793000   0.79372886   -6.3223193    971.49623  0.028986044  0.028616318            6 
 2794000   0.79729804   -6.2677009    975.37258  0.029091284  0.028608295           21 
 2795000   0.78582599   -6.2747387    975.17822  0.029075081  0.028600329           11 
 2796000   0.81841335   -6.2779066    973.81646  0.029024096   0.02859238            7 
 2797000   0.80595094   -6.3223602    974.13369   0.02902317  0.028584362            5 
 2798000   0.80563538   -6.2828519    976.61064  0.029086569  0.028576346            3 
 2799000   0.80554801   -6.2849772    973.78446  0.028992035  0.028568422            8 
 2800000   0.79265671   -6.2908187    973.84523  0.028983489  0.028560455            7 
 2801000   0.81215827   -6.3074618    974.67745  0.028997901  0.028552393            5 
 2802000   0.80513449   -6.3162225    972.53048    0.0289237   0.02854431            7 
 2803000   0.81111025   -6.2890794    974.46175  0.028970798  0.028536244           10 
 2804000   0.79346993    -6.288263    977.15252  0.029040434  0.028528261            8 
 2805000   0.80762962   -6.3015647    973.31563  0.028916091  0.028520229            8 
 2806000   0.80854317    -6.289371    974.42768  0.028938812  0.028512238            7 
 2807000   0.79211762   -6.2979239     975.0124  0.028945862  0.028504247            3 
 2808000   0.78560277   -6.2958346    976.78576  0.028988181  0.028496216            6 
 2809000   0.79748068   -6.3156658    974.49028  0.028909763  0.028488153           11 
 2810000   0.80155239   -6.3258776    972.84347  0.028850637  0.028480087            6 
 2811000   0.79280922   -6.3120669    976.62038  0.028952341  0.028472052            7 
 2812000   0.78451958   -6.3015241    976.02109  0.028924285  0.028464027           10 
 2813000   0.80631591    -6.325479    974.27468  0.028862267  0.028455971           15 
 2814000   0.79722643   -6.2836831    976.61224  0.028921234  0.028447923           26 
 2815000   0.78555989   -6.3103003    976.01296   0.02889322  0.028439828            7 
 2816000   0.79571603   -6.3022838    973.57447  0.028810797   0.02843175            7 
 2817000   0.80686649   -6.3239166    974.40177  0.028825043  0.028423695            5 
 2818000   0.77991969   -6.3177763    975.63437  0.028851265   0.02841566           11 
 2819000   0.81055963   -6.2996963    974.76842  0.028815432  0.028407606           17 
 2820000    0.8028039   -6.2791905    972.01706  0.028723908   0.02839955           19 
 2821000   0.79272976    -6.303252    977.43167  0.028873676  0.028391445           13 
 2822000   0.80962027   -6.2959806     973.7092   0.02875352  0.028383372            8 
 2823000   0.78747262   -6.3124214    974.09338  0.028754675  0.028375335            7 
 2824000   0.79577563   -6.3181992    976.13662  0.028804787  0.028367327            8 
 2825000   0.78945195   -6.2954786     977.4837  0.028834327  0.028359307            7 
 2826000    0.7891988   -6.3074866    976.57435  0.028797309  0.028351246            8 
 2827000   0.79784234   -6.3342772    975.60401  0.028758519  0.028343225            6 
 2828000   0.80112466   -6.3278338    975.21246  0.028736812  0.028335196            7 
 2829000   0.80232349   -6.3718483    975.06533   0.02872232   0.02832712            7 
 2830000   0.78977349     -6.32293    975.58326  0.028727422  0.028319015            7 
 2831000   0.79985212    -6.304626    978.00137  0.028788454  0.028310932           19 
 2832000   0.80271379    -6.323797    976.23098  0.028726194  0.028302873            5 
 2833000   0.79245943   -6.2827112    977.44556  0.028751781  0.028294802            4 
 2834000     0.798089   -6.2890955    976.73019  0.028720601  0.028286783            3 
 2835000   0.80139369   -6.3174963    973.94598   0.02862863  0.028278743            8 
 2836000   0.80167144   -6.2797194    979.51331  0.028782126   0.02827062            5 
 2837000   0.79902603   -6.3327682    976.52481  0.028684197  0.028262574           13 
 2838000   0.79624012   -6.3433362    974.58823  0.028617226  0.028254413            6 
 2839000   0.81077188   -6.3351167     976.7219  0.028669775  0.028246289            5 
 2840000   0.79662841    -6.315171    972.77321  0.028543815  0.028238148            7 
 2841000   0.79989721   -6.3444716    973.01077  0.028540736  0.028230054           10 
 2842000    0.8003515   -6.3239508    976.10963  0.028621558  0.028221962            9 
 2843000   0.78550394   -6.3284152    974.16711  0.028554552  0.028213896           16 
 2844000   0.79584892   -6.3355333    977.86785  0.028652949  0.028205803           10 
 2845000   0.78125939   -6.3074805    977.74554  0.028639295  0.028197783            6 
 2846000   0.80739946   -6.3056718    977.25859  0.028614974  0.028189682            3 
 2847000    0.8000448   -6.3720839    975.61841  0.028556914  0.028181653           14 
 2848000   0.80867502   -6.3235974    976.88038  0.028583813  0.028173556            9 
 2849000     0.787481   -6.3411569    975.97109  0.028547183  0.028165499           12 
 2850000   0.80650868    -6.336532     977.1331  0.028571143  0.028157381           23 
 2851000    0.7977176    -6.297229    981.43613  0.028686897  0.028149278            6 
 2852000   0.78699504   -6.3058584    976.29531  0.028526628  0.028141208            8 
 2853000   0.79839136   -6.3234185    977.64298  0.028555993  0.028133135            6 
 2854000   0.79417262   -6.3325234    977.04876  0.028528637    0.0281251           12 
 2855000   0.79739179   -6.3107916    981.34457  0.028644033  0.028117098            6 
 2856000   0.78440299   -6.3333421    977.73921  0.028528805  0.028109082           10 
 2857000   0.78401668   -6.3373992     977.0471  0.028498632  0.028101075           22 
 2858000   0.79775148   -6.3519329    975.20184  0.028434857  0.028093031            8 
 2859000   0.79877719    -6.345959     977.5191  0.028492454  0.028084973            8 
 2860000   0.79315365   -6.3001177     979.3373  0.028535469  0.028076918            7 
 2861000    0.8071893   -6.2838331    980.50846  0.028559608  0.028068877            4 
 2862000   0.79778043   -6.3525064     977.9081  0.028473914  0.028060808           10 
 2863000    0.7802762    -6.333342    977.93424  0.028464729  0.028052738           10 
 2864000    0.7851938   -6.3187834    980.49639  0.028529341  0.028044666            4 
 2865000   0.82314875   -6.3381543     976.7742  0.028411117  0.028036614            6 
 2866000   0.80200293   -6.3478133    977.76392  0.028429981  0.028028553           16 
 2867000   0.80024786   -6.3386276    977.60213  0.028415362  0.028020495           15 
 2868000   0.79380094   -6.3562569    976.97713  0.028387295  0.028012431           14 
 2869000   0.79962394   -6.3156231    979.10694  0.028439263  0.028004383            4 
 2870000   0.79555621   -6.3524161    975.72914  0.028331276  0.027996344            6 
 2871000   0.79334928   -6.3135549    978.68037   0.02840707  0.027988295            5 
 2872000    0.7892962   -6.3419939    978.01805  0.028377961  0.027980213            8 
 2873000   0.79940408   -6.3221244    977.64042   0.02835713  0.027972237            9 
 2874000    0.7789353   -6.3328443    979.87814  0.028412147  0.027964247            6 
 2875000   0.78316404   -6.3049668    980.12258   0.02840935  0.027956276            6 
 2876000   0.79099478    -6.343854    978.18651  0.028343374   0.02794832            9 
 2877000   0.79072062   -6.3573292    978.52035  0.028343192  0.027940263            7 
 2878000   0.78414162   -6.3655585    980.11281  0.028379453  0.027932195           19 
 2879000   0.78572614   -6.3616784    975.91542  0.028248102  0.027924134           23 
 2880000   0.78514864   -6.3346727    979.85018  0.028352146  0.027916137            9 
 2881000   0.77683034   -6.3711775    982.10969  0.028407662  0.027908121            7 
 2882000    0.7817911   -6.3317669    980.12121  0.028340308  0.027900183           11 
 2883000   0.77784649   -6.3663146    979.69499  0.028318158  0.027892203            6 
 2884000    0.7981744   -6.3505534    979.64418  0.028306871  0.027884236            6 
 2885000   0.78691187   -6.3757208    980.76721  0.028329498  0.027876235           12 
 2886000   0.78935513   -6.3256264    979.98014  0.028296955  0.027868263            4 
 2887000   0.78112272   -6.3591676     982.0459  0.028346782  0.027860312           17 
 2888000   0.79574658   -6.3462857    981.23825  0.028313661  0.027852383            8 
 2889000   0.79414954   -6.3877041    978.20307  0.028216311  0.027844469           13 
 2890000   0.76522811   -6.3471714    980.50049  0.028272794  0.027836548            6 
 2891000   0.80216239   -6.3175985    980.66014  0.028267616   0.02782865           14 
 2892000   0.77367075   -6.3407592    981.95327  0.028295103  0.027820763            7 
 2893000   0.81634505   -6.3775784    980.17784  0.028234181  0.027812852            9 
 2894000   0.79263211   -6.3355564    983.82943  0.028329573  0.027804892            5 
 2895000   0.79654819   -6.3557767    981.85188  0.028262864  0.027796929           11 
 2896000   0.78865221   -6.3393566    982.42506  0.028269598  0.027788991            7 
 2897000   0.78052528   -6.3553919    982.61904  0.028265419   0.02778105           13 
 2898000   0.78812339   -6.3237936    982.45645  0.028250991  0.027773097           10 
 2899000   0.79094844   -6.3117337    983.60782  0.028274342  0.027765142            5 
 2900000   0.78568796    -6.357449    981.91034  0.028215814  0.027757229            8 
 2901000   0.77373441   -6.3647166    982.39879  0.028220119   0.02774931            5 
 2902000   0.81560938   -6.3085609    982.99395  0.028227485  0.027741372            5 
 2903000   0.78930398   -6.3790124    979.97555  0.028131116  0.027733364            6 
 2904000   0.77915814      -6.3317    983.48604  0.028222166  0.027725396            8 
 2905000   0.77689822   -6.3554293    982.23289  0.028176503  0.027717456            8 
 2906000   0.77947508   -6.3418409    981.27996   0.02813948  0.027709499            8 
 2907000   0.78787524   -6.3567719    982.27267  0.028158258  0.027701543           11 
 2908000   0.79791803   -6.3342762    984.26636  0.028205707   0.02769363            5 
 2909000   0.79891396   -6.3462298    982.27623  0.028139001  0.027685742            8 
 2910000   0.80258898   -6.3435492    982.87421  0.028146455  0.027677856            5 
 2911000    0.7711878   -6.3355287    981.81724  0.028106528  0.027669951            9 
 2912000   0.78888314   -6.3536842    983.24831   0.02813783  0.027662007            6 
 2913000   0.76602941   -6.3415463    984.23241  0.028156323  0.027654073           10 
 2914000   0.77781574   -6.3356013    982.89227  0.028108335  0.027646123            8 
 2915000   0.78350402   -6.3526051     984.4238  0.028142476  0.027638213           16 
 2916000   0.78045332   -6.3630269    984.45392  0.028133686  0.027630305            6 
 2917000   0.79400875   -6.3352852    983.17453  0.028087491  0.027622364            9 
 2918000   0.79470374   -6.3569607    982.24761  0.028051394  0.027614462            6 
 2919000   0.77665131   -6.3425364    981.36855  0.028016688  0.027606527            4 
 2920000   0.79259922   -6.3443957    983.32969  0.028063062  0.027598658           14 
 2921000   0.79427626   -6.3561705    982.13778   0.02801945    0.0275907            5 
 2922000   0.78473883   -6.3352226    984.99741  0.028091416  0.027582747            6 
 2923000   0.76364761   -6.3402779    984.49404  0.028067455  0.027574821           11 
 2924000     0.788848   -6.3482343    982.05509  0.027988346  0.027566862            4 
 2925000   0.79659758   -6.3423991    984.40003  0.028045585  0.027558922            9 
 2926000   0.76933438   -6.3622224    982.79867  0.027990393  0.027550958            9 
 2927000   0.78028774   -6.3693528    982.98674  0.027986184  0.027543015            6 
 2928000   0.78330488   -6.3377096    986.44614  0.028075084  0.027535171            9 
 2929000   0.77670714   -6.3412203    981.46311  0.027923726  0.027527241           13 
 2930000   0.78399903   -6.3631079    980.51231  0.027887153  0.027519311            8 
 2931000   0.78887145   -6.3772211    983.12777  0.027952001  0.027511386            6 
 2932000   0.77012807   -6.3344767    984.00812  0.027967489  0.027503441            9 
 2933000   0.78085672   -6.3490512    983.70533   0.02794935  0.027495529            6 
 2934000   0.77639191   -6.3603711     983.8718  0.027944552  0.027487596            8 
 2935000   0.78870415     -6.36382    984.15587  0.027943097  0.027479657           10 
 2936000   0.77736655   -6.3731103    982.48169  0.027886061  0.027471719            4 
 2937000   0.76481776   -6.3266849     981.8269  0.027857987  0.027463814           12 
 2938000   0.77078713   -6.3947178     984.6099  0.027927442  0.027455869           21 
 2939000   0.77278744   -6.3669885     984.6481  0.027919023  0.027447923           15 
 2940000   0.77752457   -6.3794738    983.96566  0.027890183  0.027440017            5 
 2941000   0.77644624   -6.3843892    984.39629  0.027892902  0.027432063           16 
 2942000    0.7702836   -6.3693057    984.90536   0.02789784  0.027424151            9 
 2943000    0.7823834   -6.3352906    984.62499  0.027880422  0.027416253            7 
 2944000   0.78678933   -6.3856571    982.76766  0.027818378  0.027408393            6 
 2945000   0.78777284   -6.3408493    987.42886  0.027940828  0.027400497            7 
 2946000   0.77632137   -6.3784712    981.85402  0.027773649  0.027392568           11 
 2947000   0.77668931   -6.3964068    984.53915  0.027840153    0.0273846            7 
 2948000   0.77500241   -6.3637256    985.37461  0.027854325  0.027376643           26 
 2949000   0.78612609   -6.3976042    983.17573  0.027782744  0.027368709           11 
 2950000    0.7903958    -6.341807    984.81483  0.027819628  0.027360736            8 
 2951000   0.79392385   -6.3732704    985.83677  0.027839059    0.0273528            6 
 2952000   0.78722786   -6.3484779    986.46761  0.027847437  0.027344891            7 
 2953000    0.7691541   -6.3707413    981.87994  0.027708543  0.027336915            8 
 2954000   0.77779902    -6.357579     983.2993  0.027739204  0.027328956            9 
 2955000   0.78005438   -6.3474063    986.31239  0.027814788  0.027321032           12 
 2956000   0.76197833    -6.368707    983.92126   0.02773797  0.027313109            8 
 2957000   0.77575907   -6.3512009    985.76585  0.027780573   0.02730521            6 
 2958000   0.78349904   -6.3460253    985.09663  0.027752328   0.02729734            6 
 2959000   0.78376695   -6.3475799     988.0211   0.02782531  0.027289472            6 
 2960000   0.77672623   -6.3661796    985.85553  0.027754942  0.027281605           12 
 2961000   0.77385382   -6.3515399    987.13481  0.027781572  0.027273725            5 
 2962000   0.77150605   -6.3679831    987.36324  0.027778619  0.027265853            7 
 2963000   0.78631688   -6.3672141    986.73505  0.027751576  0.027257955           18 
 2964000   0.76539648   -6.3455026    987.48543   0.02776331  0.027250081            6 
 2965000    0.7806636   -6.3391687    986.99391  0.027740132   0.02724222            7 
 2966000   0.77600695   -6.3547043    988.93286  0.027785257  0.027234348           25 
 2967000   0.79261988   -6.3567869    987.11173  0.027724743   0.02722651           15 
 2968000    0.7737771   -6.3649853    983.94506   0.02762649  0.027218634            5 
 2969000   0.77423223   -6.4001059    983.47751  0.027604062  0.027210646           10 
 2970000   0.78179633   -6.4091091    985.59272  0.027654117  0.027202687            6 
 2971000   0.77709105   -6.3795227    987.75141  0.027705358  0.027194761            9 
 2972000   0.76702477    -6.379692    985.51086  0.027633212  0.027186796            8 
 2973000   0.77636398   -6.3747338    983.92797  0.027579549  0.027178876           20 
 2974000    0.7749896   -6.4070831    984.77983  0.027594145  0.027170883           11 
 2975000   0.77802365   -6.3824976     985.7939  0.027613274  0.027162884           11 
 2976000   0.77981124   -6.3894635     986.6728  0.027628607  0.027154913            3 
 2977000   0.80007645   -6.3550714    987.34958  0.027638271  0.027147003            7 
 2978000   0.77597745   -6.3774932    985.43132  0.027575311  0.027139108           11 
 2979000   0.78037024   -6.3716577    988.70851  0.027657729  0.027131233           12 
 2980000   0.76366407   -6.4023103    984.51515  0.027531184  0.027123342           11 
 2981000   0.76992709   -6.3645747     988.2655  0.027626789  0.027115493            5 
 2982000   0.75949917   -6.4060986    984.22957  0.027504739  0.027107635           12 
 2983000   0.78100911   -6.3732538    986.74465   0.02756578  0.027099752            7 
 2984000   0.79315041   -6.3900797     985.4481  0.027520334  0.027091904           18 
 2985000   0.79488992   -6.3716182    985.15818   0.02750302  0.027084004           11 
 2986000    0.7758905   -6.3801777    987.61505  0.027562376  0.027076179           14 
 2987000   0.79038947   -6.3866551    988.77534  0.027585519  0.027068353           14 
 2988000   0.78112308   -6.3936368    985.46884  0.027484071  0.027060535            8 
 2989000   0.76301491   -6.3768795    991.65082  0.027647229   0.02705271            6 
 2990000   0.77498078   -6.3960502    988.98453  0.027563671  0.027044881           16 
 2991000   0.77075032   -6.4345015     984.8799  0.027440095  0.027036998            6 
 2992000    0.7475371   -6.4101046    987.42898  0.027501921  0.027029102           16 
 2993000    0.7822348   -6.3701099    989.47302  0.027549644  0.027021212           12 
 2994000   0.76862295   -6.3925624    986.73726  0.027464297  0.027013308           13 
 2995000   0.76729111    -6.342655    989.86423  0.027542132  0.027005421            7 
 2996000   0.77682233   -6.3632353    989.87987  0.027533374  0.026997574           12 
 2997000   0.76514094   -6.3934493     987.9359  0.027470134  0.026989734           10 
 2998000   0.78251614   -6.3783595    987.45722  0.027447666  0.026981839           24 
 2999000   0.77529683   -6.3718701    990.05312  0.027510646  0.026973959            7 
 3000000   0.77359887   -6.3711369    990.56862  0.027515795  0.026966145            9 
 3001000    0.7687325   -6.3386014     990.5566  0.027506292  0.026958409            6 
 3002000   0.78661974   -6.3522091    989.79557  0.027476004  0.026950645            7 
 3003000   0.78517337   -6.3511836    988.30149  0.027425394  0.026942856            6 
 3004000   0.78061714   -6.3884832    986.10047  0.027355206  0.026935033            4 
 3005000   0.77723455   -6.3660843     989.2004  0.027432069  0.026927192           14 
 3006000   0.78339665   -6.3913623    987.21767  0.027367977  0.026919321            4 
 3007000   0.78289231   -6.3887715    989.04344  0.027409474  0.026911494           12 
 3008000   0.75799993   -6.4457457    984.52684  0.027275234  0.026903615           22 
 3009000   0.77115873    -6.368155    988.82118    0.0273851  0.026895706            6 
 3010000   0.77628876   -6.3903727    990.76049  0.027429692  0.026887916           16 
 3011000    0.7780513   -6.3706945    990.51754  0.027413859  0.026880132           12 
 3012000   0.79009403   -6.3941558    988.85399  0.027358732  0.026872337            6 
 3013000   0.76737741   -6.4066194    989.78087  0.027375287  0.026864501           10 
 3014000   0.76298112   -6.3867571    990.08081  0.027374497  0.026856581            9 
 3015000   0.76493584   -6.3749661    990.27913  0.027370899  0.026848717            9 
 3016000   0.77153759   -6.4068976    989.23631   0.02733301  0.026840924           11 
 3017000   0.77448005   -6.3909273    990.81317  0.027367506  0.026833085           12 
 3018000    0.7689806   -6.3944457    990.53232  0.027350682  0.026825327            6 
 3019000   0.76753606   -6.3918659    986.77272  0.027237847  0.026817527           21 
 3020000   0.76900959   -6.3744687    992.49477  0.027386721  0.026809754            3 
 3021000   0.77238425   -6.3956304      989.671  0.027299763  0.026801993           15 
 3022000   0.77438048    -6.401907    991.32386  0.027336308  0.026794226           15 
 3023000   0.77061894   -6.3835005    989.94579  0.027289276  0.026786493           19 
 3024000   0.73875322   -6.4121829    992.19722  0.027342295  0.026778767            7 
 3025000   0.75798342   -6.3877104    993.71001  0.027374931  0.026771055           13 
 3026000   0.77092193   -6.3496875    992.68917  0.027337772  0.026763353            8 
 3027000   0.76675559    -6.382032    993.37692  0.027347674  0.026755663            5 
 3028000   0.77914421   -6.4161439    991.95457  0.027299498  0.026747935           13 
 3029000   0.76847378   -6.3981018    992.36765   0.02730185  0.026740199           17 
 3030000   0.75352033   -6.4041662    989.75735  0.027221049  0.026732435           13 
 3031000   0.77053307   -6.3931194    995.00622  0.027356379  0.026724684            7 
 3032000   0.77205992   -6.3936969    992.27166  0.027272198  0.026716948            9 
 3033000   0.76626801   -6.3846498    993.15236  0.027287404  0.026709257            9 
 3034000   0.76949579   -6.3923205    993.65085  0.027292102  0.026701543           13 
 3035000   0.76319214   -6.4087516    993.03668  0.027266246  0.026693806           13 
 3036000   0.76662853   -6.3899911    991.20217  0.027206911  0.026686062           12 
 3037000   0.78085238   -6.3901264    991.62484   0.02720955  0.026678308            8 
 3038000   0.77383435   -6.3965806    992.67066  0.027229281  0.026670541           12 
 3039000   0.78354866   -6.3844356    993.08185  0.027231596  0.026662804           13 
 3040000   0.76635872   -6.3863621     996.2411  0.027309241  0.026655161            9 
 3041000   0.76160013   -6.3990961    993.85974  0.027235003  0.026647486            7 
 3042000   0.76077611   -6.4202701    990.52704  0.027134753  0.026639743            5 
 3043000   0.75553074   -6.3920189    993.33984  0.027202866  0.026631999            7 
 3044000    0.7474179   -6.3950191    992.91508  0.027182301  0.026624255            6 
 3045000   0.75885658   -6.3950921    994.24164  0.027209678  0.026616551           15 
 3046000    0.7647726   -6.3939936    994.60565  0.027210704  0.026608859            5 
 3047000   0.75072723   -6.4094178    991.51284  0.027117187   0.02660116            8 
 3048000    0.7758445    -6.392271    988.99915  0.027039566  0.026593439            8 
 3049000   0.77902065   -6.4147323    992.51103  0.027126682  0.026585752            8 
 3050000   0.76614539   -6.4045969    991.18125  0.027081455  0.026577997           11 
 3051000   0.75402679   -6.4057087    994.23916  0.027156101  0.026570216            6 
 3052000   0.76595045   -6.4005184    992.94163  0.027111775  0.026562481            5 
 3053000   0.77001819   -6.4019758    992.47948  0.027090279  0.026554757           13 
 3054000   0.78242222   -6.4335306    992.67531  0.027086753  0.026547012           13 
 3055000   0.79020964   -6.3909704    993.16994  0.027091379  0.026539254           11 
 3056000   0.75879683   -6.4009551    993.37694  0.027088158  0.026531581            7 
 3057000   0.75834607   -6.3939025    994.52069  0.027110476  0.026523881            7 
 3058000   0.76157156   -6.3938517    994.49706  0.027100966  0.026516204           11 
 3059000   0.76166279    -6.375149    994.00485  0.027078698  0.026508517           26 
 3060000   0.75715713   -6.4213327    993.07392  0.027044497  0.026500813            8 
 3061000   0.77043989   -6.3986671    993.50008  0.027047263  0.026493132            7 
 3062000   0.74219854   -6.4204827    993.33531  0.027033946  0.026485428           17 
 3063000   0.76210698   -6.3998568    995.28703  0.027078219  0.026477725            6 
 3064000   0.76698983    -6.423635      991.405    0.0269638  0.026469982            8 
 3065000     0.756852   -6.4262444    993.19804  0.027003753  0.026462246           18 
 3066000   0.76680993   -6.4024936    995.23008  0.027050176  0.026454561            5 
 3067000   0.75803945   -6.4192238    993.77479  0.027001815  0.026446861            6 
 3068000   0.76484771   -6.4169754    992.88326  0.026968798  0.026439175            9 
 3069000   0.77403892   -6.3983915    993.31194   0.02697165  0.026431446            8 
 3070000   0.77010862   -6.3994999    995.85897  0.027032003  0.026423745            7 
 3071000   0.76904865   -6.4129007    990.79835  0.026885877  0.026415988           12 
 3072000   0.78162554   -6.3783295    996.63089  0.027035343  0.026408226            8 
 3073000   0.76267449   -6.4040983    995.04211  0.026983461  0.026400567           15 
 3074000   0.75311213   -6.4016253    994.64994  0.026964052  0.026392858            9 
 3075000   0.75346049   -6.4043412    995.57109  0.026980246  0.026385184            7 
 3076000   0.76031035   -6.4115823    996.40377  0.026994034  0.026377503           14 
 3077000   0.75444432   -6.4324896    996.61475  0.026990975  0.026369764           18 
 3078000   0.76536595   -6.4256056    993.34322  0.026893633  0.026362075            8 
 3079000   0.74197799   -6.4277466    994.96392  0.026928762  0.026354403            9 
 3080000   0.77592318   -6.4486291     993.9485  0.026892546  0.026346708            9 
 3081000   0.76432459   -6.4358666     994.2134  0.026890982  0.026339017           10 
 3082000   0.77945303   -6.4365104    994.16459  0.026880937  0.026331327           11 
 3083000   0.75072385   -6.4253073    994.96022  0.026893724  0.026323603            8 
 3084000   0.75606817    -6.421283    996.99458  0.026939975  0.026315908            8 
 3085000   0.78824904   -6.4321803     995.0134  0.026877725  0.026308278            9 
 3086000   0.75948017   -6.4324121    993.89747  0.026838882   0.02630059            7 
 3087000   0.74750861   -6.3986899    995.29406  0.026867888  0.026292888            8 
 3088000   0.74918623   -6.4166383      995.485  0.026864341  0.026285208           16 
 3089000     0.771156   -6.4371391    993.45592  0.026800904  0.026277492           24 
 3090000   0.76738968   -6.4202013    993.46164  0.026792385  0.026269762           22 
 3091000   0.76811103   -6.4291715     997.2104  0.026884784  0.026262062            7 
 3092000   0.77398978   -6.4377708    997.31887  0.026879012  0.026254391            9 
 3093000   0.74241242   -6.4122405      995.617  0.026824469  0.026246744            4 
 3094000    0.7402288   -6.4174241    993.70444  0.026764287  0.026239048            8 
 3095000   0.77539061   -6.4621552    993.18754  0.026741722  0.026231353            6 
 3096000   0.74465795   -6.4128467    995.68255  0.026800241  0.026223635            9 
 3097000   0.77098718   -6.4364201    992.99208  0.026719193  0.026215913           28 
 3098000    0.7702151   -6.4610348     992.4769   0.02669671  0.026208133           18 
 3099000   0.75711214   -6.4419428    994.10583  0.026731898  0.026200385           13 
 3100000   0.76345489   -6.4144074    994.78608  0.026741561  0.026192679            8 
 3101000   0.76785641   -6.4199097    996.73575  0.026785331  0.026184981            8 
 3102000   0.74584324   -6.4667408    993.80445  0.026697949  0.026177271            8 
 3103000   0.76628675   -6.4330783    994.11766  0.026697756  0.026169565           16 
 3104000     0.766768   -6.4580431    992.13278  0.026635867  0.026161899           10 
 3105000   0.76642239   -6.4129713    997.29238  0.026765764  0.026154219            6 
 3106000   0.76868984    -6.420844    992.08005  0.026617301  0.026146511            6 
 3107000   0.77001015   -6.4236694    995.48034  0.026699934  0.026138806            7 
 3108000   0.75269471   -6.4537987    994.06887  0.026653498  0.026131094            7 
 3109000   0.74518692   -6.4398556    995.39436  0.026680453  0.026123322           10 
 3110000   0.77315989   -6.4041594     997.5692   0.02673015  0.026115667           10 
 3111000   0.75084915    -6.452715    995.79952  0.026674154  0.026107976           11 
 3112000   0.75679288   -6.4185893    995.73052  0.026663735  0.026100264            8 
 3113000   0.75575967   -6.4293266    996.47596  0.026675125    0.0260926           19 
 3114000   0.76679434   -6.4458923    998.26683  0.026714484   0.02608493           11 
 3115000   0.74848372   -6.4207325    998.52955  0.026712936  0.026077224            7 
 3116000   0.74163836   -6.4321325    994.71737  0.026602412  0.026069529            9 
 3117000   0.75600762    -6.450306    993.48165   0.02656084  0.026061809           15 
 3118000   0.74979236    -6.423085    994.89279  0.026590036  0.026054149           17 
 3119000   0.74482832   -6.4271907    993.46552  0.026543377  0.026046482            7 
 3120000   0.77151818   -6.4242618    997.12921  0.026632725  0.026038839           11 
 3121000   0.75876619   -6.4416356    995.26422  0.026574395  0.026031109           18 
 3122000   0.76271048   -6.4486357    995.50765   0.02657238  0.026023388           39 
 3123000   0.75284985   -6.4273255    996.62964   0.02659381  0.026015699            8 
 3124000   0.75969836   -6.4393189    995.03215  0.026542684  0.026007987            7 
 3125000   0.75435274   -6.4544712    996.88329  0.026583554  0.026000355           13 
 3126000   0.73789985   -6.4457608    995.22111   0.02653074  0.025992626            9 
 3127000   0.74721162    -6.427388    998.73616   0.02661593  0.025984973           11 
 3128000    0.7478135   -6.4037438    997.68263  0.026579354  0.025977312            4 
 3129000    0.7673422   -6.4393878    996.55267  0.026540766  0.025969647           15 
 3130000   0.75668095   -6.4507347     995.3692  0.026500777  0.025961954            6 
 3131000   0.75399868   -6.4396466    997.63845  0.026552711  0.025954249           12 
 3132000   0.75966716   -6.4489962    996.11257  0.026503634  0.025946518           13 
 3133000   0.75458347   -6.4226508    997.73114  0.026538226  0.025938863           14 
 3134000   0.73764635   -6.4613614    993.53265   0.02641812  0.025931182           16 
 3135000   0.75920512   -6.4709693    994.47745  0.026434807  0.025923426           10 
 3136000    0.7399094   -6.4646875    995.19632   0.02644548  0.025915709           18 
 3137000   0.75529459   -6.4762235    993.89642  0.026402519  0.025907957           11 
 3138000   0.74297983   -6.4779777    996.53159  0.026464085  0.025900195           20 
 3139000   0.75802461   -6.4371263    994.90905   0.02641258  0.025892437            7 
 3140000   0.76285877   -6.4503558    994.55153   0.02639468  0.025884713           14 
 3141000   0.74406867   -6.4586603     995.9868  0.026424355  0.025877018           18 
 3142000   0.73312843   -6.4243475    996.57802  0.026431626  0.025869276            8 
 3143000   0.74876425   -6.4540489    995.10203  0.026384082  0.025861598            9 
 3144000   0.76125783   -6.4071489    995.58663  0.026388534  0.025853934           10 
 3145000    0.7459206   -6.4207176    996.72683  0.026410356  0.025846293            3 
 3146000   0.74283816   -6.4216234    997.72802  0.026428481  0.025838628            5 
 3147000   0.75109831   -6.4742979    994.80969  0.026342805  0.025830908           11 
 3148000   0.73517872    -6.458458    996.41059  0.026376816  0.025823193            8 
 3149000   0.76218574   -6.4435753    994.91782  0.026328936  0.025815493           12 
 3150000   0.73980335   -6.4272835    995.39857  0.026333295  0.025807795            6 
 3151000    0.7469916   -6.4588047    999.56843  0.026435217  0.025800176           22 
 3152000   0.75742077   -6.4443107     996.3905  0.026342811  0.025792502            6 
 3153000   0.74689054   -6.4344116    998.03275  0.026377861  0.025784811            7 
 3154000   0.74844179   -6.4463779    995.01651  0.026289804  0.025777075            9 
 3155000   0.74667666   -6.4560596    995.02156  0.026281605  0.025769353            7 
 3156000   0.75563261   -6.4303127    997.74685  0.026345238  0.025761637            9 
 3157000   0.76434596   -6.4657864    996.93385  0.026315433  0.025753905            6 
 3158000   0.73966462   -6.4620145     994.7522   0.02624953  0.025746118            7 
 3159000   0.76099842   -6.4459185    996.88293  0.026297429  0.025738403            5 
 3160000   0.73918067   -6.4716268    996.79202  0.026286709  0.025730668           11 
 3161000   0.73500158   -6.4613186    996.46779  0.026269846  0.025722962           11 
 3162000   0.74898256   -6.4823925    993.45362    0.0261821  0.025715157           12 
 3163000   0.74608188   -6.4708427    995.07216  0.026216466  0.025707389            6 
 3164000   0.73440137   -6.4234136    996.83404  0.026254584  0.025699654            6 
 3165000   0.73484387   -6.4562016    998.78896  0.026297761  0.025691942            6 
 3166000   0.71493339   -6.4565135    993.93615  0.026161722  0.025684192           14 
 3167000   0.73580639   -6.4670387    995.44922  0.026193275  0.025676466           17 
 3168000   0.75632536   -6.4627682     995.9367   0.02619783  0.025668714            7 
 3169000   0.76456908   -6.4068438    997.87773  0.026240605  0.025660994            8 
 3170000   0.74252004   -6.4597155    995.36192  0.026166191  0.025653274           20 
 3171000   0.75252362   -6.4402476    996.27912  0.026182044  0.025645532           17 
 3172000   0.73683643   -6.4511396    996.46823  0.026178758  0.025637769           16 
 3173000   0.74228878   -6.4551523    994.39977  0.026116183  0.025630058            9 
 3174000    0.7302144   -6.4634207     997.4835  0.026188918  0.025622333            8 
 3175000   0.74682518   -6.4515133    996.07313  0.026143652  0.025614615           14 
 3176000   0.72613721   -6.4612584      995.737  0.026126601  0.025606931           16 
 3177000    0.7503204   -6.4372507    996.71698  0.026144082  0.025599252            9 
 3178000   0.75908119   -6.4354375    995.57433  0.026105893  0.025591549            8 
 3179000    0.7533708   -6.4564166    993.72435  0.026049186  0.025583875            6 
 3180000   0.74668296    -6.444908    997.61153   0.02614286  0.025576162           12 
 3181000   0.75003461   -6.4630619    997.93948  0.026143233  0.025568484            9 
 3182000    0.7445206   -6.4156119    996.90881  0.026108025  0.025560836           14 
 3183000    0.7467743   -6.4577296    998.31539  0.026136648    0.0255532           20 
 3184000   0.72904342   -6.4545917    996.46865  0.026080105  0.025545509           22 
 3185000   0.74458885   -6.4569645    996.32232  0.026068088  0.025537815            8 
 3186000   0.73474005    -6.473427    997.19672  0.026082777  0.025530175            6 
 3187000   0.74953976   -6.4892249    996.88994  0.026066571  0.025522466            7 
 3188000   0.74949048   -6.4632416    997.63535  0.026077879  0.025514774            8 
 3189000   0.74856908   -6.4784541    995.50817  0.026014115  0.025507136           12 
 3190000   0.74850438   -6.4574872    997.49989  0.026057991  0.025499468           30 
 3191000    0.7453699   -6.4593804    996.11212  0.026013583  0.025491773           20 
 3192000   0.73610856   -6.4554327    999.05314  0.026082214  0.025484085           18 
 3193000   0.72849301   -6.4603839    997.14425  0.026024226  0.025476441            5 
 3194000   0.73583041   -6.4583968    996.95077   0.02601103  0.025468815            9 
 3195000   0.72463187   -6.4762784    995.98887    0.0259778  0.025461163           12 
 3196000   0.74298763   -6.4581306    998.63053  0.026038551  0.025453495           12 
 3197000   0.74571072   -6.4616769    999.11976  0.026043159  0.025445871           21 
 3198000   0.74086219     -6.45718    999.65408  0.026048939  0.025438213           13 
 3199000   0.71955356   -6.4753781    996.94233  0.025970156  0.025430613           14 
 3200000   0.74018883   -6.4519637    998.38731   0.02599967  0.025423035           13 
 3201000   0.73950832   -6.4534798    998.96565  0.026006603   0.02541539           28 
 3202000   0.74532259   -6.4870563    996.34624   0.02593031  0.025407743            6 
 3203000   0.74459053   -6.4578503    997.50554  0.025952376  0.025400088           17 
 3204000   0.74325037   -6.4584961    999.87225  0.026005832  0.025392505            7 
 3205000   0.73402589   -6.4299316    1000.9131  0.026024782  0.025384856            7 
 3206000   0.74563933   -6.4425324    1000.5662  0.026007646  0.025377254            7 
 3207000   0.73904268    -6.443133    997.80351   0.02592775  0.025369677           16 
 3208000   0.73731385   -6.4526436    1000.9336  0.026000976  0.025362127           13 
 3209000   0.75475985   -6.4636341    998.90492  0.025940192  0.025354564           13 
 3210000   0.74145234   -6.4649405    1002.8359  0.026034162  0.025346969            5 
 3211000   0.75024294   -6.4855926    998.65567  0.025917566  0.025339421            9 
 3212000   0.73804149   -6.4583509    1002.5654  0.026010932  0.025331881            9 
 3213000   0.73888205   -6.4737562    998.75238  0.025903942  0.025324354           19 
 3214000   0.74598775   -6.4520259     999.8521  0.025924396  0.025316862            6 
 3215000   0.74323153   -6.4462528     1000.652  0.025937066  0.025309345           15 
 3216000   0.73448483   -6.4722283    1001.9781  0.025963362  0.025301809           12 
 3217000   0.75037551   -6.4585104    1001.1427  0.025933651  0.025294243           10 
 3218000   0.72367673    -6.475635     1000.322  0.025904341  0.025286672            5 
 3219000   0.74478406   -6.4863715    996.55925  0.025798883  0.025279065           13 
 3220000    0.7381992   -6.4766663    999.54284  0.025868086  0.025271485           17 
 3221000   0.74266265   -6.4802378    998.82396  0.025841456  0.025263899           14 
 3222000    0.7244949   -6.5204626    997.25478  0.025792851  0.025256215           15 
 3223000   0.73598918    -6.479892    999.02813  0.025830699  0.025248556           18 
 3224000   0.74621348   -6.4859921    1000.8344  0.025869376  0.025240911           15 
 3225000   0.74334219   -6.4783753    998.32582  0.025796533  0.025233291           11 
 3226000   0.72592011    -6.490526    997.16477  0.025758544  0.025225677           13 
 3227000   0.74152973   -6.5120806    998.84781  0.025794025  0.025218039            7 
 3228000   0.72429686   -6.5116269    997.39866  0.025748623  0.025210396           13 
 3229000    0.7473471   -6.4617373    999.30039  0.025789728   0.02520276            6 
 3230000   0.73240372   -6.4761532    1000.7869  0.025820096  0.025195162            5 
 3231000   0.71372402   -6.4762476    999.69471  0.025783934  0.025187544           14 
 3232000   0.72888842   -6.4595932    999.69477  0.025775958   0.02517993           11 
 3233000   0.73304274   -6.4802239    998.32914  0.025732785  0.025172325            9 
 3234000    0.7414809   -6.4872873    998.42437  0.025727282  0.025164712           13 
 3235000   0.73906703   -6.4867761    999.73597  0.025753116  0.025157134            7 
 3236000   0.72657873   -6.4965861    1000.1859  0.025756744  0.025149516            9 
 3237000   0.74152285   -6.5130309    996.41742  0.025651772  0.025141892           11 
 3238000   0.73618347   -6.4911517    998.79047  0.025704923  0.025134267            7 
 3239000   0.75027275   -6.4565804    1002.5609  0.025793992  0.025126696           12 
 3240000   0.72071331    -6.477447     997.0318  0.025643822  0.025119145           18 
 3241000   0.73959778   -6.5003468    1000.5218  0.025725645  0.025111557            7 
 3242000   0.72423925   -6.4747206    1001.1227  0.025733157  0.025104022           17 
 3243000   0.73532517   -6.4601165    1000.6379  0.025712765  0.025096462           18 
 3244000   0.74030859   -6.4940296    1000.1791   0.02569305  0.025088912           13 
 3245000   0.72616511   -6.4796088    1001.7044  0.025724304  0.025081351            8 
 3246000   0.73576883   -6.4704215    1001.5753  0.025713064  0.025073849           11 
 3247000   0.72208065   -6.5039442    1000.3743  0.025674321  0.025066293           13 
 3248000   0.73800443   -6.4868634    1002.0575  0.025709602  0.025058753           11 
 3249000   0.74061343   -6.5052853    1001.2116  0.025679993  0.025051241           10 
 3250000   0.72552158   -6.4860884    1001.6556  0.025683478  0.025043687           14 
 3251000   0.73698024   -6.4937637    1000.4812  0.025645472  0.025036181           11 
 3252000   0.73772452   -6.4918352    1000.4239   0.02563612  0.025028635            9 
 3253000    0.7415191   -6.4854342    1001.3497  0.025651955  0.025021139            8 
 3254000   0.73850366   -6.5087768    1000.5736  0.025624195  0.025013593           25 
 3255000   0.73088872   -6.4939212    1003.4719  0.025690525  0.025006034           14 
 3256000   0.73235156    -6.512432    1001.5937  0.025634563  0.024998458            8 
 3257000   0.73054184   -6.4959554    1002.0617  0.025638669  0.024990904           10 
 3258000   0.73251873   -6.5047486    999.72725  0.025571088  0.024983313           15 
 3259000   0.72858676   -6.5366038    998.30415  0.025526853  0.024975729           14 
 3260000    0.7209603   -6.4920049    1001.2756  0.025594979  0.024968166           18 
 3261000   0.73438486   -6.4967368    1001.2249  0.025585834   0.02496068           24 
 3262000   0.70170494   -6.4858729    1002.6396  0.025614132  0.024953156           12 
 3263000    0.7315594   -6.4733668    1005.0305  0.025667343  0.024945655           13 
 3264000   0.72243453   -6.4995516    1001.6715  0.025573722  0.024938172           16 
 3265000   0.72511377   -6.5056276    1003.4221  0.025610569  0.024930692           10 
 3266000   0.73353044   -6.4820076     1002.147  0.025570194  0.024923223           18 
 3267000   0.73082034   -6.5017176    1001.9108  0.025556342  0.024915755            7 
 3268000   0.75432588   -6.4839337    1001.5206  0.025538572  0.024908294            5 
 3269000   0.72696532    -6.492374     1001.289  0.025524856   0.02490084            9 
 3270000   0.73675232   -6.4915096    1002.0033  0.025535253  0.024893375           12 
 3271000    0.7387046   -6.4719137    1001.4654  0.025513743  0.024885907           10 
 3272000   0.72170386   -6.5159739    1001.9633  0.025518624  0.024878435            5 
 3273000     0.726569   -6.5069029    1002.2565  0.025518294  0.024870965            7 
 3274000   0.72186557   -6.5172898    1001.5598  0.025492767  0.024863458            4 
 3275000    0.7214735   -6.5123459    999.71918  0.025438147   0.02485594           18 
 3276000   0.73088006   -6.5040003    1000.8976  0.025460359  0.024848406            9 
 3277000   0.71199765   -6.5318415    1001.9175  0.025478525  0.024840891           32 
 3278000   0.72262163   -6.4890192    1002.9565  0.025497166  0.024833395           20 
 3279000   0.72142163   -6.4820615    1005.1219  0.025544421  0.024825953           12 
 3280000   0.71720376    -6.495415     1003.895  0.025505462  0.024818501            7 
 3281000   0.72408517    -6.503902    1004.8961  0.025523115  0.024811004            9 
 3282000   0.71725765   -6.5253632    999.62622  0.025381531  0.024803485            6 
 3283000   0.71633541    -6.523262    1003.3042  0.025467158  0.024795957           15 
 3284000   0.72590118   -6.5344286    1000.5253  0.025388888  0.024788436           11 
 3285000   0.73358043   -6.5372476    1001.4868  0.025405549  0.024780916            9 
 3286000   0.73995058   -6.5066976    1004.0541  0.025462926  0.024773443           35 
 3287000   0.71985703   -6.4594221    1006.4309  0.025515437  0.024765989            5 
 3288000   0.72358545   -6.4875567    1002.8214  0.025416194  0.024758543           12 
 3289000   0.73239986   -6.5013874    1001.9984  0.025387616  0.024751049           26 
 3290000   0.71954273   -6.5205174    1002.0105  0.025380205  0.024743549           17 
 3291000   0.71621263   -6.5069579    1003.9307  0.025421115  0.024736059           15 
 3292000   0.72276972   -6.5095076    1001.8438  0.025360566  0.024728592            9 
 3293000   0.71852646   -6.5289861    1002.5883  0.025371705  0.024721105            9 
 3294000   0.72384224   -6.4963434    1004.9506  0.025423764  0.024713613            8 
 3295000   0.73757048   -6.5178745     1001.245  0.025322331   0.02470616            6 
 3296000    0.7260789   -6.4952328    1003.7884  0.025378954  0.024698703            8 
 3297000   0.71669772   -6.5016621     1002.329  0.025334369  0.024691215            8 
 3298000   0.72988631   -6.4931634    1003.0696  0.025345401  0.024683755           26 
 3299000   0.71433367   -6.4923989    1002.2195  0.025316244   0.02467628            9 
 3300000   0.73125614   -6.5142614    1001.5018  0.025290451  0.024668825            8 
 3301000   0.69374838   -6.5402009    1002.4359   0.02530637  0.024661316           12 
 3302000    0.7345205    -6.511179    1003.2373  0.025318932  0.024653864           10 
 3303000    0.7047483   -6.5236385    1003.6356  0.025321315  0.024646373           16 
 3304000    0.7075592   -6.5255847    1004.5031   0.02533553  0.024638922           14 
 3305000   0.70512657   -6.5100036    1004.4322  0.025326076  0.024631472            7 
 3306000   0.72742311   -6.5168355    1003.7224  0.025300524  0.024624054            5 
 3307000   0.73344445   -6.4991432    1001.8567   0.02524586  0.024616627           12 
 3308000   0.71720461   -6.4996382    1003.9123  0.025290012  0.024609215           10 
 3309000   0.70260505   -6.5159044    1005.4549  0.025321216  0.024601793            6 
 3310000   0.73505815   -6.5203171    1002.5895  0.025241427  0.024594397            8 
 3311000   0.71588776   -6.5124694    1003.3994  0.025254187  0.024587005            7 
 3312000    0.7260177   -6.5079789     1004.219  0.025267185  0.024579634            9 
 3313000   0.71803453   -6.5164895    1004.4864  0.025266284  0.024572254            9 
 3314000   0.70569835   -6.5102617    1004.7086  0.025264247  0.024564866           41 
 3315000   0.71241742   -6.5212286    1005.8927  0.025286392  0.024557465           12 
 3316000   0.72415192   -6.5446348    1002.2636  0.025187566  0.024550032           22 
 3317000   0.73005127   -6.5484402    1003.7359  0.025216961  0.024542587           12 
 3318000   0.71207157   -6.5261267    1005.9001  0.025263716  0.024535185           22 
 3319000    0.7229011    -6.522196      1000.63  0.025123782   0.02452779           22 
 3320000   0.71740721   -6.5241501     1003.304  0.025183332  0.024520388           27 
 3321000   0.72291897   -6.5177642    1003.1239  0.025171232  0.024512985           30 
 3322000   0.72929778   -6.5118733    1006.7866  0.025255534  0.024505606           10 
 3323000   0.71439656   -6.5319372    1004.5581  0.025192047  0.024498256           17 
 3324000   0.70030138   -6.5010683    1005.4902  0.025207837  0.024490868           15 
 3325000   0.73598561   -6.5306117    1002.5971  0.025127747  0.024483507           13 
 3326000   0.72400774   -6.5165348    1004.9163  0.025178301  0.024476119           14 
 3327000   0.72552483   -6.5295679    1004.1474  0.025151472  0.024468767            7 
 3328000   0.74520213   -6.5389604    1004.1077  0.025142921  0.024461406           10 
 3329000   0.71983584   -6.5282199    1004.7097  0.025150439  0.024454059           14 
 3330000   0.70111189   -6.5283656    1004.6977  0.025142584  0.024446656           25 
 3331000   0.73297467   -6.5305204    1004.0298  0.025118329  0.024439287           12 
 3332000   0.73266538   -6.5294802    1004.1154   0.02511293  0.024431944            7 
 3333000   0.70461967   -6.5232897     1004.706  0.025120162  0.024424629            8 
 3334000   0.70425645   -6.5200582     1002.434  0.025055839  0.024417304           11 
 3335000   0.71848564    -6.527788    1007.2282  0.025168121   0.02440999           15 
 3336000   0.71803483   -6.5441064     1002.155  0.025033849  0.024402654            7 
 3337000   0.71899797   -6.5613926    1007.0771  0.025149264  0.024395316           10 
 3338000   0.70501067   -6.5295989     1004.956  0.025088776  0.024387992           11 
 3339000   0.73149819   -6.4874942    1007.0294  0.025133009   0.02438069            6 
 3340000   0.71305156   -6.5198157    1003.9325  0.025048217  0.024373354            7 
 3341000   0.73339076    -6.520971    1004.6575  0.025058803  0.024366018           13 
 3342000   0.70610571   -6.5108646    1006.1972  0.025089697  0.024358665            7 
 3343000   0.71299184   -6.5380081     1004.313  0.025035224  0.024351297           19 
 3344000   0.70822881   -6.5143566    1003.6178  0.025010412  0.024343895            8 
 3345000   0.71922395   -6.5382181    1005.1046  0.025039976  0.024336535           10 
 3346000    0.7175256   -6.5253622     1004.082  0.025007024  0.024329192           13 
 3347000   0.71357836   -6.5179432    1004.8606  0.025018936  0.024321853           14 
 3348000   0.70717997   -6.5398568    1006.2045  0.025044916  0.024314521           25 
 3349000    0.7330274   -6.5461139     1001.822  0.024928387  0.024307148           10 
 3350000   0.71023839   -6.5647933    1004.7138  0.024992879    0.0242998            8 
 3351000   0.69542254   -6.5200675    1005.3202  0.025000502  0.024292439           10 
 3352000   0.71271578   -6.5534394    1004.3532  0.024969004   0.02428509            9 
 3353000   0.71762068   -6.5400225    1004.3059  0.024960382   0.02427776           30 
 3354000   0.72634129   -6.5429348    1004.5056    0.0249579   0.02427042           10 
 3355000    0.7066611   -6.5720368    1001.9205  0.024886251  0.024263048           10 
 3356000   0.72429438   -6.5700563    1002.7974  0.024900612  0.024255692           33 
 3357000   0.71856119   -6.5481789    1005.0257  0.024948508   0.02424834           21 
 3358000   0.72259904    -6.547985    1003.4731  0.024902548  0.024240994           26 
 3359000   0.70117839   -6.5376101    1006.7836  0.024977266  0.024233666           19 
 3360000   0.69994933   -6.5588839    1006.2164  0.024955763  0.024226281            9 
 3361000    0.7140519   -6.5356481    1004.2018  0.024898389  0.024218898            9 
 3362000   0.70707388   -6.5460117    1003.6944  0.024878405  0.024211507           17 
 3363000   0.72363295   -6.5191593    1005.0475  0.024904537  0.024204157           10 
 3364000   0.70764569   -6.5488754    1004.6855  0.024888167  0.024196853           14 
 3365000   0.70880644   -6.5481022    1005.3752  0.024897849  0.024189527            8 
 3366000   0.72853721   -6.5475999    1006.6177  0.024921214  0.024182181           11 
 3367000   0.72424146   -6.5144906    1005.5017  0.024886193  0.024174849            9 
 3368000   0.71265358   -6.5416507    1004.5166  0.024854429  0.024167541           33 
 3369000   0.71460188   -6.5364061    1007.2121  0.024913727  0.024160232           15 
 3370000   0.71359512   -6.5266845    1004.8165  0.024847094  0.024152934           20 
 3371000   0.71267448   -6.5559821    1006.1837  0.024873522  0.024145668           11 
 3372000   0.70714576   -6.5536172    1008.0446  0.024912135  0.024138361            7 
 3373000   0.70639215   -6.5575839    1006.0344  0.024855084  0.024131046           10 
 3374000    0.7183118   -6.5292131    1007.1973   0.02487644  0.024123762           10 
 3375000   0.71162837    -6.590462    1003.4109  0.024775577  0.024116414           13 
 3376000   0.70893842   -6.5311803    1005.1296  0.024810663   0.02410912           21 
 3377000   0.71884969   -6.5401668    1007.5183  0.024862262  0.024101875           14 
 3378000   0.71035972   -6.5544961    1005.4138  0.024802985  0.024094593            9 
 3379000   0.72195749   -6.5428804    1005.2622  0.024791906  0.024087327           12 
 3380000   0.71799823   -6.5349581    1006.2025  0.024807753   0.02408006            6 
 3381000   0.70732091    -6.548125    1004.7692  0.024765088   0.02407279           16 
 3382000   0.68967344   -6.5265958    1003.9592  0.024737809  0.024065508           15 
 3383000   0.71736146   -6.5416037    1006.1802  0.024785206  0.024058202           12 
 3384000   0.70837954   -6.5318573    1007.0497  0.024799293  0.024050927            8 
 3385000    0.6968159   -6.5574105     1002.975  0.024691653  0.024043651           13 
 3386000    0.7129719   -6.5403122    1005.0428  0.024735254  0.024036351           12 
 3387000   0.69463876   -6.5567341    1004.4602  0.024713615  0.024029033           12 
 3388000   0.70616868   -6.5388127    1006.1436  0.024747727  0.024021717           17 
 3389000   0.70961223   -6.5600714    1004.3223   0.02469564  0.024014439           36 
 3390000     0.710893   -6.5467715    1004.9528  0.024703854  0.024007143           17 
 3391000   0.71610158   -6.5458061    1005.8935  0.024719688  0.023999825           20 
 3392000   0.71174534   -6.5387944    1006.2129  0.024720245  0.023992504            7 
 3393000    0.7212092   -6.5468671     1005.749  0.024701567  0.023985184            8 
 3394000   0.70916253   -6.5832972    1003.5248  0.024639677  0.023977834           14 
 3395000    0.7114467   -6.5704164    1004.9361  0.024667062    0.0239705           12 
 3396000   0.72099852    -6.572442    1001.4449  0.024574129  0.023963168           18 
 3397000    0.7067316    -6.589156    1003.6981   0.02462217  0.023955818           15 
 3398000   0.71861163   -6.5782424    1005.5375  0.024660033  0.023948471            6 
 3399000   0.70032934    -6.564767    1004.2686  0.024621668   0.02394111           14 
 3400000   0.71416516   -6.5606279    1003.1695  0.024587488  0.023933754           19 
 3401000   0.71364194   -6.5427895    1005.0377  0.024626033   0.02392642           10 
 3402000    0.7270221    -6.584441     1006.248  0.024648443  0.023919091            7 
 3403000   0.70278056   -6.5618893    1005.8894  0.024632417  0.023911767           14 
 3404000   0.70337055   -6.5483504    1005.6123  0.024618398  0.023904468            9 
 3405000   0.70618997   -6.5628749    1003.4656  0.024558629  0.023897141           17 
 3406000   0.71233209    -6.548944    1005.4028  0.024598815  0.023889819            8 
 3407000   0.70277659   -6.5270858    1006.7107  0.024623585  0.023882498           15 
 3408000   0.70463416   -6.5589734    1006.5986  0.024613621  0.023875229           10 
 3409000   0.70750355   -6.5649637    1005.0243  0.024567917  0.023867975           11 
 3410000   0.70060711   -6.5651995    1004.3121  0.024543306  0.023860673           21 
 3411000   0.71779504   -6.5680864    1006.1083  0.024579994  0.023853391           12 
 3412000   0.70816331   -6.5542958    1008.8187  0.024638988  0.023846127            8 
 3413000   0.72541759   -6.5606142    1007.3347  0.024595534  0.023838872           13 
 3414000   0.70504419   -6.5753629    1004.0573   0.02450833  0.023831588           16 
 3415000   0.69845117   -6.5483448    1006.0243  0.024549154  0.023824321            7 
 3416000   0.72145955   -6.5416338    1005.9668  0.024540565  0.023817047           15 
 3417000   0.71031296   -6.5555966     1007.736  0.024576529  0.023809798           17 
 3418000   0.69468616    -6.557603    1006.3758  0.024536177  0.023802529            8 
 3419000   0.69416712   -6.5446587    1009.2252   0.02459845  0.023795261           26 
 3420000   0.69720659   -6.5715969     1004.243  0.024469859  0.023787999           16 
 3421000   0.70639545   -6.5624776    1006.4526  0.024516531   0.02378072           22 
 3422000   0.70746098   -6.5579124    1005.2421  0.024479887  0.023773453           26 
 3423000   0.69598426   -6.5679295    1003.7744  0.024437004  0.023766179           12 
 3424000   0.71348937   -6.5607777     1004.427  0.024445751    0.0237589            9 
 3425000   0.70161783   -6.5628547    1007.9101  0.024523359  0.023751606           11 
 3426000    0.7078609   -6.5985317    1005.2953  0.024452599  0.023744345           13 
 3427000   0.69678679   -6.5852243    1005.4467  0.024449146  0.023737069           13 
 3428000   0.70165411   -6.5792585     1005.539  0.024444258  0.023729798           12 
 3429000   0.68771014   -6.5585699    1003.7792  0.024394361  0.023722518           18 
 3430000   0.71751112   -6.5657887    1005.8059  0.024436488   0.02371527            7 
 3431000   0.68630176   -6.5799075    1006.2294  0.024439652  0.023708016            9 
 3432000   0.69938024   -6.5750283    1005.1726   0.02440687  0.023700738           18 
 3433000   0.70055112   -6.5660216    1006.3859  0.024429215  0.023693456           17 
 3434000   0.69232438   -6.5665018    1007.5776  0.024451019  0.023686247           21 
 3435000   0.70296174    -6.562555    1009.5346  0.024491379  0.023679021           15 
 3436000    0.6946724   -6.5679352    1007.9744   0.02444641  0.023671838           19 
 3437000   0.69549734   -6.5817866      1005.31  0.024374697   0.02366463           18 
 3438000   0.70571241   -6.5774775     1005.347  0.024368504  0.023657397           13 
 3439000   0.71079656   -6.5856269    1005.5123  0.024365423  0.023650162           17 
 3440000   0.69514738   -6.5874484    1006.3896  0.024379593  0.023642951           19 
 3441000   0.69966196   -6.5578871    1006.9859   0.02438695  0.023635746           34 
 3442000   0.70279682   -6.6102068    1005.4756  0.024343299  0.023628483           14 
 3443000   0.70585652   -6.5639782    1007.7327  0.024390858  0.023621245           19 
 3444000   0.68513396   -6.5792963    1008.7639  0.024408729  0.023613988           16 
 3445000   0.70888369   -6.5865753    1006.8094  0.024354363   0.02360671           33 
 3446000   0.69549728   -6.6030333    1006.5209  0.024340321  0.023599445           26 
 3447000   0.71382078   -6.5860076    1004.3935  0.024281827  0.023592175           16 
 3448000   0.70939886   -6.5877962    1008.7796  0.024380792  0.023584944            8 
 3449000   0.69543133   -6.5761851    1004.2568  0.024264443  0.023577703           10 
 3450000   0.69663333    -6.584281    1007.3493  0.024332108  0.023570466           18 
 3451000   0.70973457   -6.5813313    1006.2367  0.024298192  0.023563269           27 
 3452000   0.70056442   -6.5955765    1005.9926  0.024285259  0.023556048           10 
 3453000   0.69345441   -6.5810782    1006.6907  0.024295075  0.023548829           28 
 3454000   0.71207854   -6.5587249    1007.5989  0.024309952  0.023541613           12 
 3455000   0.68919289   -6.5617385    1007.7047  0.024305468  0.023534374           10 
 3456000    0.7024901    -6.589421    1005.5626  0.024246784  0.023527174            8 
 3457000   0.70181438    -6.609075    1005.5418  0.024239268  0.023519944            7 
 3458000   0.70229428   -6.6013119    1007.5195  0.024279918  0.023512702           13 
 3459000   0.70686399   -6.6159701    1005.2786  0.024218913  0.023505446           10 
 3460000   0.71346547   -6.5978409    1004.6625  0.024197072  0.023498184           11 
 3461000   0.68647878   -6.5999723    1006.0373  0.024223185  0.023490948           18 
 3462000   0.70317907   -6.5851942    1006.8331  0.024235343  0.023483668           14 
 3463000   0.69932762   -6.6171929    1004.7554  0.024178347  0.023476389           10 
 3464000   0.69640268   -6.5954209     1007.654  0.024241099  0.023469121           20 
 3465000   0.69969014   -6.6325715    1003.7196  0.024139481  0.023461889           22 
 3466000   0.68368555   -6.5845989    1008.1625  0.024239338  0.023454643           16 
 3467000   0.70120957   -6.6046778    1005.4194  0.024166412  0.023447405            8 
 3468000   0.68851244   -6.5911914    1004.9015  0.024146998  0.023440174           12 
 3469000    0.6960911   -6.5843487    1006.1863  0.024170901  0.023432932           22 
 3470000   0.69020075   -6.5790142    1007.2897  0.024190435    0.0234257           24 
 3471000   0.70383132   -6.5846213     1008.936  0.024222991  0.023418472           24 
 3472000   0.69872814   -6.5719931    1007.4837  0.024181156  0.023411263            9 
 3473000   0.70592153   -6.5763923    1007.6055  0.024177117  0.023404051           11 
 3474000   0.68749942   -6.5571903    1007.6494  0.024171209  0.023396834           16 
 3475000    0.6861809   -6.5733006    1007.2932  0.024155712  0.023389629           12 
 3476000   0.67976131   -6.5795284    1006.3345  0.024125779  0.023382404           16 
 3477000   0.69363362   -6.6038464     1006.479  0.024122303  0.023375142           52 
 3478000   0.70073955   -6.5911668    1004.2803  0.024062687  0.023367882           17 
 3479000   0.69600253    -6.597159     1005.605  0.024087502  0.023360621           35 
 3480000   0.69119027   -6.6083489     1007.284  0.024120785  0.023353347           15 
 3481000    0.6855248   -6.5999146    1004.0045  0.024035347  0.023346096           25 
 3482000   0.67490412   -6.5775258    1006.4235  0.024086336  0.023338847            8 
 3483000   0.71735446   -6.5845945    1006.9862  0.024092884  0.023331619            8 
 3484000   0.70462032   -6.5975251    1005.9333  0.024060786  0.023324368           11 
 3485000   0.69223725   -6.6030064     1005.677  0.024047752  0.023317088           30 
 3486000   0.68525617   -6.5899215    1009.5623  0.024133734  0.023309857           13 
 3487000   0.69335903   -6.5902885    1005.8649  0.024038449  0.023302601           12 
 3488000    0.6964769   -6.6077911    1003.7236  0.023980399  0.023295336           24 
 3489000   0.68737764   -6.6076603    1003.2142  0.023961359   0.02328807           11 
 3490000   0.69332304   -6.6293258    1003.1244  0.023952348  0.023280827            9 
 3491000   0.69407531   -6.5902162    1005.4994  0.024002183  0.023273601           13 
 3492000   0.66528576   -6.5993493    1005.3442  0.023991604  0.023266351           13 
 3493000   0.68976871   -6.6050559    1004.9615  0.023975605  0.023259137           34 
 3494000   0.67854354   -6.5956777    1007.7726   0.02403579  0.023251941           37 
 3495000   0.69201558    -6.587458    1006.6558  0.024002283  0.023244726           25 
 3496000   0.69616774   -6.5902953    1008.0244   0.02402804  0.023237495            9 
 3497000   0.68818696   -6.5979168    1005.9845  0.023972559  0.023230259           12 
 3498000    0.7002156   -6.6119526    1005.8989  0.023963666  0.023223032           17 
 3499000   0.68655614   -6.6080154    1005.3168  0.023942955   0.02321579           29 
 3500000   0.69195825   -6.6059419    1006.1159   0.02395514  0.023208574           16 
 3501000   0.67460007   -6.6055474    1004.3175  0.023905491  0.023201389            8 
 3502000    0.6867131   -6.5943783    1007.5899  0.023976536  0.023194206            8 
 3503000   0.68718132   -6.6042372    1005.5701  0.023921642  0.023187026           11 
 3504000   0.69250465   -6.5707267    1009.2995  0.024003509  0.023179852            6 
 3505000   0.69728749   -6.5854485    1006.6485  0.023933631  0.023172687           18 
 3506000   0.69801151   -6.6105831    1008.7728  0.023977295  0.023165525           14 
 3507000   0.69820221   -6.5963621     1005.012  0.023881096  0.023158353           47 
 3508000   0.69326309   -6.5998275    1009.9176   0.02399082  0.023151176           31 
 3509000   0.69033065   -6.6315763    1007.9254  0.023936673  0.023144033           40 
 3510000   0.69395593   -6.6008131    1007.4023  0.023917434  0.023136878           21 
 3511000   0.68593776   -6.6167944     1004.968  0.023852843  0.023129701           26 
 3512000     0.687717   -6.5680732    1009.6014  0.023955994  0.023122562           18 
 3513000   0.69882046   -6.5950469    1008.2993  0.023918286  0.023115424           17 
 3514000   0.70149041   -6.5967122    1007.5384  0.023893436  0.023108284           14 
 3515000   0.69346035   -6.6155054    1006.5336  0.023862818  0.023101131           18 
 3516000   0.69154131   -6.6080857    1007.6827  0.023883264  0.023093985           17 
 3517000    0.6849906   -6.5983158    1007.5477  0.023873274   0.02308683           17 
 3518000   0.68628518    -6.575939    1008.8706  0.023897826  0.023079693           22 
 3519000   0.68173374   -6.5901411    1006.5619  0.023836361  0.023072556           23 
 3520000   0.69103599    -6.615869    1005.9627  0.023815405  0.023065432           15 
 3521000   0.69411407   -6.6021236    1007.9894  0.023856607  0.023058297           14 
 3522000   0.68742388   -6.6065617    1009.5122  0.023885865  0.023051147            9 
 3523000   0.68641817   -6.6007437    1009.3923   0.02387625  0.023043983            9 
 3524000   0.67381334   -6.6183884    1004.3489  0.023750211  0.023036824           20 
 3525000   0.69719039   -6.6186319     1006.938  0.023804681  0.023029649           13 
 3526000   0.68149903   -6.6086435    1009.2997  0.023853747  0.023022474            8 
 3527000   0.70170141   -6.6316924    1006.1725  0.023773096  0.023015293           22 
 3528000   0.67694215   -6.6224785    1008.1618  0.023813346  0.023008107           28 
 3529000   0.68835708   -6.6055272    1006.9521  0.023778031  0.023000919           15 
 3530000   0.69844981   -6.5950021     1008.138  0.023799293  0.022993773           15 
 3531000   0.68521815   -6.6448633    1004.2747  0.023701375   0.02298663           23 
 3532000   0.68264797   -6.6239772    1007.7294  0.023776176  0.022979457           19 
 3533000   0.68203662   -6.6386349    1007.4136  0.023761996  0.022972288           42 
 3534000    0.6820364   -6.6395175    1006.7935  0.023740651  0.022965127           32 
 3535000    0.6884179   -6.6668071    1007.4268  0.023748865   0.02295794           51 
 3536000   0.68370514   -6.6323093    1007.3705   0.02374082  0.022950767           58 
 3537000   0.69269105    -6.618146    1006.6924  0.023718133  0.022943587           33 
 3538000   0.68060857   -6.6181047    1008.2331  0.023747718  0.022936442           29 
 3539000   0.69421474   -6.6181554    1007.5897  0.023725858  0.022929317           32 
 3540000   0.68105364   -6.6275522    1006.5642  0.023695013  0.022922162           45 
 3541000   0.70400123    -6.614114    1008.3283  0.023729839  0.022915014           30 
 3542000   0.69106984   -6.6421668    1007.9884  0.023715141  0.022907891           43 
 3543000   0.70651265   -6.6338913    1008.7485  0.023726327  0.022900759           24 
 3544000   0.68693661   -6.6363307     1007.666  0.023694178  0.022893639           57 
 3545000   0.69184159   -6.6217336    1006.1186   0.02365112  0.022886513           17 
 3546000   0.68091469   -6.6336253    1006.7805  0.023660004  0.022879378           50 
 3547000   0.69041162   -6.6377299    1005.1221   0.02361437  0.022872243           16 
 3548000   0.68686405   -6.6131899     1006.946  0.023650555  0.022865128           13 
 3549000   0.68687379   -6.6327572    1005.6249  0.023612869  0.022858013           16 
 3550000    0.6822357   -6.6393314    1005.0051  0.023591669  0.022850896           17 
 3551000   0.67551403   -6.6593544    1004.2451  0.023567191  0.022843756           20 
 3552000   0.67745383   -6.6375882    1007.6733  0.023640983  0.022836619           17 
 3553000   0.69370571   -6.6417651    1008.0195  0.023642451  0.022829471           16 
 3554000   0.67239822   -6.6467624    1008.1199  0.023638153  0.022822357           17 
 3555000   0.67835218   -6.6214878    1009.2355  0.023657654   0.02281527           11 
 3556000   0.68413823   -6.6369668    1006.5587  0.023588272  0.022808195           14 
 3557000   0.67002578   -6.6150322     1008.291  0.023622224  0.022801123           13 
 3558000   0.69291579   -6.6166535    1010.6386  0.023670569  0.022794055           12 
 3559000   0.68998898   -6.6408861     1009.178  0.023629718  0.022787013            7 
 3560000   0.68228411   -6.6170064    1009.4013  0.023628308  0.022779964           14 
 3561000   0.67978205   -6.6289319    1007.2091  0.023570371  0.022772923           20 
 3562000   0.67720176    -6.614421    1009.7701  0.023623668  0.022765896           15 
 3563000   0.68238908   -6.6269962    1010.0846  0.023624395  0.022758853           13 
 3564000   0.67205488   -6.6142605    1010.7815   0.02363406    0.0227518           15 
 3565000    0.6915527   -6.6281173    1010.3896  0.023618271  0.022744759           11 
 3566000    0.6824432   -6.6610233    1007.3395   0.02354037  0.022737704           12 
 3567000   0.67149864   -6.6366293     1008.008  0.023549387  0.022730636           15 
 3568000   0.66633578   -6.6363493    1009.1094  0.023568513  0.022723587           33 
 3569000   0.67475686   -6.6346585     1011.072  0.023607733  0.022716534           10 
 3570000   0.69119249   -6.6323502    1008.3314  0.023537148  0.022709511           15 
 3571000   0.69772211   -6.6284568    1007.7607  0.023517237  0.022702486           14 
 3572000   0.67832252   -6.6170707    1007.9208   0.02351439  0.022695487           44 
 3573000   0.68454228   -6.6279815    1006.5661  0.023476214  0.022688477           21 
 3574000    0.6612862   -6.6202359    1007.8456  0.023499478  0.022681494           24 
 3575000   0.68208797   -6.6002129    1010.9719  0.023565778  0.022674514           12 
 3576000   0.67132973   -6.5546834    1011.5862  0.023573505   0.02266756           21 
 3577000   0.67304676     -6.62286    1008.1668  0.023487251  0.022660612           48 
 3578000    0.6883659   -6.6096896    1006.9931  0.023453351  0.022653637           12 
 3579000   0.67240522   -6.6189172    1010.5176  0.023528863  0.022646676           20 
 3580000   0.66961684   -6.6111157     1013.085  0.023582054  0.022639723           12 
 3581000   0.68057696    -6.624712    1011.1838  0.023531226  0.022632781           13 
 3582000    0.6693171   -6.6088113    1011.1384    0.0235236   0.02262585           16 
 3583000   0.68065591   -6.6286984    1008.3519  0.023452225   0.02261889           13 
 3584000   0.68037338     -6.58441    1011.5074  0.023519052  0.022611958           21 
 3585000   0.67128451   -6.6273482    1011.1465  0.023504102  0.022605014           31 
 3586000   0.68013993   -6.6037255    1012.8714  0.023537632  0.022598119           19 
 3587000   0.67393296   -6.6117027    1011.9783  0.023510321  0.022591205           25 
 3588000   0.68177099   -6.6344329     1010.861   0.02347782  0.022584244           16 
 3589000   0.68101298   -6.6211657    1010.6289  0.023465888  0.022577287            9 
 3590000   0.66327041   -6.6315271    1011.2107  0.023472859   0.02257033           10 
 3591000   0.69333057   -6.6345106     1011.788  0.023479717  0.022563384            9 
 3592000   0.66180977   -6.6444641    1010.0032  0.023431774   0.02255642           18 
 3593000   0.68781704   -6.6606129    1010.9707  0.023447692  0.022549477           13 
 3594000   0.68316142   -6.6324909     1008.578   0.02338569  0.022542503           15 
 3595000   0.66363717   -6.6567904    1009.6992  0.023405174  0.022535517           35 
 3596000   0.67421781   -6.6629052    1008.9945  0.023382335  0.022528517           17 
 3597000   0.66488788   -6.6541947    1008.8054  0.023371453  0.022521526            9 
 3598000   0.69016717   -6.6436161    1009.8026  0.023388053  0.022514545           33 
 3599000   0.67211036   -6.6447845    1011.1937  0.023413764  0.022507596           26 
 3600000   0.67749153   -6.6256055    1011.0152   0.02340313  0.022500635           27 
 3601000   0.66175473   -6.6470233    1009.7809  0.023368067   0.02249368           15 
 3602000   0.68203263   -6.6132432    1008.3018  0.023327361  0.022486736           19 
 3603000   0.68983838   -6.6527354    1009.7784  0.023355036  0.022479766           20 
 3604000   0.68625092   -6.6522496    1009.2764   0.02333695  0.022472788           23 
 3605000   0.67417385   -6.6219693    1011.1554  0.023373912  0.022465834           21 
 3606000   0.68265102   -6.6371942    1011.1939  0.023368318  0.022458887           18 
 3607000   0.67177392   -6.6145854    1012.0911  0.023382568  0.022451963           18 
 3608000   0.67754544   -6.6143916    1010.1238  0.023330651  0.022445044           15 
 3609000   0.68747967   -6.6307737    1010.4798  0.023332405   0.02243815           15 
 3610000   0.66974777   -6.6397247    1009.4848  0.023302974  0.022431215           18 
 3611000   0.68390309   -6.6383325     1008.917  0.023283416  0.022424282           14 
 3612000   0.66791348   -6.6437416    1008.1245  0.023258685  0.022417358           19 
 3613000   0.67754119     -6.65654    1010.3317  0.023303157  0.022410434           45 
 3614000   0.68089929   -6.6527545    1010.3547  0.023297239  0.022403504           12 
 3615000   0.67192394   -6.6244306    1009.5207  0.023271569  0.022396556           12 
 3616000   0.67858952   -6.6309519    1009.8639  0.023273043  0.022389623           18 
 3617000   0.67430583   -6.6611672    1006.3359  0.023185325  0.022382668           25 
 3618000   0.69740483   -6.6294401     1009.882  0.023260595  0.022375732           26 
 3619000    0.6698846   -6.6294505     1009.187  0.023238164  0.022368796           22 
 3620000   0.65838182   -6.6758861    1010.1943  0.023254932  0.022361839           17 
 3621000   0.66357186   -6.6671968    1008.0038    0.0231981  0.022354862           23 
 3622000   0.65538987   -6.6845072    1006.6854  0.023161361  0.022347837           12 
 3623000   0.66811133   -6.6738215    1007.6302  0.023176701  0.022340823            9 
 3624000   0.66651386   -6.6774861    1006.1364  0.023135955  0.022333853           15 
 3625000    0.6795615   -6.6730365    1008.3612  0.023180717  0.022326884           17 
 3626000   0.67687979   -6.6753354    1009.0442   0.02319002  0.022319929           17 
 3627000   0.68089643     -6.65559    1008.6609  0.023174822  0.022312958           19 
 3628000   0.67435201    -6.663259    1007.9358  0.023151779  0.022305982           19 
 3629000   0.67602439   -6.6849098    1006.7265  0.023117628  0.022298999           50 
 3630000   0.67653353   -6.6883607    1009.6996  0.023179512  0.022291989           30 
 3631000   0.67381099   -6.7138114    1007.5469  0.023123724  0.022284987           34 
 3632000   0.67275326    -6.702341    1008.5853  0.023141181  0.022277971           38 
 3633000    0.6916276   -6.6612807    1010.0335  0.023168031  0.022271001           28 
 3634000   0.66956096   -6.6633217    1009.9307  0.023159298  0.022264062           14 
 3635000     0.662972    -6.651902    1010.6098  0.023168497   0.02225712           18 
 3636000   0.66828561   -6.6528561    1007.0367  0.023080232  0.022250187           55 
 3637000     0.669133   -6.6508324    1009.6667  0.023134147  0.022243265           48 
 3638000   0.67022674   -6.6533064    1009.8609  0.023132236  0.022236358           41 
 3639000   0.66854099   -6.6653844    1009.0339  0.023106942  0.022229448           28 
 3640000   0.67759812   -6.6507457    1011.1002  0.023147898  0.022222549           26 
 3641000   0.67931766   -6.6547435    1010.6551  0.023131353  0.022215632           15 
 3642000   0.66908153   -6.6645909    1008.6623  0.023079405  0.022208722           36 
 3643000   0.66528447   -6.6558709    1008.2182  0.023062912   0.02220179           19 
 3644000   0.66263367   -6.6428387    1011.0877  0.023122203  0.022194862           24 
 3645000   0.67052567   -6.6959961    1008.5064  0.023056844  0.022187924           34 
 3646000     0.671209   -6.6731287    1010.4174  0.023094198  0.022180986            9 
 3647000   0.66513945   -6.6773233    1009.7757  0.023073204  0.022174094           40 
 3648000   0.67287403   -6.6680811     1009.521  0.023061061  0.022167188           36 
 3649000   0.67491001   -6.6601878    1012.3502  0.023119351  0.022160285           22 
 3650000    0.6762851    -6.651937    1007.0359  0.022991686  0.022153393           27 
 3651000    0.6573286   -6.6477017    1011.9875  0.023098409  0.022146491           31 
 3652000   0.66421381   -6.6630537    1009.8635  0.023043617  0.022139576           20 
 3653000    0.6682212    -6.684238    1010.3522  0.023048457   0.02213265           42 
 3654000   0.67280742   -6.6563814    1012.0602  0.023081103   0.02212574           22 
 3655000   0.67965595   -6.6817213    1009.7109  0.023021223  0.022118827           35 
 3656000   0.68911544   -6.6544022    1009.3148    0.0230059  0.022111941           19 
 3657000    0.6703558    -6.652478    1010.2699  0.023021372  0.022105032           15 
 3658000   0.66517567    -6.666745    1008.7281  0.022979955  0.022098134           13 
 3659000   0.66363827    -6.666531     1011.132  0.023028422  0.022091243            8 
 3660000   0.66318994   -6.6322196    1008.7057  0.022966887  0.022084378           10 
 3661000    0.6742226   -6.6706968     1009.825  0.022986092  0.022077512           24 
 3662000   0.65572065   -6.6759814    1012.0886  0.023031327  0.022070674           33 
 3663000   0.67597176   -6.6779068    1009.7783  0.022972479  0.022063789           44 
 3664000   0.65865413    -6.654023    1008.8386  0.022944837  0.022056914           18 
 3665000    0.6716976   -6.6571847    1009.7316  0.022958882  0.022050069           41 
 3666000   0.65774711     -6.67247    1010.0421  0.022959676  0.022043202           53 
 3667000   0.67678426   -6.6657182    1010.5087   0.02296402   0.02203633           33 
 3668000   0.67761174   -6.6680221    1010.9762  0.022968379   0.02202946           35 
 3669000   0.67664085   -6.6966208    1010.9596  0.022961742  0.022022583           25 
 3670000   0.67768198   -6.6799269     1010.461  0.022944164  0.022015715           32 
 3671000   0.67118049   -6.6567307    1009.1694  0.022908594  0.022008864           14 
 3672000   0.66092305   -6.6754904    1010.5511  0.022933713  0.022002028           28 
 3673000   0.66161545   -6.6506787    1011.3786  0.022946243  0.021995198           11 
 3674000   0.67807677    -6.675727    1009.5581  0.022898705  0.021988376           25 
 3675000   0.65947967   -6.6530416    1011.3275  0.022932597  0.021981574           12 
 3676000   0.66350699   -6.6764869     1008.056  0.022852195  0.021974714           15 
 3677000   0.66634436   -6.6685006    1012.4275  0.022945054  0.021967851           14 
 3678000   0.66759415   -6.6766412     1009.457  0.022871511   0.02196102           51 
 3679000   0.66135076   -6.6802427    1012.2143   0.02292775  0.021954184           45 
 3680000   0.66278378   -6.6679367    1010.3813  0.022880012  0.021947363           23 
 3681000   0.65316942   -6.6829189    1010.3428  0.022872923  0.021940543           14 
 3682000   0.66343796   -6.6840276    1009.3203  0.022843571  0.021933688           26 
 3683000    0.6653635   -6.6840161    1008.8164  0.022825966  0.021926825           25 
 3684000   0.64137224   -6.6862994     1010.485  0.022857514   0.02191995           23 
 3685000   0.65690101   -6.6837424     1007.848  0.022791679   0.02191307           20 
 3686000    0.6560716   -6.6911799    1008.9766  0.022811011  0.021906198           25 
 3687000   0.64964151   -6.6791457    1009.1469  0.022808672  0.021899333           42 
 3688000   0.65455598   -6.6917157     1009.093   0.02280127  0.021892473           51 
 3689000   0.66665834   -6.6741812    1011.0377   0.02283902  0.021885587           29 
 3690000   0.66263967    -6.656793    1010.0862  0.022811341  0.021878723           45 
 3691000   0.66536279   -6.6661617     1010.166  0.022806962  0.021871875           31 
 3692000   0.67043275   -6.7022618    1008.7501  0.022768826   0.02186503           36 
 3693000   0.65227643   -6.6793608    1009.5554  0.022780834  0.021858204           25 
 3694000   0.66444043   -6.6729396    1008.4704   0.02275019  0.021851366           38 
 3695000   0.65995102   -6.6798651    1010.4536   0.02278876  0.021844492           46 
 3696000   0.67348546   -6.6832079    1011.9727  0.022816845  0.021837658           14 
 3697000   0.65409411   -6.6744575    1010.2469  0.022771771  0.021830836           35 
 3698000   0.65246975   -6.6829843    1013.8848  0.022847592  0.021824001           19 
 3699000   0.66800765   -6.6983571    1008.8482  0.022727948  0.021817174           61 
 3700000   0.66379493   -6.6942311    1010.4697  0.022758327   0.02181032           30 
 3701000    0.6525038   -6.7138835    1008.8288  0.022715231  0.021803455           26 
 3702000   0.64625655   -6.6780377    1007.6904  0.022683467  0.021796582           22 
 3703000   0.64973175   -6.7224558    1007.7478  0.022678634  0.021789708           31 
 3704000   0.66332593   -6.6781095    1008.4489  0.022688284  0.021782814           24 
 3705000   0.66923108   -6.6958309    1010.1822  0.022721148  0.021775932           30 
 3706000   0.65187261   -6.6827382     1008.059  0.022667274  0.021769067           45 
 3707000   0.66023761   -6.7238755    1008.3677  0.022668099  0.021762186           17 
 3708000   0.67496058   -6.7099409    1008.3182  0.022660873  0.021755315           28 
 3709000    0.6754779   -6.6876968    1008.7043  0.022663437  0.021748439           11 
 3710000   0.65134504    -6.717585    1007.5886  0.022632269  0.021741581           35 
 3711000   0.66584242   -6.6976766    1004.9906  0.022567829  0.021734693           13 
 3712000   0.65081867   -6.7100465    1007.9379  0.022627915  0.021727826           37 
 3713000    0.6549012   -6.7107482    1006.9421  0.022599473  0.021720941           28 
 3714000   0.67553103    -6.703903    1010.6362  0.022676275  0.021714058           35 
 3715000   0.64191158   -6.6864562    1009.9738  0.022655311  0.021707232           17 
 3716000   0.64611006   -6.6623912    1011.5024  0.022683494  0.021700416           13 
 3717000   0.66356504   -6.6998788    1007.4122  0.022585692  0.021693581           22 
 3718000   0.66135314   -6.6879189     1008.575  0.022605679   0.02168673           31 
 3719000   0.67072681   -6.6832586    1009.7265  0.022625404  0.021679885           29 
 3720000   0.67084374   -6.7160944    1007.4908  0.022569238  0.021673052           89 
 3721000   0.64690891   -6.7048675    1010.0836  0.022621239  0.021666218           76 
 3722000   0.65076202   -6.7159833    1006.4688   0.02253423   0.02165937           83 
 3723000   0.65448687   -6.7257484    1008.5762  0.022575346  0.021652526           21 
 3724000   0.64237061   -6.7038916    1008.4636  0.022566764   0.02164568           38 
 3725000   0.63869449   -6.6911908    1006.8652  0.022524949  0.021638841           27 
 3726000    0.6638874   -6.7296978    1006.2363  0.022504839  0.021632005           24 
 3727000   0.65035249   -6.6774998    1010.1334  0.022585936  0.021625161           20 
 3728000   0.65828364   -6.7187656    1009.1242  0.022557319  0.021618323           19 
 3729000    0.6530839   -6.7063328    1008.5844  0.022539207  0.021611461           25 
 3730000   0.64548363   -6.7177822     1008.011  0.022520353  0.021604614           27 
 3731000   0.67299299   -6.7136051    1009.7778  0.022553778  0.021597776           59 
 3732000   0.63971395   -6.7235396    1008.7376  0.022524509  0.021590932           14 
 3733000   0.66381563   -6.7223922     1007.892  0.022499598  0.021584068           32 
 3734000   0.66153722   -6.7186491    1004.8438  0.022425546  0.021577203           68 
 3735000    0.6551176   -6.6962448    1008.2238  0.022494952  0.021570365           34 
 3736000   0.66111361   -6.7071206    1008.8384  0.022502641  0.021563537           18 
 3737000   0.66531117   -6.7273828    1007.6764  0.022470707  0.021556704           43 
 3738000   0.65834046   -6.7065797    1006.9153  0.022447729  0.021549884           51 
 3739000   0.64773986   -6.7157629    1009.1896  0.022492414  0.021543082           62 
 3740000   0.64947024   -6.7203494    1010.4333  0.022514111  0.021536281           61 
 3741000   0.65241307   -6.7307522    1010.0091  0.022498643  0.021529485           36 
 3742000   0.65687646   -6.7443474    1005.9635  0.022402537  0.021522663           93 
 3743000   0.65068784   -6.7444807    1006.4039  0.022406356  0.021515825           52 
 3744000   0.67214169   -6.7276945    1007.7608  0.022430574  0.021509005           76 
 3745000   0.67158502   -6.7128769    1007.4732  0.022418184    0.0215022           79 
 3746000   0.66948412   -6.7242202    1008.1489   0.02242723  0.021495376           57 
 3747000   0.65306263   -6.7247233    1007.7484  0.022412338  0.021488584           29 
 3748000   0.63744225   -6.6979573    1009.3533  0.022442042   0.02148179           32 
 3749000    0.6604575   -6.7237555    1008.5597  0.022418416  0.021475013           23 
 3750000   0.65578659   -6.7083529    1008.1566   0.02240348  0.021468208           16 
 3751000   0.62929737   -6.7161394    1007.9375  0.022392639  0.021461409           24 
 3752000   0.65331722   -6.7177959    1008.3555  0.022395955  0.021454621           25 
 3753000    0.6491044   -6.7245616    1007.0691  0.022361425  0.021447841           30 
 3754000   0.66445274   -6.7422203    1007.6551  0.022368475  0.021441058           37 
 3755000   0.66994576   -6.7111235    1008.2901   0.02237661  0.021434272           45 
 3756000   0.65785366   -6.7178686    1008.8583  0.022383261  0.021427478           38 
 3757000   0.65874037   -6.7270476    1005.0206   0.02229218  0.021420685           25 
 3758000   0.64126845   -6.6986248    1010.1868  0.022400806  0.021413909           29 
 3759000   0.63002473   -6.7135291    1009.2039  0.022373058  0.021407145           45 
 3760000   0.64802892   -6.7232251    1008.1184  0.022343049  0.021400369           30 
 3761000   0.65403996   -6.7043251    1008.5015  0.022345597  0.021393595           78 
 3762000   0.64656403    -6.709821    1009.2338  0.022355879  0.021386835           33 
 3763000   0.66022912   -6.6927967    1008.6924  0.022337949  0.021380076           17 
 3764000   0.65539711   -6.6833531    1010.4532  0.022370996  0.021373349           53 
 3765000   0.64456012   -6.7370777    1007.5986  0.022301873  0.021366597           93 
 3766000    0.6429738   -6.7149748    1010.9658   0.02237046   0.02135983           79 
 3767000   0.63923763   -6.7342651    1008.5845  0.022311841  0.021353065          102 
 3768000   0.65993623   -6.7477685    1008.0578  0.022294272   0.02134631          135 
 3769000   0.65743467   -6.7062873    1010.1411  0.022334418  0.021339536           99 
 3770000   0.63706505   -6.7435199    1007.6833  0.022274167  0.021332761           94 
 3771000    0.6623843   -6.7059961      1009.35  0.022305091  0.021326003           53 
 3772000   0.65151654   -6.7275695    1008.0877   0.02227129  0.021319264           38 
 3773000   0.64438434   -6.7414797    1008.4841  0.022274143  0.021312508           67 
 3774000   0.64818385   -6.7435633    1009.5839  0.022292527  0.021305723           68 
 3775000   0.64338193   -6.7117225    1009.1341  0.022276691  0.021298961           40 
 3776000   0.64886891   -6.7440012     1008.197   0.02225011  0.021292176           42 
 3777000   0.65108355   -6.7423539    1008.7856  0.022257206  0.021285408           29 
 3778000   0.64658256   -6.7360521     1009.177  0.022259947  0.021278648           45 
 3779000   0.65046892   -6.7405481    1007.7357  0.022222274  0.021271897           49 
 3780000   0.63814656   -6.7279895    1007.7312  0.022216296  0.021265142           23 
 3781000   0.65299005   -6.7209134    1007.8039  0.022212024  0.021258408           36 
 3782000   0.64671147   -6.7233023    1008.3518  0.022218222  0.021251666           55 
 3783000   0.65872033   -6.7031818    1007.6335  0.022196527  0.021244926           21 
 3784000   0.66438621   -6.7106201    1009.8383  0.022239216  0.021238209           39 
 3785000   0.64494622   -6.7232705    1009.1936  0.022219147  0.021231482           30 
 3786000   0.65389149   -6.6992571    1009.2768  0.022215107  0.021224767           69 
 3787000     0.637714   -6.7331151    1010.2563  0.022230796  0.021218076           40 
 3788000    0.6391943   -6.7217605     1007.079  0.022155028  0.021211372           88 
 3789000   0.63934814   -6.7231469    1006.6684  0.022140152  0.021204637           28 
 3790000   0.63988755   -6.7251032    1009.1786  0.022189504  0.021197939           42 
 3791000   0.65325309   -6.6988344    1010.3463  0.022209317  0.021191257           38 
 3792000   0.64456631   -6.7103447    1007.7888  0.022147258  0.021184536           42 
 3793000   0.63026195   -6.7252392    1009.6535  0.022182387  0.021177834           17 
 3794000   0.65177548   -6.7094927    1010.3543  0.022191933   0.02117112           14 
 3795000   0.63825644   -6.7202554    1010.7596  0.022194985  0.021164432           18 
 3796000   0.64074653   -6.6991495    1009.2684  0.022156403  0.021157727           28 
 3797000   0.65256323   -6.7292485    1007.8356  0.022119119  0.021150996           19 
 3798000   0.63351606   -6.7029233    1009.9664  0.022160049  0.021144265           20 
 3799000   0.63884394   -6.7329581    1006.5142   0.02207849  0.021137527           31 
 3800000   0.63738631   -6.7036802    1009.4467  0.022136988  0.021130825           15 
 3801000   0.65207848   -6.7261174    1007.5179  0.022088877   0.02112413           35 
 3802000   0.65700583   -6.7444651      1009.41  0.022124541   0.02111743           26 
 3803000   0.63701334   -6.7262872    1008.1229  0.022090519  0.021110724           21 
 3804000   0.64922767   -6.7287996    1010.5308  0.022137461  0.021104027           47 
 3805000   0.64847769   -6.7419106    1007.4496  0.022064162  0.021097339           27 
 3806000     0.631307   -6.7266666    1006.4059  0.022035513  0.021090627           18 
 3807000   0.64293749   -6.7137383     1009.161  0.022090031  0.021083923           37 
 3808000   0.64580916   -6.7375176    1008.9849  0.022080377  0.021077203           16 
 3809000   0.64220698   -6.7310588    1009.1038  0.022077182  0.021070505           29 
 3810000   0.64152626   -6.7563914    1007.5081  0.022036485    0.0210638           31 
 3811000   0.65154224   -6.7572658    1007.4733  0.022029941  0.021057098           98 
 3812000   0.62786257   -6.7598267    1006.8616  0.022010792    0.0210504           42 
 3813000   0.64151342   -6.7308194    1007.8799  0.022027274  0.021043716           42 
 3814000   0.64913013   -6.7409999    1009.5604  0.022058216   0.02103703           24 
 3815000   0.63984548   -6.7276567    1008.5638  0.022030665  0.021030338           19 
 3816000   0.63031268   -6.7326191    1009.2635   0.02204017  0.021023638           14 
 3817000   0.62983694    -6.731855    1010.3204  0.022057471  0.021016942           18 
 3818000   0.63811469   -6.7340255    1009.0204   0.02202332  0.021010253           16 
 3819000   0.63783213   -6.7087552    1010.8955  0.022058468  0.021003565            7 
 3820000   0.65218144   -6.7405684     1006.544  0.021957765  0.020996884           23 
 3821000   0.64700376    -6.732376    1006.6395  0.021954103  0.020990172           44 
 3822000    0.6301765   -6.7428477    1007.6112  0.021969544  0.020983491           17 
 3823000   0.64440188   -6.7570492    1007.5774  0.021963061  0.020976806           21 
 3824000   0.64496826   -6.7564257    1008.8091   0.02198416  0.020970106           19 
 3825000    0.6309187   -6.7371428    1007.6599  0.021953375  0.020963384           32 
 3826000    0.6386744   -6.7037346    1008.0411  0.021955939  0.020956683           18 
 3827000   0.62578621   -6.7276079    1007.9475  0.021948164  0.020949996           35 
 3828000   0.64367154   -6.7366079    1007.5041  0.021932779  0.020943295           33 
 3829000   0.63640408    -6.733666    1006.1493  0.021897565  0.020936592           36 
 3830000   0.63864492   -6.7415938    1008.1444  0.021935257  0.020929919           46 
 3831000    0.6394864   -6.7611561    1007.0037  0.021904717  0.020923208           43 
 3832000   0.63340927   -6.7816255    1003.7122  0.021827423  0.020916518           28 
 3833000    0.6302851   -6.7407672    1009.0303   0.02193735  0.020909824           43 
 3834000   0.63377481   -6.7823244    1004.3245  0.021829345  0.020903117           77 
 3835000   0.62883481   -6.7531145    1007.6872  0.021896723  0.020896389           58 
 3836000   0.64002043   -6.7410326     1007.517  0.021887318  0.020889672           79 
 3837000    0.6258562   -6.7334567    1005.7547   0.02184334  0.020882972           56 
 3838000   0.64758713   -6.7598994    1004.8376  0.021817735  0.020876278           27 
 3839000   0.63436069   -6.7480992    1006.2498  0.021842706  0.020869603           18 
 3840000   0.61908431   -6.7114546    1005.8326  0.021827965  0.020862924           28 
 3841000   0.63464648   -6.7421121    1006.7299  0.021841749  0.020856258           32 
 3842000   0.64386242   -6.7668499    1007.3176  0.021848811   0.02084958           26 
 3843000   0.63131009   -6.7751684    1005.5942  0.021805754  0.020842877           26 
 3844000   0.64567944   -6.7485174    1008.1618  0.021855744  0.020836179           34 
 3845000   0.63954725   -6.7342551    1007.6737  0.021839481  0.020829482           28 
 3846000   0.63381665   -6.7557372    1008.2152  0.021845536  0.020822795           27 
 3847000   0.62327903   -6.7418011    1006.3601  0.021799673  0.020816132           36 
 3848000   0.64117076   -6.7602414    1005.7301  0.021780364  0.020809461           51 
 3849000   0.64934309   -6.7364579    1006.4564  0.021790431  0.020802812           34 
 3850000   0.62943551   -6.7628048    1006.7503  0.021791131  0.020796139           24 
 3851000   0.63011221   -6.7444234    1006.2794  0.021775283  0.020789442           25 
 3852000   0.62534445   -6.7678041    1006.7423  0.021779645   0.02078276           40 
 3853000   0.64560003   -6.7399906    1007.9208   0.02179948  0.020776089           73 
 3854000    0.6244251   -6.7460716    1009.4351  0.021826568  0.020769439           31 
 3855000   0.62565522   -6.7429472    1007.3817  0.021776518  0.020762767           17 
 3856000   0.62831727   -6.7580081    1006.6186  0.021754379  0.020756119           26 
 3857000   0.61877183   -6.7633395    1007.2754   0.02176293  0.020749461           37 
 3858000   0.63919968   -6.7616965    1006.4642  0.021739767  0.020742811           27 
 3859000   0.64195744   -6.7617166     1005.268    0.0217083  0.020736149           22 
 3860000   0.64414785   -6.7733383    1006.8463   0.02173675    0.0207295           55 
 3861000   0.64220808   -6.7497964    1007.5237  0.021745742  0.020722838           29 
 3862000   0.62806977   -6.7602218    1005.3811  0.021693879  0.020716168           21 
 3863000   0.65074569   -6.7711279    1009.3947  0.021774845  0.020709498           35 
 3864000    0.6224066   -6.7462868    1006.9947  0.021717449  0.020702851           22 
 3865000   0.63794632   -6.7396225    1007.7771  0.021728701  0.020696215           17 
 3866000   0.62692713   -6.7499414    1008.0836  0.021729687  0.020689569           38 
 3867000   0.64656863   -6.7619058    1006.8196  0.021696827  0.020682939           30 
 3868000   0.64705066   -6.7671956    1007.1867  0.021699127  0.020676308           21 
 3869000   0.63476872    -6.760481    1005.6653  0.021660751  0.020669675           65 
 3870000   0.63172636   -6.7573759    1006.7732   0.02167901  0.020663032           34 
 3871000   0.62399053    -6.762483    1007.2385  0.021683427  0.020656413           23 
 3872000   0.62782156   -6.7642336    1007.3792  0.021680854  0.020649785           20 
 3873000   0.62285909   -6.7774066    1009.2745  0.021716037  0.020643164           19 
 3874000    0.6239461   -6.7666615    1006.6104  0.021653124  0.020636548           20 
 3875000   0.63045401   -6.7620171    1008.2346  0.021682465  0.020629928           21 
 3876000   0.62125966   -6.7724398    1009.0299  0.021693969  0.020623321           28 
 3877000   0.64453768   -6.7628106    1006.7009  0.021638314  0.020616732           19 
 3878000   0.62045397   -6.7558322    1007.7154  0.021654535  0.020610112           49 
 3879000   0.64685926   -6.7776339    1008.3428   0.02166243  0.020603511           29 
 3880000   0.63858881   -6.7781065    1007.6171   0.02164126  0.020596897           24 
 3881000   0.65020266   -6.7830295    1005.9879  0.021600701  0.020590275           78 
 3882000   0.62954835   -6.7529431    1006.9203  0.021615153   0.02058367           32 
 3883000   0.63236525   -6.7718044    1007.4878  0.021621765  0.020577077           44 
 3884000     0.625205   -6.7696156    1008.6382  0.021640881   0.02057048           53 
 3885000   0.61792711   -6.7592539    1007.3695  0.021608097  0.020563881           44 
 3886000   0.63848135   -6.7791615    1006.4655  0.021583152  0.020557285          107 
 3887000   0.63211936    -6.797381    1006.4623   0.02157753  0.020550677           64 
 3888000   0.62893465   -6.7702134    1006.5866  0.021574645  0.020544079           57 
 3889000   0.62693417   -6.7612095    1006.4761  0.021566728  0.020537479           56 
 3890000   0.63381264   -6.7686356    1007.0196  0.021572827  0.020530886           92 
 3891000   0.63684047   -6.7536547    1005.8879  0.021543047  0.020524319           65 
 3892000   0.63294171    -6.771906    1007.9117  0.021580843  0.020517769           73 
 3893000   0.61177795    -6.791546    1006.7046   0.02154946  0.020511188           41 
 3894000   0.60919603   -6.7764812    1008.3884   0.02157996  0.020504606           48 
 3895000   0.62963437   -6.7845404    1007.0316  0.021545392  0.020498048           37 
 3896000   0.62138878   -6.7792909    1008.2736  0.021566427  0.020491505           42 
 3897000   0.62433647   -6.7951185    1008.4401  0.021564453  0.020484952           30 
 3898000   0.61118659   -6.7720875    1008.5039  0.021560284  0.020478382           10 
 3899000    0.6369111   -6.7850839    1007.5459  0.021534281  0.020471833           27 
 3900000   0.63549897   -6.7576791    1009.5373   0.02157131  0.020465285           11 
 3901000   0.62436316   -6.7876786    1009.4592  0.021564111  0.020458757           15 
 3902000   0.62932985    -6.796107    1007.0219  0.021506532  0.020452195           51 
 3903000   0.63223715   -6.7705889    1007.2135  0.021505114  0.020445667           56 
 3904000   0.62228646   -6.7856943    1007.6026   0.02150791  0.020439117           64 
 3905000   0.61730011   -6.7774845    1009.0807  0.021533946  0.020432569           79 
 3906000   0.62992238   -6.7702583    1006.7839  0.021479432  0.020426018           36 
 3907000   0.62784079   -6.8103049    1006.4035  0.021465819  0.020419464           40 
 3908000   0.62576177   -6.8082337    1007.5516  0.021484808  0.020412894           39 
 3909000   0.62899046   -6.8022812    1008.0237  0.021489378  0.020406359           41 
 3910000     0.631926   -6.8137265     1006.222  0.021445482  0.020399817           33 
 3911000   0.63411622   -6.7976308    1004.6853  0.021407256  0.020393261           39 
 3912000   0.63576648   -6.7928134     1004.922  0.021406825  0.020386697           26 
 3913000   0.63063867   -6.8126772    1006.1748  0.021428035  0.020380139           20 
 3914000   0.62196076   -6.8098696    1005.3159  0.021404273  0.020373582           32 
 3915000   0.63595539   -6.8122899    1004.8591  0.021389084  0.020367031           30 
 3916000   0.62531148   -6.8035308    1007.3024  0.021435615  0.020360485           36 
 3917000   0.62974768   -6.7985005    1006.6434  0.021416122  0.020353953           28 
 3918000   0.62640494   -6.7878325    1007.4232  0.021427242  0.020347396           20 
 3919000   0.63744225   -6.8259753    1005.6555  0.021384186  0.020340832           23 
 3920000   0.61974444   -6.7874912     1007.906  0.021426574  0.020334262           41 
 3921000   0.63588065   -6.8246368    1006.0459  0.021381575  0.020327725           42 
 3922000    0.6164154     -6.79591    1007.2064  0.021400782  0.020321182           38 
 3923000   0.61620485   -6.7940271    1008.2701  0.021417923  0.020314633           19 
 3924000   0.62848569   -6.8417126    1005.7097   0.02135809  0.020308087           38 
 3925000    0.6247933   -6.8116457    1006.1276   0.02136152  0.020301532           37 
 3926000   0.62261056   -6.8072497    1005.2749   0.02133798  0.020294986           31 
 3927000   0.62848015   -6.7975295    1009.3454  0.021418924  0.020288442           56 
 3928000   0.61821501   -6.7948675    1007.6866  0.021378281  0.020281909           88 
 3929000   0.62002166   -6.8051892    1006.1891  0.021341077  0.020275386           49 
 3930000    0.6184939   -6.8007134    1007.4176  0.021361696  0.020268877           63 
 3931000   0.63012079   -6.7805234    1005.0028   0.02130507  0.020262352           69 
 3932000   0.64093668   -6.8015019    1007.0981   0.02134406  0.020255828           41 
 3933000   0.63317442   -6.8096741    1006.4913  0.021325776  0.020249301           57 
 3934000   0.62877245   -6.7985166     1007.038  0.021331936  0.020242788           31 
 3935000    0.6192941   -6.8210619    1007.8757  0.021344254  0.020236279           42 
 3936000   0.63063293   -6.7935008    1005.4571  0.021287625   0.02022975           36 
 3937000   0.63010592   -6.8207152    1005.9676  0.021293024  0.020223223           48 
 3938000   0.62279083    -6.812772    1007.4288  0.021318537  0.020216691           33 
 3939000   0.62115226   -6.8241256    1008.1556  0.021328502  0.020210162           52 
 3940000   0.62472515   -6.8066862    1005.3817  0.021264419  0.020203632           40 
 3941000   0.63344177   -6.8213842    1005.0264   0.02125151  0.020197122           37 
 3942000   0.61729082   -6.8035809      1007.03  0.021288475  0.020190605           27 
 3943000   0.59858244     -6.78895    1007.1122  0.021284812  0.020184086           35 
 3944000   0.62562434    -6.803316    1007.4668  0.021286909  0.020177563           18 
 3945000   0.62554347   -6.7972126     1007.994  0.021292649  0.020171067           45 
 3946000   0.61657353    -6.839198    1003.0375  0.021182578  0.020164548           39 
 3947000   0.62030352   -6.8291361    1004.7573  0.021213524  0.020158016           37 
 3948000   0.62351383   -6.8136351    1005.4871  0.021223555  0.020151501           37 
 3949000   0.61665398   -6.8175042    1006.6502  0.021242724  0.020144981           26 
 3950000   0.62428945   -6.8218777    1005.3293  0.021209478  0.020138473           40 
 3951000    0.6324069   -6.8144609    1004.1523  0.021179285  0.020131967           71 
 3952000    0.6141882   -6.8197373     1005.646  0.021205423  0.020125447           29 
 3953000   0.61236138   -6.8152912    1006.4788  0.021217615  0.020118928           41 
 3954000   0.60540787   -6.8453915    1005.0068  0.021181225  0.020112402           35 
 3955000   0.61352591   -6.8052109    1005.0175  0.021176096  0.020105875           17 
 3956000   0.62667367   -6.8341994    1006.1079  0.021193711  0.020099367           42 
 3957000   0.61396534     -6.83578    1005.0453  0.021165977  0.020092856           35 
 3958000   0.61562668   -6.8047583     1005.597  0.021172246   0.02008635           30 
 3959000   0.62383173   -6.8039312     1007.516  0.021207292  0.020079856           34 
 3960000   0.61069204   -6.8133224    1007.6575  0.021204915  0.020073379           13 
 3961000   0.61856988   -6.8068702    1005.4327  0.021152754  0.020066879           36 
 3962000   0.61644416   -6.8004391    1005.1843  0.021142191  0.020060396           32 
 3963000   0.62642782   -6.8287534    1005.2923  0.021139126  0.020053933           75 
 3964000   0.60918263   -6.8178718    1005.4561  0.021137236  0.020047451           44 
 3965000     0.603443   -6.7940002    1006.9695  0.021163714  0.020040991           37 
 3966000   0.62685769   -6.8241801    1004.4529    0.0211055  0.020034522           38 
 3967000    0.6243662     -6.82351    1004.7191  0.021105771  0.020028065           37 
 3968000   0.61739113   -6.8166476    1006.5465   0.02113883  0.020021573           45 
 3969000   0.62630946   -6.8281586    1004.2295  0.021084856   0.02001512           31 
 3970000   0.61189499   -6.8205454    1006.0615  0.021117999  0.020008664           28 
 3971000    0.6145935   -6.8279478    1006.6216  0.021124435  0.020002205           24 
 3972000   0.61607197   -6.8168628    1006.0175  0.021106443  0.019995756           81 
 3973000   0.62181042    -6.821846    1006.7983  0.021117509  0.019989329           44 
 3974000   0.62550081   -6.8000524    1006.3532   0.02110286  0.019982886           46 
 3975000   0.61159794   -6.7994403    1005.7596  0.021085108  0.019976449           25 
 3976000   0.60189448   -6.7797168    1005.0585  0.021065109  0.019970028           52 
 3977000   0.62152269   -6.7926877    1005.7803  0.021074938  0.019963605           26 
 3978000   0.60802423   -6.8234773    1006.6961  0.021088825  0.019957174           25 
 3979000   0.60927079   -6.8079567    1005.9912   0.02106876  0.019950753           15 
 3980000   0.61442474    -6.798529    1006.5684  0.021075553  0.019944319           48 
 3981000   0.60981583    -6.828794    1006.1044  0.021060546  0.019937897           83 
 3982000   0.60658145   -6.8405251    1005.7386  0.021047602  0.019931477           30 
 3983000   0.62791336   -6.8042547    1006.5682  0.021059675  0.019925062           39 
 3984000   0.61268951   -6.7999172    1005.8283  0.021038913  0.019918651           78 
 3985000   0.60509446   -6.8220626    1007.8225  0.021075335  0.019912228           22 
 3986000   0.62135236   -6.8167224    1007.7811  0.021069181  0.019905814           33 
 3987000   0.61443622   -6.8075716    1005.1648  0.021009212  0.019899396           70 
 3988000   0.61716813   -6.8284559    1007.7142  0.021057218  0.019892989           69 
 3989000   0.59980043    -6.821927    1005.4407  0.021004443  0.019886585           42 
 3990000   0.61310186    -6.808021    1005.2778  0.020995776  0.019880186           58 
 3991000   0.62035973   -6.8253493    1006.1143  0.021007983  0.019873772           53 
 3992000   0.62254783   -6.8464219    1005.9592  0.020999482  0.019867361          117 
 3993000   0.60648754    -6.831284    1007.2288   0.02102072  0.019860955           90 
 3994000   0.61522321   -6.8033982    1007.7431  0.021026188  0.019854543          115 
 3995000   0.60527646   -6.8336886    1005.0206  0.020964134  0.019848134          116 
 3996000   0.59276218   -6.8269197    1006.9208  0.020998516  0.019841748           75 
 3997000   0.61085225   -6.8310817    1007.1408  0.020997849  0.019835359           55 
 3998000   0.60941981     -6.82633    1006.2699  0.020974444   0.01982897           60 
 3999000   0.60903062   -6.8412083    1004.5283  0.020932906  0.019822588           71 
 4000000   0.60625108   -6.8064582    1006.0761  0.020959918  0.019816207           42 
 4001000   0.61337036   -6.8279468    1008.3023  0.021001047  0.019809846           64 
 4002000   0.61185054   -6.8052444    1008.5365  0.021000677  0.019803511           27 
 4003000   0.60491777   -6.8344278    1007.2461  0.020968567  0.019797144           90 
 4004000   0.60858522   -6.8098831    1008.3792  0.020986913  0.019790781           52 
 4005000   0.61191018   -6.8369763    1006.9432  0.020951794  0.019784416           40 
 4006000   0.61834458   -6.8120917    1007.9384  0.020967265  0.019778058           53 
 4007000   0.61745546    -6.827847    1006.7109  0.020936504  0.019771703           26 
 4008000   0.61545044   -6.8259648    1006.2566  0.020921834   0.01976534           52 
 4009000   0.60386781   -6.8254279     1006.809    0.0209281  0.019758985           55 
 4010000   0.60730587   -6.8499554    1006.5595  0.020917695  0.019752619           53 
 4011000   0.60382054   -6.8172464    1007.5366  0.020932781  0.019746259           77 
 4012000   0.61851453   -6.8482819    1005.4182  0.020883562  0.019739894           54 
 4013000   0.62215147    -6.825533    1004.8481   0.02086652  0.019733516           58 
 4014000   0.59986379   -6.8368072    1004.6811  0.020857854  0.019727156           52 
 4015000   0.61101049   -6.8023962    1006.7079  0.020894726  0.019720792           96 
 4016000   0.62002689   -6.8239769    1006.8563  0.020892603  0.019714446           63 
 4017000   0.60670405   -6.8400153    1007.3226  0.020897075    0.0197081           76 
 4018000   0.59366417   -6.8119895    1005.8676  0.020861697  0.019701769           49 
 4019000   0.59969646   -6.8289244    1003.7957  0.020813546  0.019695426           45 
 4020000   0.60397589    -6.827752    1006.9186  0.020873105  0.019689083           39 
 4021000   0.60427708   -6.8238966    1008.2478  0.020895461  0.019682766           41 
 4022000    0.6190838   -6.8647329    1006.5896  0.020855909   0.01967644           14 
 4023000   0.60929216   -6.8445415    1005.0352  0.020818526  0.019670116           46 
 4024000   0.60346749   -6.8267014    1006.8719  0.020851389  0.019663789           29 
 4025000   0.60222389   -6.8302471    1006.1813  0.020831911   0.01965746           19 
 4026000   0.61792598   -6.8477556    1004.9285  0.020800804  0.019651132           36 
 4027000   0.60768876   -6.8192927    1006.7277  0.020832872  0.019644806           25 
 4028000   0.59978029   -6.8263968    1006.8684  0.020830611  0.019638489           53 
 4029000   0.61085343   -6.8456378    1005.9065  0.020805545  0.019632184           24 
 4030000   0.61668375   -6.8439382    1005.2708  0.020787236  0.019625863           31 
 4031000   0.60136651   -6.8205034    1006.4645  0.020806757  0.019619536           26 
 4032000   0.59370108   -6.8384049    1007.1353  0.020815461  0.019613227           80 
 4033000   0.60132123   -6.8517313    1005.2803  0.020771971  0.019606902           54 
 4034000   0.61536113   -6.8319379     1007.902  0.020820979  0.019600611           44 
 4035000   0.61057018   -6.8467004     1005.226  0.020760552  0.019594319           43 
 4036000   0.60033972   -6.8614833    1008.4153  0.020821261  0.019588027           44 
 4037000   0.60768708   -6.8385996    1006.9096  0.020785022  0.019581736           34 
 4038000   0.61021833   -6.8478991    1006.3553  0.020768435  0.019575436           24 
 4039000   0.60329772   -6.8423455    1007.3839  0.020784516  0.019569137           69 
 4040000   0.61046124   -6.8338443     1004.409  0.020718006  0.019562834           82 
 4041000   0.59938865   -6.8037659    1007.0514  0.020767371  0.019556545           31 
 4042000   0.60814108   -6.8453521    1005.1244  0.020722506  0.019550261           38 
 4043000   0.60222336    -6.835378    1008.2235  0.020781258  0.019543976           27 
 4044000   0.61435048   -6.8375471    1007.2587  0.020756237  0.019537701           48 
 4045000   0.61151319   -6.8610366    1005.5442  0.020715785  0.019531419           58 
 4046000   0.58935282   -6.8441273    1005.9513   0.02071905  0.019525154           45 
 4047000   0.62114113   -6.8415413    1006.4155  0.020723489  0.019518871           30 
 4048000   0.61282486   -6.8367608    1006.9504   0.02072938  0.019512615           73 
 4049000   0.59644486   -6.8492435    1005.5959  0.020696384  0.019506349           40 
 4050000    0.6175104   -6.8211259    1006.9797  0.020719746  0.019500081           57 
 4051000   0.61118113   -6.8449608    1006.2022  0.020698637  0.019493822          146 
 4052000   0.60837297    -6.868396    1005.0933  0.020670725  0.019487528           77 
 4053000   0.60333581   -6.8564476    1006.2009  0.020688398  0.019481246           40 
 4054000   0.61337084   -6.8655265     1003.936  0.020636738  0.019474967           57 
 4055000   0.60077885   -6.8544385    1004.0791   0.02063459  0.019468676           36 
 4056000   0.60456248   -6.8446214      1005.35  0.020655612  0.019462384           59 
 4057000   0.60454019   -6.8655623    1006.2494  0.020668996  0.019456089          140 
 4058000   0.60209555   -6.8570122    1006.8203  0.020675626  0.019449789           34 
 4059000   0.61413897   -6.8510391     1004.193  0.020616593  0.019443487           65 
 4060000    0.5959185   -6.8701799    1007.5306   0.02068002  0.019437186           97 
 4061000   0.61143708   -6.8649669    1005.1064  0.020625183   0.01943089          198 
 4062000   0.60453856   -6.8666744    1005.5917  0.020630062  0.019424614           78 
 4063000   0.59627023   -6.8665795    1005.8297  0.020629865  0.019418333          158 
 4064000   0.60126715   -6.8587831    1003.9793  0.020586846  0.019412053          234 
 4065000   0.59528051   -6.8607322    1004.6351  0.020595224  0.019405764          130 
 4066000    0.5963024   -6.8661279    1007.3196  0.020645179  0.019399498           86 
 4067000   0.59673476    -6.837444    1006.8436  0.020630351  0.019393259          131 
 4068000   0.58068109   -6.8409226    1007.7526    0.0206439  0.019387016           89 
 4069000    0.6057712   -6.8465777    1006.9335  0.020622052  0.019380773          119 
 4070000   0.60679969   -6.8513284     1004.772  0.020572726  0.019374531          151 
 4071000   0.59558595   -6.8498318    1005.3331  0.020579159   0.01936829           82 
 4072000    0.6012568   -6.8418908    1006.2029  0.020591906  0.019362048          117 
 4073000   0.61052751   -6.8425902    1007.1212  0.020605638  0.019355825           86 
 4074000   0.62289836   -6.8550231    1004.6126  0.020549269  0.019349604          202 
 4075000    0.5885019   -6.8595401    1005.7519  0.020567524  0.019343394          185 
 4076000   0.59153216   -6.8501146    1007.0934  0.020589905  0.019337158          172 
 4077000   0.59545512   -6.8575246     1005.137  0.020544865  0.019330925          157 
 4078000   0.60367899   -6.8547076    1004.1027  0.020518691  0.019324688          156 
 4079000   0.60397757   -6.8518404     1006.785  0.020568459  0.019318446          197 
 4080000   0.60044965   -6.8470453    1005.2892  0.020532867  0.019312216          157 
 4081000   0.59887205   -6.8640966    1005.9143  0.020540601  0.019305992          118 
 4082000   0.60914088   -6.8485786    1004.7719  0.020512247  0.019299769          154 
 4083000   0.60798457   -6.8669737    1004.7694  0.020507172  0.019293544           95 
 4084000   0.59793088    -6.867545    1005.2907  0.020512788  0.019287315          123 
 4085000   0.59340115   -6.8592337    1006.2481  0.020527296  0.019281088          213 
 4086000    0.6017035   -6.8334379    1006.6009  0.020529469  0.019274879          138 
 4087000   0.59976505   -6.8610723    1008.2132   0.02055732  0.019268673          274 
 4088000   0.60062206   -6.8495095    1008.2529  0.020553101  0.019262467           98 
 4089000    0.5924102     -6.82875    1008.5948  0.020555043  0.019256286          215 
 4090000   0.58816029   -6.8548941    1005.8763  0.020494627   0.01925011          186 
 4091000   0.60678898   -6.8569929    1004.8671   0.02046906  0.019243916          226 
 4092000    0.6034873   -6.8702241    1005.9498  0.020486108  0.019237716          117 
 4093000   0.58648643    -6.860538    1005.5127  0.020472202  0.019231506          154 
 4094000    0.5912234   -6.8597292    1005.8318  0.020473697  0.019225295          308 
 4095000   0.58766839   -6.8914845    1005.6246   0.02046448  0.019219071          209 
 4096000   0.60407675   -6.8538901    1003.8366  0.020423108  0.019212857          324 
 4097000   0.58364314     -6.86803    1004.0191  0.020421835  0.019206648          301 
 4098000   0.59771237   -6.8755348     1004.971  0.020436209  0.019200419          317 
 4099000   0.59957193   -6.8849119    1004.3796  0.020419201  0.019194198          196 
 4100000   0.59926511   -6.8716638    1005.6884  0.020440821  0.019187988          439 
 4101000   0.59792536   -6.8934588    1004.5651  0.020413011  0.019181784          338 
 4102000    0.5944865   -6.8792468    1002.1272  0.020358509  0.019175572          353 
 4103000   0.60881538   -6.8812313    1002.3265  0.020357595  0.019169358          180 
 4104000   0.58901802   -6.8884858     1002.387  0.020353861  0.019163137          354 
 4105000   0.57428815   -6.8690697    1003.2275  0.020365966   0.01915691          218 
 4106000   0.59543794   -6.9014097    1002.7585  0.020351488  0.019150676          383 
 4107000   0.60154486    -6.881899    1003.5302  0.020362191  0.019144439          244 
 4108000   0.59486494    -6.871737    1003.9759  0.020366275  0.019138225          202 
 4109000    0.5824222   -6.9112341    1001.7584  0.020316347  0.019132013          446 
 4110000   0.59321144   -6.9039619    1004.5866  0.020368747  0.019125795          493 
 4111000   0.58677653   -6.8890144    1003.8885  0.020349641  0.019119571          259 
 4112000    0.6004614   -6.8970858    1003.4323  0.020335447  0.019113357          423 
 4113000    0.6070301    -6.865344    1004.4664  0.020351454  0.019107143          299 
 4114000   0.60235536   -6.9026452      1001.87  0.020293915  0.019100922          514 
 4115000   0.59264879   -6.9019397    1004.5951   0.02034417  0.019094709          489 
 4116000   0.60706633   -6.8876001    1002.1701   0.02029013  0.019088494          523 
 4117000   0.58676017   -6.8767439    1002.7202  0.020296336  0.019082278          427 
 4118000   0.59082474   -6.9069455    1003.7236  0.020311714  0.019076072          637 
 4119000   0.58962287   -6.8997096    1003.5022  0.020302302  0.019069854          560 
 4120000    0.6036199   -6.9021486    1003.3442  0.020294178  0.019063643          438 
 4121000   0.58634155   -6.8815888    1003.4533   0.02029146  0.019057431          537 
 4122000    0.5900309   -6.8839445    1004.0754  0.020299115  0.019051231          563 
 4123000   0.58171562   -6.8896839    1004.6366  0.020305533  0.019045035          564 
 4124000    0.5954809   -6.9024787    1002.1506  0.020250375  0.019038843          601 
 4125000   0.57405889   -6.9006296    1003.0794   0.02026423  0.019032632          639 
 4126000   0.59534313   -6.9061442    1003.9271   0.02027644  0.019026428          631 
 4127000    0.5787659   -6.8821289     1003.692  0.020266779  0.019020255          610 
 4128000    0.5954514   -6.8892291    1003.8073  0.020264197  0.019014068          343 
 4129000   0.59494508   -6.8961336    1002.4107  0.020231104  0.019007875          625 
 4130000    0.5863823   -6.8674699    1004.1292  0.020260881  0.019001683          594 
 4131000   0.58970537   -6.9059211     1003.713   0.02024758  0.018995498          621 
 4132000   0.58462043   -6.9087803     1002.582   0.02021987  0.018989304          617 
 4133000   0.59838646   -6.9029449    1001.9279  0.020201788  0.018983105          611 
 4134000   0.59368668   -6.9031899    1002.6412   0.02021128  0.018976927          483 
 4135000    0.5896926   -6.8952536    1002.8461  0.020210523  0.018970757          672 
 4136000   0.60784213   -6.8836685    1003.8813  0.020226492  0.018964595          663 
 4137000   0.60738299   -6.9039168    1003.3691  0.020211286  0.018958426          667 
 4138000   0.61032344   -6.9083498    1002.4762   0.02018842  0.018952247          661 
 4139000    0.5840137   -6.9014584     1001.855  0.020171035   0.01894608          606 
 4140000   0.58542062   -6.8948617    1001.9015  0.020167099  0.018939913          587 
 4141000   0.59159187   -6.8878823    1003.0452  0.020185245  0.018933748          665 
 4142000   0.59254645   -6.8808205    1004.8071   0.02021582  0.018927603          548 
 4143000   0.58091151   -6.8923151    1005.5228  0.020225335  0.018921448          527 
 4144000   0.58967305   -6.9206709    1003.5255  0.020180291  0.018915294          361 
 4145000   0.58199084   -6.8902928    1002.7048  0.020158922  0.018909132          578 
 4146000    0.5999375   -6.8949444    1002.6246  0.020152448  0.018902971          574 
 4147000   0.58227958   -6.9094064    1003.5563  0.020166311  0.018896824          582 
 4148000   0.57614295    -6.901947    1003.9857  0.020170076  0.018890655          651 
 4149000   0.58554845   -6.9282845     1002.433  0.020134029  0.018884493          644 
 4150000   0.59087552   -6.9333987     1000.525  0.020090864  0.018878329          666 
 4151000   0.58438073   -6.9045668    1002.1313  0.020118271  0.018872162          558 
 4152000   0.56796677   -6.8905814    1003.4884  0.020140664   0.01886601          540 
 4153000    0.5922489   -6.9198029    1002.8725  0.020123455  0.018859846          605 
 4154000   0.58647446   -6.9026285    1001.6287  0.020093658  0.018853693          623 
 4155000   0.59029143     -6.92498    1000.4593  0.020065369   0.01884753          653 
 4156000   0.58416689   -6.9402766    1000.8768  0.020068912  0.018841367          652 
 4157000   0.58075079   -6.9217691    1002.3061  0.020092737  0.018835195          615 
 4158000   0.58160456   -6.9282827    1002.8567   0.02009894  0.018829054          689 
 4159000   0.59426444   -6.9009917     1002.604  0.020089045  0.018822899          633 
 4160000   0.57665606   -6.9178668     1003.348  0.020099118  0.018816756          468 
 4161000   0.58256115   -6.9440293    1002.2629  0.020072556  0.018810611          637 
 4162000   0.56762226   -6.9135844    1001.4759  0.020051976  0.018804456          657 
 4163000   0.57397061   -6.9000178    1001.3297  0.020044232  0.018798322          601 
 4164000   0.58277984   -6.9193705    1004.9408  0.020111687  0.018792171          671 
 4165000   0.58336822   -6.9116041    1000.0404  0.020008812  0.018786022          646 
 4166000   0.57719624    -6.918921    1002.9388  0.020061987  0.018779893          695 
 4167000   0.57983125   -6.9267141    1001.9469  0.020037336  0.018773757          715 
 4168000   0.56606967   -6.8819097    1003.4976  0.020063531   0.01876763          748 
 4169000   0.57640087   -6.9340529    1002.8892  0.020046557   0.01876149          671 
 4170000   0.58775983   -6.9181887     1003.246  0.020048882  0.018755367          710 
 4171000   0.59140805   -6.9113761    1001.9852  0.020018885  0.018749234          601 
 4172000   0.58300135   -6.9289321    1000.8647  0.019991704  0.018743097          758 
 4173000   0.58181057   -6.9191163    1002.8744  0.020027047  0.018736975          739 
 4174000   0.59696536   -6.9217792    1003.6593  0.020037918  0.018730847          576 
 4175000    0.5703303   -6.9279339    1002.1195  0.020002385  0.018724729          691 
 4176000   0.58317718   -6.9332873    1001.8354  0.019991926   0.01871861          681 
 4177000   0.57923399   -6.9196413    1003.0155  0.020010683  0.018712493          563 
 4178000   0.59364957   -6.9451567    999.05648  0.019926928  0.018706367          729 
 4179000   0.58244354   -6.9439578    998.61363  0.019913329  0.018700244          825 
 4180000    0.6061488   -6.9189086    1002.3272    0.0199826  0.018694125          797 
 4181000   0.58455843   -6.9286309    1000.0437  0.019932307  0.018688003          814 
 4182000   0.56789202   -6.9351107    1001.0162  0.019946919  0.018681893          741 
 4183000   0.58207673   -6.9155674    1001.7995  0.019957756  0.018675786          676 
 4184000   0.57608194   -6.9444099     1000.851  0.019934094  0.018669681          584 
 4185000   0.57260868   -6.9199021    1000.4207  0.019920762   0.01866357          771 
 4186000   0.59357126   -6.9418335     1000.638   0.01992033  0.018657454          721 
 4187000   0.58135596   -6.9388163    1000.9621  0.019922022   0.01865135          754 
 4188000   0.60561573   -6.9244698     1002.049  0.019938893   0.01864524          767 
 4189000   0.57765531   -6.9431364    1002.5482  0.019944064  0.018639143          702 
 4190000   0.58460957   -6.9432672    1000.5073  0.019898713  0.018633057          660 
 4191000   0.58604579   -6.9306315    1004.1674  0.019966742  0.018626979          643 
 4192000    0.5827842   -6.9166839    1003.5665  0.019950034  0.018620882          644 
 4193000   0.57881343   -6.9287536    1000.9474  0.019893223  0.018614785          726 
 4194000   0.57487662   -6.9211245    1002.3755  0.019916856  0.018608699          681 
 4195000   0.57185771   -6.9444718    1001.6369  0.019897435    0.0186026          704 
 4196000   0.59026146   -6.9153429    1001.4937   0.01988985  0.018596505          706 
 4197000   0.58886013   -6.9403428    1002.9725  0.019914472   0.01859043          730 
 4198000   0.57612576   -6.9419736    999.56565    0.0198421  0.018584356          711 
 4199000    0.5785882   -6.9413985    998.32182   0.01981269  0.018578275          689 
 4200000   0.57969993   -6.9638993    1001.4077  0.019869201  0.018572193          666 
 4201000   0.58471636   -6.9457815    1002.2661  0.019881498  0.018566109          660 
 4202000    0.5769039   -6.9228895    999.67881  0.019825456  0.018560017          822 
 4203000   0.57851257   -6.9170169    1003.5193  0.019896886  0.018553939          719 
 4204000   0.58122596   -6.9546557    1002.3902  0.019869772   0.01854788          755 
 4205000   0.58205958   -6.9349248    1001.5242  0.019847883  0.018541816          714 
 4206000   0.57449767   -6.9263531    1001.0623  0.019834013  0.018535742          731 
 4207000   0.57657156   -6.9474015     997.7426  0.019763541  0.018529677          795 
 4208000   0.57970096   -6.9533911    1003.0332  0.019863616  0.018523597          610 
 4209000   0.58697726   -6.9376351    1001.0487  0.019819607  0.018517513          683 
 4210000   0.57483863   -6.9384984     999.5535  0.019785303  0.018511438          663 
 4211000    0.5736999   -6.9392506     1001.414  0.019817422  0.018505373          745 
 4212000    0.5737819   -6.9508526    1001.8209  0.019820768  0.018499303          683 
 4213000   0.57988483   -6.9411492    1000.2343  0.019784681  0.018493237          759 
 4214000   0.57103405   -6.9668688    999.89766  0.019773328  0.018487173          788 
 4215000   0.58003415   -6.9345333    1000.7262  0.019785018  0.018481114          736 
 4216000   0.58177164   -6.9659678    998.52998  0.019736915  0.018475051          795 
 4217000   0.58091883   -6.9362428    1003.2963  0.019826423  0.018468997          704 
 4218000   0.58397636   -6.9373179    1000.6802  0.019770036  0.018462947          793 
 4219000   0.57892373    -6.954927    999.41632  0.019740387    0.0184569          833 
 4220000    0.5819396   -6.9520684    1000.6407  0.019759888  0.018450845          805 
 4221000   0.57019261    -6.942806    1003.4905  0.019811469  0.018444797          725 
 4222000   0.57895118   -6.9397643    999.48147  0.019727646  0.018438767          747 
 4223000   0.58114381   -6.9566279    998.64509   0.01970647  0.018432728          805 
 4224000   0.57685856   -6.9488292    1000.2239  0.019732952  0.018426701          716 
 4225000   0.57415862   -6.9159142    1003.1727  0.019786444  0.018420684          819 
 4226000   0.56615915   -6.9333412    1003.3574  0.019785404  0.018414671          827 
 4227000   0.56937381   -6.9540786     1000.392  0.019722262  0.018408651          810 
 4228000   0.56802637   -6.9409126    1000.0571  0.019710995  0.018402633          812 
 4229000   0.58150454   -6.9477098    1001.4816  0.019734405  0.018396619          811 
 4230000   0.57100334   -6.9476067    1000.9745  0.019719751    0.0183906          771 
 4231000   0.57791962     -6.95147    999.55266  0.019687085  0.018384594          774 
 4232000   0.56841047    -6.946274    1000.4332  0.019699771  0.018378579          767 
 4233000   0.57466372   -6.9723518    999.58018  0.019678325  0.018372548          901 
 4234000   0.59468275   -6.9510868    999.77546   0.01967752  0.018366509          823 
 4235000   0.58268137   -6.9516025    999.73441  0.019672066  0.018360473          902 
 4236000   0.57861854   -6.9565801    999.58851  0.019664552  0.018354442          917 
 4237000    0.5714219   -6.9690933    1000.3583  0.019675051  0.018348412          982 
 4238000   0.57349794   -6.9666044    999.20032  0.019647639  0.018342375          836 
 4239000   0.57658291   -6.9805503    998.60634  0.019631327  0.018336335          909 
 4240000   0.56526442   -6.9759669    998.59946  0.019626562  0.018330296          880 
 4241000   0.58250671   -6.9649948    997.64918  0.019603261  0.018324262          970 
 4242000   0.56680093   -6.9700401    1000.7377  0.019659313  0.018318226          989 
 4243000   0.57985854   -6.9628422    999.21668  0.019624807  0.018312191          938 
 4244000   0.56064714   -6.9850582    998.64325  0.019608923  0.018306149         1009 
 4245000   0.56913965   -6.9791178     999.3089  0.019617371  0.018300106         1020 
 4246000    0.5834666   -6.9842987    998.30306   0.01959301  0.018294069         1102 
 4247000   0.58540855   -6.9790917    1001.3484  0.019648152  0.018288044         1042 
 4248000   0.57104502   -6.9519958    998.63637  0.019590324  0.018282011          950 
 4249000   0.57452042   -6.9656908    999.64913  0.019605576  0.018275985          980 
 4250000   0.57680002   -6.9527858    998.77622  0.019583847  0.018269963          927 
 4251000   0.58196221   -6.9835224    997.39011  0.019552068  0.018263943         1116 
 4252000   0.56315874   -6.9790345    999.51067   0.01958903  0.018257927          972 
 4253000   0.56853193    -6.969584    999.50138  0.019584242  0.018251922          995 
 4254000   0.56381215   -6.9624487     999.8301  0.019586078  0.018245915          860 
 4255000   0.58212844   -6.9671646     1000.135  0.019587447  0.018239922          992 
 4256000   0.57334314   -6.9699684    999.40643  0.019568578  0.018233916         1001 
 4257000   0.55971488   -6.9812545    998.92276  0.019554513  0.018227908          893 
 4258000    0.5718354   -6.9730948    1001.5135  0.019600624   0.01822191          906 
 4259000   0.57524256   -6.9904115    998.49211  0.019536904  0.018215927          919 
 4260000   0.55942874   -6.9536083    999.40061   0.01955009  0.018209933          950 
 4261000   0.56942374   -6.9725964     998.0277  0.019518652  0.018203948          873 
 4262000   0.56074891   -6.9542829    1000.1591  0.019555747  0.018197964          926 
 4263000   0.57153538   -6.9768653    999.99217  0.019547896  0.018191997         1025 
 4264000   0.56861441   -6.9593754    997.74291  0.019499353  0.018186024          971 
 4265000   0.58026213   -6.9704181    1002.4299   0.01958636  0.018180052          915 
 4266000    0.5781838   -6.9749365     998.1709  0.019498572  0.018174067          912 
 4267000   0.56660307   -6.9857421    998.58784  0.019502145  0.018168089         1025 
 4268000   0.56868734   -6.9813881    999.38223  0.019513086  0.018162107          966 
 4269000   0.57842555   -6.9835505    998.96411  0.019500353  0.018156121         1035 
 4270000   0.56298353   -6.9662137    998.47919  0.019486323  0.018150133          914 
 4271000   0.56615081   -6.9936955    998.69599  0.019485991  0.018144148          982 
 4272000    0.5752521   -6.9771188    997.80518  0.019464052  0.018138155         1043 
 4273000   0.55315818   -6.9586226    998.05964   0.01946446   0.01813216         1010 
 4274000   0.57360837   -6.9715584    999.34982  0.019485061  0.018126174          983 
 4275000   0.56660139   -6.9897631    998.95553  0.019472817  0.018120191         1086 
 4276000   0.57552035   -7.0038925    998.25433  0.019454598  0.018114215         1066 
 4277000   0.56951016   -6.9903191    998.89138  0.019462462  0.018108247         1096 
 4278000   0.57594121   -7.0038719    999.64031  0.019472501  0.018102282         1096 
 4279000   0.55782296    -6.998221    999.44223  0.019464093  0.018096308         1087 
 4280000   0.56812252   -6.9799071    999.10078  0.019452897  0.018090339         1164 
 4281000   0.56700148   -6.9786556    998.84391  0.019443353  0.018084369         1008 
 4282000   0.55374073   -6.9878891    1000.2815   0.01946679  0.018078396         1160 
 4283000   0.57165816   -7.0003193    999.00294  0.019437368  0.018072432         1025 
 4284000   0.56401782   -6.9809688    999.16345  0.019435953  0.018066468         1104 
 4285000   0.56361918   -6.9999848    997.01879  0.019389708  0.018060509         1100 
 4286000   0.55659465   -6.9945799    999.58734  0.019435125   0.01805454         1096 
 4287000   0.56782952   -6.9959622     998.4838   0.01940914  0.018048567         1237 
 4288000   0.55731904   -6.9989918     999.0732  0.019416068   0.01804261         1164 
 4289000   0.54984913   -6.9952142     997.3944  0.019378923  0.018036636         1142 
 4290000   0.56349924   -7.0059359    995.02675  0.019328414  0.018030674         1073 
 4291000   0.56996373   -6.9948467    997.65449  0.019374942  0.018024715         1201 
 4292000   0.57735017   -6.9700502    996.27017  0.019343549  0.018018761         1211 
 4293000   0.55878521   -7.0058771    997.43896  0.019361731  0.018012804         1018 
 4294000   0.56106353    -6.990183    999.57117  0.019398602  0.018006857         1134 
 4295000   0.57394076   -6.9833488    999.52853  0.019393258  0.018000901         1063 
 4296000   0.54837769   -7.0139479    997.95177  0.019358158  0.017994946         1047 
 4297000   0.56788847   -7.0073889    998.00108  0.019354609  0.017989001         1039 
 4298000   0.55224575   -6.9949919    997.46145  0.019339643  0.017983049         1011 
 4299000   0.56276067   -7.0017745    998.54145   0.01935608   0.01797711         1177 
 4300000   0.56478749   -6.9954562    998.41853  0.019349196  0.017971166         1077 
 4301000   0.55717862   -6.9952041    996.65065  0.019310444  0.017965222         1149 
 4302000    0.5628376   -6.9987942    997.90985  0.019330347  0.017959274         1090 
 4303000   0.56628902   -7.0068102    998.85156  0.019344093  0.017953328         1159 
 4304000    0.5481123   -7.0107743    997.60182  0.019315401  0.017947377         1075 
 4305000   0.56050979   -6.9967599    999.22182  0.019342273  0.017941428         1047 
 4306000   0.56827734    -7.026861    998.73439  0.019328348   0.01793549         1214 
 4307000   0.55850934   -7.0114934     998.0836  0.019311268  0.017929538         1216 
 4308000    0.5748624    -7.004146    996.79131  0.019281788  0.017923597         1164 
 4309000   0.56266293    -7.004807    996.69064  0.019275366  0.017917666         1139 
 4310000   0.56556721   -7.0045866    999.89729  0.019332894  0.017911748         1140 
 4311000   0.56095492    -7.000472    999.12396  0.019313461  0.017905826         1347 
 4312000   0.56133591   -7.0022229    998.11181  0.019289421  0.017899905         1162 
 4313000   0.57080417    -7.008369    996.86519  0.019260862   0.01789399         1228 
 4314000   0.54111978    -7.001599    998.92933   0.01929627   0.01788808         1190 
 4315000   0.55427014   -7.0175739    995.18686  0.019219522  0.017882165         1225 
 4316000   0.55969893   -6.9905597    996.53474  0.019241094  0.017876244         1280 
 4317000   0.56124963   -7.0043494    995.44415  0.019215585  0.017870327         1299 
 4318000    0.5488148   -6.9999028    997.49302  0.019250676  0.017864415         1217 
 4319000    0.5729447   -6.9988179    998.01896  0.019256367  0.017858512         1357 
 4320000   0.56757395   -7.0068182    998.16654  0.019254756  0.017852602         1286 
 4321000     0.568306   -6.9960218    995.94032  0.019207366  0.017846699         1298 
 4322000   0.56612754   -7.0197139    998.63867  0.019254949  0.017840787         1197 
 4323000   0.55740308   -6.9931006    998.44599   0.01924678  0.017834878         1266 
 4324000   0.55070798   -7.0254444    997.05908  0.019215601  0.017828973         1328 
 4325000   0.56698376   -7.0170057    997.55725  0.019220756  0.017823062         1288 
 4326000   0.55426127   -7.0092488    998.09888  0.019226747  0.017817158         1274 
 4327000   0.56451592   -7.0160977    996.47208  0.019190973  0.017811264         1237 
 4328000   0.56156774   -7.0193951    997.25574  0.019201628  0.017805381         1234 
 4329000   0.56670275   -7.0027511     997.0898  0.019193998  0.017799494         1260 
 4330000   0.55780618   -7.0187859    998.53048  0.019217292  0.017793601         1337 
 4331000   0.56817666   -7.0160724    995.28365  0.019150382  0.017787699         1357 
 4332000   0.55110845   -7.0124349    998.49911  0.019207816  0.017781808         1291 
 4333000   0.54267762    -7.011186    997.64276  0.019186914  0.017775929         1341 
 4334000   0.56499166   -7.0136669    995.61514    0.0191435  0.017770051         1452 
 4335000   0.55347067    -7.008345     996.9164  0.019164098  0.017764177         1240 
 4336000   0.56701146    -7.027997    994.92893  0.019121482  0.017758309         1279 
 4337000   0.55692179   -6.9858546    996.31423  0.019143691  0.017752443         1278 
 4338000   0.56867561   -7.0097964    996.92418  0.019150995  0.017746574         1373 
 4339000   0.56122825   -7.0083977    998.05239  0.019168249  0.017740705         1306 
 4340000   0.56442026   -7.0350956    996.82456  0.019140257  0.017734833         1378 
 4341000   0.55898309   -7.0319397    997.15595  0.019142209  0.017728969         1444 
 4342000   0.55283756   -7.0136515    995.68357  0.019109542    0.0177231         1384 
 4343000   0.55585185   -7.0399182    995.20248  0.019095911  0.017717228         1402 
 4344000   0.56140812   -7.0257975    996.86852  0.019123475  0.017711357         1396 
 4345000   0.57865104   -7.0291017    996.10808  0.019104489  0.017705483         1402 
 4346000   0.55002824    -7.028196    996.10154  0.019099968   0.01769962         1467 
 4347000   0.56122345   -7.0027757    996.92269  0.019111316  0.017693759         1569 
 4348000   0.55968424   -7.0273023    995.83268   0.01908603  0.017687904         1475 
 4349000   0.55683392   -7.0200766    996.05867  0.019085971  0.017682044         1453 
 4350000    0.5443664   -7.0372735    994.98686  0.019061051  0.017676176         1496 
 4351000   0.56407009   -7.0275533     995.3973  0.019064531  0.017670315         1484 
 4352000   0.55320882   -7.0184741    996.94048    0.0190897  0.017664457         1361 
 4353000   0.56577734   -7.0240262    994.76993  0.019043762  0.017658604         1473 
 4354000   0.56725959   -7.0319871    995.14375  0.019046542  0.017652747         1458 
 4355000   0.55233119    -7.028465    993.96284  0.019019572  0.017646893         1433 
 4356000   0.54728969   -7.0380306    995.43915  0.019043449  0.017641042         1416 
 4357000     0.552368   -7.0456409    996.67074  0.019062634  0.017635192         1477 
 4358000   0.56673061   -7.0366334    996.58032  0.019056531  0.017629349         1426 
 4359000   0.54848457   -7.0236441    994.97231  0.019021417  0.017623503         1462 
 4360000   0.55268222   -7.0478198    994.77066  0.019013201  0.017617651         1344 
 4361000   0.56375058   -7.0399395    994.67232  0.019006962   0.01761179         1403 
 4362000   0.55458708   -7.0241017    994.64032  0.019001993   0.01760594         1368 
 4363000   0.55970963   -7.0392203     995.9159  0.019022001  0.017600097         1398 
 4364000   0.54870985   -7.0413663    995.61812  0.019011956  0.017594246         1439 
 4365000   0.55465928   -7.0384153    995.36068  0.019002686  0.017588407         1502 
 4366000   0.56473141   -7.0194774    995.55162  0.019001978  0.017582559         1460 
 4367000   0.55606264   -7.0281051      995.444  0.018995573  0.017576726         1403 
 4368000   0.54199426   -7.0313619    995.36807  0.018989775  0.017570892         1406 
 4369000   0.55180932   -7.0396249     996.9821  0.019016215  0.017565064         1364 
 4370000   0.56429184   -7.0403715    997.22437  0.019016483  0.017559231         1342 
 4371000   0.56773481   -7.0290107    996.36304  0.018995711  0.017553412         1378 
 4372000   0.55343817   -7.0524442    995.35631  0.018972177  0.017547588         1399 
 4373000   0.55781136   -7.0243859    996.06289  0.018981304  0.017541767         1485 
 4374000   0.55881857   -7.0538575    995.50905  0.018966412  0.017535943         1415 
 4375000   0.54801097   -7.0342303    993.51807  0.018924154   0.01753012         1453 
 4376000   0.55116255   -7.0653764    994.85802  0.018945346  0.017524298         1449 
 4377000   0.55208512   -7.0320271    997.25025  0.018986563  0.017518485         1431 
 4378000   0.54924045   -7.0428631    994.85701  0.018936672   0.01751267         1370 
 4379000   0.55072968   -7.0499759    995.25261  0.018939876  0.017506845         1462 
 4380000   0.55638792   -7.0481572    994.63939  0.018923885  0.017501027         1439 
 4381000   0.55712677   -7.0361283    994.94517  0.018925382   0.01749521         1416 
 4382000   0.55198434    -7.039255    995.48445  0.018931318  0.017489403         1437 
 4383000   0.55204889   -7.0423234    992.74692  0.018874951  0.017483594         1537 
 4384000   0.53738491   -7.0472555    995.39901  0.018921058  0.017477789         1470 
 4385000   0.55581963   -7.0390403     996.6312   0.01894016  0.017471981         1565 
 4386000   0.54545128   -7.0302521    996.58707  0.018935003  0.017466174         1493 
 4387000   0.54150201   -7.0464027    995.93214  0.018918246  0.017460373         1542 
 4388000   0.56142108   -7.0531976    995.37212  0.018903299  0.017454574         1518 
 4389000   0.53584853   -7.0523642    994.83209  0.018888739  0.017448777         1579 
 4390000   0.53639673   -7.0657074    994.24455  0.018873283  0.017442973         1607 
 4391000   0.55599378    -7.040577    996.87029  0.018918817  0.017437177         1517 
 4392000   0.56157397   -7.0524694    994.73247  0.018873946  0.017431387         1508 
 4393000    0.5441798   -7.0550826    995.47052   0.01888365  0.017425593         1598 
 4394000   0.53389971   -7.0483261    993.61418  0.018844147  0.017419792         1629 
 4395000   0.55104195   -7.0383271    994.63666  0.018859247  0.017413999         1525 
 4396000    0.5486414   -7.0574982    993.60765   0.01883545  0.017408205         1613 
 4397000    0.5462909   -7.0480362    993.29496   0.01882524  0.017402421         1594 
 4398000   0.55687194   -7.0727162    995.62776  0.018865162  0.017396624         1650 
 4399000   0.55734482   -7.0621903    993.88713  0.018827899  0.017390827         1604 
 4400000   0.54129574   -7.0491596    993.64055   0.01881895  0.017385039         1689 
 4401000   0.55297866   -7.0689282    996.99812   0.01887825  0.017379259         1629 
 4402000   0.53746032   -7.0631511    992.87614  0.018795929  0.017373472         1644 
 4403000    0.5546343   -7.0650373    993.31086  0.018799888  0.017367683         1532 
 4404000    0.5546973   -7.0570359    994.11476   0.01881083  0.017361901         1678 
 4405000   0.55244392   -7.0595054    991.17975  0.018751036  0.017356116         1678 
 4406000    0.5323985   -7.0406309    993.90269  0.018798281  0.017350339         1681 
 4407000    0.5293543   -7.0530194    993.26677   0.01878199  0.017344564         1698 
 4408000   0.55438421   -7.0507928    994.37798  0.018798737  0.017338791         1609 
 4409000   0.55025936   -7.0647439    994.89674  0.018804278  0.017333025         1679 
 4410000   0.54654976   -7.0465532    995.38329  0.018809208  0.017327251         1707 
 4411000   0.54539137   -7.0562085    993.24024  0.018764457  0.017321483         1762 
 4412000   0.54304221   -7.0693866    992.25382  0.018741573  0.017315714         1649 
 4413000   0.54457295   -7.0696076    993.22073  0.018755584  0.017309948         1565 
 4414000   0.55163187    -7.067574    994.77818  0.018780739  0.017304186         1655 
 4415000    0.5527238   -7.0630359    995.51332  0.018790361  0.017298433         1621 
 4416000   0.53551176   -7.0639377    994.69614  0.018770685  0.017292668         1590 
 4417000   0.53620963   -7.0723192    992.78773   0.01873043  0.017286909         1539 
 4418000   0.53668009   -7.0669815    994.61907  0.018760734   0.01728115         1661 
 4419000   0.53850356   -7.0519168    995.65428   0.01877601  0.017275388         1545 
 4420000   0.54256461   -7.0351303    994.09174  0.018742303  0.017269644         1581 
 4421000   0.54346826    -7.062152    994.20521  0.018740202  0.017263898         1639 
 4422000   0.54406317   -7.0601828    993.40991  0.018720977  0.017258151         1643 
 4423000   0.53610709   -7.0878565    993.42279  0.018716987  0.017252404         1588 
 4424000   0.55275826    -7.058846    993.20446  0.018708643  0.017246656         1582 
 4425000   0.53929844   -7.0788628    992.55482  0.018692181  0.017240915         1621 
 4426000   0.53444989   -7.0588298    993.21064  0.018700306  0.017235181         1759 
 4427000   0.53316414   -7.0589495    993.47608  0.018701078  0.017229443         1729 
 4428000   0.54820148   -7.0586508    993.48801  0.018697079  0.017223709         1699 
 4429000   0.54289852   -7.0619957    993.81014  0.018698919  0.017217973         1708 
 4430000   0.54045311     -7.06373    993.96258  0.018697566  0.017212247         1616 
 4431000   0.54707061   -7.0609098    992.47161  0.018665305  0.017206523         1639 
 4432000     0.539319    -7.050477    993.80288  0.018686125  0.017200795         1685 
 4433000   0.54079389   -7.0326718    993.12414  0.018669151  0.017195069         1612 
 4434000   0.52978606   -7.0709574    994.57201  0.018692152  0.017189348         1632 
 4435000   0.54479555   -7.0674877    994.59706  0.018688408  0.017183627         1634 
 4436000   0.54409395   -7.0576309    993.98225  0.018672645  0.017177904         1683 
 4437000   0.53969022   -7.0574618    993.83286  0.018665631  0.017172187         1681 
 4438000   0.54460911   -7.0770872     994.2014  0.018668345  0.017166482         1646 
 4439000   0.54044515   -7.0639412    993.85174  0.018657576  0.017160769         1633 
 4440000   0.53546058   -7.0732694    994.20894  0.018660078  0.017155067         1705 
 4441000   0.54243251   -7.0566866    993.88582  0.018649813  0.017149363         1682 
 4442000   0.52922145   -7.0629054    993.68376  0.018641823  0.017143668         1646 
 4443000   0.54915994   -7.0629347    994.08775  0.018645205  0.017137978         1642 
 4444000   0.55536047   -7.0608474    994.74546  0.018653343  0.017132291         1652 
 4445000   0.55456925   -7.0679566    994.18026   0.01863855  0.017126604         1713 
 4446000   0.53824753   -7.0478708    993.93162  0.018629697  0.017120914         1686 
 4447000   0.54337678   -7.0630378    993.98495  0.018626508  0.017115235         1871 
 4448000   0.54923234   -7.0655483    994.13106  0.018625057  0.017109563         1735 
 4449000   0.54323326   -7.0670639    994.52659   0.01862828  0.017103878         1873 
 4450000   0.54272745   -7.0550103    992.74321  0.018590697  0.017098191         1792 
 4451000    0.5204422   -7.0776243     994.0191  0.018610408  0.017092511         1776 
 4452000   0.52269253   -7.0566589    993.79967   0.01860212  0.017086834         1754 
 4453000   0.53643149   -7.0726531    991.73553  0.018559314  0.017081154         1819 
 4454000    0.5411868    -7.046157    993.52446  0.018588618   0.01707548         1686 
 4455000   0.52690852   -7.0787748    992.89658  0.018572701  0.017069804         1691 
 4456000   0.53985308   -7.0681085    994.62927  0.018600936  0.017064135         1841 
 4457000   0.54277031    -7.073027    992.31254  0.018553447  0.017058477         1745 
 4458000   0.52922472   -7.0820374     992.1839   0.01854688  0.017052816         1797 
 4459000   0.55229919   -7.0775653    992.49811  0.018548593  0.017047151         1799 
 4460000   0.54330467   -7.0728104    991.84337    0.0185322  0.017041487         1856 
 4461000   0.52597376   -7.0607858    993.87061  0.018565916  0.017035823         1807 
 4462000   0.53832274   -7.0606908    994.02148  0.018564573  0.017030165         1714 
 4463000   0.53148508   -7.0555967    994.96451  0.018578021  0.017024512         1705 
 4464000   0.52840645   -7.0596597    994.14131  0.018558492  0.017018858         1683 
 4465000   0.53456467   -7.0805901    993.53472  0.018543015  0.017013211         1717 
 4466000   0.54306432   -7.0656041    993.89379  0.018545563  0.017007558         1721 
 4467000    0.5361958   -7.0675186    993.00939  0.018524912  0.017001927         1758 
 4468000   0.53869295   -7.0696399    990.81695  0.018479875  0.016996289         1867 
 4469000   0.53139914   -7.0723532     993.8917  0.018533074  0.016990644         1790 
 4470000   0.53623415   -7.0627629    992.26478  0.018498598  0.016985004         1845 
 4471000    0.5231686   -7.0687028    993.67406  0.018520727  0.016979369         1791 
 4472000   0.54136965   -7.0695319    993.95802  0.018521877  0.016973734         1756 
 4473000   0.53180272   -7.0661798    994.03787  0.018519224  0.016968091         1722 
 4474000   0.54062267    -7.080801    991.58591  0.018469414  0.016962454         1785 
 4475000   0.54106892   -7.0760135    994.01293  0.018510483   0.01695682         1718 
 4476000    0.5348968   -7.0894896    991.85837  0.018466234  0.016951187         1837 
 4477000   0.54995669   -7.1017788    992.38431  0.018471899  0.016945547         1849 
 4478000   0.54477968   -7.0898105    991.45903  0.018450555  0.016939916         1779 
 4479000   0.54807555   -7.0949888    993.04918  0.018476021  0.016934282         1835 
 4480000   0.54358867    -7.079163    993.31134  0.018476773  0.016928655         1776 
 4481000   0.53588778   -7.0719662    991.69529  0.018442596  0.016923031         1747 
 4482000   0.54370529   -7.0910445    991.05949   0.01842666  0.016917405         1766 
 4483000   0.54018619   -7.0761417    991.36842  0.018428292  0.016911778         1795 
 4484000   0.52997011   -7.0808686    994.32574  0.018479143  0.016906153         1807 
 4485000   0.53771358   -7.0762818    992.26832  0.018436795  0.016900536         1762 
 4486000   0.53057587   -7.0750848    994.34334  0.018471232  0.016894916         1742 
 4487000    0.5331275    -7.081031    991.26866  0.018410012  0.016889306         1725 
 4488000   0.52287345   -7.0725766    994.34946  0.018463114  0.016883698         1755 
 4489000   0.54014908   -7.0779109    992.37668  0.018422378  0.016878088         1814 
 4490000   0.53582319   -7.0679793    993.88861  0.018446337  0.016872474         1734 
 4491000   0.53073021   -7.1217621    992.30668  0.018412875  0.016866862         1784 
 4492000   0.55077256   -7.0805657    993.03483  0.018422285  0.016861256         1758 
 4493000   0.53171169   -7.0826067    993.20801  0.018421396  0.016855649         1824 
 4494000   0.52854843   -7.0959766    991.89599  0.018392968   0.01685005         1772 
 4495000   0.53699266    -7.098251    992.40932  0.018398393  0.016844451         1759 
 4496000   0.53510563   -7.0765966    991.99135  0.018386554  0.016838857         1720 
 4497000    0.5187367   -7.0860736    992.69121  0.018395434  0.016833264         1775 
 4498000   0.53314261   -7.0842446    992.09774  0.018380349  0.016827671         1734 
 4499000   0.53031067   -7.0824691     993.1231  0.018395256  0.016822084         1686 
 4500000   0.54375132   -7.0849633    992.42048  0.018378157  0.016816502         1713 
 4501000   0.51210172   -7.0859072    992.55835  0.018376626  0.016810923         1796 
 4502000   0.53606768   -7.0776616    994.36538  0.018405993  0.016805344         1812 
 4503000   0.52345656    -7.079718      990.457  0.018329577  0.016799764         1859 
 4504000   0.53892551   -7.0886636    990.36042   0.01832372  0.016794188         1693 
 4505000    0.5235356    -7.098025    992.10189  0.018351866  0.016788616         1818 
 4506000   0.52560092   -7.0925885     993.2089  0.018368266  0.016783042         1776 
 4507000   0.54536492   -7.0902912     993.4853  0.018369301  0.016777475         1733 
 4508000   0.52933847   -7.0960219    992.49301  0.018346884  0.016771912         1742 
 4509000   0.53472793   -7.0850513    993.26651   0.01835711  0.016766352         1710 
 4510000   0.53252077   -7.0898637    991.50894  0.018320564  0.016760787         1861 
 4511000   0.52376048   -7.0971258    989.64587  0.018282086  0.016755226         1757 
 4512000    0.5323395   -7.0909498    992.99678  0.018339923  0.016749659         1719 
 4513000   0.51781777   -7.0972846      991.449  0.018307279  0.016744105         1744 
 4514000   0.53244014   -7.0934472    991.24248  0.018299411  0.016738546         1688 
 4515000   0.51932669    -7.098862    992.76105  0.018323386  0.016732993         1759 
 4516000   0.52493109   -7.0955317    993.15843  0.018326661  0.016727435         1793 
 4517000   0.53527691   -7.1081435    991.19795  0.018286436  0.016721888         1738 
 4518000   0.51830378   -7.0970899    990.49107   0.01826935  0.016716343         1733 
 4519000   0.52785756   -7.0872535    993.87878  0.018327779  0.016710814         1756 
 4520000    0.5350706   -7.0894019    992.40421  0.018296538  0.016705271         1688 
 4521000   0.52528343   -7.0843978    992.11728  0.018287202  0.016699733         1695 
 4522000   0.52593862   -7.1174113    991.31436  0.018268361  0.016694205         1830 
 4523000   0.52484129   -7.0918424    991.09802  0.018260336  0.016688664         1785 
 4524000   0.52323122   -7.1023445    992.15414  0.018275754  0.016683133         1740 
 4525000   0.52082986   -7.0938931    991.31533  0.018256267  0.016677596         1785 
 4526000   0.53048397   -7.0831244     993.8999  0.018299821   0.01667207         1736 
 4527000   0.50886554   -7.1103491    991.04584  0.018243241  0.016666536         1778 
 4528000   0.53714955   -7.0806649    992.20164  0.018260484  0.016661011         1755 
 4529000   0.52844996   -7.0794335    991.41394  0.018241958  0.016655489         1881 
 4530000   0.51978827   -7.1169058    992.58537  0.018259481  0.016649962         1733 
 4531000   0.53112587   -7.1172073    989.62959  0.018201089  0.016644441         1762 
 4532000   0.53334467   -7.1046128    992.92254  0.018257622  0.016638926         1774 
 4533000    0.5267229   -7.0884988    991.04654  0.018219107  0.016633415         1707 
 4534000   0.52217321   -7.0895432    993.39367  0.018258228  0.016627905         1787 
 4535000   0.52050701   -7.1055666    991.87337  0.018226265  0.016622394         1793 
 4536000   0.53205939   -7.0940731    990.54625  0.018197866  0.016616884         1763 
 4537000   0.54052817   -7.1009727    992.68082  0.018233062  0.016611382         1791 
 4538000   0.52731355   -7.0937171    991.76254  0.018212181  0.016605872         1766 
 4539000   0.52398277   -7.0986576    991.32791  0.018200189  0.016600369         1768 
 4540000   0.53610469   -7.1071097    991.39186  0.018197354  0.016594868         1781 
 4541000   0.52942927   -7.1108748    990.65205   0.01817977  0.016589371         1787 
 4542000   0.53056772   -7.0959876    990.34503  0.018170135  0.016583863         1842 
 4543000   0.52493785   -7.1133782    991.35871  0.018184729  0.016578367         1824 
 4544000   0.52408845   -7.1093157    990.62256  0.018167227  0.016572865         1878 
 4545000   0.52931671   -7.1030244    991.89271  0.018186518  0.016567375         1750 
 4546000   0.52281853   -7.1073724    992.22457  0.018188601  0.016561877         1903 
 4547000   0.52981103   -7.1066572    991.99946  0.018180475   0.01655639         1830 
 4548000   0.53916461   -7.0875535    990.85726  0.018155549   0.01655091         1805 
 4549000   0.52856415   -7.1148601    990.75711  0.018149724   0.01654543         1786 
 4550000   0.51891464   -7.1070022     992.4003   0.01817583  0.016539952         1884 
 4551000   0.51753541    -7.096354    990.61194  0.018139089  0.016534462         1752 
 4552000   0.52948375   -7.1015753    992.33969  0.018166734  0.016528987         1856 
 4553000   0.53378603   -7.1235976     991.2452  0.018142712  0.016523506         1804 
 4554000   0.52959606   -7.1126067    990.57904  0.018126538  0.016518033         1874 
 4555000   0.52306596   -7.0997265    991.08828  0.018131875  0.016512556         1834 
 4556000   0.53361462   -7.1020895    994.19072  0.018184642  0.016507084         1820 
 4557000   0.53114721   -7.1019704    991.87514  0.018138306  0.016501613         1752 
 4558000   0.52138613   -7.1178498    990.62268  0.018111428  0.016496146         1844 
 4559000   0.52012448   -7.0963812    990.29279  0.018101426  0.016490676         1838 
 4560000   0.51094156   -7.0990987    991.19577  0.018113958  0.016485205         1806 
 4561000   0.52923174     -7.10689    991.04806  0.018107287  0.016479738         1891 
 4562000   0.53267558   -7.1283307    992.08204  0.018122206  0.016474271         1949 
 4563000   0.52573228   -7.0969504    991.12172  0.018100696  0.016468814         1830 
 4564000    0.5219502   -7.1114326     991.6262  0.018105941  0.016463355         1947 
 4565000   0.54324561   -7.1125557    992.14997  0.018111537  0.016457894         1806 
 4566000   0.51828998   -7.1230915    989.03666  0.018050749  0.016452435         1871 
 4567000   0.51622754   -7.1207755    990.42401  0.018072112  0.016446974         1867 
 4568000   0.52546328   -7.1149267    991.65701  0.018090649   0.01644152         1852 
 4569000   0.51879743    -7.108454    989.99795   0.01805643  0.016436065         1814 
 4570000   0.52727319   -7.1206874    989.52428  0.018043842  0.016430614         1833 
 4571000   0.52167177   -7.0997803    995.08094  0.018141197  0.016425168         1849 
 4572000   0.52265764   -7.1153363    991.87186  0.018078738  0.016419729         1758 
 4573000   0.52519636   -7.1371245    990.71366  0.018053678  0.016414298         1822 
 4574000    0.5234884   -7.0913334    991.52094  0.018064439  0.016408863         1910 
 4575000   0.51816794   -7.1117851    990.24999   0.01803734  0.016403427         1789 
 4576000   0.51779493   -7.1020009    989.52072  0.018020118  0.016397988         1915 
 4577000   0.51919256   -7.1399033    990.53175  0.018034589  0.016392552         1897 
 4578000   0.52559276   -7.0973087    990.34829   0.01802731  0.016387115         1789 
 4579000   0.50927523   -7.0980958    990.98033  0.018034875  0.016381688         1898 
 4580000   0.52385399    -7.119208    990.61494  0.018024289  0.016376264         1937 
 4581000   0.51939758   -7.1165747    992.09458  0.018047271  0.016370838         1769 
 4582000   0.52046266   -7.1416295    991.36875  0.018030132  0.016365422         1849 
 4583000    0.5148399   -7.1235612    990.94579  0.018018507  0.016360001         1785 
 4584000   0.52750713   -7.1259015    989.82361  0.017994176  0.016354584         1814 
 4585000   0.51585454   -7.1182706     991.0219   0.01801203  0.016349166         1791 
 4586000   0.51442979   -7.1066225    989.55246  0.017981401  0.016343748         1742 
 4587000    0.5097742   -7.1127929    990.37209  0.017992371  0.016338332         1797 
 4588000   0.52224494   -7.1235518    991.30394  0.018005375  0.016332926         1798 
 4589000   0.51820729   -7.1226512    991.91048  0.018012466  0.016327513         1875 
 4590000   0.52728385   -7.1263269    989.13278  0.017958111  0.016322102         1966 
 4591000   0.51706091   -7.1223443    990.92365  0.017986707  0.016316694         1851 
 4592000   0.50951674    -7.130293    990.61151  0.017977125  0.016311288         1720 
 4593000   0.52495734   -7.1242059    989.84125  0.017959236  0.016305887         1802 
 4594000   0.51840908   -7.1409223    988.10799  0.017923886  0.016300478         1803 
 4595000   0.52359865   -7.1130845     991.6368  0.017983983   0.01629507         1847 
 4596000   0.51508961    -7.111045    989.30096  0.017937717  0.016289674         1876 
 4597000   0.52647326   -7.1173822    990.06612  0.017947685  0.016284277         1748 
 4598000   0.52460001   -7.1158932    991.05183  0.017961647  0.016278883         1787 
 4599000   0.51751076   -7.1305492    990.54786  0.017948609  0.016273489         1796 
 4600000   0.51556407   -7.1113477    990.57705  0.017945236  0.016268098         1818 
 4601000   0.52126352   -7.1238714    988.67063  0.017906807  0.016262709         1822 
 4602000   0.52398478   -7.1167546      991.189  0.017948519  0.016257324         1733 
 4603000   0.51069788   -7.1273306    991.02235  0.017941602  0.016251943         1796 
 4604000   0.51217203   -7.1281873    989.00921  0.017901267  0.016246558         1767 
 4605000   0.50736025   -7.1240844    991.71521  0.017946348  0.016241169         1783 
 4606000   0.52926566   -7.1264012     990.3347  0.017917475  0.016235785         1866 
 4607000   0.52358857   -7.1148005    989.55261  0.017899439  0.016230401         1803 
 4608000   0.51666114   -7.1353971    990.21863    0.0179076  0.016225022         1861 
 4609000   0.51140411    -7.116179    989.71271  0.017894567  0.016219643         1844 
 4610000   0.51619392   -7.1307005    989.00891  0.017877963  0.016214272         1900 
 4611000   0.50846667   -7.1329974    990.79786  0.017906417  0.016208901         1903 
 4612000   0.51028701    -7.135969    990.82451  0.017903016  0.016203535         1906 
 4613000   0.51724389   -7.1287611    991.09918  0.017904097  0.016198163         1890 
 4614000   0.51216969   -7.1089179    989.63317  0.017873739    0.0161928         1808 
 4615000   0.50524028   -7.1148294    989.42121  0.017866038  0.016187437         1856 
 4616000   0.51395871   -7.1373817    988.63332  0.017847944  0.016182074         1797 
 4617000   0.50651856   -7.1362444    990.98816  0.017886581  0.016176713         1836 
 4618000   0.51799741   -7.1427931    989.72521  0.017859918  0.016171356         1904 
 4619000    0.5232571   -7.1283075    990.12549  0.017863273  0.016166004         1849 
 4620000   0.50617361   -7.1209794    991.25505  0.017879781  0.016160654         1837 
 4621000   0.51050649   -7.1417328    986.68981  0.017793584  0.016155303         1871 
 4622000    0.5181618   -7.1308572    989.59647   0.01784214  0.016149945         1849 
 4623000   0.51006065   -7.1311356    988.91271  0.017825956   0.01614459         1831 
 4624000    0.4990404   -7.1320856    988.82535  0.017820526  0.016139234         1921 
 4625000   0.51099058   -7.1187898    989.45431  0.017828006  0.016133888         1856 
 4626000   0.51114824   -7.1105812    989.76783    0.0178298   0.01612854         1930 
 4627000   0.50029331   -7.1217834    990.89814  0.017846303  0.016123198         1870 
 4628000   0.51337736   -7.1256967    989.28831   0.01781346  0.016117858         1900 
 4629000   0.50437558   -7.1349426     989.8095  0.017818994  0.016112524         1890 
 4630000   0.52006301   -7.1212979    989.96194  0.017817889  0.016107191         1887 
 4631000   0.51097178   -7.1373932    990.69322  0.017827201  0.016101858         1891 
 4632000    0.5142779   -7.1307109    989.26607  0.017797677  0.016096527         1917 
 4633000   0.52127404   -7.1246226    990.50718  0.017816159  0.016091192         1832 
 4634000   0.50452973    -7.148753    988.61936  0.017778366  0.016085865         1887 
 4635000   0.51397306   -7.1329831    989.93515  0.017798187  0.016080534         1861 
 4636000   0.50639777   -7.1282702    987.92867  0.017758281  0.016075209         1877 
 4637000   0.50615792   -7.1208964     989.5406   0.01778342  0.016069886         1782 
 4638000   0.51972484   -7.1383098    990.23601   0.01779208  0.016064563         1907 
 4639000    0.5145169   -7.1301305    989.79866  0.017780388  0.016059241         1803 
 4640000   0.50790304   -7.1271572    989.51779  0.017771512  0.016053918         1846 
 4641000   0.51105368   -7.1265794    987.86604  0.017738024  0.016048599         1891 
 4642000   0.50643026   -7.1271008    990.63394  0.017783892  0.016043284         1807 
 4643000    0.5048472   -7.1337185    989.44447  0.017758713  0.016037969         1703 
 4644000   0.50142092   -7.1441446    989.09557  0.017748629  0.016032662         1839 
 4645000   0.50528371   -7.1251695    989.06317  0.017744226  0.016027356         1824 
 4646000   0.49738838   -7.1305278    990.43657  0.017765041   0.01602206         1873 
 4647000   0.50654095   -7.1452284    990.22091  0.017757351  0.016016754         1896 
 4648000    0.5140376   -7.1280063    989.32219  0.017737417  0.016011453         1818 
 4649000   0.51268453    -7.139479    988.21471   0.01771375  0.016006154         1884 
 4650000   0.50591535   -7.1383751    989.93839  0.017740831  0.016000849         1754 
 4651000   0.51376323   -7.1371992    989.00787  0.017720344  0.015995552         1875 
 4652000   0.51168544   -7.1409492    988.86975  0.017714061  0.015990259         1890 
 4653000    0.4966483   -7.1186615     988.9767   0.01771217  0.015984967         1868 
 4654000   0.50411451   -7.1489991    989.16833  0.017711795  0.015979671         1801 
 4655000   0.49968292   -7.1184444    989.30424  0.017710423  0.015974378         1817 
 4656000   0.50094556   -7.1400575    987.87662  0.017681068   0.01596909         1804 
 4657000   0.51264805    -7.160209     988.8229  0.017694204  0.015963807         1926 
 4658000   0.50675188   -7.1438409    988.67707  0.017687796   0.01595852         1752 
 4659000   0.50387189   -7.1398121     988.0233  0.017672306  0.015953235         1816 
 4660000   0.51102911   -7.1261856    989.53442  0.017695537  0.015947958         1833 
 4661000   0.50750903   -7.1543061    987.55867  0.017656416  0.015942679         1803 
 4662000   0.50851557   -7.1312601    990.75916  0.017709838  0.015937401         1812 
 4663000   0.50086058   -7.1493848    989.20432  0.017678253  0.015932124         1795 
 4664000   0.51973064   -7.1380861     990.4214  0.017696209  0.015926849         1844 
 4665000   0.48979711   -7.1369507    989.05152  0.017667944  0.015921578         1886 
 4666000   0.50163096     -7.14018     990.5343   0.01769064  0.015916309         1822 
 4667000   0.50930749    -7.152435    990.85138  0.017692511  0.015911039         1836 
 4668000   0.50156323   -7.1470254    988.25437  0.017642359  0.015905775         1886 
 4669000   0.51071285   -7.1336532    989.51028  0.017660996  0.015900517         1850 
 4670000   0.50629813   -7.1489157    987.66981  0.017624372  0.015895251         1880 
 4671000   0.51382068   -7.1318046    989.42093   0.01765184  0.015889994         1851 
 4672000    0.4894473   -7.1430505    987.80737  0.017619281  0.015884737         1868 
 4673000   0.50679708   -7.1550961    990.43551  0.017662378  0.015879475         1869 
 4674000   0.50775466   -7.1525499    985.78686  0.017575718   0.01587422         1947 
 4675000   0.51035085   -7.1384349    989.50481  0.017638232  0.015868969         1852 
 4676000   0.51195571    -7.138847    991.46857  0.017669457  0.015863721         1855 
 4677000   0.50272551   -7.1569735    987.72662  0.017599006  0.015858475         1795 
 4678000   0.49909601   -7.1387773    989.27361  0.017622802  0.015853229         1882 
 4679000   0.51222702    -7.131984     989.9189  0.017630528  0.015847993         1854 
 4680000   0.50957216   -7.1415315    989.29393  0.017615633  0.015842759         1921 
 4681000   0.49763905   -7.1387995    991.16485  0.017645176  0.015837531         1801 
 4682000   0.49241379   -7.1316675     988.4038  0.017592265  0.015832299         1898 
 4683000   0.49483427   -7.1209496    989.46423  0.017607378  0.015827067         1878 
 4684000   0.51319567   -7.1477545    988.04101  0.017578299  0.015821843         1877 
 4685000   0.49706285   -7.1398947    989.28081  0.017596599  0.015816622         1851 
 4686000    0.5109097   -7.1594465    987.99375  0.017569956  0.015811394         1878 
 4687000   0.50879495   -7.1540289    989.51836  0.017593314  0.015806168         1803 
 4688000   0.51384006     -7.16807    988.59069  0.017573071  0.015800942         1895 
 4689000    0.4933945   -7.1453195    990.27314  0.017599224  0.015795722         1862 
 4690000   0.49517301   -7.1486942    988.71185   0.01756773  0.015790509         1864 
 4691000    0.5001967     -7.16123    986.41933   0.01752326  0.015785296         1884 
 4692000   0.50067038   -7.1396769    988.98498  0.017565093  0.015780081         1859 
 4693000   0.49737893   -7.1283446    990.68064   0.01759146  0.015774873         1871 
 4694000   0.50363229   -7.1386704    987.94328  0.017539115  0.015769666         1804 
 4695000   0.50452383   -7.1480127    988.08133   0.01753783  0.015764464         1838 
 4696000   0.48761099    -7.152444    988.99387  0.017550289  0.015759269         1907 
 4697000   0.49608731    -7.153721    988.86289  0.017544228  0.015754072         1866 
 4698000   0.50046249   -7.1428343    988.52528  0.017534505  0.015748877         1889 
 4699000   0.49358983   -7.1552723    989.57135  0.017549325  0.015743685         1913 
 4700000   0.50577801   -7.1602768    988.66087  0.017529448  0.015738485         1925 
 4701000   0.49016275   -7.1494082    989.92318  0.017548096  0.015733294         1851 
 4702000   0.50805542   -7.1283923     988.3876  0.017517149  0.015728107         1965 
 4703000   0.50144481   -7.1519032      987.526  0.017498157  0.015722922         1927 
 4704000   0.50975644   -7.1366136    987.56511   0.01749513  0.015717744         1911 
 4705000   0.49281264   -7.1460987    989.34757  0.017522982   0.01571256         1851 
 4706000   0.50292617   -7.1541484    989.09205  0.017514734  0.015707384         1889 
 4707000   0.49732315   -7.1400376    989.83685  0.017524199  0.015702207         1911 
 4708000   0.49368211   -7.1348497    987.95559  0.017487178  0.015697027         1922 
 4709000   0.50175998   -7.1428107    987.59416  0.017477068  0.015691852         1926 
 4710000   0.50263728   -7.1377929    990.03654   0.01751657  0.015686672         1894 
 4711000   0.50207418    -7.150846    988.46985  0.017485138    0.0156815         1896 
 4712000   0.50295004   -7.1445734    989.56313  0.017500763  0.015676328         1924 
 4713000   0.49327749   -7.1281682    988.98561  0.017486838  0.015671158         1837 
 4714000   0.49320849   -7.1473642    987.46589  0.017456263  0.015665994         1984 
 4715000   0.50448325   -7.1646818    989.29287  0.017484851  0.015660828         1939 
 4716000   0.49122357   -7.1419537    988.45358  0.017466313  0.015655665         1879 
 4717000   0.48919044   -7.1549384    987.30859  0.017442382  0.015650509         1929 
 4718000   0.49902482   -7.1569077    986.77094  0.017429188  0.015645345         1839 
 4719000   0.49456691   -7.1488423    989.30093  0.017470172  0.015640188         1890 
 4720000   0.49169081   -7.1626073    987.36882  0.017432359  0.015635029         1892 
 4721000   0.48955011   -7.1704815    988.93755  0.017456357  0.015629871         1924 
 4722000   0.50607894   -7.1650008    989.91707  0.017469947   0.01562471         1977 
 4723000   0.51160307   -7.1547034    988.67849  0.017444394  0.015619558         1945 
 4724000   0.50594599   -7.1407236    986.98809  0.017410882  0.015614411         1904 
 4725000   0.49944064   -7.1513583    988.37779  0.017431707  0.015609267         1852 
 4726000   0.49748212   -7.1483058     988.8392  0.017436155  0.015604126         1902 
 4727000   0.49861676   -7.1571349    987.92099  0.017416279  0.015598986         1984 
 4728000   0.49419871   -7.1683152    988.03542  0.017414612  0.015593842         1932 
 4729000   0.50273238   -7.1480289    987.83176   0.01740734  0.015588698         1893 
 4730000   0.48845499   -7.1422566    988.55117  0.017416335  0.015583562         1867 
 4731000   0.49916399   -7.1489366    988.33749   0.01740889  0.015578432         1902 
 4732000   0.49121196   -7.1651896    989.59355  0.017427331  0.015573304         1790 
 4733000   0.49574448   -7.1781741    988.41716  0.017402936  0.015568178         1931 
 4734000   0.51021116   -7.1542055    987.36399  0.017380721  0.015563058         1839 
 4735000    0.4956531   -7.1333452     990.1369  0.017425852  0.015557944         1917 
 4736000   0.49733563   -7.1602161    987.73136  0.017379845  0.015552825         1873 
 4737000   0.49186415   -7.1363498    988.41845  0.017388263  0.015547699         1938 
 4738000   0.50012515   -7.1371983    987.98591  0.017376986  0.015542588         1968 
 4739000    0.4892985   -7.1573481    988.91442  0.017389646  0.015537475         1953 
 4740000   0.49442091     -7.13757    988.10564  0.017371759  0.015532367         1877 
 4741000   0.49924199   -7.1643469    989.42846  0.017391346  0.015527249         1889 
 4742000   0.49291709   -7.1650124    987.07729   0.01734636   0.01552214         1931 
 4743000   0.49433803   -7.1637932    986.31109  0.017329241  0.015517026         1894 
 4744000   0.49070645   -7.1512125    987.10296  0.017339498  0.015511921         1932 
 4745000   0.48313986   -7.1524098    986.85331   0.01733146  0.015506817         1919 
 4746000   0.49105651   -7.1619215    988.24084  0.017352171  0.015501718         1920 
 4747000   0.50228904   -7.1506225    988.09204  0.017345903  0.015496617         1909 
 4748000   0.49612245    -7.166319    987.92718  0.017339357  0.015491518         1942 
 4749000   0.50272546   -7.1671515    987.92653  0.017335694   0.01548642         1910 
 4750000   0.49468807     -7.15801    988.65003  0.017344737  0.015481328         1954 
 4751000   0.50608547   -7.1723997    989.27707  0.017352085  0.015476234         1964 
 4752000   0.48905697   -7.1705192    985.58387  0.017283668   0.01547114         1938 
 4753000    0.4918149   -7.1584619    989.33688  0.017345832  0.015466052         1939 
 4754000   0.48988421   -7.1589628    988.56746  0.017328696  0.015460961         1954 
 4755000   0.48965745    -7.166325    988.69301  0.017327252  0.015455877         1881 
 4756000   0.49232307   -7.1495183     987.7652  0.017307352  0.015450798         1893 
 4757000   0.48815839    -7.174536    985.49859  0.017264007   0.01544572         2085 
 4758000    0.4977797   -7.1619479    986.56154  0.017278996  0.015440638         2015 
 4759000   0.48178991   -7.1586058      987.012  0.017283253   0.01543556         1962 
 4760000   0.48552308   -7.1778436    986.40024  0.017268912   0.01543049         1911 
 4761000   0.48617541   -7.1784349    988.28438  0.017298263  0.015425419         1880 
 4762000   0.49012884   -7.1727565    987.45871  0.017280182  0.015420357         1917 
 4763000   0.48927313   -7.1771911    987.06519  0.017269669  0.015415298         1900 
 4764000   0.48887787   -7.1757865    989.73511  0.017312747  0.015410235         1901 
 4765000   0.48664935   -7.1483965    987.14154  0.017263755  0.015405171         1838 
 4766000   0.49027848   -7.1573236    987.52557  0.017266848  0.015400111         1861 
 4767000   0.49041299   -7.1638739    987.17491  0.017257096  0.015395051         1819 
 4768000   0.49584493   -7.1527261    988.08299  0.017269348  0.015389996         1867 
 4769000   0.48808964   -7.1540651     988.7622  0.017277595  0.015384944         1923 
 4770000   0.49382405    -7.158206    988.33581  0.017266524  0.015379894         1891 
 4771000   0.49056262   -7.1647589    987.98545  0.017256785  0.015374845         1965 
 4772000   0.48832609   -7.1697551    989.04396  0.017271653  0.015369794         1933 
 4773000    0.4878213   -7.1766204    986.61908  0.017225698   0.01536475         1899 
 4774000   0.48153362   -7.1796989    986.13147  0.017213578  0.015359705         1929 
 4775000    0.4899537   -7.1851707    988.17595  0.017245654  0.015354655         1935 
 4776000   0.48155824   -7.1648008    988.52184  0.017248078  0.015349618         1968 
 4777000   0.48510891   -7.1657797    989.02783  0.017253294  0.015344576         1914 
 4778000   0.48604602   -7.1550158    988.72443  0.017244391  0.015339534         1848 
 4779000   0.49575358   -7.1714345    987.17082  0.017213692  0.015334497         1954 
 4780000   0.48012916   -7.1866046    984.20645  0.017158411  0.015329454         1877 
 4781000   0.48601358   -7.1679885    985.63838  0.017179781  0.015324424         1997 
 4782000    0.4859651   -7.1687932    987.83918   0.01721454  0.015319384         1959 
 4783000    0.4915247   -7.1786184     985.3665   0.01716786  0.015314356         1987 
 4784000   0.48670447   -7.1639668    988.60224  0.017220636  0.015309326         1979 
 4785000   0.49396174   -7.1609323    987.55092  0.017198727  0.015304295         1911 
 4786000    0.4703098   -7.1778101    986.69986  0.017180315  0.015299266         1885 
 4787000   0.49338514   -7.1621179    987.14029  0.017184393  0.015294239         1994 
 4788000   0.48384948   -7.1610781    988.17598   0.01719883   0.01528922         1868 
 4789000   0.48661388   -7.1551191    988.72531  0.017204798  0.015284207         1883 
 4790000    0.4821909   -7.1828728    987.35705  0.017177402  0.015279194         1823 
 4791000   0.47758584   -7.1705142    987.80794  0.017181659   0.01527418         1890 
 4792000   0.49391444   -7.1632767    986.97666  0.017163618  0.015269177         1938 
 4793000   0.48917498   -7.1614723    986.99397  0.017160337  0.015264171         1932 
 4794000   0.49199805   -7.1726126    987.54473  0.017166332  0.015259163         1988 
 4795000   0.48676802   -7.1774521    987.40614  0.017160343  0.015254157         1924 
 4796000   0.48602275   -7.1759248     989.3388  0.017190346   0.01524916         1946 
 4797000   0.48274386   -7.1491943    987.86845   0.01716122   0.01524416         1912 
 4798000   0.50712285   -7.1707592    987.25805  0.017147041  0.015239161         1967 
 4799000   0.47583771   -7.1879924    987.54581  0.017148465   0.01523416         1980 
 4800000   0.48297552   -7.1688907    988.58512  0.017162936  0.015229165         2005 
 4801000   0.48451438   -7.1622059     985.5595  0.017106844  0.015224175         1987 
 4802000   0.48327957   -7.1720246     988.4647  0.017153698  0.015219181         1956 
 4803000   0.48132845   -7.1761834    988.05593  0.017143034  0.015214196         1905 
 4804000   0.48734215   -7.1728625    988.38262  0.017145133  0.015209206         1904 
 4805000    0.4875371   -7.1763706     985.1684   0.01708582  0.015204224         1964 
 4806000   0.47266425    -7.167287    986.23653  0.017100786  0.015199238         1926 
 4807000   0.48493427   -7.1808173    988.25754  0.017132264   0.01519426         1886 
 4808000   0.48148525   -7.1865155    987.80518  0.017120861  0.015189281         1950 
 4809000   0.48773874   -7.1736971    987.65096  0.017114628    0.0151843         1879 
 4810000   0.48059348   -7.1686185     987.4145  0.017106973  0.015179324         1978 
 4811000   0.47453689   -7.1934792    986.50129  0.017087599  0.015174348         2025 
 4812000   0.47939207   -7.1911151    986.71384  0.017087729   0.01516938         1981 
 4813000   0.49327574    -7.181413    986.24579  0.017076075  0.015164409         1987 
 4814000   0.48749877   -7.1829532    987.48345  0.017093953  0.015159442         1865 
 4815000   0.48219575   -7.1873842      987.105  0.017083853  0.015154475         1918 
 4816000    0.4810718   -7.1936124    985.86841  0.017058908   0.01514951         1955 
 4817000   0.48204643   -7.1841323    986.49236  0.017066161  0.015144543         1951 
 4818000   0.48344645    -7.189066    984.47655  0.017027753  0.015139584         2004 
 4819000   0.48457673   -7.1840139     986.2746  0.017055312  0.015134619         1974 
 4820000   0.48253053   -7.1781375    984.13301  0.017014748  0.015129655         1975 
 4821000   0.47924122    -7.193075    987.47159  0.017068927  0.015124696         1946 
 4822000   0.48383152   -7.1798377    987.22294   0.01706109  0.015119738         2032 
 4823000   0.48338299   -7.1820453     985.3445  0.017025097  0.015114784         1997 
 4824000   0.47758048   -7.1739708    987.03218  0.017050722  0.015109831         1933 
 4825000   0.48192739   -7.2064312    985.89645  0.017027573  0.015104877         1956 
 4826000    0.4870518   -7.1914769    986.30837  0.017031157  0.015099923         1920 
 4827000   0.47495223    -7.195523    987.02975  0.017040083  0.015094978         1928 
 4828000   0.47462269   -7.1941841    986.74187  0.017031584   0.01509003         1951 
 4829000   0.47473571   -7.1903739    985.25353  0.017002373  0.015085087         1959 
 4830000   0.48482566   -7.1845547     986.4555  0.017019591  0.015080147         1899 
 4831000   0.48046868   -7.1963502    986.52646  0.017017292  0.015075214         1942 
 4832000   0.48808249   -7.1899263    984.64409  0.016981307  0.015070278         1952 
 4833000   0.47524047   -7.1862337    987.65143  0.017029647   0.01506534         1983 
 4834000   0.48102935   -7.1919341    988.04277  0.017032871  0.015060407         1981 
 4835000   0.47452557   -7.1842285    986.57958  0.017004129  0.015055477         1916 
 4836000   0.47189406   -7.1949662    986.74593   0.01700348  0.015050548         1983 
 4837000   0.48092494   -7.1921244    986.30158  0.016992309  0.015045619         2019 
 4838000   0.47982508   -7.1959346    986.48525   0.01699196  0.015040694         1957 
 4839000   0.48178579   -7.1934075     986.1471  0.016982626  0.015035769         1955 
 4840000   0.47115159   -7.1869664    986.32997  0.016982265  0.015030846         1988 
 4841000   0.48403254   -7.1745386    987.17389  0.016993285  0.015025923         2007 
 4842000   0.48949224    -7.194168    986.65641  0.016980869  0.015021005         2047 
 4843000   0.47761862   -7.1988669    987.13417  0.016985584  0.015016089         2021 
 4844000   0.48316134   -7.2027377    985.15721  0.016948067  0.015011178         2074 
 4845000   0.47252223   -7.2004806    984.80017  0.016938427  0.015006268         1972 
 4846000   0.48492279   -7.1730679    985.65463  0.016949626  0.015001358         1980 
 4847000   0.48109875   -7.2023843    986.90556  0.016967636  0.014996451         2024 
 4848000   0.47010835   -7.1942994    984.16598  0.016917045  0.014991547         1946 
 4849000   0.47292666   -7.1964372    987.05855  0.016963267  0.014986643         2007 
 4850000   0.47762196   -7.1954728    987.09341  0.016960368  0.014981741         1932 
 4851000   0.48113502   -7.2022335    984.75392  0.016916682  0.014976847         2036 
 4852000   0.48143751    -7.182087     987.6625  0.016963151   0.01497195         1980 
 4853000   0.48197112   -7.1902136    984.58118  0.016906745  0.014967054         2107 
 4854000   0.47268025   -7.2059406    987.04829  0.016945617  0.014962157         2051 
 4855000   0.47790834   -7.1916086    986.41777  0.016931304  0.014957261         2022 
 4856000   0.47911216   -7.1950137    985.81058  0.016917397  0.014952368         2071 
 4857000    0.4629609   -7.1935587    986.62044  0.016927809  0.014947486         1968 
 4858000   0.47236037   -7.2022162    986.65162   0.01692486  0.014942601         2001 
 4859000   0.48005378   -7.1892644    984.60661  0.016886304  0.014937717         2095 
 4860000   0.47408958    -7.193606    987.21386  0.016927535  0.014932838         2024 
 4861000   0.47764245   -7.2041002    987.39593  0.016927174  0.014927961         1974 
 4862000   0.48736507   -7.1900358    986.16841  0.016902653  0.014923088         1911 
 4863000   0.47179103   -7.1953972    987.32599  0.016919014  0.014918215         1979 
 4864000   0.48070396   -7.2078617    985.78201  0.016889083  0.014913344         2044 
 4865000   0.47343094   -7.1908692      985.521  0.016881141  0.014908477         2040 
 4866000    0.4639158   -7.1999258    986.83088  0.016900104  0.014903608         1976 
 4867000   0.47433684   -7.2085477    988.19184  0.016919934  0.014898737         2024 
 4868000   0.46483333    -7.195427    984.57715   0.01685458  0.014893867         1970 
 4869000   0.46773618   -7.1895865    987.36275  0.016898794     0.014889         2017 
 4870000   0.45751028   -7.1984846    985.70437  0.016866947  0.014884135         2013 
 4871000    0.4667965   -7.2040288    985.02795  0.016851912  0.014879268         2039 
 4872000    0.4821058   -7.1973699    986.42163  0.016872291  0.014874405         2022 
 4873000   0.47839539   -7.1911138    986.54367  0.016870916  0.014869547         2135 
 4874000   0.46795154   -7.2134386    985.02597  0.016841506  0.014864687         2013 
 4875000   0.47259341   -7.2133932    984.79076   0.01683403  0.014859833         1976 
 4876000   0.47084278   -7.2005451    985.36809  0.016840445  0.014854984         2035 
 4877000   0.46459762   -7.1932338    985.45832  0.016838533  0.014850133         2041 
 4878000   0.47151009   -7.1845933    985.72742  0.016839679  0.014845283         1986 
 4879000   0.47361169   -7.2140583    987.19191   0.01686124  0.014840438         1994 
 4880000   0.48370479   -7.1965405    986.31394  0.016842793  0.014835584         2002 
 4881000   0.47670842    -7.209164    983.94711  0.016798933  0.014830742         2012 
 4882000   0.46684768    -7.186556    983.89306   0.01679457  0.014825895         1977 
 4883000   0.46744243   -7.2090073     987.5426  0.016853413  0.014821056         2068 
 4884000   0.45879796   -7.2104056    985.29008  0.016811529  0.014816217         2052 
 4885000   0.46353982   -7.1930317    985.07737  0.016804459  0.014811379         2007 
 4886000   0.46314859   -7.2051985     986.2361  0.016820782  0.014806547         2127 
 4887000   0.48013056   -7.2003064    984.76225  0.016792208  0.014801713         2094 
 4888000    0.4574462   -7.1944563    986.21572  0.016813552  0.014796883         1998 
 4889000   0.47146433   -7.2065923    986.19034  0.016809681  0.014792051         2035 
 4890000   0.46466066   -7.1908327    986.67521  0.016814506  0.014787224         2067 
 4891000   0.46529453   -7.2093242    986.61665   0.01681007  0.014782399         2086 
 4892000   0.46820225   -7.1995883    985.80975  0.016792889  0.014777574         2072 
 4893000   0.46913522   -7.1975813    985.84536  0.016790063  0.014772751         2089 
 4894000   0.47640163   -7.2023637    984.47939  0.016763373  0.014767935         1998 
 4895000   0.46671422   -7.2106562    986.20059  0.016789251  0.014763125         2094 
 4896000   0.47129951   -7.1986155    985.88972   0.01678053  0.014758308         1948 
 4897000   0.46985595   -7.2054174    984.41044   0.01675193  0.014753491         2116 
 4898000    0.4670293   -7.2067116     985.7142  0.016770692  0.014748681         2044 
 4899000   0.46819315   -7.1979803     985.3966  0.016761866  0.014743872         2007 
 4900000   0.47508014   -7.2068374    985.91588  0.016767277  0.014739062         2060 
 4901000   0.46718896   -7.1892124    985.92268  0.016763971  0.014734254         2043 
 4902000   0.46751385    -7.197396    983.80275  0.016724513  0.014729451         2020 
 4903000   0.47317959   -7.2170151    984.85892  0.016739053  0.014724647         2094 
 4904000   0.47141086   -7.1991739    986.35017   0.01676098  0.014719852         2036 
 4905000   0.46720372   -7.1961588     984.2054  0.016721125  0.014715056         2065 
 4906000    0.4634625   -7.2113161     984.0991  0.016715911  0.014710256         2123 
 4907000   0.46230268    -7.189258    983.55494  0.016703263   0.01470546         2128 
 4908000    0.4511589   -7.2122412    986.45518  0.016749103  0.014700663         2067 
 4909000    0.4660264   -7.2168397     985.1455  0.016723459  0.014695873         2018 
 4910000   0.47296259   -7.2101194     984.1369  0.016702934  0.014691084         2043 
 4911000   0.46017612    -7.229838    986.10268   0.01673289  0.014686293         2057 
 4912000    0.4689746    -7.208702    984.88798  0.016708876  0.014681506         2006 
 4913000   0.47229595   -7.2071915    985.03396  0.016707951  0.014676718         2015 
 4914000   0.47099888   -7.2253203    985.06953  0.016705154  0.014671933         2048 
 4915000   0.45814547   -7.2029493    985.76458   0.01671354   0.01466715         2078 
 4916000   0.46557536   -7.1998784    984.30728  0.016685437   0.01466237         2067 
 4917000   0.46813866   -7.2184035    985.09488  0.016695392  0.014657595         2062 
 4918000    0.4792345   -7.2170781    985.13278  0.016692639  0.014652818         2046 
 4919000   0.45014501   -7.1924872    986.47715  0.016712021  0.014648046         2058 
 4920000   0.46547114   -7.2011021    985.29532  0.016688606  0.014643276         2055 
 4921000   0.46415683   -7.2181451    985.71078  0.016692251  0.014638507         2091 
 4922000   0.46755162   -7.2156403    983.83969   0.01665718  0.014633746         2013 
 4923000   0.46338457   -7.2161824    986.93623  0.016706213   0.01462898         2066 
 4924000   0.46650504   -7.2157841    984.67414  0.016664537  0.014624218         2085 
 4925000   0.45478467   -7.2125721    983.61133   0.01664317  0.014619459         1969 
 4926000   0.46124215   -7.2120781    984.79072  0.016659743  0.014614697         1993 
 4927000   0.46019015    -7.203949    984.59545  0.016653059  0.014609942         1993 
 4928000   0.45862696   -7.2043448    984.72728  0.016651909  0.014605187         2029 
 4929000   0.45641861   -7.2104342    983.92913  0.016635036  0.014600428         1996 
 4930000   0.45568156    -7.204605    983.92137  0.016631531  0.014595676         1973 
 4931000   0.45868312    -7.209408    986.66453  0.016674517  0.014590925         2002 
 4932000   0.47021873   -7.2229364    984.85032  0.016640483  0.014586172         2028 
 4933000   0.45583157   -7.2135826    984.44564  0.016630273  0.014581427         2011 
 4934000   0.45460667   -7.1978168    985.09095  0.016637801  0.014576686         2049 
 4935000   0.45853978   -7.2028264    985.05953  0.016633899  0.014571945         2060 
 4936000    0.4710316   -7.2061393    984.99537  0.016629446  0.014567206         2074 
 4937000   0.46958789   -7.2086902    985.63536  0.016636881  0.014562471         2065 
 4938000    0.4555724    -7.219549    982.52281  0.016580984  0.014557736         2152 
 4939000   0.45929489   -7.1997043    984.60991  0.016612842  0.014552999         2048 
 4940000   0.46618188   -7.2118069    984.19976   0.01660256   0.01454827         2052 
 4941000   0.47671973   -7.2124098    985.66168  0.016623856  0.014543534         2055 
 4942000    0.4704679   -7.2016319    984.35457  0.016598452  0.014538806         2027 
 4943000   0.45907894   -7.2008276    986.19214  0.016626073  0.014534081         2030 
 4944000   0.45880567   -7.2120246    985.07228  0.016603834  0.014529363         2041 
 4945000   0.46978188    -7.217162    984.46871  0.016590305   0.01452464         2057 
 4946000   0.47167608   -7.2172402     986.6086  0.016623005  0.014519921         2041 
 4947000   0.45676225   -7.2332284    984.78969  0.016589005  0.014515199         2066 
 4948000   0.46603215   -7.2206724    983.43403  0.016562821  0.014510482         2084 
 4949000   0.45676361   -7.2053489     984.8954  0.016584081  0.014505764         2063 
 4950000   0.46254795   -7.2301793    983.53548  0.016557836  0.014501047         2060 
 4951000   0.46210085   -7.2198664     985.6436  0.016589975  0.014496336         2047 
 4952000   0.46255848   -7.2133814    985.51048  0.016584385  0.014491624         2020 
 4953000   0.45989661   -7.2155769    984.19715   0.01655894  0.014486914         2048 
 4954000   0.45644919    -7.208138    985.60252  0.016579238  0.014482206         2109 
 4955000   0.46588137   -7.2269486    984.50682  0.016557464  0.014477501         2129 
 4956000     0.450113   -7.2102452    984.50083  0.016554023  0.014472795         2071 
 4957000   0.46673209   -7.2314745    984.20973  0.016545789  0.014468091         2099 
 4958000   0.45578946   -7.2179022    986.59181   0.01658249  0.014463389         2120 
 4959000   0.44953134   -7.2115666    984.18397  0.016538683  0.014458693         2063 
 4960000   0.45348124   -7.2201472    983.60563  0.016525632  0.014454004         2076 
 4961000   0.45970109   -7.2162621    987.32608  0.016584796  0.014449314         2054 
 4962000   0.45723746   -7.2235471    984.23208  0.016529492  0.014444623         2015 
 4963000   0.45829285   -7.2051468     985.6374  0.016549758  0.014439938         2094 
 4964000   0.45265654   -7.2236746    985.79132  0.016549008  0.014435254         2118 
 4965000   0.46117738   -7.2259433     983.9986  0.016515586  0.014430572         2064 
 4966000   0.46240031   -7.2181101    985.20255  0.016532463  0.014425889         2100 
 4967000   0.47020882     -7.20236    984.17812  0.016511947  0.014421208         2116 
 4968000   0.45710131   -7.2100764    984.45281  0.016513232   0.01441653         2021 
 4969000   0.45141175   -7.2106957    984.46577  0.016510126  0.014411853         2032 
 4970000   0.46255443   -7.2121664    986.31761  0.016537854  0.014407181         2069 
 4971000   0.45472074   -7.2281662    984.51088  0.016504239  0.014402505         2152 
 4972000   0.44937719   -7.2154887    985.61378  0.016519405  0.014397833         1986 
 4973000   0.44709561   -7.2096351     984.3021  0.016494103  0.014393165         2065 
 4974000   0.44496046   -7.2178101    985.26163  0.016506863  0.014388494         2077 
 4975000   0.45955141   -7.2089908    985.36034  0.016505198  0.014383829         2084 
 4976000   0.44149614   -7.2119501    984.41064  0.016485977  0.014379163         2142 
 4977000   0.44800742   -7.2067403    984.84611  0.016489956  0.014374506         2108 
 4978000   0.45469306    -7.220999    985.77311  0.016502161  0.014369844         2214 
 4979000   0.46162758    -7.216705     985.8695   0.01650046  0.014365187         2119 
 4980000   0.46691805   -7.2175994    984.05745  0.016466825  0.014360534         2090 
 4981000   0.45172705    -7.225683    985.57647  0.016488933  0.014355876         2155 
 4982000   0.47049878   -7.2159463    985.37823  0.016482307  0.014351223         2078 
 4983000   0.45595434   -7.2082302    984.44944  0.016463467   0.01434657         2107 
 4984000   0.45854923   -7.2075222    985.18783  0.016472509  0.014341925         2119 
 4985000   0.44896428   -7.2376084    984.68211  0.016460751  0.014337279         2152 
 4986000   0.46256379   -7.2081715    982.94787  0.016428464  0.014332632         2008 
 4987000   0.46194295   -7.2371161    983.26636  0.016430492  0.014327983         2134 
 4988000    0.4512227   -7.2248435    983.64726  0.016433562   0.01432334         2123 
 4989000   0.45697189   -7.2271551    984.32851  0.016441647  0.014318696         2121 
 4990000   0.44798308    -7.225849     983.3407  0.016421855  0.014314056         2153 
 4991000    0.4537304   -7.2280373    983.87486  0.016427484  0.014309418         2069 
 4992000   0.45824685   -7.2221445    983.61953  0.016419931  0.014304784         2088 
 4993000   0.45099509   -7.2135056    983.80708  0.016419772  0.014300152         2128 
 4994000   0.45325668   -7.2180578     983.9415  0.016418728  0.014295519         2150 
 4995000    0.4482364   -7.2312115    984.71383  0.016428325  0.014290893         2059 
 4996000    0.4631216   -7.2274055    985.06822  0.016430948  0.014286265         2061 
 4997000   0.44803769   -7.2397375    984.17056   0.01641269  0.014281635         2072 
 4998000    0.4611831    -7.237878    983.43122  0.016397079  0.014277008         2189 
 4999000   0.44567917   -7.2338125    983.15056  0.016389121  0.014272382         2223 
 5000000   0.44716182   -7.2203038    982.28736  0.016371456  0.014267759         2149 
 5001000     0.455139   -7.2386066    984.93036  0.016412224  0.014263135         2179 
 5002000   0.44947948   -7.2280932    982.65232   0.01637099  0.014258517         2125 
 5003000   0.44051784   -7.2239107    983.90389  0.016388565  0.014253896         2148 
 5004000   0.45173386   -7.2185469    984.41046  0.016393726   0.01424928         2078 
 5005000    0.4440425   -7.2274821    983.56191  0.016376322  0.014244665         2155 
 5006000    0.4593115   -7.2167865    986.23703  0.016417583  0.014240051         2159 
 5007000   0.45103832   -7.2368265    983.88212   0.01637511  0.014235442         2121 
 5008000   0.44822401   -7.2220607    984.27004  0.016378295  0.014230834         2193 
 5009000   0.45755235   -7.2333381    984.02766  0.016370993  0.014226223         2178 
 5010000   0.45237634   -7.2319418    982.93903  0.016349618  0.014221614         2213 
 5011000   0.44580983   -7.2316906    984.53367  0.016372874  0.014217016         2256 
 5012000   0.45027425   -7.2385972    983.05006   0.01634494  0.014212417         2212 
Loop time of 13019 on 48 procs for 5000000 steps with 4000 atoms

Performance: 66364.575 tau/day, 384.054 timesteps/s
99.4% CPU use with 48 MPI tasks x no OpenMP threads

MPI task timing breakdown:
Section |  min time  |  avg time  |  max time  |%varavg| %total
---------------------------------------------------------------
Pair    | 956.03     | 1026.5     | 1104.3     | 108.1 |  7.88
Neigh   | 90.031     | 93.102     | 96.436     |  17.6 |  0.72
Comm    | 830.48     | 907.42     | 979.75     | 120.2 |  6.97
Output  | 16.124     | 16.128     | 16.229     |   0.4 |  0.12
Modify  | 10816      | 10853      | 10893      |  18.8 | 83.36
Other   |            | 122.8      |            |       |  0.94

Nlocal:        83.3333 ave          91 max          77 min
Histogram: 1 3 10 7 5 11 2 5 2 2
Nghost:        2402.44 ave        2416 max        2385 min
Histogram: 2 1 5 6 7 3 8 6 6 4
Neighs:        16704.9 ave       18998 max       14045 min
Histogram: 2 6 3 3 7 4 9 5 5 4
FullNghs:      33407.4 ave       36480 max       30658 min
Histogram: 1 3 8 8 9 6 5 3 2 3

Total # of neighbors = 1603556
Ave neighs/atom = 400.88900
Neighbor list builds = 267655
Dangerous builds = 0

#clear
#
#next RN
#
#jump SELF
Total wall time: 3:37:02
