
units lj                  # Use reduced LJ style units
atom_style atomic         # Uncharged point particles
atom_modify map hash      # Needed for indexing of clusters etc
                          # Used to be able to find where atoms are in relation to each other.

lattice fcc 1.0 spacing 1 1 1
Lattice spacing in x,y,z = 1.5874011 1.5874011 1.5874011
region box block 0 10 0 10 0 10 units lattice
create_box 2 box
Created orthogonal box = (0.0000000 0.0000000 0.0000000) to (15.874011 15.874011 15.874011)
  3 by 4 by 4 MPI processor grid
create_atoms 1 box
Created 4000 atoms
  using lattice units in orthogonal box = (0.0000000 0.0000000 0.0000000) to (15.874011 15.874011 15.874011)
  create_atoms CPU = 0.002 seconds
set type 1 type/fraction 2 0.13 78393
Setting atom values ...
  541 settings made for type/fraction
mass 1 1.0
mass 2 1.0
pair_style lj/cut  3.5
pair_modify tail  yes
pair_coeff 1  1  1.0  1.0   # Intearaction between 1 and 1 set with epsilon = 1 and sigma = 1
pair_coeff 1  2  1.5  0.8
pair_coeff 2  2  0.5  0.88

write_data data.0
System init for write_data ...
Neighbor list info ...
  update every 1 steps, delay 10 steps, check yes
  max neighbors/atom: 2000, page size: 100000
  master list distance cutoff = 3.8
  ghost atom cutoff = 3.8
  binsize = 1.9, bins = 9 9 9
  1 neighbor lists, perpetual/occasional/extra = 1 0 0
  (1) pair lj/cut, perpetual
      attributes: half, newton on
      pair build: half/bin/atomonly/newton
      stencil: half/bin/3d
      bin: standard
WARNING: Not all mixed pair coeffs generated from mixing. Use write_data with 'pair ij' option to store all pair coeffs. (../write_data.cpp:312)


#############################
#   M E L T   S Y S T E M   #
#############################

velocity all create 2.4 9580093 mom yes dist gaussian # Assign velocities
                                                    # Temperature 2.4, random number seed, zero linear momentum
                                                                                # Gaussian distribution

timestep 0.002   # simulation timestep
thermo 1000       # output thermodynamic data every 1000 steps bf 100

# Define a fix  in this case with index 1 applied to all
# particles in the simulation. This fix is for simulations
# in the anisotropic NPT ensemble. Note that we use the MTK
# correction.
fix 1 all npt temp 2.4 2.4 0.1 iso 5.68 5.68 0.5 mtk yes tchain 5 pchain 5 # Use NPT ensemble
                                                                         # Set temperature and pressure and damping
                                                                         # Numbers of thermostats in chain and in barostat
run 10000          # run for 10000 steps
Per MPI rank memory allocation (min/avg/max) = 3.642 | 3.644 | 3.648 Mbytes
Step Temp E_pair E_mol TotEng Press Volume 
       0          2.4     -7.50335            0     -3.90425   -3.2182506         4000 
    1000    2.3598083   -4.6720633            0   -1.1332357    5.7495456    4713.3881 
    2000    2.3617354   -4.6938946            0   -1.1521771    5.2624806    4771.3252 
    3000    2.4124406   -4.6638446            0   -1.0460884    5.6756181     4741.358 
    4000    2.4378448   -4.6688129            0   -1.0129599    5.6474836    4739.0429 
    5000    2.3760118   -4.6079816            0   -1.0448549    5.8771061     4750.925 
    6000    2.3712569   -4.6951227            0   -1.1391265     5.518027     4734.465 
    7000    2.3823181   -4.6666857            0    -1.094102    5.5638634    4748.0617 
    8000    2.3905671   -4.6627962            0    -1.077842    5.4984257    4754.5031 
    9000    2.3855297   -4.6586385            0   -1.0812386    5.5942979    4753.8548 
   10000    2.4385031   -4.6597087            0   -1.0028685    5.8093744    4735.6232 
Loop time of 2.20878 on 48 procs for 10000 steps with 4000 atoms

Performance: 782333.686 tau/day, 4527.394 timesteps/s
99.6% CPU use with 48 MPI tasks x no OpenMP threads

MPI task timing breakdown:
Section |  min time  |  avg time  |  max time  |%varavg| %total
---------------------------------------------------------------
Pair    | 0.90521    | 0.9765     | 1.0572     |   3.7 | 44.21
Neigh   | 0.19404    | 0.19995    | 0.22003    |   1.3 |  9.05
Comm    | 0.6814     | 0.77796    | 0.85606    |   4.5 | 35.22
Output  | 0.00023891 | 0.00024312 | 0.00030168 |   0.0 |  0.01
Modify  | 0.1994     | 0.23973    | 0.29389    |   4.2 | 10.85
Other   |            | 0.0144     |            |       |  0.65

Nlocal:        83.3333 ave          93 max          75 min
Histogram: 1 2 10 7 5 10 7 4 1 1
Nghost:        1467.00 ave        1494 max        1431 min
Histogram: 2 0 5 4 8 6 7 10 3 3
Neighs:        8049.62 ave        9026 max        7094 min
Histogram: 2 1 5 9 10 5 6 6 3 1

Total # of neighbors = 386382
Ave neighs/atom = 96.595500
Neighbor list builds = 907
Dangerous builds = 220

# Equilibrate just above the melting temperature to avoid step fn in T

fix 1 all npt temp 1.25 1.25 0.1 iso 5.68 5.68 0.5 mtk yes tchain 5 pchain 5
run 2000
Per MPI rank memory allocation (min/avg/max) = 3.642 | 3.644 | 3.648 Mbytes
Step Temp E_pair E_mol TotEng Press Volume 
   10000    2.4385031   -4.6597087            0   -1.0028685    5.8093744    4735.6232 
   11000    1.2557167    -6.296492            0   -4.4133878    5.8108783    3877.7634 
   12000    1.2677044   -6.2917563            0   -4.3906752    5.6557153    3889.8733 
Loop time of 0.471981 on 48 procs for 2000 steps with 4000 atoms

Performance: 732232.836 tau/day, 4237.459 timesteps/s
99.7% CPU use with 48 MPI tasks x no OpenMP threads

MPI task timing breakdown:
Section |  min time  |  avg time  |  max time  |%varavg| %total
---------------------------------------------------------------
Pair    | 0.20624    | 0.22644    | 0.247      |   2.0 | 47.98
Neigh   | 0.031756   | 0.033271   | 0.035909   |   0.5 |  7.05
Comm    | 0.12987    | 0.15933    | 0.18228    |   2.8 | 33.76
Output  | 4.7013e-05 | 4.8278e-05 | 6.1359e-05 |   0.0 |  0.01
Modify  | 0.042968   | 0.048677   | 0.061473   |   2.1 | 10.31
Other   |            | 0.004222   |            |       |  0.89

Nlocal:        83.3333 ave          92 max          77 min
Histogram: 3 4 7 7 8 8 6 2 1 2
Nghost:        1675.60 ave        1712 max        1644 min
Histogram: 3 0 9 3 13 9 6 3 1 1
Neighs:        9808.71 ave       11144 max        8974 min
Histogram: 6 7 2 10 11 5 1 3 2 1

Total # of neighbors = 470818
Ave neighs/atom = 117.70450
Neighbor list builds = 143
Dangerous builds = 10

#############################
# L I N E A R  Q U E N C H  #
#############################

# Define solid atoms. This closely follows ten Wolde  Ruiz-Montero and Frenkel  Faraday Discuss  1996  104  93-110
# Compute components of the per-atom q6 vector
compute q6 all orientorder/atom degrees 1 6 components 6 nnn NULL cutoff 1.3 # compute the Q6 parameter.
                                                                             # Use all neighbours within 1.3 unit cell.

# get number of connections
compute coord_number all coord/atom orientorder q6 0.5

# An atom is solid if it has 8 or more connections (of a possible 14)
variable is_solid atom c_coord_number>=8
group solid dynamic all var is_solid    # Must be dynamic to update
dynamic group solid defined

# do clustering
compute cluster solid cluster/atom 1.3 # Create a cluster where all atoms within are solid and max 1.3 units from another member

# define chunks one chunk per cluster
compute clus_chunks solid chunk/atom c_cluster nchunk every compress yes  # Says which atoms are in which chunk

# count the size of each chunk
compute size_chunks solid property/chunk clus_chunks count


# Find the maximum entry in the vector of chunk sizes
variable max_n equal max(c_size_chunks)


# Thermo style which includes this variable
# thermo_style custom step temp pe vol v_max_n

thermo ${N}  # Print the thermo information every 100 steps
thermo 1000  

# Reset the npt fix at a lower temperature (below freezing)
fix 1  all npt temp  ${temp} ${temp}  0.1  iso  5.68  5.68  0.5  mtk yes tchain  5  pchain  5
fix 1  all npt temp  0.45 ${temp}  0.1  iso  5.68  5.68  0.5  mtk yes tchain  5  pchain  5
fix 1  all npt temp  0.45 0.45  0.1  iso  5.68  5.68  0.5  mtk yes tchain  5  pchain  5

dump dmp2 all dcd ${N} traj.dcd
dump dmp2 all dcd 1000 traj.dcd


compute msd all msd com yes
variable twopoint equal c_msd[4]/6/(step*dt+1.0e-6)
fix 9 all vector 10 c_msd[4]
variable fit equal slope(f_9)/6/(10*dt)
thermo_style custom step temp pe c_msd[4] v_twopoint v_fit v_max_n

fix 1 all npt temp 1.25 ${temp} 0.1 iso 5.68 5.68 0.5 mtk yes tchain 5 pchain 5
fix 1 all npt temp 1.25 0.45 0.1 iso 5.68 5.68 0.5 mtk yes tchain 5 pchain 5
run 2000000 # 5000000  # Run for this many steps
Neighbor list info ...
  update every 1 steps, delay 10 steps, check yes
  max neighbors/atom: 2000, page size: 100000
  master list distance cutoff = 3.8
  ghost atom cutoff = 3.8
  binsize = 1.9, bins = 9 9 9
  4 neighbor lists, perpetual/occasional/extra = 1 3 0
  (1) pair lj/cut, perpetual
      attributes: half, newton on
      pair build: half/bin/atomonly/newton
      stencil: half/bin/3d
      bin: standard
  (2) compute orientorder/atom, occasional
      attributes: full, newton on
      pair build: full/bin/atomonly
      stencil: full/bin/3d
      bin: standard
  (3) compute coord/atom, occasional
      attributes: full, newton on
      pair build: full/bin/atomonly
      stencil: full/bin/3d
      bin: standard
  (4) compute cluster/atom, occasional
      attributes: full, newton on
      pair build: full/bin/atomonly
      stencil: full/bin/3d
      bin: standard
Per MPI rank memory allocation (min/avg/max) = 9.755 | 9.762 | 9.768 Mbytes
Step Temp PotEng c_msd[4] v_twopoint v_fit v_max_n 
   12000    1.2677044   -6.2917563 7.8886091e-34 5.4782005e-36 8.3333333e+20            3 
   13000    1.2110609   -6.2898739   0.54816211 0.0035138596  0.045699278            5 
   14000    1.2538442   -6.3360906    1.0673435 0.0063532347  0.044167254            2 
   15000    1.2621241   -6.3431062    1.5941701 0.0088565003  0.043425959            4 
   16000    1.2416796   -6.3062566    2.1853753  0.011382163  0.044377883            2 
   17000     1.269821   -6.3294211    2.7205453  0.013336006  0.044907653            4 
   18000    1.2277269   -6.3265967    3.1974654   0.01480308  0.044940252            1 
   19000    1.2572595   -6.3108531    3.7511855  0.016452568   0.04457837            3 
   20000    1.2643909   -6.3291012    4.2667488   0.01777812  0.044560453            3 
   21000    1.2466865   -6.3133343    4.7795426  0.018966438  0.044401243            4 
   22000    1.2531799   -6.3500908     5.351791  0.020271935  0.044326998            1 
   23000     1.242064   -6.3119826    5.9014913  0.021382214   0.04445797            1 
   24000    1.2573807   -6.2921162    6.4363674  0.022348497  0.044362399            2 
   25000    1.2819936   -6.3335601    6.9589989  0.023196663  0.044440538            4 
   26000      1.23961   -6.3728337    7.5285225  0.024129879  0.044562484            3 
   27000     1.230545   -6.3101451    8.0712556  0.024911282  0.044622101            1 
   28000     1.251753   -6.3044621    8.6243378  0.025667672  0.044705013            1 
   29000    1.2206973   -6.3342645    9.1293839  0.026233861  0.044733126            5 
   30000    1.2572118   -6.3760922    9.6146008  0.026707224  0.044712181            4 
   31000    1.2457495   -6.3217193    10.310584  0.027716623  0.044726162            1 
   32000    1.2630886    -6.354713    10.790251  0.028099611  0.044836407            2 
   33000     1.271183   -6.3258292    11.361006  0.028689408  0.044891572            9 
   34000    1.2528289   -6.3233064    11.943169  0.029272473  0.044988324            1 
   35000    1.2365708   -6.2928882    12.451528  0.029646494   0.04504859            3 
   36000    1.2820621   -6.2736705     13.05194  0.030212823  0.045119981            2 
   37000    1.2694508   -6.3127626    13.468423  0.030334286  0.045134044            3 
   38000    1.2365032   -6.3139012    14.018658  0.030742671  0.045093013            2 
   39000    1.2291901   -6.3305247     14.55705  0.031104808  0.045072775            2 
   40000    1.2393453   -6.3581378    15.073005  0.031402093  0.045068232            1 
   41000    1.2097664   -6.3718466    15.517481  0.031539595  0.045016791            1 
   42000    1.2313347   -6.3559954    15.900999    0.0315496  0.044908906            2 
   43000    1.2317252    -6.306549    16.544174  0.032062352  0.044789105            2 
   44000    1.2381245   -6.3251001    17.073813  0.032336768  0.044721676            1 
   45000     1.259574   -6.2787231    17.737224  0.032846711  0.044697811            2 
   46000    1.2440851   -6.3259534    18.198393  0.032968102  0.044657149            2 
   47000    1.2230867   -6.3572179     18.81515  0.033360194  0.044650048            2 
   48000    1.2387045   -6.3351966     19.54918  0.033939547  0.044714093            4 
   49000    1.2624982   -6.3506653    19.986719  0.033991019  0.044783022            3 
   50000    1.2213876   -6.3323345    20.632649  0.034387748  0.044850277            3 
   51000    1.2251032   -6.3344313    21.144619  0.034550031  0.044901592            1 
   52000    1.2054295   -6.3606997    21.773657  0.034893681   0.04496039            1 
   53000    1.2564303   -6.3440796    22.122357  0.034783579  0.045007913            2 
   54000    1.2221392   -6.3336656    22.776741  0.035149291  0.045023497            3 
   55000    1.2332361   -6.3277799    23.150725  0.035076856  0.045015142            2 
   56000    1.2264731   -6.3525546    23.638604  0.035176493  0.044987143            6 
   57000    1.2381706   -6.3429085    24.055486  0.035168839  0.044960154            5 
   58000    1.2089703   -6.3406404    24.634252   0.03539404  0.044913632            2 
   59000    1.2078178   -6.3199663    25.216307  0.035616253  0.044883118            1 
   60000    1.2574005   -6.3095269    25.816207  0.035855843  0.044859011            2 
   61000    1.2241042   -6.3506027    26.088915  0.035640594   0.04481916            1 
   62000     1.215851   -6.3471662    26.596602   0.03574812  0.044778816            2 
   63000    1.2193025   -6.3158248    27.191881  0.035968097  0.044742591            1 
   64000    1.2027145   -6.3788586    27.581531  0.035913452  0.044692756            2 
   65000    1.2413617   -6.3599198    28.086255   0.03600802  0.044643516            2 
   66000    1.2203655   -6.3402356    28.701843    0.0362397  0.044597121            2 
   67000    1.2362286     -6.35983    28.942346  0.035997942  0.044533768            2 
   68000    1.2241266   -6.3729816    29.438528  0.036076627  0.044456761            3 
   69000    1.2265691   -6.3719897    29.797157  0.035986905  0.044368165            2 
   70000     1.238959   -6.3520608     30.28271  0.036050845   0.04428139            1 
   71000    1.2195686   -6.3113652    30.778796  0.036125347  0.044191245            5 
   72000    1.2490937   -6.3665569    31.404254  0.036347516  0.044114529            3 
   73000    1.2123703   -6.3519802    32.070209  0.036609828  0.044055265            2 
   74000    1.2191702   -6.4323154    32.486838  0.036584277  0.044000988            1 
   75000    1.2296485   -6.3450973    33.135589  0.036817321  0.043957964            4 
   76000    1.2206209   -6.3704696    33.566729  0.036805623  0.043901775            3 
   77000     1.193092    -6.357747    34.043941  0.036844092  0.043856634            3 
   78000    1.2204603   -6.3643606    34.468265   0.03682507  0.043807331            2 
   79000    1.2334315   -6.3211214    34.955881  0.036873292  0.043755271            3 
   80000    1.2064702   -6.3623617    35.578411  0.037060845  0.043717225            2 
   81000    1.2367047   -6.4010743    35.939381  0.036974672  0.043668782            2 
   82000     1.207448   -6.3683044     36.39515   0.03698694  0.043613234            4 
   83000    1.2233763   -6.3614511     36.97157   0.03712005  0.043564793            1 
   84000    1.2156347   -6.3651032    37.538885  0.037240957  0.043521326            3 
   85000    1.2024002   -6.3397524    38.090982  0.037344099  0.043489171            1 
   86000     1.222214   -6.3852438     38.61424  0.037416899  0.043464273            5 
   87000    1.1930912   -6.3650718     38.93881  0.037297711  0.043428215            3 
   88000    1.2231311   -6.3691662    39.663142  0.037559793  0.043393003            3 
   89000    1.2123724   -6.3738844    40.103763   0.03755034  0.043369827            6 
   90000    1.2210633   -6.3738768    40.516335  0.037515125  0.043341642            1 
   91000    1.1995176     -6.40082    41.137185  0.037671415  0.043310185            4 
   92000    1.2257709   -6.3960733     41.55051  0.037636331   0.04327904            4 
   93000    1.2385097   -6.3634128    42.071979  0.037698906  0.043248834            3 
   94000    1.2023572   -6.3824189    42.481794  0.037661164  0.043221961            4 
   95000    1.1926064   -6.3409685    43.233375  0.037924013  0.043196996            2 
   96000    1.2115985   -6.3718593    43.727462  0.037957866  0.043173906            3 
   97000    1.1970061   -6.4038112     44.10121  0.037887638  0.043156096            3 
   98000    1.2221026   -6.3820685    44.831598  0.038122107  0.043137313            3 
   99000    1.2027823    -6.384222    45.079533  0.037945734  0.043116658            4 
  100000    1.2176534   -6.4175547    45.531191  0.037942659  0.043090936            3 
  101000    1.2277139   -6.3767978    46.313988  0.038212861  0.043067487            2 
  102000    1.2476985   -6.3714759    46.543035  0.038025355  0.043043641            4 
  103000    1.1844729   -6.4280643    46.729067  0.037806689  0.043017101            2 
  104000    1.2086267   -6.3814029    47.328438  0.037923428  0.042983193            2 
  105000    1.2110058   -6.3542221    48.240033   0.03828574  0.042963832            4 
  106000    1.1996274   -6.3862332    48.663966  0.038257834  0.042948176            2 
  107000    1.2219243   -6.3742088    49.412049  0.038482904  0.042931696            4 
  108000    1.2110887   -6.3559013     49.83086  0.038449737  0.042922385            3 
  109000    1.2000262   -6.3874909    50.275737  0.038437107   0.04291327            1 
  110000    1.2169617   -6.3916048    50.700246  0.038409277  0.042899925            1 
  111000    1.1873409   -6.3567407    51.406297  0.038593316  0.042883907            2 
  112000    1.1805653   -6.3856197     51.77556  0.038523482  0.042876837            2 
  113000    1.2126058   -6.3481413     52.32916  0.038590826  0.042871076            2 
  114000    1.2132482   -6.4122703    52.682523  0.038510616  0.042862945            2 
  115000    1.2016758   -6.3663936    53.325738  0.038641839  0.042846757            2 
  116000    1.2128932   -6.3913842    53.594947  0.038502117  0.042832378            1 
  117000    1.2014156   -6.4064506    54.114998  0.038543445  0.042812716            2 
  118000    1.2628795   -6.3781676    54.719973  0.038644049  0.042796486            2 
  119000    1.2175174   -6.4021712    55.081731  0.038572641  0.042776637            3 
  120000    1.1863447   -6.3645559    55.685091  0.038670202  0.042763054            1 
  121000    1.2031186   -6.3829382    56.022074  0.038582696  0.042749292            5 
  122000    1.2107977   -6.4009446    56.549346  0.038626603  0.042728938            3 
  123000     1.226656   -6.4270578    56.931125  0.038571223  0.042711218            2 
  124000    1.2189138   -6.4001806    57.697354  0.038775103  0.042697459            3 
  125000     1.212041   -6.3844171    57.974506  0.038649671  0.042681692            3 
  126000    1.1989531   -6.3784841    58.337494  0.038582999  0.042658322            3 
  127000     1.188054   -6.4252781    58.805936  0.038586572  0.042633689            2 
  128000    1.2060826   -6.4011039    59.144585  0.038505589  0.042607919            3 
  129000    1.1914159   -6.3799656    59.652971  0.038535511  0.042581446            1 
  130000    1.1864002   -6.3507363    60.136411  0.038548981  0.042555524            2 
  131000    1.2057935   -6.3755094    60.506964  0.038490435   0.04252769            3 
  132000     1.228394   -6.4043492    60.819468  0.038396129  0.042491403            3 
  133000    1.2004157   -6.3971515    61.670401  0.038640602  0.042455729            3 
  134000    1.2031173   -6.3554354    62.266752  0.038723105  0.042427519            3 
  135000    1.1951656   -6.3724091    62.857919  0.038801185  0.042405567            2 
  136000    1.2253086   -6.4049298    63.249639  0.038755906  0.042387428            5 
  137000    1.2010748   -6.4288738    63.654906  0.038719529  0.042362649            5 
  138000    1.1639073   -6.4012554    64.437417  0.038911484  0.042344342            2 
  139000    1.1925005   -6.3886199    64.682038    0.0387782  0.042329087            4 
  140000    1.2010214   -6.3761415    65.310599  0.038875356  0.042311908            2 
  141000    1.1942705   -6.3863046    65.778418  0.038876133  0.042293538            2 
  142000    1.2096999   -6.4094473    66.264942  0.038887877  0.042275711            2 
  143000    1.2098009   -6.4091915    66.649029  0.038839761  0.042258795            2 
  144000    1.2263723    -6.451904    66.811682  0.038664167  0.042242383            2 
  145000    1.2128197   -6.3996361    67.590643  0.038845197  0.042223237            3 
  146000    1.1825323    -6.386106    68.201941  0.038928049  0.042207604            2 
  147000    1.2132908    -6.396059    68.510468  0.038838134  0.042189092            3 
  148000    1.1998793   -6.4213246    69.279092  0.039008498  0.042173767            2 
  149000    1.1962769    -6.418535    69.465219  0.038850794  0.042156511            5 
  150000    1.2084956   -6.4100297    69.986104  0.038881169  0.042136119            4 
  151000    1.2098444   -6.4449376    70.325283  0.038810862  0.042114824            4 
  152000    1.1852244   -6.3930376    70.971169  0.038909632  0.042092046            1 
  153000    1.2005711    -6.437289    70.907189  0.038620473  0.042066843            2 
  154000    1.2078481   -6.4184497    71.359477  0.038614436  0.042040094            8 
  155000    1.1883017   -6.3733381    72.012209  0.038716241  0.042009436            2 
  156000     1.205515   -6.4747865    72.082181  0.038505438   0.04197937            3 
  157000    1.1665808    -6.406982    72.804391  0.038643519  0.041947835            1 
  158000    1.1673282   -6.3773233    73.357488  0.038690658  0.041916351            4 
  159000    1.1915506   -6.4094517    73.433311   0.03848706  0.041888484            1 
  160000    1.1789435   -6.4257309    73.773744  0.038423825  0.041853968            2 
  161000     1.198407   -6.4365148    74.090909  0.038349331   0.04181825            2 
  162000    1.1730699   -6.3975587    74.718397   0.03843539  0.041784162            2 
  163000    1.1936845   -6.4082813    75.132361  0.038411227  0.041750619            3 
  164000     1.226257   -6.4282854    75.559887  0.038394252   0.04171482            3 
  165000    1.2031751   -6.4290892     76.05079   0.03840949  0.041678483            2 
  166000    1.2074777   -6.3823889    76.641472  0.038474635  0.041643811            2 
  167000    1.1812033   -6.4271632    77.117595  0.038481834  0.041609653            1 
  168000    1.1409297   -6.4233991    77.460628  0.038422931  0.041575675            4 
  169000    1.1949143   -6.4319138    77.771117  0.038348677  0.041539484            2 
  170000    1.1767255    -6.484722    78.158013  0.038312751  0.041505738            3 
  171000    1.1822686    -6.434657     78.87721  0.038439186  0.041474048            2 
  172000     1.190401   -6.4294448    79.093009  0.038320256  0.041441645            2 
  173000    1.1865427   -6.4224023    79.876923   0.03847636  0.041409552            3 
  174000    1.1915389   -6.4105344    80.221644  0.038420327  0.041379482            2 
  175000    1.1710567   -6.4351898    80.466678  0.038317466  0.041348496            2 
  176000    1.1840679   -6.4206324    81.009505  0.038356773  0.041320085            2 
  177000    1.1707337   -6.4811128    81.774604  0.038500284  0.041290879            2 
  178000    1.1664328   -6.4556936    81.802212  0.038296916  0.041262496            2 
  179000    1.2165806   -6.4401703    82.635018  0.038470679  0.041234124            1 
  180000    1.1717285   -6.4266012    82.697604  0.038285928  0.041206184            3 
  181000    1.2131429   -6.4231118    83.154579  0.038284797  0.041176424            6 
  182000     1.144707   -6.4713235    84.234486  0.038568904  0.041148436            3 
  183000    1.1875199   -6.4422324    84.267353  0.038373111  0.041121337            2 
  184000    1.1861936   -6.4076908    85.135837  0.038557897  0.041098054            2 
  185000    1.1724544   -6.4717642    85.635677  0.038574629  0.041078358            3 
  186000    1.1539555   -6.3969226    86.506953  0.038757595  0.041061488            4 
  187000    1.1624257   -6.4356245    86.562136  0.038574927  0.041043907            3 
  188000    1.1960607   -6.4539284     86.93393  0.038534543  0.041025233            2 
  189000    1.1988777   -6.4235136    87.434883  0.038551535  0.041006491            2 
  190000    1.1812607   -6.4056625    87.984146  0.038589537  0.040987784            4 
  191000    1.1809099   -6.4368266    88.346716  0.038545687  0.040969387            3 
  192000    1.1868989   -6.4108067    88.671293  0.038485804  0.040949185            2 
  193000    1.1622741   -6.4553985    89.342626  0.038576263  0.040928273            3 
  194000    1.1815528   -6.4532642    89.558301  0.038470061  0.040907877            4 
  195000    1.2047171   -6.4312128    90.040692  0.038478928  0.040885457            3 
  196000    1.1889453   -6.4310017    90.649288  0.038541364  0.040863386            2 
  197000    1.1866926   -6.4531552    90.618365  0.038332642  0.040838864            1 
  198000     1.182886   -6.4420109    91.038269   0.03831577  0.040814817            4 
  199000     1.163891    -6.449493    91.679554  0.038391773  0.040789879            2 
  200000    1.1763231    -6.444598    92.295078  0.038456282  0.040764795            4 
  201000    1.1839608   -6.4106505      92.5382  0.038365754  0.040743234            2 
  202000    1.1735107   -6.4295115     93.25614  0.038472005  0.040721214            3 
  203000    1.1774266   -6.4465709    93.511934  0.038387493   0.04069987            3 
  204000    1.1658752   -6.4627646     94.02566  0.038409175  0.040677274            3 
  205000    1.1743184   -6.4604686    94.231008  0.038305288  0.040656203            3 
  206000    1.1814018    -6.488959    94.669917  0.038296892  0.040634461            4 
  207000    1.1684806   -6.4610157    95.267402  0.038352416  0.040612338            3 
  208000    1.1697328   -6.4578742    95.588386  0.038296629  0.040591177            5 
  209000    1.1805596   -6.4640515    96.052118  0.038298293  0.040568671            2 
  210000    1.1490444   -6.4584369    96.675581  0.038363326  0.040548471            3 
  211000    1.1734016   -6.4794035    96.881129  0.038262689  0.040528019            4 
  212000    1.1803023   -6.4744801    97.233675  0.038220784  0.040503218            4 
  213000    1.1756469   -6.4436163    97.462457  0.038130852  0.040478682            3 
  214000    1.1586448   -6.4948797    97.975687  0.038152526  0.040455212            2 
  215000    1.1909686   -6.4690818    98.657069  0.038239174  0.040432225            2 
  216000    1.1728415   -6.4425174    98.898012  0.038155097   0.04040933            4 
  217000    1.1709731   -6.4705043    99.421884  0.038180447  0.040383959            2 
  218000    1.1522288   -6.4144809    99.824568  0.038159239  0.040360091            4 
  219000    1.1702094   -6.4617478    100.22305  0.038136626  0.040336459            2 
  220000    1.1861843   -6.4254896    100.64619  0.038123556  0.040312389            5 
  221000    1.1863202   -6.4189469    101.22889  0.038170774  0.040288903            2 
  222000    1.1407185   -6.4663664     101.7766   0.03820443  0.040266442            1 
  223000    1.1400805   -6.4756459    102.03431  0.038129414  0.040242746            2 
  224000    1.1445888   -6.4720504    102.25375  0.038040829  0.040219494            2 
  225000    1.1601841   -6.4489025    102.38564  0.037920606  0.040194767            3 
  226000    1.1417515   -6.4778651    103.43855  0.038141057  0.040170295            7 
  227000    1.1500401   -6.4675751    103.81493  0.038111209  0.040147504            2 
  228000    1.1235989   -6.4757756    104.44053  0.038172707  0.040126176            2 
  229000    1.1874659   -6.5214175    104.24171  0.037933663  0.040104296            2 
  230000    1.2041302   -6.4450946    105.16718   0.03810405  0.040081688            2 
  231000    1.1710602   -6.4219499    105.53349  0.038071245  0.040059325            3 
  232000    1.1481246   -6.4764209    105.99281  0.038072131  0.040035921            3 
  233000    1.1358617   -6.4388466     106.8821  0.038226788  0.040013406            3 
  234000    1.1431536   -6.4785079    106.98412  0.038099756  0.039994714            2 
  235000    1.1500666   -6.4714313    107.40964  0.038088526  0.039975693            4 
  236000    1.1817669   -6.4573335    108.49827  0.038311537  0.039957263            1 
  237000    1.1280704   -6.4657535    108.39605  0.038113943  0.039941026            6 
  238000    1.1423486   -6.4415936    109.15648  0.038220058  0.039925053            6 
  239000    1.1667047   -6.4597361    109.37833  0.038137493  0.039909457            3 
  240000    1.1578184   -6.4739393    109.96628  0.038182736   0.03989203            2 
  241000    1.1921751   -6.4740583    110.55957  0.038229451  0.039874431            8 
  242000    1.1683587   -6.4994721    110.60728  0.038087906  0.039857705            2 
  243000    1.1363145   -6.4876529    111.49094  0.038234206  0.039841781            1 
  244000    1.1581576    -6.505184    111.96598  0.038239748  0.039828864            2 
  245000    1.1627631   -6.4908775    112.57959  0.038292377  0.039817418            3 
  246000    1.1347188   -6.5352793    112.96702   0.03826796    0.0398057            2 
  247000     1.175916   -6.4973005    113.55468  0.038311294  0.039793174            2 
  248000    1.1483211   -6.4966359    113.64621   0.03818757  0.039780513            2 
  249000    1.1501812   -6.4839107    113.95232  0.038136653  0.039767132            4 
  250000    1.1609965   -6.5069703    114.34359  0.038114531  0.039752596            1 
  251000    1.1538186   -6.5214533    114.83147  0.038124656  0.039737443            2 
  252000    1.1424753   -6.4773533    115.74369  0.038275028  0.039721902            3 
  253000    1.1562211   -6.4873578    116.15088  0.038257867  0.039708816            4 
  254000    1.1397708   -6.4922178    116.90282  0.038353944   0.03969737            2 
  255000    1.1823977   -6.4757821    117.21616  0.038305936     0.039688            2 
  256000     1.138822   -6.4917146    117.22584  0.038159452  0.039677319            3 
  257000     1.145897   -6.5183159    117.93817  0.038241949  0.039666492            2 
  258000    1.1485494   -6.4402278    118.52224  0.038282377  0.039656142            2 
  259000    1.1523808   -6.4740622    119.01572  0.038293346  0.039645078            2 
  260000     1.164118   -6.5151103    119.40496  0.038270821  0.039633138            3 
  261000    1.1646896   -6.5025097    119.42471  0.038130494  0.039620969            3 
  262000    1.1548884   -6.4983607    119.94856  0.038151578  0.039608881            5 
  263000    1.1511379   -6.4980271    120.25249  0.038102818  0.039595146            2 
  264000    1.1426217   -6.4772951    121.04213  0.038207743  0.039584553            1 
  265000    1.1377039    -6.502474     121.1477  0.038096761  0.039571554            2 
  266000    1.1436856   -6.5053902    121.77018  0.038148552   0.03955896            2 
  267000    1.1311024   -6.5247259    122.46248  0.038221749  0.039547201            2 
  268000    1.1221075   -6.5249473    121.95114  0.037920132  0.039534287            3 
  269000     1.127347   -6.4904185    123.18298  0.038160774  0.039520142            3 
  270000    1.1499991   -6.5156092    123.04222  0.037975995  0.039505945            2 
  271000    1.1395621   -6.4985457    123.16674  0.037874151   0.03949012            2 
  272000    1.1792518   -6.4934066    123.61639  0.037872669  0.039472805            2 
  273000    1.1484218   -6.4823999    123.80849  0.037792578  0.039454789            6 
  274000    1.1534082   -6.5069155    124.36046  0.037822523  0.039435112            4 
  275000    1.1631465   -6.5068144     124.9189  0.037854213  0.039416025            5 
  276000     1.143865   -6.5494301    124.87211  0.037702931  0.039397417            7 
  277000    1.1375876     -6.47844    125.49424  0.037753985  0.039376513            4 
  278000     1.141883   -6.5303553    125.63844  0.037661402  0.039356454            2 
  279000    1.1507166   -6.5265303    126.22508  0.037701636  0.039337013            3 
  280000    1.1499305    -6.511941    127.16023  0.037845308  0.039318915            3 
  281000     1.165572   -6.5219021    127.46102  0.037799829  0.039301533            4 
  282000    1.1552653   -6.5287541    127.57536  0.037699574  0.039285159            2 
  283000    1.1643156   -6.5012006    128.58147  0.037862622  0.039268794            1 
  284000    1.1283037   -6.5253768    128.60409  0.037735942  0.039252717            3 
  285000    1.1501318   -6.5313835    129.35903  0.037824278  0.039237353            3 
  286000    1.1418501   -6.5060239    130.03712  0.037889604  0.039220552            1 
  287000    1.1821733   -6.5237221    129.62985   0.03763933  0.039202842            6 
  288000    1.1308179   -6.5259774    129.83579  0.037568225  0.039183663            2 
  289000    1.1156359   -6.5389497    130.50398  0.037630904  0.039164918            2 
  290000     1.136131   -6.5305038    130.75196  0.037572401  0.039145717            3 
  291000    1.1402293   -6.5279048    130.83535  0.037467168   0.03912563            2 
  292000    1.1248177   -6.5095118     131.0312   0.03739475  0.039104811            3 
  293000    1.1568549   -6.5079924    131.84343  0.037498131  0.039083001            2 
  294000    1.1135393   -6.5014633    131.84604  0.037371326  0.039061824            4 
  295000    1.1226046   -6.4791331    132.56112  0.037446643   0.03904004            4 
  296000    1.1594683    -6.527395    133.03164  0.037452602  0.039018646            3 
  297000    1.1398575   -6.4945018    133.38904  0.037426779  0.038998298            2 
  298000    1.1298994   -6.5161866    133.37973  0.037298581  0.038977836            2 
  299000    1.1327621   -6.4897782     134.5517  0.037500475  0.038957034            6 
  300000    1.1455068   -6.5517918    134.82964  0.037452677   0.03893691            1 
  301000    1.1151386   -6.5071477    135.17124  0.037422825  0.038916923            2 
  302000    1.1049625   -6.5035507     135.4372  0.037372295  0.038895775            3 
  303000    1.1250489   -6.5174033    135.32095  0.037216982  0.038875579            2 
  304000    1.1296573   -6.5713457    135.76586  0.037216519  0.038855033            2 
  305000    1.1340135   -6.5225211    136.13922  0.037196509  0.038833516            3 
  306000    1.1351167   -6.5045825    137.30951  0.037393658  0.038812809            3 
  307000     1.134211   -6.4806389    137.80008  0.037405015  0.038793118            2 
  308000    1.1354294   -6.5331088    137.80153  0.037283963  0.038773056            3 
  309000    1.1052349   -6.5156894    138.11193  0.037247015  0.038753206            3 
  310000    1.1158176   -6.5252965    138.31569  0.037181637  0.038733466            2 
  311000    1.1623445   -6.5175836    138.66415  0.037155452  0.038712964            4 
  312000    1.1334449   -6.4992671    139.73931  0.037323533  0.038692851            2 
  313000    1.1352919   -6.5381745    140.11143  0.037303361   0.03867401            2 
  314000    1.1219794   -6.5112055    140.55903  0.037303352  0.038655655            2 
  315000    1.1503162   -6.5378421     140.6144  0.037199577  0.038635472            3 
  316000    1.1229583   -6.5095309    141.37761  0.037283124   0.03861539            2 
  317000      1.14205   -6.5183435    141.51043   0.03720043  0.038596627            2 
  318000    1.1447124   -6.5401076    142.15763  0.037253048  0.038577988            4 
  319000     1.137991   -6.5421614    142.23111  0.037155463  0.038558788            3 
  320000    1.1260756   -6.5824755    142.53782  0.037119225  0.038539874            1 
  321000    1.1541158   -6.5504274    143.04167  0.037134389  0.038520556            6 
  322000    1.1270059   -6.5370898    143.74902  0.037202128  0.038502786            1 
  323000     1.150748   -6.5337817    144.13131   0.03718558  0.038484068            3 
  324000    1.1484799   -6.5566802    144.01445  0.037040753  0.038465578            2 
  325000    1.1451284   -6.5665653    145.05945  0.037194731  0.038447262            2 
  326000     1.144317   -6.5284456    145.74224  0.037255174  0.038429477            4 
  327000    1.1136013   -6.5165951     145.9118  0.037184456  0.038413443            2 
  328000    1.1286154   -6.5400664    146.22879  0.037151623  0.038397424            5 
  329000    1.1024741   -6.5637298    146.87423  0.037202185  0.038382585            3 
  330000    1.1311238   -6.5513907    147.63075  0.037280492  0.038367626            2 
  331000    1.1189757   -6.5456071    147.73021  0.037192903   0.03835194            2 
  332000    1.1107826   -6.5774214    148.46588  0.037265531  0.038336634            2 
  333000    1.1228025   -6.5530177    148.88017    0.0372573  0.038322267            2 
  334000    1.1315302    -6.561409    148.80442  0.037126852  0.038306806            3 
  335000    1.1255641   -6.5093479     149.2971  0.037138581  0.038291086            5 
  336000    1.1130955   -6.5267804    149.59171  0.037101119  0.038274523            5 
  337000    1.1204469   -6.5504836     149.7753  0.037036423  0.038257556            3 
  338000    1.1176395   -6.5376488    150.28477  0.037052458  0.038240024            2 
  339000    1.1338268   -6.5725008    150.64493  0.037031692  0.038223441            3 
  340000    1.1100787   -6.5580037    151.15454   0.03704768   0.03820602            3 
  341000    1.0986203   -6.5577065    151.85681  0.037110656  0.038189751            3 
  342000    1.1046059    -6.535147    152.12476  0.037067436  0.038173596            2 
  343000    1.1187163   -6.5599924     152.5049  0.037051724  0.038157569            4 
  344000    1.1293302   -6.5599959    152.72268  0.036996774  0.038141616            3 
  345000    1.1374824   -6.5445304    153.20179  0.037005264  0.038125063            1 
  346000    1.1259272   -6.5893301    153.44236  0.036956252  0.038108304            2 
  347000    1.1244955   -6.5551103    153.88943  0.036957116  0.038091689            3 
  348000    1.1213426    -6.538616    154.73565  0.037053557  0.038075098            2 
  349000    1.1010519   -6.5762361    155.20055  0.037058392  0.038059992            2 
  350000     1.125947   -6.5617764    155.87644  0.037113437   0.03804677            7 
  351000     1.135273   -6.5579559    156.34327  0.037118534  0.038034662            2 
  352000    1.1027626   -6.5761906    156.78084  0.037116675  0.038021055            4 
  353000    1.1307117   -6.5848015    156.90574  0.037041015  0.038007561            3 
  354000     1.102678   -6.5160832    157.62029  0.037104587   0.03799288            2 
  355000    1.1056741   -6.5402877    157.68997  0.037016425  0.037979214            2 
  356000    1.0873183   -6.5384464    157.79234   0.03693641  0.037965056            1 
  357000    1.0917416   -6.5797157    157.78507  0.036831248  0.037949379            7 
  358000    1.1053526   -6.6025172     158.6806  0.036936826  0.037934413            2 
  359000    1.1098235   -6.5690745    159.27588  0.036972117  0.037919443            6 
  360000    1.1007522   -6.5730108    159.70916  0.036969714  0.037904837            5 
  361000     1.117414   -6.5388779    159.54361  0.036829087   0.03788941            3 
  362000    1.0943031   -6.5686636    160.19092  0.036876364  0.037874245            3 
  363000    1.1093331   -6.5310923    160.60568   0.03686999  0.037858148            3 
  364000    1.1149995   -6.5716776    160.72313  0.036795589   0.03784189            3 
  365000    1.0946387   -6.5965574     161.3143   0.03682975  0.037826741            1 
  366000     1.128376   -6.5627121    162.63039  0.037028776  0.037813085            4 
  367000    1.1262995   -6.5518887    162.44784   0.03688643  0.037798917            4 
  368000    1.0889427   -6.5760849    163.17659   0.03695122  0.037785407            2 
  369000      1.10637   -6.5702681    163.40295  0.036902203  0.037771857            4 
  370000    1.0961241   -6.5708635    163.81243  0.036894691   0.03775854           10 
  371000    1.1031829   -6.5819075    164.18615  0.036879189  0.037744829            4 
  372000    1.0918787   -6.5806001    164.29881  0.036805288   0.03773141            2 
  373000    1.1126941   -6.5906609    164.74439  0.036806163  0.037716791            5 
  374000    1.1161315   -6.5783739    164.68393  0.036694279  0.037701666            3 
  375000    1.0915954   -6.5478918    165.85627  0.036856948  0.037686587            7 
  376000     1.080882   -6.5601055     165.6792   0.03671968  0.037672127            2 
  377000    1.1019814   -6.5666163    166.05911  0.036706258  0.037657683            4 
  378000    1.0789595   -6.5707657    166.79073  0.036770443   0.03764272            5 
  379000    1.1105911   -6.5842268    166.53769  0.036617786   0.03762811            4 
  380000    1.1200213   -6.5752605    167.06543  0.036637157  0.037613346            5 
  381000     1.104561   -6.5607706    168.22679  0.036795012  0.037598742            3 
  382000    1.0888619   -6.5487477    168.41554  0.036739866  0.037585566            1 
  383000    1.1024523   -6.5842268    168.27719  0.036613836  0.037570863            3 
  384000    1.1178952   -6.5963658    168.97038   0.03666892  0.037555728            5 
  385000    1.1512261   -6.5955355     168.4719  0.036465778  0.037540253            6 
  386000    1.1053557   -6.5514641    169.39941  0.036571548  0.037524572            2 
  387000    1.0823228   -6.6143086    169.79511  0.036562255  0.037509123            3 
  388000    1.0862814   -6.5708143    170.02062  0.036516456  0.037493009            2 
  389000    1.1087304   -6.6049888    170.11887  0.036443631  0.037476752            2 
  390000    1.0687794   -6.6148699    170.77341  0.036490046  0.037460385            1 
  391000    1.0974119   -6.5890728    171.68875  0.036591806  0.037444986            5 
  392000    1.0920838   -6.5647009    171.56658  0.036472487  0.037427992            3 
  393000    1.1071029   -6.5933235    171.36119  0.036336129  0.037410927            2 
  394000    1.1149389   -6.6136697    171.98999  0.036376902  0.037393663            4 
  395000     1.111892   -6.5745305    172.97954  0.036493574  0.037376913            5 
  396000      1.10335   -6.6044955    172.90911  0.036386598   0.03736013            3 
  397000    1.0971364   -6.6013332    173.73222  0.036467721  0.037343949            7 
  398000    1.0916826   -6.5893633    173.39691  0.036305886  0.037326946            4 
  399000    1.1074851   -6.6201923    173.02955  0.036138168  0.037309789            2 
  400000     1.083666   -6.5818695    174.31587  0.036315806  0.037292664            2 
  401000    1.1028858   -6.5679582     175.2619  0.036421841  0.037276316            4 
  402000    1.1289049   -6.5923565    175.10652   0.03629903  0.037259776            3 
  403000    1.1003777    -6.617113    175.53382  0.036297316  0.037243348            4 
  404000     1.084043   -6.5603625    176.31311  0.036368215  0.037227172            5 
  405000    1.1010925   -6.5869642     176.5555  0.036328292  0.037211784            2 
  406000    1.1073613   -6.5888446     176.3281  0.036192138  0.037195692            3 
  407000    1.0851469   -6.6251089    177.08433  0.036258052    0.0371784            8 
  408000    1.1103547   -6.5924393    177.07708  0.036167704  0.037161811            2 
  409000     1.075267    -6.597083    177.85926  0.036238644  0.037145094            4 
  410000    1.0927235   -6.5900754    178.22283  0.036224152  0.037129128            3 
  411000    1.0921716   -6.5739864    178.00101   0.03609104  0.037112021            5 
  412000    1.0767769   -6.5706806    178.29546  0.036062997  0.037093675            3 
  413000    1.0866496   -6.5982881    178.35327  0.035987342  0.037075979            3 
  414000    1.1224356   -6.5864084     178.9924  0.036029066  0.037058342            2 
  415000     1.101697   -6.5947045    179.49569   0.03604331  0.037040253            5 
  416000     1.099172   -6.6131563    179.64367  0.035986312  0.037022625            3 
  417000    1.0688964   -6.6087594    180.41096  0.036053349  0.037004551            3 
  418000     1.067682   -6.5799824     180.2334  0.035931699  0.036985887            4 
  419000    1.1012744   -6.5926596    181.13894  0.036026042  0.036967768            6 
  420000     1.105756   -6.6260248    181.44542  0.036001075  0.036949544            2 
  421000    1.0924032   -6.6285702    181.84798  0.035995245  0.036932073            5 
  422000    1.0788516   -6.6318893    181.91814  0.035923804  0.036914757            4 
  423000    1.0873719   -6.6503647    181.86331  0.035828075  0.036897118            4 
  424000    1.1113203   -6.6366358    182.51414  0.035871491  0.036878939            8 
  425000    1.0924665   -6.6163353    183.47462  0.035975416  0.036861729            3 
  426000    1.0779676   -6.5800058    183.83366  0.035961201  0.036844952            3 
  427000    1.1105539   -6.6220102    184.08117  0.035925286  0.036828258            2 
  428000    1.0663964   -6.6298605    184.44064   0.03591134  0.036811217            2 
  429000    1.0691688   -6.6222518    184.54408  0.035847724  0.036793309            4 
  430000    1.0690017   -6.5990349    184.59463  0.035774153   0.03677507            2 
  431000    1.0773586   -6.6320495    185.20316  0.035808809  0.036756407            2 
  432000    1.0949213   -6.6668757    185.31154  0.035746826  0.036738699            3 
  433000    1.0828072   -6.6351048    185.97865  0.035792658  0.036720809            2 
  434000    1.0812411   -6.6285343    186.49871  0.035810044  0.036703167            1 
  435000    1.0803707   -6.6203296    186.58033  0.035743358  0.036685266            3 
  436000    1.1029288   -6.6284516     186.8084  0.035704969  0.036666985            2 
  437000    1.0573664   -6.6043229     186.9259  0.035645671  0.036648355            5 
  438000    1.0642216   -6.6148643    187.48551  0.035670759  0.036629763            2 
  439000    1.0731822   -6.6748024     187.3161  0.035557346  0.036611125            3 
  440000     1.080931   -6.6636863    187.92499  0.035591855  0.036592653            4 
  441000    1.0956464   -6.6133917    188.25895  0.035574253  0.036574251            2 
  442000    1.0803301   -6.6304853    188.41713  0.035523592   0.03655491            2 
  443000    1.0920917   -6.6433809    188.14835  0.035392842  0.036535199            7 
  444000    1.0933089   -6.6015204    189.19357  0.035509304  0.036515174            1 
  445000    1.0640119    -6.634669    189.20432   0.03543152  0.036495879            3 
  446000    1.0858515   -6.6242407    190.04166  0.035508531  0.036476026            2 
  447000    1.0688079   -6.6412397    190.14778  0.035448877  0.036456621            4 
  448000     1.067608   -6.6444254    190.22095   0.03538336  0.036437002            5 
  449000    1.0908484   -6.6286422    190.85388  0.035422026  0.036417715            4 
  450000    1.0715064   -6.6150566    190.76285  0.035326454  0.036398334            2 
  451000    1.0599298    -6.633861    190.72166  0.035240514  0.036378248            7 
  452000    1.0773162   -6.6391507      191.185  0.035247972  0.036358026            4 
  453000     1.072821   -6.5924595    192.36361  0.035386977  0.036338217            4 
  454000    1.0926311   -6.6065018    192.63884  0.035359551  0.036319118            2 
  455000    1.0746818   -6.6218783    192.44208  0.035245802  0.036299623            3 
  456000    1.0944877   -6.6255284    192.76173  0.035226925  0.036279096            3 
  457000    1.0652735   -6.6876774    192.60232  0.035120773  0.036258281            3 
  458000    1.0796406   -6.5986813    193.26145   0.03516402  0.036237332            3 
  459000    1.0541812   -6.6364482    193.80288  0.035185708  0.036215958            3 
  460000    1.0989378   -6.6501842    193.64249  0.035080161  0.036194887            3 
  461000    1.0526681   -6.6290526     194.1587  0.035097378  0.036173987            8 
  462000    1.0809243   -6.6134035    193.93377  0.034980838  0.036152774            4 
  463000    1.0836808   -6.6316364    194.57294  0.035020328  0.036131786            1 
  464000    1.0832383   -6.6665259    194.96798  0.035015801  0.036110739            2 
  465000    1.0568577   -6.6594831    195.67479  0.035067167  0.036090195            2 
  466000    1.0648747   -6.6191199    195.91285  0.035034486  0.036069699            4 
  467000    1.0562096   -6.6533266    195.71166  0.034923566  0.036049285            4 
  468000    1.0716237   -6.6327291    196.35357  0.034963242  0.036028587            1 
  469000    1.1016516   -6.6713978    195.82803  0.034795315  0.036007223            2 
  470000    1.0634596   -6.6377228    197.05518  0.034938862   0.03598671            2 
  471000    1.0493215    -6.640043     197.2208  0.034893984  0.035965751            4 
  472000    1.0722001   -6.6299859    197.49065    0.0348677  0.035944799            2 
  473000    1.0598171   -6.6614315    197.21077  0.034744674   0.03592376            3 
  474000    1.0532689    -6.645964    197.73501  0.034763538  0.035901945            3 
  475000    1.0728478   -6.6527736    198.24885  0.034780501  0.035879981            4 
  476000    1.0664927   -6.6755387    199.25011  0.034882722  0.035858762            4 
  477000    1.0547644   -6.6638188    198.96913  0.034760504  0.035838066            7 
  478000    1.0562795   -6.6575226      198.938  0.034682357  0.035817273            2 
  479000      1.05071   -6.6737139     199.8139  0.034762334  0.035796593            3 
  480000    1.0662238   -6.6540602     199.5997  0.034652726  0.035775916            3 
  481000    1.0686651   -6.6566135    200.78798  0.034786551  0.035755339            3 
  482000    1.0589994    -6.648635    201.62716  0.034859467  0.035735941            3 
  483000    1.0581622   -6.6653667    201.29752  0.034730421  0.035716399            1 
  484000    1.0530923   -6.6860913    202.25082    0.0348228  0.035697167            5 
  485000    1.0547345   -6.6785402    202.53652  0.034800089  0.035678737            4 
  486000    1.0794328   -6.6657388    203.35201  0.034868314  0.035660492            4 
  487000    1.0438967   -6.6541212    203.67252   0.03485156  0.035642285            2 
  488000    1.0764265   -6.6725384    203.61169  0.034769756  0.035624376            3 
  489000    1.0516344   -6.6236769    204.72128  0.034887743  0.035606597            3 
  490000    1.0388082   -6.6944876    204.15092  0.034719544  0.035588455            6 
  491000    1.0540038   -6.6621795    204.32531   0.03467843  0.035569567            2 
  492000    1.0675785   -6.6794915    204.23941  0.034593396  0.035550302            4 
  493000    1.0583808   -6.6838237    204.91218  0.034636948  0.035531062            2 
  494000    1.0568589   -6.6588839    205.38304  0.034646262   0.03551238            2 
  495000    1.0716807   -6.6650948    205.97959  0.034676698  0.035493832            2 
  496000    1.0829681   -6.6807614    205.87233  0.034588765  0.035475713            3 
  497000     1.045438   -6.6774381    206.45616  0.034617063   0.03545701            3 
  498000    1.0421118    -6.656506    206.88844  0.034619886  0.035439037            7 
  499000    1.0424136   -6.6575732    207.35049   0.03462767  0.035420657            2 
  500000    1.0577834    -6.654882    207.36532  0.034560886  0.035402048            2 
  501000    1.0549797   -6.6623867    207.30621  0.034482072    0.0353835            2 
  502000    1.0438508   -6.6424388    208.38795  0.034592953  0.035364477            4 
  503000    1.0622165   -6.6687714    208.51311  0.034544915   0.03534587            4 
  504000    1.0571074   -6.6524974    209.18631  0.034587683  0.035327591            3 
  505000    1.0566162   -6.6908448    208.68823  0.034437001  0.035309217            5 
  506000    1.0631241   -6.6955259    209.23233  0.034458553  0.035290356           10 
  507000    1.0780091   -6.6704734     209.4706  0.034429749  0.035271304            4 
  508000    1.0674199   -6.6843071    209.70308  0.034400111  0.035252017            3 
  509000    1.0444791   -6.6968058    209.97079  0.034376357  0.035232914            3 
  510000    1.0686918   -6.6882058    210.12109  0.034333511  0.035213489            2 
  511000    1.0457417   -6.6541904    211.01143  0.034411519  0.035194699            3 
  512000     1.044399   -6.6541413    211.65843  0.034449613  0.035176698            2 
  513000     1.057596   -6.6875029    211.74058  0.034395806  0.035158204            3 
  514000    1.0536391   -6.6554907    212.09873  0.034386953  0.035139612            3 
  515000    1.0554446   -6.7022138    211.66995    0.0342508  0.035120975            3 
  516000    1.0393348   -6.6700386     212.1008  0.034254005  0.035102097            3 
  517000    1.0259325   -6.6303765    212.90785  0.034317835  0.035083079            2 
  518000    1.0313063   -6.7217501    212.37409  0.034165716  0.035064104            3 
  519000    1.0206603   -6.6874312    212.80023  0.034168309  0.035045314            6 
  520000    1.0501701   -6.7188943    213.54084  0.034221289  0.035026375            3 
  521000    1.0573774   -6.6957115     213.9456  0.034220346  0.035007157            6 
  522000    1.0740633   -6.6868721    213.52777  0.034088086  0.034988195            5 
  523000    1.0597543   -6.7122045     214.0917  0.034112763  0.034968784            4 
  524000    1.0321186   -6.6663937    215.34836  0.034247513  0.034949987            4 
  525000     1.041626   -6.6895746    215.50933   0.03420783  0.034931784            5 
  526000    1.0387408   -6.6845385    215.88832  0.034202839  0.034913483            3 
  527000    1.0255329   -6.6898025    215.75144  0.034116294   0.03489479            6 
  528000    1.0311711   -6.6608816    216.15808  0.034115858  0.034876088            4 
  529000    1.0279739   -6.6998653    216.40804  0.034090743  0.034856736            3 
  530000    1.0151874   -6.6931231    217.06732  0.034130081    0.0348377            7 
  531000    1.0494442   -6.7130106    216.84053  0.034030214  0.034818889            3 
  532000    1.0524527   -6.6938158    217.29631  0.034037643  0.034799203            5 
  533000    1.0434578   -6.6976777     217.4609  0.033999515  0.034779398            3 
  534000    1.0413174   -6.7248863     216.7971  0.033832257  0.034759398            3 
  535000    1.0538978   -6.7112466    218.02277  0.033959932  0.034739508            3 
  536000    1.0555344   -6.7244206    217.54397  0.033822135  0.034719644            3 
  537000    1.0387534   -6.6716669    218.47497  0.033903626  0.034699835            4 
  538000    1.0561846   -6.7203667    218.10193  0.033782827  0.034680089            3 
  539000    1.0282255   -6.7303022    218.18667  0.033733251  0.034660222            1 
  540000    1.0328293   -6.6784424    219.86743   0.03393016  0.034640485            2 
  541000     1.045013   -6.7244262    219.35653  0.033788744  0.034620785            2 
  542000    1.0186458     -6.69624    218.58519   0.03360781  0.034600637            3 
  543000    1.0617247   -6.6898966    219.57931  0.033698481  0.034580259            3 
  544000    1.0351721   -6.7264654     219.2939  0.033592815  0.034559993            2 
  545000    1.0272465   -6.7384514    220.13443  0.033659699  0.034539596            3 
  546000     1.035635   -6.7170685    219.80587  0.033547904  0.034519133            6 
  547000    1.0354439   -6.6903223    220.15257  0.033539392  0.034497862            7 
  548000    1.0429287   -6.7115574    221.06044  0.033616247    0.0344769            3 
  549000    1.0321525    -6.680849    221.81748  0.033669927  0.034456535            4 
  550000    1.0293939   -6.7095196    221.74635  0.033597932  0.034436144            4 
  551000    1.0325462   -6.7593464    222.06352  0.033584925  0.034415466            3 
  552000    1.0330052   -6.7194919    222.11705  0.033532164  0.034395062            5 
  553000    1.0376829   -6.7025008     221.9634  0.033448373  0.034374743            5 
  554000    1.0313862   -6.6871565    222.92988  0.033533375  0.034354439            3 
  555000    1.0295091   -6.7373039    223.04055  0.033489573  0.034333957            7 
  556000    1.0357712   -6.7148523    223.02475  0.033426971  0.034313619            3 
  557000    1.0340864   -6.7375377    223.71165  0.033469726  0.034293751            3 
  558000    1.0634221   -6.7332246    224.24728  0.033489737  0.034274152            4 
  559000    1.0096976    -6.704285    224.71057  0.033498892  0.034254755            7 
  560000    1.0469883   -6.6951305    225.12334  0.033500497  0.034235358            5 
  561000     1.038474   -6.7264378    225.02525  0.033426211  0.034215285            1 
  562000    1.0333877    -6.738121    225.38845  0.033420588  0.034195238            3 
  563000    1.0249117    -6.736305    224.82541  0.033277888  0.034174605            4 
  564000    1.0226994   -6.7549665      225.084  0.033257092   0.03415349            1 
  565000    1.0315339    -6.693425    226.07009  0.033343671  0.034133066            2 
  566000    1.0406072   -6.7235419    226.43425  0.033338376  0.034112436            6 
  567000    1.0023057   -6.7234934    226.84375  0.033339763  0.034092113            2 
  568000    1.0097911   -6.7418991    226.31525  0.033203528  0.034072203            3 
  569000    1.0214437   -6.7144075    227.06217  0.033254565  0.034052234            5 
  570000    1.0196548   -6.7269981    227.12726   0.03320574  0.034032353            4 
  571000    1.0225525   -6.7423289     227.9221  0.033263588  0.034012458            3 
  572000    1.0183499   -6.7617679    227.60544  0.033159301  0.033991888            4 
  573000    1.0317038   -6.7238545    227.89301  0.033143254  0.033971582            3 
  574000    1.0516098   -6.7533702    228.06995  0.033111201  0.033951491            7 
  575000     1.026698   -6.7399736    227.95469  0.033036912  0.033931346            6 
  576000    1.0153712    -6.746246    228.97937  0.033127803  0.033910942            3 
  577000    1.0246727   -6.7340122    228.21409  0.032959863   0.03389014            4 
  578000    1.0115317   -6.7181452    229.01321  0.033018052  0.033869633            5 
  579000    1.0351339   -6.7008008    229.71551  0.033062105  0.033849163            5 
  580000    1.0018597   -6.7363458    228.83804  0.032879029  0.033828188            2 
  581000    1.0223657   -6.7348089    230.05605  0.032997139  0.033807177            5 
  582000    1.0420279   -6.7081946    230.13887  0.032952302  0.033786446            3 
  583000     1.021395   -6.7648396     229.8341  0.032852216  0.033765601            4 
  584000    1.0067576   -6.7373404    229.74289  0.032782947  0.033744798            3 
  585000    1.0031683   -6.7476413     230.7088  0.032864502  0.033724109            3 
  586000    1.0243449   -6.7313198    231.45141  0.032914023  0.033703265            2 
  587000   0.99411363   -6.7257565     231.7941  0.032906601  0.033682525            2 
  588000    1.0362409   -6.7009963    231.83875  0.032856965  0.033662016            2 
  589000    1.0060849   -6.7483883    232.22023  0.032855154  0.033641231            4 
  590000    1.0142989   -6.7253707    232.21681  0.032798985   0.03362029            3 
  591000    1.0151238   -6.7157723    232.53226  0.032787966  0.033599501            5 
  592000    1.0188271   -6.7278555    232.49837  0.032727811  0.033578555            4 
  593000    1.0284733   -6.7501336    233.44859  0.032806153  0.033557507            5 
  594000    1.0320344   -6.7729982    232.51955  0.032620588  0.033536537            2 
  595000    1.0096884   -6.7403187    233.12312  0.032650297  0.033515851            2 
  596000    1.0153013   -6.7712791    232.80989  0.032551718  0.033494616            2 
  597000    1.0279657   -6.7363456    233.85656  0.032643294  0.033473293            5 
  598000    1.0000135   -6.7372216    233.80279  0.032581213  0.033452231            4 
  599000    1.0151733   -6.7440079    234.70624   0.03265251  0.033431296            2 
  600000    1.0159441    -6.741524    234.79957  0.032611051    0.0334099            4 
  601000    1.0326641    -6.729136    234.75827  0.032551064  0.033388485            2 
  602000    1.0191137   -6.7545146    234.72855  0.032492877  0.033367108            4 
  603000     1.008647   -6.7811492    234.94776  0.032469286  0.033346094            4 
  604000     1.045233   -6.7806676    235.97352  0.032557053  0.033325057            2 
  605000    1.0233656   -6.7779218    235.93413  0.032497815  0.033303837            8 
  606000    1.0125747   -6.7604413    236.06761  0.032462542  0.033282747            4 
  607000    1.0174911     -6.76696    236.21414  0.032429179  0.033261973            5 
  608000   0.99205195   -6.7889366    236.39599  0.032400766  0.033240827            4 
  609000    1.0104363   -6.7455642    236.48414  0.032359625  0.033220079            6 
  610000    1.0232918   -6.7485654    237.84205  0.032492084  0.033199432            3 
  611000   0.99568121   -6.7533996    237.76792  0.032428794  0.033178413            3 
  612000    1.0161183   -6.7605665    236.88022  0.032254932  0.033156997            4 
  613000    0.9839564   -6.7460303    237.32995  0.032263451  0.033135789            4 
  614000    1.0080766    -6.777612    238.11435  0.032317366  0.033114384            4 
  615000   0.99293747   -6.7618722    237.58148  0.032192612  0.033092812            3 
  616000   0.99402271   -6.7766303    237.03938  0.032067016  0.033070984            3 
  617000    1.0029756   -6.7658495    238.41819  0.032201268  0.033048902            4 
  618000    1.0065861   -6.7429174    239.17745  0.032251544  0.033027399            5 
  619000    1.0109617   -6.7508761    239.36117  0.032224175  0.033005853            2 
  620000    1.0110306   -6.7960989    238.67732  0.032080285  0.032984261            3 
  621000    1.0107596   -6.7928733    238.87106  0.032054625  0.032962259            5 
  622000    1.0071595   -6.7393655    239.89974  0.032140908  0.032940369            5 
  623000    1.0114471   -6.7747916    239.56193  0.032044132  0.032918361            6 
  624000    1.0158794   -6.7644323     239.2272  0.031948077  0.032896611            4 
  625000    1.0192728   -6.7402996    240.12388  0.032016518  0.032874681            6 
  626000    1.0034871   -6.7559515    240.17729  0.031972483  0.032852901            3 
  627000   0.97928287   -6.8082236    240.20118  0.031924665  0.032831004            4 
  628000    1.0208735   -6.7880106    240.88225  0.031964204  0.032809488            3 
  629000   0.99950724   -6.7390833    240.93608  0.031920519  0.032788141            5 
  630000    0.9861733   -6.7794244     241.7144  0.031972804   0.03276673            5 
  631000    1.0259017   -6.7452091    241.96179  0.031954806  0.032745651            3 
  632000    1.0114858   -6.7845315    241.75445  0.031876905  0.032724487            2 
  633000    1.0063591   -6.7973089    241.52869  0.031796826  0.032702888            3 
  634000    0.9789446    -6.782431    242.12728  0.031825352  0.032681363            3 
  635000   0.99653448   -6.7550941    242.42415  0.031814194  0.032660256            4 
  636000   0.99118977   -6.7582562    243.13582  0.031857419  0.032639215            3 
  637000    1.0048317   -6.7741493    243.49576  0.031854495  0.032618226            3 
  638000    1.0049984   -6.7968216    243.17694  0.031762923   0.03259708            7 
  639000   0.99225368   -6.7516275    244.33764  0.031864585  0.032576407            3 
  640000   0.98496865   -6.7660077     244.2503  0.031803424  0.032555573            6 
  641000    1.0019886    -6.799675    244.30175  0.031760498  0.032534593            4 
  642000    1.0115708   -6.7982673    244.36063  0.031718669  0.032513405            2 
  643000    1.0055218   -6.7767108    244.83656  0.031731022  0.032492693            6 
  644000    1.0121923   -6.7733412    244.77426  0.031673688  0.032472094            7 
  645000     1.000753   -6.7761308     245.4114  0.031706899   0.03245116            4 
  646000    1.0257259   -6.7934834    245.55806  0.031676737  0.032430009            7 
  647000    1.0031761   -6.7890462    245.00534  0.031556587  0.032408848            3 
  648000   0.98469341   -6.7632372    246.23715    0.0316663  0.032387787            9 
  649000    1.0097792   -6.8005451    246.12953  0.031603689  0.032366775            5 
  650000    1.0067585   -6.8030542     246.8144  0.031642872  0.032345705            6 
  651000   0.98950907   -6.7688378    247.25708  0.031650931  0.032324409            2 
  652000    1.0085204   -6.8099785    246.43283  0.031497039  0.032302906            6 
  653000    1.0246373   -6.7584631    246.99175  0.031520132   0.03228163            3 
  654000    1.0015696    -6.800442    246.96018  0.031467913  0.032259998            6 
  655000    0.9835363   -6.7877059    247.24468  0.031456066  0.032238108            4 
  656000   0.97717388   -6.7910339    247.07408  0.031386443  0.032216403            3 
  657000   0.99054492   -6.8079278    247.51769  0.031394938  0.032194647            4 
  658000   0.99816324   -6.7835544    247.39795   0.03133206  0.032173221            3 
  659000    0.9765623   -6.8061417    247.80485   0.03133597  0.032151603            6 
  660000   0.97333512   -6.7714093    248.89353  0.031425951  0.032130233            6 
  661000   0.97467129   -6.7745618    248.76709  0.031362468  0.032109017            6 
  662000   0.99568419   -6.7908413    248.74127  0.031311842  0.032087531            2 
  663000   0.98212327   -6.8281526    248.75702  0.031266594  0.032066036            2 
  664000   0.97758738   -6.7599295      249.496  0.031312249  0.032044422            3 
  665000   0.97965899   -6.7739533    248.83316    0.0311821  0.032022659           12 
  666000    1.0024577     -6.79989    250.07082  0.031290143  0.032001149            5 
  667000   0.98887356   -6.8105268    249.82134  0.031212062  0.031979572            4 
  668000    1.0015175   -6.7982554    250.52962  0.031253695  0.031958201            6 
  669000   0.97821081   -6.7901882     250.5633  0.031211174  0.031937287            5 
  670000   0.98329181   -6.8398405    250.40493  0.031144892  0.031916184            6 
  671000    1.0042951   -6.8136638    251.26665  0.031205495  0.031894874            3 
  672000   0.99398458   -6.7738434    251.90577  0.031238314   0.03187409            3 
  673000   0.98076416   -6.8373481    252.20796  0.031229317  0.031853142            3 
  674000   0.98013077   -6.8096365    251.80949  0.031133716  0.031832303            5 
  675000     1.001745   -6.8194246    252.40832  0.031161521  0.031812006            4 
  676000   0.98529957   -6.8266323    252.62552  0.031142199  0.031791957            4 
  677000   0.96383296   -6.7952605    252.11792  0.031033717  0.031771399            4 
  678000    1.0066561   -6.8151189    252.64389  0.031052592  0.031750903            3 
  679000    1.0020874   -6.8272371    252.97805  0.031047871  0.031730201            3 
  680000   0.99488646   -6.8041554    253.83135  0.031106783  0.031709725            6 
  681000   0.96998798   -6.8073727    253.53775  0.031025178  0.031688948            5 
  682000   0.97347485   -6.8154131    253.82064  0.031014252  0.031668034            7 
  683000   0.96693689   -6.7899148    253.45898  0.030924717   0.03164723            4 
  684000   0.99633597   -6.8188827     254.0855  0.030955836  0.031626007            2 
  685000   0.97455084   -6.7807898    254.34803  0.030942583  0.031604826            4 
  686000   0.97375923   -6.8126707    253.97299  0.030851918  0.031583201            3 
  687000   0.99464907   -6.8125516    254.48957  0.030869671   0.03156158            3 
  688000    0.9668433   -6.8011409    253.92119  0.030755958  0.031540022            3 
  689000   0.96629473   -6.8206681    254.80603   0.03081834  0.031518671            4 
  690000   0.97808564   -6.8064585    255.30939  0.030834468  0.031497177            5 
  691000   0.98075703   -6.8560715    254.73006  0.030719978  0.031475677            2 
  692000   0.99499399   -6.8094761    255.38067  0.030753934   0.03145472            4 
  693000   0.98970904   -6.7843496    255.92184  0.030774632  0.031433847            3 
  694000    0.9777336   -6.8483357    256.23217  0.030767552  0.031412877            3 
  695000   0.96881394   -6.8475778    256.07044   0.03070389  0.031391972            3 
  696000   0.98634113   -6.8040438    256.55423    0.0307177   0.03137137            6 
  697000   0.96124137   -6.8445062    257.45695  0.030781558  0.031351062            2 
  698000    1.0125305   -6.8611384    257.13933  0.030699537  0.031330461            2 
  699000   0.97155834   -6.8427978     258.2915  0.030792978  0.031310255            5 
  700000   0.96107592    -6.845643    257.64415  0.030671922  0.031290151            4 
  701000   0.99206635   -6.8043345    258.18346  0.030692281   0.03126978            6 
  702000   0.97758215   -6.8383108    258.87304  0.030730418  0.031249594           14 
  703000   0.97306917   -6.8284681    258.73126  0.030669898  0.031229275            2 
  704000   0.95764393   -6.8290613    258.08235   0.03054952  0.031209315            7 
  705000    0.9851709    -6.860212    258.15174   0.03051439  0.031188788            3 
  706000   0.95750345    -6.838995    258.37298  0.030497283  0.031168124            5 
  707000    0.9569482   -6.8349019     258.9943   0.03052738  0.031147476            4 
  708000   0.96544816   -6.8398547    259.61208  0.030556977  0.031126873            7 
  709000   0.94731484   -6.8566581    259.84889  0.030541712  0.031106472           12 
  710000    0.9660895   -6.8591607     260.0445  0.030521655  0.031085826            6 
  711000   0.97665801   -6.8069022    260.82336  0.030570014  0.031065938            7 
  712000   0.96835453   -6.8343933    260.51423  0.030490898  0.031045971            2 
  713000   0.97542377   -6.8201805    261.20637  0.030529029  0.031026109            3 
  714000   0.97671254   -6.8113396    261.62111  0.030534677  0.031006363            3 
  715000    0.9718071   -6.8441798    261.64078  0.030494263  0.030986766            4 
  716000   0.98513857   -6.8507014    261.59985   0.03044691  0.030967019            6 
  717000   0.96666381   -6.8547968    261.73319  0.030419942  0.030947129            2 
  718000   0.98091274   -6.8572612    262.72642  0.030492852  0.030927239            3 
  719000    0.9901014   -6.8282104    261.22114  0.030275978   0.03090754            3 
  720000   0.95809065   -6.8651092    262.51171    0.0303833  0.030888112            5 
  721000   0.96011005    -6.842496    262.82572  0.030377453  0.030868303           10 
  722000   0.96053906   -6.8441782    263.17208  0.030375356  0.030848758            4 
  723000   0.96589685   -6.8398762    262.81529  0.030292219  0.030829101            3 
  724000   0.96327824   -6.8493406    263.22525  0.030297566  0.030809125            5 
  725000    0.9785672   -6.8682421    262.99048   0.03022879  0.030789031            4 
  726000   0.96197121   -6.8728582    262.85109  0.030171153  0.030768757            5 
  727000   0.98649213   -6.8433721    264.58793   0.03032874  0.030748733            5 
  728000    0.9619694   -6.8409109    263.98192   0.03021771  0.030729049            4 
  729000   0.94483747   -6.8494618    264.09972  0.030189725  0.030709013            5 
  730000   0.95725862   -6.8591495    264.36448  0.030178594  0.030689231            3 
  731000   0.96038402   -6.8504242    264.23635  0.030122703  0.030669522            7 
  732000   0.96561136   -6.8719449    265.11162  0.030181196  0.030649819            5 
  733000   0.95829563   -6.8692871     264.6894   0.03009202  0.030630382            6 
  734000   0.94621064   -6.8274586    266.42003  0.030247505  0.030610832            2 
  735000   0.94873149   -6.8808252    265.33996  0.030083896  0.030591477            1 
  736000   0.96424334   -6.8611318    266.63812  0.030190004  0.030572333            2 
  737000   0.95270956   -6.8742514    265.97567  0.030074137  0.030553009            3 
  738000    0.9713689   -6.8594569     266.3908  0.030080262  0.030533675            2 
  739000   0.93753875   -6.8866588    266.98109  0.030106122  0.030514739           11 
  740000   0.98710687   -6.8274326    267.20986    0.0300912  0.030495563            4 
  741000   0.96561145   -6.8543692    267.27828  0.030058286  0.030476394            3 
  742000   0.96299337   -6.8518175    267.86398  0.030083556  0.030457395            5 
  743000   0.96107159   -6.8576768    267.76008  0.030031413  0.030438315            3 
  744000   0.96753233    -6.863993    267.74948  0.029989861  0.030419097            4 
  745000   0.94765283   -6.8630924     267.8813  0.029964351  0.030399784            4 
  746000   0.96782293   -6.8644543    268.23492  0.029963686  0.030380476            4 
  747000   0.93620719   -6.8344854    268.45445  0.029948064   0.03036156            3 
  748000   0.94463575   -6.8445039    269.22965  0.029994391  0.030342561            3 
  749000   0.93700845   -6.8816786    268.88129  0.029915586  0.030323746            9 
  750000   0.95765666   -6.8506908    269.50832  0.029945369    0.0303053            6 
  751000   0.95051602   -6.8585334    269.84302  0.029942634  0.030286791            3 
  752000    0.9610948   -6.8845365    269.61365  0.029877399  0.030267911            4 
  753000   0.95588833   -6.8622302    269.82103  0.029860671  0.030248839           11 
  754000   0.96896011   -6.8741699     270.2049  0.029863495  0.030230103            4 
  755000   0.96260506   -6.8648684     270.5695  0.029864183  0.030211236            5 
  756000   0.94523486   -6.8694353    271.32213  0.029907642  0.030192778            3 
  757000   0.92936109   -6.8785321    271.50843  0.029888642   0.03017424            3 
  758000   0.95574805   -6.8768439    271.49514   0.02984775  0.030155729            4 
  759000   0.95212457   -6.8437502    271.95894  0.029859348   0.03013731            8 
  760000   0.95767863    -6.907644    271.37395  0.029755915  0.030118858            5 
  761000   0.95301357   -6.8347101    272.78693  0.029871543  0.030100637            3 
  762000   0.95000767   -6.8538703    272.37439  0.029787225  0.030082653            6 
  763000   0.97199405   -6.8764148    272.61225  0.029774164  0.030064175            5 
  764000   0.94431731   -6.8553607    272.59273  0.029733064  0.030045808           10 
  765000   0.95181305   -6.9175308    273.08787  0.029748134  0.030027556            2 
  766000   0.95402989   -6.8697978    272.78108  0.029675923  0.030009256            5 
  767000   0.94500289   -6.8695855    272.37973  0.029593625  0.029991097            2 
  768000   0.93011336   -6.9097563    273.57148  0.029684405  0.029972973            4 
  769000    0.9512307   -6.8968815    274.49285  0.029745649  0.029955015            2 
  770000   0.94437488   -6.8708432    274.66636  0.029725797  0.029936979            6 
  771000   0.94591504   -6.8662023    274.84674  0.029706738  0.029919149            3 
  772000   0.94678715   -6.8863609    275.21786  0.029708318   0.02990138            2 
  773000   0.95780254   -6.8816329    275.03739   0.02965043  0.029883617            3 
  774000   0.94399881   -6.8891102    275.62035  0.029674887  0.029865909           18 
  775000   0.95511708   -6.8918853     275.9485  0.029671881  0.029848316            4 
  776000   0.93516675   -6.8901715    276.03892  0.029643355  0.029830437            3 
  777000   0.92767466    -6.898388    276.35835  0.029639463  0.029812713            4 
  778000   0.93513663   -6.8881809    276.53722  0.029620525  0.029795188            4 
  779000   0.91813999   -6.8783743    276.66094  0.029595736  0.029777395            8 
  780000   0.94304751   -6.8803724    276.16319  0.029504614   0.02975959            5 
  781000   0.93753614   -6.8867454    276.44626   0.02949704  0.029741758            2 
  782000   0.93331961   -6.8796273    276.39273  0.029453616   0.02972388            3 
  783000    0.9317824   -6.8607244    276.67283   0.02944581  0.029705843            4 
  784000   0.96453833   -6.9032771    276.92265  0.029434806  0.029687773            3 
  785000    0.9413995   -6.8792398    277.35052   0.02944273  0.029669834            3 
  786000   0.93966898   -6.9123403    276.98838  0.029366877  0.029651647            3 
  787000   0.91477669   -6.8810074    277.52748  0.029386646  0.029633557            5 
  788000   0.95144435   -6.9188391    278.19599  0.029420049  0.029615728            6 
  789000   0.93607185   -6.9016209    278.42373  0.029406815  0.029597871            5 
  790000   0.96507266   -6.9230469    277.98009  0.029322795  0.029579983           10 
  791000   0.93202006   -6.9159885    277.88684  0.029275899  0.029561904            2 
  792000   0.94040554   -6.9038724    277.99024  0.029249815  0.029543939            4 
  793000   0.93525261   -6.8841612    278.69536  0.029287028  0.029525995            3 
  794000   0.94989253   -6.9245828    278.15321  0.029193242  0.029508063            9 
  795000   0.93380211   -6.8998595    279.40699  0.029287945  0.029490063            4 
  796000    0.9262992   -6.9089415    279.01581  0.029210197  0.029472255            4 
  797000   0.94791457   -6.8979246    279.24416  0.029197424  0.029453985            4 
  798000   0.92349216   -6.8897422    279.67698  0.029206034  0.029435804            3 
  799000   0.92404135   -6.8951823    279.59798  0.029161241  0.029417831            6 
  800000   0.91748262   -6.9005443    280.08291  0.029175303  0.029399781            6 
  801000   0.94309447    -6.874328    279.68557  0.029097542  0.029381981            5 
  802000   0.92449128   -6.9390604    281.01364  0.029199256  0.029364453            4 
  803000   0.94730091    -6.935626    280.47302  0.029106789  0.029346806            2 
  804000   0.92573222   -6.9430263    280.64226  0.029088128  0.029329021            5 
  805000   0.92412544     -6.94217    281.23198  0.029113041   0.02931108            2 
  806000   0.93684157   -6.9227003    281.47844  0.029102403  0.029293178            7 
  807000   0.91801281     -6.91261    281.73676  0.029093015  0.029275346            3 
  808000   0.91744877   -6.8972955    280.92778  0.028973575  0.029257527            5 
  809000   0.92876523   -6.9325499     281.0092  0.028946148  0.029239608            3 
  810000   0.92818808   -6.8893299    282.88972  0.029103881  0.029221555            3 
  811000   0.90989947   -6.9105687    282.00571  0.028977158  0.029203655            2 
  812000   0.91720194   -6.9481512    282.22839  0.028964326  0.029185604            3 
  813000   0.93042898   -6.9612289    282.03515  0.028908892  0.029167297            3 
  814000   0.91171127   -6.9247684    282.01614  0.028871431  0.029148963            6 
  815000   0.93069292   -6.9236485     282.7353   0.02890954  0.029130784            4 
  816000   0.94814633   -6.9534799     282.6979  0.028870292  0.029112644            3 
  817000   0.94154344   -6.8961329    283.80764  0.028948148   0.02909483            4 
  818000   0.91647077   -6.8985447    283.73084  0.028904935  0.029077187            2 
  819000   0.93529258   -6.9629856     283.5093    0.0288471  0.029059426           11 
  820000   0.91598361   -6.9539891    283.22538  0.028783067  0.029041388            2 
  821000   0.93605568   -6.9160309     283.6536  0.028791473  0.029023583            6 
  822000   0.94189813   -6.9675559    283.66209  0.028757309  0.029005554            6 
  823000    0.9141653   -6.9217173    284.85604   0.02884326  0.028987778            9 
  824000   0.91684255    -6.949518    284.35848  0.028757937  0.028970221            7 
  825000   0.93946119   -6.9814704    285.09278   0.02879725  0.028952688            5 
  826000   0.90313055    -6.942191     285.7651  0.028830216  0.028935142            9 
  827000   0.91905314    -6.909511    285.10581   0.02872892  0.028917721            3 
  828000   0.90850391   -6.9456539    285.29178  0.028712941  0.028900296            3 
  829000   0.93841439   -6.9279413    286.17779  0.028767369  0.028882744            8 
  830000   0.92544689   -6.9378769    285.64002  0.028678717  0.028865127            7 
  831000   0.91661174   -6.9194339    285.95249  0.028675541  0.028847477            2 
  832000   0.90371327   -6.9030669    285.96353   0.02864218  0.028829971            4 
  833000   0.91502771   -6.9618526    286.25659  0.028637114  0.028812179            3 
  834000   0.92832762   -6.9329596    286.22646  0.028599767  0.028794442            2 
  835000   0.90562647   -6.9342224    286.40003  0.028582837  0.028776959            7 
  836000   0.92054949   -6.9251818    286.70648  0.028579194   0.02875936            2 
  837000   0.93220047   -6.9224341    287.27092  0.028601246  0.028742151            6 
  838000   0.93504939    -6.942161    287.11196  0.028551309  0.028724613            2 
  839000   0.92230725   -6.9641375    288.16742  0.028622111  0.028707272           10 
  840000   0.90778594   -6.9483292    288.31146  0.028602328   0.02868969            6 
  841000   0.92839082   -6.9393005    288.48454  0.028585468  0.028672195            3 
  842000   0.91517625   -6.9592712    287.36986  0.028441197  0.028654775            6 
  843000   0.92345739   -6.9455431    288.71859  0.028540786  0.028637331            6 
  844000   0.91985343   -6.9449441    288.53353  0.028488697  0.028619964            5 
  845000   0.91967396   -6.9383218    288.56852  0.028458434  0.028602745            4 
  846000   0.92541301   -6.9526639    288.66743  0.028434538  0.028585467            4 
  847000   0.89743055   -6.9256477    288.53612  0.028388048  0.028568021            4 
  848000   0.91398497   -6.9593427    289.00778  0.028400922  0.028550529            5 
  849000   0.92624261   -6.9274346    288.97629  0.028364378  0.028533073            3 
  850000   0.92503827    -6.968784    289.21424  0.028354338  0.028515702           10 
  851000   0.90217303   -6.9647348    288.54734  0.028255713  0.028498291            3 
  852000   0.90448051   -6.9622118    290.01979  0.028366568  0.028480853            5 
  853000   0.90043312   -6.9282479    289.90037  0.028321646   0.02846354            7 
  854000   0.91975718   -6.9503332     289.9375  0.028292105  0.028446214            3 
  855000   0.89884485   -6.9472057    290.10495  0.028275337  0.028428951            5 
  856000   0.91850546   -6.9647956    290.31646  0.028262895  0.028411538            4 
  857000   0.91294482   -6.9241682    290.51149  0.028248881  0.028394446            7 
  858000   0.92773753   -6.9517576    290.88759  0.028252485  0.028377277            7 
  859000     0.902752   -6.9300248    291.14931  0.028244985   0.02835993           11 
  860000   0.90193986    -6.956616    292.00686  0.028295238  0.028342786            4 
  861000   0.92541269   -6.9733044    291.22538  0.028186738  0.028325569            4 
  862000   0.90660826   -6.9438538    291.57456  0.028187796  0.028308177            3 
  863000   0.92644779   -6.9724703    292.00026   0.02819624  0.028291036            3 
  864000   0.90259929    -6.931043    291.89841  0.028153782  0.028273725            3 
  865000    0.9087866    -6.987701    292.33497  0.028163292  0.028256555            4 
  866000   0.90829274   -6.9538836    293.51944   0.02824475  0.028239271            2 
  867000   0.91223192   -6.9839214    291.57108  0.028024902  0.028222006            3 
  868000   0.90830119   -6.9563607    292.92565  0.028122662  0.028204666            4 
  869000   0.91503006   -6.9725035    292.50069  0.028049548   0.02818747            3 
  870000   0.91248992   -7.0060131    292.44166  0.028011653  0.028169954            7 
  871000   0.91347521    -6.972113    293.43329  0.028074368  0.028152533            2 
  872000   0.89388485   -6.9712595    294.11052  0.028106892  0.028135103            3 
  873000   0.88532753   -7.0039046    293.23003  0.027990648  0.028117824            3 
  874000   0.91758879   -6.9962753     293.7166  0.028005015  0.028100468            3 
  875000   0.89853999   -6.9502257    294.02548  0.028002427  0.028083265            5 
  876000   0.89683419    -6.958405    293.35672  0.027906842  0.028066019            7 
  877000   0.93576703    -6.983136    293.19723  0.027859866  0.028048616            6 
  878000   0.89804978   -6.9755658    294.19993  0.027923303  0.028031311            5 
  879000   0.89526753   -6.9872064    294.64353  0.027933592  0.028013828            6 
  880000   0.89847613   -7.0060448    293.91643  0.027832995  0.027996226            7 
  881000   0.90406772   -6.9920452    294.00493  0.027809774  0.027978801            6 
  882000   0.89760959   -6.9846536    294.16047  0.027792939  0.027961481            8 
  883000   0.91043914   -6.9796349     294.2808   0.02777282  0.027943978            2 
  884000    0.8874356   -6.9730102    295.23349  0.027831212  0.027926689            4 
  885000    0.9078056   -6.9825331    295.82738  0.027855685  0.027909405            5 
  886000   0.94459762   -6.9692255    296.72849  0.027909001  0.027892262            7 
  887000   0.89701195   -7.0017958    295.06747  0.027721484  0.027875174            3 
  888000   0.91979096   -6.9502037    296.19613  0.027796183  0.027858089            4 
  889000   0.88853482   -7.0058721    296.38467   0.02778259  0.027840987            4 
  890000   0.89177313   -6.9401353    295.92844  0.027708655  0.027823952            2 
  891000   0.89446965   -6.9668117    295.95793  0.027680315  0.027806703           11 
  892000    0.8897156   -7.0337167    295.69242  0.027624479  0.027789318            3 
  893000   0.89765348   -6.9810067     296.4205  0.027661487  0.027771896           10 
  894000   0.91623376   -6.9887564    296.98913   0.02768355  0.027754498            6 
  895000   0.90660641   -6.9711715    297.60457  0.027709922  0.027737333            3 
  896000   0.92495755   -6.9776745    297.76039  0.027693489  0.027720343            4 
  897000   0.89723537   -6.9972302    296.89129  0.027581874  0.027703418            4 
  898000     0.888217   -6.9588097    298.13684  0.027666745  0.027686471            5 
  899000   0.88425667   -6.9851063    298.01725  0.027624884   0.02766958            5 
  900000   0.89973521   -7.0142005     298.0288  0.027595259  0.027652393            3 
  901000   0.90001448   -6.9655891    298.52941  0.027610933  0.027635359            5 
  902000   0.88203006    -7.012685    297.67094  0.027501011  0.027618139            3 
  903000   0.88486741   -7.0114444    298.50334  0.027547374  0.027600999            4 
  904000   0.88876867   -7.0262895    297.94293  0.027465241  0.027583845            4 
  905000   0.89342362   -6.9945435    298.22359  0.027460736  0.027566575            5 
  906000   0.89338161   -7.0267832    298.97482  0.027499523  0.027549444            8 
  907000   0.87015099   -7.0042189    298.07063   0.02738613     0.027532            6 
  908000   0.88737469   -6.9784595    298.62278  0.027406643  0.027514566            7 
  909000   0.88442449   -7.0060465    298.21808  0.027339391   0.02749718            4 
  910000   0.90626407   -7.0129983    299.00664   0.02738156   0.02747973            4 
  911000   0.88771402   -6.9927491    298.99123  0.027350094  0.027462424            6 
  912000   0.90049113   -7.0118094     298.9628  0.027317507  0.027445132            6 
  913000   0.91033908    -6.962952    299.45482  0.027332495  0.027427823            5 
  914000   0.91433452   -6.9859251     299.0958  0.027269858   0.02741043            6 
  915000   0.88564172   -7.0168434    299.11167    0.0272415  0.027392994            5 
  916000   0.89206676   -7.0073562    299.24239  0.027223653  0.027375427            3 
  917000   0.89527769   -6.9977821     300.2582  0.027286278  0.027358081            3 
  918000   0.88422313   -7.0150328     299.5832   0.02719528  0.027340467            3 
  919000   0.89798781   -6.9705717    300.12818  0.027215105  0.027322962            4 
  920000   0.89598932   -7.0292342    299.90927  0.027165695  0.027305536            6 
  921000   0.88975491   -7.0098052    300.12624   0.02715583  0.027288043            4 
  922000   0.87934129   -7.0206005    300.62907  0.027171825  0.027270485            9 
  923000   0.89256382   -6.9899322    301.14061  0.027188571  0.027252986            5 
  924000   0.89144624   -7.0134692    299.99135  0.027055497  0.027235255            4 
  925000   0.88895647   -7.0388409    300.16559  0.027041945  0.027217488            4 
  926000   0.87178882   -7.0383139    300.95272  0.027083578  0.027199685            2 
  927000   0.85690471     -6.98643    301.24191  0.027080359  0.027181992           10 
  928000   0.87854818   -7.0505066    300.97639  0.027027334  0.027164248            3 
  929000   0.87735529   -7.0095501     300.3297  0.026940231  0.027146469            6 
  930000   0.88562189    -6.995028    300.69169    0.0269437  0.027128704            7 
  931000   0.89380422   -7.0217343    301.18597  0.026959002  0.027110968            6 
  932000   0.88069178   -7.0168598    301.26474  0.026937119  0.027093245            6 
  933000   0.87115669   -6.9872645     300.3939  0.026830467  0.027075517            6 
  934000    0.8909117   -7.0385055    302.07876  0.026952066  0.027057756           11 
  935000    0.8742443   -7.0383616    301.33457  0.026856914  0.027039738            5 
  936000   0.86772692   -7.0066962    302.06479  0.026893233  0.027021845            9 
  937000   0.86930285   -7.0188298    302.24044  0.026880153  0.027004076            4 
  938000   0.90434975   -7.0214829    301.57958  0.026792785  0.026986302           12 
  939000   0.89016492   -7.0151573    301.93268  0.026795587  0.026968499            5 
  940000   0.88289008   -6.9898259    302.09569  0.026781532  0.026950896            4 
  941000   0.88698994   -7.0212342    302.61473  0.026799037  0.026933269            8 
  942000   0.87098361    -7.010648    302.66278  0.026774839  0.026915538            3 
  943000   0.88582989    -7.023914    303.18843  0.026792898  0.026897826            8 
  944000    0.9017822   -7.0336666    303.06879  0.026753954   0.02688017            4 
  945000   0.86781385    -7.077964    302.74132  0.026696765  0.026862464           10 
  946000   0.86230422   -7.0186484    303.56104  0.026740754  0.026844786            5 
  947000   0.88582435   -7.0517462     302.9198  0.026656089   0.02682711            6 
  948000   0.87124703   -7.0366994    303.24816  0.026656835   0.02680945            4 
  949000   0.88973354   -7.0276287    302.58135  0.026570192  0.026791738            7 
  950000   0.88043488     -7.04953    303.08842  0.026586704  0.026774088            4 
  951000   0.87852456   -7.0322099    303.69759  0.026612127  0.026756296            5 
  952000   0.88518361   -7.0314959    303.83684  0.026596362  0.026738581            3 
  953000   0.88881658   -7.0406822      303.202  0.026512941  0.026720952            5 
  954000   0.86673492   -7.0567457    303.48129  0.026509546   0.02670326            5 
  955000   0.87194038     -7.03595    303.97055  0.026524481  0.026685469            4 
  956000   0.87101609   -7.0471413    303.71872  0.026474784  0.026667728            4 
  957000   0.88016016   -7.0550774    303.84678  0.026458271   0.02664985           10 
  958000   0.87918581   -7.0636614    303.86509  0.026432245   0.02663178            5 
  959000   0.87428792   -7.0628285    304.54941  0.026464147  0.026613832            5 
  960000   0.84867385   -7.0186266    304.45763  0.026428614  0.026595947            5 
  961000   0.86812467   -7.0478008    304.90488  0.026439896  0.026578205            7 
  962000   0.87302273   -7.0777381     304.4722   0.02637493  0.026560416            5 
  963000   0.86164056   -6.9943251    305.35727  0.026424132  0.026542788            3 
  964000   0.87608229   -7.0508015    305.63456  0.026420691  0.026525146            5 
  965000   0.86354127   -7.0626636     305.9912   0.02642411  0.026507461            3 
  966000   0.85977884   -7.0188258     305.8716  0.026386439  0.026489903            6 
  967000    0.8629235   -7.0727136    305.30132  0.026310007  0.026472431            6 
  968000   0.86191862   -7.0479433    306.50345  0.026386316  0.026454912           12 
  969000     0.873939   -7.0410821    306.70694  0.026376586  0.026437504            5 
  970000    0.8836808   -7.0483562    307.17252  0.026389391  0.026420297            4 
  971000   0.86474506   -7.0799629    307.13509  0.026359002  0.026403099            2 
  972000   0.86090636   -7.0675048    306.43191  0.026271597  0.026385988            7 
  973000   0.86436806   -7.0725284    306.90918  0.026285473  0.026368719           11 
  974000   0.86273181   -7.0549762    307.85747   0.02633962  0.026351468           11 
  975000   0.85283302   -7.0384161    306.83721  0.026225403  0.026334125            7 
  976000    0.8515705   -7.0301864    307.18497  0.026228225  0.026316842            5 
  977000   0.86306546   -7.0452195    307.06409  0.026191069  0.026299362            6 
  978000   0.86298195   -7.0793878    307.27769  0.026182489  0.026281833           10 
  979000    0.8754115   -7.0639549    307.65096  0.026187518  0.026264436            7 
  980000   0.86124357   -7.0491313    307.18253  0.026120963  0.026246899            6 
  981000   0.83318957   -7.0907574    307.54183  0.026124858  0.026229361            4 
  982000   0.85897745   -7.0516987    307.46458  0.026091699  0.026211846            7 
  983000   0.84215316   -7.0485532    307.55667  0.026072962   0.02619441            9 
  984000   0.86052687   -7.0567807    308.00232  0.026084207  0.026177097            6 
  985000   0.86257895   -7.0319205    309.36676  0.026173161  0.026159816            8 
  986000   0.86824334   -7.0603006    308.60562  0.026082287  0.026142435            4 
  987000   0.87607415    -7.058049     308.0301   0.02600727  0.026124907            4 
  988000   0.87931218   -7.0738209    308.62229  0.026030895  0.026107484            5 
  989000   0.86862682   -7.0768352    308.11539  0.025961863  0.026089919            4 
  990000    0.8649271   -7.0655801    308.05738  0.025930756  0.026072363            9 
  991000   0.84203189   -7.0687623    308.25344  0.025921076  0.026054869            8 
  992000   0.87389318   -7.0725595    308.43683  0.025910352  0.026037426            9 
  993000   0.85800017     -7.06222    309.29338  0.025956141  0.026019918            6 
  994000   0.86259432   -7.0568243    309.07614  0.025911816  0.026002384           14 
  995000    0.8666607   -7.1000801     309.5354  0.025924238  0.025984938            9 
  996000   0.86415349    -7.086921    310.00418  0.025937432  0.025967685            6 
  997000   0.86959728   -7.0873268    310.51098  0.025953776  0.025950573            7 
  998000   0.86352302   -7.0896294    309.41844  0.025836543  0.025933423            4 
  999000   0.86784003    -7.085002    310.04714  0.025863124  0.025916221            2 
 1000000   0.86590413   -7.0624886    311.15714  0.025929762  0.025899231            9 
 1001000    0.8709446   -7.1144026    310.53556  0.025852111  0.025882239            6 
 1002000     0.862362   -7.0964888    310.94418  0.025860294  0.025865171            5 
 1003000   0.87922304   -7.0663072    311.16259  0.025852658  0.025848109            6 
 1004000   0.84502366    -7.077921    310.71269  0.025789566  0.025831081            5 
 1005000   0.85204423   -7.0850805    311.42409  0.025822893  0.025813987           12 
 1006000   0.84064982   -7.0926156    310.91963  0.025755437  0.025796968            6 
 1007000   0.85472051   -7.0899463    311.04547  0.025740274  0.025779903            4 
 1008000   0.84994834   -7.0858239    310.66471   0.02568326  0.025762723            7 
 1009000   0.85008991   -7.0755279    311.47535  0.025724756  0.025745636            5 
 1010000   0.85346721    -7.088981    312.36252  0.025772485  0.025728599            9 
 1011000   0.83230462    -7.086223    311.55481  0.025680417  0.025711482            5 
 1012000   0.84433173   -7.0976131    312.25905  0.025713031  0.025694509            3 
 1013000   0.84775804   -7.0974368    311.72248  0.025643508  0.025677665            5 
 1014000   0.84710837   -7.1021486    311.97154  0.025638687  0.025660813            4 
 1015000   0.85680555   -7.0968689    313.04271  0.025701372  0.025643999            3 
 1016000   0.84586345   -7.0984703    312.35032  0.025619285   0.02562701            4 
 1017000    0.8593855   -7.0949795    312.52317  0.025608258  0.025610153            6 
 1018000   0.84823416    -7.098707    313.32988  0.025649139  0.025593305            4 
 1019000   0.85111739   -7.0821401    313.51655  0.025639233  0.025576706            6 
 1020000   0.84422957    -7.061246    313.27207  0.025594123  0.025560136            6 
 1021000   0.84350183   -7.1075883    313.92001   0.02562194  0.025543512            6 
 1022000   0.84232369   -7.0836878    312.54669   0.02548489  0.025526716            7 
 1023000   0.85816951   -7.0884778    313.33624  0.025524295  0.025509942            9 
 1024000   0.85500382   -7.0984472    313.40688  0.025505117  0.025493352           11 
 1025000   0.84914682   -7.0940275    313.62202  0.025497726  0.025476762           11 
 1026000   0.84919868   -7.0668328    314.99836  0.025584662   0.02546019            4 
 1027000   0.84348856   -7.0856341    314.62262  0.025529261   0.02544378           10 
 1028000   0.84230586   -7.0832425    315.43302  0.025570122  0.025427363            3 
 1029000   0.85488429   -7.0863863    315.01248  0.025511215  0.025410952            5 
 1030000   0.84480356   -7.0977389    314.31962   0.02543039   0.02539441            4 
 1031000   0.83841544   -7.0840153      314.707  0.025437035  0.025377887            4 
 1032000   0.83266111   -7.0965314    315.43085  0.025470838  0.025361536            4 
 1033000   0.84166402   -7.0918818    316.09598  0.025499837   0.02534524            8 
 1034000   0.82243385   -7.1230725    315.31017  0.025411845  0.025328995            7 
 1035000    0.8527031   -7.0613079    315.73966  0.025421873  0.025312652            5 
 1036000   0.83800545   -7.1177572    315.37654  0.025368126  0.025296248            6 
 1037000   0.84354365   -7.1137453    315.04574  0.025317079  0.025279668           14 
 1038000   0.84108022   -7.1084562    315.19028  0.025304294  0.025262994           24 
 1039000   0.84486123    -7.116151     315.5014  0.025304892  0.025246542            5 
 1040000   0.84385069   -7.0867581    315.56843  0.025285932  0.025230111            4 
 1041000   0.84206342   -7.0920039    316.91896  0.025369754  0.025213789            4 
 1042000   0.83250007   -7.1219976    316.34869  0.025299799  0.025197385            5 
 1043000   0.84697397   -7.1025913    316.55516  0.025292039  0.025181052           13 
 1044000   0.82444951   -7.1358494     316.6891  0.025278504  0.025164634            5 
 1045000   0.84090138   -7.0747731     316.3446  0.025226842  0.025148243            8 
 1046000   0.83879274   -7.0974099    317.12075   0.02526456  0.025131874           15 
 1047000   0.84711365   -7.0961336    316.88629  0.025221768  0.025115528            5 
 1048000   0.83151857   -7.1012361    316.97987  0.025205142  0.025099166            5 
 1049000   0.83014594   -7.1063946    316.88278  0.025173401   0.02508263            6 
 1050000   0.84458637   -7.1377365    317.02493  0.025160709  0.025066266            3 
 1051000   0.85103975   -7.1033158    317.32525  0.025160582  0.025050097            6 
 1052000   0.81748813    -7.094936    318.47924  0.025228076  0.025033746            3 
 1053000   0.84757693   -7.1426189    316.89661  0.025078871  0.025017304            4 
 1054000   0.84334023   -7.1025652    316.97166   0.02506101  0.025000698            4 
 1055000   0.82467544   -7.1059114    317.63962  0.025090017  0.024984316            4 
 1056000   0.84544949   -7.0967122    318.01136  0.025095594   0.02496805            5 
 1057000    0.8185569   -7.1120078    317.91525  0.025064274  0.024951905            3 
 1058000   0.83262464   -7.1323477    317.53378  0.025010537  0.024935677            3 
 1059000   0.83026305    -7.089369    318.86303  0.025091519  0.024919394            5 
 1060000   0.82748092   -7.1035311    318.52202  0.025041039  0.024903245            6 
 1061000   0.82562316   -7.1279472    318.18348  0.024990848    0.0248871           14 
 1062000   0.82195206   -7.1242586    318.61106  0.025000868  0.024871014            6 
 1063000   0.83894286   -7.0838414    319.33512  0.025034111  0.024854996           12 
 1064000   0.81127029   -7.1308782      319.591  0.025030623  0.024838952            9 
 1065000    0.8320547   -7.1363667    319.28588  0.024983246  0.024822955            8 
 1066000    0.8249113   -7.1247793    318.00517  0.024859692  0.024806897            6 
 1067000    0.8301102   -7.1104786    319.93306  0.024986962  0.024790803            7 
 1068000   0.83372839   -7.1087189     319.3271  0.024916284  0.024774661            4 
 1069000   0.82931992   -7.1139854    319.84427  0.024933292  0.024758583           14 
 1070000   0.81652865   -7.1428057    320.26513  0.024942767  0.024742611            5 
 1071000   0.81389685    -7.121865     319.1319  0.024831302  0.024726632            4 
 1072000   0.81660679   -7.1476251    320.53597  0.024917286  0.024710599            4 
 1073000   0.81478341   -7.1049135    320.97793  0.024928389  0.024694712            6 
 1074000    0.8285261   -7.1191537    319.83294  0.024816336  0.024678749            2 
 1075000   0.80466988   -7.1433595    319.87799  0.024796743  0.024662632            3 
 1076000   0.82180518   -7.1631986     320.1172  0.024792224   0.02464659            5 
 1077000   0.81861796   -7.1401679    320.17396  0.024773596  0.024630588            3 
 1078000   0.81350063   -7.1029954    320.66683  0.024788716    0.0246147            4 
 1079000   0.80913877   -7.1476033    320.73143  0.024770731  0.024598891            2 
 1080000   0.81293174   -7.1312872    320.57019  0.024735354  0.024583023            7 
 1081000   0.81955293   -7.1491448    321.62864  0.024794067  0.024567145            6 
 1082000   0.83165255   -7.1605676    320.62041    0.0246935  0.024551292           13 
 1083000   0.82198874   -7.1735336    320.25507  0.024642588  0.024535385            7 
 1084000    0.8163269   -7.1451509    320.47037  0.024636406  0.024519447            9 
 1085000    0.8161031   -7.1870959    320.62374  0.024625479  0.024503518            5 
 1086000   0.83219342   -7.1744791    320.80939   0.02461705  0.024487485           11 
 1087000   0.82823581   -7.1843968    321.29988  0.024632006  0.024471377            7 
 1088000   0.82415971   -7.1766491     321.3833  0.024615755  0.024455341            7 
 1089000   0.81820335   -7.1269072    321.35553  0.024591026  0.024439282            4 
 1090000   0.83477904   -7.1432895    321.72101  0.024596408  0.024423285            4 
 1091000   0.82357278   -7.1406218    321.66586   0.02456965  0.024407402            7 
 1092000   0.82858355   -7.1164392    322.34857   0.02459925  0.024391489            6 
 1093000   0.81590081   -7.1415789    321.65135  0.024523586  0.024375623            6 
 1094000   0.82500582   -7.1392777    321.80982   0.02451324  0.024359744            5 
 1095000   0.81886688   -7.1425691    322.53888  0.024546338  0.024343872            8 
 1096000   0.80305695   -7.1615355    322.68518  0.024535065  0.024328017            6 
 1097000   0.82505768   -7.1223219    322.86464  0.024526333  0.024312192            6 
 1098000   0.80377115   -7.1595161    322.10608  0.024446424  0.024296351            5 
 1099000   0.80926209   -7.1704102    322.55206  0.024457997  0.024280434            7 
 1100000   0.82403808   -7.1441821    323.52556  0.024509512  0.024264709            5 
 1101000    0.7940528   -7.1660034    322.77976  0.024430802  0.024248979            3 
 1102000    0.8138307   -7.1747016    323.51456  0.024464199  0.024233192            7 
 1103000   0.82711439   -7.1900221    323.49535  0.024440568  0.024217455            6 
 1104000   0.82677598   -7.1735731    323.58367  0.024425096  0.024201718            7 
 1105000      0.81215   -7.1624015    323.20192  0.024374202  0.024186042           16 
 1106000   0.81473923    -7.158015    322.88812   0.02432852  0.024170336            6 
 1107000   0.80856805   -7.1537214    322.88781   0.02430652  0.024154689            8 
 1108000   0.78964634   -7.1881756    323.90616  0.024361173  0.024139079           12 
 1109000   0.80335684    -7.148081    324.52494  0.024385703  0.024123462            5 
 1110000   0.80747526   -7.1414646    324.65161  0.024373244  0.024107908           12 
 1111000   0.82108884   -7.1504277    324.71983  0.024356423  0.024092209            5 
 1112000   0.81961952   -7.1647673    323.41392  0.024236655  0.024076583            3 
 1113000   0.80686643   -7.1685586    323.42015  0.024215345  0.024060856            5 
 1114000   0.81010946   -7.1590703    324.07144  0.024242328  0.024045106            8 
 1115000   0.81234309   -7.1445033    323.61419  0.024186411  0.024029359            7 
 1116000   0.80169813   -7.1609009    324.53707  0.024233652  0.024013687            7 
 1117000   0.82216208   -7.1430867    324.44346  0.024204973  0.023997991            8 
 1118000   0.82021616   -7.1615156    324.16307  0.024162423  0.023982231            4 
 1119000   0.79684113   -7.1554033    324.66292  0.024178055  0.023966496            4 
 1120000   0.77812513   -7.1939276     324.4549  0.024140989  0.023950782           12 
 1121000   0.82091431    -7.153132    325.85074  0.024223218  0.023935054            2 
 1122000   0.80588625    -7.196494    324.85315  0.024127537   0.02391933            4 
 1123000   0.80387642   -7.1795408    324.97193  0.024114866   0.02390349            5 
 1124000   0.78625075   -7.1803768    325.52727  0.024134584  0.023887763            6 
 1125000   0.81957222     -7.17961    325.95353  0.024144706  0.023872019            7 
 1126000    0.7979246   -7.1623726     323.8748  0.023969419  0.023856161            5 
 1127000   0.78780004   -7.1689918    325.09694  0.024038519  0.023840404            9 
 1128000   0.77084276   -7.1841026    325.16175  0.024021997   0.02382462            7 
 1129000   0.79905695   -7.1983943    324.96294  0.023986045   0.02380879            6 
 1130000   0.80637536    -7.187931    325.32206  0.023991303  0.023793022            9 
 1131000   0.82160971   -7.2066164    325.23697  0.023963821  0.023777115           12 
 1132000   0.78263956   -7.1701198    325.63768   0.02397215  0.023761316           13 
 1133000   0.80081216   -7.1809308    325.79695  0.023962706  0.023745631           16 
 1134000   0.80258918   -7.1686153    326.33423  0.023981058  0.023729897            7 
 1135000   0.80487101    -7.204382    325.89796  0.023927897  0.023714325            5 
 1136000   0.77601985   -7.1620415    326.98287   0.02398642  0.023698741            4 
 1137000   0.79336283   -7.1518437    326.83802  0.023954707  0.023683279            4 
 1138000    0.7998821   -7.1810243    326.40959  0.023902284   0.02366775           12 
 1139000   0.81383637   -7.1929335    326.11675  0.023859873  0.023652273            9 
 1140000    0.8024333   -7.1812514    326.66501  0.023879021  0.023636678            3 
 1141000   0.79365541    -7.214873    326.70217  0.023860807  0.023621079            5 
 1142000   0.79497053   -7.1972614    326.91228  0.023855245  0.023605627            9 
 1143000   0.80069651   -7.2102282    326.57274  0.023809619   0.02359015            5 
 1144000   0.80943807   -7.2082037     327.0094  0.023820615  0.023574728           11 
 1145000   0.81292289   -7.2370194    327.08371  0.023805219  0.023559235           12 
 1146000    0.7950735   -7.2176046    327.08138  0.023784277  0.023543695            5 
 1147000   0.79382988   -7.2190226     326.8355  0.023745677   0.02352809           12 
 1148000   0.79114599    -7.228153    327.19631  0.023751184  0.023512451           11 
 1149000   0.79603503   -7.2303417    327.02516    0.0237181  0.023496777            3 
 1150000   0.80467095   -7.2010907    326.54767  0.023662875  0.023481141            9 
 1151000   0.79792715   -7.2156158    326.62245  0.023647731  0.023465562            7 
 1152000   0.80852792    -7.243364    327.64949  0.023701497  0.023449966            8 
 1153000   0.79027088   -7.1835637    327.72653  0.023686509  0.023434347            6 
 1154000   0.77593777   -7.2191865    327.24076  0.023630904  0.023418744            7 
 1155000   0.80122807   -7.1918918    326.92299  0.023587518  0.023403163            7 
 1156000   0.78339629   -7.1773192    327.75804   0.02362731   0.02338761           14 
 1157000   0.78672256   -7.1952822    327.87936  0.023615627  0.023372173            4 
 1158000   0.79640169   -7.2206985    327.90847  0.023597328  0.023356607            6 
 1159000   0.79842796   -7.2074066    328.08714  0.023589815  0.023341107            5 
 1160000   0.79416655   -7.2441288    328.28734   0.02358386  0.023325666            5 
 1161000   0.78383185   -7.2135806    328.96648  0.023612294  0.023310215            4 
 1162000   0.77317545   -7.2169461    327.93059  0.023517684    0.0232948            5 
 1163000   0.79669157    -7.229089    327.78024   0.02348669  0.023279325           15 
 1164000   0.79019333     -7.21855     328.5081  0.023518621  0.023263846            7 
 1165000   0.76455693   -7.2056431    328.47764  0.023496255  0.023248511            5 
 1166000   0.77096192    -7.215408    328.54401  0.023480847  0.023233121            9 
 1167000    0.7925027   -7.2127858    329.35812  0.023518861  0.023217693            4 
 1168000   0.78791639   -7.2175874    328.93929  0.023468842  0.023202356            3 
 1169000   0.79815763   -7.1943074    329.64445  0.023499034  0.023187054            4 
 1170000   0.78254849   -7.2236143    328.70916  0.023412333  0.023171672            9 
 1171000   0.81345459   -7.1972281    329.74929   0.02346636  0.023156357            6 
 1172000   0.79231086   -7.2131476    329.34601  0.023417663  0.023140982            5 
 1173000   0.77268688   -7.2295212    329.86135   0.02343431  0.023125722            9 
 1174000   0.79606607   -7.2433868    330.03474  0.023426657  0.023110305            7 
 1175000   0.77808895   -7.2413053    329.32368  0.023356289  0.023094883            9 
 1176000   0.79270032   -7.2567545    329.24878  0.023331121  0.023079435           12 
 1177000   0.76926046   -7.2055005    329.69064  0.023342583  0.023064037            6 
 1178000   0.77302631   -7.2307951    329.41739  0.023303437  0.023048565            5 
 1179000   0.77454931   -7.2353494    329.74229  0.023306637  0.023033059            9 
 1180000   0.79599389   -7.2137653    329.90716  0.023298528  0.023017644            6 
 1181000   0.76836181    -7.227849    329.01575  0.023215901  0.023002232            7 
 1182000   0.80147812   -7.1962193    330.64489  0.023311117  0.022986894            9 
 1183000   0.78338102   -7.2394279     329.7574  0.023228896  0.022971572           17 
 1184000   0.78588974   -7.2471188    330.73692  0.023278218  0.022956194            8 
 1185000   0.78861433    -7.250226    329.92042  0.023201155  0.022940813           27 
 1186000   0.77201047   -7.2319292    330.62843   0.02323134  0.022925559            8 
 1187000   0.77059703    -7.244516     330.0415  0.023170563  0.022910282            9 
 1188000   0.77531215   -7.2222497    331.02393  0.023219972  0.022894935           10 
 1189000   0.77701359    -7.215033    331.06381  0.023203239  0.022879696           10 
 1190000   0.78366056   -7.2090441    331.24979  0.023196764  0.022864461           11 
 1191000   0.77760774   -7.2225945    331.14113  0.023169684  0.022849266            5 
 1192000   0.79074825   -7.2155153     331.0308  0.023142534  0.022834093            9 
 1193000   0.78006456   -7.2029779     331.2284  0.023136938   0.02281881            9 
 1194000   0.78870991    -7.233472    331.43731  0.023132141  0.022803542            4 
 1195000   0.77274653    -7.247296    330.96156  0.023079607  0.022788281            8 
 1196000   0.77386392   -7.2462441    332.02391   0.02313433  0.022773056            6 
 1197000   0.76642975     -7.24156    331.04501  0.023046854  0.022757964            6 
 1198000   0.77767861   -7.2518197    331.75322  0.023076879  0.022742843           11 
 1199000    0.7744184   -7.2398154    331.28239  0.023024909  0.022727715           12 
 1200000   0.77266321   -7.2610988    330.95292  0.022982842   0.02271257           13 
 1201000   0.76463265   -7.2387261    331.31999  0.022989175  0.022697366            7 
 1202000   0.78933532   -7.2636182    331.60086  0.022989522  0.022682174            4 
 1203000   0.77726641   -7.2364949    332.34314   0.02302183  0.022667008            6 
 1204000   0.77499174   -7.2595858    331.23337  0.022925897  0.022651811            5 
 1205000   0.77992133   -7.2248123    331.65529  0.022936051  0.022636493            7 
 1206000   0.76543456   -7.2526151    331.95707  0.022937885  0.022621199           11 
 1207000   0.76288244   -7.2844819    330.47011  0.022816218  0.022605891            7 
 1208000    0.7739626   -7.2706737    331.58023  0.022873912  0.022590567            8 
 1209000   0.76938302   -7.2753498    332.22058   0.02289913   0.02257533            7 
 1210000   0.77065516   -7.2698525    332.13846   0.02287455  0.022560106            8 
 1211000   0.75498007   -7.2799565    332.48067  0.022879209  0.022544917           17 
 1212000   0.76958204   -7.2683423    331.99309  0.022826808  0.022529657            6 
 1213000   0.76564598   -7.2737362    332.46029  0.022840086  0.022514411            9 
 1214000   0.76425846   -7.2548743     331.8437  0.022778947  0.022499163            6 
 1215000   0.78061174   -7.2537444    332.76875  0.022823645  0.022483888            4 
 1216000   0.76041502   -7.2356847    332.11273  0.022759918  0.022468629            7 
 1217000   0.77146719   -7.2957795    332.05282  0.022737115   0.02245331            3 
 1218000   0.77978486   -7.2381225    331.30391  0.022667208  0.022438035            9 
 1219000   0.76893232   -7.2451338     331.7408   0.02267848  0.022422769            5 
 1220000   0.76608932   -7.2290851    332.53466  0.022714116   0.02240761           20 
 1221000   0.77166357   -7.2658694    332.24447  0.022675708  0.022392412           18 
 1222000   0.78092018   -7.2666715    331.58594  0.022612244  0.022377198            7 
 1223000   0.75543272    -7.281485    332.56657  0.022660573  0.022361958           13 
 1224000   0.78517427   -7.2594573     332.7124  0.022651988  0.022346795            9 
 1225000   0.76945222    -7.278697    332.99105  0.022652453   0.02233163           11 
 1226000   0.76788571   -7.2749325    333.06825  0.022639223  0.022316495            9 
 1227000   0.74789908   -7.2584952    332.89322  0.022608885  0.022301245            4 
 1228000   0.75722341   -7.2820101    333.16709  0.022609059   0.02228604            5 
 1229000   0.76621216    -7.243199     333.5546  0.022616938   0.02227084            7 
 1230000   0.76707199   -7.2828242    332.86616  0.022551908  0.022255618            8 
 1231000   0.76731767   -7.2346848    333.38503  0.022568713  0.022240369            4 
 1232000   0.75084696   -7.2892471    332.75794  0.022507977  0.022225131            7 
 1233000   0.74331712   -7.2803932    332.59547  0.022478742  0.022209806            4 
 1234000   0.76831564   -7.2815755    332.09513  0.022426737  0.022194502            8 
 1235000   0.76259367    -7.249624    332.46661  0.022433644  0.022179104            3 
 1236000   0.78114751   -7.2748506     332.4555  0.022414745  0.022163667           12 
 1237000   0.77217121     -7.28944    332.44608   0.02239599  0.022148237           11 
 1238000   0.75490333   -7.2895831    333.00553  0.022415558  0.022132775            5 
 1239000   0.76189114   -7.2635463    333.31428  0.022418233  0.022117351            5 
 1240000    0.7772743    -7.294254    332.73483  0.022361212  0.022101978            7 
 1241000   0.76213316   -7.2715711    333.28305  0.022380006  0.022086726            8 
 1242000   0.74654468   -7.2653132    333.62645  0.022385028  0.022071429            9 
 1243000   0.75713793    -7.297302    333.52422  0.022360165   0.02205609            9 
 1244000   0.74651925   -7.2804663    332.53567  0.022275969  0.022040842            8 
 1245000   0.75009799   -7.2639729    333.66769  0.022333848  0.022025634            9 
 1246000   0.76447444   -7.2941713    333.52261   0.02230622  0.022010461            5 
 1247000   0.76654393   -7.2827466    333.47882  0.022285406  0.021995297            7 
 1248000   0.74649949   -7.2714256    333.31683  0.022256733   0.02198007           10 
 1249000   0.76004007   -7.2644357    333.79761  0.022270991  0.021964836            6 
 1250000   0.74950882   -7.2942843    333.42206  0.022228138  0.021949588           10 
 1251000   0.74697124   -7.2860927    333.71544  0.022229912  0.021934329           10 
 1252000    0.7597813   -7.3017031    333.96169  0.022228547  0.021919007           10 
 1253000   0.76602742   -7.2988854    333.51453  0.022181067  0.021903701            9 
 1254000   0.75669713   -7.2946699    333.59471  0.022168707  0.021888375            9 
 1255000    0.7375075   -7.2976336    333.97324  0.022176178  0.021873017           11 
 1256000   0.77044853   -7.3208949    333.44026   0.02212316  0.021857643            7 
 1257000   0.76474401     -7.29166    333.79725  0.022129226  0.021842267            9 
 1258000   0.74574583   -7.3148227    333.66571  0.022102922  0.021826991           15 
 1259000   0.75206419   -7.3127574    333.92258  0.022102368  0.021811693            6 
 1260000   0.74278061   -7.3130371    333.81273  0.022077562  0.021796441            8 
 1261000   0.75497729   -7.3061283    333.67676  0.022051068  0.021781164            9 
 1262000    0.7456644   -7.2865071     334.3352  0.022077074  0.021766002            6 
 1263000   0.74152841    -7.286701    334.86663  0.022094657  0.021750938            5 
 1264000   0.74644067    -7.322876    333.84802  0.022010022   0.02173584            4 
 1265000   0.75673259   -7.3156338     334.6995  0.022048715  0.021720742           12 
 1266000   0.74756273   -7.3121874    334.60024  0.022024765  0.021705648            8 
 1267000   0.75793273   -7.3212622    335.17917   0.02204546   0.02169052            9 
 1268000   0.73967777   -7.3054899    334.44065  0.021979538  0.021675332            7 
 1269000   0.75191989   -7.3061308    334.52071  0.021967475   0.02166018            7 
 1270000   0.75194551   -7.3181122    335.07987  0.021986868  0.021645015            6 
 1271000   0.73139792   -7.3073273    334.73252  0.021946795  0.021629846            6 
 1272000   0.73889875   -7.2945447    334.25822  0.021898468   0.02161467            8 
 1273000   0.73902463   -7.3261642     333.6416  0.021840901  0.021599514           34 
 1274000   0.74781961   -7.3087386    335.22843  0.021927553  0.021584334           10 
 1275000   0.73482195   -7.3189061    334.09473  0.021836257  0.021569192           31 
 1276000   0.75496977   -7.2909952    335.48771  0.021910117  0.021553996           16 
 1277000    0.7314912   -7.3255355    334.46602  0.021826287  0.021538834           37 
 1278000   0.74620937   -7.3233659    334.26453   0.02179607  0.021523615           13 
 1279000   0.75768652   -7.3028307     334.3137  0.021782232  0.021508445           28 
 1280000   0.74889361   -7.3186787    334.48903   0.02177663  0.021493289           15 
 1281000   0.74529529   -7.2995046    334.79831   0.02177975  0.021478154           10 
 1282000   0.74856478    -7.287785    335.25472  0.021792429   0.02146301            6 
 1283000   0.74122804   -7.3056138    334.66568  0.021737184  0.021447894           10 
 1284000   0.75803178   -7.2960606    335.23109   0.02175695  0.021432752            9 
 1285000   0.74715122   -7.3085396    335.80487  0.021777229  0.021417674            7 
 1286000   0.73808913   -7.3117288    336.02878  0.021774804  0.021402642            8 
 1287000   0.72742883   -7.3256825     335.4678  0.021721561  0.021387517            9 
 1288000   0.75621093   -7.3352327    335.39498  0.021699986  0.021372414           13 
 1289000   0.72521711   -7.3392978    335.01458  0.021658558  0.021357244            8 
 1290000   0.73565886   -7.3279154     334.7915  0.021627358  0.021342143            6 
 1291000   0.73205179   -7.3504159    334.87097  0.021615735  0.021327082            9 
 1292000    0.7318599   -7.3147103    335.58817  0.021645264  0.021311955            5 
 1293000     0.737917   -7.3213177    335.61704  0.021630384  0.021296929            9 
 1294000   0.72703489   -7.3213676    336.27706  0.021656173  0.021281901           10 
 1295000   0.73628879   -7.3247289    336.23115  0.021636496  0.021266834            9 
 1296000   0.74419911   -7.3081916    335.03083   0.02154262  0.021251798            6 
 1297000   0.72486504   -7.3232863    336.16622   0.02159896  0.021236793            6 
 1298000   0.74000032    -7.324596    336.22191  0.021585895  0.021221743           11 
 1299000   0.73931786    -7.349511    334.75326  0.021475062  0.021206687            6 
 1300000   0.74255464   -7.3399315    335.25983  0.021491014  0.021191592           17 
 1301000   0.73038034   -7.3178915    336.03747  0.021524306  0.021176514            8 
 1302000   0.71674092   -7.3343556    335.55451  0.021476863  0.021161449           13 
 1303000   0.75047616   -7.3371491    335.36881  0.021448504  0.021146347            9 
 1304000   0.72982876   -7.3228883    335.44053  0.021436639  0.021131273           10 
 1305000   0.72103196   -7.3390054    335.93054  0.021451503  0.021116186           13 
 1306000   0.74052147   -7.3575833    336.19344  0.021451853  0.021101163            7 
 1307000   0.74676319   -7.3587186    335.55741  0.021394887  0.021086077           15 
 1308000   0.73016282   -7.3529253    335.50962  0.021375485  0.021070947           20 
 1309000   0.71702344   -7.3553037    335.44194  0.021354847  0.021055808           17 
 1310000   0.73739958   -7.3587923    335.95437  0.021371143  0.021040629           17 
 1311000    0.7138658   -7.3441491    335.11495  0.021301484  0.021025533           13 
 1312000   0.72295426   -7.3768468    336.10003  0.021347817  0.021010428           10 
 1313000   0.72725984   -7.3340656    335.63605   0.02130211   0.02099534            7 
 1314000   0.74120516    -7.366037    335.42034  0.021272218  0.020980282            7 
 1315000   0.72314638   -7.3577975    336.55168  0.021327736    0.0209652           10 
 1316000   0.72171427   -7.3375246    335.87097  0.021268425  0.020950192            8 
 1317000   0.72446677   -7.3455988    336.87542  0.021315833  0.020935232           19 
 1318000   0.71845724   -7.3371101    336.17767  0.021255543  0.020920257           11 
 1319000   0.74086645   -7.3585405     336.3212  0.021248496  0.020905273           11 
 1320000   0.72910015   -7.3689147    337.41794  0.021301638  0.020890374           10 
 1321000   0.73132587   -7.3303122    336.24521  0.021211532  0.020875519           28 
 1322000   0.73891067   -7.3644508    337.00267  0.021243234  0.020860705            9 
 1323000   0.72946459   -7.3500599    336.85545  0.021217904  0.020845846            5 
 1324000   0.73532879   -7.3678558    337.06564  0.021215108  0.020831103            4 
 1325000   0.72936399   -7.3365427    337.26892  0.021211882  0.020816341            8 
 1326000    0.7135699   -7.3387919     337.2568  0.021195123  0.020801609           11 
 1327000   0.73426828   -7.3503584    336.70685  0.021144615  0.020786926            7 
 1328000    0.7086512   -7.3409678    336.99565  0.021146815  0.020772222            4 
 1329000    0.7313179   -7.3486277    337.95141  0.021190833  0.020757501            8 
 1330000   0.73655543   -7.3413417    337.65985  0.021156632  0.020742814            4 
 1331000   0.72442966   -7.3499956    337.25057  0.021115112  0.020728079            5 
 1332000   0.73185697   -7.3699711    337.04934  0.021086671    0.0207133            8 
 1333000   0.72087198   -7.3609925    336.91629  0.021062534  0.020698531            9 
 1334000   0.72072502   -7.3569452    337.39961  0.021076937  0.020683752            9 
 1335000   0.70305868   -7.3491458     337.4418  0.021063783  0.020668924            9 
 1336000   0.71969601   -7.3647267    337.26905  0.021037241  0.020654148           10 
 1337000   0.73449462   -7.3408697    337.23215  0.021019207  0.020639353            7 
 1338000   0.70723128   -7.3563161    336.96911  0.020987114  0.020624603            6 
 1339000   0.71679521   -7.3558477    336.86302  0.020964838  0.020609843           11 
 1340000   0.73086902   -7.3716386     336.9455  0.020954322  0.020595033            7 
 1341000    0.7173272   -7.3435684    338.30835  0.021023388   0.02058024            9 
 1342000   0.71977372   -7.3544997    337.36873  0.020949375    0.0205655            7 
 1343000   0.72098521   -7.3404599    337.62503  0.020949679  0.020550783            8 
 1344000   0.71429685   -7.3646148    337.31598  0.020914929  0.020535988            5 
 1345000   0.72858514   -7.3641467    336.63763   0.02085735  0.020521162            4 
 1346000   0.71476495   -7.3661698    337.54818  0.020898228  0.020506382           10 
 1347000   0.71694542   -7.3772052    337.45504  0.020876951  0.020491622            7 
 1348000   0.70888255   -7.3323533    337.54703  0.020867151  0.020476834           13 
 1349000   0.71917927    -7.358808    337.37669  0.020841159  0.020462078            8 
 1350000   0.71001584   -7.3734469    337.78791  0.020851106   0.02044731           15 
 1351000   0.70857642    -7.389896    337.96396  0.020846531  0.020432563           23 
 1352000     0.723396   -7.3662194     337.6647  0.020812667  0.020417838           18 
 1353000   0.71947879   -7.3921396    337.62666  0.020794941  0.020403062           16 
 1354000   0.71484333   -7.4130138    336.64876  0.020719397  0.020388282           12 
 1355000    0.7094462   -7.3835831    337.67592  0.020767277  0.020373436            6 
 1356000   0.71130186   -7.4007742    337.35941  0.020732511  0.020358638           14 
 1357000   0.69357056   -7.4031729    337.10478  0.020701595  0.020343865            8 
 1358000   0.69581047   -7.3962066    337.60485  0.020717038  0.020329134           11 
 1359000   0.70756503   -7.3762515    337.95997  0.020723569  0.020314438            9 
 1360000   0.71323083   -7.4017459    337.81406  0.020699391  0.020299703           10 
 1361000   0.69852327   -7.4143443    337.12315  0.020641878  0.020284975           16 
 1362000   0.70285369   -7.3858349    337.80923    0.0206687   0.02027026           17 
 1363000   0.70469317   -7.3971744    338.18124   0.02067628  0.020255523            9 
 1364000   0.73370261   -7.4060683     338.0095  0.020650629  0.020240848           10 
 1365000   0.71654141   -7.3956957    337.99864  0.020634837  0.020226126           28 
 1366000   0.70030614   -7.3872376    337.79104  0.020607067  0.020211451           32 
 1367000   0.72394906   -7.3691197    338.10978  0.020611423  0.020196817           11 
 1368000   0.71288396   -7.3867863    338.39949  0.020614004  0.020182222            3 
 1369000   0.69455345   -7.4117673    337.61172  0.020550993  0.020167599            8 
 1370000   0.70663343   -7.3979374    337.69905  0.020541305  0.020152962            9 
 1371000   0.72059856   -7.4146912    337.52954  0.020516019  0.020138332           15 
 1372000   0.70670116   -7.3985512    337.47638  0.020497836  0.020123703           16 
 1373000   0.70643285   -7.4033064    338.63774  0.020553395  0.020109129           12 
 1374000   0.71898835   -7.4054358    337.38068  0.020462196  0.020094508            6 
 1375000   0.69752961   -7.4134895    338.26002  0.020500607  0.020079965            8 
 1376000   0.70938157   -7.3707084    337.60819  0.020446232  0.020065397            8 
 1377000   0.69900776   -7.3864227    338.36838  0.020477389  0.020050816            6 
 1378000   0.70138734   -7.3953077    338.21234  0.020453093  0.020036253           11 
 1379000    0.7115253   -7.4064311    339.21893  0.020499089  0.020021702           13 
 1380000   0.69703649   -7.4220009     338.2432  0.020425314   0.02000718            9 
 1381000   0.70405154   -7.3912746    338.57301  0.020430425  0.019992698           14 
 1382000   0.70634884   -7.4070075     339.5148  0.020472431  0.019978235            9 
 1383000   0.70631671   -7.3999693    339.03889  0.020428952  0.019963813           31 
 1384000   0.72224044   -7.3784379     338.8547  0.020403101  0.019949411           18 
 1385000   0.71135243   -7.4193492    338.88612   0.02039026  0.019935038           19 
 1386000   0.69019233   -7.4097548    338.40375  0.020346546  0.019920656           37 
 1387000   0.69863812   -7.3942418    339.53865  0.020400063  0.019906282           23 
 1388000   0.69584209   -7.3800142    339.40779  0.020377509  0.019891906           11 
 1389000   0.70491764   -7.3996052    338.95078   0.02033542  0.019877495           28 
 1390000   0.70759087   -7.4171238    338.64971  0.020302741  0.019863095           36 
 1391000   0.70287433   -7.4053277    339.06782  0.020313193   0.01984871           13 
 1392000   0.70522736   -7.4025213    339.42412   0.02031993  0.019834355           16 
 1393000   0.68654941   -7.4117544    339.83617  0.020329994      0.01982            5 
 1394000   0.70310444   -7.4192947    339.33683  0.020285559  0.019805685           18 
 1395000   0.69868259   -7.4196703    339.17854  0.020261562  0.019791457            7 
 1396000   0.69628763   -7.4041169    339.51737  0.020267274   0.01977713           10 
 1397000   0.68380152   -7.4145347    339.28612  0.020238972  0.019762786            5 
 1398000   0.69882403    -7.396938    339.52545   0.02023876  0.019748437            7 
 1399000   0.67697354   -7.4236235     338.9609  0.020190666  0.019734087            7 
 1400000   0.70303182   -7.4263497    339.36679  0.020200404  0.019719747            8 
 1401000   0.70932052   -7.4297664    339.35771  0.020185446  0.019705387            9 
 1402000   0.70479459   -7.4195777     339.4121  0.020174281  0.019691058            5 
 1403000   0.68374885   -7.4401621    339.70982  0.020177585  0.019676743           13 
 1404000   0.69041782   -7.4269602     339.1441  0.020129636  0.019662413            8 
 1405000   0.69380562   -7.4272898    338.62734  0.020084658  0.019648073           19 
 1406000   0.69604082    -7.425019     339.1155  0.020099307  0.019633707            8 
 1407000   0.69450761   -7.4480945    339.34561   0.02009865   0.01961932           13 
 1408000    0.6935427   -7.4403094    338.62735  0.020041865  0.019604928           10 
 1409000   0.68032216   -7.4496944    338.70765   0.02003239  0.019590548           11 
 1410000   0.69224206   -7.4140959    338.72821  0.020019398  0.019576191           42 
 1411000   0.68927944    -7.439949    338.69583  0.020003297  0.019561827            7 
 1412000   0.70733818   -7.4371175    339.20075   0.02001893  0.019547527            8 
 1413000   0.69210943   -7.4232118    338.95609  0.019990333  0.019533241            7 
 1414000   0.68674756   -7.4317692    339.21979  0.019991736  0.019518965            8 
 1415000   0.68128354   -7.4584238    339.43963  0.019990555   0.01950466            4 
 1416000   0.68118265   -7.4385376    339.39665  0.019973908  0.019490392            7 
 1417000   0.71032332   -7.3998166     340.1518  0.020004223  0.019476168            9 
 1418000   0.70408168   -7.4155423    339.53988  0.019954154  0.019461948            4 
 1419000   0.68562595    -7.439359     339.2317  0.019921993  0.019447695           10 
 1420000   0.69017837   -7.4430307    339.51493  0.019924585  0.019433437            6 
 1421000   0.68884455   -7.4248438    339.02936  0.019882088  0.019419148           10 
 1422000   0.69289328   -7.4498796    339.52935  0.019897407  0.019404867           17 
 1423000   0.68178308   -7.4435995    339.08886  0.019857628    0.0193906           14 
 1424000   0.68545423   -7.4345195    339.17229  0.019848565  0.019376368           15 
 1425000   0.69138549   -7.4446945    338.93704   0.01982088  0.019362101           15 
 1426000   0.69296929   -7.4496791    339.74655  0.019854286  0.019347814           20 
 1427000   0.68595845   -7.4450922    338.98298  0.019795783   0.01933357           24 
 1428000   0.68779495   -7.4584425    339.70192  0.019823875  0.019319336           19 
 1429000    0.6737293   -7.4389707    339.78511  0.019814853   0.01930511           16 
 1430000     0.675392   -7.4201834    339.69014  0.019795463  0.019290895           11 
 1431000   0.68379258   -7.4542446    339.86496   0.01979181  0.019276672           17 
 1432000   0.68026936    -7.415862    339.04935  0.019730526   0.01926245            6 
 1433000   0.67631053    -7.430707     339.7148  0.019755454  0.019248273           13 
 1434000   0.67636626   -7.4286141     340.0973  0.019763906  0.019234079            5 
 1435000   0.69252933   -7.4344669    339.78858  0.019732205  0.019219929            8 
 1436000   0.68809541   -7.4783618    338.87739  0.019665587  0.019205796           14 
 1437000   0.68269813   -7.4641049    339.64215  0.019696251  0.019191665           41 
 1438000   0.67628274   -7.4636192    339.75549  0.019689122  0.019177467           21 
 1439000   0.68081819   -7.4578112    339.18316  0.019642296  0.019163292           14 
 1440000   0.66117766   -7.4564317    339.65121  0.019655741   0.01914912           22 
 1441000   0.67862771   -7.4408607    339.68401  0.019643998  0.019134993           11 
 1442000   0.67584804   -7.4528277    340.24223  0.019662635   0.01912086           12 
 1443000   0.65859586   -7.4600255    340.22016  0.019647734  0.019106738           24 
 1444000   0.67027486   -7.4471814    339.84608  0.019612539  0.019092666           10 
 1445000    0.6778085   -7.4409013    338.99286  0.019549761  0.019078588           16 
 1446000   0.66859934   -7.4683253    339.94714  0.019591237  0.019064527           22 
 1447000   0.66665253   -7.4813902    339.81166  0.019569895  0.019050483           12 
 1448000   0.66254436   -7.4598714    340.07692  0.019571646  0.019036452           14 
 1449000   0.68087294   -7.4477818     340.3008  0.019571015  0.019022451            7 
 1450000   0.66986391   -7.4372299    340.50932  0.019569501   0.01900847           14 
 1451000   0.67594823   -7.4549145    339.82542  0.019516737  0.018994476            8 
 1452000   0.66926699   -7.4743875    339.50865  0.019485115  0.018980473           10 
 1453000   0.67410602   -7.4608646    340.07249  0.019504043  0.018966504           19 
 1454000   0.67293384   -7.4479942      341.018  0.019544819  0.018952551           25 
 1455000   0.67639391    -7.475379    340.37718  0.019494684  0.018938634           32 
 1456000   0.65606063   -7.4761454    340.10404  0.019465661  0.018924695           14 
 1457000     0.672882   -7.4964177    340.07648  0.019450725  0.018910812           18 
 1458000   0.65943239   -7.4578488    340.28547   0.01944933  0.018896905           14 
 1459000   0.66457683   -7.4830654    340.46291  0.019446134  0.018882964           13 
 1460000   0.66939523   -7.4693439    340.78165  0.019451007  0.018869072           10 
 1461000   0.68471192   -7.4983121    339.96961  0.019391377  0.018855231           13 
 1462000    0.6751907   -7.4664347    340.34072  0.019399266  0.018841379           12 
 1463000   0.66445251   -7.4648407    340.86853   0.01941607  0.018827551           11 
 1464000   0.66350479   -7.4662863    340.72707  0.019394756  0.018813713           10 
 1465000   0.67226907   -7.4619953    340.78865   0.01938502  0.018799883           13 
 1466000   0.67786937   -7.4706894    341.01403  0.019384608  0.018786068           15 
 1467000   0.66962613   -7.4887473    341.14477  0.019378821  0.018772283           13 
 1468000    0.6614597   -7.4804861    340.28343  0.019316725  0.018758465           22 
 1469000   0.65602464   -7.4979782    340.02416  0.019288868  0.018744642           14 
 1470000   0.66673076   -7.4913678    340.16925  0.019283971   0.01873088           10 
 1471000   0.65769332    -7.495442    340.12617  0.019268421  0.018717094           11 
 1472000   0.66125332   -7.5055355    340.49533   0.01927623  0.018703276           22 
 1473000   0.66319979    -7.487412    340.25339  0.019249456  0.018689454           12 
 1474000   0.65931149   -7.4812457    340.68964  0.019261061  0.018675662           14 
 1475000   0.65785853   -7.4579306    340.01587  0.019209936  0.018661853            9 
 1476000   0.67081619   -7.4881967    340.51384  0.019225036  0.018648059           16 
 1477000   0.65834706   -7.4800375    341.01051  0.019240042  0.018634255            6 
 1478000   0.66065815   -7.4954266     340.2317  0.019183113  0.018620423           10 
 1479000   0.66580188   -7.5197766    340.32829  0.019175585  0.018606573            9 
 1480000   0.66551011   -7.4863463    340.25735  0.019158635  0.018592738           10 
 1481000   0.65599215   -7.5073274    339.94792  0.019128287  0.018578907           20 
 1482000   0.66189145   -7.5058638     340.0335  0.019120192   0.01856503           13 
 1483000   0.65744268   -7.4965178    339.67129  0.019086946  0.018551166            7 
 1484000   0.65837553   -7.4904574    340.64732  0.019128893  0.018537305            7 
 1485000   0.66933183   -7.4960897    340.48092  0.019106673  0.018523442           19 
 1486000   0.66772173   -7.4793568     339.4326  0.019035027  0.018509618           20 
 1487000    0.6444366    -7.506471    340.51052  0.019082634  0.018495782           22 
 1488000   0.66018087   -7.5091477    340.73323  0.019082282  0.018481932           15 
 1489000   0.65326825   -7.5101283    340.29268  0.019044811  0.018468079           16 
 1490000    0.6579638   -7.4757392    340.24679  0.019029463   0.01845428           13 
 1491000   0.65102149   -7.4820704    340.27888  0.019018493  0.018440496           16 
 1492000   0.66412781   -7.4948405    339.69761   0.01897328   0.01842667           16 
 1493000   0.66238796   -7.5023914    340.03859  0.018979604   0.01841288           15 
 1494000   0.65847354   -7.5081788    340.60215  0.018998335  0.018399091           14 
 1495000   0.65601835    -7.494553    340.72238  0.018992329   0.01838529           17 
 1496000   0.66389648   -7.5029109    340.22842  0.018952118  0.018371492           24 
 1497000   0.65769723   -7.5088813    340.55413  0.018957589  0.018357705           22 
 1498000   0.65251459    -7.486194    339.99945  0.018914077  0.018343896           22 
 1499000    0.6542813   -7.5059751    339.60742  0.018879666  0.018330141           19 
 1500000   0.65597933   -7.5108404    340.27157  0.018903976  0.018316402           20 
 1501000    0.6449823   -7.5338274    339.98167  0.018875287  0.018302594           30 
 1502000   0.63989556   -7.5116594     340.0848  0.018868442  0.018288805           47 
 1503000   0.64003598   -7.5279138    340.28616  0.018867052  0.018275047           24 
 1504000   0.64770075    -7.515776     339.7476  0.018824668  0.018261309           16 
 1505000    0.6516916   -7.5219053    340.44857  0.018850973  0.018247573           26 
 1506000   0.65405645   -7.5209262    339.75426  0.018800036   0.01823386           45 
 1507000   0.66287162   -7.5268273    340.08474  0.018805836  0.018220117           15 
 1508000   0.64147961   -7.5203049    340.26851   0.01880352  0.018206383           10 
 1509000   0.65268527    -7.513632    340.13962  0.018783942  0.018192665           24 
 1510000   0.64384716   -7.5128345    340.75171  0.018805282  0.018178938           26 
 1511000   0.63817909   -7.5355061    339.39405   0.01871796  0.018165179           15 
 1512000    0.6599122   -7.4983099    340.35306  0.018758436   0.01815141           15 
 1513000   0.66559675   -7.5181427      339.698  0.018709958  0.018137719           22 
 1514000   0.64073803   -7.4927551    339.85347  0.018706158  0.018124024           28 
 1515000   0.64456819    -7.531409     339.3547  0.018666375  0.018110328           29 
 1516000   0.64400791   -7.5424231     339.8972  0.018683883  0.018096589           15 
 1517000   0.65071844   -7.5299809    339.57182  0.018653693  0.018082856           27 
 1518000   0.64276733    -7.542103    339.35827  0.018629681  0.018069102            9 
 1519000    0.6376725   -7.5171413    340.16487  0.018661667  0.018055378           14 
 1520000   0.65432491   -7.5461296    339.88715  0.018634164  0.018041669           19 
 1521000   0.63844324   -7.5439306     340.2015  0.018639136  0.018027981           11 
 1522000    0.6418677   -7.5369579    340.66965  0.018652522  0.018014306           12 
 1523000   0.65056261   -7.5353044    339.94105  0.018600407  0.018000683           22 
 1524000   0.64194059   -7.5442391    340.76067   0.01863302  0.017987061            9 
 1525000    0.6489934   -7.5373466    339.81705  0.018569238  0.017973414           12 
 1526000   0.65266553   -7.5306028    340.05199  0.018569899  0.017959767           21 
 1527000   0.64155904   -7.5449474    340.21811  0.018566804   0.01794615           33 
 1528000   0.64346406   -7.5289728    340.30337  0.018559302  0.017932547           12 
 1529000   0.65699555   -7.5445503    340.59513  0.018563066  0.017918966           14 
 1530000   0.64139517    -7.547894    339.75634  0.018505247  0.017905401           31 
 1531000   0.63140304   -7.5375282    340.17297  0.018515838  0.017891819           24 
 1532000   0.64183299   -7.5343465    340.33397  0.018512509  0.017878255           30 
 1533000    0.6309035   -7.5165627    339.94449  0.018479261  0.017864705           22 
 1534000   0.64455145   -7.5424388    339.77173   0.01845783  0.017851149           13 
 1535000   0.62765467   -7.5429399    340.03182  0.018459925  0.017837633           12 
 1536000   0.64709457    -7.529168    340.85457  0.018492544  0.017824108           17 
 1537000   0.63329691   -7.5503488    340.19361  0.018444676  0.017810558           28 
 1538000   0.63125418   -7.5334721    340.53348  0.018451099  0.017797047           36 
 1539000   0.65029667   -7.5504859    340.76398  0.018451591  0.017783545           13 
 1540000   0.64298839   -7.5367257    339.50366   0.01837141  0.017770048           14 
 1541000   0.62602608   -7.5443961    339.79984  0.018375505  0.017756528           25 
 1542000   0.64511399    -7.543492    340.39744  0.018395884  0.017743062           14 
 1543000   0.63747135   -7.5729421    339.81777  0.018352656  0.017729568           11 
 1544000   0.63704168   -7.5484086    339.81414  0.018340573  0.017716059           24 
 1545000    0.6379945   -7.5516868    340.55527  0.018368677  0.017702638           16 
 1546000   0.64050079   -7.5438112    339.56881  0.018303623  0.017689196           16 
 1547000   0.61854763   -7.5516047    340.23579   0.01832772  0.017675779           19 
 1548000   0.64052529    -7.556493    340.19903  0.018313901  0.017662375           16 
 1549000   0.63192399   -7.5577025    340.50679  0.018318635  0.017648996           10 
 1550000    0.6463687    -7.554608    339.96588  0.018277736  0.017635592            8 
 1551000   0.64171055   -7.5489568    340.38568  0.018288506  0.017622211           11 
 1552000   0.64076423   -7.5185891     340.1981  0.018266651  0.017608809           20 
 1553000   0.62497171   -7.5668273    340.44679  0.018268233  0.017595413           14 
 1554000   0.64388989   -7.5616015    339.65458  0.018213995  0.017581993           16 
 1555000   0.63548037   -7.5597383    340.05911  0.018223961  0.017568586           10 
 1556000   0.63425928   -7.5621114    340.04315  0.018211394  0.017555162           11 
 1557000   0.63551063   -7.5553941    340.24462  0.018210481  0.017541747            9 
 1558000   0.62778925   -7.5633356    339.43637  0.018155561  0.017528336           10 
 1559000   0.63593877   -7.5838372    339.63751  0.018154667  0.017514917            9 
 1560000   0.63694018   -7.5740989    339.44086  0.018132525  0.017501511           11 
 1561000   0.62634376   -7.5657389    340.57996  0.018181719    0.0174881           19 
 1562000   0.62769986    -7.564219    339.91839  0.018134784  0.017474689           12 
 1563000   0.63553376   -7.5748127    340.09035  0.018132349  0.017461288           13 
 1564000   0.62431315   -7.5763826    339.83281  0.018107034  0.017447882           22 
 1565000   0.62296677   -7.5664985    339.49447  0.018077448  0.017434505            7 
 1566000   0.62999796   -7.5754398      340.212  0.018104087  0.017421146           12 
 1567000   0.63758756   -7.5648105    339.53603  0.018056585  0.017407785           26 
 1568000   0.62451252    -7.577108      339.611  0.018049054   0.01739442           50 
 1569000   0.63334151   -7.6006812    339.63361  0.018038752  0.017381031           19 
 1570000   0.63761272   -7.5832706    339.92697  0.018042833  0.017367656           20 
 1571000   0.63268471   -7.5604518    339.62976  0.018015582  0.017354304           33 
 1572000   0.63856947   -7.5793477     339.1379  0.017978048  0.017340926           13 
 1573000   0.63111057   -7.5690985    339.33049  0.017976822  0.017327552           14 
 1574000    0.6365069   -7.5839966    338.55671  0.017924434   0.01731418           10 
 1575000   0.62250002   -7.5887582    339.19309  0.017946725  0.017300821           16 
 1576000   0.61640062    -7.569788    339.05835  0.017928212   0.01728748           10 
 1577000   0.62811447   -7.5933489    338.86211  0.017906474  0.017274159           29 
 1578000   0.60964792    -7.574631    339.90376  0.017950135  0.017260831           39 
 1579000   0.61524332   -7.5803353    339.27473  0.017905569  0.017247509           14 
 1580000   0.62673901   -7.5953999    339.29927  0.017895531   0.01723421           12 
 1581000   0.61753564   -7.5725578    339.29725  0.017884106  0.017220944           13 
 1582000   0.62219422   -7.5806323    339.58522   0.01788797  0.017207702           18 
 1583000   0.63119844   -7.5934025    339.07921  0.017850032   0.01719446            8 
 1584000   0.60920243   -7.5655326    339.53479  0.017862731  0.017181232           20 
 1585000   0.62080947    -7.571128    339.81459  0.017866172  0.017168009           25 
 1586000   0.62524414   -7.5676794    340.08722  0.017869232  0.017154832            9 
 1587000   0.61325107   -7.5676452    339.89751  0.017848011  0.017141637           17 
 1588000   0.62536914   -7.5641777    339.98287   0.01784125  0.017128461           15 
 1589000   0.62008634   -7.5715384    340.10131  0.017836234  0.017115296           14 
 1590000   0.62535841   -7.5998364    340.14793   0.01782746   0.01710215            9 
 1591000   0.60846134   -7.5633258     339.7557   0.01779571  0.017089012           20 
 1592000   0.61524538   -7.5532268    339.98828  0.017796707  0.017075915           31 
 1593000   0.63405441   -7.5636611    340.39332  0.017806723  0.017062837           22 
 1594000   0.63300644   -7.5774295    339.55505  0.017751728  0.017049772           22 
 1595000   0.62302041   -7.5825815    340.08146  0.017768101  0.017036696           22 
 1596000   0.62528873   -7.5956362     340.5108  0.017779386  0.017023639           14 
 1597000   0.62759727   -7.5788309    340.14899  0.017749373  0.017010589           22 
 1598000   0.60649734   -7.5870649    339.83386  0.017721832  0.016997528           30 
 1599000   0.61824832   -7.5919374    340.51685  0.017746344  0.016984476           12 
 1600000   0.62173614   -7.6080462    339.90581  0.017703427  0.016971431           16 
 1601000   0.62428755   -7.5925108    339.70003  0.017681659  0.016958373           15 
 1602000   0.61244854   -7.5898331     340.0895  0.017690881  0.016945326            9 
 1603000   0.60753276   -7.5821173    339.64551  0.017656764   0.01693228           17 
 1604000   0.61706504   -7.6082746    339.83441   0.01765557  0.016919262           34 
 1605000   0.62262368   -7.6016431    339.58034  0.017631378  0.016906223           29 
 1606000   0.60847239   -7.6004164    339.64429  0.017623718  0.016893204           17 
 1607000   0.60890803   -7.6090761    340.55838  0.017660153  0.016880185           25 
 1608000    0.6081928   -7.6017731    340.02654  0.017621607  0.016867159           21 
 1609000   0.61513524   -7.6084744    340.41986  0.017631026  0.016854172           16 
 1610000    0.6056555   -7.6132839    340.24056  0.017610795  0.016841198           23 
 1611000   0.60645468   -7.6151415    340.14449  0.017594894  0.016828212           19 
 1612000   0.61275755    -7.605283    339.24749  0.017537608  0.016815221           19 
 1613000   0.62462179   -7.6344295    339.86502  0.017558639  0.016802228           22 
 1614000   0.62120489   -7.6067109    339.74511  0.017541569  0.016789255           22 
 1615000   0.60820836   -7.6172313    339.28093  0.017506756  0.016776289           17 
 1616000   0.60685317   -7.5749884    339.55457  0.017510034  0.016763354           23 
 1617000   0.59716144   -7.6314435    339.96118   0.01752016  0.016750427           13 
 1618000   0.61772136   -7.6010672    339.85088  0.017503651  0.016737518           11 
 1619000   0.60728825   -7.6182046    340.03828  0.017502485  0.016724648           21 
 1620000   0.60919025   -7.6270989    339.76108  0.017477422  0.016711787           15 
 1621000   0.60932327   -7.6221296    339.79256  0.017468258  0.016698915           15 
 1622000   0.59908108    -7.610557     339.5933  0.017447251   0.01668607           13 
 1623000   0.60025843   -7.6189948    340.09113  0.017462062  0.016673205           14 
 1624000   0.60096809   -7.6128257    340.55472  0.017475098  0.016660391           10 
 1625000   0.61298597   -7.6041713    339.45887  0.017408147  0.016647535           13 
 1626000   0.60360677   -7.6189553    339.04645  0.017376304  0.016634676            8 
 1627000   0.61158267   -7.6103273    339.46488  0.017387056  0.016621817           19 
 1628000   0.59358891   -7.5920864    339.75107  0.017391025   0.01660898           21 
 1629000   0.60948713   -7.6046225    339.60148  0.017372697   0.01659618           17 
 1630000   0.60800645   -7.6122607    339.75497  0.017369886  0.016583383           21 
 1631000   0.59526618   -7.6163107     340.1907  0.017381499  0.016570586            9 
 1632000   0.59135289   -7.6244774    340.21435  0.017372056  0.016557796           10 
 1633000    0.6092323   -7.6232378    340.64158   0.01738322  0.016545015            9 
 1634000   0.60795736   -7.6350005    339.98579  0.017339137  0.016532228           17 
 1635000   0.60660511   -7.5900482    340.00844  0.017329686  0.016519438           23 
 1636000   0.60594834   -7.6250261    339.64122  0.017300388  0.016506683            9 
 1637000   0.58349229    -7.638585    339.30652  0.017272782  0.016493934           19 
 1638000   0.60792585   -7.6153943     339.4243  0.017268229  0.016481154            9 
 1639000   0.59927857   -7.6371617    339.37228  0.017255048  0.016468395           24 
 1640000   0.59341539   -7.6522986    339.61165  0.017256689  0.016455618           10 
 1641000    0.6023352   -7.6311188    339.26722  0.017228683  0.016442862           13 
 1642000   0.59385063   -7.6288648      339.667   0.01723848  0.016430117           28 
 1643000    0.6051549   -7.6210706    339.04059  0.017196216   0.01641739           22 
 1644000   0.59348221   -7.6266601    339.47923   0.01720799    0.0164047           22 
 1645000    0.6004458   -7.6469795    339.54341  0.017200781  0.016391997           15 
 1646000   0.59569044   -7.6443883    339.67048  0.017196764   0.01637933           12 
 1647000    0.5871665   -7.6255693    339.60499  0.017183009  0.016366652           14 
 1648000   0.59573721   -7.6308469    339.70971  0.017177878  0.016354001           18 
 1649000   0.59606706   -7.6527108    339.25626  0.017144545  0.016341338           18 
 1650000   0.57840916   -7.6345788    339.57273  0.017150138  0.016328674           17 
 1651000    0.5951697    -7.643799    339.51716  0.017136945   0.01631605           25 
 1652000   0.60385748   -7.6381089    339.69777  0.017135682  0.016303403           15 
 1653000   0.58868236   -7.6247642    339.64673  0.017122743  0.016290749           20 
 1654000    0.5934107   -7.6598459    339.34727  0.017097303  0.016278124           14 
 1655000   0.59795159   -7.6471987    339.20692  0.017079905  0.016265494           15 
 1656000   0.59815555   -7.6479197    339.45903  0.017082278  0.016252874           17 
 1657000   0.58773492   -7.6302228    339.93328   0.01709582  0.016240266           16 
 1658000   0.59982604   -7.6409893    339.81763  0.017079696  0.016227683           16 
 1659000   0.58304674   -7.6438753    339.69038  0.017063009  0.016215084           15 
 1660000    0.5896328   -7.6600779     339.7301  0.017054724   0.01620251           36 
 1661000   0.58500393   -7.6643022    339.33821  0.017024795  0.016189966           19 
 1662000   0.59222472   -7.6465516    339.19535  0.017007388  0.016177414           24 
 1663000   0.59674695   -7.6335831     339.9479  0.017034872  0.016164893           16 
 1664000   0.58708776   -7.6501815    339.90272  0.017022372  0.016152368           21 
 1665000     0.589751   -7.6485611    339.40407  0.016987191  0.016139843           22 
 1666000   0.58499631   -7.6539031    339.23364  0.016968469  0.016127338           16 
 1667000   0.59756289    -7.633712    339.75153   0.01698418  0.016114857           14 
 1668000   0.58331734   -7.6447649    339.83187  0.016978011  0.016102384           17 
 1669000   0.58515957   -7.6495299    339.18316  0.016935448  0.016089893           15 
 1670000   0.59573014   -7.6623129    339.13894  0.016923101  0.016077419           15 
 1671000   0.59115484   -7.6460481    339.57413  0.016934676  0.016064975           13 
 1672000   0.58542366   -7.6449635    339.50355   0.01692103  0.016052519           26 
 1673000   0.58003579   -7.6635161    339.44977  0.016908237  0.016040062           21 
 1674000   0.59141819   -7.6479411    339.41089  0.016896201  0.016027633           20 
 1675000   0.58841768   -7.6571976    339.45039  0.016888079  0.016015193           24 
 1676000    0.5912656   -7.6650559    339.46873  0.016878915  0.016002772           32 
 1677000   0.58188968   -7.6738781      339.248  0.016857881  0.015990363           20 
 1678000   0.56628844   -7.6464618    339.47709  0.016859212  0.015977949           22 
 1679000   0.58993355   -7.6739513    340.17685  0.016883902  0.015965557           33 
 1680000   0.58951201   -7.6611557    339.36857  0.016833759   0.01595317           37 
 1681000    0.5911585   -7.6439289     339.5507  0.016832773  0.015940786           29 
 1682000   0.56925806   -7.6723508    338.96854  0.016793923   0.01592842           27 
 1683000    0.5859128   -7.6688601    339.36269  0.016803461  0.015916057           33 
 1684000    0.5829141   -7.6732474    339.50153  0.016800353  0.015903715           22 
 1685000    0.5674621   -7.6718643    339.34063  0.016782425  0.015891378           29 
 1686000   0.57166772   -7.6489691    339.15678  0.016763384  0.015879042           24 
 1687000   0.59141976   -7.6671201    339.49153  0.016769983  0.015866721           26 
 1688000   0.57125573   -7.6765521    339.52896  0.016761896  0.015854412           41 
 1689000   0.56999507   -7.6705051    339.37708  0.016744478  0.015842119           43 
 1690000   0.57785597   -7.6688525    339.76218  0.016753559  0.015829838           46 
 1691000   0.57469202   -7.6747236    339.33381  0.016722542  0.015817565           36 
 1692000   0.58376633   -7.6891702    338.85437  0.016689045  0.015805292           47 
 1693000   0.57518238   -7.6719608    339.57929   0.01671487  0.015793055           83 
 1694000   0.57661073   -7.6881245    339.23647  0.016688138  0.015780824           37 
 1695000   0.57759318   -7.6685787    339.57415  0.016694894  0.015768587           41 
 1696000   0.57620685   -7.6488931    339.14351  0.016663891  0.015756368           61 
 1697000   0.57587158   -7.6733028    339.47733  0.016670464   0.01574416           73 
 1698000   0.57046436   -7.6680888    340.26228  0.016699169  0.015731949           42 
 1699000   0.57163725   -7.6651864    338.66627  0.016611059  0.015719744           35 
 1700000   0.57702024   -7.6687958    339.28284  0.016631512  0.015707524           26 
 1701000   0.57886227    -7.680668    338.88756  0.016602369  0.015695308           48 
 1702000    0.5771587   -7.6862003    339.16694  0.016606293  0.015683132           81 
 1703000   0.56297382   -7.6822058     338.9788  0.016587336  0.015670956           43 
 1704000   0.58787054   -7.6833292    339.28748  0.016592698    0.0156588           58 
 1705000    0.5725873   -7.6800654    339.34073  0.016585569   0.01564665           50 
 1706000   0.57910439   -7.6972028    339.64312  0.016590617  0.015634508           21 
 1707000   0.59285564   -7.6922384    339.89807  0.016593344  0.015622393           44 
 1708000   0.57929796   -7.6778344    339.45775  0.016562146  0.015610268           41 
 1709000   0.57661658   -7.7079644    339.20975  0.016540362  0.015598137           24 
 1710000   0.56346843   -7.6836708    339.05465  0.016523131  0.015586018           32 
 1711000   0.55102503    -7.675564    339.05263  0.016513376  0.015573906           23 
 1712000   0.57591268   -7.6838163    338.79647  0.016491261   0.01556179           21 
 1713000   0.55691693   -7.6895588     338.6515  0.016474581  0.015549707           34 
 1714000   0.58135899     -7.68516    338.92131  0.016478088   0.01553762           32 
 1715000   0.56580821   -7.6729439    339.41627   0.01649253  0.015525548           19 
 1716000   0.56054795   -7.6882572    339.03049  0.016464185  0.015513491           51 
 1717000    0.5643835   -7.6867442    339.33285   0.01646927  0.015501421           36 
 1718000   0.55864441   -7.6955689    339.80267  0.016482473  0.015489378           16 
 1719000   0.57356858   -7.6893406    338.67604  0.016418268  0.015477339           22 
 1720000   0.57519115   -7.6708785    339.70024  0.016458345  0.015465294           23 
 1721000   0.57068066   -7.6972133    339.37111  0.016432845  0.015453286           31 
 1722000   0.57260989   -7.7076924    338.94022  0.016402449  0.015441277           43 
 1723000   0.56340147   -7.6834766    338.90372  0.016391165  0.015429252           48 
 1724000   0.55660364   -7.6846279    339.09552  0.016390928  0.015417229           20 
 1725000    0.5590747   -7.6772321    338.50637  0.016352965  0.015405222           13 
 1726000   0.56483514   -7.7084494     339.0804  0.016371205  0.015393242           41 
 1727000   0.56430004   -7.7063524    338.46739  0.016332146  0.015381258           19 
 1728000   0.56406083   -7.7080454    339.15939  0.016356066  0.015369286           28 
 1729000   0.56287617   -7.6960183    338.96606  0.016337288  0.015357309           22 
 1730000   0.56497809   -7.7040555    339.28421   0.01634317  0.015345342           33 
 1731000   0.55416066   -7.7171941    338.93943   0.01631713  0.015333398           22 
 1732000   0.56538963   -7.7055597    338.37495   0.01628055  0.015321462           27 
 1733000   0.56724917   -7.6971893    338.78198  0.016290728  0.015309553           23 
 1734000   0.55754375   -7.6889721    339.00865  0.016292226  0.015297643           28 
 1735000   0.55077344   -7.6951249    339.28646  0.016296179  0.015285742           19 
 1736000   0.54962125   -7.7250538    339.12624  0.016279101  0.015273844           23 
 1737000   0.55167089   -7.7056369    338.76226  0.016252267  0.015261941           20 
 1738000    0.5512694   -7.7044964    338.43202  0.016227082   0.01525005           15 
 1739000   0.56484768   -7.7091175    339.06536    0.0162481  0.015238175           30 
 1740000   0.55176234    -7.725376    339.00283  0.016235768  0.015226336           28 
 1741000   0.55744753   -7.7137154    339.10172  0.016231175  0.015214494           15 
 1742000   0.56119989   -7.7182804     338.9296  0.016213624   0.01520266           21 
 1743000   0.54992218   -7.7248846    339.32957  0.016223445  0.015190821           15 
 1744000   0.55531743   -7.7332464    338.94828  0.016195923  0.015179012           24 
 1745000   0.55728432    -7.726129    338.56488  0.016168333  0.015167212           22 
 1746000   0.56055515   -7.6968034    338.37154  0.016149845  0.015155408           23 
 1747000   0.54804388   -7.6994459    338.46832  0.016145216  0.015143621           24 
 1748000   0.55245999   -7.7094072    339.02043  0.016162301  0.015131833           27 
 1749000   0.55564338   -7.7274928    338.90188  0.016147412  0.015120049           31 
 1750000    0.5576123    -7.715492    338.87348  0.016136832  0.015108263           59 
 1751000   0.54765316   -7.7354992    338.52917   0.01611123  0.015096469           30 
 1752000   0.55005501   -7.7236768    338.16135  0.016084539  0.015084679           27 
 1753000   0.55281329   -7.7207203    338.14016  0.016074356   0.01507291           17 
 1754000   0.55618211   -7.7203022    338.40857  0.016077944  0.015061177           23 
 1755000   0.55242725   -7.7268147    338.75949  0.016085446  0.015049437           31 
 1756000   0.54546868   -7.7407704    338.26885  0.016053002  0.015037717           24 
 1757000    0.5574366   -7.7253815    338.44991  0.016052452  0.015025998           37 
 1758000   0.55611083   -7.7181077    338.50324  0.016045849  0.015014287           16 
 1759000   0.55803769   -7.7397012    338.15803  0.016020373  0.015002575           30 
 1760000   0.56162801   -7.7126956    338.49719  0.016027329  0.014990886           29 
 1761000     0.556787   -7.7207049    338.88622  0.016036637  0.014979207           11 
 1762000   0.56287974   -7.7279747    338.42051   0.01600551  0.014967536           15 
 1763000   0.54881394   -7.7268143    339.53464  0.016049094  0.014955885           23 
 1764000   0.54515576   -7.7410783    338.75176  0.016003012   0.01494424           41 
 1765000   0.54347105   -7.7500712    338.34034   0.01597452   0.01493257           21 
 1766000   0.54955574   -7.7382816    338.48905  0.015972492  0.014920925           34 
 1767000   0.53136464   -7.7146244    338.72369  0.015974519  0.014909277           38 
 1768000    0.5455546   -7.7310247    338.74086  0.015966292  0.014897651           25 
 1769000   0.54057635     -7.75065    337.89291  0.015917322  0.014886032           27 
 1770000   0.55076036   -7.7330099    338.54533  0.015939045  0.014874411           46 
 1771000   0.54718439   -7.7389006    338.40381  0.015923387  0.014862803           47 
 1772000   0.54895561   -7.7441236    338.62422  0.015924766  0.014851232           35 
 1773000   0.56210851   -7.7282881     338.3437  0.015902599  0.014839648           42 
 1774000   0.55818279   -7.7599781    338.30094  0.015891626  0.014828065           29 
 1775000    0.5538894   -7.7294085    338.46695  0.015890467  0.014816493           21 
 1776000   0.53398016   -7.7549785    338.77403  0.015895929  0.014804934           28 
 1777000    0.5428788   -7.7571938    338.30092  0.015864797  0.014793383           34 
 1778000   0.55755858   -7.7453595    338.92429   0.01588509  0.014781836           23 
 1779000   0.54753119   -7.7506103    338.40097  0.015851647  0.014770297           28 
 1780000   0.55056171   -7.7685085    337.83645  0.015816313  0.014758765           28 
 1781000   0.54044791   -7.7412216    338.15988  0.015822566  0.014747249           23 
 1782000   0.54435358   -7.7318786    338.37622  0.015823804   0.01473573           20 
 1783000   0.53489267   -7.7598212    338.37257  0.015814759  0.014724229           19 
 1784000    0.5360003   -7.7491456    338.32664  0.015803748  0.014712741           26 
 1785000   0.54783609   -7.7451036     337.6751  0.015764477  0.014701256           31 
 1786000   0.53835099   -7.7380221    338.40442   0.01578968  0.014689788           24 
 1787000   0.53071033   -7.7504947    338.78183  0.015798444  0.014678325           39 
 1788000   0.53576035   -7.7472828    337.72475  0.015740341  0.014666878           28 
 1789000   0.54509959   -7.7516536    338.16358  0.015751983  0.014655453           26 
 1790000   0.54347833   -7.7446278    338.06666  0.015738671  0.014644036           37 
 1791000   0.55535594   -7.7506338    338.13919  0.015733258  0.014632624           34 
 1792000   0.52419494   -7.7452449    337.75115  0.015706434  0.014621227           34 
 1793000   0.54328782     -7.75987    338.28358   0.01572242  0.014609835           20 
 1794000   0.55260383   -7.7540321    338.32177   0.01571543  0.014598455           18 
 1795000   0.53582969   -7.7521601    338.20627  0.015701313  0.014587085           22 
 1796000   0.53476893   -7.7402872    338.92201   0.01572578  0.014575728           31 
 1797000     0.526577   -7.7417624     337.9869  0.015673664  0.014564351           29 
 1798000   0.53193312   -7.7573724    338.64849   0.01569561  0.014552979           22 
 1799000   0.53346974   -7.7560418    338.27885  0.015669763   0.01454163           21 
 1800000   0.53074215   -7.7631891    338.57465  0.015674752   0.01453029           23 
 1801000   0.52667952    -7.754981    338.09064  0.015643654  0.014518948           22 
 1802000   0.54926921   -7.7606052     337.5015  0.015607728  0.014507625           23 
 1803000    0.5278796   -7.7554739    338.56873  0.015648398  0.014496316           24 
 1804000   0.52810645   -7.7582715    338.45706  0.015634565  0.014485015           38 
 1805000   0.52079502   -7.7648537    337.61923  0.015587222  0.014473719           27 
 1806000   0.54184068   -7.7845259    338.36274  0.015612899  0.014462421           29 
 1807000   0.52646771   -7.7473506    337.75364  0.015576169  0.014451129           17 
 1808000   0.53975332   -7.7801654    338.28078   0.01559185   0.01443985           19 
 1809000   0.53467701   -7.7724699    338.49179  0.015592952   0.01442858           19 
 1810000   0.52069092   -7.7715661    337.58725  0.015542691  0.014417318           30 
 1811000   0.53278214   -7.7596166    337.59284  0.015534366  0.014406058           21 
 1812000   0.52773663   -7.7740128    337.53826  0.015523283  0.014394805           19 
 1813000   0.53754246   -7.7512088    337.47056  0.015511609  0.014383552           26 
 1814000   0.52252447   -7.7654683    338.21895  0.015537438  0.014372325           24 
 1815000   0.52602196   -7.7648405    337.69076  0.015504626  0.014361103           33 
 1816000   0.52816441    -7.769738    337.72135  0.015497492  0.014349892           16 
 1817000   0.52908283   -7.7818493    338.35224  0.015517897  0.014338704           35 
 1818000   0.52441735   -7.7718086    338.32044  0.015507904  0.014327514           28 
 1819000   0.53537364    -7.772973    336.90301  0.015434443  0.014316336           20 
 1820000   0.51719087   -7.7665972    337.45886  0.015451413  0.014305172           14 
 1821000   0.52582738   -7.7699394     337.6721  0.015452686  0.014294022           19 
 1822000   0.52121908   -7.7631514    338.01638  0.015459951  0.014282865           14 
 1823000   0.51888132    -7.786593    337.72019  0.015437931  0.014271716           33 
 1824000   0.52726213   -7.7790453    338.32881  0.015457274  0.014260568           24 
 1825000   0.52366803   -7.7626642    337.56812  0.015414069  0.014249441           15 
 1826000   0.52893879   -7.7857032    337.62587  0.015408264  0.014238327           17 
 1827000   0.52444396    -7.770792    338.17724  0.015424979  0.014227239           23 
 1828000   0.52728131   -7.7811846    337.73696   0.01539647  0.014216142           20 
 1829000   0.53239415   -7.7865298    337.07984  0.015358112  0.014205049           32 
 1830000   0.51597532   -7.7911336     337.3464  0.015361858  0.014193966           23 
 1831000   0.51128009    -7.788191    337.35177  0.015353713  0.014182879           25 
 1832000     0.520475    -7.795496    337.03735   0.01533103    0.0141718           28 
 1833000   0.51528569   -7.8062328    337.35223  0.015336981  0.014160725           20 
 1834000   0.52475548   -7.7753696    336.98399  0.015311886  0.014149661           17 
 1835000   0.52785977   -7.7743244    337.29604  0.015317713  0.014138599           22 
 1836000   0.51499254   -7.7789194     337.5178  0.015319435  0.014127558           20 
 1837000       0.5067    -7.786044    337.46784  0.015308829  0.014116519           14 
 1838000   0.51345873   -7.7889515    337.25674  0.015290929  0.014105481           20 
 1839000   0.52412101   -7.7871752    337.76442   0.01530562  0.014094459           15 
 1840000   0.52761356   -7.7737732    336.77431   0.01525246  0.014083451           19 
 1841000   0.51855887   -7.7892431    337.91707  0.015295902  0.014072454           19 
 1842000   0.51869948    -7.800108    336.85358  0.015239485   0.01406145           20 
 1843000   0.51539633   -7.8013613    337.56242  0.015263268  0.014050481           17 
 1844000   0.51062929   -7.7903025    337.60782  0.015257042  0.014039502           25 
 1845000   0.52522289   -7.7965054    337.42082  0.015240326  0.014028535           24 
 1846000   0.52425987   -7.7958962    337.30726  0.015226944   0.01401758           21 
 1847000   0.51029798   -7.7897729    336.99261  0.015204503  0.014006634           28 
 1848000   0.51331126    -7.793906    337.44694  0.015216763  0.013995702           28 
 1849000   0.51177561   -7.7842283    336.98784  0.015187842  0.013984754           29 
 1850000   0.50363369   -7.8127134    336.78878  0.015170666  0.013973824           28 
 1851000   0.50584511   -7.7988848    337.41872   0.01519083  0.013962913           19 
 1852000   0.52296922   -7.7833091    336.77626  0.015153719  0.013952012           35 
 1853000   0.51614444   -7.7917754    337.34226  0.015170996  0.013941123           18 
 1854000   0.52396274   -7.7886454    336.82882  0.015139735  0.013930242           20 
 1855000    0.5103264    -7.816224    337.52084  0.015162661  0.013919358           25 
 1856000    0.5138322   -7.7950282    336.56825  0.015111721  0.013908481           28 
 1857000    0.5219948    -7.821275    336.93526  0.015120053  0.013897633           17 
 1858000    0.5131313   -7.8113017    337.41327  0.015133355  0.013886786           13 
 1859000   0.50725085   -7.8180108    337.07377  0.015109995  0.013875941           22 
 1860000   0.51319057    -7.802197    337.87705   0.01513786  0.013865118           18 
 1861000   0.51461555   -7.7883644    336.56673  0.015071052  0.013854297           18 
 1862000   0.51348416   -7.8222305    337.35195    0.0150981  0.013843491           13 
 1863000   0.51413748   -7.8028993    337.18907   0.01508271   0.01383269           15 
 1864000    0.5087562   -7.8007011    337.47128  0.015087236  0.013821889           20 
 1865000   0.50692117   -7.8043039    337.05291  0.015060452  0.013811105           26 
 1866000   0.51614683   -7.8222177     336.8977  0.015045449  0.013800317           29 
 1867000   0.50946966   -7.8103965    336.56406  0.015022499  0.013789547           30 
 1868000   0.51556863   -7.8356406     337.1148  0.015039026  0.013778792           24 
 1869000   0.50512872   -7.8143849    337.22497  0.015035892  0.013768038           19 
 1870000   0.50417045   -7.7913787    337.19838  0.015026666  0.013757298           15 
 1871000   0.51292799   -7.8220539    337.47572  0.015030987  0.013746564           20 
 1872000   0.51788197   -7.8086335     337.1317  0.015007644  0.013735847           31 
 1873000   0.50038441   -7.8145804     337.0926  0.014997891  0.013725139           17 
 1874000   0.50821185   -7.8157501    336.81105  0.014977368  0.013714441           19 
 1875000   0.50315259   -7.8230324    336.54271  0.014957454  0.013703744           27 
 1876000    0.5123352   -7.8287971    337.12359  0.014975284  0.013693041           36 
 1877000   0.49762901   -7.8312242    336.90467  0.014957586  0.013682352           27 
 1878000   0.49722824    -7.812526    336.65143  0.014938384  0.013671671           17 
 1879000   0.51285805    -7.809929    337.17884  0.014953825   0.01366101           21 
 1880000   0.49958366   -7.8163741    336.73543  0.014926216  0.013650361           31 
 1881000   0.49269514   -7.8045062    336.71966  0.014917582   0.01363972           17 
 1882000    0.5141693   -7.8211517    336.82018  0.014914106  0.013629079           25 
 1883000   0.50698498   -7.8392233    336.80181  0.014905373   0.01361845           15 
 1884000   0.50062482   -7.7974588    336.75074  0.014895202  0.013607845           24 
 1885000   0.49988201    -7.818785    336.44704  0.014873875  0.013597252           23 
 1886000   0.48980597   -7.8092435    336.80936  0.014881997   0.01358667           18 
 1887000   0.49735404   -7.8239909    336.72559  0.014870411  0.013576092           25 
 1888000   0.49991483   -7.8123265    337.05924  0.014877261  0.013565533           23 
 1889000   0.50057975   -7.8159396    336.42516  0.014841414   0.01355499           14 
 1890000   0.50760577   -7.8377107    336.70819   0.01484604  0.013544426           18 
 1891000   0.48662299   -7.8328741    336.60649  0.014833708  0.013533883           19 
 1892000   0.50020286   -7.8185418    336.99484  0.014842972  0.013523346           20 
 1893000   0.49834291   -7.8357186     337.1095  0.014840179   0.01351282           19 
 1894000   0.48875382   -7.8348955    337.36235  0.014843469  0.013502308           48 
 1895000   0.50391129   -7.8045393    336.52396  0.014798767    0.0134918           32 
 1896000   0.49804908   -7.8237749    336.33617  0.014782708  0.013481305           15 
 1897000   0.49792819   -7.8388746    336.46077  0.014780389  0.013470813           30 
 1898000   0.48340914   -7.8293339    336.49183  0.014773965  0.013460325           14 
 1899000   0.49338529   -7.8355732    336.78417  0.014779014  0.013449842           31 
 1900000   0.49322793   -7.8114864    335.83409  0.014729565  0.013439386           13 
 1901000   0.49921612   -7.8161036    336.12189  0.014734433  0.013428933           33 
 1902000   0.48839936   -7.8077612    336.14039  0.014727497  0.013418486           23 
 1903000   0.49176741   -7.8265159     336.2656  0.014725241  0.013408045           48 
 1904000   0.49615081    -7.816304    336.38828  0.014722876  0.013397614           19 
 1905000   0.49688229   -7.8353097    336.91081  0.014738006    0.0133872           25 
 1906000   0.48427733   -7.8357683      336.688  0.014720532  0.013376786           14 
 1907000   0.50399458   -7.8218224     336.6873  0.014712782  0.013366391           31 
 1908000   0.49808189   -7.8334161    336.50222  0.014696987  0.013355993           17 
 1909000   0.47901811   -7.8183622    336.75761  0.014700437  0.013345614           21 
 1910000   0.49513615   -7.8316616      336.571  0.014684599  0.013335243           14 
 1911000   0.50084104   -7.8264327     336.2464   0.01466276  0.013324877           20 
 1912000   0.48704071   -7.8419671    336.45217  0.014664059  0.013314539           17 
 1913000   0.48929287   -7.8314001    336.58945  0.014662374  0.013304198           20 
 1914000   0.48887685   -7.8474383    336.82885  0.014665136   0.01329386           25 
 1915000   0.48213849   -7.8339223    336.09131  0.014625383  0.013283545           34 
 1916000   0.47958477   -7.8426304    336.45977  0.014633776  0.013273219           20 
 1917000   0.49416571   -7.8373061    336.26449  0.014617653  0.013262907           26 
 1918000   0.48916377   -7.8332242    336.55314  0.014622573  0.013252602           35 
 1919000   0.48036655   -7.8340827    336.18557  0.014598991  0.013242311           23 
 1920000   0.49430282    -7.843015    336.65691  0.014611845  0.013232025           23 
 1921000   0.48032625   -7.8523758    336.64724  0.014603819  0.013221745           20 
 1922000   0.48547456   -7.8457362    336.09471  0.014572265  0.013211482           28 
 1923000   0.48368189   -7.8429908    336.23475  0.014570755  0.013201224           17 
 1924000   0.49664342   -7.8484591    336.54667  0.014576692  0.013190987           18 
 1925000   0.48006561   -7.8449874    336.07483  0.014548694  0.013180757           27 
 1926000   0.48513037   -7.8331096    336.13013  0.014543533   0.01317053           33 
 1927000   0.48718689   -7.8347966    336.74577  0.014562609  0.013160314           22 
 1928000   0.48765128   -7.8591907    336.89836  0.014561651  0.013150089           16 
 1929000   0.48891205   -7.8522096    336.56779  0.014539821  0.013139899           26 
 1930000   0.47274059   -7.8478005     336.4244  0.014526097  0.013129706           24 
 1931000   0.49036283   -7.8441546    335.97257  0.014499075  0.013119536           22 
 1932000   0.47714693   -7.8453798    336.68073  0.014522116  0.013109364           28 
 1933000   0.47773568    -7.843308    336.49774  0.014506714  0.013099207           17 
 1934000   0.47576601   -7.8486249    336.55391  0.014501634  0.013089058           19 
 1935000   0.49141201   -7.8183672    335.77218  0.014460473  0.013078918           13 
 1936000   0.48315923   -7.8387676    336.40486  0.014480237   0.01306879           29 
 1937000   0.48843322   -7.8492267      336.468  0.014475478  0.013058663           18 
 1938000   0.47961551   -7.8486467    336.39314  0.014464789  0.013048549           26 
 1939000    0.4798741    -7.850327    335.94862  0.014438225  0.013038448           41 
 1940000   0.48793561   -7.8353629    336.74051  0.014464799  0.013028358           22 
 1941000   0.47429976   -7.8558481    335.96557  0.014424076  0.013018273           28 
 1942000   0.47316767   -7.8491139    336.33806  0.014432632  0.013008192           29 
 1943000   0.47901349   -7.8511802    336.50179  0.014432227  0.012998128           19 
 1944000   0.46739051   -7.8430878     335.8644  0.014397479  0.012988072           24 
 1945000   0.47466366   -7.8704943    336.06391  0.014398625  0.012978017           14 
 1946000   0.47814993   -7.8657953     336.2714  0.014400111  0.012967973           19 
 1947000   0.47477508   -7.8266444    336.22771  0.014390845  0.012957943           19 
 1948000   0.47084977   -7.8690547    336.64023  0.014401105   0.01294792           27 
 1949000   0.47333762   -7.8623302    336.19101  0.014374509  0.012937917           17 
 1950000   0.46480756   -7.8424375    336.55296  0.014382605  0.012927914           31 
 1951000   0.46791148   -7.8525184      336.644  0.014379122  0.012917926           25 
 1952000   0.47521449    -7.849748    336.08254  0.014347786  0.012907945           30 
 1953000   0.47653584   -7.8627738    336.38941  0.014353533   0.01289797           20 
 1954000   0.47892479   -7.8615064    335.97111  0.014328348  0.012888001           25 
 1955000   0.46275692   -7.8460506    336.20576  0.014331021  0.012878047           13 
 1956000   0.47142353   -7.8639099    336.75323  0.014347019  0.012868099           15 
 1957000   0.48036086   -7.8649724    336.05164  0.014309813  0.012858152           21 
 1958000   0.47051734    -7.868324    335.76534  0.014290319  0.012848217           25 
 1959000    0.4744038   -7.8584865     335.8546  0.014286822  0.012838291           14 
 1960000   0.45969585   -7.8551003    335.90068  0.014281491  0.012828383           37 
 1961000    0.4777124   -7.8555012    336.02175  0.014279354  0.012818475           24 
 1962000   0.46773381   -7.8596846    335.61167  0.014254658  0.012808581           18 
 1963000   0.46934614   -7.8663859    336.49345   0.01428483  0.012798692           24 
 1964000   0.47427727   -7.8547327    336.29363  0.014269078  0.012788814           23 
 1965000   0.46698379   -7.8656394    335.62509  0.014233464   0.01277894           17 
 1966000   0.46858743   -7.8691163    336.21794  0.014251354  0.012769071           18 
 1967000   0.46296298   -7.8672939     336.3533  0.014249843  0.012759225           17 
 1968000    0.4634168   -7.8604443     335.8358  0.014220689  0.012749377           31 
 1969000   0.47610082   -7.8585551    336.33351  0.014234531  0.012739539           20 
 1970000   0.47189804   -7.8629633    335.74622  0.014202463  0.012729708           21 
 1971000   0.47064402   -7.8786145    336.26495  0.014217189  0.012719888           30 
 1972000   0.45943634   -7.8536342    335.88888  0.014194087  0.012710085           27 
 1973000   0.46881896   -7.8735037    336.17835   0.01419912  0.012700286           19 
 1974000   0.47555508   -7.8652609    335.51625  0.014163975  0.012690502           11 
 1975000   0.47023604   -7.8769644    335.77392  0.014167676  0.012680713           22 
 1976000   0.46679298   -7.8697425    335.63004  0.014154438  0.012670933           19 
 1977000   0.46914149   -7.8718039     336.4665  0.014182537  0.012661162           33 
 1978000   0.46273327   -7.8612273    336.10838  0.014160279  0.012651399           22 
 1979000   0.46756004   -7.8685397    335.75124  0.014138085  0.012641647           28 
 1980000   0.46555585    -7.873674     336.2358  0.014151338  0.012631902           16 
 1981000   0.46022651   -7.8776975    336.05649  0.014136652  0.012622176           28 
 1982000   0.45307833   -7.8668558    335.39707  0.014101794  0.012612447           26 
 1983000    0.4599198   -7.8638901    335.73163  0.014108742  0.012602732           26 
 1984000   0.46506988   -7.8594489    335.78451  0.014103852  0.012593037           24 
 1985000   0.46296519   -7.8604073     335.6121  0.014089509  0.012583342           17 
 1986000   0.46767849   -7.8819959    335.97062  0.014097458  0.012573654           25 
 1987000   0.46068791   -7.8947207    335.71867  0.014079796  0.012563964           21 
 1988000   0.46647317   -7.8796003    335.94831   0.01408234  0.012554284           33 
 1989000   0.45923686    -7.877039    335.62841  0.014061857  0.012544619            9 
 1990000   0.45305329   -7.8950613     335.5133  0.014049971  0.012534957           27 
 1991000   0.46462951   -7.8578716    335.38632  0.014037599   0.01252531           33 
 1992000   0.45575665   -7.8745888    335.38179  0.014030363  0.012515668           15 
 1993000   0.45104934   -7.8875009    335.68601  0.014036043  0.012506035           28 
 1994000   0.44790429   -7.8790849    335.62527  0.014026466  0.012496409           33 
 1995000   0.46781946   -7.8736854    335.76662  0.014025339  0.012486805           26 
 1996000   0.45331673   -7.8860518    335.56738  0.014009994  0.012477203           30 
 1997000   0.45771887   -7.8601018    335.82151  0.014013583  0.012467609           28 
 1998000   0.45246558   -7.8788864    335.14483  0.013978346   0.01245802           24 
 1999000   0.44714444   -7.8897916    335.94497   0.01400471  0.012448439           26 
 2000000    0.4503575   -7.8947316    335.92072  0.013996696  0.012438869           29 
 2001000   0.44483252   -7.8614199    335.66194  0.013978925  0.012429297           19 
 2002000   0.44320998   -7.8879487    335.45577   0.01396336  0.012419743           16 
 2003000   0.44539421   -7.8843283     336.0475  0.013981008  0.012410197           28 
 2004000   0.44703316    -7.883133     335.5846  0.013954782  0.012400666           25 
 2005000   0.44135275   -7.8813547    335.74545  0.013954507  0.012391143           36 
 2006000   0.45208335   -7.8650453      335.616  0.013942174  0.012381625           32 
 2007000   0.45767741   -7.8747857     336.0603  0.013953675  0.012372119           24 
 2008000   0.45291643   -7.9043263    335.82419  0.013936927  0.012362619           27 
 2009000   0.45214855   -7.9042119    335.42969  0.013913626   0.01235312           28 
 2010000   0.45976499   -7.8868368    335.85424  0.013924305  0.012343624           15 
 2011000   0.44595853   -7.8971164    335.79696  0.013915008  0.012334145           25 
 2012000   0.45044877   -7.8801053    335.41574  0.013892302  0.012324687           30 
Loop time of 4394.25 on 48 procs for 2000000 steps with 4000 atoms

Performance: 78648.252 tau/day, 455.140 timesteps/s
99.4% CPU use with 48 MPI tasks x no OpenMP threads

MPI task timing breakdown:
Section |  min time  |  avg time  |  max time  |%varavg| %total
---------------------------------------------------------------
Pair    | 275.68     | 289.55     | 307.73     |  47.1 |  6.59
Neigh   | 27.677     | 28.517     | 29.361     |   7.6 |  0.65
Comm    | 243.38     | 263.34     | 277.54     |  48.8 |  5.99
Output  | 4.1082     | 4.11       | 4.1402     |   0.2 |  0.09
Modify  | 3752.2     | 3763.4     | 3777.9     |  10.4 | 85.64
Other   |            | 45.33      |            |       |  1.03

Nlocal:        83.3333 ave          89 max          75 min
Histogram: 1 0 4 3 7 12 4 7 3 7
Nghost:        1849.00 ave        1878 max        1827 min
Histogram: 5 4 2 10 8 8 5 5 0 1
Neighs:        11430.5 ave       12648 max       10048 min
Histogram: 3 0 7 4 12 3 2 9 4 4
FullNghs:      22861.6 ave       24864 max       20446 min
Histogram: 1 2 2 8 8 9 5 5 4 4

Total # of neighbors = 1097355
Ave neighs/atom = 274.33875
Neighbor list builds = 107684
Dangerous builds = 0

#clear
#
#next RN
#
#jump SELF
Total wall time: 1:13:17
